     Program PWSCF v.5.1rc2 (svn rev. 11289) starts on 17Jan2018 at  6:29:18

     Current dimensions of program PWSCF are:
     Max number of different atomic species (ntypx) = 10
     Max number of k-points (npk) =  40000
     Max angular momentum in pseudopotentials (lmaxx) =  3
     Presently stress not available with electric field

     IMPORTANT: XC functional enforced from input :
     Exchange-correlation      = BEEF-VDW ( 1  4 27 13 2)
     Any further DFT definition will be discarded
     Please, verify this is what you really want

     Subspace diagonalization in iterative solution of the eigenvalue problem:
     a serial algorithm will be used

     bravais-lattice index     =            0
     lattice parameter (alat)  =       1.8897  a.u.
     unit-cell volume          =    4481.2752 (a.u.)^3
     number of atoms/cell      =           13
     number of atomic types    =            2
     number of electrons       =       197.00
     number of Kohn-Sham states=          108
     kinetic-energy cutoff     =      36.7493  Ry
     charge density cutoff     =     367.4932  Ry
     convergence threshold     =      1.0E-05
     mixing beta               =       0.3000
     number of iterations used =           10  plain     mixing
     Exchange-correlation      = BEEF-VDW ( 1  4 27 13 2)
     nstep                     =           50

     celldm(1)=   1.889726  celldm(2)=   0.000000  celldm(3)=   0.000000
     celldm(4)=   0.000000  celldm(5)=   0.000000  celldm(6)=   0.000000

     crystal axes: (cart. coord. in units of alat)
               a(1) = (   5.587338   0.000000   0.000000 )
               a(2) = (   2.793669   4.838777   0.000000 )
               a(3) = (   0.000000   0.000000  24.562042 )

     reciprocal axes: (cart. coord. in units 2 pi/alat)
               b(1) = (  0.178976 -0.103332  0.000000 )
               b(2) = (  0.000000  0.206664  0.000000 )
               b(3) = (  0.000000  0.000000  0.040713 )

     PseudoPot. # 1 for Pt read from file:
     /afs/slac.stanford.edu/u/if/mamunm/psp/gbrv1.5pbe/Pt.UPF
     MD5 check sum: f09d6de1a584b5a045c4fc126da2d0c4
     Pseudo is Ultrasoft + core correction, Zval = 16.0
     Generated by new atomic code, or converted to UPF format
     Using radial grid of  985 points,  6 beta functions with:
                l(1) =   0
                l(2) =   0
                l(3) =   1
                l(4) =   1
                l(5) =   2
                l(6) =   2
     Q(r) pseudized with  8 coefficients,  rinner =    1.300   1.300   1.300
                                                       1.300   1.300

     PseudoPot. # 2 for N  read from file:
     /afs/slac.stanford.edu/u/if/mamunm/psp/gbrv1.5pbe/N.UPF
     MD5 check sum: 95339753478d7afb44899504a8723017
     Pseudo is Ultrasoft + core correction, Zval =  5.0
     Generated by new atomic code, or converted to UPF format
     Using radial grid of  729 points,  4 beta functions with:
                l(1) =   0
                l(2) =   0
                l(3) =   1
                l(4) =   1
     Q(r) pseudized with  8 coefficients,  rinner =    0.900   0.900   0.900

     vdW kernel table read from file vdW_kernel_table
     MD5 check sum: 095c7af220d748ca6e76c0b4c6cfb241

     atomic species   valence    mass     pseudopotential
        Pt1           16.00   195.08400     Pt( 1.00)
        N1             5.00    14.00700     N ( 1.00)

     No symmetry found

   Cartesian axes

     site n.     atom                  positions (alat units)
         1           Pt1 tau(   1) = (   1.3968345   0.8064628  10.0000000  )
         2           Pt1 tau(   2) = (   4.1905036   0.8064628  10.0000000  )
         3           Pt1 tau(   3) = (   2.7936691   3.2258512  10.0000000  )
         4           Pt1 tau(   4) = (   5.5873381   3.2258512  10.0000000  )
         5           Pt1 tau(   5) = (   5.5873381   1.6129256  12.2810212  )
         6           Pt1 tau(   6) = (   2.7936691   1.6129256  12.2810212  )
         7           Pt1 tau(   7) = (   6.9841727   4.0323140  12.2810212  )
         8           Pt1 tau(   8) = (   4.1905036   4.0323140  12.2810212  )
         9           Pt1 tau(   9) = (   0.0000000   0.0000000  14.5620425  )
        10           Pt1 tau(  10) = (   2.7936691   0.0000000  14.5620425  )
        11           Pt1 tau(  11) = (   1.3968345   2.4193884  14.5620425  )
        12           Pt1 tau(  12) = (   4.1905036   2.4193884  14.5620425  )
        13           N1  tau(  13) = (   0.0000000   0.0000000  16.6320425  )

     number of k points=    20  Fermi-Dirac smearing, width (Ry)=  0.0110
                       cart. coord. in units 2pi/alat
        k(    1) = (   0.0000000   0.0000000   0.0000000), wk =   0.0555556
        k(    2) = (   0.0000000   0.0344440   0.0000000), wk =   0.1111111
        k(    3) = (   0.0000000   0.0688879   0.0000000), wk =   0.1111111
        k(    4) = (   0.0000000  -0.1033319   0.0000000), wk =   0.0555556
        k(    5) = (   0.0298294  -0.0172220   0.0000000), wk =   0.1111111
        k(    6) = (   0.0298294   0.0172220   0.0000000), wk =   0.1111111
        k(    7) = (   0.0298294   0.0516660   0.0000000), wk =   0.1111111
        k(    8) = (   0.0298294  -0.1205539   0.0000000), wk =   0.1111111
        k(    9) = (   0.0298294  -0.0861099   0.0000000), wk =   0.1111111
        k(   10) = (   0.0298294  -0.0516660   0.0000000), wk =   0.1111111
        k(   11) = (   0.0596587  -0.0344440   0.0000000), wk =   0.1111111
        k(   12) = (   0.0596587   0.0000000   0.0000000), wk =   0.1111111
        k(   13) = (   0.0596587   0.0344440   0.0000000), wk =   0.1111111
        k(   14) = (   0.0596587  -0.1377759   0.0000000), wk =   0.1111111
        k(   15) = (   0.0596587  -0.1033319   0.0000000), wk =   0.1111111
        k(   16) = (   0.0596587  -0.0688879   0.0000000), wk =   0.1111111
        k(   17) = (  -0.0894881   0.0516660   0.0000000), wk =   0.0555556
        k(   18) = (  -0.0894881   0.0861099   0.0000000), wk =   0.1111111
        k(   19) = (  -0.0894881   0.1205539   0.0000000), wk =   0.1111111
        k(   20) = (  -0.0894881  -0.0516660   0.0000000), wk =   0.0555556

     Largest allocated arrays     est. size (Mb)     dimensions
     Largest temporary arrays     est. size (Mb)     dimensions

     Initial potential from superposition of free atoms
     Check: negative starting charge=   -2.200702

     starting charge  190.99986, renormalised to  197.00000

     negative rho (up, down):  2.270E+00 0.000E+00

     *
     * You are using vdW-DF for exchange-correlation in this calculation.
     * Please cite the following three references that made this development
     * possible:
     *
     *   M. Dion, H. Rydberg, E. Schroder, D. C. Langreth, and
     *   B. I. Lundqvist, Phys. Rev. Lett. 92, 246401 (2004).
     *
     *   T. Thonhauser, V. R. Cooper, S. Li, A. Puzder, P. Hyldgaard, and
     *   D. C. Langreth, Phys. Rev. B 76, 125112 (2007).
     *
     *   G. Roman-Perez and J. M. Soler, Phys. Rev. Lett. 103, 096102 (2009).
     *
     *
     * If you are using vdW-DF2, please also cite:
     *
     *   K. Lee, E. D. Murray, L. Kong, B. I. Lundqvist, and
     *   D. C. Langreth, Phys. Rev. B 82, 081101(R) (2010).
     *
     *
     * If you are calculating the stress with vdW-DF, please also cite:
     *
     *   R. Sabatini, E. Kucukbenli, B. Kolb, T. Thonhauser, and
     *   S. de Gironcoli, J. Phys.: Condens. Matter 24, 424209 (2012).
     *

     Carrying out vdW-DF run using the following parameters:

     Nqs =      20    Nr_points =    1024   r_max =   100.000
     q_mesh =
               0.00001000     0.04494208     0.09755937     0.15916263
               0.23128650     0.31572767     0.41458969     0.53033537
               0.66584808     0.82450364     1.01025438     1.22772762
               1.48234092     1.78043706     2.12944203     2.53805004
               3.01644009     3.57652955     4.23227104     5.00000000

     Gradients computed in reciprocal space

     Adding external electric field

     Computed dipole along edir(3) :
        Dipole               -1.2914 Ry au,         -3.2824 Debye
        Dipole field         -0.0036 Ry au

        Potential amp.        0.3278 Ry
        Total length         45.2551 bohr

     Starting wfc are  148 randomized atomic wfcs

     Self-consistent Calculation

     iteration #  1     ecut=    36.75 Ry     beta=0.30
     Davidson diagonalization with overlap
     ethr =  1.00E-02,  avg # of iterations =  4.1

[...]

     total energy              =   -2546.89204953 Ry
     Harris-Foulkes estimate   =   -2571.51085158 Ry
     estimated scf accuracy    <      52.21057892 Ry

[...]

     End of self-consistent calculation

          k = 0.0000 0.0000 0.0000 ( 16787 PWs)   bands (ev):

   -52.2132 -51.9248 -51.9248 -51.5342 -51.4848 -51.4845 -51.3858 -51.3501
   -51.3495 -51.3037 -51.2683 -51.2678 -51.2455 -51.1619 -51.1617 -51.1533
   -51.1334 -51.1330 -51.1059 -50.9945 -50.9942 -50.9208 -50.9078 -50.9074
   -50.8677 -50.8355 -50.8352 -50.8295 -50.8294 -50.7341 -50.7031 -50.7024
   -50.6971 -50.6832 -50.6826 -50.6668 -11.2296  -7.2838  -5.5757  -5.1603
    -4.8046  -4.7931  -4.7931  -4.5990  -4.5990  -4.5642  -4.1770  -4.1769
    -4.1333  -3.9863  -3.9862  -3.9319  -2.8366  -2.8365  -2.5684  -2.4604
    -2.1971  -2.1970  -2.0429  -1.9004  -1.9004  -1.8012  -1.6630  -1.6629
    -1.5116  -1.5115  -1.4287  -1.3903  -1.3903  -1.2912  -0.8112  -0.8107
    -0.4618  -0.4617   0.0477   0.0822   0.0823   0.1058   0.1148   0.1149
     0.3351   0.6499   0.6500   1.0467   1.0897   1.0899   1.2922   1.3092
     1.3096   1.3991   1.3993   1.4568   1.4569   1.6487   1.6487   1.6660
     1.8158   1.8160   2.0041   2.0446   2.0448   2.0626   2.0960   2.7881
     3.1045   3.1046   3.5552   4.5031

[...]

          k =-0.0895 0.0517 0.0000 ( 16880 PWs)   bands (ev):

[...]

     the Fermi energy is     1.5143 ev

!    total energy              =   -2568.22411074 Ry
     Harris-Foulkes estimate   =   -2568.22409813 Ry
     estimated scf accuracy    <       0.00000657 Ry

     The total energy is the sum of the following terms:

     one-electron contribution =  -20487.96171533 Ry
     hartree contribution      =   10280.97996674 Ry
     xc contribution           =    -708.57934835 Ry
     ewald contribution        =    8347.45332494 Ry
     electric field correction =       0.00025397 Ry
     smearing contrib. (-TS)   =      -0.11659271 Ry

     convergence has been achieved in  17 iterations

 BEEF-vdW xc energy contributions
           1 :   -630.742459861250
           2 :    586.906966115853
           3 :   -508.374257507915
           4 :    410.129013064244
           5 :   -308.473696288026
           6 :    216.919961941318
           7 :   -143.554768276005
           8 :    90.3626734179626
           9 :   -54.4378231719517
          10 :    30.3845103616137
          11 :   -12.8928775358287
          12 :   -1.47090263344910
          13 :    13.7330962089071
          14 :   -23.1329155184403
          15 :    28.3534332328398
          16 :   -28.7196084629500
          17 :    24.8414398136832
          18 :   -18.5138398307823
[...]

[...]

     Total force =     0.120156     Total SCF correction =     0.012688
     SCF correction compared to forces is large: reduce conv_thr to get better values

[...]

     Total force =     0.113097     Total SCF correction =     0.009771

[...]

   This run was terminated on:   8: 0:41  17Jan2018

[...]

     Program PWSCF v.5.1rc2 (svn rev. 11289) starts on 17Jan2018 at  8: 0:47

[...]

   This run was terminated on:   8:16: 7  17Jan2018

[...]

     Program PWSCF v.5.1rc2 (svn rev. 11289) starts on 17Jan2018 at  8:31:44

     Current dimensions of program PWSCF are:
     Max number of different atomic species (ntypx) = 10
     Max number of k-points (npk) =  40000
     Max angular momentum in pseudopotentials (lmaxx) =  3
     Presently stress not available with electric field

     IMPORTANT: XC functional enforced from input :
     Exchange-correlation      = BEEF-VDW ( 1  4 27 13 2)
     Any further DFT definition will be discarded
     Please, verify this is what you really want

     Subspace diagonalization in iterative solution of the eigenvalue problem:
     a serial algorithm will be used

     bravais-lattice index     =            0
     lattice parameter (alat)  =       1.8897  a.u.
     unit-cell volume          =    4481.2752 (a.u.)^3
     number of atoms/cell      =           13
     number of atomic types    =            2
     number of electrons       =       197.00
     number of Kohn-Sham states=          108
     kinetic-energy cutoff     =      36.7493  Ry
     charge density cutoff     =     367.4932  Ry
     convergence threshold     =      1.0E-05
     mixing beta               =       0.3000
     number of iterations used =           10  plain     mixing
     Exchange-correlation      = BEEF-VDW ( 1  4 27 13 2)
     nstep                     =           50

     celldm(1)=   1.889726  celldm(2)=   0.000000  celldm(3)=   0.000000
     celldm(4)=   0.000000  celldm(5)=   0.000000  celldm(6)=   0.000000

     crystal axes: (cart. coord. in units of alat)
               a(1) = (   5.587338   0.000000   0.000000 )
               a(2) = (   2.793669   4.838777   0.000000 )
               a(3) = (   0.000000   0.000000  24.562042 )

     reciprocal axes: (cart. coord. in units 2 pi/alat)
               b(1) = (  0.178976 -0.103332  0.000000 )
               b(2) = (  0.000000  0.206664  0.000000 )
               b(3) = (  0.000000  0.000000  0.040713 )

     PseudoPot. # 1 for Pt read from file:
     /afs/slac.stanford.edu/u/if/mamunm/psp/gbrv1.5pbe/Pt.UPF
     MD5 check sum: f09d6de1a584b5a045c4fc126da2d0c4
     Pseudo is Ultrasoft + core correction, Zval = 16.0
     Generated by new atomic code, or converted to UPF format
     Using radial grid of  985 points,  6 beta functions with:
                l(1) =   0
                l(2) =   0
                l(3) =   1
                l(4) =   1
                l(5) =   2
                l(6) =   2
     Q(r) pseudized with  8 coefficients,  rinner =    1.300   1.300   1.300
                                                       1.300   1.300

     PseudoPot. # 2 for N  read from file:
     /afs/slac.stanford.edu/u/if/mamunm/psp/gbrv1.5pbe/N.UPF
     MD5 check sum: 95339753478d7afb44899504a8723017
     Pseudo is Ultrasoft + core correction, Zval =  5.0
     Generated by new atomic code, or converted to UPF format
     Using radial grid of  729 points,  4 beta functions with:
                l(1) =   0
                l(2) =   0
                l(3) =   1
                l(4) =   1
     Q(r) pseudized with  8 coefficients,  rinner =    0.900   0.900   0.900

     vdW kernel table read from file vdW_kernel_table
     MD5 check sum: 095c7af220d748ca6e76c0b4c6cfb241

     atomic species   valence    mass     pseudopotential
        Pt1           16.00   195.08400     Pt( 1.00)
        N1             5.00    14.00700     N ( 1.00)

     No symmetry found

   Cartesian axes

     site n.     atom                  positions (alat units)
         1           Pt1 tau(   1) = (   1.3968345   0.8064628  10.0000000  )
         2           Pt1 tau(   2) = (   4.1905036   0.8064628  10.0000000  )
         3           Pt1 tau(   3) = (   2.7936691   3.2258512  10.0000000  )
         4           Pt1 tau(   4) = (   5.5873381   3.2258512  10.0000000  )
         5           Pt1 tau(   5) = (   5.5873381   1.6129256  12.2810212  )
         6           Pt1 tau(   6) = (   2.7936691   1.6129256  12.2810212  )
         7           Pt1 tau(   7) = (   6.9841727   4.0323140  12.2810212  )
         8           Pt1 tau(   8) = (   4.1905036   4.0323140  12.2810212  )
         9           Pt1 tau(   9) = (   2.7937278   4.8387622  14.9483806  )
        10           Pt1 tau(  10) = (   5.5871809   4.8348605  14.5824490  )
        11           Pt1 tau(  11) = (   6.9807911   2.4212851  14.5827705  )
        12           Pt1 tau(  12) = (   4.1939431   2.4214929  14.5827710  )
        13           N1  tau(  13) = (   2.7936922   4.8387455  16.6718001  )

     number of k points=    20  Fermi-Dirac smearing, width (Ry)=  0.0110
                       cart. coord. in units 2pi/alat
        k(    1) = (   0.0000000   0.0000000   0.0000000), wk =   0.0555556
        k(    2) = (   0.0000000   0.0344440   0.0000000), wk =   0.1111111
        k(    3) = (   0.0000000   0.0688879   0.0000000), wk =   0.1111111
        k(    4) = (   0.0000000  -0.1033319   0.0000000), wk =   0.0555556
        k(    5) = (   0.0298294  -0.0172220   0.0000000), wk =   0.1111111
        k(    6) = (   0.0298294   0.0172220   0.0000000), wk =   0.1111111
        k(    7) = (   0.0298294   0.0516660   0.0000000), wk =   0.1111111
        k(    8) = (   0.0298294  -0.1205539   0.0000000), wk =   0.1111111
        k(    9) = (   0.0298294  -0.0861099   0.0000000), wk =   0.1111111
        k(   10) = (   0.0298294  -0.0516660   0.0000000), wk =   0.1111111
        k(   11) = (   0.0596587  -0.0344440   0.0000000), wk =   0.1111111
        k(   12) = (   0.0596587   0.0000000   0.0000000), wk =   0.1111111
        k(   13) = (   0.0596587   0.0344440   0.0000000), wk =   0.1111111
        k(   14) = (   0.0596587  -0.1377759   0.0000000), wk =   0.1111111
        k(   15) = (   0.0596587  -0.1033319   0.0000000), wk =   0.1111111
        k(   16) = (   0.0596587  -0.0688879   0.0000000), wk =   0.1111111
        k(   17) = (  -0.0894881   0.0516660   0.0000000), wk =   0.0555556
        k(   18) = (  -0.0894881   0.0861099   0.0000000), wk =   0.1111111
        k(   19) = (  -0.0894881   0.1205539   0.0000000), wk =   0.1111111
        k(   20) = (  -0.0894881  -0.0516660   0.0000000), wk =   0.0555556

     Largest allocated arrays     est. size (Mb)     dimensions
     Largest temporary arrays     est. size (Mb)     dimensions

     Check: negative/imaginary core charge=   -0.000001    0.000000

     Initial potential from superposition of free atoms
     Check: negative starting charge=   -2.193023

     starting charge  190.99986, renormalised to  197.00000

[...]

     *
     * You are using vdW-DF for exchange-correlation in this calculation.
     * Please cite the following three references that made this development
     * possible:
     *
     *   M. Dion, H. Rydberg, E. Schroder, D. C. Langreth, and
     *   B. I. Lundqvist, Phys. Rev. Lett. 92, 246401 (2004).
     *
     *   T. Thonhauser, V. R. Cooper, S. Li, A. Puzder, P. Hyldgaard, and
     *   D. C. Langreth, Phys. Rev. B 76, 125112 (2007).
     *
     *   G. Roman-Perez and J. M. Soler, Phys. Rev. Lett. 103, 096102 (2009).
     *
     *
     * If you are using vdW-DF2, please also cite:
     *
     *   K. Lee, E. D. Murray, L. Kong, B. I. Lundqvist, and
     *   D. C. Langreth, Phys. Rev. B 82, 081101(R) (2010).
     *
     *
     * If you are calculating the stress with vdW-DF, please also cite:
     *
     *   R. Sabatini, E. Kucukbenli, B. Kolb, T. Thonhauser, and
     *   S. de Gironcoli, J. Phys.: Condens. Matter 24, 424209 (2012).
     *

     Carrying out vdW-DF run using the following parameters:

     Nqs =      20    Nr_points =    1024   r_max =   100.000
     q_mesh =
               0.00001000     0.04494208     0.09755937     0.15916263
               0.23128650     0.31572767     0.41458969     0.53033537
               0.66584808     0.82450364     1.01025438     1.22772762
               1.48234092     1.78043706     2.12944203     2.53805004
               3.01644009     3.57652955     4.23227104     5.00000000

     Gradients computed in reciprocal space

[...]

     Starting wfc are  148 randomized atomic wfcs

     Self-consistent Calculation

[...]

     total energy              =   -2568.29981275 Ry
     Harris-Foulkes estimate   =   -2568.29981618 Ry
     estimated scf accuracy    <       0.00001006 Ry

     iteration # 19     ecut=    36.75 Ry     beta=0.30
     Davidson diagonalization with overlap
     ethr =  5.10E-09,  avg # of iterations =  1.4

[...]

     negative rho (up, down):  2.107E+00 0.000E+00

     Adding external electric field

     Computed dipole along edir(3) :
        Dipole               -0.1395 Ry au,         -0.3547 Debye
        Dipole field         -0.0004 Ry au

        Potential amp.        0.0354 Ry
        Total length         45.2551 bohr

     End of self-consistent calculation

[...]

          k = 0.0597-0.0689 0.0000 ( 16875 PWs)   bands (ev):

[...]

          k =-0.0895-0.0517 0.0000 ( 16880 PWs)   bands (ev):

   -53.3633 -52.4302 -52.4254 -51.1937 -51.1928 -51.1049 -51.0881 -51.0863
   -51.0818 -51.0681 -51.0539 -51.0407 -51.0368 -50.9654 -50.9585 -50.9049
   -50.8681 -50.8619 -50.8117 -50.8026 -50.7928 -50.7716 -50.7450 -50.7334
   -50.7214 -50.7196 -50.6951 -50.6487 -50.6473 -50.5262 -50.5190 -50.5115
   -50.4919 -50.4853 -50.4795 -50.4157 -13.0533  -5.2578  -5.1840  -4.1327
    -4.0671  -4.0301  -3.8635  -3.7874  -3.5596  -3.5310  -3.4782  -3.4243
    -3.2413  -3.1492  -2.9470  -2.8516  -2.7745  -2.7291  -2.6594  -2.5674
    -2.3088  -2.3078  -2.2118  -2.1182  -2.1053  -2.0741  -1.9001  -1.6362
    -1.5604  -1.4785  -1.3161  -1.3018  -1.1938  -1.1215  -1.1206  -1.0579
    -1.0059  -0.9799  -0.9591  -0.8575  -0.8194  -0.7747  -0.4222  -0.3367
    -0.2610  -0.2142  -0.0260   0.0417   0.0429   0.1138   0.2430   0.2920
     0.3906   0.4512   0.5922   0.8963   0.9227   0.9450   1.0192   1.2181
     1.4701   1.4776   1.6866   1.7816   1.8985   1.9539   2.1010   2.5940
     3.2725   3.7084   3.9874   4.2835

     the Fermi energy is     1.6947 ev

!    total energy              =   -2568.29980989 Ry
     Harris-Foulkes estimate   =   -2568.29982379 Ry
     estimated scf accuracy    <       0.00000412 Ry

     The total energy is the sum of the following terms:

     one-electron contribution =  -20169.59967303 Ry
     hartree contribution      =   10122.56517271 Ry
     xc contribution           =    -708.62482547 Ry
     ewald contribution        =    8187.47013418 Ry
     electric field correction =       0.00005460 Ry
     smearing contrib. (-TS)   =      -0.11067287 Ry

     convergence has been achieved in  19 iterations

 BEEF-vdW xc energy contributions
           1 :   -630.784267342229
           2 :    586.917269850150
           3 :   -508.340974151251
           4 :    410.065828100360
           5 :   -308.418820269438
           6 :    216.921129620989
           7 :   -143.637095864574
           8 :    90.5000465057403
           9 :   -54.5539481572357
          10 :    30.3908678329917
          11 :   -12.7432434376860
          12 :   -1.74497956639539
          13 :    14.0294707178414
          14 :   -23.3252167343244
          15 :    28.3550931456581
          16 :   -28.5339699713400
          17 :    24.5675593204743
          18 :   -18.3006623182180
          19 :    12.0080903816757
          20 :   -7.54201358096770
          21 :    5.73281091531533
          22 :   -6.27032319494447
          23 :    8.04638293758967
          24 :   -9.75654451605533
          25 :    10.4685961609061
          26 :   -9.92565434718654
          27 :    8.50312373805286
          28 :   -6.90432118392698
          29 :    5.77199234963075
          30 :   -5.40523170662846
          31 :   -51.8522359362478
          32 :   -38.3272257155428

     Forces acting on atoms (Ry/au):

     negative rho (up, down):  2.107E+00 0.000E+00
     atom    1 type  1   force =    -0.00090177   -0.00050096   -0.01415610
     atom    2 type  1   force =     0.00090279   -0.00049022   -0.01416404
     atom    3 type  1   force =     0.00000967    0.00102190   -0.01417034
     atom    4 type  1   force =    -0.00000574   -0.00002031   -0.02568219
     atom    5 type  1   force =    -0.00000252   -0.01369912    0.02201058
     atom    6 type  1   force =     0.00000736    0.00001786    0.00639377
     atom    7 type  1   force =     0.01186411    0.00684294    0.02197899
     atom    8 type  1   force =    -0.01187538    0.00684727    0.02196067
     atom    9 type  1   force =    -0.00004944    0.00002607   -0.00006958
     atom   10 type  1   force =     0.00007709    0.00016333   -0.00124088
     atom   11 type  1   force =     0.00010214   -0.00005923   -0.00135549
     atom   12 type  1   force =    -0.00011930   -0.00015600   -0.00135215
     atom   13 type  2   force =    -0.00000901    0.00000647   -0.00015324

     Total force =     0.057652     Total SCF correction =     0.013929
     SCF correction compared to forces is large: reduce conv_thr to get better values

     entering subroutine stress ...

     negative rho (up, down):  2.107E+00 0.000E+00
          total   stress  (Ry/bohr**3)                   (kbar)     P=   -9.67
  -0.00012303   0.00000001  -0.00000001        -18.10      0.00     -0.00
   0.00000001  -0.00012304   0.00000002          0.00    -18.10      0.00
  -0.00000001   0.00000002   0.00004888         -0.00      0.00      7.19

 !ASE

     Writing output data file calc.save

     General routines

     Parallel routines

   This run was terminated on:   8:47:46  17Jan2018

   JOB DONE.
Job  /afs/slac/g/suncat/bin/suncat-tsmpirun -x LD_LIBRARY_PATH -wdir /scratch/qe842471_6s2vk pw.x -in pw.inp

TID   HOST_NAME   COMMAND_LINE            STATUS            TERMINATION_TIME
00000 suncat0264 pw.x -in pw.inp   Done                     01/17/2018 08:47:46
00001 suncat0264 pw.x -in pw.inp   Done                     01/17/2018 08:47:46
00002 suncat0264 pw.x -in pw.inp   Done                     01/17/2018 08:47:46
00003 suncat0264 pw.x -in pw.inp   Done                     01/17/2018 08:47:46
00004 suncat0264 pw.x -in pw.inp   Done                     01/17/2018 08:47:46
00005 suncat0264 pw.x -in pw.inp   Done                     01/17/2018 08:47:46
00006 suncat0264 pw.x -in pw.inp   Done                     01/17/2018 08:47:46
00007 suncat0264 pw.x -in pw.inp   Done                     01/17/2018 08:47:46
00008 suncat0259 pw.x -in pw.inp   Done                     01/17/2018 08:47:46
00009 suncat0259 pw.x -in pw.inp   Done                     01/17/2018 08:47:46
00010 suncat0259 pw.x -in pw.inp   Done                     01/17/2018 08:47:46
00011 suncat0259 pw.x -in pw.inp   Done                     01/17/2018 08:47:46
00012 suncat0259 pw.x -in pw.inp   Done                     01/17/2018 08:47:46
00013 suncat0259 pw.x -in pw.inp   Done                     01/17/2018 08:47:46
00014 suncat0259 pw.x -in pw.inp   Done                     01/17/2018 08:47:46
00015 suncat0259 pw.x -in pw.inp   Done                     01/17/2018 08:47:46
00016 suncat0258 pw.x -in pw.inp   Done                     01/17/2018 08:47:46
00017 suncat0258 pw.x -in pw.inp   Done                     01/17/2018 08:47:46
00018 suncat0258 pw.x -in pw.inp   Done                     01/17/2018 08:47:46
00019 suncat0258 pw.x -in pw.inp   Done                     01/17/2018 08:47:46
00020 suncat0258 pw.x -in pw.inp   Done                     01/17/2018 08:47:46
00021 suncat0258 pw.x -in pw.inp   Done                     01/17/2018 08:47:46
00022 suncat0258 pw.x -in pw.inp   Done                     01/17/2018 08:47:46
00023 suncat0258 pw.x -in pw.inp   Done                     01/17/2018 08:47:46
00024 suncat0256 pw.x -in pw.inp   Done                     01/17/2018 08:47:46
00025 suncat0256 pw.x -in pw.inp   Done                     01/17/2018 08:47:46
00026 suncat0256 pw.x -in pw.inp   Done                     01/17/2018 08:47:46
00027 suncat0256 pw.x -in pw.inp   Done                     01/17/2018 08:47:46
00028 suncat0256 pw.x -in pw.inp   Done                     01/17/2018 08:47:46
00029 suncat0256 pw.x -in pw.inp   Done                     01/17/2018 08:47:46
00030 suncat0256 pw.x -in pw.inp   Done                     01/17/2018 08:47:46
00031 suncat0256 pw.x -in pw.inp   Done                     01/17/2018 08:47:46