     Program PWSCF v.5.1rc2 (svn rev. 11289) starts on  3May2018 at  8:58: 3

     Current dimensions of program PWSCF are:
     Max number of different atomic species (ntypx) = 10
     Max number of k-points (npk) =  40000
     Max angular momentum in pseudopotentials (lmaxx) =  3
     Presently stress not available with electric field

     IMPORTANT: XC functional enforced from input :
     Exchange-correlation      = BEEF-VDW ( 1  4 27 13 2)
     Any further DFT definition will be discarded
     Please, verify this is what you really want

     Subspace diagonalization in iterative solution of the eigenvalue problem:
     a serial algorithm will be used

     bravais-lattice index     =            0
     lattice parameter (alat)  =       1.8897  a.u.
     unit-cell volume          =    4569.9960 (a.u.)^3
     number of atoms/cell      =           13
     number of atomic types    =            2
     number of electrons       =       198.00
     number of Kohn-Sham states=          109
     kinetic-energy cutoff     =      36.7493  Ry
     charge density cutoff     =     367.4932  Ry
     convergence threshold     =      1.0E-05
     mixing beta               =       0.3000
     number of iterations used =           10  plain     mixing
     Exchange-correlation      = BEEF-VDW ( 1  4 27 13 2)
     nstep                     =           50

     celldm(1)=   1.889726  celldm(2)=   0.000000  celldm(3)=   0.000000
     celldm(4)=   0.000000  celldm(5)=   0.000000  celldm(6)=   0.000000

     crystal axes: (cart. coord. in units of alat)
               a(1) = (   5.637663   0.000000   0.000000 )
               a(2) = (   2.818831   4.882359   0.000000 )
               a(3) = (   0.000000   0.000000  24.603132 )

     reciprocal axes: (cart. coord. in units 2 pi/alat)
               b(1) = (  0.177378 -0.102410  0.000000 )
               b(2) = (  0.000000  0.204819  0.000000 )
               b(3) = (  0.000000  0.000000  0.040645 )

     PseudoPot. # 1 for Pd read from file:
     /u/if/mamunm/psp/gbrv1.5pbe/Pd.UPF
     MD5 check sum: 2d733d2bc2cbfd217af676df1668a4bc
     Pseudo is Ultrasoft + core correction, Zval = 16.0
     Generated by new atomic code, or converted to UPF format
     Using radial grid of  887 points,  6 beta functions with:
                l(1) =   0
                l(2) =   0
                l(3) =   1
                l(4) =   1
                l(5) =   2
                l(6) =   2
     Q(r) pseudized with  8 coefficients,  rinner =    1.130   1.130   1.130
                                                       1.130   1.130

     PseudoPot. # 2 for S  read from file:
     /u/if/mamunm/psp/gbrv1.5pbe/S.UPF
     MD5 check sum: 88d86576ff6df21479756cfb9bdac1df
     Pseudo is Ultrasoft + core correction, Zval =  6.0
     Generated by new atomic code, or converted to UPF format
     Using radial grid of  907 points,  6 beta functions with:
                l(1) =   0
                l(2) =   0
                l(3) =   1
                l(4) =   1
                l(5) =   2
                l(6) =   2
     Q(r) pseudized with  8 coefficients,  rinner =    1.300   1.300   1.300
                                                       1.300   1.300

     vdW kernel table read from file vdW_kernel_table
     MD5 check sum: 095c7af220d748ca6e76c0b4c6cfb241

     atomic species   valence    mass     pseudopotential
        Pd1           16.00   106.42000     Pd( 1.00)
        S1             6.00    32.06000     S ( 1.00)

     No symmetry found

   Cartesian axes

     site n.     atom                  positions (alat units)
         1           Pd1 tau(   1) = (   1.4094157   0.8137265  10.0000000  )
         2           Pd1 tau(   2) = (   4.2282471   0.8137265  10.0000000  )
         3           Pd1 tau(   3) = (   2.8188314   3.2549061  10.0000000  )
         4           Pd1 tau(   4) = (   5.6376627   3.2549061  10.0000000  )
         5           Pd1 tau(   5) = (   5.6376627   1.6274531  12.3015662  )
         6           Pd1 tau(   6) = (   2.8188314   1.6274531  12.3015662  )
         7           Pd1 tau(   7) = (   7.0470784   4.0686326  12.3015662  )
         8           Pd1 tau(   8) = (   4.2282471   4.0686326  12.3015662  )
         9           Pd1 tau(   9) = (   0.0000000   0.0000000  14.6031324  )
        10           Pd1 tau(  10) = (   2.8188314   0.0000000  14.6031324  )
        11           Pd1 tau(  11) = (   1.4094157   2.4411796  14.6031324  )
        12           Pd1 tau(  12) = (   4.2282471   2.4411796  14.6031324  )
        13           S1  tau(  13) = (   2.8188314   1.6274531  16.1891324  )

     number of k points=    20  Fermi-Dirac smearing, width (Ry)=  0.0110
                       cart. coord. in units 2pi/alat
        k(    1) = (   0.0000000   0.0000000   0.0000000), wk =   0.0555556
        k(    2) = (   0.0000000   0.0341365   0.0000000), wk =   0.1111111
        k(    3) = (   0.0000000   0.0682730   0.0000000), wk =   0.1111111
        k(    4) = (   0.0000000  -0.1024095   0.0000000), wk =   0.0555556
        k(    5) = (   0.0295631  -0.0170683   0.0000000), wk =   0.1111111
        k(    6) = (   0.0295631   0.0170683   0.0000000), wk =   0.1111111
        k(    7) = (   0.0295631   0.0512048   0.0000000), wk =   0.1111111
        k(    8) = (   0.0295631  -0.1194778   0.0000000), wk =   0.1111111
        k(    9) = (   0.0295631  -0.0853413   0.0000000), wk =   0.1111111
        k(   10) = (   0.0295631  -0.0512048   0.0000000), wk =   0.1111111
        k(   11) = (   0.0591262  -0.0341365   0.0000000), wk =   0.1111111
        k(   12) = (   0.0591262  -0.0000000   0.0000000), wk =   0.1111111
        k(   13) = (   0.0591262   0.0341365   0.0000000), wk =   0.1111111
        k(   14) = (   0.0591262  -0.1365460   0.0000000), wk =   0.1111111
        k(   15) = (   0.0591262  -0.1024095   0.0000000), wk =   0.1111111
        k(   16) = (   0.0591262  -0.0682730   0.0000000), wk =   0.1111111
        k(   17) = (  -0.0886892   0.0512048   0.0000000), wk =   0.0555556
        k(   18) = (  -0.0886892   0.0853413   0.0000000), wk =   0.1111111
        k(   19) = (  -0.0886892   0.1194778   0.0000000), wk =   0.1111111
        k(   20) = (  -0.0886892  -0.0512048   0.0000000), wk =   0.0555556

     Largest allocated arrays     est. size (Mb)     dimensions
     Largest temporary arrays     est. size (Mb)     dimensions

     Initial potential from superposition of free atoms
     Check: negative starting charge=   -0.903951

     starting charge  191.99988, renormalised to  198.00000

     negative rho (up, down):  9.322E-01 0.000E+00

     *
     * You are using vdW-DF for exchange-correlation in this calculation.
     * Please cite the following three references that made this development
     * possible:
     *
     *   M. Dion, H. Rydberg, E. Schroder, D. C. Langreth, and
     *   B. I. Lundqvist, Phys. Rev. Lett. 92, 246401 (2004).
     *
     *   T. Thonhauser, V. R. Cooper, S. Li, A. Puzder, P. Hyldgaard, and
     *   D. C. Langreth, Phys. Rev. B 76, 125112 (2007).
     *
     *   G. Roman-Perez and J. M. Soler, Phys. Rev. Lett. 103, 096102 (2009).
     *
     *
     * If you are using vdW-DF2, please also cite:
     *
     *   K. Lee, E. D. Murray, L. Kong, B. I. Lundqvist, and
     *   D. C. Langreth, Phys. Rev. B 82, 081101(R) (2010).
     *
     *
     * If you are calculating the stress with vdW-DF, please also cite:
     *
     *   R. Sabatini, E. Kucukbenli, B. Kolb, T. Thonhauser, and
     *   S. de Gironcoli, J. Phys.: Condens. Matter 24, 424209 (2012).
     *

     Carrying out vdW-DF run using the following parameters:

     Nqs =      20    Nr_points =    1024   r_max =   100.000
     q_mesh =
               0.00001000     0.04494208     0.09755937     0.15916263
               0.23128650     0.31572767     0.41458969     0.53033537
               0.66584808     0.82450364     1.01025438     1.22772762
               1.48234092     1.78043706     2.12944203     2.53805004
               3.01644009     3.57652955     4.23227104     5.00000000

     Gradients computed in reciprocal space

     Adding external electric field

     Computed dipole along edir(3) :
        Dipole               -1.3772 Ry au,         -3.5005 Debye
        Dipole field         -0.0038 Ry au

        Potential amp.        0.3433 Ry
        Total length         45.3309 bohr

     Starting wfc are  148 randomized atomic wfcs

     Self-consistent Calculation

     iteration #  1     ecut=    36.75 Ry     beta=0.30
     Davidson diagonalization with overlap
     ethr =  1.00E-02,  avg # of iterations =  5.2

[...]

     total energy              =   -2372.20666007 Ry
     Harris-Foulkes estimate   =   -2424.45628285 Ry
     estimated scf accuracy    <     110.53934947 Ry

[...]

     End of self-consistent calculation

          k = 0.0000 0.0000 0.0000 ( 17231 PWs)   bands (ev):

   -49.4136 -49.2947 -49.2947 -49.0039 -49.0039 -48.9518 -48.9022 -48.8478
   -48.8478 -48.8258 -48.7843 -48.7842 -48.7055 -48.6913 -48.6911 -48.6511
   -48.6318 -48.6317 -48.6220 -48.5697 -48.5697 -48.5500 -48.5499 -48.5361
   -48.3894 -48.3894 -48.3636 -48.3628 -48.3628 -48.3206 -48.3206 -48.2829
   -48.2130 -48.2059 -48.1972 -48.1969 -12.1970  -4.7284  -4.2850  -3.9589
    -3.9589  -3.5360  -3.3717  -3.3717  -3.3403  -3.2511  -3.1157  -3.1157
    -3.0858  -2.9405  -2.8392  -2.8392  -2.6916  -2.6915  -2.3748  -1.8508
    -1.8507  -1.6709  -1.5912  -1.5912  -1.5080  -1.3465  -1.3464  -1.3099
    -1.3099  -1.1964  -1.0390  -1.0390  -1.0185  -1.0184  -1.0145  -0.4668
    -0.4668  -0.4481  -0.3990  -0.2647  -0.0837  -0.0837   0.0653   0.0654
     0.2164   0.2164   0.3789   0.3790   0.7149   0.7150   0.7198   0.7365
     0.7663   0.8352   0.8352   0.8661   0.9583   0.9583   1.0874   1.1183
     1.1184   1.3032   1.3033   1.3163   1.4137   1.4138   1.7578   2.9612
     3.3214   3.3215   3.9657   4.6185   4.6185

[...]

          k =-0.0887 0.0512 0.0000 ( 17240 PWs)   bands (ev):

[...]

     the Fermi energy is     1.0819 ev

!    total energy              =   -2421.90905451 Ry
     Harris-Foulkes estimate   =   -2421.90905611 Ry
     estimated scf accuracy    <       0.00000168 Ry

     The total energy is the sum of the following terms:

     one-electron contribution =  -20676.37125056 Ry
     hartree contribution      =   10389.58874403 Ry
     xc contribution           =    -398.97610995 Ry
     ewald contribution        =    8263.96038751 Ry
     electric field correction =       0.00001520 Ry
     smearing contrib. (-TS)   =      -0.11084074 Ry

     convergence has been achieved in  20 iterations

 BEEF-vdW xc energy contributions
           1 :   -347.213136909003
           2 :    317.120821095946
           3 :   -265.754978062089
           4 :    206.876128096322
           5 :   -153.845788991899
           6 :    115.252233709869
           7 :   -93.0306281541900
           8 :    83.4197882814356
           9 :   -79.9220260361016
          10 :    76.6772400338302
          11 :   -70.7245733489893
          12 :    62.3676737009349
          13 :   -53.9007892168926
          14 :    47.6916007616204
          15 :   -44.7336970667666
          16 :    44.3000034728874
          17 :   -44.6362460670175
          18 :    44.0967412934365
          19 :   -42.0064805816104
          20 :    38.8168435950146
          21 :   -35.6012999041836
          22 :    33.2956617202137
          23 :   -32.1634539184929
          24 :    31.7532224878678
          25 :   -31.2914635641517
          26 :    30.2073995295644
          27 :   -28.4541961612684
          28 :    26.4576725854822
          29 :   -24.7751004031996
          30 :    23.7146614911372
          31 :   -33.9830608345553
          32 :   -25.0844557258760

     Forces acting on atoms (Ry/au):

     negative rho (up, down):  9.427E-01 0.000E+00
     atom    1 type  1   force =     0.00095287    0.00053751   -0.00249729
     atom    2 type  1   force =    -0.00095491    0.00054406   -0.00251537
     atom    3 type  1   force =     0.00000714   -0.00109109   -0.00252780
     atom    4 type  1   force =    -0.00000567    0.00000393    0.00156390
     atom    5 type  1   force =    -0.00000576    0.00133830    0.00217025
     atom    6 type  1   force =     0.00000979   -0.00000905   -0.01593434
     atom    7 type  1   force =    -0.00116444   -0.00066219    0.00216274
     atom    8 type  1   force =     0.00115919   -0.00066653    0.00216659
     atom    9 type  1   force =     0.00000789   -0.00000735   -0.00438604
     atom   10 type  1   force =    -0.00000613   -0.01796854    0.00294085
     atom   11 type  1   force =    -0.01555519    0.00898582    0.00295458
     atom   12 type  1   force =     0.01555489    0.00899382    0.00294401
     atom   13 type  2   force =     0.00000033    0.00000130    0.01095792

     Total force =     0.033672     Total SCF correction =     0.007551
     SCF correction compared to forces is large: reduce conv_thr to get better values

     entering subroutine stress ...

     negative rho (up, down):  9.427E-01 0.000E+00
          total   stress  (Ry/bohr**3)                   (kbar)     P=   -4.47
  -0.00005093   0.00000000   0.00000000         -7.49      0.00      0.00
   0.00000000  -0.00005093  -0.00000000          0.00     -7.49     -0.00
   0.00000000  -0.00000000   0.00001071          0.00     -0.00      1.58

     BFGS Geometry Optimization

     number of scf cycles    =   1
     number of bfgs steps    =   0

     energy   new            =   -2421.9090545107 Ry

     new trust radius        =       0.0182076066 bohr
     new conv_thr            =       0.0000099958 Ry

ATOMIC_POSITIONS (crystal)
Pd1      0.166666667   0.166666667   0.406452311    0   0   0
Pd1      0.666666667   0.166666667   0.406452311    0   0   0
Pd1      0.166666667   0.666666667   0.406452311    0   0   0
Pd1      0.666666667   0.666666667   0.406452311    0   0   0
Pd1      0.833333333   0.333333333   0.500000000    0   0   0
Pd1      0.333333333   0.333333333   0.500000000    0   0   0
Pd1      0.833333333   0.833333333   0.500000000    0   0   0
Pd1      0.333333333   0.833333333   0.500000000    0   0   0
Pd1      0.000001139  -0.000000797   0.593453352
Pd1      0.500973189  -0.001947530   0.593610943
Pd1     -0.001947049   0.500973933   0.593611238
Pd1      0.500972654   0.500974800   0.593611011
S1       0.333333294   0.333333474   0.658246714

     Writing output data file calc.save
     Check: negative starting charge=   -0.903951
     NEW-OLD atomic charge density approx. for the potential
     Check: negative starting charge=   -0.903434

[...]

     Total force =     0.021269     Total SCF correction =     0.001502

[...]

     energy   old            =   -2421.9090545107 Ry
     energy   new            =   -2421.9099567368 Ry

     CASE: energy  _new < energy  _old

[...]

     Total force =     0.004004     Total SCF correction =     0.000234

[...]

     number of scf cycles    =   9
     number of bfgs steps    =   8

     energy   old            =   -2421.9112062358 Ry
     energy   new            =   -2421.9112469494 Ry

     CASE: energy  _new < energy  _old

     new trust radius        =       0.0118432941 bohr
     new conv_thr            =       0.0000001000 Ry

ATOMIC_POSITIONS (crystal)
Pd1      0.166666667   0.166666667   0.406452311    0   0   0
Pd1      0.666666667   0.166666667   0.406452311    0   0   0
Pd1      0.166666667   0.666666667   0.406452311    0   0   0
Pd1      0.666666667   0.666666667   0.406452311    0   0   0
Pd1      0.833333333   0.333333333   0.500000000    0   0   0
Pd1      0.333333333   0.333333333   0.500000000    0   0   0
Pd1      0.833333333   0.833333333   0.500000000    0   0   0
Pd1      0.333333333   0.833333333   0.500000000    0   0   0
Pd1     -0.000003033   0.000004871   0.592167819
Pd1      0.502667643  -0.005334392   0.595281272
Pd1     -0.005336305   0.502665476   0.595281002
Pd1      0.502670896   0.502664759   0.595280937
S1       0.333333826   0.333333156   0.659384438

     Writing output data file calc.save
     Check: negative starting charge=   -0.908844
     NEW-OLD atomic charge density approx. for the potential
     Check: negative starting charge=   -0.909433

[...]

     Self-consistent Calculation

[...]

     total energy              =   -2421.91126623 Ry
     Harris-Foulkes estimate   =   -2421.91126625 Ry
     estimated scf accuracy    <       0.00000014 Ry

     iteration # 10     ecut=    36.75 Ry     beta=0.30
     Davidson diagonalization with overlap
     ethr =  5.06E-11,  avg # of iterations =  1.1

[...]

     negative rho (up, down):  9.488E-01 0.000E+00

     Adding external electric field

     Computed dipole along edir(3) :
        Dipole               -0.0723 Ry au,         -0.1838 Debye
        Dipole field         -0.0002 Ry au

        Potential amp.        0.0180 Ry
        Total length         45.3309 bohr

     End of self-consistent calculation

[...]

          k = 0.0591-0.0683 0.0000 ( 17183 PWs)   bands (ev):

[...]

          k =-0.0887-0.0512 0.0000 ( 17240 PWs)   bands (ev):

   -49.3470 -49.3005 -49.2628 -48.9687 -48.9529 -48.9144 -48.8864 -48.8578
   -48.8191 -48.7808 -48.7383 -48.7130 -48.7000 -48.6881 -48.6879 -48.6850
   -48.6731 -48.6498 -48.6156 -48.6113 -48.5807 -48.5272 -48.5023 -48.4764
   -48.4316 -48.4293 -48.4209 -48.4176 -48.4087 -48.3651 -48.3496 -48.2882
   -48.2610 -48.2131 -48.2077 -48.2029 -12.0964  -4.1092  -3.6448  -3.4966
    -3.2977  -3.1273  -2.8232  -2.7882  -2.6595  -2.6068  -2.5839  -2.4930
    -2.4510  -2.3882  -2.3114  -2.2916  -2.2724  -2.1535  -2.0894  -1.9913
    -1.7839  -1.7765  -1.7220  -1.6891  -1.6095  -1.5513  -1.5009  -1.4574
    -1.3340  -1.2739  -1.1744  -1.0908  -1.0254  -1.0047  -0.9357  -0.8824
    -0.8713  -0.8257  -0.7503  -0.7155  -0.6669  -0.6547  -0.5039  -0.4541
    -0.3708  -0.3670  -0.3159  -0.2878  -0.2226  -0.1439  -0.1436  -0.0622
     0.0520   0.1342   0.1634   0.2413   0.3092   0.3591   0.6216   0.7069
     0.8155   0.8186   0.8720   1.0183   1.0987   1.3814   1.5757   2.3573
     3.4612   3.5947   3.9931   4.0662   4.8352

     the Fermi energy is     1.0746 ev

!    total energy              =   -2421.91126623 Ry
     Harris-Foulkes estimate   =   -2421.91126654 Ry
     estimated scf accuracy    <       0.00000001 Ry

     The total energy is the sum of the following terms:

     one-electron contribution =  -20600.14564485 Ry
     hartree contribution      =   10351.48958919 Ry
     xc contribution           =    -398.93949008 Ry
     ewald contribution        =    8225.79587722 Ry
     electric field correction =       0.00001438 Ry
     smearing contrib. (-TS)   =      -0.11161208 Ry

     convergence has been achieved in  10 iterations

 BEEF-vdW xc energy contributions
           1 :   -347.173613119951
           2 :    317.057268571673
           3 :   -265.660039866478
           4 :    206.765257758527
           5 :   -153.749352801074
           6 :    115.198078192439
           7 :   -93.0269872647084
           8 :    83.4494364577585
           9 :   -79.9518656210405
          10 :    76.6780500207419
          11 :   -70.6884860419610
          12 :    62.3128199103566
          13 :   -53.8601089477006
          14 :    47.6927148141154
          15 :   -44.7824489246787
          16 :    44.3772619102031
          17 :   -44.7093990622776
          18 :    44.1384406185280
          19 :   -42.0093076908913
          20 :    38.7954014441450
          21 :   -35.5811928395315
          22 :    33.2968417018784
          23 :   -32.1882780605787
          24 :    31.7868957295478
          25 :   -31.3133198032123
          26 :    30.2047907624772
          27 :   -28.4299452001455
          28 :    26.4262852809564
          29 :   -24.7511037270128
          30 :    23.7015531148095
          31 :   -33.9801616977303
          32 :   -25.0756498113278

     Forces acting on atoms (Ry/au):

     negative rho (up, down):  9.488E-01 0.000E+00
     atom    1 type  1   force =     0.00095158    0.00054595   -0.00259468
     atom    2 type  1   force =    -0.00095164    0.00054635   -0.00259534
     atom    3 type  1   force =     0.00000032   -0.00109591   -0.00259416
     atom    4 type  1   force =    -0.00000014    0.00000223    0.00161110
     atom    5 type  1   force =     0.00000029    0.00371855    0.00386177
     atom    6 type  1   force =    -0.00000032    0.00000182   -0.00581357
     atom    7 type  1   force =    -0.00321735   -0.00185982    0.00386109
     atom    8 type  1   force =     0.00321696   -0.00185921    0.00386104
     atom    9 type  1   force =     0.00000180   -0.00001200    0.00021072
     atom   10 type  1   force =    -0.00000176   -0.00088337   -0.00035553
     atom   11 type  1   force =    -0.00075167    0.00044513   -0.00034576
     atom   12 type  1   force =     0.00075255    0.00044756   -0.00034668
     atom   13 type  2   force =    -0.00000063    0.00000274    0.00124002

     Total force =     0.002064     Total SCF correction =     0.000420
     SCF correction compared to forces is large: reduce conv_thr to get better values

     entering subroutine stress ...

     negative rho (up, down):  9.488E-01 0.000E+00
          total   stress  (Ry/bohr**3)                   (kbar)     P=   -6.16
  -0.00005825  -0.00000000  -0.00000000         -8.57     -0.00     -0.00
  -0.00000000  -0.00005825   0.00000000         -0.00     -8.57      0.00
  -0.00000000   0.00000000  -0.00000908         -0.00      0.00     -1.34

     bfgs converged in  10 scf cycles and   9 bfgs steps
     (criteria: energy <  1.0E+00, force <  1.9E-03)

     End of BFGS Geometry Optimization

     Final energy   =   -2421.9112662306 Ry
Begin final coordinates

ATOMIC_POSITIONS (crystal)
Pd1      0.166666667   0.166666667   0.406452311    0   0   0
Pd1      0.666666667   0.166666667   0.406452311    0   0   0
Pd1      0.166666667   0.666666667   0.406452311    0   0   0
Pd1      0.666666667   0.666666667   0.406452311    0   0   0
Pd1      0.833333333   0.333333333   0.500000000    0   0   0
Pd1      0.333333333   0.333333333   0.500000000    0   0   0
Pd1      0.833333333   0.833333333   0.500000000    0   0   0
Pd1      0.333333333   0.833333333   0.500000000    0   0   0
Pd1     -0.000003033   0.000004871   0.592167819
Pd1      0.502667643  -0.005334392   0.595281272
Pd1     -0.005336305   0.502665476   0.595281002
Pd1      0.502670896   0.502664759   0.595280937
S1       0.333333826   0.333333156   0.659384438
End final coordinates

     Writing output data file calc.save

     General routines

     Parallel routines

   This run was terminated on:  10: 0:41   3May2018

   JOB DONE.
Job  /afs/slac/g/suncat/bin/suncat-tsmpirun -x LD_LIBRARY_PATH -wdir /scratch/qe693521_nqyw2 pw.x -npool 4 -in pw.inp

TID   HOST_NAME   COMMAND_LINE            STATUS            TERMINATION_TIME
00000 suncat0191 pw.x -npool 4 -i  Done                     05/03/2018 10:00:41
00001 suncat0191 pw.x -npool 4 -i  Done                     05/03/2018 10:00:41
00002 suncat0191 pw.x -npool 4 -i  Done                     05/03/2018 10:00:41
00003 suncat0191 pw.x -npool 4 -i  Done                     05/03/2018 10:00:41
00004 suncat0191 pw.x -npool 4 -i  Done                     05/03/2018 10:00:41
00005 suncat0191 pw.x -npool 4 -i  Done                     05/03/2018 10:00:41
00006 suncat0191 pw.x -npool 4 -i  Done                     05/03/2018 10:00:41
00007 suncat0191 pw.x -npool 4 -i  Done                     05/03/2018 10:00:41
00008 suncat0166 pw.x -npool 4 -i  Done                     05/03/2018 10:00:41
00009 suncat0166 pw.x -npool 4 -i  Done                     05/03/2018 10:00:41
00010 suncat0166 pw.x -npool 4 -i  Done                     05/03/2018 10:00:41
00011 suncat0166 pw.x -npool 4 -i  Done                     05/03/2018 10:00:41
00012 suncat0166 pw.x -npool 4 -i  Done                     05/03/2018 10:00:41
00013 suncat0166 pw.x -npool 4 -i  Done                     05/03/2018 10:00:41
00014 suncat0166 pw.x -npool 4 -i  Done                     05/03/2018 10:00:41
00015 suncat0166 pw.x -npool 4 -i  Done                     05/03/2018 10:00:41
00016 suncat0152 pw.x -npool 4 -i  Done                     05/03/2018 10:00:41
00017 suncat0152 pw.x -npool 4 -i  Done                     05/03/2018 10:00:41
00018 suncat0152 pw.x -npool 4 -i  Done                     05/03/2018 10:00:41
00019 suncat0152 pw.x -npool 4 -i  Done                     05/03/2018 10:00:41
00020 suncat0152 pw.x -npool 4 -i  Done                     05/03/2018 10:00:41
00021 suncat0152 pw.x -npool 4 -i  Done                     05/03/2018 10:00:41
00022 suncat0152 pw.x -npool 4 -i  Done                     05/03/2018 10:00:41
00023 suncat0152 pw.x -npool 4 -i  Done                     05/03/2018 10:00:41
00024 suncat0139 pw.x -npool 4 -i  Done                     05/03/2018 10:00:41
00025 suncat0139 pw.x -npool 4 -i  Done                     05/03/2018 10:00:41
00026 suncat0139 pw.x -npool 4 -i  Done                     05/03/2018 10:00:41
00027 suncat0139 pw.x -npool 4 -i  Done                     05/03/2018 10:00:41
00028 suncat0139 pw.x -npool 4 -i  Done                     05/03/2018 10:00:41
00029 suncat0139 pw.x -npool 4 -i  Done                     05/03/2018 10:00:41
00030 suncat0139 pw.x -npool 4 -i  Done                     05/03/2018 10:00:41
00031 suncat0139 pw.x -npool 4 -i  Done                     05/03/2018 10:00:41