     Program PWSCF v.5.1rc2 (svn rev. 11289) starts on  2May2018 at 17:32: 5

     Current dimensions of program PWSCF are:
     Max number of different atomic species (ntypx) = 10
     Max number of k-points (npk) =  40000
     Max angular momentum in pseudopotentials (lmaxx) =  3
     Presently stress not available with electric field

     IMPORTANT: XC functional enforced from input :
     Exchange-correlation      = BEEF-VDW ( 1  4 27 13 2)
     Any further DFT definition will be discarded
     Please, verify this is what you really want

     Subspace diagonalization in iterative solution of the eigenvalue problem:
     a serial algorithm will be used

     bravais-lattice index     =            0
     lattice parameter (alat)  =       1.8897  a.u.
     unit-cell volume          =    4158.3597 (a.u.)^3
     number of atoms/cell      =           13
     number of atomic types    =            2
     number of electrons       =       157.00
     number of Kohn-Sham states=           88
     kinetic-energy cutoff     =      36.7493  Ry
     charge density cutoff     =     367.4932  Ry
     convergence threshold     =      1.0E-05
     mixing beta               =       0.3000
     number of iterations used =           10  plain     mixing
     Exchange-correlation      = BEEF-VDW ( 1  4 27 13 2)
     nstep                     =           50

     celldm(1)=   1.889726  celldm(2)=   0.000000  celldm(3)=   0.000000
     celldm(4)=   0.000000  celldm(5)=   0.000000  celldm(6)=   0.000000

     crystal axes: (cart. coord. in units of alat)
               a(1) = (   5.399178   0.000000   0.000000 )
               a(2) = (   2.699589   4.675825   0.000000 )
               a(3) = (   0.000000   0.000000  24.408411 )

     reciprocal axes: (cart. coord. in units 2 pi/alat)
               b(1) = (  0.185213 -0.106933  0.000000 )
               b(2) = (  0.000000  0.213866  0.000000 )
               b(3) = (  0.000000  0.000000  0.040969 )

     PseudoPot. # 1 for V  read from file:
     /u/if/mamunm/psp/gbrv1.5pbe/V.UPF
     MD5 check sum: 22b79981416ebb76fdaf5b1b8640f6fb
     Pseudo is Ultrasoft + core correction, Zval = 13.0
     Generated by new atomic code, or converted to UPF format
     Using radial grid of  853 points,  6 beta functions with:
                l(1) =   0
                l(2) =   0
                l(3) =   1
                l(4) =   1
                l(5) =   2
                l(6) =   2
     Q(r) pseudized with  8 coefficients,  rinner =    1.100   1.100   1.100
                                                       1.100   1.100

     PseudoPot. # 2 for H  read from file:
     /u/if/mamunm/psp/gbrv1.5pbe/H.UPF
     MD5 check sum: 761ae9a214b05c3daf00ab9f6b793d6f
     Pseudo is Ultrasoft, Zval =  1.0
     Generated by new atomic code, or converted to UPF format
     Using radial grid of  615 points,  2 beta functions with:
                l(1) =   0
                l(2) =   0
     Q(r) pseudized with  8 coefficients,  rinner =    0.700

     vdW kernel table read from file vdW_kernel_table
     MD5 check sum: 095c7af220d748ca6e76c0b4c6cfb241

     atomic species   valence    mass     pseudopotential
        V1            13.00    50.94150     V ( 1.00)
        H1             1.00     1.00800     H ( 1.00)

     No symmetry found

   Cartesian axes

     site n.     atom                  positions (alat units)
         1           V1  tau(   1) = (   1.3497945   0.7793042  10.0000000  )
         2           V1  tau(   2) = (   4.0493836   0.7793042  10.0000000  )
         3           V1  tau(   3) = (   2.6995891   3.1172170  10.0000000  )
         4           V1  tau(   4) = (   5.3991782   3.1172170  10.0000000  )
         5           V1  tau(   5) = (   5.3991782   1.5586085  12.2042053  )
         6           V1  tau(   6) = (   2.6995891   1.5586085  12.2042053  )
         7           V1  tau(   7) = (   6.7489727   3.8965212  12.2042053  )
         8           V1  tau(   8) = (   4.0493836   3.8965212  12.2042053  )
         9           V1  tau(   9) = (   0.0000000   0.0000000  14.4084105  )
        10           V1  tau(  10) = (   2.6995891   0.0000000  14.4084105  )
        11           V1  tau(  11) = (   1.3497945   2.3379127  14.4084105  )
        12           V1  tau(  12) = (   4.0493836   2.3379127  14.4084105  )
        13           H1  tau(  13) = (   2.6995891   1.5586085  15.6044105  )

     number of k points=    20  Fermi-Dirac smearing, width (Ry)=  0.0110
                       cart. coord. in units 2pi/alat
        k(    1) = (   0.0000000   0.0000000   0.0000000), wk =   0.0555556
        k(    2) = (   0.0000000   0.0356443   0.0000000), wk =   0.1111111
        k(    3) = (   0.0000000   0.0712887   0.0000000), wk =   0.1111111
        k(    4) = (   0.0000000  -0.1069330   0.0000000), wk =   0.0555556
        k(    5) = (   0.0308689  -0.0178222   0.0000000), wk =   0.1111111
        k(    6) = (   0.0308689   0.0178222   0.0000000), wk =   0.1111111
        k(    7) = (   0.0308689   0.0534665   0.0000000), wk =   0.1111111
        k(    8) = (   0.0308689  -0.1247552   0.0000000), wk =   0.1111111
        k(    9) = (   0.0308689  -0.0891108   0.0000000), wk =   0.1111111
        k(   10) = (   0.0308689  -0.0534665   0.0000000), wk =   0.1111111
        k(   11) = (   0.0617378  -0.0356443   0.0000000), wk =   0.1111111
        k(   12) = (   0.0617378   0.0000000   0.0000000), wk =   0.1111111
        k(   13) = (   0.0617378   0.0356443   0.0000000), wk =   0.1111111
        k(   14) = (   0.0617378  -0.1425773   0.0000000), wk =   0.1111111
        k(   15) = (   0.0617378  -0.1069330   0.0000000), wk =   0.1111111
        k(   16) = (   0.0617378  -0.0712887   0.0000000), wk =   0.1111111
        k(   17) = (  -0.0926067   0.0534665   0.0000000), wk =   0.0555556
        k(   18) = (  -0.0926067   0.0891108   0.0000000), wk =   0.1111111
        k(   19) = (  -0.0926067   0.1247552   0.0000000), wk =   0.1111111
        k(   20) = (  -0.0926067  -0.0534665   0.0000000), wk =   0.0555556

     Largest allocated arrays     est. size (Mb)     dimensions
     Largest temporary arrays     est. size (Mb)     dimensions

     Check: negative/imaginary core charge=   -0.000001    0.000000

     Initial potential from superposition of free atoms
     Check: negative starting charge=   -0.011695

     starting charge  156.98526, renormalised to  157.00000

     negative rho (up, down):  1.170E-02 0.000E+00

     *
     * You are using vdW-DF for exchange-correlation in this calculation.
     * Please cite the following three references that made this development
     * possible:
     *
     *   M. Dion, H. Rydberg, E. Schroder, D. C. Langreth, and
     *   B. I. Lundqvist, Phys. Rev. Lett. 92, 246401 (2004).
     *
     *   T. Thonhauser, V. R. Cooper, S. Li, A. Puzder, P. Hyldgaard, and
     *   D. C. Langreth, Phys. Rev. B 76, 125112 (2007).
     *
     *   G. Roman-Perez and J. M. Soler, Phys. Rev. Lett. 103, 096102 (2009).
     *
     *
     * If you are using vdW-DF2, please also cite:
     *
     *   K. Lee, E. D. Murray, L. Kong, B. I. Lundqvist, and
     *   D. C. Langreth, Phys. Rev. B 82, 081101(R) (2010).
     *
     *
     * If you are calculating the stress with vdW-DF, please also cite:
     *
     *   R. Sabatini, E. Kucukbenli, B. Kolb, T. Thonhauser, and
     *   S. de Gironcoli, J. Phys.: Condens. Matter 24, 424209 (2012).
     *

     Carrying out vdW-DF run using the following parameters:

     Nqs =      20    Nr_points =    1024   r_max =   100.000
     q_mesh =
               0.00001000     0.04494208     0.09755937     0.15916263
               0.23128650     0.31572767     0.41458969     0.53033537
               0.66584808     0.82450364     1.01025438     1.22772762
               1.48234092     1.78043706     2.12944203     2.53805004
               3.01644009     3.57652955     4.23227104     5.00000000

     Gradients computed in reciprocal space

     Adding external electric field

     Computed dipole along edir(3) :
        Dipole               -0.0005 Ry au,         -0.0014 Debye
        Dipole field         -0.0000 Ry au

        Potential amp.        0.0001 Ry
        Total length         44.9721 bohr

     Starting wfc are  121 randomized atomic wfcs

     Self-consistent Calculation

     iteration #  1     ecut=    36.75 Ry     beta=0.30
     Davidson diagonalization with overlap
     ethr =  1.00E-02,  avg # of iterations =  2.2

[...]

     total energy              =   -1744.86786534 Ry
     Harris-Foulkes estimate   =   -1750.79664986 Ry
     estimated scf accuracy    <      12.19009411 Ry

[...]

     End of self-consistent calculation

          k = 0.0000 0.0000 0.0000 ( 15569 PWs)   bands (ev):

   -63.3466 -63.2676 -63.2196 -63.2121 -63.2092 -63.2088 -63.1756 -63.1750
   -63.1648 -63.1374 -63.1371 -63.1364 -37.4340 -37.4322 -37.4320 -37.3935
   -37.3719 -37.3493 -37.3491 -37.2930 -37.2820 -37.2817 -37.1319 -37.0512
   -37.0485 -37.0478 -37.0177 -37.0134 -37.0130 -36.9379 -36.9378 -36.9333
   -36.8851 -36.8818 -36.8815 -36.8402 -36.8399 -36.8353 -36.8219 -36.7882
   -36.7880 -36.7859 -36.7757 -36.7757 -36.6956 -36.6955 -36.6656 -36.6656
    -5.3353  -4.2911  -2.9621  -2.2697  -2.0866  -2.0865  -1.9455  -1.8368
    -1.8368  -1.6761  -1.3368  -1.3366  -1.3331  -1.3223  -1.3223  -1.0150
    -0.4630  -0.4628  -0.2188   0.4102   0.5733   0.5733   0.6374   0.8064
     1.1076   1.1076   1.1104   1.1633   1.1636   1.2531   1.2784   1.2784
     1.3465   1.3467   1.3578   1.4107   1.4107   1.6818   1.8523   1.8525

[...]

          k =-0.0926 0.0535 0.0000 ( 15660 PWs)   bands (ev):

[...]

     the Fermi energy is     0.9697 ev

!    total energy              =   -1750.08925755 Ry
     Harris-Foulkes estimate   =   -1750.08926148 Ry
     estimated scf accuracy    <       0.00000411 Ry

     The total energy is the sum of the following terms:

     one-electron contribution =  -14948.67618204 Ry
     hartree contribution      =    7461.39160075 Ry
     xc contribution           =    -244.93449661 Ry
     ewald contribution        =    5982.27556949 Ry
     electric field correction =       0.00000001 Ry
     smearing contrib. (-TS)   =      -0.14574915 Ry

     convergence has been achieved in  32 iterations

 BEEF-vdW xc energy contributions
           1 :   -211.077535529728
           2 :    189.432735632173
           3 :   -153.680209432840
           4 :    115.095869988641
           5 :   -83.5253211127191
           6 :    63.6247220614461
           7 :   -54.2081800743931
           8 :    50.4651304767963
           9 :   -47.3617914903958
          10 :    42.2202041430946
          11 :   -35.3323896823163
          12 :    28.7612266974849
          13 :   -24.4440953305785
          14 :    22.8478624319784
          15 :   -22.8612471130119
          16 :    22.7408766021283
          17 :   -21.3307053748554
          18 :    18.7195731309054
          19 :   -15.9811008500979
          20 :    14.2804539385383
          21 :   -14.0286932113968
          22 :    14.6555989429454
          23 :   -15.0920223245633
          24 :    14.5506716423366
          25 :   -13.0358540506641
          26 :    11.2584167816204
          27 :   -10.0763690921265
          28 :    9.88992898191975
          29 :   -10.4072171038766
          30 :    10.9030877427343
          31 :   -21.8465745722305
          32 :   -15.7554080703025

     Forces acting on atoms (Ry/au):

     negative rho (up, down):  1.545E-02 0.000E+00
     atom    1 type  1   force =    -0.00039022   -0.00022608    0.00022567
     atom    2 type  1   force =     0.00038726   -0.00022190    0.00018746
     atom    3 type  1   force =     0.00000474    0.00044842    0.00017943
     atom    4 type  1   force =    -0.00001013    0.00000169    0.00099695
     atom    5 type  1   force =    -0.00000541   -0.00010197   -0.00104335
     atom    6 type  1   force =     0.00000806    0.00001156   -0.00202258
     atom    7 type  1   force =     0.00008912    0.00004657   -0.00105117
     atom    8 type  1   force =    -0.00009031    0.00003583   -0.00105938
     atom    9 type  1   force =     0.00000866   -0.00000181   -0.00734539
     atom   10 type  1   force =     0.00000050    0.00156516    0.00970673
     atom   11 type  1   force =     0.00136950   -0.00078340    0.00969651
     atom   12 type  1   force =    -0.00135677   -0.00077382    0.00969627
     atom   13 type  2   force =    -0.00001500   -0.00000024   -0.01816714

     Total force =     0.025955     Total SCF correction =     0.007673
     SCF correction compared to forces is large: reduce conv_thr to get better values

     entering subroutine stress ...

     negative rho (up, down):  1.545E-02 0.000E+00
          total   stress  (Ry/bohr**3)                   (kbar)     P=  -19.01
  -0.00018871   0.00000003  -0.00000003        -27.76      0.00     -0.00
   0.00000003  -0.00018869  -0.00000000          0.00    -27.76     -0.00
  -0.00000003  -0.00000000  -0.00001035         -0.00     -0.00     -1.52

     BFGS Geometry Optimization

     number of scf cycles    =   1
     number of bfgs steps    =   0

     energy   new            =   -1750.0892575459 Ry

     new trust radius        =       0.0181671456 bohr
     new conv_thr            =       0.0000099958 Ry

ATOMIC_POSITIONS (crystal)
V1       0.166666667   0.166666667   0.409694847    0   0   0
V1       0.666666667   0.166666667   0.409694847    0   0   0
V1       0.166666667   0.666666667   0.409694847    0   0   0
V1       0.666666667   0.666666667   0.409694847    0   0   0
V1       0.833333333   0.333333333   0.500000000    0   0   0
V1       0.333333333   0.333333333   0.500000000    0   0   0
V1       0.833333333   0.833333333   0.500000000    0   0   0
V1       0.333333333   0.833333333   0.500000000    0   0   0
V1       0.000000951  -0.000000205   0.590145905
V1       0.499911482   0.000177134   0.590515596
V1       0.000178556   0.499911340   0.590515375
V1       0.499910810   0.499912424   0.590515370
H1       0.333331877   0.333333306   0.638910791

     Writing output data file calc.save
     Check: negative starting charge=   -0.011695
     NEW-OLD atomic charge density approx. for the potential

     Check: negative/imaginary core charge=   -0.000001    0.000000
     Check: negative starting charge=   -0.011677

[...]

     Total force =     0.022500     Total SCF correction =     0.001725

[...]

     energy   old            =   -1750.0892575459 Ry
     energy   new            =   -1750.0898857340 Ry

     CASE: energy  _new < energy  _old

     WARNING: bfgs curvature condition failed, Theta= 0.925
     new trust radius        =       0.0199838602 bohr
     new conv_thr            =       0.0000001000 Ry

[...]

     Total force =     0.006281     Total SCF correction =     0.000255

[...]

     number of scf cycles    =  14
     number of bfgs steps    =  13

     energy   old            =   -1750.0936531952 Ry
     energy   new            =   -1750.0938413498 Ry

     CASE: energy  _new < energy  _old

     new trust radius        =       0.0158196248 bohr
     new conv_thr            =       0.0000001000 Ry

ATOMIC_POSITIONS (crystal)
V1       0.166666667   0.166666667   0.409694847    0   0   0
V1       0.666666667   0.166666667   0.409694847    0   0   0
V1       0.166666667   0.666666667   0.409694847    0   0   0
V1       0.666666667   0.666666667   0.409694847    0   0   0
V1       0.833333333   0.333333333   0.500000000    0   0   0
V1       0.333333333   0.333333333   0.500000000    0   0   0
V1       0.833333333   0.833333333   0.500000000    0   0   0
V1       0.333333333   0.833333333   0.500000000    0   0   0
V1       0.000006065   0.000003588   0.579019074
V1       0.502754444  -0.005497362   0.591872990
V1      -0.005498233   0.502753647   0.591873377
V1       0.502752967   0.502750769   0.591873712
H1       0.333336537   0.333338029   0.635512491

     Writing output data file calc.save
     Check: negative starting charge=   -0.010536
     NEW-OLD atomic charge density approx. for the potential

     Check: negative/imaginary core charge=   -0.000001    0.000000
     Check: negative starting charge=   -0.011002

[...]

     Self-consistent Calculation

[...]

     total energy              =   -1750.09393057 Ry
     Harris-Foulkes estimate   =   -1750.09393063 Ry
     estimated scf accuracy    <       0.00000062 Ry

     iteration # 17     ecut=    36.75 Ry     beta=0.30
     Davidson diagonalization with overlap
     ethr =  3.94E-10,  avg # of iterations =  3.5

[...]

     negative rho (up, down):  1.520E-02 0.000E+00

     Adding external electric field

     Computed dipole along edir(3) :
        Dipole                0.0218 Ry au,          0.0553 Debye
        Dipole field          0.0001 Ry au

        Potential amp.       -0.0059 Ry
        Total length         44.9721 bohr

     End of self-consistent calculation

[...]

          k = 0.0617-0.0713 0.0000 ( 15642 PWs)   bands (ev):

[...]

          k =-0.0926-0.0535 0.0000 ( 15660 PWs)   bands (ev):

   -63.2610 -63.2458 -63.2124 -63.1967 -63.1889 -63.1661 -63.1439 -63.1387
   -63.1367 -63.0992 -63.0989 -63.0098 -37.3196 -37.2887 -37.2850 -37.2674
   -37.2494 -37.2412 -37.1715 -37.1594 -37.1534 -37.1231 -37.1187 -37.1124
   -37.0346 -37.0108 -36.9861 -36.9829 -36.9679 -36.9620 -36.9417 -36.9334
   -36.9258 -36.9063 -36.9014 -36.8996 -36.8728 -36.8593 -36.8294 -36.8193
   -36.8159 -36.8003 -36.7547 -36.7019 -36.7008 -36.6922 -36.6367 -36.6182
    -4.3846  -3.3741  -3.1681  -2.0958  -1.8242  -1.4340  -1.4004  -1.3238
    -1.3074  -1.2105  -0.9292  -0.7084  -0.6309  -0.5462  -0.4951  -0.3762
    -0.3184  -0.1307   0.0034   0.0497   0.0610   0.1084   0.1372   0.3383
     0.4089   0.4761   0.5823   0.6151   0.6650   0.7358   0.7777   0.8039
     0.9627   1.1539   1.1587   1.2170   1.3258   1.3368   1.5333   1.7148

     the Fermi energy is     1.0000 ev

!    total energy              =   -1750.09393054 Ry
     Harris-Foulkes estimate   =   -1750.09393061 Ry
     estimated scf accuracy    <       0.00000006 Ry

     The total energy is the sum of the following terms:

     one-electron contribution =  -15031.02278880 Ry
     hartree contribution      =    7502.74545089 Ry
     xc contribution           =    -245.04316102 Ry
     ewald contribution        =    6023.36611699 Ry
     electric field correction =       0.00000143 Ry
     smearing contrib. (-TS)   =      -0.13955004 Ry

     convergence has been achieved in  17 iterations

 BEEF-vdW xc energy contributions
           1 :   -211.185906107121
           2 :    189.561072044577
           3 :   -153.821087168965
           4 :    115.209935655186
           5 :   -83.5632419498340
           6 :    63.5599358631436
           7 :   -54.0592487280332
           8 :    50.2911539857373
           9 :   -47.2310469884364
          10 :    42.1693312655717
          11 :   -35.3430123125221
          12 :    28.7708803277881
          13 :   -24.3875110899442
          14 :    22.7025571122552
          15 :   -22.6638537614677
          16 :    22.5620728872216
          17 :   -21.2260854220147
          18 :    18.6911253254000
          19 :   -15.9762312036453
          20 :    14.2282819576287
          21 :   -13.8879721364579
          22 :    14.4422377389615
          23 :   -14.8693401639820
          24 :    14.3898514849025
          25 :   -12.9726434547253
          26 :    11.2728154979021
          27 :   -10.1084189073195
          28 :    9.88114198214643
          29 :   -10.3398362808043
          30 :    10.8094533861725
          31 :   -21.8536289637661
          32 :   -15.7640747375369

     Forces acting on atoms (Ry/au):

     negative rho (up, down):  1.520E-02 0.000E+00
     atom    1 type  1   force =     0.00008777    0.00005079    0.00111277
     atom    2 type  1   force =    -0.00008947    0.00004854    0.00111769
     atom    3 type  1   force =    -0.00000147   -0.00009724    0.00112056
     atom    4 type  1   force =     0.00000143    0.00000190    0.00417068
     atom    5 type  1   force =    -0.00000130    0.01420893   -0.01065425
     atom    6 type  1   force =    -0.00000227   -0.00000140    0.01753515
     atom    7 type  1   force =    -0.01230997   -0.00710517   -0.01065042
     atom    8 type  1   force =     0.01230655   -0.00710547   -0.01065320
     atom    9 type  1   force =    -0.00000157   -0.00000144    0.00024829
     atom   10 type  1   force =     0.00000207    0.00063625    0.00183877
     atom   11 type  1   force =     0.00055249   -0.00031802    0.00183459
     atom   12 type  1   force =    -0.00054398   -0.00031528    0.00183310
     atom   13 type  2   force =    -0.00000028   -0.00000239    0.00114628

     Total force =     0.003562     Total SCF correction =     0.000430
     SCF correction compared to forces is large: reduce conv_thr to get better values

     entering subroutine stress ...

     negative rho (up, down):  1.520E-02 0.000E+00
          total   stress  (Ry/bohr**3)                   (kbar)     P=  -15.56
  -0.00015551  -0.00000001   0.00000000        -22.88     -0.00      0.00
  -0.00000001  -0.00015551   0.00000000         -0.00    -22.88      0.00
   0.00000000   0.00000000  -0.00000637          0.00      0.00     -0.94

     bfgs converged in  15 scf cycles and  14 bfgs steps
     (criteria: energy <  1.0E+00, force <  1.9E-03)

     End of BFGS Geometry Optimization

     Final energy   =   -1750.0939305444 Ry
Begin final coordinates

ATOMIC_POSITIONS (crystal)
V1       0.166666667   0.166666667   0.409694847    0   0   0
V1       0.666666667   0.166666667   0.409694847    0   0   0
V1       0.166666667   0.666666667   0.409694847    0   0   0
V1       0.666666667   0.666666667   0.409694847    0   0   0
V1       0.833333333   0.333333333   0.500000000    0   0   0
V1       0.333333333   0.333333333   0.500000000    0   0   0
V1       0.833333333   0.833333333   0.500000000    0   0   0
V1       0.333333333   0.833333333   0.500000000    0   0   0
V1       0.000006065   0.000003588   0.579019074
V1       0.502754444  -0.005497362   0.591872990
V1      -0.005498233   0.502753647   0.591873377
V1       0.502752967   0.502750769   0.591873712
H1       0.333336537   0.333338029   0.635512491
End final coordinates

     Writing output data file calc.save

     General routines

     Parallel routines

   This run was terminated on:  19:18:43   2May2018

   JOB DONE.
Job  /afs/slac/g/suncat/bin/suncat-tsmpirun -x LD_LIBRARY_PATH -wdir /scratch/qe815540_DP4x5 pw.x -npool 4 -in pw.inp

TID   HOST_NAME   COMMAND_LINE            STATUS            TERMINATION_TIME
00000 suncat0060 pw.x -npool 4 -i  Done                     05/02/2018 19:18:43
00001 suncat0060 pw.x -npool 4 -i  Done                     05/02/2018 19:18:43
00002 suncat0060 pw.x -npool 4 -i  Done                     05/02/2018 19:18:43
00003 suncat0060 pw.x -npool 4 -i  Done                     05/02/2018 19:18:43
00004 suncat0060 pw.x -npool 4 -i  Done                     05/02/2018 19:18:43
00005 suncat0060 pw.x -npool 4 -i  Done                     05/02/2018 19:18:43
00006 suncat0060 pw.x -npool 4 -i  Done                     05/02/2018 19:18:43
00007 suncat0060 pw.x -npool 4 -i  Done                     05/02/2018 19:18:43
00008 suncat0056 pw.x -npool 4 -i  Done                     05/02/2018 19:18:43
00009 suncat0056 pw.x -npool 4 -i  Done                     05/02/2018 19:18:43
00010 suncat0056 pw.x -npool 4 -i  Done                     05/02/2018 19:18:43
00011 suncat0056 pw.x -npool 4 -i  Done                     05/02/2018 19:18:43
00012 suncat0056 pw.x -npool 4 -i  Done                     05/02/2018 19:18:43
00013 suncat0056 pw.x -npool 4 -i  Done                     05/02/2018 19:18:43
00014 suncat0056 pw.x -npool 4 -i  Done                     05/02/2018 19:18:43
00015 suncat0056 pw.x -npool 4 -i  Done                     05/02/2018 19:18:43
00016 suncat0031 pw.x -npool 4 -i  Done                     05/02/2018 19:18:43
00017 suncat0031 pw.x -npool 4 -i  Done                     05/02/2018 19:18:43
00018 suncat0031 pw.x -npool 4 -i  Done                     05/02/2018 19:18:43
00019 suncat0031 pw.x -npool 4 -i  Done                     05/02/2018 19:18:43
00020 suncat0031 pw.x -npool 4 -i  Done                     05/02/2018 19:18:43
00021 suncat0031 pw.x -npool 4 -i  Done                     05/02/2018 19:18:43
00022 suncat0031 pw.x -npool 4 -i  Done                     05/02/2018 19:18:43
00023 suncat0031 pw.x -npool 4 -i  Done                     05/02/2018 19:18:43
00024 suncat0023 pw.x -npool 4 -i  Done                     05/02/2018 19:18:43
00025 suncat0023 pw.x -npool 4 -i  Done                     05/02/2018 19:18:43
00026 suncat0023 pw.x -npool 4 -i  Done                     05/02/2018 19:18:43
00027 suncat0023 pw.x -npool 4 -i  Done                     05/02/2018 19:18:43
00028 suncat0023 pw.x -npool 4 -i  Done                     05/02/2018 19:18:43
00029 suncat0023 pw.x -npool 4 -i  Done                     05/02/2018 19:18:43
00030 suncat0023 pw.x -npool 4 -i  Done                     05/02/2018 19:18:43
00031 suncat0023 pw.x -npool 4 -i  Done                     05/02/2018 19:18:43