     Program PWSCF v.5.1rc2 (svn rev. 11289) starts on 16Jan2018 at 17:45:24

     Current dimensions of program PWSCF are:
     Max number of different atomic species (ntypx) = 10
     Max number of k-points (npk) =  40000
     Max angular momentum in pseudopotentials (lmaxx) =  3
     Presently stress not available with electric field

     IMPORTANT: XC functional enforced from input :
     Exchange-correlation      = BEEF-VDW ( 1  4 27 13 2)
     Any further DFT definition will be discarded
     Please, verify this is what you really want

     Subspace diagonalization in iterative solution of the eigenvalue problem:
     a serial algorithm will be used

     bravais-lattice index     =            0
     lattice parameter (alat)  =       1.8897  a.u.
     unit-cell volume          =    4481.2752 (a.u.)^3
     number of atoms/cell      =           13
     number of atomic types    =            2
     number of electrons       =       198.00
     number of Kohn-Sham states=          109
     kinetic-energy cutoff     =      36.7493  Ry
     charge density cutoff     =     367.4932  Ry
     convergence threshold     =      1.0E-05
     mixing beta               =       0.3000
     number of iterations used =           10  plain     mixing
     Exchange-correlation      = BEEF-VDW ( 1  4 27 13 2)
     nstep                     =           50

     celldm(1)=   1.889726  celldm(2)=   0.000000  celldm(3)=   0.000000
     celldm(4)=   0.000000  celldm(5)=   0.000000  celldm(6)=   0.000000

     crystal axes: (cart. coord. in units of alat)
               a(1) = (   5.587338   0.000000   0.000000 )
               a(2) = (   2.793669   4.838777   0.000000 )
               a(3) = (   0.000000   0.000000  24.562042 )

     reciprocal axes: (cart. coord. in units 2 pi/alat)
               b(1) = (  0.178976 -0.103332  0.000000 )
               b(2) = (  0.000000  0.206664  0.000000 )
               b(3) = (  0.000000  0.000000  0.040713 )

     PseudoPot. # 1 for Pt read from file:
     /afs/slac.stanford.edu/u/if/mamunm/psp/gbrv1.5pbe/Pt.UPF
     MD5 check sum: f09d6de1a584b5a045c4fc126da2d0c4
     Pseudo is Ultrasoft + core correction, Zval = 16.0
     Generated by new atomic code, or converted to UPF format
     Using radial grid of  985 points,  6 beta functions with:
                l(1) =   0
                l(2) =   0
                l(3) =   1
                l(4) =   1
                l(5) =   2
                l(6) =   2
     Q(r) pseudized with  8 coefficients,  rinner =    1.300   1.300   1.300
                                                       1.300   1.300

     PseudoPot. # 2 for O  read from file:
     /afs/slac.stanford.edu/u/if/mamunm/psp/gbrv1.5pbe/O.UPF
     MD5 check sum: 734c27235a0248c51dbae37a1fbe46ec
     Pseudo is Ultrasoft + core correction, Zval =  6.0
     Generated by new atomic code, or converted to UPF format
     Using radial grid of  737 points,  5 beta functions with:
                l(1) =   0
                l(2) =   0
                l(3) =   1
                l(4) =   1
                l(5) =   2
     Q(r) pseudized with  8 coefficients,  rinner =    0.900   0.900   0.900
                                                       0.900   0.900

     vdW kernel table read from file vdW_kernel_table
     MD5 check sum: 095c7af220d748ca6e76c0b4c6cfb241

     atomic species   valence    mass     pseudopotential
        Pt1           16.00   195.08400     Pt( 1.00)
        O1             6.00    15.99900     O ( 1.00)

     No symmetry found

   Cartesian axes

     site n.     atom                  positions (alat units)
         1           Pt1 tau(   1) = (   1.3968345   0.8064628  10.0000000  )
         2           Pt1 tau(   2) = (   4.1905036   0.8064628  10.0000000  )
         3           Pt1 tau(   3) = (   2.7936691   3.2258512  10.0000000  )
         4           Pt1 tau(   4) = (   5.5873381   3.2258512  10.0000000  )
         5           Pt1 tau(   5) = (   5.5873381   1.6129256  12.2810212  )
         6           Pt1 tau(   6) = (   2.7936691   1.6129256  12.2810212  )
         7           Pt1 tau(   7) = (   6.9841727   4.0323140  12.2810212  )
         8           Pt1 tau(   8) = (   4.1905036   4.0323140  12.2810212  )
         9           Pt1 tau(   9) = (   0.0000000   0.0000000  14.5620425  )
        10           Pt1 tau(  10) = (   2.7936691   0.0000000  14.5620425  )
        11           Pt1 tau(  11) = (   1.3968345   2.4193884  14.5620425  )
        12           Pt1 tau(  12) = (   4.1905036   2.4193884  14.5620425  )
        13           O1  tau(  13) = (   0.0000000   0.0000000  16.5820425  )

     number of k points=    20  Fermi-Dirac smearing, width (Ry)=  0.0110
                       cart. coord. in units 2pi/alat
        k(    1) = (   0.0000000   0.0000000   0.0000000), wk =   0.0555556
        k(    2) = (   0.0000000   0.0344440   0.0000000), wk =   0.1111111
        k(    3) = (   0.0000000   0.0688879   0.0000000), wk =   0.1111111
        k(    4) = (   0.0000000  -0.1033319   0.0000000), wk =   0.0555556
        k(    5) = (   0.0298294  -0.0172220   0.0000000), wk =   0.1111111
        k(    6) = (   0.0298294   0.0172220   0.0000000), wk =   0.1111111
        k(    7) = (   0.0298294   0.0516660   0.0000000), wk =   0.1111111
        k(    8) = (   0.0298294  -0.1205539   0.0000000), wk =   0.1111111
        k(    9) = (   0.0298294  -0.0861099   0.0000000), wk =   0.1111111
        k(   10) = (   0.0298294  -0.0516660   0.0000000), wk =   0.1111111
        k(   11) = (   0.0596587  -0.0344440   0.0000000), wk =   0.1111111
        k(   12) = (   0.0596587   0.0000000   0.0000000), wk =   0.1111111
        k(   13) = (   0.0596587   0.0344440   0.0000000), wk =   0.1111111
        k(   14) = (   0.0596587  -0.1377759   0.0000000), wk =   0.1111111
        k(   15) = (   0.0596587  -0.1033319   0.0000000), wk =   0.1111111
        k(   16) = (   0.0596587  -0.0688879   0.0000000), wk =   0.1111111
        k(   17) = (  -0.0894881   0.0516660   0.0000000), wk =   0.0555556
        k(   18) = (  -0.0894881   0.0861099   0.0000000), wk =   0.1111111
        k(   19) = (  -0.0894881   0.1205539   0.0000000), wk =   0.1111111
        k(   20) = (  -0.0894881  -0.0516660   0.0000000), wk =   0.0555556

     Largest allocated arrays     est. size (Mb)     dimensions
     Largest temporary arrays     est. size (Mb)     dimensions

     Check: negative/imaginary core charge=   -0.000001    0.000000

     Initial potential from superposition of free atoms
     Check: negative starting charge=   -2.200880

     starting charge  191.99986, renormalised to  198.00000

     negative rho (up, down):  2.270E+00 0.000E+00

     *
     * You are using vdW-DF for exchange-correlation in this calculation.
     * Please cite the following three references that made this development
     * possible:
     *
     *   M. Dion, H. Rydberg, E. Schroder, D. C. Langreth, and
     *   B. I. Lundqvist, Phys. Rev. Lett. 92, 246401 (2004).
     *
     *   T. Thonhauser, V. R. Cooper, S. Li, A. Puzder, P. Hyldgaard, and
     *   D. C. Langreth, Phys. Rev. B 76, 125112 (2007).
     *
     *   G. Roman-Perez and J. M. Soler, Phys. Rev. Lett. 103, 096102 (2009).
     *
     *
     * If you are using vdW-DF2, please also cite:
     *
     *   K. Lee, E. D. Murray, L. Kong, B. I. Lundqvist, and
     *   D. C. Langreth, Phys. Rev. B 82, 081101(R) (2010).
     *
     *
     * If you are calculating the stress with vdW-DF, please also cite:
     *
     *   R. Sabatini, E. Kucukbenli, B. Kolb, T. Thonhauser, and
     *   S. de Gironcoli, J. Phys.: Condens. Matter 24, 424209 (2012).
     *

     Carrying out vdW-DF run using the following parameters:

     Nqs =      20    Nr_points =    1024   r_max =   100.000
     q_mesh =
               0.00001000     0.04494208     0.09755937     0.15916263
               0.23128650     0.31572767     0.41458969     0.53033537
               0.66584808     0.82450364     1.01025438     1.22772762
               1.48234092     1.78043706     2.12944203     2.53805004
               3.01644009     3.57652955     4.23227104     5.00000000

     Gradients computed in reciprocal space

     Adding external electric field

     Computed dipole along edir(3) :
        Dipole               -1.5240 Ry au,         -3.8736 Debye
        Dipole field         -0.0043 Ry au

        Potential amp.        0.3868 Ry
        Total length         45.2551 bohr

     Starting wfc are  148 randomized atomic wfcs

     Self-consistent Calculation

     iteration #  1     ecut=    36.75 Ry     beta=0.30
     Davidson diagonalization with overlap
     ethr =  1.00E-02,  avg # of iterations =  4.3

[...]

     total energy              =   -2549.89619797 Ry
     Harris-Foulkes estimate   =   -2583.41958690 Ry
     estimated scf accuracy    <      70.79697262 Ry

[...]

     End of self-consistent calculation

          k = 0.0000 0.0000 0.0000 ( 16787 PWs)   bands (ev):

   -52.3199 -52.0537 -52.0537 -51.8074 -51.7538 -51.7538 -51.6543 -51.6185
   -51.6184 -51.5757 -51.5411 -51.5410 -51.5137 -51.4316 -51.4316 -51.4167
   -51.4041 -51.4041 -51.3562 -51.2441 -51.2440 -51.1869 -51.1803 -51.1803
   -51.1231 -51.1018 -51.1018 -51.0805 -51.0804 -51.0040 -50.9732 -50.9732
   -50.9590 -50.9567 -50.9404 -50.9403 -15.1708  -7.5541  -5.8222  -5.4169
    -5.0794  -5.0501  -5.0500  -4.8386  -4.8386  -4.8291  -4.4185  -4.4185
    -4.3968  -4.2344  -4.2344  -4.1866  -3.0574  -3.0574  -2.9774  -2.7462
    -2.4562  -2.4562  -2.3222  -2.1654  -2.1654  -2.1317  -1.9015  -1.9015
    -1.7705  -1.7705  -1.6909  -1.6473  -1.6473  -1.5860  -1.0742  -1.0741
    -0.7855  -0.7855  -0.3589  -0.1786  -0.1786  -0.1521  -0.1477  -0.1477
     0.0589   0.3853   0.3853   0.6943   0.6943   0.8051   1.0307   1.0375
     1.0375   1.1020   1.1021   1.1628   1.1628   1.3907   1.3907   1.3986
     1.5890   1.5891   1.7437   1.7713   1.7741   1.7741   1.8080   2.5433
     2.8008   2.8008   3.2053   4.2475   4.2475

[...]

          k =-0.0895 0.0517 0.0000 ( 16880 PWs)   bands (ev):

[...]

     the Fermi energy is     1.2523 ev

!    total energy              =   -2580.55725768 Ry
     Harris-Foulkes estimate   =   -2580.55726797 Ry
     estimated scf accuracy    <       0.00000074 Ry

     The total energy is the sum of the following terms:

     one-electron contribution =  -20590.41033146 Ry
     hartree contribution      =   10331.71907350 Ry
     xc contribution           =    -710.75588132 Ry
     ewald contribution        =    8389.00740064 Ry
     electric field correction =       0.00059759 Ry
     smearing contrib. (-TS)   =      -0.11811662 Ry

     convergence has been achieved in  20 iterations

 BEEF-vdW xc energy contributions
           1 :   -632.615490089934
           2 :    588.483066076394
           3 :   -509.509752533997
           4 :    410.854566497943
           5 :   -308.914055708070
           6 :    217.207472567474
           7 :   -143.781481966092
           8 :    90.5712540852326
           9 :   -54.6357592836149
          10 :    30.5672641434686
          11 :   -13.0599590227484
          12 :   -1.31809727208770
          13 :    13.5997568778353
[...]

[...]

     Program PWSCF v.5.1rc2 (svn rev. 11289) starts on 16Jan2018 at 19: 5:36

[...]

   This run was terminated on:  19:22: 1  16Jan2018

[...]

     Program PWSCF v.5.1rc2 (svn rev. 11289) starts on 16Jan2018 at 19:22: 7

[...]

     Program PWSCF v.5.1rc2 (svn rev. 11289) starts on 16Jan2018 at 19:52:48

[...]

   This run was terminated on:  20: 8: 2  16Jan2018

[...]

     Program PWSCF v.5.1rc2 (svn rev. 11289) starts on 16Jan2018 at 20: 8: 7

     Current dimensions of program PWSCF are:
     Max number of different atomic species (ntypx) = 10
     Max number of k-points (npk) =  40000
     Max angular momentum in pseudopotentials (lmaxx) =  3
     Presently stress not available with electric field

     IMPORTANT: XC functional enforced from input :
     Exchange-correlation      = BEEF-VDW ( 1  4 27 13 2)
     Any further DFT definition will be discarded
     Please, verify this is what you really want

     Subspace diagonalization in iterative solution of the eigenvalue problem:
     a serial algorithm will be used

     bravais-lattice index     =            0
     lattice parameter (alat)  =       1.8897  a.u.
     unit-cell volume          =    4481.2752 (a.u.)^3
     number of atoms/cell      =           13
     number of atomic types    =            2
     number of electrons       =       198.00
     number of Kohn-Sham states=          109
     kinetic-energy cutoff     =      36.7493  Ry
     charge density cutoff     =     367.4932  Ry
     convergence threshold     =      1.0E-05
     mixing beta               =       0.3000
     number of iterations used =           10  plain     mixing
     Exchange-correlation      = BEEF-VDW ( 1  4 27 13 2)
     nstep                     =           50

     celldm(1)=   1.889726  celldm(2)=   0.000000  celldm(3)=   0.000000
     celldm(4)=   0.000000  celldm(5)=   0.000000  celldm(6)=   0.000000

     crystal axes: (cart. coord. in units of alat)
               a(1) = (   5.587338   0.000000   0.000000 )
               a(2) = (   2.793669   4.838777   0.000000 )
               a(3) = (   0.000000   0.000000  24.562042 )

     reciprocal axes: (cart. coord. in units 2 pi/alat)
               b(1) = (  0.178976 -0.103332  0.000000 )
               b(2) = (  0.000000  0.206664  0.000000 )
               b(3) = (  0.000000  0.000000  0.040713 )

     PseudoPot. # 1 for Pt read from file:
     /afs/slac.stanford.edu/u/if/mamunm/psp/gbrv1.5pbe/Pt.UPF
     MD5 check sum: f09d6de1a584b5a045c4fc126da2d0c4
     Pseudo is Ultrasoft + core correction, Zval = 16.0
     Generated by new atomic code, or converted to UPF format
     Using radial grid of  985 points,  6 beta functions with:
                l(1) =   0
                l(2) =   0
                l(3) =   1
                l(4) =   1
                l(5) =   2
                l(6) =   2
     Q(r) pseudized with  8 coefficients,  rinner =    1.300   1.300   1.300
                                                       1.300   1.300

     PseudoPot. # 2 for O  read from file:
     /afs/slac.stanford.edu/u/if/mamunm/psp/gbrv1.5pbe/O.UPF
     MD5 check sum: 734c27235a0248c51dbae37a1fbe46ec
     Pseudo is Ultrasoft + core correction, Zval =  6.0
     Generated by new atomic code, or converted to UPF format
     Using radial grid of  737 points,  5 beta functions with:
                l(1) =   0
                l(2) =   0
                l(3) =   1
                l(4) =   1
                l(5) =   2
     Q(r) pseudized with  8 coefficients,  rinner =    0.900   0.900   0.900
                                                       0.900   0.900

     vdW kernel table read from file vdW_kernel_table
     MD5 check sum: 095c7af220d748ca6e76c0b4c6cfb241

     atomic species   valence    mass     pseudopotential
        Pt1           16.00   195.08400     Pt( 1.00)
        O1             6.00    15.99900     O ( 1.00)

     No symmetry found

   Cartesian axes

     site n.     atom                  positions (alat units)
         1           Pt1 tau(   1) = (   1.3968345   0.8064628  10.0000000  )
         2           Pt1 tau(   2) = (   4.1905036   0.8064628  10.0000000  )
         3           Pt1 tau(   3) = (   2.7936691   3.2258512  10.0000000  )
         4           Pt1 tau(   4) = (   5.5873381   3.2258512  10.0000000  )
         5           Pt1 tau(   5) = (   5.5873381   1.6129256  12.2810212  )
         6           Pt1 tau(   6) = (   2.7936691   1.6129256  12.2810212  )
         7           Pt1 tau(   7) = (   6.9841727   4.0323140  12.2810212  )
         8           Pt1 tau(   8) = (   4.1905036   4.0323140  12.2810212  )
         9           Pt1 tau(   9) = (   5.5869286   0.0002279  14.7166786  )
        10           Pt1 tau(  10) = (   5.5877586   4.8357500  14.5880644  )
        11           Pt1 tau(  11) = (   6.9812295   2.4210831  14.5887317  )
        12           Pt1 tau(  12) = (   4.1933889   2.4205696  14.5885304  )
        13           O1  tau(  13) = (   2.7936670   4.8387679  16.5423238  )

     number of k points=    20  Fermi-Dirac smearing, width (Ry)=  0.0110
                       cart. coord. in units 2pi/alat
        k(    1) = (   0.0000000   0.0000000   0.0000000), wk =   0.0555556
        k(    2) = (   0.0000000   0.0344440   0.0000000), wk =   0.1111111
        k(    3) = (   0.0000000   0.0688879   0.0000000), wk =   0.1111111
        k(    4) = (   0.0000000  -0.1033319   0.0000000), wk =   0.0555556
        k(    5) = (   0.0298294  -0.0172220   0.0000000), wk =   0.1111111
        k(    6) = (   0.0298294   0.0172220   0.0000000), wk =   0.1111111
        k(    7) = (   0.0298294   0.0516660   0.0000000), wk =   0.1111111
        k(    8) = (   0.0298294  -0.1205539   0.0000000), wk =   0.1111111
        k(    9) = (   0.0298294  -0.0861099   0.0000000), wk =   0.1111111
        k(   10) = (   0.0298294  -0.0516660   0.0000000), wk =   0.1111111
        k(   11) = (   0.0596587  -0.0344440   0.0000000), wk =   0.1111111
        k(   12) = (   0.0596587   0.0000000   0.0000000), wk =   0.1111111
        k(   13) = (   0.0596587   0.0344440   0.0000000), wk =   0.1111111
        k(   14) = (   0.0596587  -0.1377759   0.0000000), wk =   0.1111111
        k(   15) = (   0.0596587  -0.1033319   0.0000000), wk =   0.1111111
        k(   16) = (   0.0596587  -0.0688879   0.0000000), wk =   0.1111111
        k(   17) = (  -0.0894881   0.0516660   0.0000000), wk =   0.0555556
        k(   18) = (  -0.0894881   0.0861099   0.0000000), wk =   0.1111111
        k(   19) = (  -0.0894881   0.1205539   0.0000000), wk =   0.1111111
        k(   20) = (  -0.0894881  -0.0516660   0.0000000), wk =   0.0555556

     Largest allocated arrays     est. size (Mb)     dimensions
     Largest temporary arrays     est. size (Mb)     dimensions

     Check: negative/imaginary core charge=   -0.000001    0.000000

     Initial potential from superposition of free atoms
     Check: negative starting charge=   -2.192883

     starting charge  191.99986, renormalised to  198.00000

[...]

     *
     * You are using vdW-DF for exchange-correlation in this calculation.
     * Please cite the following three references that made this development
     * possible:
     *
     *   M. Dion, H. Rydberg, E. Schroder, D. C. Langreth, and
     *   B. I. Lundqvist, Phys. Rev. Lett. 92, 246401 (2004).
     *
     *   T. Thonhauser, V. R. Cooper, S. Li, A. Puzder, P. Hyldgaard, and
     *   D. C. Langreth, Phys. Rev. B 76, 125112 (2007).
     *
     *   G. Roman-Perez and J. M. Soler, Phys. Rev. Lett. 103, 096102 (2009).
     *
     *
     * If you are using vdW-DF2, please also cite:
     *
     *   K. Lee, E. D. Murray, L. Kong, B. I. Lundqvist, and
     *   D. C. Langreth, Phys. Rev. B 82, 081101(R) (2010).
     *
     *
     * If you are calculating the stress with vdW-DF, please also cite:
     *
     *   R. Sabatini, E. Kucukbenli, B. Kolb, T. Thonhauser, and
     *   S. de Gironcoli, J. Phys.: Condens. Matter 24, 424209 (2012).
     *

     Carrying out vdW-DF run using the following parameters:

     Nqs =      20    Nr_points =    1024   r_max =   100.000
     q_mesh =
               0.00001000     0.04494208     0.09755937     0.15916263
               0.23128650     0.31572767     0.41458969     0.53033537
               0.66584808     0.82450364     1.01025438     1.22772762
               1.48234092     1.78043706     2.12944203     2.53805004
               3.01644009     3.57652955     4.23227104     5.00000000

     Gradients computed in reciprocal space

[...]

     Starting wfc are  148 randomized atomic wfcs

     Self-consistent Calculation

[...]

     total energy              =   -2580.58370628 Ry
     Harris-Foulkes estimate   =   -2580.58371971 Ry
     estimated scf accuracy    <       0.00005547 Ry

     iteration # 18     ecut=    36.75 Ry     beta=0.30
     Davidson diagonalization with overlap
     ethr =  2.80E-08,  avg # of iterations =  1.0

[...]

     negative rho (up, down):  2.110E+00 0.000E+00

     Adding external electric field

     Computed dipole along edir(3) :
        Dipole               -0.3772 Ry au,         -0.9588 Debye
        Dipole field         -0.0011 Ry au

        Potential amp.        0.0957 Ry
        Total length         45.2551 bohr

     End of self-consistent calculation

[...]

          k = 0.0597-0.0689 0.0000 ( 16875 PWs)   bands (ev):

[...]

          k =-0.0895-0.0517 0.0000 ( 16880 PWs)   bands (ev):

   -52.6603 -52.1434 -52.1337 -51.5553 -51.5155 -51.4553 -51.4318 -51.4288
   -51.4236 -51.4144 -51.4096 -51.3972 -51.3913 -51.3234 -51.2884 -51.2206
   -51.1993 -51.1524 -51.1275 -51.1214 -51.1086 -51.0741 -51.0533 -51.0481
   -51.0310 -51.0230 -51.0121 -50.9866 -50.9396 -50.8445 -50.8381 -50.8303
   -50.7981 -50.7916 -50.7856 -50.7806 -16.1258  -5.5957  -5.5761  -4.3468
    -4.2848  -4.1973  -4.0473  -3.9066  -3.8945  -3.8522  -3.8235  -3.5983
    -3.3787  -3.3014  -3.2226  -3.1015  -3.0505  -2.9257  -2.8831  -2.8577
    -2.5968  -2.5806  -2.5216  -2.4283  -2.2757  -2.2422  -2.0793  -1.9455
    -1.7884  -1.7665  -1.6315  -1.6240  -1.5249  -1.4328  -1.3748  -1.3609
    -1.3023  -1.2900  -1.2239  -1.1957  -1.1463  -1.1068  -0.6909  -0.6399
    -0.5996  -0.4445  -0.3455  -0.2576  -0.2250  -0.1819  -0.1033  -0.0163
     0.0610   0.0797   0.2496   0.5546   0.5590   0.5925   0.6339   0.9463
     1.0031   1.1900   1.2949   1.3639   1.3843   1.5639   1.6173   2.1922
     3.0618   3.5002   3.6450   3.9108   4.5938

     the Fermi energy is     1.3848 ev

!    total energy              =   -2580.58370026 Ry
     Harris-Foulkes estimate   =   -2580.58369282 Ry
     estimated scf accuracy    <       0.00000861 Ry

     The total energy is the sum of the following terms:

     one-electron contribution =  -20450.58675538 Ry
     hartree contribution      =   10262.53895758 Ry
     xc contribution           =    -710.78049804 Ry
     ewald contribution        =    8318.36047952 Ry
     electric field correction =       0.00039903 Ry
     smearing contrib. (-TS)   =      -0.11628297 Ry

     convergence has been achieved in  18 iterations

 BEEF-vdW xc energy contributions
           1 :   -632.640363265456
           2 :    588.498558177531
           3 :   -509.505421048657
           4 :    410.825371559923
           5 :   -308.869829765286
           6 :    217.171447373247
           7 :   -143.773944493827
           8 :    90.5907716977194
           9 :   -54.6546408079043
          10 :    30.5468009838720
          11 :   -12.9760742532255
          12 :   -1.45522573344329
          13 :    13.7437991737320
          14 :   -23.1165260556960
          15 :    28.2703939209728
          16 :   -28.5692602043000
          17 :    24.6660274862202
          18 :   -18.3779132635564
          19 :    11.9953207634778
          20 :   -7.42323369056760
          21 :    5.55234309555885
          22 :   -6.10785785031192
          23 :    7.97806854242424
          24 :   -9.82020762462457
          25 :    10.6469250066395
          26 :   -10.1557608729440
          27 :    8.70728820936972
          28 :   -7.02676492211606
          29 :    5.80318638401127
          30 :   -5.37829011388487
          31 :   -52.0118197593861
          32 :   -38.4181953683828

     Forces acting on atoms (Ry/au):

     negative rho (up, down):  2.110E+00 0.000E+00
     atom    1 type  1   force =    -0.00019960   -0.00009320   -0.01338575
     atom    2 type  1   force =     0.00019812   -0.00011753   -0.01327175
     atom    3 type  1   force =    -0.00001374    0.00022508   -0.01335731
     atom    4 type  1   force =     0.00000065    0.00000146   -0.02118946
     atom    5 type  1   force =    -0.00000179   -0.00945071    0.01800261
     atom    6 type  1   force =    -0.00001228    0.00003672    0.00687424
     atom    7 type  1   force =     0.00819936    0.00470947    0.01797697
     atom    8 type  1   force =    -0.00818013    0.00469950    0.01803810
     atom    9 type  1   force =     0.00025834   -0.00014615    0.00029119
     atom   10 type  1   force =    -0.00026048    0.00038938    0.00018220
     atom   11 type  1   force =     0.00048173   -0.00026759   -0.00000006
     atom   12 type  1   force =    -0.00048837    0.00002209    0.00005959
     atom   13 type  2   force =     0.00001819   -0.00000851   -0.00022056

     Total force =     0.047660     Total SCF correction =     0.016410
     SCF correction compared to forces is large: reduce conv_thr to get better values

     entering subroutine stress ...

     negative rho (up, down):  2.110E+00 0.000E+00
          total   stress  (Ry/bohr**3)                   (kbar)     P=   -8.92
  -0.00011262  -0.00000004   0.00000004        -16.57     -0.01      0.01
  -0.00000004  -0.00011263  -0.00000003         -0.01    -16.57     -0.00
   0.00000004  -0.00000003   0.00004336          0.01     -0.00      6.38

 !ASE

     Writing output data file calc.save

     General routines

     Parallel routines

   This run was terminated on:  20:23:23  16Jan2018

   JOB DONE.
Job  /afs/slac/g/suncat/bin/suncat-tsmpirun -x LD_LIBRARY_PATH -wdir /scratch/qe842471_99Fho pw.x -in pw.inp

TID   HOST_NAME   COMMAND_LINE            STATUS            TERMINATION_TIME
00000 suncat0264 pw.x -in pw.inp   Done                     01/16/2018 20:23:23
00001 suncat0264 pw.x -in pw.inp   Done                     01/16/2018 20:23:23
00002 suncat0264 pw.x -in pw.inp   Done                     01/16/2018 20:23:23
00003 suncat0264 pw.x -in pw.inp   Done                     01/16/2018 20:23:23
00004 suncat0264 pw.x -in pw.inp   Done                     01/16/2018 20:23:23
00005 suncat0264 pw.x -in pw.inp   Done                     01/16/2018 20:23:23
00006 suncat0264 pw.x -in pw.inp   Done                     01/16/2018 20:23:23
00007 suncat0264 pw.x -in pw.inp   Done                     01/16/2018 20:23:23
00008 suncat0259 pw.x -in pw.inp   Done                     01/16/2018 20:23:23
00009 suncat0259 pw.x -in pw.inp   Done                     01/16/2018 20:23:23
00010 suncat0259 pw.x -in pw.inp   Done                     01/16/2018 20:23:23
00011 suncat0259 pw.x -in pw.inp   Done                     01/16/2018 20:23:23
00012 suncat0259 pw.x -in pw.inp   Done                     01/16/2018 20:23:23
00013 suncat0259 pw.x -in pw.inp   Done                     01/16/2018 20:23:23
00014 suncat0259 pw.x -in pw.inp   Done                     01/16/2018 20:23:23
00015 suncat0259 pw.x -in pw.inp   Done                     01/16/2018 20:23:23
00016 suncat0258 pw.x -in pw.inp   Done                     01/16/2018 20:23:23
00017 suncat0258 pw.x -in pw.inp   Done                     01/16/2018 20:23:23
00018 suncat0258 pw.x -in pw.inp   Done                     01/16/2018 20:23:23
00019 suncat0258 pw.x -in pw.inp   Done                     01/16/2018 20:23:23
00020 suncat0258 pw.x -in pw.inp   Done                     01/16/2018 20:23:23
00021 suncat0258 pw.x -in pw.inp   Done                     01/16/2018 20:23:23
00022 suncat0258 pw.x -in pw.inp   Done                     01/16/2018 20:23:23
00023 suncat0258 pw.x -in pw.inp   Done                     01/16/2018 20:23:23
00024 suncat0256 pw.x -in pw.inp   Done                     01/16/2018 20:23:23
00025 suncat0256 pw.x -in pw.inp   Done                     01/16/2018 20:23:23
00026 suncat0256 pw.x -in pw.inp   Done                     01/16/2018 20:23:23
00027 suncat0256 pw.x -in pw.inp   Done                     01/16/2018 20:23:23
00028 suncat0256 pw.x -in pw.inp   Done                     01/16/2018 20:23:23
00029 suncat0256 pw.x -in pw.inp   Done                     01/16/2018 20:23:23
00030 suncat0256 pw.x -in pw.inp   Done                     01/16/2018 20:23:23
00031 suncat0256 pw.x -in pw.inp   Done                     01/16/2018 20:23:23