     Program PWSCF v.5.1rc2 (svn rev. 11289) starts on 25Apr2018 at  1:57:15

     Current dimensions of program PWSCF are:
     Max number of different atomic species (ntypx) = 10
     Max number of k-points (npk) =  40000
     Max angular momentum in pseudopotentials (lmaxx) =  3
     Presently stress not available with electric field

     IMPORTANT: XC functional enforced from input :
     Exchange-correlation      = BEEF-VDW ( 1  4 27 13 2)
     Any further DFT definition will be discarded
     Please, verify this is what you really want

     Subspace diagonalization in iterative solution of the eigenvalue problem:
     a serial algorithm will be used

     bravais-lattice index     =            0
     lattice parameter (alat)  =       1.8897  a.u.
     unit-cell volume          =    7725.1200 (a.u.)^3
     number of atoms/cell      =           16
     number of atomic types    =            3
     number of electrons       =       139.00
     number of Kohn-Sham states=           79
     kinetic-energy cutoff     =      36.7493  Ry
     charge density cutoff     =     367.4932  Ry
     convergence threshold     =      1.0E-05
     mixing beta               =       0.3000
     number of iterations used =           10  plain     mixing
     Exchange-correlation      = BEEF-VDW ( 1  4 27 13 2)
     nstep                     =           50

     celldm(1)=   1.889726  celldm(2)=   0.000000  celldm(3)=   0.000000
     celldm(4)=   0.000000  celldm(5)=   0.000000  celldm(6)=   0.000000

     crystal axes: (cart. coord. in units of alat)
               a(1) = (   7.152277   0.000000   0.000000 )
               a(2) = (   3.576139   6.194054   0.000000 )
               a(3) = (   0.000000   0.000000  25.839810 )

     reciprocal axes: (cart. coord. in units 2 pi/alat)
               b(1) = (  0.139816 -0.080723  0.000000 )
               b(2) = (  0.000000  0.161445  0.000000 )
               b(3) = (  0.000000  0.000000  0.038700 )

     PseudoPot. # 1 for Y  read from file:
     /u/if/mamunm/psp/gbrv1.5pbe/Y.UPF
     MD5 check sum: d034151ed7554c50b6e82763ed42c788
     Pseudo is Ultrasoft + core correction, Zval = 11.0
     Generated by new atomic code, or converted to UPF format
     Using radial grid of  885 points,  6 beta functions with:
                l(1) =   0
                l(2) =   0
                l(3) =   1
                l(4) =   1
                l(5) =   2
                l(6) =   2
     Q(r) pseudized with  8 coefficients,  rinner =    1.200   1.200   1.200
                                                       1.200   1.200

     PseudoPot. # 2 for C  read from file:
     /u/if/mamunm/psp/gbrv1.5pbe/C.UPF
     MD5 check sum: d1aef80898a10debaa0f26306b886e00
     Pseudo is Ultrasoft + core correction, Zval =  4.0
     Generated by new atomic code, or converted to UPF format
     Using radial grid of  721 points,  4 beta functions with:
                l(1) =   0
                l(2) =   0
                l(3) =   1
                l(4) =   1
     Q(r) pseudized with  8 coefficients,  rinner =    1.100   1.100   1.100

     PseudoPot. # 3 for H  read from file:
     /u/if/mamunm/psp/gbrv1.5pbe/H.UPF
     MD5 check sum: 761ae9a214b05c3daf00ab9f6b793d6f
     Pseudo is Ultrasoft, Zval =  1.0
     Generated by new atomic code, or converted to UPF format
     Using radial grid of  615 points,  2 beta functions with:
                l(1) =   0
                l(2) =   0
     Q(r) pseudized with  8 coefficients,  rinner =    0.700

     vdW kernel table read from file vdW_kernel_table
     MD5 check sum: 095c7af220d748ca6e76c0b4c6cfb241

     atomic species   valence    mass     pseudopotential
        Y1            11.00    88.90584     Y ( 1.00)
        C1             4.00    12.01100     C ( 1.00)
        H1             1.00     1.00800     H ( 1.00)

     No symmetry found

   Cartesian axes

     site n.     atom                  positions (alat units)
         1           Y1  tau(   1) = (   1.7880693   1.0323423  10.0000000  )
         2           Y1  tau(   2) = (   5.3642080   1.0323423  10.0000000  )
         3           Y1  tau(   3) = (   3.5761386   4.1293692  10.0000000  )
         4           Y1  tau(   4) = (   7.1522773   4.1293692  10.0000000  )
         5           Y1  tau(   5) = (   7.1522773   2.0646846  12.9199050  )
         6           Y1  tau(   6) = (   3.5761386   2.0646846  12.9199050  )
         7           Y1  tau(   7) = (   8.9403466   5.1617115  12.9199050  )
         8           Y1  tau(   8) = (   5.3642080   5.1617115  12.9199050  )
         9           Y1  tau(   9) = (   0.0000000   0.0000000  15.8398100  )
        10           Y1  tau(  10) = (   3.5761386   0.0000000  15.8398100  )
        11           Y1  tau(  11) = (   1.7880693   3.0970269  15.8398100  )
        12           Y1  tau(  12) = (   5.3642080   3.0970269  15.8398100  )
        13           C1  tau(  13) = (   3.5761386   2.0646846  17.5688100  )
        14           H1  tau(  14) = (   4.6661386   2.0646846  18.1988100  )
        15           H1  tau(  15) = (   3.1261386   2.9541846  18.1988100  )
        16           H1  tau(  16) = (   3.1261386   1.1751846  18.1988100  )

     number of k points=    20  Fermi-Dirac smearing, width (Ry)=  0.0110
                       cart. coord. in units 2pi/alat
        k(    1) = (   0.0000000   0.0000000   0.0000000), wk =   0.0555556
        k(    2) = (   0.0000000   0.0269075   0.0000000), wk =   0.1111111
        k(    3) = (   0.0000000   0.0538151   0.0000000), wk =   0.1111111
        k(    4) = (   0.0000000  -0.0807226   0.0000000), wk =   0.0555556
        k(    5) = (   0.0233026  -0.0134538   0.0000000), wk =   0.1111111
        k(    6) = (   0.0233026   0.0134538   0.0000000), wk =   0.1111111
        k(    7) = (   0.0233026   0.0403613   0.0000000), wk =   0.1111111
        k(    8) = (   0.0233026  -0.0941763   0.0000000), wk =   0.1111111
        k(    9) = (   0.0233026  -0.0672688   0.0000000), wk =   0.1111111
        k(   10) = (   0.0233026  -0.0403613   0.0000000), wk =   0.1111111
        k(   11) = (   0.0466052  -0.0269075   0.0000000), wk =   0.1111111
        k(   12) = (   0.0466052   0.0000000   0.0000000), wk =   0.1111111
        k(   13) = (   0.0466052   0.0269075   0.0000000), wk =   0.1111111
        k(   14) = (   0.0466052  -0.1076301   0.0000000), wk =   0.1111111
        k(   15) = (   0.0466052  -0.0807226   0.0000000), wk =   0.1111111
        k(   16) = (   0.0466052  -0.0538151   0.0000000), wk =   0.1111111
        k(   17) = (  -0.0699078   0.0403613   0.0000000), wk =   0.0555556
        k(   18) = (  -0.0699078   0.0672688   0.0000000), wk =   0.1111111
        k(   19) = (  -0.0699078   0.0941763   0.0000000), wk =   0.1111111
        k(   20) = (  -0.0699078  -0.0403613   0.0000000), wk =   0.0555556

     Largest allocated arrays     est. size (Mb)     dimensions
     Largest temporary arrays     est. size (Mb)     dimensions

     Initial potential from superposition of free atoms
     Check: negative starting charge=   -0.000516

     starting charge  138.94630, renormalised to  139.00000

     negative rho (up, down):  5.166E-04 0.000E+00

     *
     * You are using vdW-DF for exchange-correlation in this calculation.
     * Please cite the following three references that made this development
     * possible:
     *
     *   M. Dion, H. Rydberg, E. Schroder, D. C. Langreth, and
     *   B. I. Lundqvist, Phys. Rev. Lett. 92, 246401 (2004).
     *
     *   T. Thonhauser, V. R. Cooper, S. Li, A. Puzder, P. Hyldgaard, and
     *   D. C. Langreth, Phys. Rev. B 76, 125112 (2007).
     *
     *   G. Roman-Perez and J. M. Soler, Phys. Rev. Lett. 103, 096102 (2009).
     *
     *
     * If you are using vdW-DF2, please also cite:
     *
     *   K. Lee, E. D. Murray, L. Kong, B. I. Lundqvist, and
     *   D. C. Langreth, Phys. Rev. B 82, 081101(R) (2010).
     *
     *
     * If you are calculating the stress with vdW-DF, please also cite:
     *
     *   R. Sabatini, E. Kucukbenli, B. Kolb, T. Thonhauser, and
     *   S. de Gironcoli, J. Phys.: Condens. Matter 24, 424209 (2012).
     *

     Carrying out vdW-DF run using the following parameters:

     Nqs =      20    Nr_points =    1024   r_max =   100.000
     q_mesh =
               0.00001000     0.04494208     0.09755937     0.15916263
               0.23128650     0.31572767     0.41458969     0.53033537
               0.66584808     0.82450364     1.01025438     1.22772762
               1.48234092     1.78043706     2.12944203     2.53805004
               3.01644009     3.57652955     4.23227104     5.00000000

     Gradients computed in reciprocal space

     Adding external electric field

     Computed dipole along edir(3) :
        Dipole               -0.0245 Ry au,         -0.0623 Debye
        Dipole field         -0.0000 Ry au

        Potential amp.        0.0038 Ry
        Total length         47.6094 bohr

     Starting wfc are  163 randomized atomic wfcs

     Self-consistent Calculation

     iteration #  1     ecut=    36.75 Ry     beta=0.30
     Davidson diagonalization with overlap
     ethr =  1.00E-02,  avg # of iterations =  2.0

[...]

     total energy              =   -1137.63793468 Ry
     Harris-Foulkes estimate   =   -1140.09622649 Ry
     estimated scf accuracy    <       5.33239109 Ry

[...]

     End of self-consistent calculation

          k = 0.0000 0.0000 0.0000 ( 28997 PWs)   bands (ev):

   -42.1174 -42.1064 -42.0656 -42.0644 -42.0634 -42.0631 -42.0426 -42.0362
   -41.5542 -41.5163 -41.5158 -41.4951 -22.2193 -22.2176 -22.2152 -22.2039
   -22.2020 -22.1983 -22.1793 -22.1308 -22.0968 -22.0782 -22.0754 -22.0617
   -22.0437 -22.0376 -21.8880 -21.8877 -21.8869 -21.8827 -21.8803 -21.8675
   -21.7881 -21.7881 -21.7738 -21.7733 -21.6716 -21.6681 -21.6678 -21.4665
   -21.4430 -21.4423 -21.4187 -21.3796 -21.3660 -21.3658 -21.2730 -21.2729
   -12.2975  -5.3797  -4.9556  -3.3206  -2.7932  -1.8966  -1.0177  -0.3676
    -0.3381  -0.3351  -0.2652  -0.2641  -0.1668   0.0518   0.0554   0.3672
     0.5486   0.5522   0.5578   0.9698   0.9812   1.0665   1.4134   1.5573
     1.8316   1.8612   1.8767   1.9492   2.0496   2.0656   2.4553

[...]

          k =-0.0699 0.0404 0.0000 ( 29048 PWs)   bands (ev):

[...]

     the Fermi energy is     1.2379 ev

!    total energy              =   -1139.52431975 Ry
     Harris-Foulkes estimate   =   -1139.52431208 Ry
     estimated scf accuracy    <       0.00000326 Ry

     The total energy is the sum of the following terms:

     one-electron contribution =   -5565.58306261 Ry
     hartree contribution      =    2777.63303299 Ry
     xc contribution           =    -344.75691657 Ry
     ewald contribution        =    1993.31087446 Ry
     electric field correction =       0.00003288 Ry
     smearing contrib. (-TS)   =      -0.12828090 Ry

     convergence has been achieved in  14 iterations

 BEEF-vdW xc energy contributions
           1 :   -300.502843785403
           2 :    269.732767549449
           3 :   -216.828961941624
           4 :    154.860074161865
           5 :   -95.9216743308057
           6 :    47.5638472278666
           7 :   -12.2846407386155
           8 :   -10.6732601511459
           9 :    23.0251908497136
          10 :   -26.1825827665609
          11 :    21.4050228082339
          12 :   -10.6708733751482
          13 :   -2.80182702004373
          14 :    15.0219257691378
          15 :   -22.5036973574651
          16 :    23.5526642484963
          17 :   -18.7451776243566
          18 :    10.3446639982579
          19 :   -1.09750772545760
          20 :   -6.82943015419119
          21 :    12.2563919787370
          22 :   -14.7928997226536
          23 :    14.4674609447470
          24 :   -11.5725848551518
          25 :    6.76475055692174
          26 :   -1.16399210875358
          27 :   -3.81559391699273
          28 :    6.92585397753226
          29 :   -7.58622915618287
          30 :    6.10034908545128
          31 :   -28.9552497172502
          32 :   -19.8107060742572

     Forces acting on atoms (Ry/au):

     negative rho (up, down):  1.338E-04 0.000E+00
     atom    1 type  1   force =     0.00057266    0.00028698    0.00487654
     atom    2 type  1   force =    -0.00052210    0.00037444    0.00485391
     atom    3 type  1   force =    -0.00004452   -0.00063352    0.00488929
     atom    4 type  1   force =    -0.00001030    0.00000029    0.00420494
     atom    5 type  1   force =     0.00002296   -0.00064597   -0.00009073
     atom    6 type  1   force =    -0.00003632   -0.00008504   -0.00959047
     atom    7 type  1   force =     0.00051227    0.00019179   -0.00008955
     atom    8 type  1   force =    -0.00046534    0.00045966   -0.00009776
     atom    9 type  1   force =     0.00065268    0.00017696   -0.01706309
     atom   10 type  1   force =    -0.00176948    0.01343396    0.00352348
     atom   11 type  1   force =     0.01129498   -0.00494626    0.00295812
     atom   12 type  1   force =    -0.01079004   -0.00783470    0.00471643
     atom   13 type  2   force =     0.04669763   -0.00091318    0.14630969
     atom   14 type  3   force =    -0.07563060    0.00223975   -0.06393171
     atom   15 type  3   force =     0.01266450   -0.04303994   -0.04319080
     atom   16 type  3   force =     0.01685101    0.04093476   -0.04227828

     Total force =     0.204632     Total SCF correction =     0.000783

     entering subroutine stress ...

     negative rho (up, down):  1.338E-04 0.000E+00
          total   stress  (Ry/bohr**3)                   (kbar)     P=   -6.48
  -0.00004379  -0.00000049  -0.00000689         -6.44     -0.07     -1.01
  -0.00000049  -0.00003919  -0.00000029         -0.07     -5.76     -0.04
  -0.00000689  -0.00000029  -0.00004909         -1.01     -0.04     -7.22

     BFGS Geometry Optimization

     number of scf cycles    =   1
     number of bfgs steps    =   0

     energy   new            =   -1139.5243197547 Ry

     new trust radius        =       0.1535839462 bohr
     new conv_thr            =       0.0000099958 Ry

ATOMIC_POSITIONS (crystal)
Y1       0.166666667   0.166666667   0.386999750    0   0   0
Y1       0.666666667   0.166666667   0.386999750    0   0   0
Y1       0.166666667   0.666666667   0.386999750    0   0   0
Y1       0.666666667   0.666666667   0.386999750    0   0   0
Y1       0.833333333   0.333333333   0.500000000    0   0   0
Y1       0.333333333   0.333333333   0.500000000    0   0   0
Y1       0.833333333   0.833333333   0.500000000    0   0   0
Y1       0.333333333   0.833333333   0.500000000    0   0   0
Y1       0.000040731   0.000015118   0.612650812
Y1       0.499295229   0.001147705   0.613072408
Y1       0.001046971   0.499577426   0.613060829
Y1       0.499536346   0.499330657   0.613096838
C1       0.336827369   0.333255318   0.682908804
H1       0.480040973   0.333524682   0.702984224
H1       0.201389105   0.473261766   0.703408980
H1       0.341717212   0.193225049   0.703427668

     Writing output data file calc.save
     Check: negative starting charge=   -0.000516
     NEW-OLD atomic charge density approx. for the potential
     Check: negative starting charge=   -0.000522

[...]

     iteration #  1     ecut=    36.75 Ry     beta=0.30
     Davidson diagonalization with overlap
     c_bands:  1 eigenvalues not converged
     ethr =  1.00E-06,  avg # of iterations = 13.3

[...]

     energy   old            =   -1139.5243197547 Ry
     energy   new            =   -1139.5530103588 Ry

     CASE: energy  _new < energy  _old

[...]

     iteration #  1     ecut=    36.75 Ry     beta=0.30
     Davidson diagonalization with overlap
     c_bands:  1 eigenvalues not converged
     ethr =  1.00E-06,  avg # of iterations = 13.0

[...]

     Threshold (ethr) on eigenvalues was too large:
     Diagonalizing with lowered threshold

     Davidson diagonalization with overlap
     ethr =  3.59E-08,  avg # of iterations =  6.8

[...]

     Total force =     0.004393     Total SCF correction =     0.000768
     SCF correction compared to forces is large: reduce conv_thr to get better values

[...]

     Total force =     0.004208     Total SCF correction =     0.000423
     SCF correction compared to forces is large: reduce conv_thr to get better values

[...]

     number of scf cycles    =  14
     number of bfgs steps    =  13

     energy   old            =   -1139.5618186866 Ry
     energy   new            =   -1139.5618465164 Ry

     CASE: energy  _new < energy  _old

     new trust radius        =       0.0052372089 bohr
     new conv_thr            =       0.0000001000 Ry

ATOMIC_POSITIONS (crystal)
Y1       0.166666667   0.166666667   0.386999750    0   0   0
Y1       0.666666667   0.166666667   0.386999750    0   0   0
Y1       0.166666667   0.666666667   0.386999750    0   0   0
Y1       0.666666667   0.666666667   0.386999750    0   0   0
Y1       0.833333333   0.333333333   0.500000000    0   0   0
Y1       0.333333333   0.333333333   0.500000000    0   0   0
Y1       0.833333333   0.833333333   0.500000000    0   0   0
Y1       0.333333333   0.833333333   0.500000000    0   0   0
Y1       0.000843833   0.000155326   0.605304607
Y1       0.494013519   0.010959914   0.613747791
Y1       0.011941698   0.495477779   0.613921254
Y1       0.496501085   0.493825189   0.613553651
C1       0.338297686   0.332963072   0.684520194
H1       0.476922888   0.337710062   0.702280621
H1       0.197002198   0.471109143   0.702882247
H1       0.343847113   0.191038314   0.703168551

     Writing output data file calc.save
     Check: negative starting charge=   -0.000514
     NEW-OLD atomic charge density approx. for the potential
     Check: negative starting charge=   -0.000514

[...]

     Self-consistent Calculation

[...]

     Threshold (ethr) on eigenvalues was too large:
     Diagonalizing with lowered threshold

     Davidson diagonalization with overlap
     ethr =  6.12E-09,  avg # of iterations =  5.1

[...]

     total energy              =   -1139.56185977 Ry
     Harris-Foulkes estimate   =   -1139.56185972 Ry
     estimated scf accuracy    <       0.00000017 Ry

     iteration #  7     ecut=    36.75 Ry     beta=0.30
     Davidson diagonalization with overlap
     ethr =  1.26E-10,  avg # of iterations =  2.9

[...]

     negative rho (up, down):  1.519E-04 0.000E+00

     Adding external electric field

     Computed dipole along edir(3) :
        Dipole                0.1196 Ry au,          0.3040 Debye
        Dipole field          0.0002 Ry au

        Potential amp.       -0.0185 Ry
        Total length         47.6094 bohr

     End of self-consistent calculation

[...]

          k = 0.0466-0.0538 0.0000 ( 29098 PWs)   bands (ev):

[...]

          k =-0.0699-0.0404 0.0000 ( 29048 PWs)   bands (ev):

   -42.1072 -42.1012 -42.0940 -42.0839 -42.0798 -42.0687 -42.0660 -41.9351
   -41.5256 -41.5222 -41.5045 -41.4855 -22.1614 -22.1528 -22.1461 -22.1390
   -22.1282 -22.1110 -22.0928 -22.0916 -22.0840 -22.0808 -22.0735 -22.0459
   -22.0276 -22.0194 -22.0041 -21.9866 -21.9865 -21.9723 -21.9445 -21.8627
   -21.8572 -21.8544 -21.8336 -21.7638 -21.5902 -21.5820 -21.4765 -21.4630
   -21.4492 -21.4430 -21.4373 -21.4310 -21.4299 -21.3978 -21.3124 -21.3114
   -12.8196  -5.8679  -5.8535  -2.6071  -1.8439  -1.7502  -0.9959  -0.8211
    -0.1701  -0.1551  -0.0083   0.1080   0.2599   0.2779   0.9147   0.9274
     0.9796   1.0085   1.0372   1.1086   1.1997   1.2156   1.2958   1.3429
     1.3533   1.4246   1.4548   1.5961   1.6398   1.7522   1.7566

     the Fermi energy is     1.2252 ev

!    total energy              =   -1139.56185976 Ry
     Harris-Foulkes estimate   =   -1139.56185981 Ry
     estimated scf accuracy    <       0.00000004 Ry

     The total energy is the sum of the following terms:

     one-electron contribution =   -5585.62654498 Ry
     hartree contribution      =    2787.70205719 Ry
     xc contribution           =    -344.96676303 Ry
     ewald contribution        =    2003.45779900 Ry
     electric field correction =       0.00002327 Ry
     smearing contrib. (-TS)   =      -0.12843121 Ry

     convergence has been achieved in   7 iterations

 BEEF-vdW xc energy contributions
           1 :   -300.692588688812
           2 :    269.913842002066
           3 :   -216.998090215011
           4 :    155.010805820995
           5 :   -96.0409171142410
           6 :    47.6454192830670
           7 :   -12.3399178571989
           8 :   -10.6241614493472
           9 :    22.9713558618870
          10 :   -26.1299739677859
          11 :    21.3683645082747
          12 :   -10.6586355447470
          13 :   -2.79712039606238
          14 :    15.0208651806593
          15 :   -22.5258673618479
          16 :    23.6014154632798
          17 :   -18.8027048752941
          18 :    10.3813790679650
          19 :   -1.09154069926080
          20 :   -6.87493067805019
          21 :    12.3134407726984
          22 :   -14.8291528963003
          23 :    14.4709181188097
          24 :   -11.5593194529232
          25 :    6.76374572243253
          26 :   -1.19336487145830
          27 :   -3.76024047691180
          28 :    6.86299768358379
          29 :   -7.52974871663150
          30 :    6.04691088502079
          31 :   -28.9677604675294
          32 :   -19.8219909546497

     Forces acting on atoms (Ry/au):

     negative rho (up, down):  1.519E-04 0.000E+00
     atom    1 type  1   force =     0.00057652    0.00032631    0.00475984
     atom    2 type  1   force =    -0.00057171    0.00032542    0.00471320
     atom    3 type  1   force =    -0.00007132   -0.00065554    0.00474784
     atom    4 type  1   force =     0.00002699    0.00000302    0.00566946
     atom    5 type  1   force =     0.00051597    0.00108443   -0.00539084
     atom    6 type  1   force =     0.00001982    0.00002299   -0.00520007
     atom    7 type  1   force =    -0.00087272   -0.00041306   -0.00504682
     atom    8 type  1   force =     0.00090415   -0.00063855   -0.00570407
     atom    9 type  1   force =     0.00008905   -0.00004452    0.00062004
     atom   10 type  1   force =     0.00022066    0.00041722    0.00010715
     atom   11 type  1   force =     0.00040094   -0.00019156   -0.00000490
     atom   12 type  1   force =    -0.00028475   -0.00024337    0.00015566
     atom   13 type  2   force =     0.00112890    0.00004734    0.00043561
     atom   14 type  3   force =    -0.00166257    0.00094646   -0.00035680
     atom   15 type  3   force =    -0.00106941   -0.00088307    0.00025569
     atom   16 type  3   force =     0.00064948   -0.00010353    0.00023901

     Total force =     0.002953     Total SCF correction =     0.000237

     entering subroutine stress ...

     negative rho (up, down):  1.519E-04 0.000E+00
          total   stress  (Ry/bohr**3)                   (kbar)     P=   -2.70
  -0.00002056  -0.00000027  -0.00000100         -3.02     -0.04     -0.15
  -0.00000027  -0.00002028  -0.00000003         -0.04     -2.98     -0.00
  -0.00000100  -0.00000003  -0.00001413         -0.15     -0.00     -2.08

     bfgs converged in  15 scf cycles and  14 bfgs steps
     (criteria: energy <  1.0E+00, force <  1.9E-03)

     End of BFGS Geometry Optimization

     Final energy   =   -1139.5618597642 Ry
Begin final coordinates

ATOMIC_POSITIONS (crystal)
Y1       0.166666667   0.166666667   0.386999750    0   0   0
Y1       0.666666667   0.166666667   0.386999750    0   0   0
Y1       0.166666667   0.666666667   0.386999750    0   0   0
Y1       0.666666667   0.666666667   0.386999750    0   0   0
Y1       0.833333333   0.333333333   0.500000000    0   0   0
Y1       0.333333333   0.333333333   0.500000000    0   0   0
Y1       0.833333333   0.833333333   0.500000000    0   0   0
Y1       0.333333333   0.833333333   0.500000000    0   0   0
Y1       0.000843833   0.000155326   0.605304607
Y1       0.494013519   0.010959914   0.613747791
Y1       0.011941698   0.495477779   0.613921254
Y1       0.496501085   0.493825189   0.613553651
C1       0.338297686   0.332963072   0.684520194
H1       0.476922888   0.337710062   0.702280621
H1       0.197002198   0.471109143   0.702882247
H1       0.343847113   0.191038314   0.703168551
End final coordinates

     Writing output data file calc.save

     General routines

     Parallel routines

   This run was terminated on:   4:33:14  25Apr2018

   JOB DONE.
Job  /afs/slac/g/suncat/bin/suncat-tsmpirun -x LD_LIBRARY_PATH -wdir /scratch/qe271494_JndRI pw.x -npool 4 -in pw.inp

TID   HOST_NAME   COMMAND_LINE            STATUS            TERMINATION_TIME
00000 suncat0061 pw.x -npool 4 -i  Done                     04/25/2018 04:33:14
00001 suncat0061 pw.x -npool 4 -i  Done                     04/25/2018 04:33:14
00002 suncat0061 pw.x -npool 4 -i  Done                     04/25/2018 04:33:14
00003 suncat0061 pw.x -npool 4 -i  Done                     04/25/2018 04:33:14
00004 suncat0061 pw.x -npool 4 -i  Done                     04/25/2018 04:33:14
00005 suncat0061 pw.x -npool 4 -i  Done                     04/25/2018 04:33:14
00006 suncat0061 pw.x -npool 4 -i  Done                     04/25/2018 04:33:14
00007 suncat0061 pw.x -npool 4 -i  Done                     04/25/2018 04:33:14
00008 suncat0057 pw.x -npool 4 -i  Done                     04/25/2018 04:33:14
00009 suncat0057 pw.x -npool 4 -i  Done                     04/25/2018 04:33:14
00010 suncat0057 pw.x -npool 4 -i  Done                     04/25/2018 04:33:14
00011 suncat0057 pw.x -npool 4 -i  Done                     04/25/2018 04:33:14
00012 suncat0057 pw.x -npool 4 -i  Done                     04/25/2018 04:33:14
00013 suncat0057 pw.x -npool 4 -i  Done                     04/25/2018 04:33:14
00014 suncat0057 pw.x -npool 4 -i  Done                     04/25/2018 04:33:14
00015 suncat0057 pw.x -npool 4 -i  Done                     04/25/2018 04:33:14
00016 suncat0053 pw.x -npool 4 -i  Done                     04/25/2018 04:33:14
00017 suncat0053 pw.x -npool 4 -i  Done                     04/25/2018 04:33:14
00018 suncat0053 pw.x -npool 4 -i  Done                     04/25/2018 04:33:14
00019 suncat0053 pw.x -npool 4 -i  Done                     04/25/2018 04:33:14
00020 suncat0053 pw.x -npool 4 -i  Done                     04/25/2018 04:33:14
00021 suncat0053 pw.x -npool 4 -i  Done                     04/25/2018 04:33:14
00022 suncat0053 pw.x -npool 4 -i  Done                     04/25/2018 04:33:14
00023 suncat0053 pw.x -npool 4 -i  Done                     04/25/2018 04:33:14
00024 suncat0043 pw.x -npool 4 -i  Done                     04/25/2018 04:33:14
00025 suncat0043 pw.x -npool 4 -i  Done                     04/25/2018 04:33:14
00026 suncat0043 pw.x -npool 4 -i  Done                     04/25/2018 04:33:14
00027 suncat0043 pw.x -npool 4 -i  Done                     04/25/2018 04:33:14
00028 suncat0043 pw.x -npool 4 -i  Done                     04/25/2018 04:33:14
00029 suncat0043 pw.x -npool 4 -i  Done                     04/25/2018 04:33:14
00030 suncat0043 pw.x -npool 4 -i  Done                     04/25/2018 04:33:14
00031 suncat0043 pw.x -npool 4 -i  Done                     04/25/2018 04:33:14