     Program PWSCF v.5.1rc2 (svn rev. 11289) starts on 17Jan2018 at 16:31: 9

     Current dimensions of program PWSCF are:
     Max number of different atomic species (ntypx) = 10
     Max number of k-points (npk) =  40000
     Max angular momentum in pseudopotentials (lmaxx) =  3
     Presently stress not available with electric field

     IMPORTANT: XC functional enforced from input :
     Exchange-correlation      = BEEF-VDW ( 1  4 27 13 2)
     Any further DFT definition will be discarded
     Please, verify this is what you really want

     Subspace diagonalization in iterative solution of the eigenvalue problem:
     a serial algorithm will be used

     bravais-lattice index     =            0
     lattice parameter (alat)  =       1.8897  a.u.
     unit-cell volume          =    4481.2752 (a.u.)^3
     number of atoms/cell      =           13
     number of atomic types    =            2
     number of electrons       =       197.00
     number of Kohn-Sham states=          108
     kinetic-energy cutoff     =      36.7493  Ry
     charge density cutoff     =     367.4932  Ry
     convergence threshold     =      1.0E-05
     mixing beta               =       0.3000
     number of iterations used =           10  plain     mixing
     Exchange-correlation      = BEEF-VDW ( 1  4 27 13 2)
     nstep                     =           50

     celldm(1)=   1.889726  celldm(2)=   0.000000  celldm(3)=   0.000000
     celldm(4)=   0.000000  celldm(5)=   0.000000  celldm(6)=   0.000000

     crystal axes: (cart. coord. in units of alat)
               a(1) = (   5.587338   0.000000   0.000000 )
               a(2) = (   2.793669   4.838777   0.000000 )
               a(3) = (   0.000000   0.000000  24.562042 )

     reciprocal axes: (cart. coord. in units 2 pi/alat)
               b(1) = (  0.178976 -0.103332  0.000000 )
               b(2) = (  0.000000  0.206664  0.000000 )
               b(3) = (  0.000000  0.000000  0.040713 )

     PseudoPot. # 1 for Pt read from file:
     /afs/slac.stanford.edu/u/if/mamunm/psp/gbrv1.5pbe/Pt.UPF
     MD5 check sum: f09d6de1a584b5a045c4fc126da2d0c4
     Pseudo is Ultrasoft + core correction, Zval = 16.0
     Generated by new atomic code, or converted to UPF format
     Using radial grid of  985 points,  6 beta functions with:
                l(1) =   0
                l(2) =   0
                l(3) =   1
                l(4) =   1
                l(5) =   2
                l(6) =   2
     Q(r) pseudized with  8 coefficients,  rinner =    1.300   1.300   1.300
                                                       1.300   1.300

     PseudoPot. # 2 for N  read from file:
     /afs/slac.stanford.edu/u/if/mamunm/psp/gbrv1.5pbe/N.UPF
     MD5 check sum: 95339753478d7afb44899504a8723017
     Pseudo is Ultrasoft + core correction, Zval =  5.0
     Generated by new atomic code, or converted to UPF format
     Using radial grid of  729 points,  4 beta functions with:
                l(1) =   0
                l(2) =   0
                l(3) =   1
                l(4) =   1
     Q(r) pseudized with  8 coefficients,  rinner =    0.900   0.900   0.900

     vdW kernel table read from file vdW_kernel_table
     MD5 check sum: 095c7af220d748ca6e76c0b4c6cfb241

     atomic species   valence    mass     pseudopotential
        Pt1           16.00   195.08400     Pt( 1.00)
        N1             5.00    14.00700     N ( 1.00)

     No symmetry found

   Cartesian axes

     site n.     atom                  positions (alat units)
         1           Pt1 tau(   1) = (   1.3968345   0.8064628  10.0000000  )
         2           Pt1 tau(   2) = (   4.1905036   0.8064628  10.0000000  )
         3           Pt1 tau(   3) = (   2.7936691   3.2258512  10.0000000  )
         4           Pt1 tau(   4) = (   5.5873381   3.2258512  10.0000000  )
         5           Pt1 tau(   5) = (   5.5873381   1.6129256  12.2810212  )
         6           Pt1 tau(   6) = (   2.7936691   1.6129256  12.2810212  )
         7           Pt1 tau(   7) = (   6.9841727   4.0323140  12.2810212  )
         8           Pt1 tau(   8) = (   4.1905036   4.0323140  12.2810212  )
         9           Pt1 tau(   9) = (   0.0000000   0.0000000  14.5620425  )
        10           Pt1 tau(  10) = (   2.7936691   0.0000000  14.5620425  )
        11           Pt1 tau(  11) = (   1.3968345   2.4193884  14.5620425  )
        12           Pt1 tau(  12) = (   4.1905036   2.4193884  14.5620425  )
        13           N1  tau(  13) = (   1.3968345   0.8064628  16.6320425  )

     number of k points=    20  Fermi-Dirac smearing, width (Ry)=  0.0110
                       cart. coord. in units 2pi/alat
        k(    1) = (   0.0000000   0.0000000   0.0000000), wk =   0.0555556
        k(    2) = (   0.0000000   0.0344440   0.0000000), wk =   0.1111111
        k(    3) = (   0.0000000   0.0688879   0.0000000), wk =   0.1111111
        k(    4) = (   0.0000000  -0.1033319   0.0000000), wk =   0.0555556
        k(    5) = (   0.0298294  -0.0172220   0.0000000), wk =   0.1111111
        k(    6) = (   0.0298294   0.0172220   0.0000000), wk =   0.1111111
        k(    7) = (   0.0298294   0.0516660   0.0000000), wk =   0.1111111
        k(    8) = (   0.0298294  -0.1205539   0.0000000), wk =   0.1111111
        k(    9) = (   0.0298294  -0.0861099   0.0000000), wk =   0.1111111
        k(   10) = (   0.0298294  -0.0516660   0.0000000), wk =   0.1111111
        k(   11) = (   0.0596587  -0.0344440   0.0000000), wk =   0.1111111
        k(   12) = (   0.0596587   0.0000000   0.0000000), wk =   0.1111111
        k(   13) = (   0.0596587   0.0344440   0.0000000), wk =   0.1111111
        k(   14) = (   0.0596587  -0.1377759   0.0000000), wk =   0.1111111
        k(   15) = (   0.0596587  -0.1033319   0.0000000), wk =   0.1111111
        k(   16) = (   0.0596587  -0.0688879   0.0000000), wk =   0.1111111
        k(   17) = (  -0.0894881   0.0516660   0.0000000), wk =   0.0555556
        k(   18) = (  -0.0894881   0.0861099   0.0000000), wk =   0.1111111
        k(   19) = (  -0.0894881   0.1205539   0.0000000), wk =   0.1111111
        k(   20) = (  -0.0894881  -0.0516660   0.0000000), wk =   0.0555556

     Largest allocated arrays     est. size (Mb)     dimensions
     Largest temporary arrays     est. size (Mb)     dimensions

     Initial potential from superposition of free atoms
     Check: negative starting charge=   -2.200787

     starting charge  190.99986, renormalised to  197.00000

     negative rho (up, down):  2.270E+00 0.000E+00

     *
     * You are using vdW-DF for exchange-correlation in this calculation.
     * Please cite the following three references that made this development
     * possible:
     *
     *   M. Dion, H. Rydberg, E. Schroder, D. C. Langreth, and
     *   B. I. Lundqvist, Phys. Rev. Lett. 92, 246401 (2004).
     *
     *   T. Thonhauser, V. R. Cooper, S. Li, A. Puzder, P. Hyldgaard, and
     *   D. C. Langreth, Phys. Rev. B 76, 125112 (2007).
     *
     *   G. Roman-Perez and J. M. Soler, Phys. Rev. Lett. 103, 096102 (2009).
     *
     *
     * If you are using vdW-DF2, please also cite:
     *
     *   K. Lee, E. D. Murray, L. Kong, B. I. Lundqvist, and
     *   D. C. Langreth, Phys. Rev. B 82, 081101(R) (2010).
     *
     *
     * If you are calculating the stress with vdW-DF, please also cite:
     *
     *   R. Sabatini, E. Kucukbenli, B. Kolb, T. Thonhauser, and
     *   S. de Gironcoli, J. Phys.: Condens. Matter 24, 424209 (2012).
     *

     Carrying out vdW-DF run using the following parameters:

     Nqs =      20    Nr_points =    1024   r_max =   100.000
     q_mesh =
               0.00001000     0.04494208     0.09755937     0.15916263
               0.23128650     0.31572767     0.41458969     0.53033537
               0.66584808     0.82450364     1.01025438     1.22772762
               1.48234092     1.78043706     2.12944203     2.53805004
               3.01644009     3.57652955     4.23227104     5.00000000

     Gradients computed in reciprocal space

     Adding external electric field

     Computed dipole along edir(3) :
        Dipole               -1.2914 Ry au,         -3.2824 Debye
        Dipole field         -0.0036 Ry au

        Potential amp.        0.3278 Ry
        Total length         45.2551 bohr

     Starting wfc are  148 randomized atomic wfcs

     Self-consistent Calculation

     iteration #  1     ecut=    36.75 Ry     beta=0.30
     Davidson diagonalization with overlap
     ethr =  1.00E-02,  avg # of iterations =  2.3

[...]

     total energy              =   -2548.06304114 Ry
     Harris-Foulkes estimate   =   -2571.50589248 Ry
     estimated scf accuracy    <      49.66820631 Ry

[...]

     End of self-consistent calculation

          k = 0.0000 0.0000 0.0000 ( 16787 PWs)   bands (ev):

   -51.5754 -51.5751 -51.5371 -51.5211 -51.4403 -51.4235 -51.4231 -51.3799
   -51.3384 -51.3381 -51.3112 -51.3111 -51.3078 -51.2294 -51.2293 -51.2120
   -51.2118 -51.1930 -51.1862 -51.1790 -51.1788 -51.1308 -51.0874 -51.0871
   -50.9640 -50.9639 -50.9545 -50.9067 -50.9066 -50.8817 -50.8817 -50.7770
   -50.7510 -50.7387 -50.7383 -50.6656 -10.7074  -7.3171  -5.5819  -5.1797
    -4.8269  -4.8268  -4.8153  -4.6243  -4.6242  -4.6169  -4.1863  -4.1639
    -4.1639  -4.0158  -4.0016  -4.0015  -2.6845  -2.6328  -2.6327  -2.2258
    -2.2257  -2.2198  -2.0607  -1.9439  -1.9439  -1.6924  -1.6924  -1.6413
    -1.5237  -1.5172  -1.5171  -1.4321  -1.4321  -1.0484  -1.0482  -0.8698
    -0.2230  -0.1742  -0.1741  -0.0592   0.0181   0.0182   0.1388   0.1388
     0.5713   0.5713   0.6122   0.7727   0.7727   1.1823   1.2068   1.2116
     1.2117   1.3520   1.3520   1.6057   1.6080   1.6083   1.6538   1.6783
     1.6784   1.8038   1.8847   1.8848   1.9944   1.9965   1.9966   2.6781
     2.9796   2.9796   3.4651   4.4188

[...]

          k =-0.0895 0.0517 0.0000 ( 16880 PWs)   bands (ev):

[...]

     the Fermi energy is     1.4686 ev

!    total energy              =   -2568.19336359 Ry
     Harris-Foulkes estimate   =   -2568.19335953 Ry
     estimated scf accuracy    <       0.00000180 Ry

     The total energy is the sum of the following terms:

     one-electron contribution =  -20485.26339098 Ry
     hartree contribution      =   10279.46992614 Ry
     xc contribution           =    -708.47872187 Ry
     ewald contribution        =    8346.18815745 Ry
     electric field correction =       0.00028008 Ry
     smearing contrib. (-TS)   =      -0.10961442 Ry

     convergence has been achieved in  18 iterations

 BEEF-vdW xc energy contributions
           1 :   -630.643768450412
           2 :    586.797486285819
           3 :   -508.244910603398
           4 :    409.982519763020
           5 :   -308.338637693148
           6 :    216.847273124864
           7 :   -143.587764203136
           8 :    90.5022067082148
           9 :   -54.6321641886839
          10 :    30.5532272094310
          11 :   -12.9686632202063
          12 :   -1.50833124592407
          13 :    13.8496277895877
          14 :   -23.2606855191711
          15 :    28.4271132845666
          16 :   -28.7093154821082
          17 :    24.7646820102693
          18 :   -18.4220744356243
[...]

[...]

   This run was terminated on:  18: 1: 6  17Jan2018

[...]

     Program PWSCF v.5.1rc2 (svn rev. 11289) starts on 17Jan2018 at 18: 1:12

[...]

     Total force =     0.142138     Total SCF correction =     0.012808

[...]

     Program PWSCF v.5.1rc2 (svn rev. 11289) starts on 17Jan2018 at 18:31: 3

[...]

     Check: negative/imaginary core charge=   -0.000001    0.000000

[...]

   This run was terminated on:  19: 0: 1  17Jan2018

[...]

     Program PWSCF v.5.1rc2 (svn rev. 11289) starts on 17Jan2018 at 19: 0: 7

[...]

     Program PWSCF v.5.1rc2 (svn rev. 11289) starts on 17Jan2018 at 19:29:46

     Current dimensions of program PWSCF are:
     Max number of different atomic species (ntypx) = 10
     Max number of k-points (npk) =  40000
     Max angular momentum in pseudopotentials (lmaxx) =  3
     Presently stress not available with electric field

     IMPORTANT: XC functional enforced from input :
     Exchange-correlation      = BEEF-VDW ( 1  4 27 13 2)
     Any further DFT definition will be discarded
     Please, verify this is what you really want

     Subspace diagonalization in iterative solution of the eigenvalue problem:
     a serial algorithm will be used

     bravais-lattice index     =            0
     lattice parameter (alat)  =       1.8897  a.u.
     unit-cell volume          =    4481.2752 (a.u.)^3
     number of atoms/cell      =           13
     number of atomic types    =            2
     number of electrons       =       197.00
     number of Kohn-Sham states=          108
     kinetic-energy cutoff     =      36.7493  Ry
     charge density cutoff     =     367.4932  Ry
     convergence threshold     =      1.0E-05
     mixing beta               =       0.3000
     number of iterations used =           10  plain     mixing
     Exchange-correlation      = BEEF-VDW ( 1  4 27 13 2)
     nstep                     =           50

     celldm(1)=   1.889726  celldm(2)=   0.000000  celldm(3)=   0.000000
     celldm(4)=   0.000000  celldm(5)=   0.000000  celldm(6)=   0.000000

     crystal axes: (cart. coord. in units of alat)
               a(1) = (   5.587338   0.000000   0.000000 )
               a(2) = (   2.793669   4.838777   0.000000 )
               a(3) = (   0.000000   0.000000  24.562042 )

     reciprocal axes: (cart. coord. in units 2 pi/alat)
               b(1) = (  0.178976 -0.103332  0.000000 )
               b(2) = (  0.000000  0.206664  0.000000 )
               b(3) = (  0.000000  0.000000  0.040713 )

     PseudoPot. # 1 for Pt read from file:
     /afs/slac.stanford.edu/u/if/mamunm/psp/gbrv1.5pbe/Pt.UPF
     MD5 check sum: f09d6de1a584b5a045c4fc126da2d0c4
     Pseudo is Ultrasoft + core correction, Zval = 16.0
     Generated by new atomic code, or converted to UPF format
     Using radial grid of  985 points,  6 beta functions with:
                l(1) =   0
                l(2) =   0
                l(3) =   1
                l(4) =   1
                l(5) =   2
                l(6) =   2
     Q(r) pseudized with  8 coefficients,  rinner =    1.300   1.300   1.300
                                                       1.300   1.300

     PseudoPot. # 2 for N  read from file:
     /afs/slac.stanford.edu/u/if/mamunm/psp/gbrv1.5pbe/N.UPF
     MD5 check sum: 95339753478d7afb44899504a8723017
     Pseudo is Ultrasoft + core correction, Zval =  5.0
     Generated by new atomic code, or converted to UPF format
     Using radial grid of  729 points,  4 beta functions with:
                l(1) =   0
                l(2) =   0
                l(3) =   1
                l(4) =   1
     Q(r) pseudized with  8 coefficients,  rinner =    0.900   0.900   0.900

     vdW kernel table read from file vdW_kernel_table
     MD5 check sum: 095c7af220d748ca6e76c0b4c6cfb241

     atomic species   valence    mass     pseudopotential
        Pt1           16.00   195.08400     Pt( 1.00)
        N1             5.00    14.00700     N ( 1.00)

     No symmetry found

   Cartesian axes

     site n.     atom                  positions (alat units)
         1           Pt1 tau(   1) = (   1.3968345   0.8064628  10.0000000  )
         2           Pt1 tau(   2) = (   4.1905036   0.8064628  10.0000000  )
         3           Pt1 tau(   3) = (   2.7936691   3.2258512  10.0000000  )
         4           Pt1 tau(   4) = (   5.5873381   3.2258512  10.0000000  )
         5           Pt1 tau(   5) = (   5.5873381   1.6129256  12.2810212  )
         6           Pt1 tau(   6) = (   2.7936691   1.6129256  12.2810212  )
         7           Pt1 tau(   7) = (   6.9841727   4.0323140  12.2810212  )
         8           Pt1 tau(   8) = (   4.1905036   4.0323140  12.2810212  )
         9           Pt1 tau(   9) = (   8.3436634   4.8171979  14.7086267  )
        10           Pt1 tau(  10) = (   5.6246053   4.8173985  14.7085883  )
        11           Pt1 tau(  11) = (   6.9843082   2.4622714  14.7085358  )
        12           Pt1 tau(  12) = (   4.1903241   2.4192829  14.5764792  )
        13           N1  tau(  13) = (   1.3968106   0.8065248  15.7559081  )

     number of k points=    20  Fermi-Dirac smearing, width (Ry)=  0.0110
                       cart. coord. in units 2pi/alat
        k(    1) = (   0.0000000   0.0000000   0.0000000), wk =   0.0555556
        k(    2) = (   0.0000000   0.0344440   0.0000000), wk =   0.1111111
        k(    3) = (   0.0000000   0.0688879   0.0000000), wk =   0.1111111
        k(    4) = (   0.0000000  -0.1033319   0.0000000), wk =   0.0555556
        k(    5) = (   0.0298294  -0.0172220   0.0000000), wk =   0.1111111
        k(    6) = (   0.0298294   0.0172220   0.0000000), wk =   0.1111111
        k(    7) = (   0.0298294   0.0516660   0.0000000), wk =   0.1111111
        k(    8) = (   0.0298294  -0.1205539   0.0000000), wk =   0.1111111
        k(    9) = (   0.0298294  -0.0861099   0.0000000), wk =   0.1111111
        k(   10) = (   0.0298294  -0.0516660   0.0000000), wk =   0.1111111
        k(   11) = (   0.0596587  -0.0344440   0.0000000), wk =   0.1111111
        k(   12) = (   0.0596587   0.0000000   0.0000000), wk =   0.1111111
        k(   13) = (   0.0596587   0.0344440   0.0000000), wk =   0.1111111
        k(   14) = (   0.0596587  -0.1377759   0.0000000), wk =   0.1111111
        k(   15) = (   0.0596587  -0.1033319   0.0000000), wk =   0.1111111
        k(   16) = (   0.0596587  -0.0688879   0.0000000), wk =   0.1111111
        k(   17) = (  -0.0894881   0.0516660   0.0000000), wk =   0.0555556
        k(   18) = (  -0.0894881   0.0861099   0.0000000), wk =   0.1111111
        k(   19) = (  -0.0894881   0.1205539   0.0000000), wk =   0.1111111
        k(   20) = (  -0.0894881  -0.0516660   0.0000000), wk =   0.0555556

     Largest allocated arrays     est. size (Mb)     dimensions
     Largest temporary arrays     est. size (Mb)     dimensions

     Initial potential from superposition of free atoms
     Check: negative starting charge=   -2.196603

     starting charge  190.99986, renormalised to  197.00000

[...]

     *
     * You are using vdW-DF for exchange-correlation in this calculation.
     * Please cite the following three references that made this development
     * possible:
     *
     *   M. Dion, H. Rydberg, E. Schroder, D. C. Langreth, and
     *   B. I. Lundqvist, Phys. Rev. Lett. 92, 246401 (2004).
     *
     *   T. Thonhauser, V. R. Cooper, S. Li, A. Puzder, P. Hyldgaard, and
     *   D. C. Langreth, Phys. Rev. B 76, 125112 (2007).
     *
     *   G. Roman-Perez and J. M. Soler, Phys. Rev. Lett. 103, 096102 (2009).
     *
     *
     * If you are using vdW-DF2, please also cite:
     *
     *   K. Lee, E. D. Murray, L. Kong, B. I. Lundqvist, and
     *   D. C. Langreth, Phys. Rev. B 82, 081101(R) (2010).
     *
     *
     * If you are calculating the stress with vdW-DF, please also cite:
     *
     *   R. Sabatini, E. Kucukbenli, B. Kolb, T. Thonhauser, and
     *   S. de Gironcoli, J. Phys.: Condens. Matter 24, 424209 (2012).
     *

     Carrying out vdW-DF run using the following parameters:

     Nqs =      20    Nr_points =    1024   r_max =   100.000
     q_mesh =
               0.00001000     0.04494208     0.09755937     0.15916263
               0.23128650     0.31572767     0.41458969     0.53033537
               0.66584808     0.82450364     1.01025438     1.22772762
               1.48234092     1.78043706     2.12944203     2.53805004
               3.01644009     3.57652955     4.23227104     5.00000000

     Gradients computed in reciprocal space

[...]

     Starting wfc are  148 randomized atomic wfcs

     Self-consistent Calculation

[...]

     total energy              =   -2568.44304894 Ry
     Harris-Foulkes estimate   =   -2568.44306590 Ry
     estimated scf accuracy    <       0.00012126 Ry

     iteration # 17     ecut=    36.75 Ry     beta=0.30
     Davidson diagonalization with overlap
     ethr =  6.16E-08,  avg # of iterations =  1.1

[...]

     negative rho (up, down):  2.114E+00 0.000E+00

     Adding external electric field

     Computed dipole along edir(3) :
        Dipole               -0.0497 Ry au,         -0.1262 Debye
        Dipole field         -0.0001 Ry au

        Potential amp.        0.0126 Ry
        Total length         45.2551 bohr

     End of self-consistent calculation

[...]

          k = 0.0597-0.0689 0.0000 ( 16875 PWs)   bands (ev):

[...]

          k =-0.0895-0.0517 0.0000 ( 16880 PWs)   bands (ev):

   -51.7397 -51.6448 -51.5740 -51.2640 -51.2472 -51.1873 -51.0825 -51.0787
   -51.0676 -51.0388 -51.0009 -50.9785 -50.9637 -50.9586 -50.9461 -50.9245
   -50.9037 -50.8967 -50.8887 -50.8504 -50.8344 -50.7764 -50.7695 -50.7103
   -50.6762 -50.6710 -50.6546 -50.5728 -50.5672 -50.5261 -50.5088 -50.4362
   -50.3720 -50.3635 -50.3590 -50.2830 -13.8023  -5.5429  -5.0835  -4.6889
    -4.3022  -3.9547  -3.8358  -3.6049  -3.4421  -3.4023  -3.3848  -3.3250
    -3.1895  -2.8803  -2.8341  -2.8198  -2.7999  -2.5870  -2.5418  -2.4271
    -2.2122  -2.1333  -2.0964  -2.0923  -2.0589  -2.0268  -1.7163  -1.6530
    -1.5857  -1.4947  -1.2982  -1.1781  -1.1498  -1.0164  -0.9784  -0.9708
    -0.9132  -0.8932  -0.7960  -0.7098  -0.6792  -0.4742  -0.2713  -0.2584
    -0.1871  -0.1510  -0.1424   0.0059   0.1330   0.1797   0.3019   0.3207
     0.4547   0.6468   0.7057   0.7774   0.8422   0.9752   1.2728   1.3635
     1.4452   1.5283   1.5941   1.7062   1.9278   2.3032   2.7183   3.2898
     3.7262   4.0855   4.2918   4.4688

     the Fermi energy is     1.7816 ev

!    total energy              =   -2568.44304553 Ry
     Harris-Foulkes estimate   =   -2568.44305302 Ry
     estimated scf accuracy    <       0.00000691 Ry

     The total energy is the sum of the following terms:

     one-electron contribution =  -20447.97532727 Ry
     hartree contribution      =   10262.33937898 Ry
     xc contribution           =    -708.88922340 Ry
     ewald contribution        =    8326.17745727 Ry
     electric field correction =       0.00000692 Ry
     smearing contrib. (-TS)   =      -0.09533802 Ry

     convergence has been achieved in  17 iterations

 BEEF-vdW xc energy contributions
           1 :   -631.071118844779
           2 :    587.357922861166
           3 :   -508.940044642353
           4 :    410.688635737020
           5 :   -308.895285579309
           6 :    217.134491848970
           7 :   -143.565467997383
           8 :    90.2133801781308
           9 :   -54.1783835559982
          10 :    30.0562755965533
          11 :   -12.5334836319754
          12 :   -1.81471329173144
          13 :    13.9985336652480
          14 :   -23.2539074919797
          15 :    28.2935533736885
          16 :   -28.5031976248519
          17 :    24.5576407677489
          18 :   -18.2847664974646
          19 :    11.9614497029203
          20 :   -7.45491468395278
          21 :    5.61298519249976
          22 :   -6.13877686016781
          23 :    7.93245906110531
          24 :   -9.69076275231157
          25 :    10.4733751492137
          26 :   -10.0080939916724
          27 :    8.65102717233071
          28 :   -7.08568261996368
          29 :    5.94185221299915
          30 :   -5.51825863242573
          31 :   -51.8737268958454
          32 :   -38.3831689993854

     Forces acting on atoms (Ry/au):

     negative rho (up, down):  2.114E+00 0.000E+00
     atom    1 type  1   force =    -0.00006286    0.00000082   -0.01247888
     atom    2 type  1   force =     0.00006637    0.00012072   -0.02055401
     atom    3 type  1   force =     0.00010627   -0.00002071   -0.02058743
     atom    4 type  1   force =    -0.00009684   -0.00009269   -0.02051489
     atom    5 type  1   force =     0.00153304   -0.00085562    0.00934440
     atom    6 type  1   force =    -0.00154387   -0.00092361    0.00931473
     atom    7 type  1   force =    -0.00005606   -0.00000220    0.04471329
     atom    8 type  1   force =     0.00006128    0.00177486    0.00939368
     atom    9 type  1   force =    -0.00011879   -0.00003052    0.00012059
     atom   10 type  1   force =     0.00017659   -0.00028320    0.00019467
     atom   11 type  1   force =    -0.00019094    0.00030584    0.00014039
     atom   12 type  1   force =     0.00017091    0.00005992    0.00067765
     atom   13 type  2   force =    -0.00004509   -0.00005361    0.00023581

     Total force =     0.060786     Total SCF correction =     0.014813
     SCF correction compared to forces is large: reduce conv_thr to get better values

     entering subroutine stress ...

     negative rho (up, down):  2.114E+00 0.000E+00
          total   stress  (Ry/bohr**3)                   (kbar)     P=   -6.10
  -0.00009176  -0.00000002  -0.00000003        -13.50     -0.00     -0.01
  -0.00000002  -0.00009175  -0.00000003         -0.00    -13.50     -0.00
  -0.00000003  -0.00000003   0.00005912         -0.01     -0.00      8.70

 !ASE

     Writing output data file calc.save

     General routines

     Parallel routines

   This run was terminated on:  19:44:11  17Jan2018

   JOB DONE.
Job  /afs/slac/g/suncat/bin/suncat-tsmpirun -x LD_LIBRARY_PATH -wdir /scratch/qe842471_Q8UFT pw.x -in pw.inp

TID   HOST_NAME   COMMAND_LINE            STATUS            TERMINATION_TIME
00000 suncat0264 pw.x -in pw.inp   Done                     01/17/2018 19:44:11
00001 suncat0264 pw.x -in pw.inp   Done                     01/17/2018 19:44:11
00002 suncat0264 pw.x -in pw.inp   Done                     01/17/2018 19:44:11
00003 suncat0264 pw.x -in pw.inp   Done                     01/17/2018 19:44:11
00004 suncat0264 pw.x -in pw.inp   Done                     01/17/2018 19:44:11
00005 suncat0264 pw.x -in pw.inp   Done                     01/17/2018 19:44:11
00006 suncat0264 pw.x -in pw.inp   Done                     01/17/2018 19:44:11
00007 suncat0264 pw.x -in pw.inp   Done                     01/17/2018 19:44:11
00008 suncat0259 pw.x -in pw.inp   Done                     01/17/2018 19:44:11
00009 suncat0259 pw.x -in pw.inp   Done                     01/17/2018 19:44:11
00010 suncat0259 pw.x -in pw.inp   Done                     01/17/2018 19:44:11
00011 suncat0259 pw.x -in pw.inp   Done                     01/17/2018 19:44:11
00012 suncat0259 pw.x -in pw.inp   Done                     01/17/2018 19:44:11
00013 suncat0259 pw.x -in pw.inp   Done                     01/17/2018 19:44:11
00014 suncat0259 pw.x -in pw.inp   Done                     01/17/2018 19:44:11
00015 suncat0259 pw.x -in pw.inp   Done                     01/17/2018 19:44:11
00016 suncat0258 pw.x -in pw.inp   Done                     01/17/2018 19:44:11
00017 suncat0258 pw.x -in pw.inp   Done                     01/17/2018 19:44:11
00018 suncat0258 pw.x -in pw.inp   Done                     01/17/2018 19:44:11
00019 suncat0258 pw.x -in pw.inp   Done                     01/17/2018 19:44:11
00020 suncat0258 pw.x -in pw.inp   Done                     01/17/2018 19:44:11
00021 suncat0258 pw.x -in pw.inp   Done                     01/17/2018 19:44:11
00022 suncat0258 pw.x -in pw.inp   Done                     01/17/2018 19:44:11
00023 suncat0258 pw.x -in pw.inp   Done                     01/17/2018 19:44:11
00024 suncat0256 pw.x -in pw.inp   Done                     01/17/2018 19:44:11
00025 suncat0256 pw.x -in pw.inp   Done                     01/17/2018 19:44:11
00026 suncat0256 pw.x -in pw.inp   Done                     01/17/2018 19:44:11
00027 suncat0256 pw.x -in pw.inp   Done                     01/17/2018 19:44:11
00028 suncat0256 pw.x -in pw.inp   Done                     01/17/2018 19:44:11
00029 suncat0256 pw.x -in pw.inp   Done                     01/17/2018 19:44:11
00030 suncat0256 pw.x -in pw.inp   Done                     01/17/2018 19:44:11
00031 suncat0256 pw.x -in pw.inp   Done                     01/17/2018 19:44:11