     Program PWSCF v.5.1rc2 (svn rev. 11289) starts on 22Apr2018 at 20:56:28

     Current dimensions of program PWSCF are:
     Max number of different atomic species (ntypx) = 10
     Max number of k-points (npk) =  40000
     Max angular momentum in pseudopotentials (lmaxx) =  3
     Presently stress not available with electric field

     IMPORTANT: XC functional enforced from input :
     Exchange-correlation      = BEEF-VDW ( 1  4 27 13 2)
     Any further DFT definition will be discarded
     Please, verify this is what you really want

     Subspace diagonalization in iterative solution of the eigenvalue problem:
     a serial algorithm will be used

     bravais-lattice index     =            0
     lattice parameter (alat)  =       1.8897  a.u.
     unit-cell volume          =    6116.8020 (a.u.)^3
     number of atoms/cell      =           14
     number of atomic types    =            3
     number of electrons       =       138.00
     number of Kohn-Sham states=           79
     kinetic-energy cutoff     =      36.7493  Ry
     charge density cutoff     =     367.4932  Ry
     convergence threshold     =      1.0E-05
     mixing beta               =       0.3000
     number of iterations used =           10  plain     mixing
     Exchange-correlation      = BEEF-VDW ( 1  4 27 13 2)
     nstep                     =           50

     celldm(1)=   1.889726  celldm(2)=   0.000000  celldm(3)=   0.000000
     celldm(4)=   0.000000  celldm(5)=   0.000000  celldm(6)=   0.000000

     crystal axes: (cart. coord. in units of alat)
               a(1) = (   6.437465   0.000000   0.000000 )
               a(2) = (   3.218732   5.575008   0.000000 )
               a(3) = (   0.000000   0.000000  25.256168 )

     reciprocal axes: (cart. coord. in units 2 pi/alat)
               b(1) = (  0.155341 -0.089686  0.000000 )
               b(2) = (  0.000000  0.179372  0.000000 )
               b(3) = (  0.000000  0.000000  0.039594 )

     PseudoPot. # 1 for Sc read from file:
     /u/if/mamunm/psp/gbrv1.5pbe/Sc.UPF
     MD5 check sum: db30a2753ba66ef00f23801d899b7e7f
     Pseudo is Ultrasoft + core correction, Zval = 11.0
     Generated by new atomic code, or converted to UPF format
     Using radial grid of  849 points,  6 beta functions with:
                l(1) =   0
                l(2) =   0
                l(3) =   1
                l(4) =   1
                l(5) =   2
                l(6) =   2
     Q(r) pseudized with  6 coefficients,  rinner =    1.200   1.200   1.200
                                                       1.200   1.200

     PseudoPot. # 2 for N  read from file:
     /u/if/mamunm/psp/gbrv1.5pbe/N.UPF
     MD5 check sum: 95339753478d7afb44899504a8723017
     Pseudo is Ultrasoft + core correction, Zval =  5.0
     Generated by new atomic code, or converted to UPF format
     Using radial grid of  729 points,  4 beta functions with:
                l(1) =   0
                l(2) =   0
                l(3) =   1
                l(4) =   1
     Q(r) pseudized with  8 coefficients,  rinner =    0.900   0.900   0.900

     PseudoPot. # 3 for H  read from file:
     /u/if/mamunm/psp/gbrv1.5pbe/H.UPF
     MD5 check sum: 761ae9a214b05c3daf00ab9f6b793d6f
     Pseudo is Ultrasoft, Zval =  1.0
     Generated by new atomic code, or converted to UPF format
     Using radial grid of  615 points,  2 beta functions with:
                l(1) =   0
                l(2) =   0
     Q(r) pseudized with  8 coefficients,  rinner =    0.700

     vdW kernel table read from file vdW_kernel_table
     MD5 check sum: 095c7af220d748ca6e76c0b4c6cfb241

     atomic species   valence    mass     pseudopotential
        Sc1           11.00    44.95591     Sc( 1.00)
        N1             5.00    14.00700     N ( 1.00)
        H1             1.00     1.00800     H ( 1.00)

     No symmetry found

   Cartesian axes

     site n.     atom                  positions (alat units)
         1           Sc1 tau(   1) = (   1.6093662   0.9291680  10.0000000  )
         2           Sc1 tau(   2) = (   4.8280986   0.9291680  10.0000000  )
         3           Sc1 tau(   3) = (   3.2187324   3.7166720  10.0000000  )
         4           Sc1 tau(   4) = (   6.4374648   3.7166720  10.0000000  )
         5           Sc1 tau(   5) = (   6.4374648   1.8583360  12.6280840  )
         6           Sc1 tau(   6) = (   3.2187324   1.8583360  12.6280840  )
         7           Sc1 tau(   7) = (   8.0468310   4.6458400  12.6280840  )
         8           Sc1 tau(   8) = (   4.8280986   4.6458400  12.6280840  )
         9           Sc1 tau(   9) = (   0.0000000   0.0000000  15.2561680  )
        10           Sc1 tau(  10) = (   3.2187324   0.0000000  15.2561680  )
        11           Sc1 tau(  11) = (   1.6093662   2.7875040  15.2561680  )
        12           Sc1 tau(  12) = (   4.8280986   2.7875040  15.2561680  )
        13           N1  tau(  13) = (   0.0000000   0.0000000  17.3046680  )
        14           H1  tau(  14) = (   0.0000000   0.0000000  18.3546680  )

     number of k points=    20  Fermi-Dirac smearing, width (Ry)=  0.0110
                       cart. coord. in units 2pi/alat
        k(    1) = (   0.0000000   0.0000000   0.0000000), wk =   0.0555556
        k(    2) = (   0.0000000   0.0298953   0.0000000), wk =   0.1111111
        k(    3) = (   0.0000000   0.0597906   0.0000000), wk =   0.1111111
        k(    4) = (   0.0000000  -0.0896860   0.0000000), wk =   0.0555556
        k(    5) = (   0.0258901  -0.0149477   0.0000000), wk =   0.1111111
        k(    6) = (   0.0258901   0.0149477   0.0000000), wk =   0.1111111
        k(    7) = (   0.0258901   0.0448430   0.0000000), wk =   0.1111111
        k(    8) = (   0.0258901  -0.1046336   0.0000000), wk =   0.1111111
        k(    9) = (   0.0258901  -0.0747383   0.0000000), wk =   0.1111111
        k(   10) = (   0.0258901  -0.0448430   0.0000000), wk =   0.1111111
        k(   11) = (   0.0517802  -0.0298953   0.0000000), wk =   0.1111111
        k(   12) = (   0.0517802   0.0000000   0.0000000), wk =   0.1111111
        k(   13) = (   0.0517802   0.0298953   0.0000000), wk =   0.1111111
        k(   14) = (   0.0517802  -0.1195813   0.0000000), wk =   0.1111111
        k(   15) = (   0.0517802  -0.0896860   0.0000000), wk =   0.1111111
        k(   16) = (   0.0517802  -0.0597906   0.0000000), wk =   0.1111111
        k(   17) = (  -0.0776703   0.0448430   0.0000000), wk =   0.0555556
        k(   18) = (  -0.0776703   0.0747383   0.0000000), wk =   0.1111111
        k(   19) = (  -0.0776703   0.1046336   0.0000000), wk =   0.1111111
        k(   20) = (  -0.0776703  -0.0448430   0.0000000), wk =   0.0555556

     Largest allocated arrays     est. size (Mb)     dimensions
     Largest temporary arrays     est. size (Mb)     dimensions

     Initial potential from superposition of free atoms
     Check: negative starting charge=   -0.000236

     starting charge  137.97115, renormalised to  138.00000

     negative rho (up, down):  2.364E-04 0.000E+00

     *
     * You are using vdW-DF for exchange-correlation in this calculation.
     * Please cite the following three references that made this development
     * possible:
     *
     *   M. Dion, H. Rydberg, E. Schroder, D. C. Langreth, and
     *   B. I. Lundqvist, Phys. Rev. Lett. 92, 246401 (2004).
     *
     *   T. Thonhauser, V. R. Cooper, S. Li, A. Puzder, P. Hyldgaard, and
     *   D. C. Langreth, Phys. Rev. B 76, 125112 (2007).
     *
     *   G. Roman-Perez and J. M. Soler, Phys. Rev. Lett. 103, 096102 (2009).
     *
     *
     * If you are using vdW-DF2, please also cite:
     *
     *   K. Lee, E. D. Murray, L. Kong, B. I. Lundqvist, and
     *   D. C. Langreth, Phys. Rev. B 82, 081101(R) (2010).
     *
     *
     * If you are calculating the stress with vdW-DF, please also cite:
     *
     *   R. Sabatini, E. Kucukbenli, B. Kolb, T. Thonhauser, and
     *   S. de Gironcoli, J. Phys.: Condens. Matter 24, 424209 (2012).
     *

     Carrying out vdW-DF run using the following parameters:

     Nqs =      20    Nr_points =    1024   r_max =   100.000
     q_mesh =
               0.00001000     0.04494208     0.09755937     0.15916263
               0.23128650     0.31572767     0.41458969     0.53033537
               0.66584808     0.82450364     1.01025438     1.22772762
               1.48234092     1.78043706     2.12944203     2.53805004
               3.01644009     3.57652955     4.23227104     5.00000000

     Gradients computed in reciprocal space

     Adding external electric field

     Computed dipole along edir(3) :
        Dipole               -0.0113 Ry au,         -0.0288 Debye
        Dipole field         -0.0000 Ry au

        Potential amp.        0.0022 Ry
        Total length         46.5341 bohr

     Starting wfc are  161 randomized atomic wfcs

     Self-consistent Calculation

     iteration #  1     ecut=    36.75 Ry     beta=0.30
     Davidson diagonalization with overlap
     ethr =  1.00E-02,  avg # of iterations =  2.0

[...]

     total energy              =   -1156.57365680 Ry
     Harris-Foulkes estimate   =   -1159.86901432 Ry
     estimated scf accuracy    <       7.06817762 Ry

[...]

     End of self-consistent calculation

          k = 0.0000 0.0000 0.0000 ( 23031 PWs)   bands (ev):

   -49.6449 -49.6104 -49.6100 -49.5553 -49.5107 -49.5104 -49.5067 -49.1050
   -49.0604 -49.0602 -49.0586 -48.8530 -28.3640 -28.3201 -28.3197 -28.3142
   -28.2827 -28.2824 -28.2658 -28.2656 -28.2654 -28.2333 -28.1784 -28.1782
   -28.1740 -28.1108 -28.0155 -28.0152 -28.0102 -28.0066 -28.0065 -27.9293
   -27.9293 -27.8505 -27.8250 -27.8249 -27.6831 -27.6519 -27.6505 -27.6503
   -27.5926 -27.5925 -27.5831 -27.5122 -27.5122 -27.4857 -27.4857 -27.3431
   -13.3257  -4.5964  -4.1550  -3.1326  -1.9003  -1.1612  -1.1612  -1.0834
    -1.0017  -1.0017  -0.9604  -0.8606  -0.8606  -0.6700  -0.6699  -0.6672
    -0.1568  -0.1568  -0.1557   0.0889   0.2252   0.2253   0.4877   0.8876
     0.9943   1.0198   1.0198   1.0356   1.2584   1.4543   1.4543

[...]

          k =-0.0777 0.0448 0.0000 ( 23032 PWs)   bands (ev):

[...]

     the Fermi energy is     0.3969 ev

!    total energy              =   -1159.19275310 Ry
     Harris-Foulkes estimate   =   -1159.19276436 Ry
     estimated scf accuracy    <       0.00000642 Ry

     The total energy is the sum of the following terms:

     one-electron contribution =   -7305.59267857 Ry
     hartree contribution      =    3637.12148187 Ry
     xc contribution           =    -172.60283641 Ry
     ewald contribution        =    2682.00962443 Ry
     electric field correction =       0.00003931 Ry
     smearing contrib. (-TS)   =      -0.12838374 Ry

     convergence has been achieved in  20 iterations

 BEEF-vdW xc energy contributions
           1 :   -146.237037789659
           2 :    128.587820516538
           3 :   -101.120489587925
           4 :    74.4475020117535
           5 :   -55.9662640518454
           6 :    46.9452617575473
           7 :   -43.8495526950281
           8 :    42.0467920897516
           9 :   -38.9455156900169
          10 :    34.7524241510619
          11 :   -31.0875043488565
          12 :    29.0455564669867
          13 :   -28.2752600739124
          14 :    27.5342741503125
          15 :   -25.9377272563118
          16 :    23.6933487608470
          17 :   -21.7543437955117
          18 :    20.8417404267784
          19 :   -20.7911526778612
          20 :    20.7703939862640
          21 :   -20.0722218809014
          22 :    18.7122123001161
          23 :   -17.3300109892736
          24 :    16.5573264249849
          25 :   -16.4628988742688
          26 :    16.5496998430840
          27 :   -16.2504310730417
          28 :    15.4338895061524
          29 :   -14.4708716839880
          30 :    13.8451599055072
          31 :   -17.2969191306168
          32 :   -12.3653559006717

     Forces acting on atoms (Ry/au):

     negative rho (up, down):  5.256E-04 0.000E+00
     atom    1 type  1   force =    -0.00033750   -0.00017611    0.00223191
     atom    2 type  1   force =     0.00034062   -0.00018720    0.00222666
     atom    3 type  1   force =    -0.00001541    0.00037599    0.00221982
     atom    4 type  1   force =     0.00001254   -0.00001332    0.00267393
     atom    5 type  1   force =     0.00004760    0.00718202   -0.00059184
     atom    6 type  1   force =    -0.00004866    0.00000096    0.00741503
     atom    7 type  1   force =    -0.00620957   -0.00361325   -0.00058253
     atom    8 type  1   force =     0.00621077   -0.00356275   -0.00059917
     atom    9 type  1   force =    -0.00002360    0.00001715    0.07831169
     atom   10 type  1   force =     0.00002688   -0.00127227    0.00528593
     atom   11 type  1   force =    -0.00112617    0.00063929    0.00527513
     atom   12 type  1   force =     0.00112274    0.00060835    0.00529524
     atom   13 type  2   force =    -0.00000043    0.00000140   -0.06604138
     atom   14 type  3   force =     0.00000019   -0.00000026   -0.04312041

     Total force =     0.111545     Total SCF correction =     0.002375

     entering subroutine stress ...

     negative rho (up, down):  5.256E-04 0.000E+00
          total   stress  (Ry/bohr**3)                   (kbar)     P=   -3.23
   0.00001907  -0.00000000  -0.00000000          2.81     -0.00     -0.00
  -0.00000000   0.00001907   0.00000000         -0.00      2.80      0.00
  -0.00000000   0.00000000  -0.00010394         -0.00      0.00    -15.29

     BFGS Geometry Optimization

     number of scf cycles    =   1
     number of bfgs steps    =   0

     energy   new            =   -1159.1927530998 Ry

     new trust radius        =       0.0783116963 bohr
     new conv_thr            =       0.0000099958 Ry

ATOMIC_POSITIONS (crystal)
Sc1      0.166666667   0.166666667   0.395942884    0   0   0
Sc1      0.666666667   0.166666667   0.395942884    0   0   0
Sc1      0.166666667   0.666666667   0.395942884    0   0   0
Sc1      0.666666667   0.666666667   0.395942884    0   0   0
Sc1      0.833333333   0.333333333   0.500000000    0   0   0
Sc1      0.333333333   0.333333333   0.500000000    0   0   0
Sc1      0.833333333   0.833333333   0.500000000    0   0   0
Sc1      0.333333333   0.833333333   0.500000000    0   0   0
Sc1     -0.000002754   0.000001628   0.605697933
Sc1      0.500062591  -0.000120763   0.604167868
Sc1     -0.000122915   0.500060681   0.604167642
Sc1      0.500063420   0.500057744   0.604168064
N1      -0.000000102   0.000000133   0.683782290
H1       0.000000028  -0.000000025   0.725836542

     Writing output data file calc.save
     Check: negative starting charge=   -0.000236
     NEW-OLD atomic charge density approx. for the potential
     Check: negative starting charge=   -0.000235

[...]

     energy   old            =   -1159.1927530998 Ry
     energy   new            =   -1159.2027045216 Ry

     CASE: energy  _new < energy  _old

[...]

     Threshold (ethr) on eigenvalues was too large:
     Diagonalizing with lowered threshold

     Davidson diagonalization with overlap
     ethr =  7.14E-08,  avg # of iterations =  2.2

[...]

     Total force =     0.009022     Total SCF correction =     0.000230

[...]

     Total force =     0.002814     Total SCF correction =     0.000862
     SCF correction compared to forces is large: reduce conv_thr to get better values

[...]

     number of scf cycles    =  17
     number of bfgs steps    =  16

     energy   old            =   -1159.2191851228 Ry
     energy   new            =   -1159.2192089441 Ry

     CASE: energy  _new < energy  _old

     new trust radius        =       0.0064067604 bohr
     new conv_thr            =       0.0000001000 Ry

ATOMIC_POSITIONS (crystal)
Sc1      0.166666667   0.166666667   0.395942884    0   0   0
Sc1      0.666666667   0.166666667   0.395942884    0   0   0
Sc1      0.166666667   0.666666667   0.395942884    0   0   0
Sc1      0.666666667   0.666666667   0.395942884    0   0   0
Sc1      0.833333333   0.333333333   0.500000000    0   0   0
Sc1      0.333333333   0.333333333   0.500000000    0   0   0
Sc1      0.833333333   0.833333333   0.500000000    0   0   0
Sc1      0.333333333   0.833333333   0.500000000    0   0   0
Sc1     -0.000009609   0.000016186   0.597603781
Sc1      0.501152035  -0.002296821   0.605467038
Sc1     -0.002303841   0.501142622   0.605467466
Sc1      0.501166176   0.501139395   0.605468555
N1      -0.000002372  -0.000004741   0.671912481
H1      -0.000006012   0.000000373   0.712368863

     Writing output data file calc.save
     Check: negative starting charge=   -0.000243
     NEW-OLD atomic charge density approx. for the potential
     Check: negative starting charge=   -0.000242

[...]

     Self-consistent Calculation

[...]

     Threshold (ethr) on eigenvalues was too large:
     Diagonalizing with lowered threshold

     Davidson diagonalization with overlap
     ethr =  9.93E-08,  avg # of iterations =  1.8

[...]

     total energy              =   -1159.21920976 Ry
     Harris-Foulkes estimate   =   -1159.21920980 Ry
     estimated scf accuracy    <       0.00000035 Ry

     iteration #  8     ecut=    36.75 Ry     beta=0.30
     Davidson diagonalization with overlap
     ethr =  2.52E-10,  avg # of iterations =  6.7

[...]

     negative rho (up, down):  5.328E-04 0.000E+00

     Adding external electric field

     Computed dipole along edir(3) :
        Dipole                0.0693 Ry au,          0.1762 Debye
        Dipole field          0.0001 Ry au

        Potential amp.       -0.0133 Ry
        Total length         46.5341 bohr

     End of self-consistent calculation

[...]

          k = 0.0518-0.0598 0.0000 ( 23012 PWs)   bands (ev):

[...]

          k =-0.0777-0.0448 0.0000 ( 23032 PWs)   bands (ev):

   -49.4350 -49.4233 -49.4121 -49.3047 -49.3044 -49.2817 -49.2814 -48.8799
   -48.8330 -48.8191 -48.8099 -48.2825 -28.1456 -28.1314 -28.1174 -28.0716
   -28.0150 -27.9844 -27.9785 -27.9767 -27.9762 -27.9746 -27.9717 -27.9473
   -27.9463 -27.9189 -27.8741 -27.8725 -27.8476 -27.8459 -27.8147 -27.7423
   -27.7396 -27.5471 -27.5458 -27.4684 -27.4650 -27.4435 -27.4277 -27.4158
   -27.4143 -27.4014 -27.3935 -27.3204 -27.3080 -26.9557 -26.9428 -26.9370
   -13.6103  -4.6405  -2.8287  -2.7292  -2.0196  -1.6607  -1.4404  -1.3329
    -0.8908  -0.8781  -0.5072  -0.3828  -0.3367  -0.3080   0.3784   0.3794
     0.4105   0.4251   0.5024   0.5193   0.6431   0.7020   0.7143   0.7691
     0.7980   0.9414   0.9514   1.0826   1.1191   1.1356   1.1871

     the Fermi energy is     0.6262 ev

!    total energy              =   -1159.21920981 Ry
     Harris-Foulkes estimate   =   -1159.21920966 Ry
     estimated scf accuracy    <       0.00000006 Ry

     The total energy is the sum of the following terms:

     one-electron contribution =   -7379.89974325 Ry
     hartree contribution      =    3675.27822741 Ry
     xc contribution           =    -172.76641328 Ry
     ewald contribution        =    2718.29815071 Ry
     electric field correction =       0.00000987 Ry
     smearing contrib. (-TS)   =      -0.12944127 Ry

     convergence has been achieved in   8 iterations

 BEEF-vdW xc energy contributions
           1 :   -146.396680804882
           2 :    128.778824855921
           3 :   -101.335122212467
           4 :    74.6426774169986
           5 :   -56.0961411531921
           6 :    46.9925052195573
           7 :   -43.8351107528402
           8 :    42.0124156841971
           9 :   -38.9247719373717
          10 :    34.7532694215780
          11 :   -31.0969491160320
          12 :    29.0479471065869
          13 :   -28.2659686919010
          14 :    27.5189624727074
          15 :   -25.9231675829482
          16 :    23.6812192214222
          17 :   -21.7432966928064
          18 :    20.8329478768983
          19 :   -20.7890341083779
          20 :    20.7763653912381
          21 :   -20.0785226160191
          22 :    18.7048634188441
          23 :   -17.3006355856018
          24 :    16.5129544772122
          25 :   -16.4235086566917
          26 :    16.5343500992947
          27 :   -16.2633121167938
          28 :    15.4622420665110
          29 :   -14.4958673994533
          30 :    13.8553502460153
          31 :   -17.3076766343492
          32 :   -12.3819704720600

     Forces acting on atoms (Ry/au):

     negative rho (up, down):  5.328E-04 0.000E+00
     atom    1 type  1   force =     0.00026120    0.00015328    0.00203121
     atom    2 type  1   force =    -0.00026047    0.00015286    0.00203580
     atom    3 type  1   force =    -0.00000033   -0.00030320    0.00204854
     atom    4 type  1   force =     0.00000022   -0.00000247    0.00344349
     atom    5 type  1   force =     0.00000011    0.01335496   -0.00724852
     atom    6 type  1   force =     0.00000063    0.00000641    0.01252867
     atom    7 type  1   force =    -0.01155879   -0.00668034   -0.00725334
     atom    8 type  1   force =     0.01155923   -0.00668034   -0.00725218
     atom    9 type  1   force =     0.00000356   -0.00002802   -0.00013118
     atom   10 type  1   force =    -0.00000097   -0.00004194   -0.00009972
     atom   11 type  1   force =    -0.00001661    0.00003153   -0.00009464
     atom   12 type  1   force =     0.00001546    0.00003191   -0.00008841
     atom   13 type  2   force =    -0.00000301    0.00000773   -0.00028145
     atom   14 type  3   force =    -0.00000022   -0.00000238    0.00036175

     Total force =     0.000509     Total SCF correction =     0.000346
     SCF correction compared to forces is large: reduce conv_thr to get better values

     entering subroutine stress ...

     negative rho (up, down):  5.328E-04 0.000E+00
          total   stress  (Ry/bohr**3)                   (kbar)     P=    1.12
   0.00001724   0.00000000  -0.00000000          2.54      0.00     -0.00
   0.00000000   0.00001724   0.00000000          0.00      2.54      0.00
  -0.00000000   0.00000000  -0.00001159         -0.00      0.00     -1.70

     bfgs converged in  18 scf cycles and  17 bfgs steps
     (criteria: energy <  1.0E+00, force <  1.9E-03)

     End of BFGS Geometry Optimization

     Final energy   =   -1159.2192098083 Ry
Begin final coordinates

ATOMIC_POSITIONS (crystal)
Sc1      0.166666667   0.166666667   0.395942884    0   0   0
Sc1      0.666666667   0.166666667   0.395942884    0   0   0
Sc1      0.166666667   0.666666667   0.395942884    0   0   0
Sc1      0.666666667   0.666666667   0.395942884    0   0   0
Sc1      0.833333333   0.333333333   0.500000000    0   0   0
Sc1      0.333333333   0.333333333   0.500000000    0   0   0
Sc1      0.833333333   0.833333333   0.500000000    0   0   0
Sc1      0.333333333   0.833333333   0.500000000    0   0   0
Sc1     -0.000009609   0.000016186   0.597603781
Sc1      0.501152035  -0.002296821   0.605467038
Sc1     -0.002303841   0.501142622   0.605467466
Sc1      0.501166176   0.501139395   0.605468555
N1      -0.000002372  -0.000004741   0.671912481
H1      -0.000006012   0.000000373   0.712368863
End final coordinates

     Writing output data file calc.save

     General routines

     Parallel routines

   This run was terminated on:  23:26:20  22Apr2018

   JOB DONE.
Job  /afs/slac/g/suncat/bin/suncat-tsmpirun -x LD_LIBRARY_PATH -wdir /scratch/qe315979_0kom4 pw.x -npool 4 -in pw.inp

TID   HOST_NAME   COMMAND_LINE            STATUS            TERMINATION_TIME
00000 suncat0016 pw.x -npool 4 -i  Done                     04/22/2018 23:26:20
00001 suncat0016 pw.x -npool 4 -i  Done                     04/22/2018 23:26:20
00002 suncat0016 pw.x -npool 4 -i  Done                     04/22/2018 23:26:20
00003 suncat0016 pw.x -npool 4 -i  Done                     04/22/2018 23:26:20
00004 suncat0016 pw.x -npool 4 -i  Done                     04/22/2018 23:26:20
00005 suncat0016 pw.x -npool 4 -i  Done                     04/22/2018 23:26:20
00006 suncat0016 pw.x -npool 4 -i  Done                     04/22/2018 23:26:20
00007 suncat0016 pw.x -npool 4 -i  Done                     04/22/2018 23:26:20
00008 suncat0010 pw.x -npool 4 -i  Done                     04/22/2018 23:26:20
00009 suncat0010 pw.x -npool 4 -i  Done                     04/22/2018 23:26:20
00010 suncat0010 pw.x -npool 4 -i  Done                     04/22/2018 23:26:20
00011 suncat0010 pw.x -npool 4 -i  Done                     04/22/2018 23:26:20
00012 suncat0010 pw.x -npool 4 -i  Done                     04/22/2018 23:26:20
00013 suncat0010 pw.x -npool 4 -i  Done                     04/22/2018 23:26:20
00014 suncat0010 pw.x -npool 4 -i  Done                     04/22/2018 23:26:20
00015 suncat0010 pw.x -npool 4 -i  Done                     04/22/2018 23:26:20
00016 suncat0176 pw.x -npool 4 -i  Done                     04/22/2018 23:26:20
00017 suncat0176 pw.x -npool 4 -i  Done                     04/22/2018 23:26:20
00018 suncat0176 pw.x -npool 4 -i  Done                     04/22/2018 23:26:20
00019 suncat0176 pw.x -npool 4 -i  Done                     04/22/2018 23:26:20
00020 suncat0176 pw.x -npool 4 -i  Done                     04/22/2018 23:26:20
00021 suncat0176 pw.x -npool 4 -i  Done                     04/22/2018 23:26:20
00022 suncat0176 pw.x -npool 4 -i  Done                     04/22/2018 23:26:20
00023 suncat0176 pw.x -npool 4 -i  Done                     04/22/2018 23:26:20
00024 suncat0168 pw.x -npool 4 -i  Done                     04/22/2018 23:26:20
00025 suncat0168 pw.x -npool 4 -i  Done                     04/22/2018 23:26:20
00026 suncat0168 pw.x -npool 4 -i  Done                     04/22/2018 23:26:20
00027 suncat0168 pw.x -npool 4 -i  Done                     04/22/2018 23:26:20
00028 suncat0168 pw.x -npool 4 -i  Done                     04/22/2018 23:26:20
00029 suncat0168 pw.x -npool 4 -i  Done                     04/22/2018 23:26:20
00030 suncat0168 pw.x -npool 4 -i  Done                     04/22/2018 23:26:20
00031 suncat0168 pw.x -npool 4 -i  Done                     04/22/2018 23:26:20