     Program PWSCF v.5.1rc2 (svn rev. ) starts on 17Apr2018 at  8:35:47

     Current dimensions of program PWSCF are:
     Max number of different atomic species (ntypx) = 10
     Max number of k-points (npk) =  40000
     Max angular momentum in pseudopotentials (lmaxx) =  3
     Presently stress not available with electric field

     IMPORTANT: XC functional enforced from input :
     Exchange-correlation      = BEEF-VDW ( 1  4 27 13 2)
     Any further DFT definition will be discarded
     Please, verify this is what you really want

     Subspace diagonalization in iterative solution of the eigenvalue problem:
     a serial algorithm will be used

     bravais-lattice index     =            0
     lattice parameter (alat)  =       1.8897  a.u.
     unit-cell volume          =    3807.2308 (a.u.)^3
     number of atoms/cell      =           14
     number of atomic types    =            3
     number of electrons       =       235.00
     number of Kohn-Sham states=          127
     kinetic-energy cutoff     =      36.7493  Ry
     charge density cutoff     =     367.4932  Ry
     convergence threshold     =      1.0E-05
     mixing beta               =       0.3000
     number of iterations used =           10  plain     mixing
     Exchange-correlation      = BEEF-VDW ( 1  4 27 13 2)
     nstep                     =           50

     celldm(1)=   1.889726  celldm(2)=   0.000000  celldm(3)=   0.000000
     celldm(4)=   0.000000  celldm(5)=   0.000000  celldm(6)=   0.000000

     crystal axes: (cart. coord. in units of alat)
               a(1) = (   5.184823   0.000000   0.000000 )
               a(2) = (   2.592411   4.490188   0.000000 )
               a(3) = (   0.000000   0.000000  24.233390 )

     reciprocal axes: (cart. coord. in units 2 pi/alat)
               b(1) = (  0.192871 -0.111354  0.000000 )
               b(2) = (  0.000000  0.222708  0.000000 )
               b(3) = (  0.000000  0.000000  0.041265 )

     PseudoPot. # 1 for Cu read from file:
     /home/mamunm/src/pseudo/gbrv1.5pbe/Cu.UPF
     MD5 check sum: 6e991ff952a84172a2a52a1c1e996048
     Pseudo is Ultrasoft + core correction, Zval = 19.0
     Generated by new atomic code, or converted to UPF format
     Using radial grid of  867 points,  6 beta functions with:
                l(1) =   0
                l(2) =   0
                l(3) =   1
                l(4) =   1
                l(5) =   2
                l(6) =   2
     Q(r) pseudized with  8 coefficients,  rinner =    1.150   1.150   1.150
                                                       1.150   1.150

     PseudoPot. # 2 for S  read from file:
     /home/mamunm/src/pseudo/gbrv1.5pbe/S.UPF
     MD5 check sum: 88d86576ff6df21479756cfb9bdac1df
     Pseudo is Ultrasoft + core correction, Zval =  6.0
     Generated by new atomic code, or converted to UPF format
     Using radial grid of  907 points,  6 beta functions with:
                l(1) =   0
                l(2) =   0
                l(3) =   1
                l(4) =   1
                l(5) =   2
                l(6) =   2
     Q(r) pseudized with  8 coefficients,  rinner =    1.300   1.300   1.300
                                                       1.300   1.300

     PseudoPot. # 3 for H  read from file:
     /home/mamunm/src/pseudo/gbrv1.5pbe/H.UPF
     MD5 check sum: 761ae9a214b05c3daf00ab9f6b793d6f
     Pseudo is Ultrasoft, Zval =  1.0
     Generated by new atomic code, or converted to UPF format
     Using radial grid of  615 points,  2 beta functions with:
                l(1) =   0
                l(2) =   0
     Q(r) pseudized with  8 coefficients,  rinner =    0.700

     vdW kernel table read from file vdW_kernel_table
     MD5 check sum: 095c7af220d748ca6e76c0b4c6cfb241

     atomic species   valence    mass     pseudopotential
        Cu1           19.00    63.54600     Cu( 1.00)
        S1             6.00    32.06000     S ( 1.00)
        H1             1.00     1.00800     H ( 1.00)

     No symmetry found

   Cartesian axes

     site n.     atom                  positions (alat units)
         1           Cu1 tau(   1) = (   1.2962057   0.7483647  10.0000000  )
         2           Cu1 tau(   2) = (   3.8886170   0.7483647  10.0000000  )
         3           Cu1 tau(   3) = (   2.5924113   2.9934587  10.0000000  )
         4           Cu1 tau(   4) = (   5.1848226   2.9934587  10.0000000  )
         5           Cu1 tau(   5) = (   5.1848226   1.4967294  12.1166950  )
         6           Cu1 tau(   6) = (   2.5924113   1.4967294  12.1166950  )
         7           Cu1 tau(   7) = (   6.4810283   3.7418234  12.1166950  )
         8           Cu1 tau(   8) = (   3.8886170   3.7418234  12.1166950  )
         9           Cu1 tau(   9) = (   0.0000000   0.0000000  14.2333899  )
        10           Cu1 tau(  10) = (   2.5924113   0.0000000  14.2333899  )
        11           Cu1 tau(  11) = (   1.2962057   2.2450940  14.2333899  )
        12           Cu1 tau(  12) = (   3.8886170   2.2450940  14.2333899  )
        13           S1  tau(  13) = (   1.2962057   0.0000000  16.0108899  )
        14           H1  tau(  14) = (   1.2962057   0.0000000  17.2608899  )

     number of k points=    20  Fermi-Dirac smearing, width (Ry)=  0.0110
                       cart. coord. in units 2pi/alat
        k(    1) = (   0.0000000   0.0000000   0.0000000), wk =   0.0555556
        k(    2) = (   0.0000000   0.0371180   0.0000000), wk =   0.1111111
        k(    3) = (   0.0000000   0.0742359   0.0000000), wk =   0.1111111
        k(    4) = (   0.0000000  -0.1113539   0.0000000), wk =   0.0555556
        k(    5) = (   0.0321451  -0.0185590   0.0000000), wk =   0.1111111
        k(    6) = (   0.0321451   0.0185590   0.0000000), wk =   0.1111111
        k(    7) = (   0.0321451   0.0556770   0.0000000), wk =   0.1111111
        k(    8) = (   0.0321451  -0.1299129   0.0000000), wk =   0.1111111
        k(    9) = (   0.0321451  -0.0927949   0.0000000), wk =   0.1111111
        k(   10) = (   0.0321451  -0.0556770   0.0000000), wk =   0.1111111
        k(   11) = (   0.0642902  -0.0371180   0.0000000), wk =   0.1111111
        k(   12) = (   0.0642902  -0.0000000   0.0000000), wk =   0.1111111
        k(   13) = (   0.0642902   0.0371180   0.0000000), wk =   0.1111111
        k(   14) = (   0.0642902  -0.1484719   0.0000000), wk =   0.1111111
        k(   15) = (   0.0642902  -0.1113539   0.0000000), wk =   0.1111111
        k(   16) = (   0.0642902  -0.0742359   0.0000000), wk =   0.1111111
        k(   17) = (  -0.0964353   0.0556770   0.0000000), wk =   0.0555556
        k(   18) = (  -0.0964353   0.0927949   0.0000000), wk =   0.1111111
        k(   19) = (  -0.0964353   0.1299129   0.0000000), wk =   0.1111111
        k(   20) = (  -0.0964353  -0.0556770   0.0000000), wk =   0.0555556

     Largest allocated arrays     est. size (Mb)     dimensions
     Largest temporary arrays     est. size (Mb)     dimensions

     Initial potential from superposition of free atoms

     starting charge  222.99993, renormalised to  235.00000

     negative rho (up, down):  1.026E-04 0.000E+00

     *
     * You are using vdW-DF for exchange-correlation in this calculation.
     * Please cite the following three references that made this development
     * possible:
     *
     *   M. Dion, H. Rydberg, E. Schroder, D. C. Langreth, and
     *   B. I. Lundqvist, Phys. Rev. Lett. 92, 246401 (2004).
     *
     *   T. Thonhauser, V. R. Cooper, S. Li, A. Puzder, P. Hyldgaard, and
     *   D. C. Langreth, Phys. Rev. B 76, 125112 (2007).
     *
     *   G. Roman-Perez and J. M. Soler, Phys. Rev. Lett. 103, 096102 (2009).
     *
     *
     * If you are using vdW-DF2, please also cite:
     *
     *   K. Lee, E. D. Murray, L. Kong, B. I. Lundqvist, and
     *   D. C. Langreth, Phys. Rev. B 82, 081101(R) (2010).
     *
     *
     * If you are calculating the stress with vdW-DF, please also cite:
     *
     *   R. Sabatini, E. Kucukbenli, B. Kolb, T. Thonhauser, and
     *   S. de Gironcoli, J. Phys.: Condens. Matter 24, 424209 (2012).
     *

     Carrying out vdW-DF run using the following parameters:

     Nqs =      20    Nr_points =    1024   r_max =   100.000
     q_mesh =
               0.00001000     0.04494208     0.09755937     0.15916263
               0.23128650     0.31572767     0.41458969     0.53033537
               0.66584808     0.82450364     1.01025438     1.22772762
               1.48234092     1.78043706     2.12944203     2.53805004
               3.01644009     3.57652955     4.23227104     5.00000000

     Gradients computed in reciprocal space

     Adding external electric field

     Computed dipole along edir(3) :
        Dipole               -2.8987 Ry au,         -7.3679 Debye
        Dipole field         -0.0096 Ry au

        Potential amp.        0.8544 Ry
        Total length         44.6496 bohr

     Starting wfc are  161 randomized atomic wfcs

     Self-consistent Calculation

     iteration #  1     ecut=    36.75 Ry     beta=0.30
     Davidson diagonalization with overlap
     ethr =  1.00E-02,  avg # of iterations =  8.1

[...]

     total energy              =   -4494.74733609 Ry
     Harris-Foulkes estimate   =   -4880.49471743 Ry
     estimated scf accuracy    <     811.38975013 Ry

[...]

     End of self-consistent calculation

          k = 0.0000 0.0000 0.0000 ( 14321 PWs)   bands (ev):

  -111.6985-111.6946-111.5658-111.5358-111.5318-111.5135-111.3228-111.2925
  -111.2919-111.2874-111.2837-111.2730 -69.1713 -69.1374 -69.0863 -69.0801
   -69.0664 -69.0454 -68.9805 -68.9768 -68.9662 -68.9605 -68.9339 -68.9294
   -68.9248 -68.9209 -68.9096 -68.9063 -68.8931 -68.8923 -68.7643 -68.7431
   -68.7418 -68.7372 -68.7360 -68.7109 -68.7104 -68.6894 -68.6891 -68.6858
   -68.6837 -68.6691 -68.6680 -68.6526 -68.6498 -68.6451 -68.6425 -68.6274
   -13.4286  -7.5852  -6.6785  -4.9254  -3.8508  -3.7312  -3.6748  -3.5092
    -3.4425  -3.4225  -3.3041  -3.1372  -3.0567  -3.0473  -3.0144  -2.9304
    -2.9040  -2.7376  -2.6046  -2.3398  -2.3107  -2.0969  -1.9919  -1.9799
    -1.9571  -1.8786  -1.8624  -1.8224  -1.8125  -1.7762  -1.7250  -1.7051
    -1.6791  -1.6738  -1.5945  -1.5920  -1.4921  -1.3882  -1.3573  -1.2146
    -1.1307  -1.1086  -1.0923  -1.0714  -1.0243  -0.9825  -0.9101  -0.8798
    -0.7728  -0.7144  -0.7031  -0.6909  -0.6636  -0.6568  -0.6293  -0.6218
    -0.5810  -0.5667  -0.5541  -0.5194  -0.5025  -0.4560  -0.3479  -0.3443
    -0.3433  -0.1763   0.0610   0.9932   1.1179   1.3116   1.7083   2.1277
     2.3619   2.4773   2.5928   2.7687   2.9094   4.1839   4.8288

[...]

          k =-0.0964 0.0557 0.0000 ( 14294 PWs)   bands (ev):

[...]

     the Fermi energy is     1.0420 ev

!    total energy              =   -4884.85337105 Ry
     Harris-Foulkes estimate   =   -4884.85337196 Ry
     estimated scf accuracy    <       0.00000822 Ry

     The total energy is the sum of the following terms:

     one-electron contribution =  -37791.06855482 Ry
     hartree contribution      =   18916.23826761 Ry
     xc contribution           =    -489.76224882 Ry
     ewald contribution        =   14479.76844961 Ry
     electric field correction =       0.00016203 Ry
     smearing contrib. (-TS)   =      -0.02944665 Ry

     convergence has been achieved in  31 iterations

 BEEF-vdW xc energy contributions
           1 :   -433.741030161335
           2 :    393.012456107799
           3 :   -324.027539831403
           4 :    245.758163987360
           5 :   -175.478322569514
           6 :    122.616931692157
           7 :   -87.2695700525339
           8 :    63.3296343354036
           9 :   -43.8060610679472
          10 :    25.0556482455307
          11 :   -7.81251702472036
          12 :   -4.87947350985894
          13 :    10.8658528854511
          14 :   -10.8870647537321
          15 :    8.22014782607852
          16 :   -6.53189831563736
          17 :    7.63400494132327
          18 :   -10.6875343409199
          19 :    13.2447983790514
          20 :   -13.2398826348493
          21 :    10.4851446587431
          22 :   -6.70170140342907
          23 :    4.19647683615545
          24 :   -4.22034755974585
          25 :    6.17392437902072
          26 :   -8.15446805727231
          27 :    8.37456504593808
          28 :   -6.41318920524265
          29 :    3.43826412463426
          30 :   -1.30327286912598
          31 :   -34.8598559484946
          32 :   -23.8148502537395

     Forces acting on atoms (Ry/au):

     negative rho (up, down):  9.300E-04 0.000E+00
     atom    1 type  1   force =    -0.00006426   -0.00056814    0.00047551
     atom    2 type  1   force =     0.00004477    0.00076684   -0.00060446
     atom    3 type  1   force =     0.00111449   -0.00013656    0.00039148
     atom    4 type  1   force =    -0.00113513   -0.00024020    0.00024503
     atom    5 type  1   force =     0.00006115   -0.00085929    0.00550934
     atom    6 type  1   force =     0.00001185   -0.00105779    0.00568704
     atom    7 type  1   force =    -0.00018444    0.00092712    0.01152324
     atom    8 type  1   force =     0.00016956    0.00039422   -0.00026219
     atom    9 type  1   force =    -0.03678534   -0.00008098   -0.01907936
     atom   10 type  1   force =     0.03679921   -0.00007254   -0.01929616
     atom   11 type  1   force =    -0.00000307    0.00115733   -0.00742220
     atom   12 type  1   force =    -0.00000766   -0.00052793   -0.00797682
     atom   13 type  2   force =    -0.00001045    0.00048716   -0.10181727
     atom   14 type  3   force =    -0.00001069   -0.00018926    0.13262683

     Total force =     0.177541     Total SCF correction =     0.002689

     entering subroutine stress ...

     negative rho (up, down):  9.300E-04 0.000E+00
          total   stress  (Ry/bohr**3)                   (kbar)     P=   -9.30
  -0.00007203   0.00000001  -0.00000000        -10.60      0.00     -0.00
   0.00000001  -0.00012956   0.00000104          0.00    -19.06      0.15
  -0.00000000   0.00000104   0.00001201         -0.00      0.15      1.77

     BFGS Geometry Optimization

     number of scf cycles    =   1
     number of bfgs steps    =   0

     energy   new            =   -4884.8533710536 Ry

     new trust radius        =       0.1326269640 bohr
     new conv_thr            =       0.0000099958 Ry

ATOMIC_POSITIONS (crystal)
Cu1      0.166666667   0.166666667   0.412653782    0   0   0
Cu1      0.666666667   0.166666667   0.412653782    0   0   0
Cu1      0.166666667   0.666666667   0.412653782    0   0   0
Cu1      0.666666667   0.666666667   0.412653782    0   0   0
Cu1      0.833333333   0.333333333   0.500000000    0   0   0
Cu1      0.333333333   0.333333333   0.500000000    0   0   0
Cu1      0.833333333   0.833333333   0.500000000    0   0   0
Cu1      0.333333333   0.833333333   0.500000000    0   0   0
Cu1     -0.003749641  -0.000009544   0.586929588
Cu1      0.503760103  -0.000008549   0.586924854
Cu1     -0.000068509   0.500136393   0.587184142
Cu1      0.500030327   0.499937783   0.587172031
S1       0.249970227   0.000057413   0.658472075
H1       0.250010062  -0.000022305   0.715173283

     Writing output data file calc.save
     NEW-OLD atomic charge density approx. for the potential

[...]

     Total force =     0.079691     Total SCF correction =     0.011877
     SCF correction compared to forces is large: reduce conv_thr to get better values

[...]

     energy   old            =   -4884.8533710536 Ry
     energy   new            =   -4884.8661889568 Ry

     CASE: energy  _new < energy  _old

[...]

     Total force =     0.009501     Total SCF correction =     0.000485

[...]

     number of scf cycles    =   8
     number of bfgs steps    =   7

     energy   old            =   -4884.8737733743 Ry
     energy   new            =   -4884.8738979706 Ry

     CASE: energy  _new < energy  _old

     new trust radius        =       0.0060276303 bohr
     new conv_thr            =       0.0000001000 Ry

ATOMIC_POSITIONS (crystal)
Cu1      0.166666667   0.166666667   0.412653782    0   0   0
Cu1      0.666666667   0.166666667   0.412653782    0   0   0
Cu1      0.166666667   0.666666667   0.412653782    0   0   0
Cu1      0.666666667   0.666666667   0.412653782    0   0   0
Cu1      0.833333333   0.333333333   0.500000000    0   0   0
Cu1      0.333333333   0.333333333   0.500000000    0   0   0
Cu1      0.833333333   0.833333333   0.500000000    0   0   0
Cu1      0.333333333   0.833333333   0.500000000    0   0   0
Cu1     -0.015110673  -0.000438895   0.585262670
Cu1      0.515550199  -0.000438196   0.585261062
Cu1      0.004665051   0.490670715   0.585897679
Cu1      0.495049110   0.509901268   0.585758104
S1       0.248956944   0.002112479   0.660459581
H1       0.250278387  -0.000571133   0.716740588

     Writing output data file calc.save
     NEW-OLD atomic charge density approx. for the potential

[...]

     Self-consistent Calculation

[...]

     Threshold (ethr) on eigenvalues was too large:
     Diagonalizing with lowered threshold

     Davidson diagonalization with overlap
     ethr =  3.96E-08,  avg # of iterations =  1.0

[...]

     total energy              =   -4884.87391410 Ry
     Harris-Foulkes estimate   =   -4884.87391390 Ry
     estimated scf accuracy    <       0.00000011 Ry

     iteration #  8     ecut=    36.75 Ry     beta=0.30
     Davidson diagonalization with overlap
     ethr =  4.81E-11,  avg # of iterations =  2.1

[...]

     negative rho (up, down):  9.330E-04 0.000E+00

     Adding external electric field

     Computed dipole along edir(3) :
        Dipole                0.1793 Ry au,          0.4558 Debye
        Dipole field          0.0006 Ry au

        Potential amp.       -0.0529 Ry
        Total length         44.6496 bohr

     End of self-consistent calculation

[...]

          k = 0.0643-0.0742 0.0000 ( 14299 PWs)   bands (ev):

[...]

          k =-0.0964-0.0557 0.0000 ( 14294 PWs)   bands (ev):

  -111.6927-111.6887-111.6633-111.6228-111.6226-111.5963-111.4095-111.3738
  -111.3608-111.3604-111.3548-111.3474 -69.1525 -69.1219 -69.0873 -69.0823
   -69.0762 -69.0650 -69.0572 -69.0537 -69.0497 -69.0340 -69.0231 -69.0206
   -69.0198 -69.0138 -69.0021 -68.9941 -68.9898 -68.9794 -68.8363 -68.8279
   -68.8037 -68.7999 -68.7963 -68.7916 -68.7782 -68.7779 -68.7725 -68.7721
   -68.7663 -68.7526 -68.7483 -68.7366 -68.7190 -68.7188 -68.7117 -68.7022
   -12.8396  -6.4683  -5.6488  -5.3341  -4.1762  -3.7367  -3.4919  -3.3406
    -3.1784  -3.1134  -3.0696  -3.0131  -2.9291  -2.8162  -2.7517  -2.6706
    -2.6342  -2.5956  -2.5117  -2.4942  -2.3619  -2.3430  -2.3032  -2.2837
    -2.2529  -2.2285  -2.0451  -2.0192  -1.9308  -1.9069  -1.8730  -1.8523
    -1.8165  -1.7627  -1.6944  -1.6931  -1.6653  -1.6613  -1.6491  -1.6452
    -1.6175  -1.5905  -1.4648  -1.4234  -1.3873  -1.3463  -1.3119  -1.2282
    -1.2126  -1.1845  -1.1746  -1.1252  -1.1033  -1.0698  -1.0641  -1.0559
    -0.9625  -0.9483  -0.9135  -0.7954  -0.7384  -0.6890  -0.6786  -0.6103
    -0.5828  -0.3565  -0.2793  -0.2419   0.8619   0.9746   1.6765   1.9021
     2.2662   2.3480   4.1009   4.4424   4.5148   4.8901   5.4081

     the Fermi energy is     0.9667 ev

!    total energy              =   -4884.87391412 Ry
     Harris-Foulkes estimate   =   -4884.87391445 Ry
     estimated scf accuracy    <       0.00000003 Ry

     The total energy is the sum of the following terms:

     one-electron contribution =  -37984.32034031 Ry
     hartree contribution      =   19012.40179265 Ry
     xc contribution           =    -489.69702586 Ry
     ewald contribution        =   14576.77108118 Ry
     electric field correction =       0.00010614 Ry
     smearing contrib. (-TS)   =      -0.02952792 Ry

     convergence has been achieved in   8 iterations

 BEEF-vdW xc energy contributions
           1 :   -433.684434168735
           2 :    392.968537479386
           3 :   -323.996291919859
           4 :    245.724539808627
           5 :   -175.424189850588
           6 :    122.538829383406
           7 :   -87.1872956146630
           8 :    63.2766206502587
           9 :   -43.8067858849713
          10 :    25.1066432544491
          11 :   -7.88183141950350
          12 :   -4.83215712243128
          13 :    10.8615300150852
          14 :   -10.9122685974454
          15 :    8.23652878906177
          16 :   -6.50524420537471
          17 :    7.56254307261321
          18 :   -10.6079352502030
          19 :    13.2093548271529
          20 :   -13.2791726362058
          21 :    10.5823228234632
          22 :   -6.79901649724690
          23 :    4.23216020704479
          24 :   -4.17099397143039
          25 :    6.07230224127159
          26 :   -8.06893538293963
          27 :    8.36319019533852
          28 :   -6.48360563710850
          29 :    3.54130353966337
          30 :   -1.36623404134463
          31 :   -34.8568145162042
          32 :   -23.8133809382197

     Forces acting on atoms (Ry/au):

     negative rho (up, down):  9.330E-04 0.000E+00
     atom    1 type  1   force =    -0.00000019   -0.00051894    0.00322460
     atom    2 type  1   force =     0.00000008    0.00045759    0.00129592
     atom    3 type  1   force =     0.00080352   -0.00005712    0.00266847
     atom    4 type  1   force =    -0.00080356   -0.00005725    0.00266847
     atom    5 type  1   force =    -0.00096495   -0.00047969   -0.00195570
     atom    6 type  1   force =     0.00096487   -0.00047835   -0.00195799
     atom    7 type  1   force =     0.00000161   -0.00209768   -0.00132187
     atom    8 type  1   force =    -0.00000094    0.00280893   -0.00579684
     atom    9 type  1   force =    -0.00051010   -0.00015157    0.00102652
     atom   10 type  1   force =     0.00051909   -0.00015227    0.00102160
     atom   11 type  1   force =    -0.00000085    0.00050927   -0.00016078
     atom   12 type  1   force =     0.00000059   -0.00091572   -0.00034611
     atom   13 type  2   force =    -0.00000916    0.00168428   -0.00020328
     atom   14 type  3   force =    -0.00000002   -0.00055147   -0.00016301

     Total force =     0.002669     Total SCF correction =     0.000546
     SCF correction compared to forces is large: reduce conv_thr to get better values

     entering subroutine stress ...

     negative rho (up, down):  9.330E-04 0.000E+00
          total   stress  (Ry/bohr**3)                   (kbar)     P=  -17.06
  -0.00009599  -0.00000000  -0.00000001        -14.12     -0.00     -0.00
  -0.00000000  -0.00015310   0.00000102         -0.00    -22.52      0.15
  -0.00000001   0.00000102  -0.00009883         -0.00      0.15    -14.54

     bfgs converged in   9 scf cycles and   8 bfgs steps
     (criteria: energy <  1.0E+00, force <  1.9E-03)

     End of BFGS Geometry Optimization

     Final energy   =   -4884.8739141213 Ry
Begin final coordinates

ATOMIC_POSITIONS (crystal)
Cu1      0.166666667   0.166666667   0.412653782    0   0   0
Cu1      0.666666667   0.166666667   0.412653782    0   0   0
Cu1      0.166666667   0.666666667   0.412653782    0   0   0
Cu1      0.666666667   0.666666667   0.412653782    0   0   0
Cu1      0.833333333   0.333333333   0.500000000    0   0   0
Cu1      0.333333333   0.333333333   0.500000000    0   0   0
Cu1      0.833333333   0.833333333   0.500000000    0   0   0
Cu1      0.333333333   0.833333333   0.500000000    0   0   0
Cu1     -0.015110673  -0.000438895   0.585262670
Cu1      0.515550199  -0.000438196   0.585261062
Cu1      0.004665051   0.490670715   0.585897679
Cu1      0.495049110   0.509901268   0.585758104
S1       0.248956944   0.002112479   0.660459581
H1       0.250278387  -0.000571133   0.716740588
End final coordinates

     Writing output data file calc.save

     General routines

     Parallel routines

   This run was terminated on:   9: 7: 6  17Apr2018

   JOB DONE.