     Program PWSCF v.5.1rc2 (svn rev. 11289) starts on 23Apr2018 at  7:35:23

     Current dimensions of program PWSCF are:
     Max number of different atomic species (ntypx) = 10
     Max number of k-points (npk) =  40000
     Max angular momentum in pseudopotentials (lmaxx) =  3
     Presently stress not available with electric field

     IMPORTANT: XC functional enforced from input :
     Exchange-correlation      = BEEF-VDW ( 1  4 27 13 2)
     Any further DFT definition will be discarded
     Please, verify this is what you really want

     Subspace diagonalization in iterative solution of the eigenvalue problem:
     a serial algorithm will be used

     bravais-lattice index     =            0
     lattice parameter (alat)  =       1.8897  a.u.
     unit-cell volume          =    5185.0501 (a.u.)^3
     number of atoms/cell      =           14
     number of atomic types    =            3
     number of electrons       =       163.00
     number of Kohn-Sham states=           91
     kinetic-energy cutoff     =      36.7493  Ry
     charge density cutoff     =     367.4932  Ry
     convergence threshold     =      1.0E-05
     mixing beta               =       0.3000
     number of iterations used =           10  plain     mixing
     Exchange-correlation      = BEEF-VDW ( 1  4 27 13 2)
     nstep                     =           50

     celldm(1)=   1.889726  celldm(2)=   0.000000  celldm(3)=   0.000000
     celldm(4)=   0.000000  celldm(5)=   0.000000  celldm(6)=   0.000000

     crystal axes: (cart. coord. in units of alat)
               a(1) = (   5.972022   0.000000   0.000000 )
               a(2) = (   2.986011   5.171923   0.000000 )
               a(3) = (   0.000000   0.000000  24.876136 )

     reciprocal axes: (cart. coord. in units 2 pi/alat)
               b(1) = (  0.167447 -0.096676  0.000000 )
               b(2) = (  0.000000  0.193352  0.000000 )
               b(3) = (  0.000000  0.000000  0.040199 )

     PseudoPot. # 1 for Ta read from file:
     /u/if/mamunm/psp/gbrv1.5pbe/Ta.UPF
     MD5 check sum: f8bbe9446314a3b8ea5d9f3e3836c939
     Pseudo is Ultrasoft + core correction, Zval = 13.0
     Generated by new atomic code, or converted to UPF format
     Using radial grid of  921 points,  7 beta functions with:
                l(1) =   0
                l(2) =   0
                l(3) =   1
                l(4) =   1
                l(5) =   2
                l(6) =   2
                l(7) =   3
     Q(r) pseudized with  6 coefficients,  rinner =    1.300   1.300   1.300
                                                       1.300   1.300   1.300
                                                       1.300

     PseudoPot. # 2 for O  read from file:
     /u/if/mamunm/psp/gbrv1.5pbe/O.UPF
     MD5 check sum: 734c27235a0248c51dbae37a1fbe46ec
     Pseudo is Ultrasoft + core correction, Zval =  6.0
     Generated by new atomic code, or converted to UPF format
     Using radial grid of  737 points,  5 beta functions with:
                l(1) =   0
                l(2) =   0
                l(3) =   1
                l(4) =   1
                l(5) =   2
     Q(r) pseudized with  8 coefficients,  rinner =    0.900   0.900   0.900
                                                       0.900   0.900

     PseudoPot. # 3 for H  read from file:
     /u/if/mamunm/psp/gbrv1.5pbe/H.UPF
     MD5 check sum: 761ae9a214b05c3daf00ab9f6b793d6f
     Pseudo is Ultrasoft, Zval =  1.0
     Generated by new atomic code, or converted to UPF format
     Using radial grid of  615 points,  2 beta functions with:
                l(1) =   0
                l(2) =   0
     Q(r) pseudized with  8 coefficients,  rinner =    0.700

     vdW kernel table read from file vdW_kernel_table
     MD5 check sum: 095c7af220d748ca6e76c0b4c6cfb241

     atomic species   valence    mass     pseudopotential
        Ta1           13.00   180.94788     Ta( 1.00)
        O1             6.00    15.99900     O ( 1.00)
        H1             1.00     1.00800     H ( 1.00)

     No symmetry found

   Cartesian axes

     site n.     atom                  positions (alat units)
         1           Ta1 tau(   1) = (   1.4930055   0.8619871  10.0000000  )
         2           Ta1 tau(   2) = (   4.4790165   0.8619871  10.0000000  )
         3           Ta1 tau(   3) = (   2.9860110   3.4479485  10.0000000  )
         4           Ta1 tau(   4) = (   5.9720221   3.4479485  10.0000000  )
         5           Ta1 tau(   5) = (   5.9720221   1.7239743  12.4380678  )
         6           Ta1 tau(   6) = (   2.9860110   1.7239743  12.4380678  )
         7           Ta1 tau(   7) = (   7.4650276   4.3099357  12.4380678  )
         8           Ta1 tau(   8) = (   4.4790165   4.3099357  12.4380678  )
         9           Ta1 tau(   9) = (   0.0000000   0.0000000  14.8761356  )
        10           Ta1 tau(  10) = (   2.9860110   0.0000000  14.8761356  )
        11           Ta1 tau(  11) = (   1.4930055   2.5859614  14.8761356  )
        12           Ta1 tau(  12) = (   4.4790165   2.5859614  14.8761356  )
        13           O1  tau(  13) = (   0.0000000   0.0000000  16.8821356  )
        14           H1  tau(  14) = (   0.0000000   0.0000000  17.8321356  )

     number of k points=    20  Fermi-Dirac smearing, width (Ry)=  0.0110
                       cart. coord. in units 2pi/alat
        k(    1) = (   0.0000000   0.0000000   0.0000000), wk =   0.0555556
        k(    2) = (   0.0000000   0.0322253   0.0000000), wk =   0.1111111
        k(    3) = (   0.0000000   0.0644506   0.0000000), wk =   0.1111111
        k(    4) = (   0.0000000  -0.0966758   0.0000000), wk =   0.0555556
        k(    5) = (   0.0279079  -0.0161126   0.0000000), wk =   0.1111111
        k(    6) = (   0.0279079   0.0161126   0.0000000), wk =   0.1111111
        k(    7) = (   0.0279079   0.0483379   0.0000000), wk =   0.1111111
        k(    8) = (   0.0279079  -0.1127885   0.0000000), wk =   0.1111111
        k(    9) = (   0.0279079  -0.0805632   0.0000000), wk =   0.1111111
        k(   10) = (   0.0279079  -0.0483379   0.0000000), wk =   0.1111111
        k(   11) = (   0.0558158  -0.0322253   0.0000000), wk =   0.1111111
        k(   12) = (   0.0558158   0.0000000   0.0000000), wk =   0.1111111
        k(   13) = (   0.0558158   0.0322253   0.0000000), wk =   0.1111111
        k(   14) = (   0.0558158  -0.1289011   0.0000000), wk =   0.1111111
        k(   15) = (   0.0558158  -0.0966758   0.0000000), wk =   0.1111111
        k(   16) = (   0.0558158  -0.0644506   0.0000000), wk =   0.1111111
        k(   17) = (  -0.0837237   0.0483379   0.0000000), wk =   0.0555556
        k(   18) = (  -0.0837237   0.0805632   0.0000000), wk =   0.1111111
        k(   19) = (  -0.0837237   0.1127885   0.0000000), wk =   0.1111111
        k(   20) = (  -0.0837237  -0.0483379   0.0000000), wk =   0.0555556

     Largest allocated arrays     est. size (Mb)     dimensions
     Largest temporary arrays     est. size (Mb)     dimensions

     Initial potential from superposition of free atoms
     Check: negative starting charge=   -1.121718

     starting charge  162.98664, renormalised to  163.00000

     negative rho (up, down):  1.122E+00 0.000E+00

     *
     * You are using vdW-DF for exchange-correlation in this calculation.
     * Please cite the following three references that made this development
     * possible:
     *
     *   M. Dion, H. Rydberg, E. Schroder, D. C. Langreth, and
     *   B. I. Lundqvist, Phys. Rev. Lett. 92, 246401 (2004).
     *
     *   T. Thonhauser, V. R. Cooper, S. Li, A. Puzder, P. Hyldgaard, and
     *   D. C. Langreth, Phys. Rev. B 76, 125112 (2007).
     *
     *   G. Roman-Perez and J. M. Soler, Phys. Rev. Lett. 103, 096102 (2009).
     *
     *
     * If you are using vdW-DF2, please also cite:
     *
     *   K. Lee, E. D. Murray, L. Kong, B. I. Lundqvist, and
     *   D. C. Langreth, Phys. Rev. B 82, 081101(R) (2010).
     *
     *
     * If you are calculating the stress with vdW-DF, please also cite:
     *
     *   R. Sabatini, E. Kucukbenli, B. Kolb, T. Thonhauser, and
     *   S. de Gironcoli, J. Phys.: Condens. Matter 24, 424209 (2012).
     *

     Carrying out vdW-DF run using the following parameters:

     Nqs =      20    Nr_points =    1024   r_max =   100.000
     q_mesh =
               0.00001000     0.04494208     0.09755937     0.15916263
               0.23128650     0.31572767     0.41458969     0.53033537
               0.66584808     0.82450364     1.01025438     1.22772762
               1.48234092     1.78043706     2.12944203     2.53805004
               3.01644009     3.57652955     4.23227104     5.00000000

     Gradients computed in reciprocal space

     Adding external electric field

     Computed dipole along edir(3) :
        Dipole               -0.0049 Ry au,         -0.0124 Debye
        Dipole field         -0.0000 Ry au

        Potential amp.        0.0011 Ry
        Total length         45.8339 bohr

     Starting wfc are  161 randomized atomic wfcs

     Self-consistent Calculation

     iteration #  1     ecut=    36.75 Ry     beta=0.30
     Davidson diagonalization with overlap
     ethr =  1.00E-02,  avg # of iterations =  2.0

[...]

     total energy              =   -1750.19815813 Ry
     Harris-Foulkes estimate   =   -1752.65868787 Ry
     estimated scf accuracy    <       5.32657515 Ry

[...]

     End of self-consistent calculation

          k = 0.0000 0.0000 0.0000 ( 19447 PWs)   bands (ev):

   -66.0446 -65.8127 -65.7759 -65.7720 -65.7718 -65.7200 -65.7200 -65.7115
   -65.6803 -65.6226 -65.5938 -65.5937 -32.6531 -32.6124 -32.6123 -32.4963
   -32.4804 -32.4803 -32.4754 -32.4228 -32.4228 -32.4139 -32.3228 -32.2157
   -32.1459 -32.1458 -32.0577 -32.0577 -32.0529 -32.0062 -32.0062 -31.9599
   -31.8778 -31.8778 -31.8699 -31.8555 -31.8130 -31.8129 -31.7865 -31.7802
   -31.7801 -31.7475 -31.7396 -31.7395 -31.6857 -31.6857 -31.6038 -31.6038
   -17.6896  -6.1066  -4.8467  -3.3134  -2.2851  -1.8127  -1.8127  -1.5145
    -1.4440  -1.4440  -1.3224  -1.2794  -1.2794  -0.7253  -0.7253  -0.6718
    -0.3918  -0.3652  -0.3652   0.7635   0.9620   0.9620   1.8940   2.0653
     2.1567   2.1567   2.3023   2.4526   2.5981   2.5981   2.7963   2.8885
     2.8885   3.1379   3.1676   3.1676   3.2602   3.2602   3.2685   3.3391
     3.3391   3.4820   3.7273

[...]

          k =-0.0837 0.0483 0.0000 ( 19532 PWs)   bands (ev):

[...]

     the Fermi energy is     2.5404 ev

!    total energy              =   -1752.10944720 Ry
     Harris-Foulkes estimate   =   -1752.10949456 Ry
     estimated scf accuracy    <       0.00000616 Ry

     The total energy is the sum of the following terms:

     one-electron contribution =  -11711.23314320 Ry
     hartree contribution      =    5843.52674927 Ry
     xc contribution           =    -531.12403067 Ry
     ewald contribution        =    4646.82711198 Ry
     electric field correction =       0.00034622 Ry
     smearing contrib. (-TS)   =      -0.10648080 Ry

     convergence has been achieved in  14 iterations

 BEEF-vdW xc energy contributions
           1 :   -467.403887290198
           2 :    431.106823154208
           3 :   -367.878343269711
           4 :    292.469844171335
           5 :   -219.536337456810
           6 :    159.174156594852
           7 :   -114.979708391282
           8 :    84.9194200842664
           9 :   -64.0905249536920
          10 :    47.7669813758209
          11 :   -33.3243577659192
          12 :    20.4715962223572
          13 :   -10.1810645604716
          14 :    3.26793789105579
          15 :   0.485293417238040
          16 :   -2.29369504551545
          17 :    3.65785765496224
          18 :   -5.53496407045179
          19 :    7.91171961161382
          20 :   -9.99806800307886
          21 :    10.8698905558350
          22 :   -10.1382954745108
          23 :    8.23961068761969
          24 :   -6.19564708575183
          25 :    5.02166157217198
          26 :   -5.16407164623479
          27 :    6.30002743887565
          28 :   -7.58732388695466
          29 :    8.18546645702156
          30 :   -7.72597994848115
          31 :   -41.8782821711387
          32 :   -31.0100640531515

     Forces acting on atoms (Ry/au):

     negative rho (up, down):  1.176E+00 0.000E+00
     atom    1 type  1   force =    -0.00107795   -0.00062493    0.00385161
     atom    2 type  1   force =     0.00108132   -0.00062709    0.00385303
     atom    3 type  1   force =    -0.00000338    0.00124629    0.00385473
     atom    4 type  1   force =    -0.00000207    0.00000127    0.00201738
     atom    5 type  1   force =    -0.00000483    0.00183603   -0.00365942
     atom    6 type  1   force =     0.00000451   -0.00001893    0.00515260
     atom    7 type  1   force =    -0.00159971   -0.00090706   -0.00364944
     atom    8 type  1   force =     0.00160225   -0.00091040   -0.00364796
     atom    9 type  1   force =     0.00000067   -0.00000017    0.11807027
     atom   10 type  1   force =     0.00000011    0.00496392   -0.02935542
     atom   11 type  1   force =     0.00429762   -0.00247903   -0.02932591
     atom   12 type  1   force =    -0.00429971   -0.00248045   -0.02933784
     atom   13 type  2   force =     0.00000097    0.00000076   -0.07407719
     atom   14 type  3   force =     0.00000019   -0.00000022    0.03625355

     Total force =     0.152966     Total SCF correction =     0.003730

     entering subroutine stress ...

     negative rho (up, down):  1.176E+00 0.000E+00
          total   stress  (Ry/bohr**3)                   (kbar)     P=  -30.02
  -0.00026740   0.00000000   0.00000000        -39.34      0.00      0.00
   0.00000000  -0.00026739  -0.00000000          0.00    -39.33     -0.00
   0.00000000  -0.00000000  -0.00007742          0.00     -0.00    -11.39

     BFGS Geometry Optimization

     number of scf cycles    =   1
     number of bfgs steps    =   0

     energy   new            =   -1752.1094472021 Ry

     new trust radius        =       0.1180702710 bohr
     new conv_thr            =       0.0000099958 Ry

ATOMIC_POSITIONS (crystal)
Ta1      0.166666667   0.166666667   0.401991699    0   0   0
Ta1      0.666666667   0.166666667   0.401991699    0   0   0
Ta1      0.166666667   0.666666667   0.401991699    0   0   0
Ta1      0.666666667   0.666666667   0.401991699    0   0   0
Ta1      0.833333333   0.333333333   0.500000000    0   0   0
Ta1      0.333333333   0.333333333   0.500000000    0   0   0
Ta1      0.833333333   0.833333333   0.500000000    0   0   0
Ta1      0.333333333   0.833333333   0.500000000    0   0   0
Ta1      0.000000068  -0.000000017   0.600519949
Ta1      0.499746062   0.000507895   0.597383839
Ta1      0.000507633   0.499746352   0.597384466
Ta1      0.499745902   0.499746207   0.597384213
O1       0.000000047   0.000000078   0.677072030
H1       0.000000028  -0.000000022   0.717608251

     Writing output data file calc.save
     Check: negative starting charge=   -1.121718
     NEW-OLD atomic charge density approx. for the potential
     Check: negative starting charge=   -1.121942

[...]

     energy   old            =   -1752.1094472021 Ry
     energy   new            =   -1752.1208877494 Ry

     CASE: energy  _new < energy  _old

[...]

     Total force =     0.008086     Total SCF correction =     0.000292

[...]

     Total force =     0.006546     Total SCF correction =     0.000877
     SCF correction compared to forces is large: reduce conv_thr to get better values

[...]

     Threshold (ethr) on eigenvalues was too large:
     Diagonalizing with lowered threshold

     Davidson diagonalization with overlap
     ethr =  9.17E-08,  avg # of iterations =  1.2

[...]

     number of scf cycles    =  15
     number of bfgs steps    =  14

     energy   old            =   -1752.1696392519 Ry
     energy   new            =   -1752.1696767502 Ry

     CASE: energy  _new < energy  _old

     new trust radius        =       0.0045144250 bohr
     new conv_thr            =       0.0000001000 Ry

ATOMIC_POSITIONS (crystal)
Ta1      0.166666667   0.166666667   0.401991699    0   0   0
Ta1      0.666666667   0.166666667   0.401991699    0   0   0
Ta1      0.166666667   0.666666667   0.401991699    0   0   0
Ta1      0.666666667   0.666666667   0.401991699    0   0   0
Ta1      0.833333333   0.333333333   0.500000000    0   0   0
Ta1      0.333333333   0.333333333   0.500000000    0   0   0
Ta1      0.833333333   0.833333333   0.500000000    0   0   0
Ta1      0.333333333   0.833333333   0.500000000    0   0   0
Ta1     -0.000001229   0.000000116   0.616755381
Ta1      0.499591498   0.000813591   0.591902104
Ta1      0.000811645   0.499593026   0.591901993
Ta1      0.499591585   0.499592797   0.591903696
O1       0.000000714   0.000000716   0.692721469
H1       0.000000317   0.000000040   0.731419265

     Writing output data file calc.save
     Check: negative starting charge=   -1.118597
     NEW-OLD atomic charge density approx. for the potential
     Check: negative starting charge=   -1.118965

[...]

     Self-consistent Calculation

[...]

     Threshold (ethr) on eigenvalues was too large:
     Diagonalizing with lowered threshold

     Davidson diagonalization with overlap
     ethr =  2.05E-08,  avg # of iterations =  4.2

[...]

     total energy              =   -1752.16968902 Ry
     Harris-Foulkes estimate   =   -1752.16968909 Ry
     estimated scf accuracy    <       0.00000031 Ry

     iteration #  8     ecut=    36.75 Ry     beta=0.30
     Davidson diagonalization with overlap
     ethr =  1.90E-10,  avg # of iterations =  3.1

[...]

     negative rho (up, down):  1.174E+00 0.000E+00

     Adding external electric field

     Computed dipole along edir(3) :
        Dipole                0.4711 Ry au,          1.1973 Debye
        Dipole field          0.0011 Ry au

        Potential amp.       -0.1047 Ry
        Total length         45.8339 bohr

     End of self-consistent calculation

[...]

          k = 0.0558-0.0645 0.0000 ( 19521 PWs)   bands (ev):

[...]

          k =-0.0837-0.0483 0.0000 ( 19532 PWs)   bands (ev):

   -66.1162 -65.6738 -65.6735 -65.6444 -65.6436 -65.6374 -65.6217 -65.6032
   -65.5714 -65.5628 -65.5505 -65.5168 -32.7888 -32.3831 -32.3557 -32.3395
   -32.3237 -32.2986 -32.2950 -32.2461 -32.2437 -32.1879 -32.1796 -32.1568
   -32.1440 -32.0383 -31.9900 -31.9707 -31.9682 -31.9638 -31.9560 -31.9350
   -31.9218 -31.9005 -31.8489 -31.8344 -31.8145 -31.7885 -31.7748 -31.7468
   -31.7151 -31.7066 -31.6822 -31.6628 -31.6512 -31.6265 -31.6062 -31.5717
   -17.9957  -6.5123  -3.0924  -2.9414  -1.9964  -1.9601  -1.6422  -1.4884
    -0.7565  -0.6876  -0.6093  -0.5043  -0.3985  -0.3211   0.4223   0.4341
     0.5862   0.6695   0.8504   0.9015   1.0498   1.1898   1.2249   1.3099
     1.4241   1.4812   1.6550   1.8043   1.9611   1.9714   2.0152   2.0538
     2.1695   2.3205   2.3965   2.4791   2.6124   2.8842   2.8915   3.0748
     3.3074   3.6293   3.8347

     the Fermi energy is     2.6022 ev

!    total energy              =   -1752.16968903 Ry
     Harris-Foulkes estimate   =   -1752.16968913 Ry
     estimated scf accuracy    <       0.00000003 Ry

     The total energy is the sum of the following terms:

     one-electron contribution =  -11600.67641392 Ry
     hartree contribution      =    5788.45603141 Ry
     xc contribution           =    -531.18263425 Ry
     ewald contribution        =    4591.33505101 Ry
     electric field correction =       0.00053781 Ry
     smearing contrib. (-TS)   =      -0.10226109 Ry

     convergence has been achieved in   8 iterations

 BEEF-vdW xc energy contributions
           1 :   -467.464454991802
           2 :    431.167387927986
           3 :   -367.950715910009
           4 :    292.547064664339
           5 :   -219.582216458683
           6 :    159.150135639942
           7 :   -114.871202579701
           8 :    84.7435058198830
           9 :   -63.8837761161094
          10 :    47.5651564819235
          11 :   -33.1468832605636
          12 :    20.3138226947058
          13 :   -10.0129989830840
          14 :    3.04490482006906
          15 :   0.796766188736001
          16 :   -2.69104855680473
          17 :    4.09733441586440
          18 :   -5.94992265776978
          19 :    8.24861553965150
          20 :   -10.2505324928034
          21 :    11.0848957755714
          22 :   -10.3861223593293
          23 :    8.56491752863622
          24 :   -6.58163921398904
          25 :    5.39662290426418
          26 :   -5.44877551566253
          27 :    6.46004459698509
          28 :   -7.65644029702275
          29 :    8.24694649432746
          30 :   -7.85972502619609
          31 :   -41.8806446432002
          32 :   -31.0109955716820

     Forces acting on atoms (Ry/au):

     negative rho (up, down):  1.174E+00 0.000E+00
     atom    1 type  1   force =    -0.00248992   -0.00143768    0.00528361
     atom    2 type  1   force =     0.00248998   -0.00143694    0.00528355
     atom    3 type  1   force =     0.00000067    0.00287485    0.00528357
     atom    4 type  1   force =    -0.00000021   -0.00000019    0.00261738
     atom    5 type  1   force =    -0.00000304   -0.02209424    0.00269856
     atom    6 type  1   force =     0.00000283    0.00000173   -0.02692733
     atom    7 type  1   force =     0.01913570    0.01104805    0.00269462
     atom    8 type  1   force =    -0.01913544    0.01104444    0.00269865
     atom    9 type  1   force =    -0.00000022   -0.00000013   -0.00037093
     atom   10 type  1   force =    -0.00000005   -0.00001114    0.00003969
     atom   11 type  1   force =    -0.00000953    0.00000568    0.00004007
     atom   12 type  1   force =     0.00000970    0.00000580    0.00003220
     atom   13 type  2   force =    -0.00000045   -0.00000019   -0.00114381
     atom   14 type  3   force =    -0.00000002   -0.00000003    0.00177017

     Total force =     0.002141     Total SCF correction =     0.000263
     SCF correction compared to forces is large: reduce conv_thr to get better values

     entering subroutine stress ...

     negative rho (up, down):  1.174E+00 0.000E+00
          total   stress  (Ry/bohr**3)                   (kbar)     P=  -27.44
  -0.00024786   0.00000000  -0.00000000        -36.46      0.00     -0.00
   0.00000000  -0.00024787  -0.00000000          0.00    -36.46     -0.00
  -0.00000000  -0.00000000  -0.00006394         -0.00     -0.00     -9.41

     bfgs converged in  16 scf cycles and  15 bfgs steps
     (criteria: energy <  1.0E+00, force <  1.9E-03)

     End of BFGS Geometry Optimization

     Final energy   =   -1752.1696890309 Ry
Begin final coordinates

ATOMIC_POSITIONS (crystal)
Ta1      0.166666667   0.166666667   0.401991699    0   0   0
Ta1      0.666666667   0.166666667   0.401991699    0   0   0
Ta1      0.166666667   0.666666667   0.401991699    0   0   0
Ta1      0.666666667   0.666666667   0.401991699    0   0   0
Ta1      0.833333333   0.333333333   0.500000000    0   0   0
Ta1      0.333333333   0.333333333   0.500000000    0   0   0
Ta1      0.833333333   0.833333333   0.500000000    0   0   0
Ta1      0.333333333   0.833333333   0.500000000    0   0   0
Ta1     -0.000001229   0.000000116   0.616755381
Ta1      0.499591498   0.000813591   0.591902104
Ta1      0.000811645   0.499593026   0.591901993
Ta1      0.499591585   0.499592797   0.591903696
O1       0.000000714   0.000000716   0.692721469
H1       0.000000317   0.000000040   0.731419265
End final coordinates

     Writing output data file calc.save

     General routines

     Parallel routines

   This run was terminated on:   9:59:17  23Apr2018

   JOB DONE.
Job  /afs/slac/g/suncat/bin/suncat-tsmpirun -x LD_LIBRARY_PATH -wdir /scratch/qe446706_0CdB0 pw.x -npool 4 -in pw.inp

TID   HOST_NAME   COMMAND_LINE            STATUS            TERMINATION_TIME
00000 suncat0076 pw.x -npool 4 -i  Done                     04/23/2018 09:59:17
00001 suncat0076 pw.x -npool 4 -i  Done                     04/23/2018 09:59:17
00002 suncat0076 pw.x -npool 4 -i  Done                     04/23/2018 09:59:17
00003 suncat0076 pw.x -npool 4 -i  Done                     04/23/2018 09:59:17
00004 suncat0076 pw.x -npool 4 -i  Done                     04/23/2018 09:59:17
00005 suncat0076 pw.x -npool 4 -i  Done                     04/23/2018 09:59:17
00006 suncat0076 pw.x -npool 4 -i  Done                     04/23/2018 09:59:17
00007 suncat0076 pw.x -npool 4 -i  Done                     04/23/2018 09:59:17
00008 suncat0060 pw.x -npool 4 -i  Done                     04/23/2018 09:59:17
00009 suncat0060 pw.x -npool 4 -i  Done                     04/23/2018 09:59:17
00010 suncat0060 pw.x -npool 4 -i  Done                     04/23/2018 09:59:17
00011 suncat0060 pw.x -npool 4 -i  Done                     04/23/2018 09:59:17
00012 suncat0060 pw.x -npool 4 -i  Done                     04/23/2018 09:59:17
00013 suncat0060 pw.x -npool 4 -i  Done                     04/23/2018 09:59:17
00014 suncat0060 pw.x -npool 4 -i  Done                     04/23/2018 09:59:17
00015 suncat0060 pw.x -npool 4 -i  Done                     04/23/2018 09:59:17
00016 suncat0041 pw.x -npool 4 -i  Done                     04/23/2018 09:59:17
00017 suncat0041 pw.x -npool 4 -i  Done                     04/23/2018 09:59:17
00018 suncat0041 pw.x -npool 4 -i  Done                     04/23/2018 09:59:17
00019 suncat0041 pw.x -npool 4 -i  Done                     04/23/2018 09:59:17
00020 suncat0041 pw.x -npool 4 -i  Done                     04/23/2018 09:59:17
00021 suncat0041 pw.x -npool 4 -i  Done                     04/23/2018 09:59:17
00022 suncat0041 pw.x -npool 4 -i  Done                     04/23/2018 09:59:17
00023 suncat0041 pw.x -npool 4 -i  Done                     04/23/2018 09:59:17
00024 suncat0029 pw.x -npool 4 -i  Done                     04/23/2018 09:59:17
00025 suncat0029 pw.x -npool 4 -i  Done                     04/23/2018 09:59:17
00026 suncat0029 pw.x -npool 4 -i  Done                     04/23/2018 09:59:17
00027 suncat0029 pw.x -npool 4 -i  Done                     04/23/2018 09:59:17
00028 suncat0029 pw.x -npool 4 -i  Done                     04/23/2018 09:59:17
00029 suncat0029 pw.x -npool 4 -i  Done                     04/23/2018 09:59:17
00030 suncat0029 pw.x -npool 4 -i  Done                     04/23/2018 09:59:17
00031 suncat0029 pw.x -npool 4 -i  Done                     04/23/2018 09:59:17