     Program PWSCF v.5.1rc2 (svn rev. 11289) starts on 23Apr2018 at 14:31:46

     Current dimensions of program PWSCF are:
     Max number of different atomic species (ntypx) = 10
     Max number of k-points (npk) =  40000
     Max angular momentum in pseudopotentials (lmaxx) =  3
     Presently stress not available with electric field

     IMPORTANT: XC functional enforced from input :
     Exchange-correlation      = BEEF-VDW ( 1  4 27 13 2)
     Any further DFT definition will be discarded
     Please, verify this is what you really want

     Subspace diagonalization in iterative solution of the eigenvalue problem:
     a serial algorithm will be used

     bravais-lattice index     =            0
     lattice parameter (alat)  =       1.8897  a.u.
     unit-cell volume          =    4301.6107 (a.u.)^3
     number of atoms/cell      =           15
     number of atomic types    =            3
     number of electrons       =       186.00
     number of Kohn-Sham states=          103
     kinetic-energy cutoff     =      36.7493  Ry
     charge density cutoff     =     367.4932  Ry
     convergence threshold     =      1.0E-05
     mixing beta               =       0.3000
     number of iterations used =           10  plain     mixing
     Exchange-correlation      = BEEF-VDW ( 1  4 27 13 2)
     nstep                     =           50

     celldm(1)=   1.889726  celldm(2)=   0.000000  celldm(3)=   0.000000
     celldm(4)=   0.000000  celldm(5)=   0.000000  celldm(6)=   0.000000

     crystal axes: (cart. coord. in units of alat)
               a(1) = (   5.483647   0.000000   0.000000 )
               a(2) = (   2.741823   4.748977   0.000000 )
               a(3) = (   0.000000   0.000000  24.477379 )

     reciprocal axes: (cart. coord. in units 2 pi/alat)
               b(1) = (  0.182360 -0.105286  0.000000 )
               b(2) = (  0.000000  0.210572  0.000000 )
               b(3) = (  0.000000  0.000000  0.040854 )

     PseudoPot. # 1 for Tc read from file:
     /u/if/mamunm/psp/gbrv1.5pbe/Tc.UPF
     MD5 check sum: 9eb49e5b028550b2339a02317eb7b844
     Pseudo is Ultrasoft + core correction, Zval = 15.0
     Generated by new atomic code, or converted to UPF format
     Using radial grid of  965 points,  6 beta functions with:
                l(1) =   0
                l(2) =   0
                l(3) =   1
                l(4) =   1
                l(5) =   2
                l(6) =   2
     Q(r) pseudized with  8 coefficients,  rinner =    1.300   1.300   1.300
                                                       1.300   1.300

     PseudoPot. # 2 for C  read from file:
     /u/if/mamunm/psp/gbrv1.5pbe/C.UPF
     MD5 check sum: d1aef80898a10debaa0f26306b886e00
     Pseudo is Ultrasoft + core correction, Zval =  4.0
     Generated by new atomic code, or converted to UPF format
     Using radial grid of  721 points,  4 beta functions with:
                l(1) =   0
                l(2) =   0
                l(3) =   1
                l(4) =   1
     Q(r) pseudized with  8 coefficients,  rinner =    1.100   1.100   1.100

     PseudoPot. # 3 for H  read from file:
     /u/if/mamunm/psp/gbrv1.5pbe/H.UPF
     MD5 check sum: 761ae9a214b05c3daf00ab9f6b793d6f
     Pseudo is Ultrasoft, Zval =  1.0
     Generated by new atomic code, or converted to UPF format
     Using radial grid of  615 points,  2 beta functions with:
                l(1) =   0
                l(2) =   0
     Q(r) pseudized with  8 coefficients,  rinner =    0.700

     vdW kernel table read from file vdW_kernel_table
     MD5 check sum: 095c7af220d748ca6e76c0b4c6cfb241

     atomic species   valence    mass     pseudopotential
        Tc1           15.00    97.90721     Tc( 1.00)
        C1             4.00    12.01100     C ( 1.00)
        H1             1.00     1.00800     H ( 1.00)

     No symmetry found

   Cartesian axes

     site n.     atom                  positions (alat units)
         1           Tc1 tau(   1) = (   1.3709117   0.7914962  10.0000000  )
         2           Tc1 tau(   2) = (   4.1127351   0.7914962  10.0000000  )
         3           Tc1 tau(   3) = (   2.7418234   3.1659850  10.0000000  )
         4           Tc1 tau(   4) = (   5.4836469   3.1659850  10.0000000  )
         5           Tc1 tau(   5) = (   5.4836469   1.5829925  12.2386895  )
         6           Tc1 tau(   6) = (   2.7418234   1.5829925  12.2386895  )
         7           Tc1 tau(   7) = (   6.8545586   3.9574812  12.2386895  )
         8           Tc1 tau(   8) = (   4.1127351   3.9574812  12.2386895  )
         9           Tc1 tau(   9) = (   0.0000000   0.0000000  14.4773789  )
        10           Tc1 tau(  10) = (   2.7418234   0.0000000  14.4773789  )
        11           Tc1 tau(  11) = (   1.3709117   2.3744887  14.4773789  )
        12           Tc1 tau(  12) = (   4.1127351   2.3744887  14.4773789  )
        13           C1  tau(  13) = (   1.3709117   0.7914962  15.9268789  )
        14           H1  tau(  14) = (   2.0009117   1.4214962  16.5568789  )
        15           H1  tau(  15) = (   0.7409117   0.1614962  16.5568789  )

     number of k points=    20  Fermi-Dirac smearing, width (Ry)=  0.0110
                       cart. coord. in units 2pi/alat
        k(    1) = (   0.0000000   0.0000000   0.0000000), wk =   0.0555556
        k(    2) = (   0.0000000   0.0350953   0.0000000), wk =   0.1111111
        k(    3) = (   0.0000000   0.0701905   0.0000000), wk =   0.1111111
        k(    4) = (   0.0000000  -0.1052858   0.0000000), wk =   0.0555556
        k(    5) = (   0.0303934  -0.0175476   0.0000000), wk =   0.1111111
        k(    6) = (   0.0303934   0.0175476   0.0000000), wk =   0.1111111
        k(    7) = (   0.0303934   0.0526429   0.0000000), wk =   0.1111111
        k(    8) = (   0.0303934  -0.1228335   0.0000000), wk =   0.1111111
        k(    9) = (   0.0303934  -0.0877382   0.0000000), wk =   0.1111111
        k(   10) = (   0.0303934  -0.0526429   0.0000000), wk =   0.1111111
        k(   11) = (   0.0607868  -0.0350953   0.0000000), wk =   0.1111111
        k(   12) = (   0.0607868   0.0000000   0.0000000), wk =   0.1111111
        k(   13) = (   0.0607868   0.0350953   0.0000000), wk =   0.1111111
        k(   14) = (   0.0607868  -0.1403811   0.0000000), wk =   0.1111111
        k(   15) = (   0.0607868  -0.1052858   0.0000000), wk =   0.1111111
        k(   16) = (   0.0607868  -0.0701905   0.0000000), wk =   0.1111111
        k(   17) = (  -0.0911802   0.0526429   0.0000000), wk =   0.0555556
        k(   18) = (  -0.0911802   0.0877382   0.0000000), wk =   0.1111111
        k(   19) = (  -0.0911802   0.1228335   0.0000000), wk =   0.1111111
        k(   20) = (  -0.0911802  -0.0526429   0.0000000), wk =   0.0555556

     Largest allocated arrays     est. size (Mb)     dimensions
     Largest temporary arrays     est. size (Mb)     dimensions

     Check: negative/imaginary core charge=   -0.000022    0.000000

     Initial potential from superposition of free atoms
     Check: negative starting charge=   -1.504671

     starting charge  173.99961, renormalised to  186.00000

     negative rho (up, down):  1.608E+00 0.000E+00

     *
     * You are using vdW-DF for exchange-correlation in this calculation.
     * Please cite the following three references that made this development
     * possible:
     *
     *   M. Dion, H. Rydberg, E. Schroder, D. C. Langreth, and
     *   B. I. Lundqvist, Phys. Rev. Lett. 92, 246401 (2004).
     *
     *   T. Thonhauser, V. R. Cooper, S. Li, A. Puzder, P. Hyldgaard, and
     *   D. C. Langreth, Phys. Rev. B 76, 125112 (2007).
     *
     *   G. Roman-Perez and J. M. Soler, Phys. Rev. Lett. 103, 096102 (2009).
     *
     *
     * If you are using vdW-DF2, please also cite:
     *
     *   K. Lee, E. D. Murray, L. Kong, B. I. Lundqvist, and
     *   D. C. Langreth, Phys. Rev. B 82, 081101(R) (2010).
     *
     *
     * If you are calculating the stress with vdW-DF, please also cite:
     *
     *   R. Sabatini, E. Kucukbenli, B. Kolb, T. Thonhauser, and
     *   S. de Gironcoli, J. Phys.: Condens. Matter 24, 424209 (2012).
     *

     Carrying out vdW-DF run using the following parameters:

     Nqs =      20    Nr_points =    1024   r_max =   100.000
     q_mesh =
               0.00001000     0.04494208     0.09755937     0.15916263
               0.23128650     0.31572767     0.41458969     0.53033537
               0.66584808     0.82450364     1.01025438     1.22772762
               1.48234092     1.78043706     2.12944203     2.53805004
               3.01644009     3.57652955     4.23227104     5.00000000

     Gradients computed in reciprocal space

     Adding external electric field

     Computed dipole along edir(3) :
        Dipole               -3.0479 Ry au,         -7.7469 Debye
        Dipole field         -0.0089 Ry au

        Potential amp.        0.8031 Ry
        Total length         45.0992 bohr

     Starting wfc are  162 randomized atomic wfcs

     Self-consistent Calculation

     iteration #  1     ecut=    36.75 Ry     beta=0.30
     Davidson diagonalization with overlap
     ethr =  1.00E-02,  avg # of iterations =  8.2

[...]

     total energy              =   -1907.46317687 Ry
     Harris-Foulkes estimate   =   -2114.64686638 Ry
     estimated scf accuracy    <     435.80433096 Ry

[...]

     End of self-consistent calculation

          k = 0.0000 0.0000 0.0000 ( 16073 PWs)   bands (ev):

   -64.4040 -64.2741 -64.2502 -64.2462 -64.2319 -64.1711 -64.1390 -64.1053
   -64.0372 -64.0249 -64.0120 -64.0083 -36.8432 -36.8361 -36.8266 -36.7846
   -36.7185 -36.6895 -36.6703 -36.5489 -36.5471 -36.5384 -36.2817 -36.2278
   -36.1929 -36.1742 -36.1369 -36.1106 -36.1086 -36.1036 -36.0968 -36.0730
   -35.9676 -35.9519 -35.9370 -35.9326 -35.9245 -35.9110 -35.8762 -35.8696
   -35.8642 -35.8084 -35.8059 -35.8037 -35.7125 -35.6991 -35.6103 -35.6070
   -10.0093  -4.3833  -3.7361  -3.2224  -2.4192  -2.3315  -2.2950  -2.2137
    -2.1302  -1.9828  -1.8583  -1.8103  -1.7237  -1.7041  -1.4759  -1.4701
    -1.3356  -0.6202  -0.5373  -0.0926   0.4368   0.5976   0.6157   0.7834
     0.8802   1.0742   1.1907   1.1969   1.4482   1.4809   1.5226   1.5854
     1.5860   1.6899   1.7220   1.7988   2.1927   2.2063   2.4185   2.9071
     3.1539   3.1933   3.2137   3.4024   3.5560   3.5753   3.7167   3.9068
     4.0183   4.0870   4.2531   4.7178   4.7757   4.8813   4.8941

[...]

          k =-0.0912 0.0526 0.0000 ( 16164 PWs)   bands (ev):

[...]

     the Fermi energy is     2.8791 ev

!    total energy              =   -2117.36036333 Ry
     Harris-Foulkes estimate   =   -2117.36037488 Ry
     estimated scf accuracy    <       0.00000846 Ry

     The total energy is the sum of the following terms:

     one-electron contribution =  -19123.16060972 Ry
     hartree contribution      =    9564.86144332 Ry
     xc contribution           =    -402.31705855 Ry
     ewald contribution        =    7843.34579093 Ry
     electric field correction =       0.00011911 Ry
     smearing contrib. (-TS)   =      -0.09004841 Ry

     convergence has been achieved in  25 iterations

 BEEF-vdW xc energy contributions
           1 :   -352.365616667494
           2 :    323.946524557387
           3 :   -273.432336310654
           4 :    210.978479125984
           5 :   -147.389069840191
           6 :    91.1633507791175
           7 :   -46.8496928597993
           8 :    14.9174766519433
           9 :    6.99742560191032
          10 :   -22.2347565214254
          11 :    33.4085293086908
          12 :   -41.5285496486086
          13 :    46.0754736371456
          14 :   -45.8281469387616
          15 :    39.9280774273540
          16 :   -28.7003453716131
          17 :    13.8829543837065
          18 :    1.77267961255899
          19 :   -15.3312204461444
          20 :    24.5465952174656
          21 :   -28.4359404615486
          22 :    27.3458272016815
          23 :   -22.5591729996933
          24 :    15.6654718162519
          25 :   -8.00204286041571
          26 :   0.382700472710894
          27 :    6.82864346224972
          28 :   -13.4272533309814
          29 :    19.0668244794592
          30 :   -23.1362570963469
          31 :   -33.6827738646541
          32 :   -24.7379534880175

     Forces acting on atoms (Ry/au):

     negative rho (up, down):  1.590E+00 0.000E+00
     atom    1 type  1   force =    -0.00044671    0.00004343    0.02921361
     atom    2 type  1   force =    -0.00012579   -0.00478349    0.02935891
     atom    3 type  1   force =    -0.00448435    0.00241665    0.03156068
     atom    4 type  1   force =     0.00388104    0.00226330    0.02735003
     atom    5 type  1   force =    -0.00260235    0.00244547    0.00428934
     atom    6 type  1   force =     0.00334172    0.00093210   -0.00085474
     atom    7 type  1   force =     0.00159313   -0.00002766   -0.05674644
     atom    8 type  1   force =     0.00175324   -0.00354968    0.00192385
     atom    9 type  1   force =    -0.01059144   -0.00507726   -0.01917652
     atom   10 type  1   force =     0.00664524   -0.00507212   -0.00429269
     atom   11 type  1   force =    -0.00192669    0.00972325   -0.01240011
     atom   12 type  1   force =    -0.00010791    0.00053256   -0.05259313
     atom   13 type  2   force =     0.02235214    0.00157319   -0.01557480
     atom   14 type  3   force =    -0.00241443    0.00657099    0.01908927
     atom   15 type  3   force =    -0.01686684   -0.00799072    0.01885272

     Total force =     0.073988     Total SCF correction =     0.008174
     SCF correction compared to forces is large: reduce conv_thr to get better values

     entering subroutine stress ...

     negative rho (up, down):  1.590E+00 0.000E+00
          total   stress  (Ry/bohr**3)                   (kbar)     P=  -27.88
  -0.00019800  -0.00000219  -0.00000512        -29.13     -0.32     -0.75
  -0.00000219  -0.00019742  -0.00000012         -0.32    -29.04     -0.02
  -0.00000512  -0.00000012  -0.00017324         -0.75     -0.02    -25.48

     BFGS Geometry Optimization

     number of scf cycles    =   1
     number of bfgs steps    =   0

     energy   new            =   -2117.3603633252 Ry

     new trust radius        =       0.0525959376 bohr
     new conv_thr            =       0.0000099958 Ry

ATOMIC_POSITIONS (crystal)
Tc1      0.166666667   0.166666667   0.408540475    0   0   0
Tc1      0.666666667   0.166666667   0.408540475    0   0   0
Tc1      0.166666667   0.666666667   0.408540475    0   0   0
Tc1      0.666666667   0.666666667   0.408540475    0   0   0
Tc1      0.833333333   0.333333333   0.500000000    0   0   0
Tc1      0.333333333   0.333333333   0.500000000    0   0   0
Tc1      0.833333333   0.833333333   0.500000000    0   0   0
Tc1      0.333333333   0.833333333   0.500000000    0   0   0
Tc1     -0.000739206  -0.000565758   0.591044948
Tc1      0.500923865  -0.000565185   0.591366722
Tc1     -0.000727657   0.501083459   0.591191447
Tc1      0.499959915   0.500059343   0.590322513
C1       0.168736020   0.166841967   0.650340755
H1       0.214624551   0.300059006   0.676828209
H1       0.116927222   0.033116127   0.676823095

     Writing output data file calc.save
     Check: negative starting charge=   -1.504671
     NEW-OLD atomic charge density approx. for the potential

     Check: negative/imaginary core charge=   -0.000022    0.000000
     Check: negative starting charge=   -1.508167

[...]

     energy   old            =   -2117.3603633252 Ry
     energy   new            =   -2117.3648124870 Ry

     CASE: energy  _new < energy  _old

[...]

     Total force =     0.044545     Total SCF correction =     0.001042

[...]

     iteration #  6     ecut=    36.75 Ry     beta=0.30
     Davidson diagonalization with overlap
     c_bands:  1 eigenvalues not converged
     ethr =  3.88E-06,  avg # of iterations =  2.4

[...]

     Threshold (ethr) on eigenvalues was too large:
     Diagonalizing with lowered threshold

     Davidson diagonalization with overlap
     ethr =  4.95E-08,  avg # of iterations =  1.9

[...]

     Total force =     0.003569     Total SCF correction =     0.000205

[...]

     number of scf cycles    =  39
     number of bfgs steps    =  38

     energy   old            =   -2117.3802623754 Ry
     energy   new            =   -2117.3802875723 Ry

     CASE: energy  _new < energy  _old

     new trust radius        =       0.0176941539 bohr
     new conv_thr            =       0.0000001000 Ry

ATOMIC_POSITIONS (crystal)
Tc1      0.166666667   0.166666667   0.408540475    0   0   0
Tc1      0.666666667   0.166666667   0.408540475    0   0   0
Tc1      0.166666667   0.666666667   0.408540475    0   0   0
Tc1      0.666666667   0.666666667   0.408540475    0   0   0
Tc1      0.833333333   0.333333333   0.500000000    0   0   0
Tc1      0.333333333   0.333333333   0.500000000    0   0   0
Tc1      0.833333333   0.833333333   0.500000000    0   0   0
Tc1      0.333333333   0.833333333   0.500000000    0   0   0
Tc1     -0.003823663  -0.003166874   0.589393628
Tc1      0.494860793  -0.001576197   0.592105012
Tc1     -0.001872294   0.496496215   0.591629602
Tc1      0.498093455   0.498223737   0.584222841
C1       0.165476426   0.164984530   0.651034344
H1       0.210199931   0.235774422   0.689699113
H1       0.057323956   0.043571169   0.666640766

     Writing output data file calc.save
     Check: negative starting charge=   -1.500878
     NEW-OLD atomic charge density approx. for the potential

     Check: negative/imaginary core charge=   -0.000022    0.000000
     Check: negative starting charge=   -1.500909

[...]

     Self-consistent Calculation

[...]

     Threshold (ethr) on eigenvalues was too large:
     Diagonalizing with lowered threshold

     Davidson diagonalization with overlap
     ethr =  1.31E-08,  avg # of iterations =  5.5

[...]

     total energy              =   -2117.38030297 Ry
     Harris-Foulkes estimate   =   -2117.38030329 Ry
     estimated scf accuracy    <       0.00000210 Ry

     iteration #  9     ecut=    36.75 Ry     beta=0.30
     Davidson diagonalization with overlap
     ethr =  8.50E-10,  avg # of iterations =  3.5

[...]

     negative rho (up, down):  1.587E+00 0.000E+00

     Adding external electric field

     Computed dipole along edir(3) :
        Dipole                0.2054 Ry au,          0.5222 Debye
        Dipole field          0.0006 Ry au

        Potential amp.       -0.0541 Ry
        Total length         45.0992 bohr

     End of self-consistent calculation

[...]

          k = 0.0608-0.0702 0.0000 ( 16203 PWs)   bands (ev):

[...]

          k =-0.0912-0.0526 0.0000 ( 16164 PWs)   bands (ev):

   -64.3732 -64.3490 -64.2828 -64.2772 -64.2546 -64.1727 -64.1253 -64.1183
   -64.1093 -64.0876 -64.0562 -64.0262 -36.7715 -36.7045 -36.6883 -36.6502
   -36.6484 -36.6118 -36.5250 -36.4891 -36.4409 -36.4132 -36.3951 -36.3697
   -36.2661 -36.1953 -36.1615 -36.1518 -36.1506 -36.1285 -36.1182 -36.1060
   -36.0968 -36.0522 -36.0480 -36.0420 -36.0285 -36.0156 -36.0145 -36.0021
   -35.9304 -35.9160 -35.8854 -35.8495 -35.8449 -35.8294 -35.7513 -35.7212
    -9.7860  -3.9576  -2.9915  -2.1032  -2.0082  -1.5346  -1.4667  -1.3902
    -1.2831  -1.1829  -1.0336  -0.8962  -0.8727  -0.8214  -0.6581  -0.5003
    -0.4749  -0.3435  -0.2802  -0.1422   0.0313   0.1840   0.2769   0.3583
     0.4473   0.4984   0.7821   1.0029   1.0457   1.1766   1.2819   1.3874
     1.4448   1.4904   1.5580   1.6236   1.6315   1.7042   1.7508   1.8428
     1.9414   1.9845   2.4768   2.6141   2.6471   2.7612   2.8013   2.8358
     3.0372   3.2847   3.3004   3.4111   3.4895   3.5184   3.5579

     the Fermi energy is     2.8583 ev

!    total energy              =   -2117.38030304 Ry
     Harris-Foulkes estimate   =   -2117.38030295 Ry
     estimated scf accuracy    <       0.00000009 Ry

     The total energy is the sum of the following terms:

     one-electron contribution =  -19245.24511510 Ry
     hartree contribution      =    9625.71592635 Ry
     xc contribution           =    -402.38699504 Ry
     ewald contribution        =    7904.62339759 Ry
     electric field correction =       0.00012330 Ry
     smearing contrib. (-TS)   =      -0.08764014 Ry

     convergence has been achieved in   9 iterations

 BEEF-vdW xc energy contributions
           1 :   -352.442725563971
           2 :    324.067485544578
           3 :   -273.616746323820
           4 :    211.202803147822
           5 :   -147.593829242063
           6 :    91.2866389622920
           7 :   -46.8624497936723
           8 :    14.8391929367613
           9 :    7.10753132892785
          10 :   -22.3045757419517
          11 :    33.3872482167219
          12 :   -41.4106316010839
          13 :    45.9024985869881
          14 :   -45.6678151779273
          15 :    39.8426586347965
          16 :   -28.7199994955433
          17 :    13.9935013541856
          18 :    1.62244008372295
          19 :   -15.2059418926170
          20 :    24.4963939038009
          21 :   -28.4742260801187
          22 :    27.4436040700053
          23 :   -22.6590020459903
          24 :    15.7079563322315
          25 :   -7.95365327200506
          26 :   0.253030015754860
          27 :    6.98978012586372
          28 :   -13.5517142487672
          29 :    19.0987663344364
          30 :   -23.0577344947454
          31 :   -33.6881812781053
          32 :   -24.7531427658878

     Forces acting on atoms (Ry/au):

     negative rho (up, down):  1.587E+00 0.000E+00
     atom    1 type  1   force =    -0.00096608   -0.00043524    0.02478193
     atom    2 type  1   force =    -0.00114817   -0.00614093    0.02559312
     atom    3 type  1   force =    -0.00623722    0.00223256    0.02597570
     atom    4 type  1   force =     0.00375103    0.00224655    0.02334004
     atom    5 type  1   force =     0.00365268    0.00112179   -0.00943293
     atom    6 type  1   force =    -0.00557979   -0.00359636   -0.01198583
     atom    7 type  1   force =     0.00005488   -0.00036679   -0.06849234
     atom    8 type  1   force =     0.00308522    0.00286821   -0.00863224
     atom    9 type  1   force =     0.00025036    0.00009878   -0.00027432
     atom   10 type  1   force =     0.00184563    0.00088167   -0.00031158
     atom   11 type  1   force =     0.00027933   -0.00041051   -0.00003972
     atom   12 type  1   force =    -0.00027994    0.00020105   -0.00008436
     atom   13 type  2   force =     0.00057179    0.00111318   -0.00041741
     atom   14 type  3   force =     0.00065185   -0.00046803    0.00001424
     atom   15 type  3   force =     0.00006841    0.00065408   -0.00003431

     Total force =     0.002761     Total SCF correction =     0.000430
     SCF correction compared to forces is large: reduce conv_thr to get better values

     entering subroutine stress ...

     negative rho (up, down):  1.587E+00 0.000E+00
          total   stress  (Ry/bohr**3)                   (kbar)     P=  -23.61
  -0.00018397  -0.00000425   0.00000891        -27.06     -0.63      1.31
  -0.00000425  -0.00018288   0.00000480         -0.63    -26.90      0.71
   0.00000891   0.00000480  -0.00011458          1.31      0.71    -16.86

     bfgs converged in  40 scf cycles and  39 bfgs steps
     (criteria: energy <  1.0E+00, force <  1.9E-03)

     End of BFGS Geometry Optimization

     Final energy   =   -2117.3803030406 Ry
Begin final coordinates

ATOMIC_POSITIONS (crystal)
Tc1      0.166666667   0.166666667   0.408540475    0   0   0
Tc1      0.666666667   0.166666667   0.408540475    0   0   0
Tc1      0.166666667   0.666666667   0.408540475    0   0   0
Tc1      0.666666667   0.666666667   0.408540475    0   0   0
Tc1      0.833333333   0.333333333   0.500000000    0   0   0
Tc1      0.333333333   0.333333333   0.500000000    0   0   0
Tc1      0.833333333   0.833333333   0.500000000    0   0   0
Tc1      0.333333333   0.833333333   0.500000000    0   0   0
Tc1     -0.003823663  -0.003166874   0.589393628
Tc1      0.494860793  -0.001576197   0.592105012
Tc1     -0.001872294   0.496496215   0.591629602
Tc1      0.498093455   0.498223737   0.584222841
C1       0.165476426   0.164984530   0.651034344
H1       0.210199931   0.235774422   0.689699113
H1       0.057323956   0.043571169   0.666640766
End final coordinates

     Writing output data file calc.save

     General routines

     Parallel routines

   This run was terminated on:  16:56:11  23Apr2018

   JOB DONE.
Job  /afs/slac/g/suncat/bin/suncat-tsmpirun -x LD_LIBRARY_PATH -wdir /scratch/qe20371_932Bb pw.x -npool 3 -in pw.inp

TID   HOST_NAME   COMMAND_LINE            STATUS            TERMINATION_TIME
00000 suncat2069 pw.x -npool 3 -i  Done                     04/23/2018 16:56:11
00001 suncat2069 pw.x -npool 3 -i  Done                     04/23/2018 16:56:11
00002 suncat2069 pw.x -npool 3 -i  Done                     04/23/2018 16:56:11
00003 suncat2069 pw.x -npool 3 -i  Done                     04/23/2018 16:56:11
00004 suncat2021 pw.x -npool 3 -i  Done                     04/23/2018 16:56:11
00005 suncat2021 pw.x -npool 3 -i  Done                     04/23/2018 16:56:11
00006 suncat2021 pw.x -npool 3 -i  Done                     04/23/2018 16:56:11
00007 suncat2021 pw.x -npool 3 -i  Done                     04/23/2018 16:56:11
00008 suncat2021 pw.x -npool 3 -i  Done                     04/23/2018 16:56:11
00009 suncat2021 pw.x -npool 3 -i  Done                     04/23/2018 16:56:11
00010 suncat2021 pw.x -npool 3 -i  Done                     04/23/2018 16:56:11
00011 suncat2021 pw.x -npool 3 -i  Done                     04/23/2018 16:56:11
00012 suncat2021 pw.x -npool 3 -i  Done                     04/23/2018 16:56:11
00013 suncat2021 pw.x -npool 3 -i  Done                     04/23/2018 16:56:11
00014 suncat2021 pw.x -npool 3 -i  Done                     04/23/2018 16:56:11
00015 suncat2021 pw.x -npool 3 -i  Done                     04/23/2018 16:56:11
00016 suncat2021 pw.x -npool 3 -i  Done                     04/23/2018 16:56:11
00017 suncat2021 pw.x -npool 3 -i  Done                     04/23/2018 16:56:11
00018 suncat2021 pw.x -npool 3 -i  Done                     04/23/2018 16:56:11
00019 suncat2021 pw.x -npool 3 -i  Done                     04/23/2018 16:56:11
00020 suncat2001 pw.x -npool 3 -i  Done                     04/23/2018 16:56:11
00021 suncat2001 pw.x -npool 3 -i  Done                     04/23/2018 16:56:11
00022 suncat2001 pw.x -npool 3 -i  Done                     04/23/2018 16:56:11
00023 suncat2001 pw.x -npool 3 -i  Done                     04/23/2018 16:56:11
00024 suncat2001 pw.x -npool 3 -i  Done                     04/23/2018 16:56:11
00025 suncat2001 pw.x -npool 3 -i  Done                     04/23/2018 16:56:11
00026 suncat2001 pw.x -npool 3 -i  Done                     04/23/2018 16:56:11
00027 suncat2001 pw.x -npool 3 -i  Done                     04/23/2018 16:56:11
00028 suncat2001 pw.x -npool 3 -i  Done                     04/23/2018 16:56:11
00029 suncat2001 pw.x -npool 3 -i  Done                     04/23/2018 16:56:11
00030 suncat2001 pw.x -npool 3 -i  Done                     04/23/2018 16:56:11
00031 suncat2001 pw.x -npool 3 -i  Done                     04/23/2018 16:56:11
00032 suncat2001 pw.x -npool 3 -i  Done                     04/23/2018 16:56:11
00033 suncat2001 pw.x -npool 3 -i  Done                     04/23/2018 16:56:11
00034 suncat2001 pw.x -npool 3 -i  Done                     04/23/2018 16:56:11
00035 suncat2001 pw.x -npool 3 -i  Done                     04/23/2018 16:56:11