     Program PWSCF v.5.1rc2 (svn rev. 11289) starts on 21Jan2018 at  3:49:30

     Current dimensions of program PWSCF are:
     Max number of different atomic species (ntypx) = 10
     Max number of k-points (npk) =  40000
     Max angular momentum in pseudopotentials (lmaxx) =  3
     Presently stress not available with electric field

     IMPORTANT: XC functional enforced from input :
     Exchange-correlation      = BEEF-VDW ( 1  4 27 13 2)
     Any further DFT definition will be discarded
     Please, verify this is what you really want

     Subspace diagonalization in iterative solution of the eigenvalue problem:
     a serial algorithm will be used

     bravais-lattice index     =            0
     lattice parameter (alat)  =       1.8897  a.u.
     unit-cell volume          =    4481.2752 (a.u.)^3
     number of atoms/cell      =           13
     number of atomic types    =            2
     number of electrons       =       198.00
     number of Kohn-Sham states=          109
     kinetic-energy cutoff     =      36.7493  Ry
     charge density cutoff     =     367.4932  Ry
     convergence threshold     =      1.0E-05
     mixing beta               =       0.3000
     number of iterations used =           10  plain     mixing
     Exchange-correlation      = BEEF-VDW ( 1  4 27 13 2)
     nstep                     =           50

     celldm(1)=   1.889726  celldm(2)=   0.000000  celldm(3)=   0.000000
     celldm(4)=   0.000000  celldm(5)=   0.000000  celldm(6)=   0.000000

     crystal axes: (cart. coord. in units of alat)
               a(1) = (   5.587338   0.000000   0.000000 )
               a(2) = (   2.793669   4.838777   0.000000 )
               a(3) = (   0.000000   0.000000  24.562042 )

     reciprocal axes: (cart. coord. in units 2 pi/alat)
               b(1) = (  0.178976 -0.103332  0.000000 )
               b(2) = (  0.000000  0.206664  0.000000 )
               b(3) = (  0.000000  0.000000  0.040713 )

     PseudoPot. # 1 for Pt read from file:
     /afs/slac.stanford.edu/u/if/mamunm/psp/gbrv1.5pbe/Pt.UPF
     MD5 check sum: f09d6de1a584b5a045c4fc126da2d0c4
     Pseudo is Ultrasoft + core correction, Zval = 16.0
     Generated by new atomic code, or converted to UPF format
     Using radial grid of  985 points,  6 beta functions with:
                l(1) =   0
                l(2) =   0
                l(3) =   1
                l(4) =   1
                l(5) =   2
                l(6) =   2
     Q(r) pseudized with  8 coefficients,  rinner =    1.300   1.300   1.300
                                                       1.300   1.300

     PseudoPot. # 2 for S  read from file:
     /afs/slac.stanford.edu/u/if/mamunm/psp/gbrv1.5pbe/S.UPF
     MD5 check sum: 88d86576ff6df21479756cfb9bdac1df
     Pseudo is Ultrasoft + core correction, Zval =  6.0
     Generated by new atomic code, or converted to UPF format
     Using radial grid of  907 points,  6 beta functions with:
                l(1) =   0
                l(2) =   0
                l(3) =   1
                l(4) =   1
                l(5) =   2
                l(6) =   2
     Q(r) pseudized with  8 coefficients,  rinner =    1.300   1.300   1.300
                                                       1.300   1.300

     vdW kernel table read from file vdW_kernel_table
     MD5 check sum: 095c7af220d748ca6e76c0b4c6cfb241

     atomic species   valence    mass     pseudopotential
        Pt1           16.00   195.08400     Pt( 1.00)
        S1             6.00    32.06000     S ( 1.00)

     No symmetry found

   Cartesian axes

     site n.     atom                  positions (alat units)
         1           Pt1 tau(   1) = (   1.3968345   0.8064628  10.0000000  )
         2           Pt1 tau(   2) = (   4.1905036   0.8064628  10.0000000  )
         3           Pt1 tau(   3) = (   2.7936691   3.2258512  10.0000000  )
         4           Pt1 tau(   4) = (   5.5873381   3.2258512  10.0000000  )
         5           Pt1 tau(   5) = (   5.5873381   1.6129256  12.2810212  )
         6           Pt1 tau(   6) = (   2.7936691   1.6129256  12.2810212  )
         7           Pt1 tau(   7) = (   6.9841727   4.0323140  12.2810212  )
         8           Pt1 tau(   8) = (   4.1905036   4.0323140  12.2810212  )
         9           Pt1 tau(   9) = (   0.0000000   0.0000000  14.5620425  )
        10           Pt1 tau(  10) = (   2.7936691   0.0000000  14.5620425  )
        11           Pt1 tau(  11) = (   1.3968345   2.4193884  14.5620425  )
        12           Pt1 tau(  12) = (   4.1905036   2.4193884  14.5620425  )
        13           S1  tau(  13) = (   2.7936691   1.6129256  16.9720425  )

     number of k points=    20  Fermi-Dirac smearing, width (Ry)=  0.0110
                       cart. coord. in units 2pi/alat
        k(    1) = (   0.0000000   0.0000000   0.0000000), wk =   0.0555556
        k(    2) = (   0.0000000   0.0344440   0.0000000), wk =   0.1111111
        k(    3) = (   0.0000000   0.0688879   0.0000000), wk =   0.1111111
        k(    4) = (   0.0000000  -0.1033319   0.0000000), wk =   0.0555556
        k(    5) = (   0.0298294  -0.0172220   0.0000000), wk =   0.1111111
        k(    6) = (   0.0298294   0.0172220   0.0000000), wk =   0.1111111
        k(    7) = (   0.0298294   0.0516660   0.0000000), wk =   0.1111111
        k(    8) = (   0.0298294  -0.1205539   0.0000000), wk =   0.1111111
        k(    9) = (   0.0298294  -0.0861099   0.0000000), wk =   0.1111111
        k(   10) = (   0.0298294  -0.0516660   0.0000000), wk =   0.1111111
        k(   11) = (   0.0596587  -0.0344440   0.0000000), wk =   0.1111111
        k(   12) = (   0.0596587   0.0000000   0.0000000), wk =   0.1111111
        k(   13) = (   0.0596587   0.0344440   0.0000000), wk =   0.1111111
        k(   14) = (   0.0596587  -0.1377759   0.0000000), wk =   0.1111111
        k(   15) = (   0.0596587  -0.1033319   0.0000000), wk =   0.1111111
        k(   16) = (   0.0596587  -0.0688879   0.0000000), wk =   0.1111111
        k(   17) = (  -0.0894881   0.0516660   0.0000000), wk =   0.0555556
        k(   18) = (  -0.0894881   0.0861099   0.0000000), wk =   0.1111111
        k(   19) = (  -0.0894881   0.1205539   0.0000000), wk =   0.1111111
        k(   20) = (  -0.0894881  -0.0516660   0.0000000), wk =   0.0555556

     Largest allocated arrays     est. size (Mb)     dimensions
     Largest temporary arrays     est. size (Mb)     dimensions

     Initial potential from superposition of free atoms
     Check: negative starting charge=   -2.200730

     starting charge  191.99983, renormalised to  198.00000

     negative rho (up, down):  2.270E+00 0.000E+00

     *
     * You are using vdW-DF for exchange-correlation in this calculation.
     * Please cite the following three references that made this development
     * possible:
     *
     *   M. Dion, H. Rydberg, E. Schroder, D. C. Langreth, and
     *   B. I. Lundqvist, Phys. Rev. Lett. 92, 246401 (2004).
     *
     *   T. Thonhauser, V. R. Cooper, S. Li, A. Puzder, P. Hyldgaard, and
     *   D. C. Langreth, Phys. Rev. B 76, 125112 (2007).
     *
     *   G. Roman-Perez and J. M. Soler, Phys. Rev. Lett. 103, 096102 (2009).
     *
     *
     * If you are using vdW-DF2, please also cite:
     *
     *   K. Lee, E. D. Murray, L. Kong, B. I. Lundqvist, and
     *   D. C. Langreth, Phys. Rev. B 82, 081101(R) (2010).
     *
     *
     * If you are calculating the stress with vdW-DF, please also cite:
     *
     *   R. Sabatini, E. Kucukbenli, B. Kolb, T. Thonhauser, and
     *   S. de Gironcoli, J. Phys.: Condens. Matter 24, 424209 (2012).
     *

     Carrying out vdW-DF run using the following parameters:

     Nqs =      20    Nr_points =    1024   r_max =   100.000
     q_mesh =
               0.00001000     0.04494208     0.09755937     0.15916263
               0.23128650     0.31572767     0.41458969     0.53033537
               0.66584808     0.82450364     1.01025438     1.22772762
               1.48234092     1.78043706     2.12944203     2.53805004
               3.01644009     3.57652955     4.23227104     5.00000000

     Gradients computed in reciprocal space

     Adding external electric field

     Computed dipole along edir(3) :
        Dipole               -1.6619 Ry au,         -4.2240 Debye
        Dipole field         -0.0047 Ry au

        Potential amp.        0.4218 Ry
        Total length         45.2551 bohr

     Starting wfc are  148 randomized atomic wfcs

     Self-consistent Calculation

     iteration #  1     ecut=    36.75 Ry     beta=0.30
     Davidson diagonalization with overlap
     ethr =  1.00E-02,  avg # of iterations =  3.9

[...]

     total energy              =   -2539.41518619 Ry
     Harris-Foulkes estimate   =   -2575.09058295 Ry
     estimated scf accuracy    <      75.30061790 Ry

[...]

     End of self-consistent calculation

          k = 0.0000 0.0000 0.0000 ( 16787 PWs)   bands (ev):

   -51.1590 -51.1554 -51.1542 -51.0541 -51.0238 -51.0222 -51.0162 -50.9259
   -50.9237 -50.8972 -50.8962 -50.8932 -50.8921 -50.8203 -50.8202 -50.7791
   -50.7783 -50.7667 -50.7409 -50.7400 -50.7312 -50.6621 -50.6238 -50.6226
   -50.5569 -50.5565 -50.5438 -50.5006 -50.5003 -50.4720 -50.4719 -50.3812
   -50.3494 -50.3349 -50.3335 -50.2517  -9.5012  -6.9130  -5.1917  -4.7747
    -4.4251  -4.4248  -4.4157  -4.2232  -4.1981  -4.1980  -3.7572  -3.7571
    -3.7537  -3.6127  -3.5846  -3.5843  -2.3502  -2.2121  -2.2116  -1.8377
    -1.8233  -1.8232  -1.6580  -1.5398  -1.5398  -1.2933  -1.2531  -1.2530
    -1.1245  -1.1058  -1.1056  -1.0153  -1.0153  -0.7120  -0.7112  -0.4439
    -0.1465   0.2823   0.2826   0.3629   0.4465   0.4465   0.5535   0.5540
     0.8317   0.8574   0.8577   1.0545   1.0546   1.5976   1.6202   1.6203
     1.6531   1.7580   1.7581   1.9108   1.9909   1.9909   2.0067   2.0400
     2.0403   2.2408   2.3082   2.3086   2.4039   2.4044   2.4051   3.0309
     3.1844   3.1845   4.1227   4.8462   4.8465

[...]

          k =-0.0895 0.0517 0.0000 ( 16880 PWs)   bands (ev):

[...]

     the Fermi energy is     1.8796 ev

!    total energy              =   -2572.54997401 Ry
     Harris-Foulkes estimate   =   -2572.55000443 Ry
     estimated scf accuracy    <       0.00000956 Ry

     The total energy is the sum of the following terms:

     one-electron contribution =  -20435.38938883 Ry
     hartree contribution      =   10257.35976381 Ry
     xc contribution           =    -711.99103009 Ry
     ewald contribution        =    8317.58581612 Ry
     electric field correction =       0.00004180 Ry
     smearing contrib. (-TS)   =      -0.11517683 Ry

     convergence has been achieved in  18 iterations

 BEEF-vdW xc energy contributions
           1 :   -633.620205619471
           2 :    589.385623895233
           3 :   -510.133890146685
           4 :    411.015504298207
           5 :   -308.552663420482
           6 :    216.450822019566
           7 :   -142.878733672477
           8 :    89.7628050847120
           9 :   -54.0466382920417
          10 :    30.1771856662336
          11 :   -12.7515453470412
          12 :   -1.66411361999417
          13 :    14.0209423011171
          14 :   -23.4611055931027
[...]

[...]

     Total force =     0.091947     Total SCF correction =     0.005063

[...]

   This run was terminated on:   5:47: 3  21Jan2018

[...]

     Program PWSCF v.5.1rc2 (svn rev. 11289) starts on 21Jan2018 at  5:47: 9

[...]

   This run was terminated on:   6: 4:43  21Jan2018

[...]

     Program PWSCF v.5.1rc2 (svn rev. 11289) starts on 21Jan2018 at  6: 4:49

[...]

     Program PWSCF v.5.1rc2 (svn rev. 11289) starts on 21Jan2018 at  6:57:58

     Current dimensions of program PWSCF are:
     Max number of different atomic species (ntypx) = 10
     Max number of k-points (npk) =  40000
     Max angular momentum in pseudopotentials (lmaxx) =  3
     Presently stress not available with electric field

     IMPORTANT: XC functional enforced from input :
     Exchange-correlation      = BEEF-VDW ( 1  4 27 13 2)
     Any further DFT definition will be discarded
     Please, verify this is what you really want

     Subspace diagonalization in iterative solution of the eigenvalue problem:
     a serial algorithm will be used

     bravais-lattice index     =            0
     lattice parameter (alat)  =       1.8897  a.u.
     unit-cell volume          =    4481.2752 (a.u.)^3
     number of atoms/cell      =           13
     number of atomic types    =            2
     number of electrons       =       198.00
     number of Kohn-Sham states=          109
     kinetic-energy cutoff     =      36.7493  Ry
     charge density cutoff     =     367.4932  Ry
     convergence threshold     =      1.0E-05
     mixing beta               =       0.3000
     number of iterations used =           10  plain     mixing
     Exchange-correlation      = BEEF-VDW ( 1  4 27 13 2)
     nstep                     =           50

     celldm(1)=   1.889726  celldm(2)=   0.000000  celldm(3)=   0.000000
     celldm(4)=   0.000000  celldm(5)=   0.000000  celldm(6)=   0.000000

     crystal axes: (cart. coord. in units of alat)
               a(1) = (   5.587338   0.000000   0.000000 )
               a(2) = (   2.793669   4.838777   0.000000 )
               a(3) = (   0.000000   0.000000  24.562042 )

     reciprocal axes: (cart. coord. in units 2 pi/alat)
               b(1) = (  0.178976 -0.103332  0.000000 )
               b(2) = (  0.000000  0.206664  0.000000 )
               b(3) = (  0.000000  0.000000  0.040713 )

     PseudoPot. # 1 for Pt read from file:
     /afs/slac.stanford.edu/u/if/mamunm/psp/gbrv1.5pbe/Pt.UPF
     MD5 check sum: f09d6de1a584b5a045c4fc126da2d0c4
     Pseudo is Ultrasoft + core correction, Zval = 16.0
     Generated by new atomic code, or converted to UPF format
     Using radial grid of  985 points,  6 beta functions with:
                l(1) =   0
                l(2) =   0
                l(3) =   1
                l(4) =   1
                l(5) =   2
                l(6) =   2
     Q(r) pseudized with  8 coefficients,  rinner =    1.300   1.300   1.300
                                                       1.300   1.300

     PseudoPot. # 2 for S  read from file:
     /afs/slac.stanford.edu/u/if/mamunm/psp/gbrv1.5pbe/S.UPF
     MD5 check sum: 88d86576ff6df21479756cfb9bdac1df
     Pseudo is Ultrasoft + core correction, Zval =  6.0
     Generated by new atomic code, or converted to UPF format
     Using radial grid of  907 points,  6 beta functions with:
                l(1) =   0
                l(2) =   0
                l(3) =   1
                l(4) =   1
                l(5) =   2
                l(6) =   2
     Q(r) pseudized with  8 coefficients,  rinner =    1.300   1.300   1.300
                                                       1.300   1.300

     vdW kernel table read from file vdW_kernel_table
     MD5 check sum: 095c7af220d748ca6e76c0b4c6cfb241

     atomic species   valence    mass     pseudopotential
        Pt1           16.00   195.08400     Pt( 1.00)
        S1             6.00    32.06000     S ( 1.00)

     No symmetry found

   Cartesian axes

     site n.     atom                  positions (alat units)
         1           Pt1 tau(   1) = (   1.3968345   0.8064628  10.0000000  )
         2           Pt1 tau(   2) = (   4.1905036   0.8064628  10.0000000  )
         3           Pt1 tau(   3) = (   2.7936691   3.2258512  10.0000000  )
         4           Pt1 tau(   4) = (   5.5873381   3.2258512  10.0000000  )
         5           Pt1 tau(   5) = (   5.5873381   1.6129256  12.2810212  )
         6           Pt1 tau(   6) = (   2.7936691   1.6129256  12.2810212  )
         7           Pt1 tau(   7) = (   6.9841727   4.0323140  12.2810212  )
         8           Pt1 tau(   8) = (   4.1905036   4.0323140  12.2810212  )
         9           Pt1 tau(   9) = (   5.5872383   0.0000860  14.5548603  )
        10           Pt1 tau(  10) = (   5.5874188   4.8126171  14.6870733  )
        11           Pt1 tau(  11) = (   6.9614099   2.4325662  14.6871263  )
        12           Pt1 tau(  12) = (   4.2131559   2.4324110  14.6871601  )
        13           S1  tau(  13) = (   2.7937325   1.6128890  16.2939940  )

     number of k points=    20  Fermi-Dirac smearing, width (Ry)=  0.0110
                       cart. coord. in units 2pi/alat
        k(    1) = (   0.0000000   0.0000000   0.0000000), wk =   0.0555556
        k(    2) = (   0.0000000   0.0344440   0.0000000), wk =   0.1111111
        k(    3) = (   0.0000000   0.0688879   0.0000000), wk =   0.1111111
        k(    4) = (   0.0000000  -0.1033319   0.0000000), wk =   0.0555556
        k(    5) = (   0.0298294  -0.0172220   0.0000000), wk =   0.1111111
        k(    6) = (   0.0298294   0.0172220   0.0000000), wk =   0.1111111
        k(    7) = (   0.0298294   0.0516660   0.0000000), wk =   0.1111111
        k(    8) = (   0.0298294  -0.1205539   0.0000000), wk =   0.1111111
        k(    9) = (   0.0298294  -0.0861099   0.0000000), wk =   0.1111111
        k(   10) = (   0.0298294  -0.0516660   0.0000000), wk =   0.1111111
        k(   11) = (   0.0596587  -0.0344440   0.0000000), wk =   0.1111111
        k(   12) = (   0.0596587   0.0000000   0.0000000), wk =   0.1111111
        k(   13) = (   0.0596587   0.0344440   0.0000000), wk =   0.1111111
        k(   14) = (   0.0596587  -0.1377759   0.0000000), wk =   0.1111111
        k(   15) = (   0.0596587  -0.1033319   0.0000000), wk =   0.1111111
        k(   16) = (   0.0596587  -0.0688879   0.0000000), wk =   0.1111111
        k(   17) = (  -0.0894881   0.0516660   0.0000000), wk =   0.0555556
        k(   18) = (  -0.0894881   0.0861099   0.0000000), wk =   0.1111111
        k(   19) = (  -0.0894881   0.1205539   0.0000000), wk =   0.1111111
        k(   20) = (  -0.0894881  -0.0516660   0.0000000), wk =   0.0555556

     Largest allocated arrays     est. size (Mb)     dimensions
     Largest temporary arrays     est. size (Mb)     dimensions

     Initial potential from superposition of free atoms
     Check: negative starting charge=   -2.201158

     starting charge  191.99983, renormalised to  198.00000

[...]

     *
     * You are using vdW-DF for exchange-correlation in this calculation.
     * Please cite the following three references that made this development
     * possible:
     *
     *   M. Dion, H. Rydberg, E. Schroder, D. C. Langreth, and
     *   B. I. Lundqvist, Phys. Rev. Lett. 92, 246401 (2004).
     *
     *   T. Thonhauser, V. R. Cooper, S. Li, A. Puzder, P. Hyldgaard, and
     *   D. C. Langreth, Phys. Rev. B 76, 125112 (2007).
     *
     *   G. Roman-Perez and J. M. Soler, Phys. Rev. Lett. 103, 096102 (2009).
     *
     *
     * If you are using vdW-DF2, please also cite:
     *
     *   K. Lee, E. D. Murray, L. Kong, B. I. Lundqvist, and
     *   D. C. Langreth, Phys. Rev. B 82, 081101(R) (2010).
     *
     *
     * If you are calculating the stress with vdW-DF, please also cite:
     *
     *   R. Sabatini, E. Kucukbenli, B. Kolb, T. Thonhauser, and
     *   S. de Gironcoli, J. Phys.: Condens. Matter 24, 424209 (2012).
     *

     Carrying out vdW-DF run using the following parameters:

     Nqs =      20    Nr_points =    1024   r_max =   100.000
     q_mesh =
               0.00001000     0.04494208     0.09755937     0.15916263
               0.23128650     0.31572767     0.41458969     0.53033537
               0.66584808     0.82450364     1.01025438     1.22772762
               1.48234092     1.78043706     2.12944203     2.53805004
               3.01644009     3.57652955     4.23227104     5.00000000

     Gradients computed in reciprocal space

[...]

     Starting wfc are  148 randomized atomic wfcs

     Self-consistent Calculation

[...]

     total energy              =   -2572.69295431 Ry
     Harris-Foulkes estimate   =   -2572.69295321 Ry
     estimated scf accuracy    <       0.00001227 Ry

     iteration # 21     ecut=    36.75 Ry     beta=0.30
     Davidson diagonalization with overlap
     ethr =  6.20E-09,  avg # of iterations =  1.9

[...]

     negative rho (up, down):  2.118E+00 0.000E+00

     Adding external electric field

     Computed dipole along edir(3) :
        Dipole                0.1349 Ry au,          0.3428 Debye
        Dipole field          0.0004 Ry au

        Potential amp.       -0.0342 Ry
        Total length         45.2551 bohr

     End of self-consistent calculation

[...]

          k = 0.0597-0.0689 0.0000 ( 16875 PWs)   bands (ev):

[...]

          k =-0.0895-0.0517 0.0000 ( 16880 PWs)   bands (ev):

   -51.0346 -50.9616 -50.9050 -50.6981 -50.6872 -50.6329 -50.6305 -50.5857
   -50.5709 -50.5388 -50.5248 -50.5130 -50.5045 -50.4841 -50.4835 -50.4751
   -50.4525 -50.4341 -50.4046 -50.3836 -50.3548 -50.3191 -50.2812 -50.2538
   -50.1923 -50.1874 -50.1741 -50.1574 -50.1348 -50.1034 -50.0811 -49.9958
   -49.9053 -49.8974 -49.8905 -49.8892 -11.8137  -4.8972  -4.6499  -3.9972
    -3.6294  -3.3723  -3.3437  -3.1225  -3.0048  -3.0041  -2.9536  -2.8149
    -2.7498  -2.4773  -2.4349  -2.3680  -2.3310  -2.1498  -2.0937  -1.9346
    -1.7118  -1.7043  -1.6948  -1.6053  -1.5547  -1.4436  -1.3189  -1.2613
    -1.0399  -1.0058  -0.9264  -0.8565  -0.7445  -0.6829  -0.5529  -0.5448
    -0.4813  -0.4201  -0.3690  -0.3375  -0.3223  -0.1578   0.0002   0.2139
     0.2263   0.3100   0.3174   0.4184   0.5357   0.5763   0.6758   0.7707
     0.9298   0.9490   1.0884   1.2138   1.2391   1.3964   1.4781   1.7305
     1.8537   2.0707   2.1544   2.3173   2.3734   2.4835   2.7494   3.3183
     4.2179   4.4375   4.5281   4.7785   5.4633

     the Fermi energy is     2.2711 ev

!    total energy              =   -2572.69295231 Ry
     Harris-Foulkes estimate   =   -2572.69296506 Ry
     estimated scf accuracy    <       0.00000270 Ry

     The total energy is the sum of the following terms:

     one-electron contribution =  -20433.12048299 Ry
     hartree contribution      =   10257.97003319 Ry
     xc contribution           =    -712.29298894 Ry
     ewald contribution        =    8314.85022697 Ry
     electric field correction =       0.00005101 Ry
     smearing contrib. (-TS)   =      -0.09979156 Ry

     convergence has been achieved in  21 iterations

 BEEF-vdW xc energy contributions
           1 :   -633.938456554714
           2 :    589.850948953459
           3 :   -510.772245596980
           4 :    411.723259562317
           5 :   -309.177145902573
           6 :    216.877751034879
           7 :   -143.079776244471
           8 :    89.7915908070808
           9 :   -53.9954326079957
          10 :    30.1219217382926
          11 :   -12.7157265637144
          12 :   -1.70992956695943
          13 :    14.1283666793473
          14 :   -23.6627166009170
          15 :    28.8925402198955
          16 :   -29.1123080405461
          17 :    24.9872692016055
          18 :   -18.4180006544840
          19 :    11.7996055671234
          20 :   -7.10688739176533
          21 :    5.23617579061977
          22 :   -5.86361703407499
          23 :    7.80911778867176
          24 :   -9.68171088221936
          25 :    10.4885685723726
          26 :   -9.95967128635664
          27 :    8.49932224036581
          28 :   -6.85707266904240
          29 :    5.71224162886131
          30 :   -5.37339697650123
          31 :   -52.2254006855286
          32 :   -38.6263465421860

     Forces acting on atoms (Ry/au):

     negative rho (up, down):  2.118E+00 0.000E+00
     atom    1 type  1   force =    -0.00235534   -0.00135883   -0.01934719
     atom    2 type  1   force =     0.00235879   -0.00137315   -0.01935899
     atom    3 type  1   force =    -0.00001072    0.00272722   -0.01935775
     atom    4 type  1   force =     0.00001207    0.00000427   -0.00875375
     atom    5 type  1   force =     0.00001302    0.00928526    0.02062378
     atom    6 type  1   force =    -0.00002547   -0.00000626    0.00483130
     atom    7 type  1   force =    -0.00804168   -0.00464720    0.02062293
     atom    8 type  1   force =     0.00803864   -0.00462940    0.02063675
     atom    9 type  1   force =     0.00005870   -0.00003568    0.00046985
     atom   10 type  1   force =    -0.00006730   -0.00044877   -0.00009247
     atom   11 type  1   force =    -0.00032590    0.00017938   -0.00006944
     atom   12 type  1   force =     0.00039336    0.00029581   -0.00014620
     atom   13 type  2   force =    -0.00004818    0.00000736   -0.00005880

     Total force =     0.052744     Total SCF correction =     0.013733
     SCF correction compared to forces is large: reduce conv_thr to get better values

     entering subroutine stress ...

     negative rho (up, down):  2.118E+00 0.000E+00
          total   stress  (Ry/bohr**3)                   (kbar)     P=   -5.90
  -0.00008368   0.00000001  -0.00000002        -12.31      0.00     -0.00
   0.00000001  -0.00008367   0.00000001          0.00    -12.31      0.00
  -0.00000002   0.00000001   0.00004710         -0.00      0.00      6.93

 !ASE

     Writing output data file calc.save

     General routines

     Parallel routines

   This run was terminated on:   7:15:36  21Jan2018

   JOB DONE.
Job  /afs/slac/g/suncat/bin/suncat-tsmpirun -x LD_LIBRARY_PATH -wdir /scratch/qe864735_9AN5G pw.x -in pw.inp

TID   HOST_NAME   COMMAND_LINE            STATUS            TERMINATION_TIME
00000 suncat0018 pw.x -in pw.inp   Done                     01/21/2018 07:15:36
00001 suncat0018 pw.x -in pw.inp   Done                     01/21/2018 07:15:36
00002 suncat0018 pw.x -in pw.inp   Done                     01/21/2018 07:15:36
00003 suncat0018 pw.x -in pw.inp   Done                     01/21/2018 07:15:36
00004 suncat0018 pw.x -in pw.inp   Done                     01/21/2018 07:15:36
00005 suncat0018 pw.x -in pw.inp   Done                     01/21/2018 07:15:36
00006 suncat0018 pw.x -in pw.inp   Done                     01/21/2018 07:15:36
00007 suncat0018 pw.x -in pw.inp   Done                     01/21/2018 07:15:36
00008 suncat0165 pw.x -in pw.inp   Done                     01/21/2018 07:15:36
00009 suncat0165 pw.x -in pw.inp   Done                     01/21/2018 07:15:36
00010 suncat0165 pw.x -in pw.inp   Done                     01/21/2018 07:15:36
00011 suncat0165 pw.x -in pw.inp   Done                     01/21/2018 07:15:36
00012 suncat0165 pw.x -in pw.inp   Done                     01/21/2018 07:15:36
00013 suncat0165 pw.x -in pw.inp   Done                     01/21/2018 07:15:36
00014 suncat0165 pw.x -in pw.inp   Done                     01/21/2018 07:15:36
00015 suncat0165 pw.x -in pw.inp   Done                     01/21/2018 07:15:36
00016 suncat0277 pw.x -in pw.inp   Done                     01/21/2018 07:15:36
00017 suncat0277 pw.x -in pw.inp   Done                     01/21/2018 07:15:36
00018 suncat0277 pw.x -in pw.inp   Done                     01/21/2018 07:15:36
00019 suncat0277 pw.x -in pw.inp   Done                     01/21/2018 07:15:36
00020 suncat0277 pw.x -in pw.inp   Done                     01/21/2018 07:15:36
00021 suncat0277 pw.x -in pw.inp   Done                     01/21/2018 07:15:36
00022 suncat0277 pw.x -in pw.inp   Done                     01/21/2018 07:15:36
00023 suncat0277 pw.x -in pw.inp   Done                     01/21/2018 07:15:36
00024 suncat0253 pw.x -in pw.inp   Done                     01/21/2018 07:15:36
00025 suncat0253 pw.x -in pw.inp   Done                     01/21/2018 07:15:36
00026 suncat0253 pw.x -in pw.inp   Done                     01/21/2018 07:15:36
00027 suncat0253 pw.x -in pw.inp   Done                     01/21/2018 07:15:36
00028 suncat0253 pw.x -in pw.inp   Done                     01/21/2018 07:15:36
00029 suncat0253 pw.x -in pw.inp   Done                     01/21/2018 07:15:36
00030 suncat0253 pw.x -in pw.inp   Done                     01/21/2018 07:15:36
00031 suncat0253 pw.x -in pw.inp   Done                     01/21/2018 07:15:36