     Program PWSCF v.5.1rc2 (svn rev. 11289) starts on 21Jan2018 at 19:29:33

     Current dimensions of program PWSCF are:
     Max number of different atomic species (ntypx) = 10
     Max number of k-points (npk) =  40000
     Max angular momentum in pseudopotentials (lmaxx) =  3
     Presently stress not available with electric field

     IMPORTANT: XC functional enforced from input :
     Exchange-correlation      = BEEF-VDW ( 1  4 27 13 2)
     Any further DFT definition will be discarded
     Please, verify this is what you really want

     Subspace diagonalization in iterative solution of the eigenvalue problem:
     a serial algorithm will be used

     bravais-lattice index     =            0
     lattice parameter (alat)  =       1.8897  a.u.
     unit-cell volume          =    4806.0858 (a.u.)^3
     number of atoms/cell      =           13
     number of atomic types    =            2
     number of electrons       =       150.00
     number of Kohn-Sham states=           85
     kinetic-energy cutoff     =      36.7493  Ry
     charge density cutoff     =     367.4932  Ry
     convergence threshold     =      1.0E-05
     mixing beta               =       0.3000
     number of iterations used =           10  plain     mixing
     Exchange-correlation      = BEEF-VDW ( 1  4 27 13 2)
     nstep                     =           50

     celldm(1)=   1.889726  celldm(2)=   0.000000  celldm(3)=   0.000000
     celldm(4)=   0.000000  celldm(5)=   0.000000  celldm(6)=   0.000000

     crystal axes: (cart. coord. in units of alat)
               a(1) = (   5.768903   0.000000   0.000000 )
               a(2) = (   2.884451   4.996016   0.000000 )
               a(3) = (   0.000000   0.000000  24.710289 )

     reciprocal axes: (cart. coord. in units 2 pi/alat)
               b(1) = (  0.173343 -0.100080  0.000000 )
               b(2) = (  0.000000  0.200159  0.000000 )
               b(3) = (  0.000000  0.000000  0.040469 )

     PseudoPot. # 1 for Ti read from file:
     /afs/slac.stanford.edu/u/if/mamunm/psp/gbrv1.5pbe/Ti.UPF
     MD5 check sum: 88a00a6731bd790ddea75d31a80cb452
     Pseudo is Ultrasoft + core correction, Zval = 12.0
     Generated by new atomic code, or converted to UPF format
     Using radial grid of  851 points,  6 beta functions with:
                l(1) =   0
                l(2) =   0
                l(3) =   1
                l(4) =   1
                l(5) =   2
                l(6) =   2
     Q(r) pseudized with  6 coefficients,  rinner =    1.000   1.000   1.000
                                                       1.000   1.000

     PseudoPot. # 2 for S  read from file:
     /afs/slac.stanford.edu/u/if/mamunm/psp/gbrv1.5pbe/S.UPF
     MD5 check sum: 88d86576ff6df21479756cfb9bdac1df
     Pseudo is Ultrasoft + core correction, Zval =  6.0
     Generated by new atomic code, or converted to UPF format
     Using radial grid of  907 points,  6 beta functions with:
                l(1) =   0
                l(2) =   0
                l(3) =   1
                l(4) =   1
                l(5) =   2
                l(6) =   2
     Q(r) pseudized with  8 coefficients,  rinner =    1.300   1.300   1.300
                                                       1.300   1.300

     vdW kernel table read from file vdW_kernel_table
     MD5 check sum: 095c7af220d748ca6e76c0b4c6cfb241

     atomic species   valence    mass     pseudopotential
        Ti1           12.00    47.86700     Ti( 1.00)
        S1             6.00    32.06000     S ( 1.00)

     No symmetry found

   Cartesian axes

     site n.     atom                  positions (alat units)
         1           Ti1 tau(   1) = (   1.4422257   0.8326694  10.0000000  )
         2           Ti1 tau(   2) = (   4.3266771   0.8326694  10.0000000  )
         3           Ti1 tau(   3) = (   2.8844514   3.3306776  10.0000000  )
         4           Ti1 tau(   4) = (   5.7689029   3.3306776  10.0000000  )
         5           Ti1 tau(   5) = (   5.7689029   1.6653388  12.3551447  )
         6           Ti1 tau(   6) = (   2.8844514   1.6653388  12.3551447  )
         7           Ti1 tau(   7) = (   7.2111286   4.1633470  12.3551447  )
         8           Ti1 tau(   8) = (   4.3266771   4.1633470  12.3551447  )
         9           Ti1 tau(   9) = (   0.0000000   0.0000000  14.7102895  )
        10           Ti1 tau(  10) = (   2.8844514   0.0000000  14.7102895  )
        11           Ti1 tau(  11) = (   1.4422257   2.4980082  14.7102895  )
        12           Ti1 tau(  12) = (   4.3266771   2.4980082  14.7102895  )
        13           S1  tau(  13) = (   0.0000000   0.0000000  17.3602895  )

     number of k points=    20  Fermi-Dirac smearing, width (Ry)=  0.0110
                       cart. coord. in units 2pi/alat
        k(    1) = (   0.0000000   0.0000000   0.0000000), wk =   0.0555556
        k(    2) = (   0.0000000   0.0333599   0.0000000), wk =   0.1111111
        k(    3) = (   0.0000000   0.0667198   0.0000000), wk =   0.1111111
        k(    4) = (   0.0000000  -0.1000797   0.0000000), wk =   0.0555556
        k(    5) = (   0.0288905  -0.0166800   0.0000000), wk =   0.1111111
        k(    6) = (   0.0288905   0.0166800   0.0000000), wk =   0.1111111
        k(    7) = (   0.0288905   0.0500399   0.0000000), wk =   0.1111111
        k(    8) = (   0.0288905  -0.1167597   0.0000000), wk =   0.1111111
        k(    9) = (   0.0288905  -0.0833998   0.0000000), wk =   0.1111111
        k(   10) = (   0.0288905  -0.0500399   0.0000000), wk =   0.1111111
        k(   11) = (   0.0577811  -0.0333599   0.0000000), wk =   0.1111111
        k(   12) = (   0.0577811  -0.0000000   0.0000000), wk =   0.1111111
        k(   13) = (   0.0577811   0.0333599   0.0000000), wk =   0.1111111
        k(   14) = (   0.0577811  -0.1334396   0.0000000), wk =   0.1111111
        k(   15) = (   0.0577811  -0.1000797   0.0000000), wk =   0.1111111
        k(   16) = (   0.0577811  -0.0667198   0.0000000), wk =   0.1111111
        k(   17) = (  -0.0866716   0.0500399   0.0000000), wk =   0.0555556
        k(   18) = (  -0.0866716   0.0833998   0.0000000), wk =   0.1111111
        k(   19) = (  -0.0866716   0.1167597   0.0000000), wk =   0.1111111
        k(   20) = (  -0.0866716  -0.0500399   0.0000000), wk =   0.0555556

     Largest allocated arrays     est. size (Mb)     dimensions
     Largest temporary arrays     est. size (Mb)     dimensions

     Check: negative/imaginary core charge=   -0.000006    0.000000

     Initial potential from superposition of free atoms
     Check: negative starting charge=   -0.012630

     starting charge  137.99943, renormalised to  150.00000

     negative rho (up, down):  1.373E-02 0.000E+00

     *
     * You are using vdW-DF for exchange-correlation in this calculation.
     * Please cite the following three references that made this development
     * possible:
     *
     *   M. Dion, H. Rydberg, E. Schroder, D. C. Langreth, and
     *   B. I. Lundqvist, Phys. Rev. Lett. 92, 246401 (2004).
     *
     *   T. Thonhauser, V. R. Cooper, S. Li, A. Puzder, P. Hyldgaard, and
     *   D. C. Langreth, Phys. Rev. B 76, 125112 (2007).
     *
     *   G. Roman-Perez and J. M. Soler, Phys. Rev. Lett. 103, 096102 (2009).
     *
     *
     * If you are using vdW-DF2, please also cite:
     *
     *   K. Lee, E. D. Murray, L. Kong, B. I. Lundqvist, and
     *   D. C. Langreth, Phys. Rev. B 82, 081101(R) (2010).
     *
     *
     * If you are calculating the stress with vdW-DF, please also cite:
     *
     *   R. Sabatini, E. Kucukbenli, B. Kolb, T. Thonhauser, and
     *   S. de Gironcoli, J. Phys.: Condens. Matter 24, 424209 (2012).
     *

     Carrying out vdW-DF run using the following parameters:

     Nqs =      20    Nr_points =    1024   r_max =   100.000
     q_mesh =
               0.00001000     0.04494208     0.09755937     0.15916263
               0.23128650     0.31572767     0.41458969     0.53033537
               0.66584808     0.82450364     1.01025438     1.22772762
               1.48234092     1.78043706     2.12944203     2.53805004
               3.01644009     3.57652955     4.23227104     5.00000000

     Gradients computed in reciprocal space

     Adding external electric field

     Computed dipole along edir(3) :
        Dipole               -4.9347 Ry au,        -12.5427 Debye
        Dipole field         -0.0129 Ry au

        Potential amp.        1.1749 Ry
        Total length         45.5283 bohr

     Starting wfc are  124 randomized atomic wfcs

     Self-consistent Calculation

     iteration #  1     ecut=    36.75 Ry     beta=0.30
     Davidson diagonalization with overlap
     ethr =  1.00E-02,  avg # of iterations =  6.2

[...]

     total energy              =   -1308.74077155 Ry
     Harris-Foulkes estimate   =   -1466.20427555 Ry
     estimated scf accuracy    <     326.41430702 Ry

[...]

     iteration # 27     ecut=    36.75 Ry     beta=0.30
     Davidson diagonalization with overlap
     c_bands:  2 eigenvalues not converged
     c_bands:  1 eigenvalues not converged
     ethr =  2.10E-06,  avg # of iterations =  8.3

[...]

     End of self-consistent calculation

          k = 0.0000 0.0000 0.0000 ( 18103 PWs)   bands (ev):

   -56.7116 -56.6349 -56.6341 -56.5979 -56.5420 -56.5083 -56.5043 -56.5036
   -56.4164 -56.3401 -56.3381 -56.3369 -33.1537 -33.1534 -33.1191 -33.1041
   -33.0476 -33.0473 -33.0439 -33.0277 -33.0275 -32.9720 -32.9077 -32.8601
   -32.8600 -32.7701 -32.7676 -32.7099 -32.7099 -32.6918 -32.6869 -32.6865
   -32.6276 -32.6273 -32.6260 -32.5847 -32.5846 -32.5369 -32.5346 -32.5324
   -32.5131 -32.4990 -32.4990 -32.4418 -32.4406 -32.4357 -32.3255 -32.3254
   -10.6473  -5.0733  -3.7617  -2.5385  -1.9409  -1.9404  -1.9318  -1.8832
    -1.8032  -1.8031  -1.4638  -1.3916  -1.3914  -1.2120  -1.1901  -1.1899
    -1.0351  -0.9294  -0.9294  -0.5118  -0.2625  -0.2623   0.3093   0.5862
     0.6665   0.7078   0.7079   0.8967   0.9560   0.9758   0.9760   1.1564
     1.1564   1.3421   1.3426   1.3755   1.3758

[...]

          k =-0.0867 0.0500 0.0000 ( 18044 PWs)   bands (ev):

[...]

     the Fermi energy is     0.4060 ev

!    total energy              =   -1463.00198785 Ry
     Harris-Foulkes estimate   =   -1463.00203192 Ry
     estimated scf accuracy    <       0.00000968 Ry

     The total energy is the sum of the following terms:

     one-electron contribution =  -10988.85684345 Ry
     hartree contribution      =    5480.06219604 Ry
     xc contribution           =    -233.42695100 Ry
     ewald contribution        =    4279.34691963 Ry
     electric field correction =       0.00060462 Ry
     smearing contrib. (-TS)   =      -0.12791369 Ry

     convergence has been achieved in  32 iterations

 BEEF-vdW xc energy contributions
           1 :   -200.499183715225
           2 :    178.889957731395
           3 :   -143.501306723415
           4 :    105.608192190512
           5 :   -74.4092722839996
           6 :    53.5540021669304
           7 :   -41.1759012490312
           8 :    32.6502740363617
           9 :   -23.9728296945076
          10 :    13.7548664777358
          11 :   -3.11299807091839
[...]
     SCF correction compared to forces is large: reduce conv_thr to get better values

[...]

   This run was terminated on:  20:19:55  21Jan2018

[...]

     Program PWSCF v.5.1rc2 (svn rev. 11289) starts on 21Jan2018 at 20:20: 1

[...]

     Total force =     0.042705     Total SCF correction =     0.004652
     SCF correction compared to forces is large: reduce conv_thr to get better values

[...]

     Program PWSCF v.5.1rc2 (svn rev. 11289) starts on 21Jan2018 at 22:50:32

     Current dimensions of program PWSCF are:
     Max number of different atomic species (ntypx) = 10
     Max number of k-points (npk) =  40000
     Max angular momentum in pseudopotentials (lmaxx) =  3
     Presently stress not available with electric field

     IMPORTANT: XC functional enforced from input :
     Exchange-correlation      = BEEF-VDW ( 1  4 27 13 2)
     Any further DFT definition will be discarded
     Please, verify this is what you really want

     Subspace diagonalization in iterative solution of the eigenvalue problem:
     a serial algorithm will be used

     bravais-lattice index     =            0
     lattice parameter (alat)  =       1.8897  a.u.
     unit-cell volume          =    4806.0858 (a.u.)^3
     number of atoms/cell      =           13
     number of atomic types    =            2
     number of electrons       =       150.00
     number of Kohn-Sham states=           85
     kinetic-energy cutoff     =      36.7493  Ry
     charge density cutoff     =     367.4932  Ry
     convergence threshold     =      1.0E-05
     mixing beta               =       0.3000
     number of iterations used =           10  plain     mixing
     Exchange-correlation      = BEEF-VDW ( 1  4 27 13 2)
     nstep                     =           50

     celldm(1)=   1.889726  celldm(2)=   0.000000  celldm(3)=   0.000000
     celldm(4)=   0.000000  celldm(5)=   0.000000  celldm(6)=   0.000000

     crystal axes: (cart. coord. in units of alat)
               a(1) = (   5.768903   0.000000   0.000000 )
               a(2) = (   2.884451   4.996016   0.000000 )
               a(3) = (   0.000000   0.000000  24.710289 )

     reciprocal axes: (cart. coord. in units 2 pi/alat)
               b(1) = (  0.173343 -0.100080  0.000000 )
               b(2) = (  0.000000  0.200159  0.000000 )
               b(3) = (  0.000000  0.000000  0.040469 )

     PseudoPot. # 1 for Ti read from file:
     /afs/slac.stanford.edu/u/if/mamunm/psp/gbrv1.5pbe/Ti.UPF
     MD5 check sum: 88a00a6731bd790ddea75d31a80cb452
     Pseudo is Ultrasoft + core correction, Zval = 12.0
     Generated by new atomic code, or converted to UPF format
     Using radial grid of  851 points,  6 beta functions with:
                l(1) =   0
                l(2) =   0
                l(3) =   1
                l(4) =   1
                l(5) =   2
                l(6) =   2
     Q(r) pseudized with  6 coefficients,  rinner =    1.000   1.000   1.000
                                                       1.000   1.000

     PseudoPot. # 2 for S  read from file:
     /afs/slac.stanford.edu/u/if/mamunm/psp/gbrv1.5pbe/S.UPF
     MD5 check sum: 88d86576ff6df21479756cfb9bdac1df
     Pseudo is Ultrasoft + core correction, Zval =  6.0
     Generated by new atomic code, or converted to UPF format
     Using radial grid of  907 points,  6 beta functions with:
                l(1) =   0
                l(2) =   0
                l(3) =   1
                l(4) =   1
                l(5) =   2
                l(6) =   2
     Q(r) pseudized with  8 coefficients,  rinner =    1.300   1.300   1.300
                                                       1.300   1.300

     vdW kernel table read from file vdW_kernel_table
     MD5 check sum: 095c7af220d748ca6e76c0b4c6cfb241

     atomic species   valence    mass     pseudopotential
        Ti1           12.00    47.86700     Ti( 1.00)
        S1             6.00    32.06000     S ( 1.00)

     No symmetry found

   Cartesian axes

     site n.     atom                  positions (alat units)
         1           Ti1 tau(   1) = (   1.4422257   0.8326694  10.0000000  )
         2           Ti1 tau(   2) = (   4.3266771   0.8326694  10.0000000  )
         3           Ti1 tau(   3) = (   2.8844514   3.3306776  10.0000000  )
         4           Ti1 tau(   4) = (   5.7689029   3.3306776  10.0000000  )
         5           Ti1 tau(   5) = (   5.7689029   1.6653388  12.3551447  )
         6           Ti1 tau(   6) = (   2.8844514   1.6653388  12.3551447  )
         7           Ti1 tau(   7) = (   7.2111286   4.1633470  12.3551447  )
         8           Ti1 tau(   8) = (   4.3266771   4.1633470  12.3551447  )
         9           Ti1 tau(   9) = (   2.8844171   4.9959543  14.5900271  )
        10           Ti1 tau(  10) = (   5.7688643   4.9745247  14.7264685  )
        11           Ti1 tau(  11) = (   7.1925431   2.5087417  14.7262583  )
        12           Ti1 tau(  12) = (   4.3451853   2.5087464  14.7266806  )
        13           S1  tau(  13) = (   0.0001312   0.0000222  16.7658902  )

     number of k points=    20  Fermi-Dirac smearing, width (Ry)=  0.0110
                       cart. coord. in units 2pi/alat
        k(    1) = (   0.0000000   0.0000000   0.0000000), wk =   0.0555556
        k(    2) = (   0.0000000   0.0333599   0.0000000), wk =   0.1111111
        k(    3) = (   0.0000000   0.0667198   0.0000000), wk =   0.1111111
        k(    4) = (   0.0000000  -0.1000797   0.0000000), wk =   0.0555556
        k(    5) = (   0.0288905  -0.0166800   0.0000000), wk =   0.1111111
        k(    6) = (   0.0288905   0.0166800   0.0000000), wk =   0.1111111
        k(    7) = (   0.0288905   0.0500399   0.0000000), wk =   0.1111111
        k(    8) = (   0.0288905  -0.1167597   0.0000000), wk =   0.1111111
        k(    9) = (   0.0288905  -0.0833998   0.0000000), wk =   0.1111111
        k(   10) = (   0.0288905  -0.0500399   0.0000000), wk =   0.1111111
        k(   11) = (   0.0577811  -0.0333599   0.0000000), wk =   0.1111111
        k(   12) = (   0.0577811  -0.0000000   0.0000000), wk =   0.1111111
        k(   13) = (   0.0577811   0.0333599   0.0000000), wk =   0.1111111
        k(   14) = (   0.0577811  -0.1334396   0.0000000), wk =   0.1111111
        k(   15) = (   0.0577811  -0.1000797   0.0000000), wk =   0.1111111
        k(   16) = (   0.0577811  -0.0667198   0.0000000), wk =   0.1111111
        k(   17) = (  -0.0866716   0.0500399   0.0000000), wk =   0.0555556
        k(   18) = (  -0.0866716   0.0833998   0.0000000), wk =   0.1111111
        k(   19) = (  -0.0866716   0.1167597   0.0000000), wk =   0.1111111
        k(   20) = (  -0.0866716  -0.0500399   0.0000000), wk =   0.0555556

     Largest allocated arrays     est. size (Mb)     dimensions
     Largest temporary arrays     est. size (Mb)     dimensions

     Check: negative/imaginary core charge=   -0.000006    0.000000

     Initial potential from superposition of free atoms
     Check: negative starting charge=   -0.013351

     starting charge  137.99943, renormalised to  150.00000

[...]

     *
     * You are using vdW-DF for exchange-correlation in this calculation.
     * Please cite the following three references that made this development
     * possible:
     *
     *   M. Dion, H. Rydberg, E. Schroder, D. C. Langreth, and
     *   B. I. Lundqvist, Phys. Rev. Lett. 92, 246401 (2004).
     *
     *   T. Thonhauser, V. R. Cooper, S. Li, A. Puzder, P. Hyldgaard, and
     *   D. C. Langreth, Phys. Rev. B 76, 125112 (2007).
     *
     *   G. Roman-Perez and J. M. Soler, Phys. Rev. Lett. 103, 096102 (2009).
     *
     *
     * If you are using vdW-DF2, please also cite:
     *
     *   K. Lee, E. D. Murray, L. Kong, B. I. Lundqvist, and
     *   D. C. Langreth, Phys. Rev. B 82, 081101(R) (2010).
     *
     *
     * If you are calculating the stress with vdW-DF, please also cite:
     *
     *   R. Sabatini, E. Kucukbenli, B. Kolb, T. Thonhauser, and
     *   S. de Gironcoli, J. Phys.: Condens. Matter 24, 424209 (2012).
     *

     Carrying out vdW-DF run using the following parameters:

     Nqs =      20    Nr_points =    1024   r_max =   100.000
     q_mesh =
               0.00001000     0.04494208     0.09755937     0.15916263
               0.23128650     0.31572767     0.41458969     0.53033537
               0.66584808     0.82450364     1.01025438     1.22772762
               1.48234092     1.78043706     2.12944203     2.53805004
               3.01644009     3.57652955     4.23227104     5.00000000

     Gradients computed in reciprocal space

[...]

     Starting wfc are  124 randomized atomic wfcs

     Self-consistent Calculation

[...]

     iteration # 27     ecut=    36.75 Ry     beta=0.30
     Davidson diagonalization with overlap
     c_bands:  1 eigenvalues not converged
     c_bands:  1 eigenvalues not converged
     ethr =  6.38E-07,  avg # of iterations = 10.8

[...]

     total energy              =   -1463.09117314 Ry
     Harris-Foulkes estimate   =   -1463.09118137 Ry
     estimated scf accuracy    <       0.00014962 Ry

     iteration # 34     ecut=    36.75 Ry     beta=0.30
     Davidson diagonalization with overlap
     ethr =  2.63E-08,  avg # of iterations =  5.2

[...]

     negative rho (up, down):  8.094E-03 0.000E+00

     Adding external electric field

     Computed dipole along edir(3) :
        Dipole               -0.1810 Ry au,         -0.4602 Debye
        Dipole field         -0.0005 Ry au

        Potential amp.        0.0431 Ry
        Total length         45.5283 bohr

     End of self-consistent calculation

[...]

          k = 0.0578-0.0667 0.0000 ( 18031 PWs)   bands (ev):

[...]

          k =-0.0867-0.0500 0.0000 ( 18044 PWs)   bands (ev):

   -56.2855 -56.2621 -56.2394 -56.1425 -56.1382 -56.0953 -56.0916 -55.9808
   -55.9707 -55.9359 -55.9147 -55.9124 -32.6588 -32.6421 -32.6334 -32.6241
   -32.5931 -32.5388 -32.5354 -32.5178 -32.4956 -32.4831 -32.4760 -32.4510
   -32.4267 -32.4085 -32.3923 -32.3652 -32.3611 -32.3340 -32.3186 -32.2532
   -32.2529 -32.2265 -32.1975 -32.1703 -32.1618 -32.1518 -32.1504 -32.1406
   -32.1356 -32.1110 -32.1000 -32.0626 -32.0621 -32.0390 -31.9715 -31.9578
   -11.3360  -3.1615  -3.1577  -2.5033  -2.2522  -2.0989  -1.6516  -1.6007
    -1.1182  -1.0882  -0.8697  -0.8526  -0.8189  -0.6909  -0.1484  -0.0984
    -0.0981  -0.0778   0.0239   0.0550   0.3212   0.3567   0.3579   0.4667
     0.4859   0.5128   0.5861   0.7519   0.7827   0.7862   0.8073   1.0176
     1.0667   1.1692   1.2642   1.3654   1.4234

     the Fermi energy is     0.8161 ev

!    total energy              =   -1463.09117765 Ry
     Harris-Foulkes estimate   =   -1463.09117546 Ry
     estimated scf accuracy    <       0.00000399 Ry

     The total energy is the sum of the following terms:

     one-electron contribution =  -11162.33424583 Ry
     hartree contribution      =    5568.56763194 Ry
     xc contribution           =    -233.68703733 Ry
     ewald contribution        =    4364.48761512 Ry
     electric field correction =       0.00008570 Ry
     smearing contrib. (-TS)   =      -0.12522725 Ry

     convergence has been achieved in  34 iterations

 BEEF-vdW xc energy contributions
           1 :   -200.758686479311
           2 :    179.234484893448
           3 :   -143.927726959503
           4 :    106.029600258178
           5 :   -74.7263263335574
           6 :    53.7209537120928
           7 :   -41.2231546561197
           8 :    32.6552335951139
           9 :   -24.0029829050778
          10 :    13.8250744733182
          11 :   -3.18629500389028
          12 :   -5.89128981473016
          13 :    12.1413026500894
          14 :   -15.8168141804993
          15 :    18.2008891557233
          16 :   -20.4552049564305
          17 :    22.7490899490589
          18 :   -24.2811002853942
          19 :    24.0597393657669
          20 :   -21.7635689612523
          21 :    18.0139213653910
          22 :   -13.9204039806272
          23 :    10.3156540274736
          24 :   -7.28230215001378
          25 :    4.28346672023130
          26 :  -0.736056872123584
          27 :   -3.44275588599783
          28 :    7.71378625018735
          29 :   -11.2735494190208
          30 :    13.5861897415263
          31 :   -21.4324509525086
          32 :   -15.2374974333270

     Forces acting on atoms (Ry/au):

     negative rho (up, down):  8.094E-03 0.000E+00
     atom    1 type  1   force =     0.00070160    0.00040187    0.01017099
     atom    2 type  1   force =    -0.00070060    0.00039713    0.01019984
     atom    3 type  1   force =     0.00000461   -0.00080331    0.01019879
     atom    4 type  1   force =    -0.00000352    0.00000797    0.01096197
     atom    5 type  1   force =    -0.00000212    0.01409236   -0.01645710
     atom    6 type  1   force =    -0.00000328    0.00002724    0.00900439
     atom    7 type  1   force =    -0.01219476   -0.00705688   -0.01648504
     atom    8 type  1   force =     0.01219186   -0.00706406   -0.01646079
     atom    9 type  1   force =    -0.00000817    0.00000229   -0.00078838
     atom   10 type  1   force =     0.00000087    0.00035571   -0.00020043
     atom   11 type  1   force =     0.00030673   -0.00018127   -0.00013185
     atom   12 type  1   force =    -0.00030557   -0.00018205   -0.00016010
     atom   13 type  2   force =     0.00001234    0.00000300    0.00014770

     Total force =     0.043875     Total SCF correction =     0.002888

     entering subroutine stress ...

     negative rho (up, down):  8.094E-03 0.000E+00
          total   stress  (Ry/bohr**3)                   (kbar)     P=   -3.74
  -0.00001703  -0.00000001   0.00000002         -2.50     -0.00      0.00
  -0.00000001  -0.00001693   0.00000001         -0.00     -2.49      0.00
   0.00000002   0.00000001  -0.00004237          0.00      0.00     -6.23

 !ASE

     Writing output data file calc.save

     General routines

     Parallel routines

   This run was terminated on:  23:15:10  21Jan2018

   JOB DONE.
Job  /afs/slac/g/suncat/bin/suncat-tsmpirun -x LD_LIBRARY_PATH -wdir /scratch/qe870136_hPWvf pw.x -in pw.inp

TID   HOST_NAME   COMMAND_LINE            STATUS            TERMINATION_TIME
00000 suncat1042 pw.x -in pw.inp   Done                     01/21/2018 23:15:10
00001 suncat1042 pw.x -in pw.inp   Done                     01/21/2018 23:15:10
00002 suncat1042 pw.x -in pw.inp   Done                     01/21/2018 23:15:10
00003 suncat1042 pw.x -in pw.inp   Done                     01/21/2018 23:15:10
00004 suncat1042 pw.x -in pw.inp   Done                     01/21/2018 23:15:10
00005 suncat1042 pw.x -in pw.inp   Done                     01/21/2018 23:15:10
00006 suncat1042 pw.x -in pw.inp   Done                     01/21/2018 23:15:10
00007 suncat1042 pw.x -in pw.inp   Done                     01/21/2018 23:15:10
00008 suncat1033 pw.x -in pw.inp   Done                     01/21/2018 23:15:10
00009 suncat1033 pw.x -in pw.inp   Done                     01/21/2018 23:15:10
00010 suncat1033 pw.x -in pw.inp   Done                     01/21/2018 23:15:10
00011 suncat1033 pw.x -in pw.inp   Done                     01/21/2018 23:15:10
00012 suncat1033 pw.x -in pw.inp   Done                     01/21/2018 23:15:10
00013 suncat1033 pw.x -in pw.inp   Done                     01/21/2018 23:15:10
00014 suncat1033 pw.x -in pw.inp   Done                     01/21/2018 23:15:10
00015 suncat1033 pw.x -in pw.inp   Done                     01/21/2018 23:15:10
00016 suncat1033 pw.x -in pw.inp   Done                     01/21/2018 23:15:10
00017 suncat1033 pw.x -in pw.inp   Done                     01/21/2018 23:15:10
00018 suncat1033 pw.x -in pw.inp   Done                     01/21/2018 23:15:10
00019 suncat1033 pw.x -in pw.inp   Done                     01/21/2018 23:15:10
00020 suncat1006 pw.x -in pw.inp   Done                     01/21/2018 23:15:10
00021 suncat1006 pw.x -in pw.inp   Done                     01/21/2018 23:15:10
00022 suncat1006 pw.x -in pw.inp   Done                     01/21/2018 23:15:10
00023 suncat1006 pw.x -in pw.inp   Done                     01/21/2018 23:15:10
00024 suncat1006 pw.x -in pw.inp   Done                     01/21/2018 23:15:10
00025 suncat1006 pw.x -in pw.inp   Done                     01/21/2018 23:15:10
00026 suncat1006 pw.x -in pw.inp   Done                     01/21/2018 23:15:10
00027 suncat1006 pw.x -in pw.inp   Done                     01/21/2018 23:15:10
00028 suncat1006 pw.x -in pw.inp   Done                     01/21/2018 23:15:10
00029 suncat1006 pw.x -in pw.inp   Done                     01/21/2018 23:15:10
00030 suncat1006 pw.x -in pw.inp   Done                     01/21/2018 23:15:10
00031 suncat1006 pw.x -in pw.inp   Done                     01/21/2018 23:15:10