     Program PWSCF v.5.1rc2 (svn rev. 11289) starts on 17Jan2018 at 19:44:17

     Current dimensions of program PWSCF are:
     Max number of different atomic species (ntypx) = 10
     Max number of k-points (npk) =  40000
     Max angular momentum in pseudopotentials (lmaxx) =  3
     Presently stress not available with electric field

     IMPORTANT: XC functional enforced from input :
     Exchange-correlation      = BEEF-VDW ( 1  4 27 13 2)
     Any further DFT definition will be discarded
     Please, verify this is what you really want

     Subspace diagonalization in iterative solution of the eigenvalue problem:
     a serial algorithm will be used

     bravais-lattice index     =            0
     lattice parameter (alat)  =       1.8897  a.u.
     unit-cell volume          =    4481.2752 (a.u.)^3
     number of atoms/cell      =           13
     number of atomic types    =            2
     number of electrons       =       197.00
     number of Kohn-Sham states=          108
     kinetic-energy cutoff     =      36.7493  Ry
     charge density cutoff     =     367.4932  Ry
     convergence threshold     =      1.0E-05
     mixing beta               =       0.3000
     number of iterations used =           10  plain     mixing
     Exchange-correlation      = BEEF-VDW ( 1  4 27 13 2)
     nstep                     =           50

     celldm(1)=   1.889726  celldm(2)=   0.000000  celldm(3)=   0.000000
     celldm(4)=   0.000000  celldm(5)=   0.000000  celldm(6)=   0.000000

     crystal axes: (cart. coord. in units of alat)
               a(1) = (   5.587338   0.000000   0.000000 )
               a(2) = (   2.793669   4.838777   0.000000 )
               a(3) = (   0.000000   0.000000  24.562042 )

     reciprocal axes: (cart. coord. in units 2 pi/alat)
               b(1) = (  0.178976 -0.103332  0.000000 )
               b(2) = (  0.000000  0.206664  0.000000 )
               b(3) = (  0.000000  0.000000  0.040713 )

     PseudoPot. # 1 for Pt read from file:
     /afs/slac.stanford.edu/u/if/mamunm/psp/gbrv1.5pbe/Pt.UPF
     MD5 check sum: f09d6de1a584b5a045c4fc126da2d0c4
     Pseudo is Ultrasoft + core correction, Zval = 16.0
     Generated by new atomic code, or converted to UPF format
     Using radial grid of  985 points,  6 beta functions with:
                l(1) =   0
                l(2) =   0
                l(3) =   1
                l(4) =   1
                l(5) =   2
                l(6) =   2
     Q(r) pseudized with  8 coefficients,  rinner =    1.300   1.300   1.300
                                                       1.300   1.300

     PseudoPot. # 2 for N  read from file:
     /afs/slac.stanford.edu/u/if/mamunm/psp/gbrv1.5pbe/N.UPF
     MD5 check sum: 95339753478d7afb44899504a8723017
     Pseudo is Ultrasoft + core correction, Zval =  5.0
     Generated by new atomic code, or converted to UPF format
     Using radial grid of  729 points,  4 beta functions with:
                l(1) =   0
                l(2) =   0
                l(3) =   1
                l(4) =   1
     Q(r) pseudized with  8 coefficients,  rinner =    0.900   0.900   0.900

     vdW kernel table read from file vdW_kernel_table
     MD5 check sum: 095c7af220d748ca6e76c0b4c6cfb241

     atomic species   valence    mass     pseudopotential
        Pt1           16.00   195.08400     Pt( 1.00)
        N1             5.00    14.00700     N ( 1.00)

     No symmetry found

   Cartesian axes

     site n.     atom                  positions (alat units)
         1           Pt1 tau(   1) = (   1.3968345   0.8064628  10.0000000  )
         2           Pt1 tau(   2) = (   4.1905036   0.8064628  10.0000000  )
         3           Pt1 tau(   3) = (   2.7936691   3.2258512  10.0000000  )
         4           Pt1 tau(   4) = (   5.5873381   3.2258512  10.0000000  )
         5           Pt1 tau(   5) = (   5.5873381   1.6129256  12.2810212  )
         6           Pt1 tau(   6) = (   2.7936691   1.6129256  12.2810212  )
         7           Pt1 tau(   7) = (   6.9841727   4.0323140  12.2810212  )
         8           Pt1 tau(   8) = (   4.1905036   4.0323140  12.2810212  )
         9           Pt1 tau(   9) = (   0.0000000   0.0000000  14.5620425  )
        10           Pt1 tau(  10) = (   2.7936691   0.0000000  14.5620425  )
        11           Pt1 tau(  11) = (   1.3968345   2.4193884  14.5620425  )
        12           Pt1 tau(  12) = (   4.1905036   2.4193884  14.5620425  )
        13           N1  tau(  13) = (   2.7936691   1.6129256  16.6320425  )

     number of k points=    20  Fermi-Dirac smearing, width (Ry)=  0.0110
                       cart. coord. in units 2pi/alat
        k(    1) = (   0.0000000   0.0000000   0.0000000), wk =   0.0555556
        k(    2) = (   0.0000000   0.0344440   0.0000000), wk =   0.1111111
        k(    3) = (   0.0000000   0.0688879   0.0000000), wk =   0.1111111
        k(    4) = (   0.0000000  -0.1033319   0.0000000), wk =   0.0555556
        k(    5) = (   0.0298294  -0.0172220   0.0000000), wk =   0.1111111
        k(    6) = (   0.0298294   0.0172220   0.0000000), wk =   0.1111111
        k(    7) = (   0.0298294   0.0516660   0.0000000), wk =   0.1111111
        k(    8) = (   0.0298294  -0.1205539   0.0000000), wk =   0.1111111
        k(    9) = (   0.0298294  -0.0861099   0.0000000), wk =   0.1111111
        k(   10) = (   0.0298294  -0.0516660   0.0000000), wk =   0.1111111
        k(   11) = (   0.0596587  -0.0344440   0.0000000), wk =   0.1111111
        k(   12) = (   0.0596587   0.0000000   0.0000000), wk =   0.1111111
        k(   13) = (   0.0596587   0.0344440   0.0000000), wk =   0.1111111
        k(   14) = (   0.0596587  -0.1377759   0.0000000), wk =   0.1111111
        k(   15) = (   0.0596587  -0.1033319   0.0000000), wk =   0.1111111
        k(   16) = (   0.0596587  -0.0688879   0.0000000), wk =   0.1111111
        k(   17) = (  -0.0894881   0.0516660   0.0000000), wk =   0.0555556
        k(   18) = (  -0.0894881   0.0861099   0.0000000), wk =   0.1111111
        k(   19) = (  -0.0894881   0.1205539   0.0000000), wk =   0.1111111
        k(   20) = (  -0.0894881  -0.0516660   0.0000000), wk =   0.0555556

     Largest allocated arrays     est. size (Mb)     dimensions
     Largest temporary arrays     est. size (Mb)     dimensions

     Initial potential from superposition of free atoms
     Check: negative starting charge=   -2.200788

     starting charge  190.99986, renormalised to  197.00000

     negative rho (up, down):  2.270E+00 0.000E+00

     *
     * You are using vdW-DF for exchange-correlation in this calculation.
     * Please cite the following three references that made this development
     * possible:
     *
     *   M. Dion, H. Rydberg, E. Schroder, D. C. Langreth, and
     *   B. I. Lundqvist, Phys. Rev. Lett. 92, 246401 (2004).
     *
     *   T. Thonhauser, V. R. Cooper, S. Li, A. Puzder, P. Hyldgaard, and
     *   D. C. Langreth, Phys. Rev. B 76, 125112 (2007).
     *
     *   G. Roman-Perez and J. M. Soler, Phys. Rev. Lett. 103, 096102 (2009).
     *
     *
     * If you are using vdW-DF2, please also cite:
     *
     *   K. Lee, E. D. Murray, L. Kong, B. I. Lundqvist, and
     *   D. C. Langreth, Phys. Rev. B 82, 081101(R) (2010).
     *
     *
     * If you are calculating the stress with vdW-DF, please also cite:
     *
     *   R. Sabatini, E. Kucukbenli, B. Kolb, T. Thonhauser, and
     *   S. de Gironcoli, J. Phys.: Condens. Matter 24, 424209 (2012).
     *

     Carrying out vdW-DF run using the following parameters:

     Nqs =      20    Nr_points =    1024   r_max =   100.000
     q_mesh =
               0.00001000     0.04494208     0.09755937     0.15916263
               0.23128650     0.31572767     0.41458969     0.53033537
               0.66584808     0.82450364     1.01025438     1.22772762
               1.48234092     1.78043706     2.12944203     2.53805004
               3.01644009     3.57652955     4.23227104     5.00000000

     Gradients computed in reciprocal space

     Adding external electric field

     Computed dipole along edir(3) :
        Dipole               -1.2914 Ry au,         -3.2824 Debye
        Dipole field         -0.0036 Ry au

        Potential amp.        0.3278 Ry
        Total length         45.2551 bohr

     Starting wfc are  148 randomized atomic wfcs

     Self-consistent Calculation

     iteration #  1     ecut=    36.75 Ry     beta=0.30
     Davidson diagonalization with overlap
     ethr =  1.00E-02,  avg # of iterations =  2.5

[...]

     total energy              =   -2547.67817382 Ry
     Harris-Foulkes estimate   =   -2571.48523794 Ry
     estimated scf accuracy    <      50.44974035 Ry

[...]

     End of self-consistent calculation

          k = 0.0000 0.0000 0.0000 ( 16787 PWs)   bands (ev):

   -51.5637 -51.5545 -51.5534 -51.4951 -51.4420 -51.4408 -51.4346 -51.3462
   -51.3333 -51.3322 -51.3152 -51.2992 -51.2984 -51.2302 -51.2301 -51.2124
   -51.2117 -51.1915 -51.1868 -51.1861 -51.1735 -51.1140 -51.0723 -51.0712
   -50.9664 -50.9661 -50.9452 -50.9288 -50.9286 -50.8780 -50.8779 -50.8037
   -50.7476 -50.7297 -50.7285 -50.6884 -10.7221  -7.3170  -5.5821  -5.1778
    -4.8309  -4.8306  -4.8212  -4.6302  -4.6101  -4.6100  -4.1689  -4.1688
    -4.1662  -4.0208  -3.9984  -3.9981  -2.6950  -2.6225  -2.6221  -2.2426
    -2.2304  -2.2303  -2.0631  -1.9464  -1.9464  -1.6801  -1.6801  -1.6404
    -1.5297  -1.5212  -1.5211  -1.4317  -1.4317  -1.0803  -1.0796  -0.8545
    -0.1980  -0.1489  -0.1486  -0.0522   0.0393   0.0393   0.1761   0.1767
     0.5456   0.5457   0.6187   0.7155   0.7160   1.1946   1.2120   1.2121
     1.2454   1.3475   1.3477   1.5257   1.6014   1.6072   1.6077   1.7944
     1.8019   1.8022   1.8815   1.8819   1.9948   1.9952   2.0005   2.6491
     2.8061   2.8061   3.7023   4.4630

[...]

          k =-0.0895 0.0517 0.0000 ( 16880 PWs)   bands (ev):

[...]

     the Fermi energy is     1.4688 ev

!    total energy              =   -2568.18780492 Ry
     Harris-Foulkes estimate   =   -2568.18784531 Ry
     estimated scf accuracy    <       0.00000922 Ry

     The total energy is the sum of the following terms:

     one-electron contribution =  -20485.19809645 Ry
     hartree contribution      =   10279.41106309 Ry
     xc contribution           =    -708.48199520 Ry
     ewald contribution        =    8346.19152448 Ry
     electric field correction =       0.00024343 Ry
     smearing contrib. (-TS)   =      -0.11054427 Ry

     convergence has been achieved in  18 iterations

 BEEF-vdW xc energy contributions
           1 :   -630.646875706423
           2 :    586.800399080599
           3 :   -508.247190968121
           4 :    409.983757990581
           5 :   -308.338438606026
           6 :    216.845187967062
           7 :   -143.583507566591
           8 :    90.4958899608652
           9 :   -54.6243149835288
          10 :    30.5444691016781
          11 :   -12.9597913028356
          12 :   -1.51636255908988
          13 :    13.8560367080769
          14 :   -23.2651613123707
          15 :    28.4298509113164
          16 :   -28.7108155643220
          17 :    24.7656437489745
          18 :   -18.4230209823722
[...]
00031 suncat0256 pw.x -in pw.inp   Done                     01/17/2018 19:58:26

[...]

     Check: negative/imaginary core charge=   -0.000001    0.000000

[...]

     Total force =     1.041865     Total SCF correction =     0.006531

[...]

   This run was terminated on:  20:29: 9  17Jan2018

[...]

     Total force =     0.182406     Total SCF correction =     0.005963

[...]

   This run was terminated on:  21:43: 8  17Jan2018

[...]

     Check: negative/imaginary core charge=   -0.000001    0.000000

[...]

     Program PWSCF v.5.1rc2 (svn rev. 11289) starts on 17Jan2018 at 22:27:17

     Current dimensions of program PWSCF are:
     Max number of different atomic species (ntypx) = 10
     Max number of k-points (npk) =  40000
     Max angular momentum in pseudopotentials (lmaxx) =  3
     Presently stress not available with electric field

     IMPORTANT: XC functional enforced from input :
     Exchange-correlation      = BEEF-VDW ( 1  4 27 13 2)
     Any further DFT definition will be discarded
     Please, verify this is what you really want

     Subspace diagonalization in iterative solution of the eigenvalue problem:
     a serial algorithm will be used

     bravais-lattice index     =            0
     lattice parameter (alat)  =       1.8897  a.u.
     unit-cell volume          =    4481.2752 (a.u.)^3
     number of atoms/cell      =           13
     number of atomic types    =            2
     number of electrons       =       197.00
     number of Kohn-Sham states=          108
     kinetic-energy cutoff     =      36.7493  Ry
     charge density cutoff     =     367.4932  Ry
     convergence threshold     =      1.0E-05
     mixing beta               =       0.3000
     number of iterations used =           10  plain     mixing
     Exchange-correlation      = BEEF-VDW ( 1  4 27 13 2)
     nstep                     =           50

     celldm(1)=   1.889726  celldm(2)=   0.000000  celldm(3)=   0.000000
     celldm(4)=   0.000000  celldm(5)=   0.000000  celldm(6)=   0.000000

     crystal axes: (cart. coord. in units of alat)
               a(1) = (   5.587338   0.000000   0.000000 )
               a(2) = (   2.793669   4.838777   0.000000 )
               a(3) = (   0.000000   0.000000  24.562042 )

     reciprocal axes: (cart. coord. in units 2 pi/alat)
               b(1) = (  0.178976 -0.103332  0.000000 )
               b(2) = (  0.000000  0.206664  0.000000 )
               b(3) = (  0.000000  0.000000  0.040713 )

     PseudoPot. # 1 for Pt read from file:
     /afs/slac.stanford.edu/u/if/mamunm/psp/gbrv1.5pbe/Pt.UPF
     MD5 check sum: f09d6de1a584b5a045c4fc126da2d0c4
     Pseudo is Ultrasoft + core correction, Zval = 16.0
     Generated by new atomic code, or converted to UPF format
     Using radial grid of  985 points,  6 beta functions with:
                l(1) =   0
                l(2) =   0
                l(3) =   1
                l(4) =   1
                l(5) =   2
                l(6) =   2
     Q(r) pseudized with  8 coefficients,  rinner =    1.300   1.300   1.300
                                                       1.300   1.300

     PseudoPot. # 2 for N  read from file:
     /afs/slac.stanford.edu/u/if/mamunm/psp/gbrv1.5pbe/N.UPF
     MD5 check sum: 95339753478d7afb44899504a8723017
     Pseudo is Ultrasoft + core correction, Zval =  5.0
     Generated by new atomic code, or converted to UPF format
     Using radial grid of  729 points,  4 beta functions with:
                l(1) =   0
                l(2) =   0
                l(3) =   1
                l(4) =   1
     Q(r) pseudized with  8 coefficients,  rinner =    0.900   0.900   0.900

     vdW kernel table read from file vdW_kernel_table
     MD5 check sum: 095c7af220d748ca6e76c0b4c6cfb241

     atomic species   valence    mass     pseudopotential
        Pt1           16.00   195.08400     Pt( 1.00)
        N1             5.00    14.00700     N ( 1.00)

     No symmetry found

   Cartesian axes

     site n.     atom                  positions (alat units)
         1           Pt1 tau(   1) = (   1.3968345   0.8064628  10.0000000  )
         2           Pt1 tau(   2) = (   4.1905036   0.8064628  10.0000000  )
         3           Pt1 tau(   3) = (   2.7936691   3.2258512  10.0000000  )
         4           Pt1 tau(   4) = (   5.5873381   3.2258512  10.0000000  )
         5           Pt1 tau(   5) = (   5.5873381   1.6129256  12.2810212  )
         6           Pt1 tau(   6) = (   2.7936691   1.6129256  12.2810212  )
         7           Pt1 tau(   7) = (   6.9841727   4.0323140  12.2810212  )
         8           Pt1 tau(   8) = (   4.1905036   4.0323140  12.2810212  )
         9           Pt1 tau(   9) = (   5.5874298   0.0003766  14.5444899  )
        10           Pt1 tau(  10) = (   5.5872347   4.8174471  14.7308501  )
        11           Pt1 tau(  11) = (   6.9653660   2.4298074  14.7306909  )
        12           Pt1 tau(  12) = (   4.2093338   2.4299397  14.7306891  )
        13           N1  tau(  13) = (   2.7936362   1.6129941  15.8199104  )

     number of k points=    20  Fermi-Dirac smearing, width (Ry)=  0.0110
                       cart. coord. in units 2pi/alat
        k(    1) = (   0.0000000   0.0000000   0.0000000), wk =   0.0555556
        k(    2) = (   0.0000000   0.0344440   0.0000000), wk =   0.1111111
        k(    3) = (   0.0000000   0.0688879   0.0000000), wk =   0.1111111
        k(    4) = (   0.0000000  -0.1033319   0.0000000), wk =   0.0555556
        k(    5) = (   0.0298294  -0.0172220   0.0000000), wk =   0.1111111
        k(    6) = (   0.0298294   0.0172220   0.0000000), wk =   0.1111111
        k(    7) = (   0.0298294   0.0516660   0.0000000), wk =   0.1111111
        k(    8) = (   0.0298294  -0.1205539   0.0000000), wk =   0.1111111
        k(    9) = (   0.0298294  -0.0861099   0.0000000), wk =   0.1111111
        k(   10) = (   0.0298294  -0.0516660   0.0000000), wk =   0.1111111
        k(   11) = (   0.0596587  -0.0344440   0.0000000), wk =   0.1111111
        k(   12) = (   0.0596587   0.0000000   0.0000000), wk =   0.1111111
        k(   13) = (   0.0596587   0.0344440   0.0000000), wk =   0.1111111
        k(   14) = (   0.0596587  -0.1377759   0.0000000), wk =   0.1111111
        k(   15) = (   0.0596587  -0.1033319   0.0000000), wk =   0.1111111
        k(   16) = (   0.0596587  -0.0688879   0.0000000), wk =   0.1111111
        k(   17) = (  -0.0894881   0.0516660   0.0000000), wk =   0.0555556
        k(   18) = (  -0.0894881   0.0861099   0.0000000), wk =   0.1111111
        k(   19) = (  -0.0894881   0.1205539   0.0000000), wk =   0.1111111
        k(   20) = (  -0.0894881  -0.0516660   0.0000000), wk =   0.0555556

     Largest allocated arrays     est. size (Mb)     dimensions
     Largest temporary arrays     est. size (Mb)     dimensions

     Initial potential from superposition of free atoms
     Check: negative starting charge=   -2.199063

     starting charge  190.99986, renormalised to  197.00000

[...]

     *
     * You are using vdW-DF for exchange-correlation in this calculation.
     * Please cite the following three references that made this development
     * possible:
     *
     *   M. Dion, H. Rydberg, E. Schroder, D. C. Langreth, and
     *   B. I. Lundqvist, Phys. Rev. Lett. 92, 246401 (2004).
     *
     *   T. Thonhauser, V. R. Cooper, S. Li, A. Puzder, P. Hyldgaard, and
     *   D. C. Langreth, Phys. Rev. B 76, 125112 (2007).
     *
     *   G. Roman-Perez and J. M. Soler, Phys. Rev. Lett. 103, 096102 (2009).
     *
     *
     * If you are using vdW-DF2, please also cite:
     *
     *   K. Lee, E. D. Murray, L. Kong, B. I. Lundqvist, and
     *   D. C. Langreth, Phys. Rev. B 82, 081101(R) (2010).
     *
     *
     * If you are calculating the stress with vdW-DF, please also cite:
     *
     *   R. Sabatini, E. Kucukbenli, B. Kolb, T. Thonhauser, and
     *   S. de Gironcoli, J. Phys.: Condens. Matter 24, 424209 (2012).
     *

     Carrying out vdW-DF run using the following parameters:

     Nqs =      20    Nr_points =    1024   r_max =   100.000
     q_mesh =
               0.00001000     0.04494208     0.09755937     0.15916263
               0.23128650     0.31572767     0.41458969     0.53033537
               0.66584808     0.82450364     1.01025438     1.22772762
               1.48234092     1.78043706     2.12944203     2.53805004
               3.01644009     3.57652955     4.23227104     5.00000000

     Gradients computed in reciprocal space

[...]

     Starting wfc are  148 randomized atomic wfcs

     Self-consistent Calculation

[...]

     total energy              =   -2568.42768945 Ry
     Harris-Foulkes estimate   =   -2568.42770704 Ry
     estimated scf accuracy    <       0.00004661 Ry

     iteration # 17     ecut=    36.75 Ry     beta=0.30
     Davidson diagonalization with overlap
     ethr =  2.37E-08,  avg # of iterations =  1.1

[...]

     negative rho (up, down):  2.116E+00 0.000E+00

     Adding external electric field

     Computed dipole along edir(3) :
        Dipole               -0.0405 Ry au,         -0.1030 Debye
        Dipole field         -0.0001 Ry au

        Potential amp.        0.0103 Ry
        Total length         45.2551 bohr

     End of self-consistent calculation

[...]

          k = 0.0597-0.0689 0.0000 ( 16875 PWs)   bands (ev):

[...]

          k =-0.0895-0.0517 0.0000 ( 16880 PWs)   bands (ev):

   -51.7632 -51.6816 -51.6104 -51.2670 -51.2502 -51.1942 -51.0790 -51.0671
   -51.0370 -51.0337 -50.9880 -50.9737 -50.9535 -50.9393 -50.9298 -50.9181
   -50.9109 -50.8577 -50.8452 -50.8012 -50.7853 -50.7792 -50.7288 -50.7230
   -50.6603 -50.6486 -50.6425 -50.5846 -50.5732 -50.5665 -50.5481 -50.4706
   -50.3772 -50.3655 -50.3598 -50.3563 -13.9162  -5.5032  -5.0689  -4.6762
    -4.3288  -4.0316  -3.8642  -3.5821  -3.4479  -3.4387  -3.4025  -3.2659
    -3.0849  -2.9917  -2.8744  -2.8143  -2.7927  -2.5930  -2.5696  -2.2919
    -2.1678  -2.1413  -2.0943  -2.0289  -1.9798  -1.8659  -1.7849  -1.6947
    -1.5464  -1.4706  -1.3815  -1.2777  -1.1713  -1.0313  -1.0153  -0.9909
    -0.9152  -0.8595  -0.8176  -0.7798  -0.7562  -0.5998  -0.3339  -0.2588
    -0.1501  -0.1345  -0.0721   0.0710   0.0954   0.1931   0.2255   0.2691
     0.4594   0.6883   0.7240   0.7688   0.8707   0.9642   1.3025   1.3232
     1.4784   1.5955   1.6859   1.9010   1.9859   2.1275   2.6566   3.1968
     3.7018   4.1102   4.3130   4.3404

     the Fermi energy is     1.8047 ev

!    total energy              =   -2568.42768416 Ry
     Harris-Foulkes estimate   =   -2568.42769791 Ry
     estimated scf accuracy    <       0.00000853 Ry

     The total energy is the sum of the following terms:

     one-electron contribution =  -20404.70941696 Ry
     hartree contribution      =   10240.67748768 Ry
     xc contribution           =    -708.86760488 Ry
     ewald contribution        =    8304.56864117 Ry
     electric field correction =       0.00000461 Ry
     smearing contrib. (-TS)   =      -0.09679578 Ry

     convergence has been achieved in  17 iterations

 BEEF-vdW xc energy contributions
           1 :   -631.047892558104
           2 :    587.322605752011
           3 :   -508.891603855377
           4 :    410.638737384868
           5 :   -308.861005674438
           6 :    217.128266911440
           7 :   -143.586607770094
           8 :    90.2457466709345
           9 :   -54.1965576183538
          10 :    30.0374881686018
          11 :   -12.4693130794694
          12 :   -1.91326738855969
          13 :    14.1055614716572
          14 :   -23.3405748119546
          15 :    28.3409524139624
          16 :   -28.5096185429973
          17 :    24.5377764370644
          18 :   -18.2609928822612
          19 :    11.9519464591152
          20 :   -7.46490802721235
          21 :    5.63329721033574
          22 :   -6.15246019119331
          23 :    7.92552416193030
          24 :   -9.66026285040061
          25 :    10.4287025478125
          26 :   -9.96602666740705
          27 :    8.62670619433493
          28 :   -7.08467731103713
          29 :    5.95786944579584
          30 :   -5.53713135898954
          31 :   -51.8718028858846
          32 :   -38.3785637157647

     Forces acting on atoms (Ry/au):

     negative rho (up, down):  2.116E+00 0.000E+00
     atom    1 type  1   force =    -0.00041246   -0.00016417   -0.02007489
     atom    2 type  1   force =     0.00041752   -0.00017202   -0.02007712
     atom    3 type  1   force =    -0.00000820    0.00042363   -0.02009903
     atom    4 type  1   force =     0.00001048   -0.00010319   -0.00972163
     atom    5 type  1   force =    -0.00001115    0.00946144    0.02105791
     atom    6 type  1   force =     0.00001358   -0.00007634    0.00638110
     atom    7 type  1   force =    -0.00822705   -0.00469051    0.02115867
     atom    8 type  1   force =     0.00822095   -0.00470201    0.02112594
     atom    9 type  1   force =    -0.00007401   -0.00018493    0.00070790
     atom   10 type  1   force =     0.00007820   -0.00011226    0.00014479
     atom   11 type  1   force =     0.00012373    0.00017013    0.00012733
     atom   12 type  1   force =    -0.00015487    0.00006231    0.00015739
     atom   13 type  2   force =     0.00002327    0.00008793   -0.00088835

     Total force =     0.054348     Total SCF correction =     0.010266
     SCF correction compared to forces is large: reduce conv_thr to get better values

     entering subroutine stress ...

     negative rho (up, down):  2.116E+00 0.000E+00
          total   stress  (Ry/bohr**3)                   (kbar)     P=   -6.59
  -0.00009374  -0.00000000   0.00000002        -13.79     -0.00      0.00
  -0.00000000  -0.00009364  -0.00000004         -0.00    -13.78     -0.01
   0.00000002  -0.00000004   0.00005297          0.00     -0.01      7.79

 !ASE

     Writing output data file calc.save

     General routines

     Parallel routines

   This run was terminated on:  22:41:33  17Jan2018

   JOB DONE.
Job  /afs/slac/g/suncat/bin/suncat-tsmpirun -x LD_LIBRARY_PATH -wdir /scratch/qe842471_ZJ858 pw.x -in pw.inp

TID   HOST_NAME   COMMAND_LINE            STATUS            TERMINATION_TIME
00000 suncat0264 pw.x -in pw.inp   Done                     01/17/2018 22:41:33
00001 suncat0264 pw.x -in pw.inp   Done                     01/17/2018 22:41:33
00002 suncat0264 pw.x -in pw.inp   Done                     01/17/2018 22:41:33
00003 suncat0264 pw.x -in pw.inp   Done                     01/17/2018 22:41:33
00004 suncat0264 pw.x -in pw.inp   Done                     01/17/2018 22:41:33
00005 suncat0264 pw.x -in pw.inp   Done                     01/17/2018 22:41:33
00006 suncat0264 pw.x -in pw.inp   Done                     01/17/2018 22:41:33
00007 suncat0264 pw.x -in pw.inp   Done                     01/17/2018 22:41:33
00008 suncat0259 pw.x -in pw.inp   Done                     01/17/2018 22:41:33
00009 suncat0259 pw.x -in pw.inp   Done                     01/17/2018 22:41:33
00010 suncat0259 pw.x -in pw.inp   Done                     01/17/2018 22:41:33
00011 suncat0259 pw.x -in pw.inp   Done                     01/17/2018 22:41:33
00012 suncat0259 pw.x -in pw.inp   Done                     01/17/2018 22:41:33
00013 suncat0259 pw.x -in pw.inp   Done                     01/17/2018 22:41:33
00014 suncat0259 pw.x -in pw.inp   Done                     01/17/2018 22:41:33
00015 suncat0259 pw.x -in pw.inp   Done                     01/17/2018 22:41:33
00016 suncat0258 pw.x -in pw.inp   Done                     01/17/2018 22:41:33
00017 suncat0258 pw.x -in pw.inp   Done                     01/17/2018 22:41:33
00018 suncat0258 pw.x -in pw.inp   Done                     01/17/2018 22:41:33
00019 suncat0258 pw.x -in pw.inp   Done                     01/17/2018 22:41:33
00020 suncat0258 pw.x -in pw.inp   Done                     01/17/2018 22:41:33
00021 suncat0258 pw.x -in pw.inp   Done                     01/17/2018 22:41:33
00022 suncat0258 pw.x -in pw.inp   Done                     01/17/2018 22:41:33
00023 suncat0258 pw.x -in pw.inp   Done                     01/17/2018 22:41:33
00024 suncat0256 pw.x -in pw.inp   Done                     01/17/2018 22:41:33
00025 suncat0256 pw.x -in pw.inp   Done                     01/17/2018 22:41:33
00026 suncat0256 pw.x -in pw.inp   Done                     01/17/2018 22:41:33
00027 suncat0256 pw.x -in pw.inp   Done                     01/17/2018 22:41:33
00028 suncat0256 pw.x -in pw.inp   Done                     01/17/2018 22:41:33
00029 suncat0256 pw.x -in pw.inp   Done                     01/17/2018 22:41:33
00030 suncat0256 pw.x -in pw.inp   Done                     01/17/2018 22:41:33
00031 suncat0256 pw.x -in pw.inp   Done                     01/17/2018 22:41:33