     Program PWSCF v.5.1rc2 (svn rev. 11289) starts on 16Jan2018 at 12: 5:33

     Current dimensions of program PWSCF are:
     Max number of different atomic species (ntypx) = 10
     Max number of k-points (npk) =  40000
     Max angular momentum in pseudopotentials (lmaxx) =  3
     Presently stress not available with electric field

     IMPORTANT: XC functional enforced from input :
     Exchange-correlation      = BEEF-VDW ( 1  4 27 13 2)
     Any further DFT definition will be discarded
     Please, verify this is what you really want

     Subspace diagonalization in iterative solution of the eigenvalue problem:
     a serial algorithm will be used

     bravais-lattice index     =            0
     lattice parameter (alat)  =       1.8897  a.u.
     unit-cell volume          =    4481.2752 (a.u.)^3
     number of atoms/cell      =           13
     number of atomic types    =            2
     number of electrons       =       193.00
     number of Kohn-Sham states=          106
     kinetic-energy cutoff     =      36.7493  Ry
     charge density cutoff     =     367.4932  Ry
     convergence threshold     =      1.0E-05
     mixing beta               =       0.3000
     number of iterations used =           10  plain     mixing
     Exchange-correlation      = BEEF-VDW ( 1  4 27 13 2)
     nstep                     =           50

     celldm(1)=   1.889726  celldm(2)=   0.000000  celldm(3)=   0.000000
     celldm(4)=   0.000000  celldm(5)=   0.000000  celldm(6)=   0.000000

     crystal axes: (cart. coord. in units of alat)
               a(1) = (   5.587338   0.000000   0.000000 )
               a(2) = (   2.793669   4.838777   0.000000 )
               a(3) = (   0.000000   0.000000  24.562042 )

     reciprocal axes: (cart. coord. in units 2 pi/alat)
               b(1) = (  0.178976 -0.103332  0.000000 )
               b(2) = (  0.000000  0.206664  0.000000 )
               b(3) = (  0.000000  0.000000  0.040713 )

     PseudoPot. # 1 for Pt read from file:
     /afs/slac.stanford.edu/u/if/mamunm/psp/gbrv1.5pbe/Pt.UPF
     MD5 check sum: f09d6de1a584b5a045c4fc126da2d0c4
     Pseudo is Ultrasoft + core correction, Zval = 16.0
     Generated by new atomic code, or converted to UPF format
     Using radial grid of  985 points,  6 beta functions with:
                l(1) =   0
                l(2) =   0
                l(3) =   1
                l(4) =   1
                l(5) =   2
                l(6) =   2
     Q(r) pseudized with  8 coefficients,  rinner =    1.300   1.300   1.300
                                                       1.300   1.300

     PseudoPot. # 2 for H  read from file:
     /afs/slac.stanford.edu/u/if/mamunm/psp/gbrv1.5pbe/H.UPF
     MD5 check sum: 761ae9a214b05c3daf00ab9f6b793d6f
     Pseudo is Ultrasoft, Zval =  1.0
     Generated by new atomic code, or converted to UPF format
     Using radial grid of  615 points,  2 beta functions with:
                l(1) =   0
                l(2) =   0
     Q(r) pseudized with  8 coefficients,  rinner =    0.700

     vdW kernel table read from file vdW_kernel_table
     MD5 check sum: 095c7af220d748ca6e76c0b4c6cfb241

     atomic species   valence    mass     pseudopotential
        Pt1           16.00   195.08400     Pt( 1.00)
        H1             1.00     1.00800     H ( 1.00)

     No symmetry found

   Cartesian axes

     site n.     atom                  positions (alat units)
         1           Pt1 tau(   1) = (   1.3968345   0.8064628  10.0000000  )
         2           Pt1 tau(   2) = (   4.1905036   0.8064628  10.0000000  )
         3           Pt1 tau(   3) = (   2.7936691   3.2258512  10.0000000  )
         4           Pt1 tau(   4) = (   5.5873381   3.2258512  10.0000000  )
         5           Pt1 tau(   5) = (   5.5873381   1.6129256  12.2810212  )
         6           Pt1 tau(   6) = (   2.7936691   1.6129256  12.2810212  )
         7           Pt1 tau(   7) = (   6.9841727   4.0323140  12.2810212  )
         8           Pt1 tau(   8) = (   4.1905036   4.0323140  12.2810212  )
         9           Pt1 tau(   9) = (   0.0000000   0.0000000  14.5620425  )
        10           Pt1 tau(  10) = (   2.7936691   0.0000000  14.5620425  )
        11           Pt1 tau(  11) = (   1.3968345   2.4193884  14.5620425  )
        12           Pt1 tau(  12) = (   4.1905036   2.4193884  14.5620425  )
        13           H1  tau(  13) = (   0.0000000   0.0000000  16.2320425  )

     number of k points=    20  Fermi-Dirac smearing, width (Ry)=  0.0110
                       cart. coord. in units 2pi/alat
        k(    1) = (   0.0000000   0.0000000   0.0000000), wk =   0.0555556
        k(    2) = (   0.0000000   0.0344440   0.0000000), wk =   0.1111111
        k(    3) = (   0.0000000   0.0688879   0.0000000), wk =   0.1111111
        k(    4) = (   0.0000000  -0.1033319   0.0000000), wk =   0.0555556
        k(    5) = (   0.0298294  -0.0172220   0.0000000), wk =   0.1111111
        k(    6) = (   0.0298294   0.0172220   0.0000000), wk =   0.1111111
        k(    7) = (   0.0298294   0.0516660   0.0000000), wk =   0.1111111
        k(    8) = (   0.0298294  -0.1205539   0.0000000), wk =   0.1111111
        k(    9) = (   0.0298294  -0.0861099   0.0000000), wk =   0.1111111
        k(   10) = (   0.0298294  -0.0516660   0.0000000), wk =   0.1111111
        k(   11) = (   0.0596587  -0.0344440   0.0000000), wk =   0.1111111
        k(   12) = (   0.0596587   0.0000000   0.0000000), wk =   0.1111111
        k(   13) = (   0.0596587   0.0344440   0.0000000), wk =   0.1111111
        k(   14) = (   0.0596587  -0.1377759   0.0000000), wk =   0.1111111
        k(   15) = (   0.0596587  -0.1033319   0.0000000), wk =   0.1111111
        k(   16) = (   0.0596587  -0.0688879   0.0000000), wk =   0.1111111
        k(   17) = (  -0.0894881   0.0516660   0.0000000), wk =   0.0555556
        k(   18) = (  -0.0894881   0.0861099   0.0000000), wk =   0.1111111
        k(   19) = (  -0.0894881   0.1205539   0.0000000), wk =   0.1111111
        k(   20) = (  -0.0894881  -0.0516660   0.0000000), wk =   0.0555556

     Largest allocated arrays     est. size (Mb)     dimensions
     Largest temporary arrays     est. size (Mb)     dimensions

     Initial potential from superposition of free atoms
     Check: negative starting charge=   -2.200601

     starting charge  186.99986, renormalised to  193.00000

     negative rho (up, down):  2.271E+00 0.000E+00

     *
     * You are using vdW-DF for exchange-correlation in this calculation.
     * Please cite the following three references that made this development
     * possible:
     *
     *   M. Dion, H. Rydberg, E. Schroder, D. C. Langreth, and
     *   B. I. Lundqvist, Phys. Rev. Lett. 92, 246401 (2004).
     *
     *   T. Thonhauser, V. R. Cooper, S. Li, A. Puzder, P. Hyldgaard, and
     *   D. C. Langreth, Phys. Rev. B 76, 125112 (2007).
     *
     *   G. Roman-Perez and J. M. Soler, Phys. Rev. Lett. 103, 096102 (2009).
     *
     *
     * If you are using vdW-DF2, please also cite:
     *
     *   K. Lee, E. D. Murray, L. Kong, B. I. Lundqvist, and
     *   D. C. Langreth, Phys. Rev. B 82, 081101(R) (2010).
     *
     *
     * If you are calculating the stress with vdW-DF, please also cite:
     *
     *   R. Sabatini, E. Kucukbenli, B. Kolb, T. Thonhauser, and
     *   S. de Gironcoli, J. Phys.: Condens. Matter 24, 424209 (2012).
     *

     Carrying out vdW-DF run using the following parameters:

     Nqs =      20    Nr_points =    1024   r_max =   100.000
     q_mesh =
               0.00001000     0.04494208     0.09755937     0.15916263
               0.23128650     0.31572767     0.41458969     0.53033537
               0.66584808     0.82450364     1.01025438     1.22772762
               1.48234092     1.78043706     2.12944203     2.53805004
               3.01644009     3.57652955     4.23227104     5.00000000

     Gradients computed in reciprocal space

     Adding external electric field

     Computed dipole along edir(3) :
        Dipole               -0.2395 Ry au,         -0.6087 Debye
        Dipole field         -0.0007 Ry au

        Potential amp.        0.0608 Ry
        Total length         45.2551 bohr

     Starting wfc are  145 randomized atomic wfcs

     Self-consistent Calculation

     iteration #  1     ecut=    36.75 Ry     beta=0.30
     Davidson diagonalization with overlap
     ethr =  1.00E-02,  avg # of iterations =  3.5

[...]

     total energy              =   -2545.47982812 Ry
     Harris-Foulkes estimate   =   -2552.59605366 Ry
     estimated scf accuracy    <      16.39594007 Ry

[...]

     End of self-consistent calculation

          k = 0.0000 0.0000 0.0000 ( 16787 PWs)   bands (ev):

   -51.2616 -51.1976 -51.1966 -51.1786 -51.1493 -51.1489 -51.0494 -51.0257
   -51.0167 -51.0150 -50.9618 -50.9605 -50.9487 -50.8740 -50.8716 -50.8712
   -50.8401 -50.8392 -50.8287 -50.7142 -50.7135 -50.6398 -50.6184 -50.6174
   -50.6162 -50.5638 -50.5630 -50.5340 -50.5337 -50.4558 -50.4291 -50.4277
   -50.4091 -50.3934 -50.3920 -50.3316  -7.0121  -5.2833  -4.8304  -4.5464
    -4.4709  -4.4706  -4.2942  -4.2494  -4.2493  -3.8456  -3.8093  -3.8091
    -3.6434  -3.6431  -3.6364  -2.8299  -2.3044  -2.3039  -2.2129  -1.8580
    -1.8578  -1.7990  -1.6122  -1.5942  -1.5942  -1.3006  -1.3005  -1.1669
    -1.1668  -1.1293  -1.0709  -1.0709  -1.0178  -0.5037  -0.5027   0.1284
     0.2568   0.2570   0.3920   0.4036   0.4036   0.5445   0.5452   0.5826
     0.9875   0.9876   1.3470   1.5436   1.5439   1.5895   1.6220   1.6229
     1.7136   1.7139   1.9613   1.9619   1.9660   2.2169   2.2174   2.2855
     2.3183   2.3401   2.3405   2.3453   3.0912   3.1120   3.1121   4.4007
     4.7522   4.7528

[...]

          k =-0.0895 0.0517 0.0000 ( 16880 PWs)   bands (ev):

[...]

     the Fermi energy is     1.7999 ev

!    total energy              =   -2549.37773994 Ry
     Harris-Foulkes estimate   =   -2549.37774609 Ry
     estimated scf accuracy    <       0.00000651 Ry

     The total energy is the sum of the following terms:

     one-electron contribution =  -20231.09038072 Ry
     hartree contribution      =   10152.54122586 Ry
     xc contribution           =    -704.15333507 Ry
     ewald contribution        =    8233.43098852 Ry
     electric field correction =       0.00000185 Ry
     smearing contrib. (-TS)   =      -0.10624038 Ry

     convergence has been achieved in  14 iterations

 BEEF-vdW xc energy contributions
           1 :   -627.042637768185
           2 :    583.748849251221
           3 :   -506.030689805640
           4 :    408.577486420978
           5 :   -307.536177439695
           6 :    216.397977647836
           7 :   -143.297204348210
           8 :    90.2768413688158
           9 :   -54.4726453708618
          10 :    30.5073818937517
          11 :   -13.0697460190440
          12 :   -1.28163205471128
          13 :    13.5667197541484
          14 :   -23.0007221963471
          15 :    28.2425913804103
          16 :   -28.6092242928569
          17 :    24.7187801818949
          18 :   -18.3819456772878
          19 :    11.9120639790513
          20 :   -7.25441477420304
          21 :    5.33925751701383
[...]

[...]

     Check: negative/imaginary core charge=   -0.000001    0.000000

[...]

     Total force =     0.363845     Total SCF correction =     0.007894

[...]

     Total force =     0.043389     Total SCF correction =     0.011913
     SCF correction compared to forces is large: reduce conv_thr to get better values

[...]

   This run was terminated on:  12:50:13  16Jan2018

[...]

     Program PWSCF v.5.1rc2 (svn rev. 11289) starts on 16Jan2018 at 12:50:18

[...]

   This run was terminated on:  13: 1:36  16Jan2018

[...]

     Program PWSCF v.5.1rc2 (svn rev. 11289) starts on 16Jan2018 at 13: 1:42

     Current dimensions of program PWSCF are:
     Max number of different atomic species (ntypx) = 10
     Max number of k-points (npk) =  40000
     Max angular momentum in pseudopotentials (lmaxx) =  3
     Presently stress not available with electric field

     IMPORTANT: XC functional enforced from input :
     Exchange-correlation      = BEEF-VDW ( 1  4 27 13 2)
     Any further DFT definition will be discarded
     Please, verify this is what you really want

     Subspace diagonalization in iterative solution of the eigenvalue problem:
     a serial algorithm will be used

     bravais-lattice index     =            0
     lattice parameter (alat)  =       1.8897  a.u.
     unit-cell volume          =    4481.2752 (a.u.)^3
     number of atoms/cell      =           13
     number of atomic types    =            2
     number of electrons       =       193.00
     number of Kohn-Sham states=          106
     kinetic-energy cutoff     =      36.7493  Ry
     charge density cutoff     =     367.4932  Ry
     convergence threshold     =      1.0E-05
     mixing beta               =       0.3000
     number of iterations used =           10  plain     mixing
     Exchange-correlation      = BEEF-VDW ( 1  4 27 13 2)
     nstep                     =           50

     celldm(1)=   1.889726  celldm(2)=   0.000000  celldm(3)=   0.000000
     celldm(4)=   0.000000  celldm(5)=   0.000000  celldm(6)=   0.000000

     crystal axes: (cart. coord. in units of alat)
               a(1) = (   5.587338   0.000000   0.000000 )
               a(2) = (   2.793669   4.838777   0.000000 )
               a(3) = (   0.000000   0.000000  24.562042 )

     reciprocal axes: (cart. coord. in units 2 pi/alat)
               b(1) = (  0.178976 -0.103332  0.000000 )
               b(2) = (  0.000000  0.206664  0.000000 )
               b(3) = (  0.000000  0.000000  0.040713 )

     PseudoPot. # 1 for Pt read from file:
     /afs/slac.stanford.edu/u/if/mamunm/psp/gbrv1.5pbe/Pt.UPF
     MD5 check sum: f09d6de1a584b5a045c4fc126da2d0c4
     Pseudo is Ultrasoft + core correction, Zval = 16.0
     Generated by new atomic code, or converted to UPF format
     Using radial grid of  985 points,  6 beta functions with:
                l(1) =   0
                l(2) =   0
                l(3) =   1
                l(4) =   1
                l(5) =   2
                l(6) =   2
     Q(r) pseudized with  8 coefficients,  rinner =    1.300   1.300   1.300
                                                       1.300   1.300

     PseudoPot. # 2 for H  read from file:
     /afs/slac.stanford.edu/u/if/mamunm/psp/gbrv1.5pbe/H.UPF
     MD5 check sum: 761ae9a214b05c3daf00ab9f6b793d6f
     Pseudo is Ultrasoft, Zval =  1.0
     Generated by new atomic code, or converted to UPF format
     Using radial grid of  615 points,  2 beta functions with:
                l(1) =   0
                l(2) =   0
     Q(r) pseudized with  8 coefficients,  rinner =    0.700

     vdW kernel table read from file vdW_kernel_table
     MD5 check sum: 095c7af220d748ca6e76c0b4c6cfb241

     atomic species   valence    mass     pseudopotential
        Pt1           16.00   195.08400     Pt( 1.00)
        H1             1.00     1.00800     H ( 1.00)

     No symmetry found

   Cartesian axes

     site n.     atom                  positions (alat units)
         1           Pt1 tau(   1) = (   1.3968345   0.8064628  10.0000000  )
         2           Pt1 tau(   2) = (   4.1905036   0.8064628  10.0000000  )
         3           Pt1 tau(   3) = (   2.7936691   3.2258512  10.0000000  )
         4           Pt1 tau(   4) = (   5.5873381   3.2258512  10.0000000  )
         5           Pt1 tau(   5) = (   5.5873381   1.6129256  12.2810212  )
         6           Pt1 tau(   6) = (   2.7936691   1.6129256  12.2810212  )
         7           Pt1 tau(   7) = (   6.9841727   4.0323140  12.2810212  )
         8           Pt1 tau(   8) = (   4.1905036   4.0323140  12.2810212  )
         9           Pt1 tau(   9) = (   2.7936338   4.8387023  14.7097187  )
        10           Pt1 tau(  10) = (   5.5874188   4.8359221  14.6224663  )
        11           Pt1 tau(  11) = (   6.9817919   2.4209168  14.6225235  )
        12           Pt1 tau(  12) = (   4.1929149   2.4208306  14.6232494  )
        13           H1  tau(  13) = (   8.3810059   4.8387758  16.2610887  )

     number of k points=    20  Fermi-Dirac smearing, width (Ry)=  0.0110
                       cart. coord. in units 2pi/alat
        k(    1) = (   0.0000000   0.0000000   0.0000000), wk =   0.0555556
        k(    2) = (   0.0000000   0.0344440   0.0000000), wk =   0.1111111
        k(    3) = (   0.0000000   0.0688879   0.0000000), wk =   0.1111111
        k(    4) = (   0.0000000  -0.1033319   0.0000000), wk =   0.0555556
        k(    5) = (   0.0298294  -0.0172220   0.0000000), wk =   0.1111111
        k(    6) = (   0.0298294   0.0172220   0.0000000), wk =   0.1111111
        k(    7) = (   0.0298294   0.0516660   0.0000000), wk =   0.1111111
        k(    8) = (   0.0298294  -0.1205539   0.0000000), wk =   0.1111111
        k(    9) = (   0.0298294  -0.0861099   0.0000000), wk =   0.1111111
        k(   10) = (   0.0298294  -0.0516660   0.0000000), wk =   0.1111111
        k(   11) = (   0.0596587  -0.0344440   0.0000000), wk =   0.1111111
        k(   12) = (   0.0596587   0.0000000   0.0000000), wk =   0.1111111
        k(   13) = (   0.0596587   0.0344440   0.0000000), wk =   0.1111111
        k(   14) = (   0.0596587  -0.1377759   0.0000000), wk =   0.1111111
        k(   15) = (   0.0596587  -0.1033319   0.0000000), wk =   0.1111111
        k(   16) = (   0.0596587  -0.0688879   0.0000000), wk =   0.1111111
        k(   17) = (  -0.0894881   0.0516660   0.0000000), wk =   0.0555556
        k(   18) = (  -0.0894881   0.0861099   0.0000000), wk =   0.1111111
        k(   19) = (  -0.0894881   0.1205539   0.0000000), wk =   0.1111111
        k(   20) = (  -0.0894881  -0.0516660   0.0000000), wk =   0.0555556

     Largest allocated arrays     est. size (Mb)     dimensions
     Largest temporary arrays     est. size (Mb)     dimensions

     Check: negative/imaginary core charge=   -0.000001    0.000000

     Initial potential from superposition of free atoms
     Check: negative starting charge=   -2.199981

     starting charge  186.99986, renormalised to  193.00000

[...]

     *
     * You are using vdW-DF for exchange-correlation in this calculation.
     * Please cite the following three references that made this development
     * possible:
     *
     *   M. Dion, H. Rydberg, E. Schroder, D. C. Langreth, and
     *   B. I. Lundqvist, Phys. Rev. Lett. 92, 246401 (2004).
     *
     *   T. Thonhauser, V. R. Cooper, S. Li, A. Puzder, P. Hyldgaard, and
     *   D. C. Langreth, Phys. Rev. B 76, 125112 (2007).
     *
     *   G. Roman-Perez and J. M. Soler, Phys. Rev. Lett. 103, 096102 (2009).
     *
     *
     * If you are using vdW-DF2, please also cite:
     *
     *   K. Lee, E. D. Murray, L. Kong, B. I. Lundqvist, and
     *   D. C. Langreth, Phys. Rev. B 82, 081101(R) (2010).
     *
     *
     * If you are calculating the stress with vdW-DF, please also cite:
     *
     *   R. Sabatini, E. Kucukbenli, B. Kolb, T. Thonhauser, and
     *   S. de Gironcoli, J. Phys.: Condens. Matter 24, 424209 (2012).
     *

     Carrying out vdW-DF run using the following parameters:

     Nqs =      20    Nr_points =    1024   r_max =   100.000
     q_mesh =
               0.00001000     0.04494208     0.09755937     0.15916263
               0.23128650     0.31572767     0.41458969     0.53033537
               0.66584808     0.82450364     1.01025438     1.22772762
               1.48234092     1.78043706     2.12944203     2.53805004
               3.01644009     3.57652955     4.23227104     5.00000000

     Gradients computed in reciprocal space

[...]

     Starting wfc are  145 randomized atomic wfcs

     Self-consistent Calculation

[...]

     total energy              =   -2549.39059824 Ry
     Harris-Foulkes estimate   =   -2549.39060128 Ry
     estimated scf accuracy    <       0.00005619 Ry

     iteration # 15     ecut=    36.75 Ry     beta=0.30
     Davidson diagonalization with overlap
     ethr =  2.91E-08,  avg # of iterations =  1.5

[...]

     negative rho (up, down):  2.115E+00 0.000E+00

     Adding external electric field

     Computed dipole along edir(3) :
        Dipole                0.0211 Ry au,          0.0537 Debye
        Dipole field          0.0001 Ry au

        Potential amp.       -0.0054 Ry
        Total length         45.2551 bohr

     End of self-consistent calculation

[...]

          k = 0.0597-0.0689 0.0000 ( 16875 PWs)   bands (ev):

[...]

          k =-0.0895-0.0517 0.0000 ( 16880 PWs)   bands (ev):

   -51.1604 -51.1042 -51.0967 -51.0417 -51.0152 -51.0095 -50.9980 -50.9861
   -50.9793 -50.9752 -50.9593 -50.9465 -50.9447 -50.8796 -50.8703 -50.8149
   -50.7810 -50.7559 -50.7252 -50.7162 -50.7066 -50.6625 -50.6542 -50.6422
   -50.6349 -50.6192 -50.6093 -50.5615 -50.5456 -50.4455 -50.4384 -50.4324
   -50.3577 -50.3491 -50.3422 -50.3260  -5.1800  -5.1024  -4.0193  -3.8126
    -3.6507  -3.4474  -3.4128  -3.3897  -3.3849  -3.3374  -3.0879  -2.8721
    -2.8048  -2.6546  -2.5685  -2.4673  -2.4590  -2.1422  -2.1366  -2.1251
    -2.0321  -1.9914  -1.8602  -1.5977  -1.5067  -1.2946  -1.2660  -1.2309
    -1.1982  -1.1596  -1.1186  -0.9758  -0.9194  -0.9118  -0.8749  -0.8672
    -0.8647  -0.7586  -0.6893  -0.6746  -0.6483  -0.1569  -0.1443  -0.0842
     0.0595   0.0750   0.1769   0.3000   0.3584   0.4037   0.5205   0.5274
     0.5402   0.8156   0.9834   1.0085   1.0154   1.1681   1.4235   1.5911
     1.6749   1.7576   1.9633   2.0267   2.7526   3.4086   3.9989   4.0255
     4.5601   4.8401

     the Fermi energy is     1.7851 ev

!    total energy              =   -2549.39059701 Ry
     Harris-Foulkes estimate   =   -2549.39060402 Ry
     estimated scf accuracy    <       0.00000490 Ry

     The total energy is the sum of the following terms:

     one-electron contribution =  -19994.99749311 Ry
     hartree contribution      =   10034.72663458 Ry
     xc contribution           =    -704.07485667 Ry
     ewald contribution        =    8115.06009639 Ry
     electric field correction =       0.00000125 Ry
     smearing contrib. (-TS)   =      -0.10497945 Ry

     convergence has been achieved in  15 iterations

 BEEF-vdW xc energy contributions
           1 :   -626.953354110216
           2 :    583.583876027013
           3 :   -505.761773927191
           4 :    408.242422513727
           5 :   -307.220830070047
           6 :    216.191659494459
           7 :   -143.244765126295
           8 :    90.3523682492539
           9 :   -54.5896965495037
          10 :    30.5620020683618
          11 :   -12.9947066110078
          12 :   -1.48018180948554
          13 :    13.8105796598757
          14 :   -23.1793611920124
          15 :    28.2706055031852
          16 :   -28.4714460407336
          17 :    24.4798864137631
          18 :   -18.1557183733432
          19 :    11.8052274942302
          20 :   -7.31315861302471
          21 :    5.52629447059735
          22 :   -6.12720508001223
          23 :    7.98384972258941
          24 :   -9.76456038400909
          25 :    10.5176752164508
          26 :   -9.98209384087886
          27 :    8.54443129238268
          28 :   -6.92729715462224
          29 :    5.79018444425151
          30 :   -5.43631071619313
          31 :   -51.3622927660176
          32 :   -37.9873302610520

     Forces acting on atoms (Ry/au):

     negative rho (up, down):  2.115E+00 0.000E+00
     atom    1 type  1   force =    -0.00052411   -0.00030779   -0.01317187
     atom    2 type  1   force =     0.00051659   -0.00033898   -0.01320387
     atom    3 type  1   force =    -0.00003115    0.00061794   -0.01320505
     atom    4 type  1   force =     0.00002545    0.00001814   -0.02786763
     atom    5 type  1   force =    -0.00001869   -0.00137130    0.01804464
     atom    6 type  1   force =     0.00001813    0.00001016    0.01533794
     atom    7 type  1   force =     0.00120972    0.00070042    0.01805680
     atom    8 type  1   force =    -0.00119536    0.00066985    0.01803522
     atom    9 type  1   force =     0.00001133    0.00003878    0.00128059
     atom   10 type  1   force =    -0.00000728    0.00035316   -0.00173294
     atom   11 type  1   force =     0.00027545   -0.00019964   -0.00172730
     atom   12 type  1   force =    -0.00027910   -0.00019039   -0.00167215
     atom   13 type  2   force =    -0.00000098   -0.00000036    0.00182562

     Total force =     0.050319     Total SCF correction =     0.020955
     SCF correction compared to forces is large: reduce conv_thr to get better values

     entering subroutine stress ...

     negative rho (up, down):  2.115E+00 0.000E+00
          total   stress  (Ry/bohr**3)                   (kbar)     P=  -12.42
  -0.00015125   0.00000001   0.00000001        -22.25      0.00      0.00
   0.00000001  -0.00015126   0.00000000          0.00    -22.25      0.00
   0.00000001   0.00000000   0.00004915          0.00      0.00      7.23

 !ASE

     Writing output data file calc.save

     General routines

     Parallel routines

   This run was terminated on:  13:13: 1  16Jan2018

   JOB DONE.
Job  /afs/slac/g/suncat/bin/suncat-tsmpirun -x LD_LIBRARY_PATH -wdir /scratch/qe842471_0OIrd pw.x -in pw.inp

TID   HOST_NAME   COMMAND_LINE            STATUS            TERMINATION_TIME
00000 suncat0264 pw.x -in pw.inp   Done                     01/16/2018 13:13:02
00001 suncat0264 pw.x -in pw.inp   Done                     01/16/2018 13:13:02
00002 suncat0264 pw.x -in pw.inp   Done                     01/16/2018 13:13:02
00003 suncat0264 pw.x -in pw.inp   Done                     01/16/2018 13:13:02
00004 suncat0264 pw.x -in pw.inp   Done                     01/16/2018 13:13:02
00005 suncat0264 pw.x -in pw.inp   Done                     01/16/2018 13:13:02
00006 suncat0264 pw.x -in pw.inp   Done                     01/16/2018 13:13:02
00007 suncat0264 pw.x -in pw.inp   Done                     01/16/2018 13:13:02
00008 suncat0259 pw.x -in pw.inp   Done                     01/16/2018 13:13:02
00009 suncat0259 pw.x -in pw.inp   Done                     01/16/2018 13:13:02
00010 suncat0259 pw.x -in pw.inp   Done                     01/16/2018 13:13:02
00011 suncat0259 pw.x -in pw.inp   Done                     01/16/2018 13:13:02
00012 suncat0259 pw.x -in pw.inp   Done                     01/16/2018 13:13:02
00013 suncat0259 pw.x -in pw.inp   Done                     01/16/2018 13:13:02
00014 suncat0259 pw.x -in pw.inp   Done                     01/16/2018 13:13:02
00015 suncat0259 pw.x -in pw.inp   Done                     01/16/2018 13:13:02
00016 suncat0258 pw.x -in pw.inp   Done                     01/16/2018 13:13:02
00017 suncat0258 pw.x -in pw.inp   Done                     01/16/2018 13:13:02
00018 suncat0258 pw.x -in pw.inp   Done                     01/16/2018 13:13:02
00019 suncat0258 pw.x -in pw.inp   Done                     01/16/2018 13:13:02
00020 suncat0258 pw.x -in pw.inp   Done                     01/16/2018 13:13:02
00021 suncat0258 pw.x -in pw.inp   Done                     01/16/2018 13:13:02
00022 suncat0258 pw.x -in pw.inp   Done                     01/16/2018 13:13:02
00023 suncat0258 pw.x -in pw.inp   Done                     01/16/2018 13:13:02
00024 suncat0256 pw.x -in pw.inp   Done                     01/16/2018 13:13:02
00025 suncat0256 pw.x -in pw.inp   Done                     01/16/2018 13:13:02
00026 suncat0256 pw.x -in pw.inp   Done                     01/16/2018 13:13:02
00027 suncat0256 pw.x -in pw.inp   Done                     01/16/2018 13:13:02
00028 suncat0256 pw.x -in pw.inp   Done                     01/16/2018 13:13:02
00029 suncat0256 pw.x -in pw.inp   Done                     01/16/2018 13:13:02
00030 suncat0256 pw.x -in pw.inp   Done                     01/16/2018 13:13:02
00031 suncat0256 pw.x -in pw.inp   Done                     01/16/2018 13:13:02