     Program PWSCF v.5.1rc2 (svn rev. 11289) starts on 16Apr2018 at 11:25:27

     Current dimensions of program PWSCF are:
     Max number of different atomic species (ntypx) = 10
     Max number of k-points (npk) =  40000
     Max angular momentum in pseudopotentials (lmaxx) =  3
     Presently stress not available with electric field

     IMPORTANT: XC functional enforced from input :
     Exchange-correlation      = BEEF-VDW ( 1  4 27 13 2)
     Any further DFT definition will be discarded
     Please, verify this is what you really want

     Subspace diagonalization in iterative solution of the eigenvalue problem:
     a serial algorithm will be used

     bravais-lattice index     =            0
     lattice parameter (alat)  =       1.8897  a.u.
     unit-cell volume          =    4650.5773 (a.u.)^3
     number of atoms/cell      =           14
     number of atomic types    =            3
     number of electrons       =        43.00
     number of Kohn-Sham states=           31
     kinetic-energy cutoff     =      36.7493  Ry
     charge density cutoff     =     367.4932  Ry
     convergence threshold     =      1.0E-05
     mixing beta               =       0.3000
     number of iterations used =           10  plain     mixing
     Exchange-correlation      = BEEF-VDW ( 1  4 27 13 2)
     nstep                     =           50

     celldm(1)=   1.889726  celldm(2)=   0.000000  celldm(3)=   0.000000
     celldm(4)=   0.000000  celldm(5)=   0.000000  celldm(6)=   0.000000

     crystal axes: (cart. coord. in units of alat)
               a(1) = (   5.682886   0.000000   0.000000 )
               a(2) = (   2.841443   4.921524   0.000000 )
               a(3) = (   0.000000   0.000000  24.640057 )

     reciprocal axes: (cart. coord. in units 2 pi/alat)
               b(1) = (  0.175967 -0.101595  0.000000 )
               b(2) = (  0.000000  0.203189  0.000000 )
               b(3) = (  0.000000  0.000000  0.040584 )

     PseudoPot. # 1 for Al read from file:
     /u/if/mamunm/psp/gbrv1.5pbe/Al.UPF
     MD5 check sum: 0a6289f5291fc8f409219462bc851e1f
     Pseudo is Ultrasoft + core correction, Zval =  3.0
     Generated by new atomic code, or converted to UPF format
     Using radial grid of  893 points,  3 beta functions with:
                l(1) =   0
                l(2) =   1
                l(3) =   2
     Q(r) pseudized with  8 coefficients,  rinner =    0.900   0.900   0.900
                                                       0.900   0.900

     PseudoPot. # 2 for S  read from file:
     /u/if/mamunm/psp/gbrv1.5pbe/S.UPF
     MD5 check sum: 88d86576ff6df21479756cfb9bdac1df
     Pseudo is Ultrasoft + core correction, Zval =  6.0
     Generated by new atomic code, or converted to UPF format
     Using radial grid of  907 points,  6 beta functions with:
                l(1) =   0
                l(2) =   0
                l(3) =   1
                l(4) =   1
                l(5) =   2
                l(6) =   2
     Q(r) pseudized with  8 coefficients,  rinner =    1.300   1.300   1.300
                                                       1.300   1.300

     PseudoPot. # 3 for H  read from file:
     /u/if/mamunm/psp/gbrv1.5pbe/H.UPF
     MD5 check sum: 761ae9a214b05c3daf00ab9f6b793d6f
     Pseudo is Ultrasoft, Zval =  1.0
     Generated by new atomic code, or converted to UPF format
     Using radial grid of  615 points,  2 beta functions with:
                l(1) =   0
                l(2) =   0
     Q(r) pseudized with  8 coefficients,  rinner =    0.700

     vdW kernel table read from file vdW_kernel_table
     MD5 check sum: 095c7af220d748ca6e76c0b4c6cfb241

     atomic species   valence    mass     pseudopotential
        Al1            3.00    26.98154     Al( 1.00)
        S1             6.00    32.06000     S ( 1.00)
        H1             1.00     1.00800     H ( 1.00)

     No symmetry found

   Cartesian axes

     site n.     atom                  positions (alat units)
         1           Al1 tau(   1) = (   1.4207216   0.8202540  10.0000000  )
         2           Al1 tau(   2) = (   4.2621647   0.8202540  10.0000000  )
         3           Al1 tau(   3) = (   2.8414431   3.2810159  10.0000000  )
         4           Al1 tau(   4) = (   5.6828862   3.2810159  10.0000000  )
         5           Al1 tau(   5) = (   5.6828862   1.6405079  12.3200286  )
         6           Al1 tau(   6) = (   2.8414431   1.6405079  12.3200286  )
         7           Al1 tau(   7) = (   7.1036078   4.1012699  12.3200286  )
         8           Al1 tau(   8) = (   4.2621647   4.1012699  12.3200286  )
         9           Al1 tau(   9) = (   0.0000000   0.0000000  14.6400572  )
        10           Al1 tau(  10) = (   2.8414431   0.0000000  14.6400572  )
        11           Al1 tau(  11) = (   1.4207216   2.4607619  14.6400572  )
        12           Al1 tau(  12) = (   4.2621647   2.4607619  14.6400572  )
        13           S1  tau(  13) = (   0.0000000   0.0000000  16.5610572  )
        14           H1  tau(  14) = (   0.0000000   0.0000000  17.8110572  )

     number of k points=    20  Fermi-Dirac smearing, width (Ry)=  0.0110
                       cart. coord. in units 2pi/alat
        k(    1) = (   0.0000000   0.0000000   0.0000000), wk =   0.0555556
        k(    2) = (   0.0000000   0.0338648   0.0000000), wk =   0.1111111
        k(    3) = (   0.0000000   0.0677297   0.0000000), wk =   0.1111111
        k(    4) = (   0.0000000  -0.1015945   0.0000000), wk =   0.0555556
        k(    5) = (   0.0293278  -0.0169324   0.0000000), wk =   0.1111111
        k(    6) = (   0.0293278   0.0169324   0.0000000), wk =   0.1111111
        k(    7) = (   0.0293278   0.0507973   0.0000000), wk =   0.1111111
        k(    8) = (   0.0293278  -0.1185270   0.0000000), wk =   0.1111111
        k(    9) = (   0.0293278  -0.0846621   0.0000000), wk =   0.1111111
        k(   10) = (   0.0293278  -0.0507973   0.0000000), wk =   0.1111111
        k(   11) = (   0.0586556  -0.0338648   0.0000000), wk =   0.1111111
        k(   12) = (   0.0586556   0.0000000   0.0000000), wk =   0.1111111
        k(   13) = (   0.0586556   0.0338648   0.0000000), wk =   0.1111111
        k(   14) = (   0.0586556  -0.1354594   0.0000000), wk =   0.1111111
        k(   15) = (   0.0586556  -0.1015945   0.0000000), wk =   0.1111111
        k(   16) = (   0.0586556  -0.0677297   0.0000000), wk =   0.1111111
        k(   17) = (  -0.0879835   0.0507973   0.0000000), wk =   0.0555556
        k(   18) = (  -0.0879835   0.0846621   0.0000000), wk =   0.1111111
        k(   19) = (  -0.0879835   0.1185270   0.0000000), wk =   0.1111111
        k(   20) = (  -0.0879835  -0.0507973   0.0000000), wk =   0.0555556

     Largest allocated arrays     est. size (Mb)     dimensions
     Largest temporary arrays     est. size (Mb)     dimensions

     Initial potential from superposition of free atoms
     Check: negative starting charge=   -0.000132

     starting charge   42.97037, renormalised to   43.00000

     negative rho (up, down):  1.320E-04 0.000E+00

     *
     * You are using vdW-DF for exchange-correlation in this calculation.
     * Please cite the following three references that made this development
     * possible:
     *
     *   M. Dion, H. Rydberg, E. Schroder, D. C. Langreth, and
     *   B. I. Lundqvist, Phys. Rev. Lett. 92, 246401 (2004).
     *
     *   T. Thonhauser, V. R. Cooper, S. Li, A. Puzder, P. Hyldgaard, and
     *   D. C. Langreth, Phys. Rev. B 76, 125112 (2007).
     *
     *   G. Roman-Perez and J. M. Soler, Phys. Rev. Lett. 103, 096102 (2009).
     *
     *
     * If you are using vdW-DF2, please also cite:
     *
     *   K. Lee, E. D. Murray, L. Kong, B. I. Lundqvist, and
     *   D. C. Langreth, Phys. Rev. B 82, 081101(R) (2010).
     *
     *
     * If you are calculating the stress with vdW-DF, please also cite:
     *
     *   R. Sabatini, E. Kucukbenli, B. Kolb, T. Thonhauser, and
     *   S. de Gironcoli, J. Phys.: Condens. Matter 24, 424209 (2012).
     *

     Carrying out vdW-DF run using the following parameters:

     Nqs =      20    Nr_points =    1024   r_max =   100.000
     q_mesh =
               0.00001000     0.04494208     0.09755937     0.15916263
               0.23128650     0.31572767     0.41458969     0.53033537
               0.66584808     0.82450364     1.01025438     1.22772762
               1.48234092     1.78043706     2.12944203     2.53805004
               3.01644009     3.57652955     4.23227104     5.00000000

     Gradients computed in reciprocal space

     Adding external electric field

     Computed dipole along edir(3) :
        Dipole               -0.0399 Ry au,         -0.1015 Debye
        Dipole field         -0.0001 Ry au

        Potential amp.        0.0098 Ry
        Total length         45.3989 bohr

     Starting wfc are   53 randomized atomic wfcs

     Self-consistent Calculation

     iteration #  1     ecut=    36.75 Ry     beta=0.30
     Davidson diagonalization with overlap
     ethr =  1.00E-02,  avg # of iterations =  3.0

[...]

     total energy              =    -107.69327651 Ry
     Harris-Foulkes estimate   =    -108.07974818 Ry
     estimated scf accuracy    <       0.92510067 Ry

[...]

     End of self-consistent calculation

          k = 0.0000 0.0000 0.0000 ( 17579 PWs)   bands (ev):

   -15.2219 -10.8763  -9.5831  -8.3286  -6.0349  -5.1010  -5.1010  -4.8933
    -4.8933  -4.8760  -4.7904  -4.2089  -4.2089  -3.5085  -3.1745  -3.1694
    -3.1694  -2.5342  -2.4802  -2.4802  -0.6696  -0.6696  -0.5018  -0.2603
    -0.0689  -0.0689   0.7873   2.0525   2.1759   2.2939   2.2939

[...]

          k =-0.0880 0.0508 0.0000 ( 17464 PWs)   bands (ev):

[...]

     the Fermi energy is    -0.1924 ev

!    total energy              =    -107.89805901 Ry
     Harris-Foulkes estimate   =    -107.89805554 Ry
     estimated scf accuracy    <       0.00000705 Ry

     The total energy is the sum of the following terms:

     one-electron contribution =    -753.90003315 Ry
     hartree contribution      =     386.18122610 Ry
     xc contribution           =     -62.86892282 Ry
     ewald contribution        =     322.72080177 Ry
     electric field correction =       0.00010602 Ry
     smearing contrib. (-TS)   =      -0.03123694 Ry

     convergence has been achieved in   9 iterations

 BEEF-vdW xc energy contributions
           1 :   -51.7706565902532
           2 :    44.4673873924525
           3 :   -33.1866027930126
           4 :    22.2673666328563
           5 :   -14.5598621542708
           6 :    10.4075197826785
           7 :   -8.37294163164192
           8 :    6.82995487376577
           9 :   -5.13160297612308
          10 :    3.63057569008431
          11 :   -2.86703071851768
          12 :    2.82791563762036
          13 :   -2.92892349651765
          14 :    2.59651794029010
          15 :   -1.79483187675343
          16 :   0.988610420509872
          17 :  -0.638633175000251
          18 :   0.759597076463884
          19 :  -0.951343844195563
          20 :   0.816392455356066
          21 :  -0.325538488950833
          22 :  -0.203687760981431
          23 :   0.445080091486275
          24 :  -0.362807166912944
          25 :   0.198168619048189
          26 :  -0.199580923632354
          27 :   0.385241901891966
          28 :  -0.562211281268446
          29 :   0.551459175664860
          30 :  -0.374525180623138
          31 :   -7.58475602674523
          32 :   -5.49157749993597

     Forces acting on atoms (Ry/au):

     negative rho (up, down):  3.398E-04 0.000E+00
     atom    1 type  1   force =     0.00352799    0.00203676   -0.00106280
     atom    2 type  1   force =    -0.00352823    0.00203703   -0.00106262
     atom    3 type  1   force =     0.00000028   -0.00407384   -0.00106240
     atom    4 type  1   force =    -0.00000002   -0.00000000   -0.00217306
     atom    5 type  1   force =     0.00000011    0.00156596    0.00385559
     atom    6 type  1   force =    -0.00000011    0.00000005   -0.00680055
     atom    7 type  1   force =    -0.00135597   -0.00078317    0.00385526
     atom    8 type  1   force =     0.00135596   -0.00078293    0.00385527
     atom    9 type  1   force =     0.00000007    0.00000018   -0.24074501
     atom   10 type  1   force =    -0.00000010    0.00042407   -0.01578694
     atom   11 type  1   force =     0.00036752   -0.00021223   -0.01578721
     atom   12 type  1   force =    -0.00036753   -0.00021178   -0.01578688
     atom   13 type  2   force =     0.00000004   -0.00000031    0.16601599
     atom   14 type  3   force =    -0.00000002    0.00000022    0.12268538

     Total force =     0.318307     Total SCF correction =     0.003153

     entering subroutine stress ...

     negative rho (up, down):  3.398E-04 0.000E+00
          total   stress  (Ry/bohr**3)                   (kbar)     P=   10.17
  -0.00004334   0.00000000   0.00000000         -6.38      0.00      0.00
   0.00000000  -0.00004334  -0.00000000          0.00     -6.38     -0.00
   0.00000000  -0.00000000   0.00029412          0.00     -0.00     43.27

     BFGS Geometry Optimization

     number of scf cycles    =   1
     number of bfgs steps    =   0

     energy   new            =    -107.8980590050 Ry

     new trust radius        =       0.2407450115 bohr
     new conv_thr            =       0.0000099958 Ry

ATOMIC_POSITIONS (crystal)
Al1      0.166666667   0.166666667   0.405843214    0   0   0
Al1      0.666666667   0.166666667   0.405843214    0   0   0
Al1      0.166666667   0.666666667   0.405843214    0   0   0
Al1      0.666666667   0.666666667   0.405843214    0   0   0
Al1      0.833333333   0.333333333   0.500000000    0   0   0
Al1      0.333333333   0.333333333   0.500000000    0   0   0
Al1      0.833333333   0.833333333   0.500000000    0   0   0
Al1      0.333333333   0.833333333   0.500000000    0   0   0
Al1     -0.000000003   0.000000020   0.588986474
Al1      0.499977192   0.000045597   0.593817741
Al1      0.000045633   0.499977180   0.593817735
Al1      0.499977162   0.499977229   0.593817742
S1       0.000000021  -0.000000034   0.675684676
H1      -0.000000014   0.000000023   0.725484497

     Writing output data file calc.save
     Check: negative starting charge=   -0.000132
     NEW-OLD atomic charge density approx. for the potential
     Check: negative starting charge=   -0.000130

[...]

     energy   old            =    -107.8980590050 Ry
     energy   new            =    -107.9550992219 Ry

     CASE: energy  _new < energy  _old

[...]

     Threshold (ethr) on eigenvalues was too large:
     Diagonalizing with lowered threshold

     Davidson diagonalization with overlap
     ethr =  4.16E-08,  avg # of iterations =  2.9

[...]

     number of scf cycles    =  13
     number of bfgs steps    =  12

     energy   old            =    -108.0028737549 Ry
     energy   new            =    -108.0029073852 Ry

     CASE: energy  _new < energy  _old

     new trust radius        =       0.0063239355 bohr
     new conv_thr            =       0.0000001000 Ry

ATOMIC_POSITIONS (crystal)
Al1      0.166666667   0.166666667   0.405843214    0   0   0
Al1      0.666666667   0.166666667   0.405843214    0   0   0
Al1      0.166666667   0.666666667   0.405843214    0   0   0
Al1      0.666666667   0.666666667   0.405843214    0   0   0
Al1      0.833333333   0.333333333   0.500000000    0   0   0
Al1      0.333333333   0.333333333   0.500000000    0   0   0
Al1      0.833333333   0.833333333   0.500000000    0   0   0
Al1      0.333333333   0.833333333   0.500000000    0   0   0
Al1     -0.000000576   0.000001102   0.600342663
Al1      0.500162500  -0.000324939   0.593138139
Al1     -0.000325169   0.500162876   0.593138168
Al1      0.500162232   0.500162786   0.593138166
S1       0.000002649  -0.000005025   0.695170192
H1      -0.000001650   0.000003047   0.749910942

     Writing output data file calc.save
     Check: negative starting charge=   -0.000123
     NEW-OLD atomic charge density approx. for the potential
     Check: negative starting charge=   -0.000123

[...]

     Self-consistent Calculation

[...]

     Threshold (ethr) on eigenvalues was too large:
     Diagonalizing with lowered threshold

     Davidson diagonalization with overlap
     ethr =  3.04E-08,  avg # of iterations =  2.0

[...]

     total energy              =    -108.00291915 Ry
     Harris-Foulkes estimate   =    -108.00291935 Ry
     estimated scf accuracy    <       0.00000021 Ry

     iteration #  6     ecut=    36.75 Ry     beta=0.30
     Davidson diagonalization with overlap
     ethr =  4.86E-10,  avg # of iterations =  2.0

[...]

     negative rho (up, down):  3.272E-04 0.000E+00

     Adding external electric field

     Computed dipole along edir(3) :
        Dipole               -0.2184 Ry au,         -0.5552 Debye
        Dipole field         -0.0006 Ry au

        Potential amp.        0.0536 Ry
        Total length         45.3989 bohr

     End of self-consistent calculation

[...]

          k = 0.0587-0.0677 0.0000 ( 17495 PWs)   bands (ev):

[...]

          k =-0.0880-0.0508 0.0000 ( 17464 PWs)   bands (ev):

   -13.5597  -9.9165  -9.8631  -8.3465  -8.2170  -7.1282  -6.9111  -6.7133
    -5.5853  -5.3005  -5.2848  -4.9080  -3.0920  -2.9339  -2.6767  -1.9440
    -1.8980  -1.7021  -1.1845  -1.1734  -0.8863  -0.8628   0.2433   0.2532
     0.6596   0.7631   0.9139   1.0009   1.2349   1.3404   2.0535

     the Fermi energy is    -0.7786 ev

!    total energy              =    -108.00291917 Ry
     Harris-Foulkes estimate   =    -108.00291958 Ry
     estimated scf accuracy    <       0.00000003 Ry

     The total energy is the sum of the following terms:

     one-electron contribution =    -708.74450736 Ry
     hartree contribution      =     363.16577456 Ry
     xc contribution           =     -62.57778367 Ry
     ewald contribution        =     300.18446615 Ry
     electric field correction =       0.00012892 Ry
     smearing contrib. (-TS)   =      -0.03099776 Ry

     convergence has been achieved in   6 iterations

 BEEF-vdW xc energy contributions
           1 :   -51.4848563801508
           2 :    44.1057509147045
           3 :   -32.7601607285742
           4 :    21.8601115913626
           5 :   -14.2507538576681
           6 :    10.2146250364684
           7 :   -8.25734710176965
           8 :    6.74037477818649
           9 :   -5.04257104949530
          10 :    3.54432792747805
          11 :   -2.78882901471243
          12 :    2.74905097720325
          13 :   -2.83576373830224
          14 :    2.49114175270002
          15 :   -1.70082418725910
          16 :   0.933467922133516
          17 :  -0.629546475083970
          18 :   0.776369314363279
          19 :  -0.962864941685147
          20 :   0.804289655017200
          21 :  -0.293399489770749
          22 :  -0.240584038397174
          23 :   0.475680506969326
          24 :  -0.386506437618252
          25 :   0.219709500488939
          26 :  -0.222835943863274
          27 :   0.414283211888318
          28 :  -0.606209304583651
          29 :   0.624211110375583
          30 :  -0.485766329892151
          31 :   -7.56328983814456
          32 :   -5.45224084920754

     Forces acting on atoms (Ry/au):

     negative rho (up, down):  3.272E-04 0.000E+00
     atom    1 type  1   force =     0.00146592    0.00084637   -0.00075369
     atom    2 type  1   force =    -0.00146593    0.00084637   -0.00075368
     atom    3 type  1   force =    -0.00000001   -0.00169275   -0.00075372
     atom    4 type  1   force =    -0.00000001    0.00000008   -0.00078639
     atom    5 type  1   force =    -0.00000000   -0.00410676    0.00197095
     atom    6 type  1   force =    -0.00000002    0.00000014   -0.00600811
     atom    7 type  1   force =     0.00355649    0.00205332    0.00197082
     atom    8 type  1   force =    -0.00355650    0.00205331    0.00197086
     atom    9 type  1   force =    -0.00000002    0.00000127   -0.00082139
     atom   10 type  1   force =    -0.00000009    0.00039417    0.00104535
     atom   11 type  1   force =     0.00034140   -0.00019665    0.00104525
     atom   12 type  1   force =    -0.00034137   -0.00019655    0.00104525
     atom   13 type  2   force =     0.00000027   -0.00000536    0.00063346
     atom   14 type  3   force =    -0.00000011    0.00000304    0.00019504

     Total force =     0.002204     Total SCF correction =     0.000127

     entering subroutine stress ...

     negative rho (up, down):  3.272E-04 0.000E+00
          total   stress  (Ry/bohr**3)                   (kbar)     P=   -6.76
  -0.00007254  -0.00000000   0.00000000        -10.67     -0.00      0.00
  -0.00000000  -0.00007254  -0.00000000         -0.00    -10.67     -0.00
   0.00000000  -0.00000000   0.00000728          0.00     -0.00      1.07

     bfgs converged in  14 scf cycles and  13 bfgs steps
     (criteria: energy <  1.0E+00, force <  1.9E-03)

     End of BFGS Geometry Optimization

     Final energy   =    -108.0029191655 Ry
Begin final coordinates

ATOMIC_POSITIONS (crystal)
Al1      0.166666667   0.166666667   0.405843214    0   0   0
Al1      0.666666667   0.166666667   0.405843214    0   0   0
Al1      0.166666667   0.666666667   0.405843214    0   0   0
Al1      0.666666667   0.666666667   0.405843214    0   0   0
Al1      0.833333333   0.333333333   0.500000000    0   0   0
Al1      0.333333333   0.333333333   0.500000000    0   0   0
Al1      0.833333333   0.833333333   0.500000000    0   0   0
Al1      0.333333333   0.833333333   0.500000000    0   0   0
Al1     -0.000000576   0.000001102   0.600342663
Al1      0.500162500  -0.000324939   0.593138139
Al1     -0.000325169   0.500162876   0.593138168
Al1      0.500162232   0.500162786   0.593138166
S1       0.000002649  -0.000005025   0.695170192
H1      -0.000001650   0.000003047   0.749910942
End final coordinates

     Writing output data file calc.save

     General routines

     Parallel routines

   This run was terminated on:  11:59:44  16Apr2018

   JOB DONE.
Job  /afs/slac/g/suncat/bin/suncat-tsmpirun -x LD_LIBRARY_PATH -wdir /scratch/qe111882_JIRw5 pw.x -npool 4 -in pw.inp

TID   HOST_NAME   COMMAND_LINE            STATUS            TERMINATION_TIME
00000 suncat0129 pw.x -npool 4 -i  Done                     04/16/2018 11:59:44
00001 suncat0129 pw.x -npool 4 -i  Done                     04/16/2018 11:59:44
00002 suncat0129 pw.x -npool 4 -i  Done                     04/16/2018 11:59:44
00003 suncat0129 pw.x -npool 4 -i  Done                     04/16/2018 11:59:44
00004 suncat0129 pw.x -npool 4 -i  Done                     04/16/2018 11:59:44
00005 suncat0129 pw.x -npool 4 -i  Done                     04/16/2018 11:59:44
00006 suncat0129 pw.x -npool 4 -i  Done                     04/16/2018 11:59:44
00007 suncat0129 pw.x -npool 4 -i  Done                     04/16/2018 11:59:44
00008 suncat0126 pw.x -npool 4 -i  Done                     04/16/2018 11:59:44
00009 suncat0126 pw.x -npool 4 -i  Done                     04/16/2018 11:59:44
00010 suncat0126 pw.x -npool 4 -i  Done                     04/16/2018 11:59:44
00011 suncat0126 pw.x -npool 4 -i  Done                     04/16/2018 11:59:44
00012 suncat0126 pw.x -npool 4 -i  Done                     04/16/2018 11:59:44
00013 suncat0126 pw.x -npool 4 -i  Done                     04/16/2018 11:59:44
00014 suncat0126 pw.x -npool 4 -i  Done                     04/16/2018 11:59:44
00015 suncat0126 pw.x -npool 4 -i  Done                     04/16/2018 11:59:44
00016 suncat0258 pw.x -npool 4 -i  Done                     04/16/2018 11:59:44
00017 suncat0258 pw.x -npool 4 -i  Done                     04/16/2018 11:59:44
00018 suncat0258 pw.x -npool 4 -i  Done                     04/16/2018 11:59:44
00019 suncat0258 pw.x -npool 4 -i  Done                     04/16/2018 11:59:44
00020 suncat0258 pw.x -npool 4 -i  Done                     04/16/2018 11:59:44
00021 suncat0258 pw.x -npool 4 -i  Done                     04/16/2018 11:59:44
00022 suncat0258 pw.x -npool 4 -i  Done                     04/16/2018 11:59:44
00023 suncat0258 pw.x -npool 4 -i  Done                     04/16/2018 11:59:44
00024 suncat0252 pw.x -npool 4 -i  Done                     04/16/2018 11:59:44
00025 suncat0252 pw.x -npool 4 -i  Done                     04/16/2018 11:59:44
00026 suncat0252 pw.x -npool 4 -i  Done                     04/16/2018 11:59:44
00027 suncat0252 pw.x -npool 4 -i  Done                     04/16/2018 11:59:44
00028 suncat0252 pw.x -npool 4 -i  Done                     04/16/2018 11:59:44
00029 suncat0252 pw.x -npool 4 -i  Done                     04/16/2018 11:59:44
00030 suncat0252 pw.x -npool 4 -i  Done                     04/16/2018 11:59:44
00031 suncat0252 pw.x -npool 4 -i  Done                     04/16/2018 11:59:44