     Program PWSCF v.5.1rc2 (svn rev. 11289) starts on 24Apr2018 at  9:51:34

     Current dimensions of program PWSCF are:
     Max number of different atomic species (ntypx) = 10
     Max number of k-points (npk) =  40000
     Max angular momentum in pseudopotentials (lmaxx) =  3
     Presently stress not available with electric field

     IMPORTANT: XC functional enforced from input :
     Exchange-correlation      = BEEF-VDW ( 1  4 27 13 2)
     Any further DFT definition will be discarded
     Please, verify this is what you really want

     Subspace diagonalization in iterative solution of the eigenvalue problem:
     a serial algorithm will be used

     bravais-lattice index     =            0
     lattice parameter (alat)  =       1.8897  a.u.
     unit-cell volume          =    4158.3597 (a.u.)^3
     number of atoms/cell      =           14
     number of atomic types    =            3
     number of electrons       =       161.00
     number of Kohn-Sham states=           90
     kinetic-energy cutoff     =      36.7493  Ry
     charge density cutoff     =     367.4932  Ry
     convergence threshold     =      1.0E-05
     mixing beta               =       0.3000
     number of iterations used =           10  plain     mixing
     Exchange-correlation      = BEEF-VDW ( 1  4 27 13 2)
     nstep                     =           50

     celldm(1)=   1.889726  celldm(2)=   0.000000  celldm(3)=   0.000000
     celldm(4)=   0.000000  celldm(5)=   0.000000  celldm(6)=   0.000000

     crystal axes: (cart. coord. in units of alat)
               a(1) = (   5.399178   0.000000   0.000000 )
               a(2) = (   2.699589   4.675825   0.000000 )
               a(3) = (   0.000000   0.000000  24.408411 )

     reciprocal axes: (cart. coord. in units 2 pi/alat)
               b(1) = (  0.185213 -0.106933  0.000000 )
               b(2) = (  0.000000  0.213866  0.000000 )
               b(3) = (  0.000000  0.000000  0.040969 )

     PseudoPot. # 1 for V  read from file:
     /u/if/mamunm/psp/gbrv1.5pbe/V.UPF
     MD5 check sum: 22b79981416ebb76fdaf5b1b8640f6fb
     Pseudo is Ultrasoft + core correction, Zval = 13.0
     Generated by new atomic code, or converted to UPF format
     Using radial grid of  853 points,  6 beta functions with:
                l(1) =   0
                l(2) =   0
                l(3) =   1
                l(4) =   1
                l(5) =   2
                l(6) =   2
     Q(r) pseudized with  8 coefficients,  rinner =    1.100   1.100   1.100
                                                       1.100   1.100

     PseudoPot. # 2 for C  read from file:
     /u/if/mamunm/psp/gbrv1.5pbe/C.UPF
     MD5 check sum: d1aef80898a10debaa0f26306b886e00
     Pseudo is Ultrasoft + core correction, Zval =  4.0
     Generated by new atomic code, or converted to UPF format
     Using radial grid of  721 points,  4 beta functions with:
                l(1) =   0
                l(2) =   0
                l(3) =   1
                l(4) =   1
     Q(r) pseudized with  8 coefficients,  rinner =    1.100   1.100   1.100

     PseudoPot. # 3 for H  read from file:
     /u/if/mamunm/psp/gbrv1.5pbe/H.UPF
     MD5 check sum: 761ae9a214b05c3daf00ab9f6b793d6f
     Pseudo is Ultrasoft, Zval =  1.0
     Generated by new atomic code, or converted to UPF format
     Using radial grid of  615 points,  2 beta functions with:
                l(1) =   0
                l(2) =   0
     Q(r) pseudized with  8 coefficients,  rinner =    0.700

     vdW kernel table read from file vdW_kernel_table
     MD5 check sum: 095c7af220d748ca6e76c0b4c6cfb241

     atomic species   valence    mass     pseudopotential
        V1            13.00    50.94150     V ( 1.00)
        C1             4.00    12.01100     C ( 1.00)
        H1             1.00     1.00800     H ( 1.00)

     No symmetry found

   Cartesian axes

     site n.     atom                  positions (alat units)
         1           V1  tau(   1) = (   1.3497945   0.7793042  10.0000000  )
         2           V1  tau(   2) = (   4.0493836   0.7793042  10.0000000  )
         3           V1  tau(   3) = (   2.6995891   3.1172170  10.0000000  )
         4           V1  tau(   4) = (   5.3991782   3.1172170  10.0000000  )
         5           V1  tau(   5) = (   5.3991782   1.5586085  12.2042053  )
         6           V1  tau(   6) = (   2.6995891   1.5586085  12.2042053  )
         7           V1  tau(   7) = (   6.7489727   3.8965212  12.2042053  )
         8           V1  tau(   8) = (   4.0493836   3.8965212  12.2042053  )
         9           V1  tau(   9) = (   0.0000000   0.0000000  14.4084105  )
        10           V1  tau(  10) = (   2.6995891   0.0000000  14.4084105  )
        11           V1  tau(  11) = (   1.3497945   2.3379127  14.4084105  )
        12           V1  tau(  12) = (   4.0493836   2.3379127  14.4084105  )
        13           C1  tau(  13) = (   2.6995891   1.5586085  15.8969105  )
        14           H1  tau(  14) = (   2.6995891   1.5586085  16.9969105  )

     number of k points=    20  Fermi-Dirac smearing, width (Ry)=  0.0110
                       cart. coord. in units 2pi/alat
        k(    1) = (   0.0000000   0.0000000   0.0000000), wk =   0.0555556
        k(    2) = (   0.0000000   0.0356443   0.0000000), wk =   0.1111111
        k(    3) = (   0.0000000   0.0712887   0.0000000), wk =   0.1111111
        k(    4) = (   0.0000000  -0.1069330   0.0000000), wk =   0.0555556
        k(    5) = (   0.0308689  -0.0178222   0.0000000), wk =   0.1111111
        k(    6) = (   0.0308689   0.0178222   0.0000000), wk =   0.1111111
        k(    7) = (   0.0308689   0.0534665   0.0000000), wk =   0.1111111
        k(    8) = (   0.0308689  -0.1247552   0.0000000), wk =   0.1111111
        k(    9) = (   0.0308689  -0.0891108   0.0000000), wk =   0.1111111
        k(   10) = (   0.0308689  -0.0534665   0.0000000), wk =   0.1111111
        k(   11) = (   0.0617378  -0.0356443   0.0000000), wk =   0.1111111
        k(   12) = (   0.0617378   0.0000000   0.0000000), wk =   0.1111111
        k(   13) = (   0.0617378   0.0356443   0.0000000), wk =   0.1111111
        k(   14) = (   0.0617378  -0.1425773   0.0000000), wk =   0.1111111
        k(   15) = (   0.0617378  -0.1069330   0.0000000), wk =   0.1111111
        k(   16) = (   0.0617378  -0.0712887   0.0000000), wk =   0.1111111
        k(   17) = (  -0.0926067   0.0534665   0.0000000), wk =   0.0555556
        k(   18) = (  -0.0926067   0.0891108   0.0000000), wk =   0.1111111
        k(   19) = (  -0.0926067   0.1247552   0.0000000), wk =   0.1111111
        k(   20) = (  -0.0926067  -0.0534665   0.0000000), wk =   0.0555556

     Largest allocated arrays     est. size (Mb)     dimensions
     Largest temporary arrays     est. size (Mb)     dimensions

     Check: negative/imaginary core charge=   -0.000001    0.000000

     Initial potential from superposition of free atoms
     Check: negative starting charge=   -0.011536

     starting charge  160.98522, renormalised to  161.00000

     negative rho (up, down):  1.154E-02 0.000E+00

     *
     * You are using vdW-DF for exchange-correlation in this calculation.
     * Please cite the following three references that made this development
     * possible:
     *
     *   M. Dion, H. Rydberg, E. Schroder, D. C. Langreth, and
     *   B. I. Lundqvist, Phys. Rev. Lett. 92, 246401 (2004).
     *
     *   T. Thonhauser, V. R. Cooper, S. Li, A. Puzder, P. Hyldgaard, and
     *   D. C. Langreth, Phys. Rev. B 76, 125112 (2007).
     *
     *   G. Roman-Perez and J. M. Soler, Phys. Rev. Lett. 103, 096102 (2009).
     *
     *
     * If you are using vdW-DF2, please also cite:
     *
     *   K. Lee, E. D. Murray, L. Kong, B. I. Lundqvist, and
     *   D. C. Langreth, Phys. Rev. B 82, 081101(R) (2010).
     *
     *
     * If you are calculating the stress with vdW-DF, please also cite:
     *
     *   R. Sabatini, E. Kucukbenli, B. Kolb, T. Thonhauser, and
     *   S. de Gironcoli, J. Phys.: Condens. Matter 24, 424209 (2012).
     *

     Carrying out vdW-DF run using the following parameters:

     Nqs =      20    Nr_points =    1024   r_max =   100.000
     q_mesh =
               0.00001000     0.04494208     0.09755937     0.15916263
               0.23128650     0.31572767     0.41458969     0.53033537
               0.66584808     0.82450364     1.01025438     1.22772762
               1.48234092     1.78043706     2.12944203     2.53805004
               3.01644009     3.57652955     4.23227104     5.00000000

     Gradients computed in reciprocal space

     Adding external electric field

     Computed dipole along edir(3) :
        Dipole               -0.0030 Ry au,         -0.0077 Debye
        Dipole field         -0.0000 Ry au

        Potential amp.        0.0008 Ry
        Total length         44.9721 bohr

     Starting wfc are  125 randomized atomic wfcs

     Self-consistent Calculation

     iteration #  1     ecut=    36.75 Ry     beta=0.30
     Davidson diagonalization with overlap
     ethr =  1.00E-02,  avg # of iterations =  2.2

[...]

     total energy              =   -1756.42052888 Ry
     Harris-Foulkes estimate   =   -1762.35851201 Ry
     estimated scf accuracy    <      12.31996757 Ry

[...]

     iteration # 17     ecut=    36.75 Ry     beta=0.30
     Davidson diagonalization with overlap
     c_bands:  1 eigenvalues not converged
     ethr =  1.05E-05,  avg # of iterations =  2.6

[...]

     End of self-consistent calculation

          k = 0.0000 0.0000 0.0000 ( 15569 PWs)   bands (ev):

   -63.1437 -63.0769 -63.0184 -63.0116 -63.0016 -63.0014 -62.9781 -62.9766
   -62.9764 -62.9327 -62.9318 -62.9280 -37.2306 -37.2305 -37.2219 -37.1806
   -37.1747 -37.1747 -37.1598 -37.0908 -37.0905 -37.0866 -36.9353 -36.8678
   -36.8266 -36.8263 -36.8071 -36.8066 -36.8031 -36.7479 -36.7306 -36.7304
   -36.6681 -36.6637 -36.6636 -36.6633 -36.6482 -36.6481 -36.6179 -36.5866
   -36.5826 -36.5823 -36.5703 -36.5702 -36.5190 -36.5190 -36.4597 -36.4597
    -9.4941  -5.0046  -4.0500  -2.8964  -2.1323  -1.8964  -1.8963  -1.8290
    -1.8290  -1.7717  -1.4889  -1.2724  -1.2723  -1.1233  -1.1233  -1.1212
    -0.7916  -0.5064  -0.5063   0.0247   0.1830   0.1831   0.6425   0.8501
     0.8501   0.9812   1.0251   1.3017   1.3116   1.3116   1.4521   1.4632
     1.4632   1.5151   1.5152   1.5624   1.5938   1.5938   1.8028   1.8028
     1.9767   2.2472

[...]

          k =-0.0926 0.0535 0.0000 ( 15660 PWs)   bands (ev):

[...]

     the Fermi energy is     1.1747 ev

!    total energy              =   -1761.65603823 Ry
     Harris-Foulkes estimate   =   -1761.65604349 Ry
     estimated scf accuracy    <       0.00000524 Ry

     The total energy is the sum of the following terms:

     one-electron contribution =  -15256.45794773 Ry
     hartree contribution      =    7617.77641173 Ry
     xc contribution           =    -248.58744510 Ry
     ewald contribution        =    6125.75454317 Ry
     electric field correction =       0.00000642 Ry
     smearing contrib. (-TS)   =      -0.14160671 Ry

     convergence has been achieved in  28 iterations

 BEEF-vdW xc energy contributions
           1 :   -214.125279563801
           2 :    192.144257300736
           3 :   -155.866453590740
           4 :    116.712281509686
           5 :   -84.6035305036879
           6 :    64.2397649875186
           7 :   -54.4668574798692
           8 :    50.4875373566514
           9 :   -47.2539687720405
          10 :    42.0538054908147
          11 :   -35.1455003096142
          12 :    28.5753447837945
          13 :   -24.2816803967484
          14 :    22.7389990552946
          15 :   -22.8356737867654
          16 :    22.8151050143426
          17 :   -21.4990643040203
          18 :    18.9517712833799
          19 :   -16.2283688007141
          20 :    14.4919713477231
          21 :   -14.1720858513448
          22 :    14.7291907487103
          23 :   -15.1195432531783
          24 :    14.5617267832734
          25 :   -13.0468899611870
          26 :    11.2676440485257
          27 :   -10.0735047068531
          28 :    9.87031701365669
          29 :   -10.3794102284897
          30 :    10.8859648636551
          31 :   -22.2934682421418
          32 :   -16.0914624649084

     Forces acting on atoms (Ry/au):

     negative rho (up, down):  1.548E-02 0.000E+00
     atom    1 type  1   force =     0.00060335    0.00033873   -0.00071660
     atom    2 type  1   force =    -0.00060957    0.00034130   -0.00071823
     atom    3 type  1   force =     0.00001337   -0.00068519   -0.00073102
     atom    4 type  1   force =    -0.00001068    0.00001053   -0.00246193
     atom    5 type  1   force =     0.00000160   -0.00271184   -0.00254914
     atom    6 type  1   force =    -0.00000277    0.00000753   -0.00175277
     atom    7 type  1   force =     0.00235937    0.00134876   -0.00253777
     atom    8 type  1   force =    -0.00235929    0.00135699   -0.00256018
     atom    9 type  1   force =     0.00001173   -0.00001330   -0.00685112
     atom   10 type  1   force =    -0.00001603    0.01517592    0.04251290
     atom   11 type  1   force =     0.01315467   -0.00758917    0.04254405
     atom   12 type  1   force =    -0.01315283   -0.00758249    0.04255471
     atom   13 type  2   force =     0.00000843    0.00000223   -0.09748006
     atom   14 type  3   force =    -0.00000134    0.00000002   -0.00925282

     Total force =     0.125517     Total SCF correction =     0.006964

     entering subroutine stress ...

     negative rho (up, down):  1.548E-02 0.000E+00
          total   stress  (Ry/bohr**3)                   (kbar)     P=  -22.70
  -0.00019641  -0.00000000   0.00000001        -28.89     -0.00      0.00
  -0.00000000  -0.00019642   0.00000000         -0.00    -28.89      0.00
   0.00000001   0.00000000  -0.00007001          0.00      0.00    -10.30

     BFGS Geometry Optimization

     number of scf cycles    =   1
     number of bfgs steps    =   0

     energy   new            =   -1761.6560382272 Ry

     new trust radius        =       0.0974800596 bohr
     new conv_thr            =       0.0000099958 Ry

ATOMIC_POSITIONS (crystal)
V1       0.166666667   0.166666667   0.409694847    0   0   0
V1       0.666666667   0.166666667   0.409694847    0   0   0
V1       0.166666667   0.666666667   0.409694847    0   0   0
V1       0.666666667   0.666666667   0.409694847    0   0   0
V1       0.833333333   0.333333333   0.500000000    0   0   0
V1       0.333333333   0.333333333   0.500000000    0   0   0
V1       0.833333333   0.833333333   0.500000000    0   0   0
V1       0.333333333   0.833333333   0.500000000    0   0   0
V1       0.000001903  -0.000001506   0.590156620
V1       0.499139677   0.001717504   0.591226838
V1       0.001718743   0.499141111   0.591227513
V1       0.499139948   0.499141867   0.591227744
C1       0.333334033   0.333333586   0.649174852
H1       0.333333201   0.333333335   0.696154062

     Writing output data file calc.save
     Check: negative starting charge=   -0.011536
     NEW-OLD atomic charge density approx. for the potential

     Check: negative/imaginary core charge=   -0.000001    0.000000
     Check: negative starting charge=   -0.011221

[...]

     energy   old            =   -1761.6560382272 Ry
     energy   new            =   -1761.6671779265 Ry

     CASE: energy  _new < energy  _old

[...]

     iteration #  1     ecut=    36.75 Ry     beta=0.30
     Davidson diagonalization with overlap
     c_bands:  1 eigenvalues not converged
     ethr =  1.00E-06,  avg # of iterations = 13.2

[...]

     Total force =     0.007034     Total SCF correction =     0.000503

[...]

     number of scf cycles    =  12
     number of bfgs steps    =  11

     energy   old            =   -1761.6948711492 Ry
     energy   new            =   -1761.6951547716 Ry

     CASE: energy  _new < energy  _old

     new trust radius        =       0.0062459546 bohr
     new conv_thr            =       0.0000001000 Ry

ATOMIC_POSITIONS (crystal)
V1       0.166666667   0.166666667   0.409694847    0   0   0
V1       0.666666667   0.166666667   0.409694847    0   0   0
V1       0.166666667   0.666666667   0.409694847    0   0   0
V1       0.666666667   0.666666667   0.409694847    0   0   0
V1       0.833333333   0.333333333   0.500000000    0   0   0
V1       0.333333333   0.333333333   0.500000000    0   0   0
V1       0.833333333   0.833333333   0.500000000    0   0   0
V1       0.333333333   0.833333333   0.500000000    0   0   0
V1      -0.000005440   0.000003061   0.574624358
V1       0.501518547  -0.003038042   0.593708603
V1      -0.003040550   0.501520461   0.593709049
V1       0.501518936   0.501520653   0.593708514
C1       0.333330683   0.333333923   0.643874636
H1       0.333334749   0.333330781   0.688983917

     Writing output data file calc.save
     Check: negative starting charge=   -0.011508
     NEW-OLD atomic charge density approx. for the potential

     Check: negative/imaginary core charge=   -0.000001    0.000000
     Check: negative starting charge=   -0.011521

[...]

     Self-consistent Calculation

[...]

     Threshold (ethr) on eigenvalues was too large:
     Diagonalizing with lowered threshold

     Davidson diagonalization with overlap
     ethr =  4.93E-08,  avg # of iterations =  2.0

[...]

     total energy              =   -1761.69517692 Ry
     Harris-Foulkes estimate   =   -1761.69517693 Ry
     estimated scf accuracy    <       0.00000012 Ry

     iteration # 14     ecut=    36.75 Ry     beta=0.30
     Davidson diagonalization with overlap
     ethr =  7.30E-11,  avg # of iterations =  5.9

[...]

     negative rho (up, down):  1.563E-02 0.000E+00

     Adding external electric field

     Computed dipole along edir(3) :
        Dipole                0.0878 Ry au,          0.2232 Debye
        Dipole field          0.0003 Ry au

        Potential amp.       -0.0239 Ry
        Total length         44.9721 bohr

     End of self-consistent calculation

[...]

          k = 0.0617-0.0713 0.0000 ( 15642 PWs)   bands (ev):

[...]

          k =-0.0926-0.0535 0.0000 ( 15660 PWs)   bands (ev):

   -63.0110 -62.9863 -62.9664 -62.9513 -62.9324 -62.9310 -62.9095 -62.8944
   -62.8942 -62.8739 -62.8603 -62.6280 -37.0991 -37.0322 -37.0285 -36.9991
   -36.9988 -36.9944 -36.9491 -36.9182 -36.8994 -36.8856 -36.8777 -36.8431
   -36.8025 -36.7557 -36.7532 -36.7513 -36.7313 -36.7302 -36.7153 -36.6988
   -36.6954 -36.6831 -36.6676 -36.6641 -36.6322 -36.6074 -36.5908 -36.5882
   -36.5684 -36.5516 -36.5092 -36.4751 -36.4670 -36.3143 -36.2615 -36.2334
    -9.5953  -4.0452  -3.1829  -2.9757  -2.1192  -1.6745  -1.3386  -1.3084
    -1.1452  -1.1098  -1.0127  -0.9670  -0.7666  -0.5963  -0.4044  -0.3766
    -0.2489  -0.2157  -0.0860   0.0055   0.1006   0.2706   0.3465   0.3628
     0.3922   0.5585   0.6006   0.7538   0.7686   0.8155   0.8441   0.8965
     0.9814   1.0173   1.2003   1.3888   1.3931   1.3971   1.5730   1.6796
     1.8620   2.0399

     the Fermi energy is     1.2112 ev

!    total energy              =   -1761.69517691 Ry
     Harris-Foulkes estimate   =   -1761.69517725 Ry
     estimated scf accuracy    <       0.00000003 Ry

     The total energy is the sum of the following terms:

     one-electron contribution =  -15362.26078630 Ry
     hartree contribution      =    7671.20741943 Ry
     xc contribution           =    -248.85640762 Ry
     ewald contribution        =    6178.34441644 Ry
     electric field correction =       0.00002330 Ry
     smearing contrib. (-TS)   =      -0.12984215 Ry

     convergence has been achieved in  14 iterations

 BEEF-vdW xc energy contributions
           1 :   -214.392438419617
           2 :    192.459358572373
           3 :   -156.224750571762
           4 :    117.046651603271
           5 :   -84.8172908216592
           6 :    64.2607057634854
           7 :   -54.2951371312405
           8 :    50.2047428654820
           9 :   -46.9819771372654
          10 :    41.8832253574687
          11 :   -35.0778053704259
          12 :    28.5209139666363
          13 :   -24.1210288914817
          14 :    22.4084261095255
          15 :   -22.3768195875422
          16 :    22.3530659304078
          17 :   -21.1660142800836
          18 :    18.8087232458807
          19 :   -16.2338542165029
          20 :    14.5325635330398
          21 :   -14.1325416815691
          22 :    14.5598530660765
          23 :   -14.8624572466069
          24 :    14.3207328441748
          25 :   -12.9193034825929
          26 :    11.2787692305493
          27 :   -10.1575780071505
          28 :    9.91325708468580
          29 :   -10.2958752101009
          30 :    10.6769620922182
          31 :   -22.3105734235896
          32 :   -16.1148164088231

     Forces acting on atoms (Ry/au):

     negative rho (up, down):  1.563E-02 0.000E+00
     atom    1 type  1   force =     0.00022412    0.00012875   -0.00024442
     atom    2 type  1   force =    -0.00022380    0.00012853   -0.00024268
     atom    3 type  1   force =    -0.00000008   -0.00025723   -0.00024139
     atom    4 type  1   force =     0.00000027    0.00000085    0.00129554
     atom    5 type  1   force =     0.00000180    0.02413346   -0.01016720
     atom    6 type  1   force =    -0.00000048   -0.00000074    0.03052577
     atom    7 type  1   force =    -0.02090199   -0.01206786   -0.01016410
     atom    8 type  1   force =     0.02090048   -0.01206555   -0.01016368
     atom    9 type  1   force =     0.00000106   -0.00000393    0.00015248
     atom   10 type  1   force =    -0.00000071   -0.00026572   -0.00019704
     atom   11 type  1   force =    -0.00023015    0.00013578   -0.00019966
     atom   12 type  1   force =     0.00023029    0.00013638   -0.00020149
     atom   13 type  2   force =    -0.00000074   -0.00000325    0.00053203
     atom   14 type  3   force =    -0.00000005    0.00000055   -0.00068418

     Total force =     0.001052     Total SCF correction =     0.000214
     SCF correction compared to forces is large: reduce conv_thr to get better values

     entering subroutine stress ...

     negative rho (up, down):  1.563E-02 0.000E+00
          total   stress  (Ry/bohr**3)                   (kbar)     P=  -10.83
  -0.00010612   0.00000001  -0.00000000        -15.61      0.00     -0.00
   0.00000001  -0.00010613  -0.00000000          0.00    -15.61     -0.00
  -0.00000000  -0.00000000  -0.00000863         -0.00     -0.00     -1.27

     bfgs converged in  13 scf cycles and  12 bfgs steps
     (criteria: energy <  1.0E+00, force <  1.9E-03)

     End of BFGS Geometry Optimization

     Final energy   =   -1761.6951769059 Ry
Begin final coordinates

ATOMIC_POSITIONS (crystal)
V1       0.166666667   0.166666667   0.409694847    0   0   0
V1       0.666666667   0.166666667   0.409694847    0   0   0
V1       0.166666667   0.666666667   0.409694847    0   0   0
V1       0.666666667   0.666666667   0.409694847    0   0   0
V1       0.833333333   0.333333333   0.500000000    0   0   0
V1       0.333333333   0.333333333   0.500000000    0   0   0
V1       0.833333333   0.833333333   0.500000000    0   0   0
V1       0.333333333   0.833333333   0.500000000    0   0   0
V1      -0.000005440   0.000003061   0.574624358
V1       0.501518547  -0.003038042   0.593708603
V1      -0.003040550   0.501520461   0.593709049
V1       0.501518936   0.501520653   0.593708514
C1       0.333330683   0.333333923   0.643874636
H1       0.333334749   0.333330781   0.688983917
End final coordinates

     Writing output data file calc.save

     General routines

     Parallel routines

   This run was terminated on:  11:34:48  24Apr2018

   JOB DONE.
Job  /afs/slac/g/suncat/bin/suncat-tsmpirun -x LD_LIBRARY_PATH -wdir /scratch/qe719195_JO8pt pw.x -npool 4 -in pw.inp

TID   HOST_NAME   COMMAND_LINE            STATUS            TERMINATION_TIME
00000 suncat0165 pw.x -npool 4 -i  Done                     04/24/2018 11:34:48
00001 suncat0165 pw.x -npool 4 -i  Done                     04/24/2018 11:34:48
00002 suncat0165 pw.x -npool 4 -i  Done                     04/24/2018 11:34:48
00003 suncat0165 pw.x -npool 4 -i  Done                     04/24/2018 11:34:48
00004 suncat0165 pw.x -npool 4 -i  Done                     04/24/2018 11:34:48
00005 suncat0165 pw.x -npool 4 -i  Done                     04/24/2018 11:34:48
00006 suncat0165 pw.x -npool 4 -i  Done                     04/24/2018 11:34:48
00007 suncat0165 pw.x -npool 4 -i  Done                     04/24/2018 11:34:48
00008 suncat0115 pw.x -npool 4 -i  Done                     04/24/2018 11:34:48
00009 suncat0115 pw.x -npool 4 -i  Done                     04/24/2018 11:34:48
00010 suncat0115 pw.x -npool 4 -i  Done                     04/24/2018 11:34:48
00011 suncat0115 pw.x -npool 4 -i  Done                     04/24/2018 11:34:48
00012 suncat0115 pw.x -npool 4 -i  Done                     04/24/2018 11:34:48
00013 suncat0115 pw.x -npool 4 -i  Done                     04/24/2018 11:34:48
00014 suncat0115 pw.x -npool 4 -i  Done                     04/24/2018 11:34:48
00015 suncat0115 pw.x -npool 4 -i  Done                     04/24/2018 11:34:48
00016 suncat0249 pw.x -npool 4 -i  Done                     04/24/2018 11:34:48
00017 suncat0249 pw.x -npool 4 -i  Done                     04/24/2018 11:34:48
00018 suncat0249 pw.x -npool 4 -i  Done                     04/24/2018 11:34:48
00019 suncat0249 pw.x -npool 4 -i  Done                     04/24/2018 11:34:48
00020 suncat0249 pw.x -npool 4 -i  Done                     04/24/2018 11:34:48
00021 suncat0249 pw.x -npool 4 -i  Done                     04/24/2018 11:34:48
00022 suncat0249 pw.x -npool 4 -i  Done                     04/24/2018 11:34:48
00023 suncat0249 pw.x -npool 4 -i  Done                     04/24/2018 11:34:48
00024 suncat0240 pw.x -npool 4 -i  Done                     04/24/2018 11:34:48
00025 suncat0240 pw.x -npool 4 -i  Done                     04/24/2018 11:34:48
00026 suncat0240 pw.x -npool 4 -i  Done                     04/24/2018 11:34:48
00027 suncat0240 pw.x -npool 4 -i  Done                     04/24/2018 11:34:48
00028 suncat0240 pw.x -npool 4 -i  Done                     04/24/2018 11:34:48
00029 suncat0240 pw.x -npool 4 -i  Done                     04/24/2018 11:34:48
00030 suncat0240 pw.x -npool 4 -i  Done                     04/24/2018 11:34:48
00031 suncat0240 pw.x -npool 4 -i  Done                     04/24/2018 11:34:48