     Program PWSCF v.6.1 starts on  7Jan2019 at 19:53:54

     Current dimensions of program PWSCF are:
     Max number of different atomic species (ntypx) = 10
     Max number of k-points (npk) =  40000
     Max angular momentum in pseudopotentials (lmaxx) =  3

     IMPORTANT: XC functional enforced from input :
     Exchange-correlation      = BEEF-VDW ( 1  4 29 14 2 0)
     Any further DFT definition will be discarded
     Please, verify this is what you really want

     bravais-lattice index     =            0
     lattice parameter (alat)  =      13.1573  a.u.
     unit-cell volume          =    7276.7661 (a.u.)^3
     number of atoms/cell      =           13
     number of atomic types    =            2
     number of electrons       =       186.00
     number of Kohn-Sham states=          103
     kinetic-energy cutoff     =      36.7493  Ry
     charge density cutoff     =     367.4933  Ry
     convergence threshold     =      1.0E-04
     mixing beta               =       0.2000
     number of iterations used =            8  plain     mixing
     Exchange-correlation      = BEEF-VDW ( 1  4 29 14 2 0)
     nstep                     =           50

     celldm(1)=  13.157267  celldm(2)=   0.000000  celldm(3)=   0.000000
     celldm(4)=   0.000000  celldm(5)=   0.000000  celldm(6)=   0.000000

     crystal axes: (cart. coord. in units of alat)
               a(1) = (   1.000000   0.000000   0.000000 )
               a(2) = (   0.500000   0.866025   0.000000 )
               a(3) = (   0.000000   0.000000   3.689017 )

     reciprocal axes: (cart. coord. in units 2 pi/alat)
               b(1) = (  1.000000 -0.577350  0.000000 )
               b(2) = (  0.000000  1.154701  0.000000 )
               b(3) = (  0.000000  0.000000  0.271075 )

     PseudoPot. # 1 for Bi read from file:
     /home/users/jrboes/code/decaf-espresso/gbrv15pbe/Bi.UPF
     MD5 check sum: 81103212dc04adf40945787f699eab19
     Pseudo is Ultrasoft + core correction, Zval = 15.0
     Generated by new atomic code, or converted to UPF format
     Using radial grid of  899 points,  6 beta functions with:
                l(1) =   0
                l(2) =   0
                l(3) =   1
                l(4) =   1
                l(5) =   2
                l(6) =   2
     Q(r) pseudized with  6 coefficients,  rinner =    1.000   1.000   1.000
                                                       1.000   1.000

     PseudoPot. # 2 for O  read from file:
     /home/users/jrboes/code/decaf-espresso/gbrv15pbe/O.UPF
     MD5 check sum: 734c27235a0248c51dbae37a1fbe46ec
     Pseudo is Ultrasoft + core correction, Zval =  6.0
     Generated by new atomic code, or converted to UPF format
     Using radial grid of  737 points,  5 beta functions with:
                l(1) =   0
                l(2) =   0
                l(3) =   1
                l(4) =   1
                l(5) =   2
     Q(r) pseudized with  8 coefficients,  rinner =    0.900   0.900   0.900
                                                       0.900   0.900

     vdW kernel table read from file vdW_kernel_table
     MD5 check sum: 095c7af220d748ca6e76c0b4c6cfb241

     atomic species   valence    mass     pseudopotential
        Bi            15.00   208.98040     Bi( 1.00)
        O              6.00    15.99900     O ( 1.00)

     No symmetry found

   Cartesian axes

     site n.     atom                  positions (alat units)
         1           Bi  tau(   1) = (   0.2500000   0.1443376   1.4362603  )
         2           Bi  tau(   2) = (   0.7500000   0.1443376   1.4362603  )
         3           Bi  tau(   3) = (   0.5000000   0.5773503   1.4362603  )
         4           Bi  tau(   4) = (   1.0000000   0.5773503   1.4362603  )
         5           Bi  tau(   5) = (   1.0000000   0.2886751   1.8445086  )
         6           Bi  tau(   6) = (   0.5000000   0.2886751   1.8445086  )
         7           Bi  tau(   7) = (   1.2500000   0.7216878   1.8445086  )
         8           Bi  tau(   8) = (   0.7500000   0.7216878   1.8445086  )
         9           Bi  tau(   9) = (   0.0202803  -0.0032229   2.3112439  )
        10           Bi  tau(  10) = (   0.4796675  -0.0032515   2.3112469  )
        11           Bi  tau(  11) = (   0.2499936   0.4945683   2.2945075  )
        12           Bi  tau(  12) = (   0.7499628   0.3765336   2.2647296  )
        13           O   tau(  13) = (   0.2499863  -0.0031374   2.5213133  )

     number of k points=    20  Fermi-Dirac smearing, width (Ry)=  0.0110
                       cart. coord. in units 2pi/alat
        k(    1) = (   0.0000000   0.0000000   0.0000000), wk =   0.0555556
        k(    2) = (   0.0000000   0.1924501   0.0000000), wk =   0.1111111
        k(    3) = (   0.0000000   0.3849002   0.0000000), wk =   0.1111111
        k(    4) = (   0.0000000  -0.5773503   0.0000000), wk =   0.0555556
        k(    5) = (   0.1666667  -0.0962250   0.0000000), wk =   0.1111111
        k(    6) = (   0.1666667   0.0962250   0.0000000), wk =   0.1111111
        k(    7) = (   0.1666667   0.2886751   0.0000000), wk =   0.1111111
        k(    8) = (   0.1666667  -0.6735753   0.0000000), wk =   0.1111111
        k(    9) = (   0.1666667  -0.4811252   0.0000000), wk =   0.1111111
        k(   10) = (   0.1666667  -0.2886751   0.0000000), wk =   0.1111111
        k(   11) = (   0.3333333  -0.1924501   0.0000000), wk =   0.1111111
        k(   12) = (   0.3333333   0.0000000   0.0000000), wk =   0.1111111
        k(   13) = (   0.3333333   0.1924501   0.0000000), wk =   0.1111111
        k(   14) = (   0.3333333  -0.7698004   0.0000000), wk =   0.1111111
        k(   15) = (   0.3333333  -0.5773503   0.0000000), wk =   0.1111111
        k(   16) = (   0.3333333  -0.3849002   0.0000000), wk =   0.1111111
        k(   17) = (  -0.5000000   0.2886751   0.0000000), wk =   0.0555556
        k(   18) = (  -0.5000000   0.4811252   0.0000000), wk =   0.1111111
        k(   19) = (  -0.5000000   0.6735753   0.0000000), wk =   0.1111111
        k(   20) = (  -0.5000000  -0.2886751   0.0000000), wk =   0.0555556

     Check: negative/imaginary core charge=   -0.000001    0.000000

     Initial potential from superposition of free atoms
     Check: negative starting charge=   -0.502691

     starting charge  173.99950, renormalised to  186.00000

     negative rho (up, down):  5.374E-01 0.000E+00

     %%%%%%%%%%%%%%%%%%%%%%%%%%%%%%%%%%%%%%%%%%%%%%%%%%%%%%%%%%%%%%%%%%%%%%%%
     %                                                                      %
     % You are using vdW-DF, which was implemented by the Thonhauser group. %
     % Please cite the following two papers that made this development      %
     % possible and the two reviews that describe the various versions:     %
     %                                                                      %
     %   T. Thonhauser et al., PRL 115, 136402 (2015).                      %
     %   T. Thonhauser et al., PRB 76, 125112 (2007).                       %
     %   K. Berland et al., Rep. Prog. Phys. 78, 066501 (2015).             %
     %   D.C. Langreth et al., J. Phys.: Condens. Matter 21, 084203 (2009). %
     %                                                                      %
     %                                                                      %
     % If you are calculating the stress with vdW-DF, please also cite:     %
     %                                                                      %
     %   R. Sabatini et al., J. Phys.: Condens. Matter 24, 424209 (2012).   %
     %                                                                      %
     %%%%%%%%%%%%%%%%%%%%%%%%%%%%%%%%%%%%%%%%%%%%%%%%%%%%%%%%%%%%%%%%%%%%%%%%

     Adding external electric field

     Computed dipole along edir(3) :
        Dipole               -3.6075 Ry au,         -9.1693 Debye
        Dipole field         -0.0062 Ry au,

        Potential amp.        0.5443 Ry
        Total length         43.6836 bohr

     Starting wfc are  112 randomized atomic wfcs

     Self-consistent Calculation

     iteration #  1     ecut=    36.75 Ry     beta=0.20
     Davidson diagonalization with overlap
     ethr =  1.00E-02,  avg # of iterations =  7.0

[...]

     total energy              =   -2241.91873568 Ry
     Harris-Foulkes estimate   =   -2282.44574291 Ry
     estimated scf accuracy    <     118.55173941 Ry

[...]

     End of self-consistent calculation

          k = 0.0000 0.0000 0.0000 ( 27441 PWs)   bands (ev):

   -22.7198 -22.7150 -22.7121 -22.7081 -22.6635 -22.6610 -22.6599 -22.6557
   -22.6464 -22.6431 -22.6073 -22.6004 -22.5980 -22.5904 -22.5785 -22.5772
   -22.5647 -22.5474 -22.5419 -22.5392 -22.5356 -22.5300 -22.5282 -22.5268
   -22.5206 -22.5188 -22.5159 -22.4989 -22.4973 -22.4943 -22.4852 -22.4840
   -22.4815 -22.4792 -22.4739 -22.4513 -22.4425 -22.4319 -22.4102 -22.4035
   -22.4003 -22.3886 -22.3786 -22.3777 -22.3750 -22.3615 -22.3529 -22.3512
   -22.3446 -22.3391 -22.2791 -22.2577 -22.2476 -22.2404 -22.2336 -22.1778
   -22.1743 -22.1554 -22.1510 -22.1497 -16.6803 -12.3388 -11.2121 -10.4252
    -9.6379  -9.6194  -9.5857  -9.3522  -9.1338  -8.9725  -8.9001  -8.7477
    -8.5130  -3.8629  -3.8188  -3.7962  -3.3977  -3.2049  -3.1473  -3.0780
    -2.9491  -2.8853  -2.7116  -2.3501  -1.0006  -0.8156  -0.5006   0.3104
     0.5533   0.7822   1.0230   1.2717   1.5398   1.9425   1.9565   2.0267
     2.1425   2.5453   2.5915   3.0008   3.2588   3.5249   3.5583

[...]

          k =-0.5000 0.2887 0.0000 ( 27378 PWs)   bands (ev):

[...]

     the Fermi energy is     1.0011 ev

!    total energy              =   -2278.34653720 Ry
     Harris-Foulkes estimate   =   -2278.34673164 Ry
     estimated scf accuracy    <       0.00006720 Ry

     The total energy is the sum of the following terms:

     one-electron contribution =  -10554.01010481 Ry
     hartree contribution      =    5332.53075199 Ry
     xc contribution           =    -806.42146699 Ry
     ewald contribution        =    3749.60451723 Ry
     electric field correction =       0.00034971 Ry
     smearing contrib. (-TS)   =      -0.05058433 Ry

     convergence has been achieved in  14 iterations

[...]

     Forces acting on atoms (cartesian axes, Ry/au):

     atom    1 type  1   force =    -0.00001108    0.00321838    0.00040064
     atom    2 type  1   force =     0.00000785   -0.00364852    0.00383710
     atom    3 type  1   force =     0.00275591    0.00003461    0.00060290
     atom    4 type  1   force =    -0.00274194    0.00004754    0.00056533
     atom    5 type  1   force =     0.00472334   -0.00034137    0.00184538
     atom    6 type  1   force =    -0.00470570   -0.00031704    0.00183994
     atom    7 type  1   force =    -0.00000043   -0.00421584    0.01259948
     atom    8 type  1   force =    -0.00001628    0.00517794    0.00298149
     atom    9 type  1   force =     0.00011894   -0.00028891   -0.00559331
     atom   10 type  1   force =    -0.00012254   -0.00027105   -0.00560836
     atom   11 type  1   force =     0.00002310   -0.00087653   -0.00677888
     atom   12 type  1   force =    -0.00000649    0.00161907   -0.00453190
     atom   13 type  2   force =    -0.00002468   -0.00013829   -0.00215981

     Total force =     0.011726     Total SCF correction =     0.013313
     SCF correction compared to forces is large: reduce conv_thr to get better values

     BFGS Geometry Optimization

     number of scf cycles    =   1
     number of bfgs steps    =   0

     energy   new            =   -2278.3465372025 Ry

     new trust radius        =       0.0068353565 bohr
     new conv_thr            =       0.0001000000 Ry

ATOMIC_POSITIONS (angstrom)
Bi       1.740631498   1.004954064  10.000000000    0   0   0
Bi       5.221894494   1.004954064  10.000000000    0   0   0
Bi       3.481262996   4.019816256  10.000000000    0   0   0
Bi       6.962525992   4.019816256  10.000000000    0   0   0
Bi       6.962525992   2.009908128  12.842439334    0   0   0
Bi       3.481262996   2.009908128  12.842439334    0   0   0
Bi       8.703157491   5.024770320  12.842439334    0   0   0
Bi       5.221894494   5.024770320  12.842439334    0   0   0
Bi       0.141264831  -0.022592231  16.089135931
Bi       3.339632714  -0.022782016  16.089149050
Bi       1.740599088   3.442980515  15.971980546
Bi       5.221632081   2.622482100  15.765840872
O        1.740522772  -0.021917533  17.553566565

     Writing output data file calc.save
     Check: negative starting charge=   -0.502691
     NEW-OLD atomic charge density approx. for the potential

     Check: negative/imaginary core charge=   -0.000001    0.000000
     Check: negative starting charge=   -0.502727

[...]

     energy   old            =   -2278.3465372025 Ry
     energy   new            =   -2278.3465367568 Ry

     CASE: energy  _new > energy  _old

[...]

     CASE: energy  _new < energy  _old

[...]

     number of scf cycles    =   4
     number of bfgs steps    =   2

     energy   old            =   -2278.3465559852 Ry
     energy   new            =   -2278.3465500457 Ry

     CASE: energy  _new > energy  _old

     new trust radius        =       0.0018694630 bohr
     new conv_thr            =       0.0000010000 Ry

ATOMIC_POSITIONS (angstrom)
Bi       1.740631498   1.004954064  10.000000000    0   0   0
Bi       5.221894494   1.004954064  10.000000000    0   0   0
Bi       3.481262996   4.019816256  10.000000000    0   0   0
Bi       6.962525992   4.019816256  10.000000000    0   0   0
Bi       6.962525992   2.009908128  12.842439334    0   0   0
Bi       3.481262996   2.009908128  12.842439334    0   0   0
Bi       8.703157491   5.024770320  12.842439334    0   0   0
Bi       5.221894494   5.024770320  12.842439334    0   0   0
Bi       0.141465175  -0.022790048  16.090151517
Bi       3.339437964  -0.022981480  16.090161873
Bi       1.740599824   3.443287956  15.972793534
Bi       5.221631133   2.622569563  15.766655495
O        1.740521463  -0.021949174  17.554106692

     Writing output data file calc.save
     Check: negative starting charge=   -0.502770
     NEW-OLD atomic charge density approx. for the potential

     Check: negative/imaginary core charge=   -0.000001    0.000000
     Check: negative starting charge=   -0.502744

[...]

     Self-consistent Calculation

[...]

     total energy              =   -2278.34655531 Ry
     Harris-Foulkes estimate   =   -2278.34655626 Ry
     estimated scf accuracy    <       0.00001096 Ry

     iteration #  4     ecut=    36.75 Ry     beta=0.20
     Davidson diagonalization with overlap
     ethr =  5.89E-09,  avg # of iterations =  3.2

[...]

     Adding external electric field

     Computed dipole along edir(3) :
        Dipole               -0.5018 Ry au,         -1.2755 Debye
        Dipole field         -0.0009 Ry au,

        Potential amp.        0.0757 Ry
        Total length         43.6836 bohr

     End of self-consistent calculation

[...]

          k = 0.3333-0.3849 0.0000 ( 27352 PWs)   bands (ev):

[...]

          k =-0.5000-0.2887 0.0000 ( 27378 PWs)   bands (ev):

   -22.6833 -22.6752 -22.6582 -22.6398 -22.6290 -22.6246 -22.6133 -22.6127
   -22.6122 -22.6099 -22.6067 -22.6050 -22.6031 -22.5901 -22.5810 -22.5492
   -22.5453 -22.5409 -22.5395 -22.5373 -22.5279 -22.5192 -22.5067 -22.5006
   -22.4942 -22.4926 -22.4894 -22.4754 -22.4735 -22.4675 -22.4623 -22.4516
   -22.4346 -22.4309 -22.4255 -22.4240 -22.4164 -22.4036 -22.4027 -22.3974
   -22.3964 -22.3885 -22.3880 -22.3853 -22.3803 -22.3767 -22.3727 -22.3593
   -22.3455 -22.3267 -22.2519 -22.2417 -22.2375 -22.2314 -22.2238 -22.1667
   -22.1644 -22.1476 -22.1400 -22.1384 -16.6518 -11.4250 -11.3422 -10.6709
   -10.2053  -9.8493  -9.7962  -9.7193  -9.5057  -9.1919  -8.8961  -8.7277
    -8.5695  -3.3151  -2.5749  -2.4529  -2.3983  -2.2952  -2.2462  -2.1355
    -2.0647  -1.9274  -1.1808  -1.0036  -0.8797  -0.7659  -0.6576  -0.5437
     0.1219   0.2265   0.3025   0.5099   0.5384   0.7894   0.8267   1.0483
     1.1474   1.2689   1.6014   1.9491   2.4451   2.7972   2.9980

     the Fermi energy is     1.0229 ev

!    total energy              =   -2278.34655633 Ry
     Harris-Foulkes estimate   =   -2278.34654466 Ry
     estimated scf accuracy    <       0.00000050 Ry

     The total energy is the sum of the following terms:

     one-electron contribution =  -10557.27810362 Ry
     hartree contribution      =    5334.32673659 Ry
     xc contribution           =    -806.43491795 Ry
     ewald contribution        =    3751.08989154 Ry
     electric field correction =       0.00043485 Ry
     smearing contrib. (-TS)   =      -0.05059773 Ry

     convergence has been achieved in   4 iterations

     negative rho (up, down):  5.260E-01 0.000E+00

     Forces acting on atoms (cartesian axes, Ry/au):

     atom    1 type  1   force =     0.00000046    0.00290958   -0.00656122
     atom    2 type  1   force =    -0.00000038   -0.00385966   -0.00322563
     atom    3 type  1   force =     0.00295614    0.00030217   -0.00648972
     atom    4 type  1   force =    -0.00295736    0.00030174   -0.00647320
     atom    5 type  1   force =     0.00425860   -0.00033647    0.00179398
     atom    6 type  1   force =    -0.00425703   -0.00033595    0.00180177
     atom    7 type  1   force =    -0.00000103   -0.00420481    0.01238339
     atom    8 type  1   force =     0.00000199    0.00522879    0.00339169
     atom    9 type  1   force =    -0.00122687   -0.00080597    0.00041341
     atom   10 type  1   force =     0.00123375   -0.00079908    0.00039361
     atom   11 type  1   force =     0.00001859    0.00021080    0.00008017
     atom   12 type  1   force =    -0.00000603    0.00160470    0.00144561
     atom   13 type  2   force =    -0.00002084   -0.00021583    0.00104615

     Total force =     0.003240     Total SCF correction =     0.004079
     SCF correction compared to forces is large: reduce conv_thr to get better values

     bfgs converged in   5 scf cycles and   2 bfgs steps
     (criteria: energy <  1.0E+12 Ry, force <  1.9E-03 Ry/Bohr)

     End of BFGS Geometry Optimization

     Final energy   =   -2278.3465563267 Ry
Begin final coordinates

ATOMIC_POSITIONS (angstrom)
Bi       1.740631498   1.004954064  10.000000000    0   0   0
Bi       5.221894494   1.004954064  10.000000000    0   0   0
Bi       3.481262996   4.019816256  10.000000000    0   0   0
Bi       6.962525992   4.019816256  10.000000000    0   0   0
Bi       6.962525992   2.009908128  12.842439334    0   0   0
Bi       3.481262996   2.009908128  12.842439334    0   0   0
Bi       8.703157491   5.024770320  12.842439334    0   0   0
Bi       5.221894494   5.024770320  12.842439334    0   0   0
Bi       0.141465175  -0.022790048  16.090151517
Bi       3.339437964  -0.022981480  16.090161873
Bi       1.740599824   3.443287956  15.972793534
Bi       5.221631133   2.622569563  15.766655495
O        1.740521463  -0.021949174  17.554106692
End final coordinates

     Writing output data file calc.save

     General routines

     Parallel routines

   This run was terminated on:  20: 3:51   7Jan2019

   JOB DONE.