     Program PWSCF v.5.1rc2 (svn rev. 11289) starts on  3May2018 at  6:41:20

     Current dimensions of program PWSCF are:
     Max number of different atomic species (ntypx) = 10
     Max number of k-points (npk) =  40000
     Max angular momentum in pseudopotentials (lmaxx) =  3
     Presently stress not available with electric field

     IMPORTANT: XC functional enforced from input :
     Exchange-correlation      = BEEF-VDW ( 1  4 27 13 2)
     Any further DFT definition will be discarded
     Please, verify this is what you really want

     Subspace diagonalization in iterative solution of the eigenvalue problem:
     a serial algorithm will be used

     bravais-lattice index     =            0
     lattice parameter (alat)  =       1.8897  a.u.
     unit-cell volume          =    5185.0501 (a.u.)^3
     number of atoms/cell      =           13
     number of atomic types    =            2
     number of electrons       =       157.00
     number of Kohn-Sham states=           88
     kinetic-energy cutoff     =      36.7493  Ry
     charge density cutoff     =     367.4932  Ry
     convergence threshold     =      1.0E-05
     mixing beta               =       0.3000
     number of iterations used =           10  plain     mixing
     Exchange-correlation      = BEEF-VDW ( 1  4 27 13 2)
     nstep                     =           50

     celldm(1)=   1.889726  celldm(2)=   0.000000  celldm(3)=   0.000000
     celldm(4)=   0.000000  celldm(5)=   0.000000  celldm(6)=   0.000000

     crystal axes: (cart. coord. in units of alat)
               a(1) = (   5.972022   0.000000   0.000000 )
               a(2) = (   2.986011   5.171923   0.000000 )
               a(3) = (   0.000000   0.000000  24.876136 )

     reciprocal axes: (cart. coord. in units 2 pi/alat)
               b(1) = (  0.167447 -0.096676  0.000000 )
               b(2) = (  0.000000  0.193352  0.000000 )
               b(3) = (  0.000000  0.000000  0.040199 )

     PseudoPot. # 1 for Ta read from file:
     /u/if/mamunm/psp/gbrv1.5pbe/Ta.UPF
     MD5 check sum: f8bbe9446314a3b8ea5d9f3e3836c939
     Pseudo is Ultrasoft + core correction, Zval = 13.0
     Generated by new atomic code, or converted to UPF format
     Using radial grid of  921 points,  7 beta functions with:
                l(1) =   0
                l(2) =   0
                l(3) =   1
                l(4) =   1
                l(5) =   2
                l(6) =   2
                l(7) =   3
     Q(r) pseudized with  6 coefficients,  rinner =    1.300   1.300   1.300
                                                       1.300   1.300   1.300
                                                       1.300

     PseudoPot. # 2 for H  read from file:
     /u/if/mamunm/psp/gbrv1.5pbe/H.UPF
     MD5 check sum: 761ae9a214b05c3daf00ab9f6b793d6f
     Pseudo is Ultrasoft, Zval =  1.0
     Generated by new atomic code, or converted to UPF format
     Using radial grid of  615 points,  2 beta functions with:
                l(1) =   0
                l(2) =   0
     Q(r) pseudized with  8 coefficients,  rinner =    0.700

     vdW kernel table read from file vdW_kernel_table
     MD5 check sum: 095c7af220d748ca6e76c0b4c6cfb241

     atomic species   valence    mass     pseudopotential
        Ta1           13.00   180.94788     Ta( 1.00)
        H1             1.00     1.00800     H ( 1.00)

     No symmetry found

   Cartesian axes

     site n.     atom                  positions (alat units)
         1           Ta1 tau(   1) = (   1.4930055   0.8619871  10.0000000  )
         2           Ta1 tau(   2) = (   4.4790165   0.8619871  10.0000000  )
         3           Ta1 tau(   3) = (   2.9860110   3.4479485  10.0000000  )
         4           Ta1 tau(   4) = (   5.9720221   3.4479485  10.0000000  )
         5           Ta1 tau(   5) = (   5.9720221   1.7239743  12.4380678  )
         6           Ta1 tau(   6) = (   2.9860110   1.7239743  12.4380678  )
         7           Ta1 tau(   7) = (   7.4650276   4.3099357  12.4380678  )
         8           Ta1 tau(   8) = (   4.4790165   4.3099357  12.4380678  )
         9           Ta1 tau(   9) = (   0.0000000   0.0000000  14.8761356  )
        10           Ta1 tau(  10) = (   2.9860110   0.0000000  14.8761356  )
        11           Ta1 tau(  11) = (   1.4930055   2.5859614  14.8761356  )
        12           Ta1 tau(  12) = (   4.4790165   2.5859614  14.8761356  )
        13           H1  tau(  13) = (   0.0000000   0.0000000  16.5846356  )

     number of k points=    20  Fermi-Dirac smearing, width (Ry)=  0.0110
                       cart. coord. in units 2pi/alat
        k(    1) = (   0.0000000   0.0000000   0.0000000), wk =   0.0555556
        k(    2) = (   0.0000000   0.0322253   0.0000000), wk =   0.1111111
        k(    3) = (   0.0000000   0.0644506   0.0000000), wk =   0.1111111
        k(    4) = (   0.0000000  -0.0966758   0.0000000), wk =   0.0555556
        k(    5) = (   0.0279079  -0.0161126   0.0000000), wk =   0.1111111
        k(    6) = (   0.0279079   0.0161126   0.0000000), wk =   0.1111111
        k(    7) = (   0.0279079   0.0483379   0.0000000), wk =   0.1111111
        k(    8) = (   0.0279079  -0.1127885   0.0000000), wk =   0.1111111
        k(    9) = (   0.0279079  -0.0805632   0.0000000), wk =   0.1111111
        k(   10) = (   0.0279079  -0.0483379   0.0000000), wk =   0.1111111
        k(   11) = (   0.0558158  -0.0322253   0.0000000), wk =   0.1111111
        k(   12) = (   0.0558158   0.0000000   0.0000000), wk =   0.1111111
        k(   13) = (   0.0558158   0.0322253   0.0000000), wk =   0.1111111
        k(   14) = (   0.0558158  -0.1289011   0.0000000), wk =   0.1111111
        k(   15) = (   0.0558158  -0.0966758   0.0000000), wk =   0.1111111
        k(   16) = (   0.0558158  -0.0644506   0.0000000), wk =   0.1111111
        k(   17) = (  -0.0837237   0.0483379   0.0000000), wk =   0.0555556
        k(   18) = (  -0.0837237   0.0805632   0.0000000), wk =   0.1111111
        k(   19) = (  -0.0837237   0.1127885   0.0000000), wk =   0.1111111
        k(   20) = (  -0.0837237  -0.0483379   0.0000000), wk =   0.0555556

     Largest allocated arrays     est. size (Mb)     dimensions
     Largest temporary arrays     est. size (Mb)     dimensions

     Initial potential from superposition of free atoms
     Check: negative starting charge=   -1.121538

     starting charge  156.98665, renormalised to  157.00000

     negative rho (up, down):  1.122E+00 0.000E+00

     *
     * You are using vdW-DF for exchange-correlation in this calculation.
     * Please cite the following three references that made this development
     * possible:
     *
     *   M. Dion, H. Rydberg, E. Schroder, D. C. Langreth, and
     *   B. I. Lundqvist, Phys. Rev. Lett. 92, 246401 (2004).
     *
     *   T. Thonhauser, V. R. Cooper, S. Li, A. Puzder, P. Hyldgaard, and
     *   D. C. Langreth, Phys. Rev. B 76, 125112 (2007).
     *
     *   G. Roman-Perez and J. M. Soler, Phys. Rev. Lett. 103, 096102 (2009).
     *
     *
     * If you are using vdW-DF2, please also cite:
     *
     *   K. Lee, E. D. Murray, L. Kong, B. I. Lundqvist, and
     *   D. C. Langreth, Phys. Rev. B 82, 081101(R) (2010).
     *
     *
     * If you are calculating the stress with vdW-DF, please also cite:
     *
     *   R. Sabatini, E. Kucukbenli, B. Kolb, T. Thonhauser, and
     *   S. de Gironcoli, J. Phys.: Condens. Matter 24, 424209 (2012).
     *

     Carrying out vdW-DF run using the following parameters:

     Nqs =      20    Nr_points =    1024   r_max =   100.000
     q_mesh =
               0.00001000     0.04494208     0.09755937     0.15916263
               0.23128650     0.31572767     0.41458969     0.53033537
               0.66584808     0.82450364     1.01025438     1.22772762
               1.48234092     1.78043706     2.12944203     2.53805004
               3.01644009     3.57652955     4.23227104     5.00000000

     Gradients computed in reciprocal space

     Adding external electric field

     Computed dipole along edir(3) :
        Dipole               -0.0006 Ry au,         -0.0015 Debye
        Dipole field         -0.0000 Ry au

        Potential amp.        0.0001 Ry
        Total length         45.8339 bohr

     Starting wfc are  157 randomized atomic wfcs

     Self-consistent Calculation

     iteration #  1     ecut=    36.75 Ry     beta=0.30
     Davidson diagonalization with overlap
     ethr =  1.00E-02,  avg # of iterations =  2.0

[...]

     total energy              =   -1717.54701064 Ry
     Harris-Foulkes estimate   =   -1719.80517826 Ry
     estimated scf accuracy    <       4.88631738 Ry

[...]

     iteration # 10     ecut=    36.75 Ry     beta=0.30
     Davidson diagonalization with overlap
     c_bands:  1 eigenvalues not converged
     ethr =  1.13E-06,  avg # of iterations =  9.3

[...]

     End of self-consistent calculation

          k = 0.0000 0.0000 0.0000 ( 19447 PWs)   bands (ev):

   -66.5308 -66.4907 -66.4858 -66.4855 -66.4334 -66.4326 -66.4300 -66.3991
   -66.3529 -66.3279 -66.3276 -66.1123 -33.2194 -33.2194 -33.2175 -33.2047
   -33.1615 -33.1613 -33.1383 -33.1269 -33.1037 -33.1035 -32.9463 -32.8646
   -32.8642 -32.7788 -32.7702 -32.7698 -32.6515 -32.6171 -32.6152 -32.6151
   -32.5825 -32.5524 -32.5524 -32.5409 -32.5359 -32.5359 -32.4713 -32.4643
   -32.4642 -32.4088 -32.4088 -32.3481 -32.3481 -32.3422 -32.2907 -32.2907
    -5.6611  -4.0830  -2.9844  -2.3570  -2.2587  -2.2587  -2.1377  -2.0729
    -2.0729  -1.5078  -1.3764  -1.3763  -1.1998  -1.1225  -1.1225  -0.7057
     0.0640   0.0878   0.0880   1.2337   1.3732   1.3733   1.3802   1.6818
     1.7789   1.8687   1.8689   2.1782   2.1940   2.1940   2.4894   2.4894
     2.5499   2.5674   2.5675   2.6673   2.6673   2.7901   2.8402   2.8404

[...]

          k =-0.0837 0.0483 0.0000 ( 19532 PWs)   bands (ev):

[...]

     the Fermi energy is     1.8212 ev

!    total energy              =   -1719.42859784 Ry
     Harris-Foulkes estimate   =   -1719.42860609 Ry
     estimated scf accuracy    <       0.00000697 Ry

     The total energy is the sum of the following terms:

     one-electron contribution =  -11414.41273456 Ry
     hartree contribution      =    5688.89236112 Ry
     xc contribution           =    -523.47701545 Ry
     ewald contribution        =    4529.67755925 Ry
     electric field correction =       0.00003503 Ry
     smearing contrib. (-TS)   =      -0.10880323 Ry

     convergence has been achieved in  14 iterations

 BEEF-vdW xc energy contributions
           1 :   -460.932940233603
           2 :    425.527992501057
           3 :   -363.676848871531
           4 :    289.654686102229
           5 :   -217.828318121719
           6 :    158.217859372742
           7 :   -114.472105165060
           8 :    84.6597973837560
           9 :   -63.9716164786270
          10 :    47.7386246658954
          11 :   -33.3550049007301
          12 :    20.5292776363185
          13 :   -10.2403019406635
          14 :    3.32851173500814
          15 :   0.396364992349788
          16 :   -2.14712036619341
          17 :    3.45121563545700
          18 :   -5.29805650750546
          19 :    7.68794487387754
          20 :   -9.81878559423996
          21 :    10.7405614437388
          22 :   -10.0438925700209
          23 :    8.16144561043416
          24 :   -6.12503851343541
          25 :    4.96300050013480
          26 :   -5.12592322427867
          27 :    6.28227430164310
          28 :   -7.57742759294757
          29 :    8.16712429639108
          30 :   -7.69083314582286
          31 :   -41.1204928910012
          32 :   -30.5113309906288

     Forces acting on atoms (Ry/au):

     negative rho (up, down):  1.176E+00 0.000E+00
     atom    1 type  1   force =     0.00067920    0.00037430    0.00212063
     atom    2 type  1   force =    -0.00068302    0.00039968    0.00207876
     atom    3 type  1   force =     0.00002402   -0.00078306    0.00214996
     atom    4 type  1   force =    -0.00002085    0.00000480    0.00156909
     atom    5 type  1   force =     0.00001206    0.00063523   -0.00782720
     atom    6 type  1   force =    -0.00001432    0.00005770   -0.00107718
     atom    7 type  1   force =    -0.00050238   -0.00035429   -0.00786647
     atom    8 type  1   force =     0.00050568   -0.00034047   -0.00788252
     atom    9 type  1   force =     0.00002518   -0.00001493   -0.01230647
     atom   10 type  1   force =    -0.00002583   -0.00219013   -0.00918923
     atom   11 type  1   force =    -0.00188161    0.00108900   -0.00916280
     atom   12 type  1   force =     0.00188271    0.00112210   -0.00920094
     atom   13 type  2   force =    -0.00000084    0.00000007    0.05659437

     Total force =     0.060181     Total SCF correction =     0.008339
     SCF correction compared to forces is large: reduce conv_thr to get better values

     entering subroutine stress ...

     negative rho (up, down):  1.176E+00 0.000E+00
          total   stress  (Ry/bohr**3)                   (kbar)     P=  -29.56
  -0.00029910   0.00000001   0.00000000        -44.00      0.00      0.00
   0.00000001  -0.00029908   0.00000000          0.00    -44.00      0.00
   0.00000000   0.00000000  -0.00000473          0.00      0.00     -0.70

     BFGS Geometry Optimization

     number of scf cycles    =   1
     number of bfgs steps    =   0

     energy   new            =   -1719.4285978380 Ry

     new trust radius        =       0.0565943694 bohr
     new conv_thr            =       0.0000099958 Ry

ATOMIC_POSITIONS (crystal)
Ta1      0.166666667   0.166666667   0.401991699    0   0   0
Ta1      0.666666667   0.166666667   0.401991699    0   0   0
Ta1      0.166666667   0.666666667   0.401991699    0   0   0
Ta1      0.666666667   0.666666667   0.401991699    0   0   0
Ta1      0.833333333   0.333333333   0.500000000    0   0   0
Ta1      0.333333333   0.333333333   0.500000000    0   0   0
Ta1      0.833333333   0.833333333   0.500000000    0   0   0
Ta1      0.333333333   0.833333333   0.500000000    0   0   0
Ta1      0.000002995  -0.000001528   0.597746512
Ta1      0.500109755  -0.000224088   0.597812824
Ta1     -0.000222440   0.500111424   0.597813386
Ta1      0.500109421   0.500114810   0.597812574
H1      -0.000000078   0.000000007   0.667892486

     Writing output data file calc.save
     Check: negative starting charge=   -1.121538
     NEW-OLD atomic charge density approx. for the potential
     Check: negative starting charge=   -1.122449

[...]

     Total force =     0.040026     Total SCF correction =     0.002448

[...]

     energy   old            =   -1719.4285978380 Ry
     energy   new            =   -1719.4314957707 Ry

     CASE: energy  _new < energy  _old

[...]

     Total force =     0.036492     Total SCF correction =     0.000310

[...]

     number of scf cycles    =   8
     number of bfgs steps    =   7

     energy   old            =   -1719.4471213294 Ry
     energy   new            =   -1719.4488109059 Ry

     CASE: energy  _new < energy  _old

     new trust radius        =       0.0258809229 bohr
     new conv_thr            =       0.0000001000 Ry

ATOMIC_POSITIONS (crystal)
Ta1      0.166666667   0.166666667   0.401991699    0   0   0
Ta1      0.666666667   0.166666667   0.401991699    0   0   0
Ta1      0.166666667   0.666666667   0.401991699    0   0   0
Ta1      0.666666667   0.666666667   0.401991699    0   0   0
Ta1      0.833333333   0.333333333   0.500000000    0   0   0
Ta1      0.333333333   0.333333333   0.500000000    0   0   0
Ta1      0.833333333   0.833333333   0.500000000    0   0   0
Ta1      0.333333333   0.833333333   0.500000000    0   0   0
Ta1      0.000011059  -0.000002738   0.609309040
Ta1      0.501685840  -0.003383590   0.594387812
Ta1     -0.003380857   0.501691413   0.594389859
Ta1      0.501686310   0.501702329   0.594386282
H1      -0.000000876  -0.000000147   0.681560389

     Writing output data file calc.save
     Check: negative starting charge=   -1.122831
     NEW-OLD atomic charge density approx. for the potential
     Check: negative starting charge=   -1.123109

[...]

     Self-consistent Calculation

[...]

     total energy              =   -1719.44887927 Ry
     Harris-Foulkes estimate   =   -1719.44887922 Ry
     estimated scf accuracy    <       0.00000012 Ry

     iteration # 11     ecut=    36.75 Ry     beta=0.30
     Davidson diagonalization with overlap
     ethr =  7.69E-11,  avg # of iterations =  1.5

[...]

     negative rho (up, down):  1.177E+00 0.000E+00

     Adding external electric field

     Computed dipole along edir(3) :
        Dipole               -0.2584 Ry au,         -0.6568 Debye
        Dipole field         -0.0006 Ry au

        Potential amp.        0.0574 Ry
        Total length         45.8339 bohr

     End of self-consistent calculation

[...]

          k = 0.0558-0.0645 0.0000 ( 19521 PWs)   bands (ev):

[...]

          k =-0.0837-0.0483 0.0000 ( 19532 PWs)   bands (ev):

   -66.6018 -66.6001 -66.5807 -66.5722 -66.5699 -66.5666 -66.5486 -66.4990
   -66.4969 -66.4856 -66.4754 -66.4753 -33.2449 -33.2377 -33.2329 -33.2174
   -33.1825 -33.1778 -33.1187 -33.1049 -33.0830 -33.0776 -33.0561 -32.9808
   -32.9352 -32.9078 -32.9005 -32.8890 -32.8790 -32.8593 -32.8397 -32.8156
   -32.7841 -32.7805 -32.7732 -32.7605 -32.7498 -32.7298 -32.6757 -32.6492
   -32.6452 -32.6308 -32.6131 -32.6042 -32.5918 -32.5882 -32.5245 -32.5225
    -3.9894  -3.9425  -2.5915  -2.5539  -1.7199  -1.6419  -1.5260  -1.4521
    -1.3000  -1.2984  -0.7554  -0.4616  -0.3756  -0.2347  -0.1747  -0.0634
    -0.0431   0.2291   0.2726   0.3119   0.5233   0.5608   0.6363   0.7701
     0.8936   1.0357   1.0463   1.1508   1.2506   1.2563   1.3448   1.4816
     1.5147   1.5930   1.9277   1.9537   2.0769   2.3718   2.4538   2.8175

     the Fermi energy is     1.6777 ev

!    total energy              =   -1719.44887921 Ry
     Harris-Foulkes estimate   =   -1719.44887953 Ry
     estimated scf accuracy    <       0.00000007 Ry

     The total energy is the sum of the following terms:

     one-electron contribution =  -11387.94734009 Ry
     hartree contribution      =    5674.94464287 Ry
     xc contribution           =    -523.45672047 Ry
     ewald contribution        =    4517.11640399 Ry
     electric field correction =       0.00016185 Ry
     smearing contrib. (-TS)   =      -0.10602735 Ry

     convergence has been achieved in  11 iterations

 BEEF-vdW xc energy contributions
           1 :   -460.907992387938
           2 :    425.476928620154
           3 :   -363.596918591938
           4 :    289.563168346585
           5 :   -217.747506497384
           6 :    158.163077371454
           7 :   -114.444051332443
           8 :    84.6436720533102
           9 :   -63.9452891356337
          10 :    47.6863998361422
          11 :   -33.2768279366309
          12 :    20.4368659267188
          13 :   -10.1423473387795
          14 :    3.21847420530037
          15 :   0.536889659833150
          16 :   -2.33096059252080
          17 :    3.66866415347840
          18 :   -5.51613656262651
          19 :    7.87048751353200
          20 :   -9.95335269507416
          21 :    10.8499920610638
          22 :   -10.1717509227574
          23 :    8.34039294212198
          24 :   -6.35077486008345
          25 :    5.19355455835779
          26 :   -5.30813279867448
          27 :    6.38781839682429
          28 :   -7.62328297629824
          29 :    8.20563471544608
          30 :   -7.77551391438067
          31 :   -41.1181878744887
          32 :   -30.5018548029435

     Forces acting on atoms (Ry/au):

     negative rho (up, down):  1.177E+00 0.000E+00
     atom    1 type  1   force =    -0.00166240   -0.00095891    0.00329969
     atom    2 type  1   force =     0.00166240   -0.00096034    0.00330072
     atom    3 type  1   force =    -0.00000127    0.00191927    0.00329983
     atom    4 type  1   force =     0.00000060   -0.00000022    0.00132323
     atom    5 type  1   force =     0.00000155   -0.01767800   -0.00035837
     atom    6 type  1   force =    -0.00000132   -0.00000142   -0.01672336
     atom    7 type  1   force =     0.01530830    0.00883791   -0.00035375
     atom    8 type  1   force =    -0.01531024    0.00884123   -0.00037294
     atom    9 type  1   force =    -0.00000870    0.00000487   -0.00009375
     atom   10 type  1   force =     0.00001005    0.00116795    0.00177427
     atom   11 type  1   force =     0.00100829   -0.00058001    0.00176697
     atom   12 type  1   force =    -0.00100755   -0.00059188    0.00177898
     atom   13 type  2   force =     0.00000030   -0.00000045    0.00135849

     Total force =     0.003921     Total SCF correction =     0.000591
     SCF correction compared to forces is large: reduce conv_thr to get better values

     entering subroutine stress ...

     negative rho (up, down):  1.177E+00 0.000E+00
          total   stress  (Ry/bohr**3)                   (kbar)     P=  -30.23
  -0.00028259  -0.00000000   0.00000000        -41.57     -0.00      0.00
  -0.00000000  -0.00028259   0.00000000         -0.00    -41.57      0.00
   0.00000000   0.00000000  -0.00005125          0.00      0.00     -7.54

     bfgs converged in   9 scf cycles and   8 bfgs steps
     (criteria: energy <  1.0E+00, force <  1.9E-03)

     End of BFGS Geometry Optimization

     Final energy   =   -1719.4488792077 Ry
Begin final coordinates

ATOMIC_POSITIONS (crystal)
Ta1      0.166666667   0.166666667   0.401991699    0   0   0
Ta1      0.666666667   0.166666667   0.401991699    0   0   0
Ta1      0.166666667   0.666666667   0.401991699    0   0   0
Ta1      0.666666667   0.666666667   0.401991699    0   0   0
Ta1      0.833333333   0.333333333   0.500000000    0   0   0
Ta1      0.333333333   0.333333333   0.500000000    0   0   0
Ta1      0.833333333   0.833333333   0.500000000    0   0   0
Ta1      0.333333333   0.833333333   0.500000000    0   0   0
Ta1      0.000011059  -0.000002738   0.609309040
Ta1      0.501685840  -0.003383590   0.594387812
Ta1     -0.003380857   0.501691413   0.594389859
Ta1      0.501686310   0.501702329   0.594386282
H1      -0.000000876  -0.000000147   0.681560389
End final coordinates

     Writing output data file calc.save

     General routines

     Parallel routines

   This run was terminated on:   8: 2:14   3May2018

   JOB DONE.
Job  /afs/slac/g/suncat/bin/suncat-tsmpirun -x LD_LIBRARY_PATH -wdir /scratch/qe642907_zoukX pw.x -npool 4 -in pw.inp

TID   HOST_NAME   COMMAND_LINE            STATUS            TERMINATION_TIME
00000 suncat0071 pw.x -npool 4 -i  Done                     05/03/2018 08:02:14
00001 suncat0071 pw.x -npool 4 -i  Done                     05/03/2018 08:02:14
00002 suncat0071 pw.x -npool 4 -i  Done                     05/03/2018 08:02:14
00003 suncat0071 pw.x -npool 4 -i  Done                     05/03/2018 08:02:14
00004 suncat0071 pw.x -npool 4 -i  Done                     05/03/2018 08:02:14
00005 suncat0071 pw.x -npool 4 -i  Done                     05/03/2018 08:02:14
00006 suncat0071 pw.x -npool 4 -i  Done                     05/03/2018 08:02:14
00007 suncat0071 pw.x -npool 4 -i  Done                     05/03/2018 08:02:14
00008 suncat0069 pw.x -npool 4 -i  Done                     05/03/2018 08:02:14
00009 suncat0069 pw.x -npool 4 -i  Done                     05/03/2018 08:02:14
00010 suncat0069 pw.x -npool 4 -i  Done                     05/03/2018 08:02:14
00011 suncat0069 pw.x -npool 4 -i  Done                     05/03/2018 08:02:14
00012 suncat0069 pw.x -npool 4 -i  Done                     05/03/2018 08:02:14
00013 suncat0069 pw.x -npool 4 -i  Done                     05/03/2018 08:02:14
00014 suncat0069 pw.x -npool 4 -i  Done                     05/03/2018 08:02:14
00015 suncat0069 pw.x -npool 4 -i  Done                     05/03/2018 08:02:14
00016 suncat0034 pw.x -npool 4 -i  Done                     05/03/2018 08:02:14
00017 suncat0034 pw.x -npool 4 -i  Done                     05/03/2018 08:02:14
00018 suncat0034 pw.x -npool 4 -i  Done                     05/03/2018 08:02:14
00019 suncat0034 pw.x -npool 4 -i  Done                     05/03/2018 08:02:14
00020 suncat0034 pw.x -npool 4 -i  Done                     05/03/2018 08:02:14
00021 suncat0034 pw.x -npool 4 -i  Done                     05/03/2018 08:02:14
00022 suncat0034 pw.x -npool 4 -i  Done                     05/03/2018 08:02:14
00023 suncat0034 pw.x -npool 4 -i  Done                     05/03/2018 08:02:14
00024 suncat0022 pw.x -npool 4 -i  Done                     05/03/2018 08:02:14
00025 suncat0022 pw.x -npool 4 -i  Done                     05/03/2018 08:02:14
00026 suncat0022 pw.x -npool 4 -i  Done                     05/03/2018 08:02:14
00027 suncat0022 pw.x -npool 4 -i  Done                     05/03/2018 08:02:14
00028 suncat0022 pw.x -npool 4 -i  Done                     05/03/2018 08:02:14
00029 suncat0022 pw.x -npool 4 -i  Done                     05/03/2018 08:02:14
00030 suncat0022 pw.x -npool 4 -i  Done                     05/03/2018 08:02:14
00031 suncat0022 pw.x -npool 4 -i  Done                     05/03/2018 08:02:14