     Program PWSCF v.5.1rc2 (svn rev. 11289) starts on  2May2018 at 13:36:56

     Current dimensions of program PWSCF are:
     Max number of different atomic species (ntypx) = 10
     Max number of k-points (npk) =  40000
     Max angular momentum in pseudopotentials (lmaxx) =  3
     Presently stress not available with electric field

     IMPORTANT: XC functional enforced from input :
     Exchange-correlation      = BEEF-VDW ( 1  4 27 13 2)
     Any further DFT definition will be discarded
     Please, verify this is what you really want

     Subspace diagonalization in iterative solution of the eigenvalue problem:
     a serial algorithm will be used

     bravais-lattice index     =            0
     lattice parameter (alat)  =       1.8897  a.u.
     unit-cell volume          =    3724.3394 (a.u.)^3
     number of atoms/cell      =           13
     number of atomic types    =            2
     number of electrons       =       173.00
     number of Kohn-Sham states=           96
     kinetic-energy cutoff     =      36.7493  Ry
     charge density cutoff     =     367.4932  Ry
     convergence threshold     =      1.0E-05
     mixing beta               =       0.3000
     number of iterations used =           10  plain     mixing
     Exchange-correlation      = BEEF-VDW ( 1  4 27 13 2)
     nstep                     =           50

     celldm(1)=   1.889726  celldm(2)=   0.000000  celldm(3)=   0.000000
     celldm(4)=   0.000000  celldm(5)=   0.000000  celldm(6)=   0.000000

     crystal axes: (cart. coord. in units of alat)
               a(1) = (   5.132588   0.000000   0.000000 )
               a(2) = (   2.566294   4.444952   0.000000 )
               a(3) = (   0.000000   0.000000  24.190741 )

     reciprocal axes: (cart. coord. in units 2 pi/alat)
               b(1) = (  0.194833 -0.112487  0.000000 )
               b(2) = (  0.000000  0.224974  0.000000 )
               b(3) = (  0.000000  0.000000  0.041338 )

     PseudoPot. # 1 for Cr read from file:
     /u/if/mamunm/psp/gbrv1.5pbe/Cr.UPF
     MD5 check sum: 0d52af634a40206e4dee301ad30da4bf
     Pseudo is Ultrasoft + core correction, Zval = 14.0
     Generated by new atomic code, or converted to UPF format
     Using radial grid of  857 points,  6 beta functions with:
                l(1) =   0
                l(2) =   0
                l(3) =   1
                l(4) =   1
                l(5) =   2
                l(6) =   2
     Q(r) pseudized with  8 coefficients,  rinner =    0.950   0.950   0.950
                                                       0.950   0.950

     PseudoPot. # 2 for N  read from file:
     /u/if/mamunm/psp/gbrv1.5pbe/N.UPF
     MD5 check sum: 95339753478d7afb44899504a8723017
     Pseudo is Ultrasoft + core correction, Zval =  5.0
     Generated by new atomic code, or converted to UPF format
     Using radial grid of  729 points,  4 beta functions with:
                l(1) =   0
                l(2) =   0
                l(3) =   1
                l(4) =   1
     Q(r) pseudized with  8 coefficients,  rinner =    0.900   0.900   0.900

     vdW kernel table read from file vdW_kernel_table
     MD5 check sum: 095c7af220d748ca6e76c0b4c6cfb241

     atomic species   valence    mass     pseudopotential
        Cr1           14.00    51.99610     Cr( 1.00)
        N1             5.00    14.00700     N ( 1.00)

     No symmetry found

   Cartesian axes

     site n.     atom                  positions (alat units)
         1           Cr1 tau(   1) = (   1.2831471   0.7408253  10.0000000  )
         2           Cr1 tau(   2) = (   3.8494412   0.7408253  10.0000000  )
         3           Cr1 tau(   3) = (   2.5662941   2.9633012  10.0000000  )
         4           Cr1 tau(   4) = (   5.1325882   2.9633012  10.0000000  )
         5           Cr1 tau(   5) = (   5.1325882   1.4816506  12.0953704  )
         6           Cr1 tau(   6) = (   2.5662941   1.4816506  12.0953704  )
         7           Cr1 tau(   7) = (   6.4157353   3.7041265  12.0953704  )
         8           Cr1 tau(   8) = (   3.8494412   3.7041265  12.0953704  )
         9           Cr1 tau(   9) = (   0.0000000   0.0000000  14.1907408  )
        10           Cr1 tau(  10) = (   2.5662941   0.0000000  14.1907408  )
        11           Cr1 tau(  11) = (   1.2831471   2.2224759  14.1907408  )
        12           Cr1 tau(  12) = (   3.8494412   2.2224759  14.1907408  )
        13           N1  tau(  13) = (   1.2831471   0.7408253  15.5557408  )

     number of k points=    20  Fermi-Dirac smearing, width (Ry)=  0.0110
                       cart. coord. in units 2pi/alat
        k(    1) = (   0.0000000   0.0000000   0.0000000), wk =   0.0555556
        k(    2) = (   0.0000000   0.0374957   0.0000000), wk =   0.1111111
        k(    3) = (   0.0000000   0.0749914   0.0000000), wk =   0.1111111
        k(    4) = (   0.0000000  -0.1124872   0.0000000), wk =   0.0555556
        k(    5) = (   0.0324722  -0.0187479   0.0000000), wk =   0.1111111
        k(    6) = (   0.0324722   0.0187479   0.0000000), wk =   0.1111111
        k(    7) = (   0.0324722   0.0562436   0.0000000), wk =   0.1111111
        k(    8) = (   0.0324722  -0.1312350   0.0000000), wk =   0.1111111
        k(    9) = (   0.0324722  -0.0937393   0.0000000), wk =   0.1111111
        k(   10) = (   0.0324722  -0.0562436   0.0000000), wk =   0.1111111
        k(   11) = (   0.0649445  -0.0374957   0.0000000), wk =   0.1111111
        k(   12) = (   0.0649445   0.0000000   0.0000000), wk =   0.1111111
        k(   13) = (   0.0649445   0.0374957   0.0000000), wk =   0.1111111
        k(   14) = (   0.0649445  -0.1499829   0.0000000), wk =   0.1111111
        k(   15) = (   0.0649445  -0.1124872   0.0000000), wk =   0.1111111
        k(   16) = (   0.0649445  -0.0749914   0.0000000), wk =   0.1111111
        k(   17) = (  -0.0974167   0.0562436   0.0000000), wk =   0.0555556
        k(   18) = (  -0.0974167   0.0937393   0.0000000), wk =   0.1111111
        k(   19) = (  -0.0974167   0.1312350   0.0000000), wk =   0.1111111
        k(   20) = (  -0.0974167  -0.0562436   0.0000000), wk =   0.0555556

     Largest allocated arrays     est. size (Mb)     dimensions
     Largest temporary arrays     est. size (Mb)     dimensions

     Check: negative/imaginary core charge=   -0.000004    0.000000

     Initial potential from superposition of free atoms
     Check: negative starting charge=   -0.015006

     starting charge  160.99981, renormalised to  173.00000

     negative rho (up, down):  1.612E-02 0.000E+00

     *
     * You are using vdW-DF for exchange-correlation in this calculation.
     * Please cite the following three references that made this development
     * possible:
     *
     *   M. Dion, H. Rydberg, E. Schroder, D. C. Langreth, and
     *   B. I. Lundqvist, Phys. Rev. Lett. 92, 246401 (2004).
     *
     *   T. Thonhauser, V. R. Cooper, S. Li, A. Puzder, P. Hyldgaard, and
     *   D. C. Langreth, Phys. Rev. B 76, 125112 (2007).
     *
     *   G. Roman-Perez and J. M. Soler, Phys. Rev. Lett. 103, 096102 (2009).
     *
     *
     * If you are using vdW-DF2, please also cite:
     *
     *   K. Lee, E. D. Murray, L. Kong, B. I. Lundqvist, and
     *   D. C. Langreth, Phys. Rev. B 82, 081101(R) (2010).
     *
     *
     * If you are calculating the stress with vdW-DF, please also cite:
     *
     *   R. Sabatini, E. Kucukbenli, B. Kolb, T. Thonhauser, and
     *   S. de Gironcoli, J. Phys.: Condens. Matter 24, 424209 (2012).
     *

     Carrying out vdW-DF run using the following parameters:

     Nqs =      20    Nr_points =    1024   r_max =   100.000
     q_mesh =
               0.00001000     0.04494208     0.09755937     0.15916263
               0.23128650     0.31572767     0.41458969     0.53033537
               0.66584808     0.82450364     1.01025438     1.22772762
               1.48234092     1.78043706     2.12944203     2.53805004
               3.01644009     3.57652955     4.23227104     5.00000000

     Gradients computed in reciprocal space

     Adding external electric field

     Computed dipole along edir(3) :
        Dipole               -2.4369 Ry au,         -6.1941 Debye
        Dipole field         -0.0082 Ry au

        Potential amp.        0.7330 Ry
        Total length         44.5710 bohr

     Starting wfc are  124 randomized atomic wfcs

     Self-consistent Calculation

     iteration #  1     ecut=    36.75 Ry     beta=0.30
     Davidson diagonalization with overlap
     ethr =  1.00E-02,  avg # of iterations =  8.2

[...]

     total energy              =   -1984.93791042 Ry
     Harris-Foulkes estimate   =   -2139.16677090 Ry
     estimated scf accuracy    <     321.61604748 Ry

[...]

     End of self-consistent calculation

          k = 0.0000 0.0000 0.0000 ( 14081 PWs)   bands (ev):

   -70.9265 -70.8360 -70.8036 -70.8023 -70.7702 -70.7345 -70.7306 -70.7298
   -70.7132 -70.6178 -70.6176 -70.6113 -42.5262 -42.4892 -42.4889 -42.4732
   -42.4318 -42.4315 -42.4274 -42.2946 -42.2869 -42.2869 -42.1621 -42.1343
   -42.1333 -42.1012 -42.0150 -42.0139 -42.0136 -41.9949 -41.9943 -41.9839
   -41.9137 -41.9131 -41.8992 -41.8953 -41.8900 -41.8895 -41.8470 -41.8261
   -41.8260 -41.7721 -41.7721 -41.7642 -41.7640 -41.7601 -41.6282 -41.6281
   -12.5168  -5.7707  -3.9823  -3.1020  -3.0294  -3.0292  -2.8450  -2.7377
    -2.6558  -2.6557  -2.2973  -2.1973  -2.1973  -2.0710  -2.0709  -1.9892
    -1.5192  -1.5192  -1.2716  -0.7337  -0.7336  -0.2067  -0.0459  -0.0349
    -0.0349   0.0451   0.3663   0.4143   0.4143   0.5906   0.5907   0.6683
     0.6686   0.6825   0.7167   0.7497   0.7498   0.8779   0.8780   0.9482
     1.5746   1.5748   1.7423   1.9451   1.9453   2.0375   2.0376   2.0639

[...]

          k =-0.0974 0.0562 0.0000 ( 14010 PWs)   bands (ev):

[...]

     the Fermi energy is     0.8590 ev

!    total energy              =   -2135.27691169 Ry
     Harris-Foulkes estimate   =   -2135.27690282 Ry
     estimated scf accuracy    <       0.00000583 Ry

     The total energy is the sum of the following terms:

     one-electron contribution =  -20008.39402948 Ry
     hartree contribution      =    9995.24114400 Ry
     xc contribution           =    -284.50323330 Ry
     ewald contribution        =    8162.50961813 Ry
     electric field correction =       0.00017600 Ry
     smearing contrib. (-TS)   =      -0.13058705 Ry

     convergence has been achieved in  46 iterations

 BEEF-vdW xc energy contributions
           1 :   -246.245459594111
           2 :    221.661627648503
           3 :   -180.619650139537
           4 :    135.458423569371
           5 :   -97.3729330010580
           6 :    72.3506620164236
           7 :   -60.0714636588572
           8 :    55.7741631833269
           9 :   -53.6617756329787
          10 :    49.8931506670834
          11 :   -43.7965592206530
          12 :    37.1142062735006
          13 :   -32.1473636204935
          14 :    30.0623918828779
          15 :   -30.2756520206781
          16 :    31.0473084645644
          17 :   -30.7059293455725
          18 :    28.6589085795273
          19 :   -25.6015391498549
          20 :    22.8943391747953
          21 :   -21.5954746450136
          22 :    21.7958464803983
          23 :   -22.6496411194075
          24 :    23.0089942456494
          25 :   -22.1939003979407
          26 :    20.3839441863039
          27 :   -18.4172646742783
          28 :    17.1840266289122
          29 :   -17.0419259229317
          30 :    17.6249047427505
          31 :   -24.4332621475115
          32 :   -17.5603031101788

     Forces acting on atoms (Ry/au):

     negative rho (up, down):  1.486E-02 0.000E+00
     atom    1 type  1   force =     0.00001824    0.00001444   -0.00052127
     atom    2 type  1   force =    -0.00000898    0.00093971   -0.00171426
     atom    3 type  1   force =     0.00080321   -0.00048397   -0.00170223
     atom    4 type  1   force =    -0.00079376   -0.00046602   -0.00162805
     atom    5 type  1   force =     0.00045736   -0.00030466    0.00720486
     atom    6 type  1   force =    -0.00044089   -0.00026200    0.00713174
     atom    7 type  1   force =     0.00003777    0.00002871    0.00258697
     atom    8 type  1   force =    -0.00004176    0.00055021    0.00721361
     atom    9 type  1   force =     0.01240656    0.00716845    0.06359329
     atom   10 type  1   force =    -0.01243171    0.00720923    0.06357548
     atom   11 type  1   force =     0.00001665   -0.01437306    0.06356235
     atom   12 type  1   force =    -0.00000747   -0.00000835   -0.03632245
     atom   13 type  2   force =    -0.00001521   -0.00001269   -0.17298003

     Total force =     0.209728     Total SCF correction =     0.003212

     entering subroutine stress ...

     negative rho (up, down):  1.486E-02 0.000E+00
          total   stress  (Ry/bohr**3)                   (kbar)     P=  -31.06
  -0.00024281   0.00000001   0.00000004        -35.72      0.00      0.01
   0.00000001  -0.00024291   0.00000004          0.00    -35.73      0.01
   0.00000004   0.00000004  -0.00014763          0.01      0.01    -21.72

     BFGS Geometry Optimization

     number of scf cycles    =   1
     number of bfgs steps    =   0

     energy   new            =   -2135.2769116874 Ry

     new trust radius        =       0.1729800268 bohr
     new conv_thr            =       0.0000099958 Ry

ATOMIC_POSITIONS (crystal)
Cr1      0.166666667   0.166666667   0.413381306    0   0   0
Cr1      0.666666667   0.166666667   0.413381306    0   0   0
Cr1      0.166666667   0.666666667   0.413381306    0   0   0
Cr1      0.666666667   0.666666667   0.413381306    0   0   0
Cr1      0.833333333   0.333333333   0.500000000    0   0   0
Cr1      0.333333333   0.333333333   0.500000000    0   0   0
Cr1      0.833333333   0.833333333   0.500000000    0   0   0
Cr1      0.333333333   0.833333333   0.500000000    0   0   0
Cr1      0.000852427   0.000853413   0.588009810
Cr1      0.498289138   0.000858268   0.588009420
Cr1      0.000857283   0.498288868   0.588009133
Cr1      0.499999727   0.499999006   0.585824134
N1       0.166665854   0.166665156   0.639261270

     Writing output data file calc.save
     Check: negative starting charge=   -0.015006
     NEW-OLD atomic charge density approx. for the potential

     Check: negative/imaginary core charge=   -0.000004    0.000000
     Check: negative starting charge=   -0.014780

[...]

     energy   old            =   -2135.2769116874 Ry
     energy   new            =   -2135.3143727620 Ry

     CASE: energy  _new < energy  _old

[...]

     iteration # 11     ecut=    36.75 Ry     beta=0.30
     Davidson diagonalization with overlap
     c_bands:  1 eigenvalues not converged
     ethr =  3.32E-06,  avg # of iterations =  7.2

[...]

     Total force =     0.012595     Total SCF correction =     0.000422

[...]

     number of scf cycles    =   9
     number of bfgs steps    =   8

     energy   old            =   -2135.3594291719 Ry
     energy   new            =   -2135.3607624296 Ry

     CASE: energy  _new < energy  _old

     new trust radius        =       0.0135636884 bohr
     new conv_thr            =       0.0000001000 Ry

ATOMIC_POSITIONS (crystal)
Cr1      0.166666667   0.166666667   0.413381306    0   0   0
Cr1      0.666666667   0.166666667   0.413381306    0   0   0
Cr1      0.166666667   0.666666667   0.413381306    0   0   0
Cr1      0.666666667   0.666666667   0.413381306    0   0   0
Cr1      0.833333333   0.333333333   0.500000000    0   0   0
Cr1      0.333333333   0.333333333   0.500000000    0   0   0
Cr1      0.833333333   0.833333333   0.500000000    0   0   0
Cr1      0.333333333   0.833333333   0.500000000    0   0   0
Cr1     -0.003441016  -0.003444853   0.589291791
Cr1      0.506885244  -0.003442527   0.589291370
Cr1     -0.003440472   0.506884298   0.589291527
Cr1      0.500002889   0.499998793   0.570602323
N1       0.166668112   0.166666768   0.631488629

     Writing output data file calc.save
     Check: negative starting charge=   -0.013517
     NEW-OLD atomic charge density approx. for the potential

     Check: negative/imaginary core charge=   -0.000004    0.000000
     Check: negative starting charge=   -0.013702

[...]

     Self-consistent Calculation

[...]

     total energy              =   -2135.36090580 Ry
     Harris-Foulkes estimate   =   -2135.36090580 Ry
     estimated scf accuracy    <       0.00000013 Ry

     iteration # 22     ecut=    36.75 Ry     beta=0.30
     Davidson diagonalization with overlap
     ethr =  7.24E-11,  avg # of iterations =  3.9

[...]

     negative rho (up, down):  1.366E-02 0.000E+00

     Adding external electric field

     Computed dipole along edir(3) :
        Dipole               -0.0960 Ry au,         -0.2439 Debye
        Dipole field         -0.0003 Ry au

        Potential amp.        0.0289 Ry
        Total length         44.5710 bohr

     End of self-consistent calculation

[...]

          k = 0.0649-0.0750 0.0000 ( 13990 PWs)   bands (ev):

[...]

          k =-0.0974-0.0562 0.0000 ( 14010 PWs)   bands (ev):

   -70.7345 -70.7116 -70.6656 -70.6617 -70.6511 -70.5781 -70.5455 -70.5015
   -70.4899 -70.4637 -70.4409 -70.4386 -42.3935 -42.3592 -42.2528 -42.2462
   -42.1967 -42.1931 -42.1286 -42.1006 -42.0429 -42.0418 -42.0189 -41.9962
   -41.9851 -41.9636 -41.9593 -41.8933 -41.8672 -41.8627 -41.8595 -41.8279
   -41.8159 -41.7767 -41.7727 -41.7641 -41.7560 -41.7274 -41.7217 -41.7202
   -41.6978 -41.6897 -41.6629 -41.5778 -41.5519 -41.5179 -41.5096 -41.4809
   -13.2979  -4.1956  -3.8192  -3.3196  -3.2174  -2.9613  -2.3547  -2.1091
    -1.9509  -1.8469  -1.8388  -1.8105  -1.7719  -1.2817  -1.2516  -1.1608
    -1.0636  -1.0117  -0.8499  -0.8023  -0.5994  -0.5001  -0.4025  -0.3613
    -0.3220  -0.3130  -0.1526  -0.0453   0.0824   0.2123   0.3054   0.3085
     0.3924   0.4889   0.5464   0.7110   0.7242   0.7544   0.8844   0.9953
     1.0326   1.4818   1.5146   1.5445   1.5990   1.6263   1.7452   1.8122

     the Fermi energy is     1.0497 ev

!    total energy              =   -2135.36090580 Ry
     Harris-Foulkes estimate   =   -2135.36090595 Ry
     estimated scf accuracy    <       0.00000002 Ry

     The total energy is the sum of the following terms:

     one-electron contribution =  -20215.07517470 Ry
     hartree contribution      =   10099.37839604 Ry
     xc contribution           =    -284.85634949 Ry
     ewald contribution        =    8265.31016607 Ry
     electric field correction =       0.00003107 Ry
     smearing contrib. (-TS)   =      -0.11797479 Ry

     convergence has been achieved in  22 iterations

 BEEF-vdW xc energy contributions
           1 :   -246.609717407195
           2 :    222.127758252318
           3 :   -181.184603535780
           4 :    136.001994289480
           5 :   -97.7308217997086
           6 :    72.4099185100512
           7 :   -59.8326258306008
           8 :    55.3508897834272
           9 :   -53.2238443653209
          10 :    49.5832491927964
          11 :   -43.6614937556000
          12 :    37.0864289768475
          13 :   -32.0913746057079
          14 :    29.8638602926256
          15 :   -29.9184516546052
          16 :    30.6273406164162
          17 :   -30.3716893759057
          18 :    28.5171353829987
          19 :   -25.6497920329466
          20 :    23.0234169180017
          21 :   -21.6568214965190
          22 :    21.6882518731124
          23 :   -22.3727484079203
          24 :    22.6557158352568
          25 :   -21.8907392349436
          26 :    20.2167799434589
          27 :   -18.3845105133493
          28 :    17.2013845618989
          29 :   -16.9955590326106
          30 :    17.4422425398474
          31 :   -24.4550357444969
          32 :   -17.5986018639919

     Forces acting on atoms (Ry/au):

     negative rho (up, down):  1.366E-02 0.000E+00
     atom    1 type  1   force =     0.00000099    0.00000070    0.00694842
     atom    2 type  1   force =    -0.00000063    0.00035498   -0.00308763
     atom    3 type  1   force =     0.00030731   -0.00017800   -0.00308567
     atom    4 type  1   force =    -0.00030614   -0.00017634   -0.00308552
     atom    5 type  1   force =     0.02043761   -0.01180054   -0.00434599
     atom    6 type  1   force =    -0.02043806   -0.01179962   -0.00434955
     atom    7 type  1   force =     0.00000234    0.00000070    0.01961851
     atom    8 type  1   force =    -0.00000216    0.02359909   -0.00434324
     atom    9 type  1   force =    -0.00005058   -0.00002774   -0.00102824
     atom   10 type  1   force =     0.00005185   -0.00002934   -0.00103118
     atom   11 type  1   force =    -0.00000031    0.00005762   -0.00103022
     atom   12 type  1   force =     0.00000056   -0.00000114    0.00024897
     atom   13 type  2   force =    -0.00000279   -0.00000036   -0.00142866

     Total force =     0.002301     Total SCF correction =     0.000338
     SCF correction compared to forces is large: reduce conv_thr to get better values

     entering subroutine stress ...

     negative rho (up, down):  1.366E-02 0.000E+00
          total   stress  (Ry/bohr**3)                   (kbar)     P=  -12.48
  -0.00012098  -0.00000000   0.00000000        -17.80     -0.00      0.00
  -0.00000000  -0.00012098  -0.00000000         -0.00    -17.80     -0.00
   0.00000000  -0.00000000  -0.00001249          0.00     -0.00     -1.84

     bfgs converged in  10 scf cycles and   9 bfgs steps
     (criteria: energy <  1.0E+00, force <  1.9E-03)

     End of BFGS Geometry Optimization

     Final energy   =   -2135.3609058027 Ry
Begin final coordinates

ATOMIC_POSITIONS (crystal)
Cr1      0.166666667   0.166666667   0.413381306    0   0   0
Cr1      0.666666667   0.166666667   0.413381306    0   0   0
Cr1      0.166666667   0.666666667   0.413381306    0   0   0
Cr1      0.666666667   0.666666667   0.413381306    0   0   0
Cr1      0.833333333   0.333333333   0.500000000    0   0   0
Cr1      0.333333333   0.333333333   0.500000000    0   0   0
Cr1      0.833333333   0.833333333   0.500000000    0   0   0
Cr1      0.333333333   0.833333333   0.500000000    0   0   0
Cr1     -0.003441016  -0.003444853   0.589291791
Cr1      0.506885244  -0.003442527   0.589291370
Cr1     -0.003440472   0.506884298   0.589291527
Cr1      0.500002889   0.499998793   0.570602323
N1       0.166668112   0.166666768   0.631488629
End final coordinates

     Writing output data file calc.save

     General routines

     Parallel routines

   This run was terminated on:  15:14:45   2May2018

   JOB DONE.
Job  /afs/slac/g/suncat/bin/suncat-tsmpirun -x LD_LIBRARY_PATH -wdir /scratch/qe664347_a3cck pw.x -npool 4 -in pw.inp

TID   HOST_NAME   COMMAND_LINE            STATUS            TERMINATION_TIME
00000 suncat0172 pw.x -npool 4 -i  Done                     05/02/2018 15:14:45
00001 suncat0172 pw.x -npool 4 -i  Done                     05/02/2018 15:14:45
00002 suncat0172 pw.x -npool 4 -i  Done                     05/02/2018 15:14:45
00003 suncat0172 pw.x -npool 4 -i  Done                     05/02/2018 15:14:45
00004 suncat0172 pw.x -npool 4 -i  Done                     05/02/2018 15:14:45
00005 suncat0172 pw.x -npool 4 -i  Done                     05/02/2018 15:14:45
00006 suncat0172 pw.x -npool 4 -i  Done                     05/02/2018 15:14:45
00007 suncat0172 pw.x -npool 4 -i  Done                     05/02/2018 15:14:45
00008 suncat0150 pw.x -npool 4 -i  Done                     05/02/2018 15:14:45
00009 suncat0150 pw.x -npool 4 -i  Done                     05/02/2018 15:14:45
00010 suncat0150 pw.x -npool 4 -i  Done                     05/02/2018 15:14:45
00011 suncat0150 pw.x -npool 4 -i  Done                     05/02/2018 15:14:45
00012 suncat0150 pw.x -npool 4 -i  Done                     05/02/2018 15:14:45
00013 suncat0150 pw.x -npool 4 -i  Done                     05/02/2018 15:14:45
00014 suncat0150 pw.x -npool 4 -i  Done                     05/02/2018 15:14:45
00015 suncat0150 pw.x -npool 4 -i  Done                     05/02/2018 15:14:45
00016 suncat0133 pw.x -npool 4 -i  Done                     05/02/2018 15:14:45
00017 suncat0133 pw.x -npool 4 -i  Done                     05/02/2018 15:14:45
00018 suncat0133 pw.x -npool 4 -i  Done                     05/02/2018 15:14:45
00019 suncat0133 pw.x -npool 4 -i  Done                     05/02/2018 15:14:45
00020 suncat0133 pw.x -npool 4 -i  Done                     05/02/2018 15:14:45
00021 suncat0133 pw.x -npool 4 -i  Done                     05/02/2018 15:14:45
00022 suncat0133 pw.x -npool 4 -i  Done                     05/02/2018 15:14:45
00023 suncat0133 pw.x -npool 4 -i  Done                     05/02/2018 15:14:45
00024 suncat0121 pw.x -npool 4 -i  Done                     05/02/2018 15:14:45
00025 suncat0121 pw.x -npool 4 -i  Done                     05/02/2018 15:14:45
00026 suncat0121 pw.x -npool 4 -i  Done                     05/02/2018 15:14:45
00027 suncat0121 pw.x -npool 4 -i  Done                     05/02/2018 15:14:45
00028 suncat0121 pw.x -npool 4 -i  Done                     05/02/2018 15:14:45
00029 suncat0121 pw.x -npool 4 -i  Done                     05/02/2018 15:14:45
00030 suncat0121 pw.x -npool 4 -i  Done                     05/02/2018 15:14:45
00031 suncat0121 pw.x -npool 4 -i  Done                     05/02/2018 15:14:45