     Program PWSCF v.5.1rc2 (svn rev. 11289) starts on 16Apr2018 at 23:49:37

     Current dimensions of program PWSCF are:
     Max number of different atomic species (ntypx) = 10
     Max number of k-points (npk) =  40000
     Max angular momentum in pseudopotentials (lmaxx) =  3
     Presently stress not available with electric field

     IMPORTANT: XC functional enforced from input :
     Exchange-correlation      = BEEF-VDW ( 1  4 27 13 2)
     Any further DFT definition will be discarded
     Please, verify this is what you really want

     Subspace diagonalization in iterative solution of the eigenvalue problem:
     a serial algorithm will be used

     bravais-lattice index     =            0
     lattice parameter (alat)  =       1.8897  a.u.
     unit-cell volume          =    3724.3394 (a.u.)^3
     number of atoms/cell      =           14
     number of atomic types    =            3
     number of electrons       =       175.00
     number of Kohn-Sham states=           97
     kinetic-energy cutoff     =      36.7493  Ry
     charge density cutoff     =     367.4932  Ry
     convergence threshold     =      1.0E-05
     mixing beta               =       0.3000
     number of iterations used =           10  plain     mixing
     Exchange-correlation      = BEEF-VDW ( 1  4 27 13 2)
     nstep                     =           50

     celldm(1)=   1.889726  celldm(2)=   0.000000  celldm(3)=   0.000000
     celldm(4)=   0.000000  celldm(5)=   0.000000  celldm(6)=   0.000000

     crystal axes: (cart. coord. in units of alat)
               a(1) = (   5.132588   0.000000   0.000000 )
               a(2) = (   2.566294   4.444952   0.000000 )
               a(3) = (   0.000000   0.000000  24.190741 )

     reciprocal axes: (cart. coord. in units 2 pi/alat)
               b(1) = (  0.194833 -0.112487  0.000000 )
               b(2) = (  0.000000  0.224974  0.000000 )
               b(3) = (  0.000000  0.000000  0.041338 )

     PseudoPot. # 1 for Cr read from file:
     /u/if/mamunm/psp/gbrv1.5pbe/Cr.UPF
     MD5 check sum: 0d52af634a40206e4dee301ad30da4bf
     Pseudo is Ultrasoft + core correction, Zval = 14.0
     Generated by new atomic code, or converted to UPF format
     Using radial grid of  857 points,  6 beta functions with:
                l(1) =   0
                l(2) =   0
                l(3) =   1
                l(4) =   1
                l(5) =   2
                l(6) =   2
     Q(r) pseudized with  8 coefficients,  rinner =    0.950   0.950   0.950
                                                       0.950   0.950

     PseudoPot. # 2 for S  read from file:
     /u/if/mamunm/psp/gbrv1.5pbe/S.UPF
     MD5 check sum: 88d86576ff6df21479756cfb9bdac1df
     Pseudo is Ultrasoft + core correction, Zval =  6.0
     Generated by new atomic code, or converted to UPF format
     Using radial grid of  907 points,  6 beta functions with:
                l(1) =   0
                l(2) =   0
                l(3) =   1
                l(4) =   1
                l(5) =   2
                l(6) =   2
     Q(r) pseudized with  8 coefficients,  rinner =    1.300   1.300   1.300
                                                       1.300   1.300

     PseudoPot. # 3 for H  read from file:
     /u/if/mamunm/psp/gbrv1.5pbe/H.UPF
     MD5 check sum: 761ae9a214b05c3daf00ab9f6b793d6f
     Pseudo is Ultrasoft, Zval =  1.0
     Generated by new atomic code, or converted to UPF format
     Using radial grid of  615 points,  2 beta functions with:
                l(1) =   0
                l(2) =   0
     Q(r) pseudized with  8 coefficients,  rinner =    0.700

     vdW kernel table read from file vdW_kernel_table
     MD5 check sum: 095c7af220d748ca6e76c0b4c6cfb241

     atomic species   valence    mass     pseudopotential
        Cr1           14.00    51.99610     Cr( 1.00)
        S1             6.00    32.06000     S ( 1.00)
        H1             1.00     1.00800     H ( 1.00)

     No symmetry found

   Cartesian axes

     site n.     atom                  positions (alat units)
         1           Cr1 tau(   1) = (   1.2831471   0.7408253  10.0000000  )
         2           Cr1 tau(   2) = (   3.8494412   0.7408253  10.0000000  )
         3           Cr1 tau(   3) = (   2.5662941   2.9633012  10.0000000  )
         4           Cr1 tau(   4) = (   5.1325882   2.9633012  10.0000000  )
         5           Cr1 tau(   5) = (   5.1325882   1.4816506  12.0953704  )
         6           Cr1 tau(   6) = (   2.5662941   1.4816506  12.0953704  )
         7           Cr1 tau(   7) = (   6.4157353   3.7041265  12.0953704  )
         8           Cr1 tau(   8) = (   3.8494412   3.7041265  12.0953704  )
         9           Cr1 tau(   9) = (   0.0000000   0.0000000  14.1907408  )
        10           Cr1 tau(  10) = (   2.5662941   0.0000000  14.1907408  )
        11           Cr1 tau(  11) = (   1.2831471   2.2224759  14.1907408  )
        12           Cr1 tau(  12) = (   3.8494412   2.2224759  14.1907408  )
        13           S1  tau(  13) = (   0.0000000   0.0000000  16.2647408  )
        14           H1  tau(  14) = (   0.0000000   0.0000000  17.5147408  )

     number of k points=    20  Fermi-Dirac smearing, width (Ry)=  0.0110
                       cart. coord. in units 2pi/alat
        k(    1) = (   0.0000000   0.0000000   0.0000000), wk =   0.0555556
        k(    2) = (   0.0000000   0.0374957   0.0000000), wk =   0.1111111
        k(    3) = (   0.0000000   0.0749914   0.0000000), wk =   0.1111111
        k(    4) = (   0.0000000  -0.1124872   0.0000000), wk =   0.0555556
        k(    5) = (   0.0324722  -0.0187479   0.0000000), wk =   0.1111111
        k(    6) = (   0.0324722   0.0187479   0.0000000), wk =   0.1111111
        k(    7) = (   0.0324722   0.0562436   0.0000000), wk =   0.1111111
        k(    8) = (   0.0324722  -0.1312350   0.0000000), wk =   0.1111111
        k(    9) = (   0.0324722  -0.0937393   0.0000000), wk =   0.1111111
        k(   10) = (   0.0324722  -0.0562436   0.0000000), wk =   0.1111111
        k(   11) = (   0.0649445  -0.0374957   0.0000000), wk =   0.1111111
        k(   12) = (   0.0649445   0.0000000   0.0000000), wk =   0.1111111
        k(   13) = (   0.0649445   0.0374957   0.0000000), wk =   0.1111111
        k(   14) = (   0.0649445  -0.1499829   0.0000000), wk =   0.1111111
        k(   15) = (   0.0649445  -0.1124872   0.0000000), wk =   0.1111111
        k(   16) = (   0.0649445  -0.0749914   0.0000000), wk =   0.1111111
        k(   17) = (  -0.0974167   0.0562436   0.0000000), wk =   0.0555556
        k(   18) = (  -0.0974167   0.0937393   0.0000000), wk =   0.1111111
        k(   19) = (  -0.0974167   0.1312350   0.0000000), wk =   0.1111111
        k(   20) = (  -0.0974167  -0.0562436   0.0000000), wk =   0.0555556

     Largest allocated arrays     est. size (Mb)     dimensions
     Largest temporary arrays     est. size (Mb)     dimensions

     Check: negative/imaginary core charge=   -0.000004    0.000000

     Initial potential from superposition of free atoms
     Check: negative starting charge=   -0.014709

     starting charge  162.99977, renormalised to  175.00000

     negative rho (up, down):  1.579E-02 0.000E+00

     *
     * You are using vdW-DF for exchange-correlation in this calculation.
     * Please cite the following three references that made this development
     * possible:
     *
     *   M. Dion, H. Rydberg, E. Schroder, D. C. Langreth, and
     *   B. I. Lundqvist, Phys. Rev. Lett. 92, 246401 (2004).
     *
     *   T. Thonhauser, V. R. Cooper, S. Li, A. Puzder, P. Hyldgaard, and
     *   D. C. Langreth, Phys. Rev. B 76, 125112 (2007).
     *
     *   G. Roman-Perez and J. M. Soler, Phys. Rev. Lett. 103, 096102 (2009).
     *
     *
     * If you are using vdW-DF2, please also cite:
     *
     *   K. Lee, E. D. Murray, L. Kong, B. I. Lundqvist, and
     *   D. C. Langreth, Phys. Rev. B 82, 081101(R) (2010).
     *
     *
     * If you are calculating the stress with vdW-DF, please also cite:
     *
     *   R. Sabatini, E. Kucukbenli, B. Kolb, T. Thonhauser, and
     *   S. de Gironcoli, J. Phys.: Condens. Matter 24, 424209 (2012).
     *

     Carrying out vdW-DF run using the following parameters:

     Nqs =      20    Nr_points =    1024   r_max =   100.000
     q_mesh =
               0.00001000     0.04494208     0.09755937     0.15916263
               0.23128650     0.31572767     0.41458969     0.53033537
               0.66584808     0.82450364     1.01025438     1.22772762
               1.48234092     1.78043706     2.12944203     2.53805004
               3.01644009     3.57652955     4.23227104     5.00000000

     Gradients computed in reciprocal space

     Adding external electric field

     Computed dipole along edir(3) :
        Dipole               -4.2339 Ry au,        -10.7615 Debye
        Dipole field         -0.0143 Ry au

        Potential amp.        1.2735 Ry
        Total length         44.5710 bohr

     Starting wfc are  125 randomized atomic wfcs

     Self-consistent Calculation

     iteration #  1     ecut=    36.75 Ry     beta=0.30
     Davidson diagonalization with overlap
     ethr =  1.00E-02,  avg # of iterations =  9.2

[...]

     total energy              =   -1780.80163414 Ry
     Harris-Foulkes estimate   =   -2137.17479101 Ry
     estimated scf accuracy    <     744.30246046 Ry

[...]

     End of self-consistent calculation

          k = 0.0000 0.0000 0.0000 ( 14081 PWs)   bands (ev):

   -69.6251 -69.5520 -69.4944 -69.4712 -69.4694 -69.4634 -69.4535 -69.4071
   -69.4061 -69.3672 -69.3643 -69.3639 -41.2415 -41.2195 -41.2188 -41.1777
   -41.1242 -41.1242 -41.1123 -41.0254 -41.0253 -41.0152 -40.9744 -40.8484
   -40.7906 -40.7899 -40.7633 -40.7544 -40.7539 -40.7051 -40.7045 -40.6990
   -40.6494 -40.6220 -40.6209 -40.5830 -40.5829 -40.5814 -40.5723 -40.5397
   -40.5395 -40.5101 -40.5093 -40.5090 -40.4371 -40.4369 -40.3767 -40.3767
   -12.6655  -5.8036  -4.4333  -2.7345  -1.8738  -1.8736  -1.8368  -1.5400
    -1.3642  -1.3639  -1.2291  -1.2289  -1.1899  -0.8099  -0.7778  -0.7776
    -0.6876  -0.6806  -0.6805   0.1670   0.4522   0.4524   1.1292   1.1749
     1.2753   1.2753   1.3869   1.6454   1.6757   1.6757   1.8601   1.8601
     1.9247   1.9251   1.9458   1.9461   1.9462   2.0334   2.0334   2.2450
     2.6328   2.9058   2.9062   2.9850   2.9853   3.0065   3.0167   3.2921
     3.2921

[...]

          k =-0.0974 0.0562 0.0000 ( 14010 PWs)   bands (ev):

[...]

     the Fermi energy is     2.1086 ev

!    total energy              =   -2140.50217106 Ry
     Harris-Foulkes estimate   =   -2140.50218775 Ry
     estimated scf accuracy    <       0.00000783 Ry

     The total energy is the sum of the following terms:

     one-electron contribution =  -19871.86345860 Ry
     hartree contribution      =    9934.03725409 Ry
     xc contribution           =    -288.81489886 Ry
     ewald contribution        =    8086.27452929 Ry
     electric field correction =       0.00047412 Ry
     smearing contrib. (-TS)   =      -0.13607109 Ry

     convergence has been achieved in  61 iterations

 BEEF-vdW xc energy contributions
           1 :   -249.851609560581
           2 :    224.710200967002
           3 :   -182.754122214168
           4 :    136.590631355185
           5 :   -97.6380270863351
           6 :    72.0300358660349
           7 :   -59.5036027236197
           8 :    55.2585405446948
           9 :   -53.3752269184377
          10 :    49.8490356739981
          11 :   -43.8698986517539
          12 :    37.1265064306934
          13 :   -31.9727850980740
          14 :    29.6994880836098
          15 :   -29.8407369432992
          16 :    30.6978566738413
          17 :   -30.5521915730449
          18 :    28.7208571579665
          19 :   -25.8247557702592
          20 :    23.1968679152205
          21 :   -21.9080437187817
          22 :    22.0782264608976
          23 :   -22.8884433271903
          24 :    23.2081349397189
          25 :   -22.3634204064978
          26 :    20.5308142885068
          27 :   -18.5412536921679
          28 :    17.2798101994808
          29 :   -17.1055076725493
          30 :    17.6584100655486
          31 :   -24.8866556124685
          32 :   -17.8502404090790

     Forces acting on atoms (Ry/au):

     negative rho (up, down):  1.437E-02 0.000E+00
     atom    1 type  1   force =    -0.00004556    0.00000652    0.00095279
     atom    2 type  1   force =     0.00004490   -0.00001519    0.00091680
     atom    3 type  1   force =    -0.00002295    0.00002927    0.00088940
     atom    4 type  1   force =     0.00001358   -0.00001841   -0.00099258
     atom    5 type  1   force =    -0.00001750    0.00258029    0.00526184
     atom    6 type  1   force =     0.00001780    0.00002208    0.01034929
     atom    7 type  1   force =    -0.00219901   -0.00128414    0.00521975
     atom    8 type  1   force =     0.00221465   -0.00131500    0.00518624
     atom    9 type  1   force =    -0.00002498    0.00001810   -0.04558036
     atom   10 type  1   force =     0.00004007   -0.00091106   -0.01556141
     atom   11 type  1   force =    -0.00079801    0.00045278   -0.01558945
     atom   12 type  1   force =     0.00077536    0.00043976   -0.01560933
     atom   13 type  2   force =     0.00000041   -0.00000069   -0.05843279
     atom   14 type  3   force =     0.00000124   -0.00000431    0.12298982

     Total force =     0.146116     Total SCF correction =     0.005223

     entering subroutine stress ...

     negative rho (up, down):  1.437E-02 0.000E+00
          total   stress  (Ry/bohr**3)                   (kbar)     P=  -15.69
  -0.00021749  -0.00000008  -0.00000000        -31.99     -0.01     -0.00
  -0.00000008  -0.00021761  -0.00000002         -0.01    -32.01     -0.00
  -0.00000000  -0.00000002   0.00011504         -0.00     -0.00     16.92

     BFGS Geometry Optimization

     number of scf cycles    =   1
     number of bfgs steps    =   0

     energy   new            =   -2140.5021710559 Ry

     new trust radius        =       0.1229898196 bohr
     new conv_thr            =       0.0000099958 Ry

ATOMIC_POSITIONS (crystal)
Cr1      0.166666667   0.166666667   0.413381306    0   0   0
Cr1      0.666666667   0.166666667   0.413381306    0   0   0
Cr1      0.166666667   0.666666667   0.413381306    0   0   0
Cr1      0.666666667   0.666666667   0.413381306    0   0   0
Cr1      0.833333333   0.333333333   0.500000000    0   0   0
Cr1      0.333333333   0.333333333   0.500000000    0   0   0
Cr1      0.833333333   0.833333333   0.500000000    0   0   0
Cr1      0.333333333   0.833333333   0.500000000    0   0   0
Cr1     -0.000003653   0.000002155   0.585621615
Cr1      0.500058363  -0.000108463   0.586278285
Cr1     -0.000109228   0.500053904   0.586277672
Cr1      0.500053764   0.500052354   0.586277237
S1       0.000000084  -0.000000083   0.671075748
H1       0.000000385  -0.000000513   0.726717067

     Writing output data file calc.save
     Check: negative starting charge=   -0.014709
     NEW-OLD atomic charge density approx. for the potential

     Check: negative/imaginary core charge=   -0.000004    0.000000
     Check: negative starting charge=   -0.014535

[...]

     iteration #  1     ecut=    36.75 Ry     beta=0.30
     Davidson diagonalization with overlap
     c_bands:  2 eigenvalues not converged
     ethr =  1.00E-06,  avg # of iterations = 16.6

[...]

     Total force =     0.080212     Total SCF correction =     0.012634
     SCF correction compared to forces is large: reduce conv_thr to get better values

[...]

     energy   old            =   -2140.5021710559 Ry
     energy   new            =   -2140.5118518217 Ry

     CASE: energy  _new < energy  _old

[...]

     iteration # 11     ecut=    36.75 Ry     beta=0.30
     Davidson diagonalization with overlap
     c_bands:  2 eigenvalues not converged
     ethr =  3.87E-07,  avg # of iterations =  2.2

[...]

     WARNING: bfgs curvature condition failed, Theta= 0.891
     new trust radius        =       0.0127928672 bohr
     new conv_thr            =       0.0000001000 Ry

[...]

     Total force =     0.020339     Total SCF correction =     0.000899

[...]

     number of scf cycles    =  21
     number of bfgs steps    =  20

     energy   old            =   -2140.5385934545 Ry
     energy   new            =   -2140.5401785580 Ry

     CASE: energy  _new < energy  _old

     new trust radius        =       0.0349931645 bohr
     new conv_thr            =       0.0000001000 Ry

ATOMIC_POSITIONS (crystal)
Cr1      0.166666667   0.166666667   0.413381306    0   0   0
Cr1      0.666666667   0.166666667   0.413381306    0   0   0
Cr1      0.166666667   0.666666667   0.413381306    0   0   0
Cr1      0.666666667   0.666666667   0.413381306    0   0   0
Cr1      0.833333333   0.333333333   0.500000000    0   0   0
Cr1      0.333333333   0.333333333   0.500000000    0   0   0
Cr1      0.833333333   0.833333333   0.500000000    0   0   0
Cr1      0.333333333   0.833333333   0.500000000    0   0   0
Cr1      0.000047642  -0.000032479   0.599703042
Cr1      0.502094655  -0.004111789   0.577312573
Cr1     -0.004445604   0.502140497   0.577343644
Cr1      0.501935455   0.502236186   0.577329620
S1       0.000083563  -0.000031256   0.687495519
H1      -0.000062732   0.000050396   0.743121802

     Writing output data file calc.save
     Check: negative starting charge=   -0.013211
     NEW-OLD atomic charge density approx. for the potential

     Check: negative/imaginary core charge=   -0.000004    0.000000
     Check: negative starting charge=   -0.013753

[...]

     Self-consistent Calculation

[...]

     total energy              =   -2140.54083232 Ry
     Harris-Foulkes estimate   =   -2140.54083236 Ry
     estimated scf accuracy    <       0.00000013 Ry

     iteration # 24     ecut=    36.75 Ry     beta=0.30
     Davidson diagonalization with overlap
     ethr =  7.17E-11,  avg # of iterations =  5.3

[...]

     negative rho (up, down):  1.360E-02 0.000E+00

     Adding external electric field

     Computed dipole along edir(3) :
        Dipole                0.3345 Ry au,          0.8503 Debye
        Dipole field          0.0011 Ry au

        Potential amp.       -0.1006 Ry
        Total length         44.5710 bohr

     End of self-consistent calculation

[...]

          k = 0.0649-0.0750 0.0000 ( 13990 PWs)   bands (ev):

[...]

          k =-0.0974-0.0562 0.0000 ( 14010 PWs)   bands (ev):

   -69.7432 -69.6863 -69.6677 -69.6076 -69.5837 -69.5629 -69.5552 -69.5092
   -69.5051 -69.4909 -69.4715 -69.4606 -41.3553 -41.2933 -41.2703 -41.2549
   -41.1876 -41.1655 -41.1644 -41.1099 -41.0785 -41.0683 -41.0316 -41.0131
   -40.9914 -40.9339 -40.8858 -40.8685 -40.8596 -40.8559 -40.8438 -40.8307
   -40.8180 -40.7903 -40.7842 -40.7734 -40.7528 -40.7505 -40.7206 -40.7135
   -40.6529 -40.6464 -40.5985 -40.5892 -40.5812 -40.5787 -40.5481 -40.5253
   -11.9876  -5.0810  -2.9027  -2.8272  -1.6768  -1.4102  -1.2647  -1.1224
    -1.0877  -0.9472  -0.9010  -0.7902  -0.7822  -0.6623  -0.3340  -0.3262
    -0.1880  -0.0365   0.0119   0.0932   0.3262   0.3584   0.4898   0.5121
     0.5813   0.6241   0.7648   1.0117   1.0272   1.1688   1.2306   1.2601
     1.2671   1.3819   1.4250   1.4643   1.4952   1.6611   1.7083   1.8412
     1.8771   2.0531   2.2715   2.4917   2.5002   2.5980   2.6567   2.7568
     2.7655

     the Fermi energy is     1.9898 ev

!    total energy              =   -2140.54083225 Ry
     Harris-Foulkes estimate   =   -2140.54083218 Ry
     estimated scf accuracy    <       0.00000009 Ry

     The total energy is the sum of the following terms:

     one-electron contribution =  -19917.21951833 Ry
     hartree contribution      =    9956.09252802 Ry
     xc contribution           =    -288.86615537 Ry
     ewald contribution        =    8109.57122555 Ry
     electric field correction =       0.00037763 Ry
     smearing contrib. (-TS)   =      -0.11928975 Ry

     convergence has been achieved in  24 iterations

 BEEF-vdW xc energy contributions
           1 :   -249.907137451816
           2 :    224.759116337781
           3 :   -182.798368821660
           4 :    136.609368018561
           5 :   -97.5756806756879
           6 :    71.8388081465949
           7 :   -59.1949660961208
           8 :    54.9123614469529
           9 :   -53.0986514242054
          10 :    49.7159099428592
          11 :   -43.8769132359253
          12 :    37.1882041302111
          13 :   -31.9599797184071
          14 :    29.5061380635871
          15 :   -29.4468508635029
          16 :    30.1900103778527
          17 :   -30.0807417424137
          18 :    28.4109359666582
          19 :   -25.6933940214502
          20 :    23.1340382763598
          21 :   -21.7433732939698
          22 :    21.6959025743317
          23 :   -22.3129615281646
          24 :    22.5979556589984
          25 :   -21.9114966480930
          26 :    20.3370115619409
          27 :   -18.5433909190301
          28 :    17.2901165859358
          29 :   -16.9284791283299
          30 :    17.2138959562834
          31 :   -24.8886008992600
          32 :   -17.8437076723096

     Forces acting on atoms (Ry/au):

     negative rho (up, down):  1.360E-02 0.000E+00
     atom    1 type  1   force =    -0.00018642   -0.00010888    0.00723371
     atom    2 type  1   force =     0.00018838   -0.00011273    0.00723066
     atom    3 type  1   force =     0.00000826    0.00021332    0.00723521
     atom    4 type  1   force =     0.00001156   -0.00001124   -0.00627429
     atom    5 type  1   force =     0.00003772   -0.02306039    0.00570440
     atom    6 type  1   force =     0.00002687   -0.00000538   -0.03217865
     atom    7 type  1   force =     0.02000541    0.01145868    0.00566502
     atom    8 type  1   force =    -0.01994516    0.01149513    0.00561722
     atom    9 type  1   force =    -0.00006136    0.00004740   -0.00191548
     atom   10 type  1   force =     0.00001883    0.00075154   -0.00009541
     atom   11 type  1   force =     0.00058734   -0.00040221   -0.00008566
     atom   12 type  1   force =    -0.00070193   -0.00025571   -0.00012072
     atom   13 type  2   force =     0.00003244   -0.00002246    0.00142456
     atom   14 type  3   force =    -0.00002194    0.00001291    0.00055944

     Total force =     0.002771     Total SCF correction =     0.000432
     SCF correction compared to forces is large: reduce conv_thr to get better values

     entering subroutine stress ...

     negative rho (up, down):  1.360E-02 0.000E+00
          total   stress  (Ry/bohr**3)                   (kbar)     P=  -13.86
  -0.00013024   0.00000005  -0.00000019        -19.16      0.01     -0.03
   0.00000005  -0.00013009   0.00000016          0.01    -19.14      0.02
  -0.00000019   0.00000016  -0.00002228         -0.03      0.02     -3.28

     bfgs converged in  22 scf cycles and  21 bfgs steps
     (criteria: energy <  1.0E+00, force <  1.9E-03)

     End of BFGS Geometry Optimization

     Final energy   =   -2140.5408322514 Ry
Begin final coordinates

ATOMIC_POSITIONS (crystal)
Cr1      0.166666667   0.166666667   0.413381306    0   0   0
Cr1      0.666666667   0.166666667   0.413381306    0   0   0
Cr1      0.166666667   0.666666667   0.413381306    0   0   0
Cr1      0.666666667   0.666666667   0.413381306    0   0   0
Cr1      0.833333333   0.333333333   0.500000000    0   0   0
Cr1      0.333333333   0.333333333   0.500000000    0   0   0
Cr1      0.833333333   0.833333333   0.500000000    0   0   0
Cr1      0.333333333   0.833333333   0.500000000    0   0   0
Cr1      0.000047642  -0.000032479   0.599703042
Cr1      0.502094655  -0.004111789   0.577312573
Cr1     -0.004445604   0.502140497   0.577343644
Cr1      0.501935455   0.502236186   0.577329620
S1       0.000083563  -0.000031256   0.687495519
H1      -0.000062732   0.000050396   0.743121802
End final coordinates

     Writing output data file calc.save

     General routines

     Parallel routines

   This run was terminated on:   3:13:46  17Apr2018

   JOB DONE.
Job  /afs/slac/g/suncat/bin/suncat-tsmpirun -x LD_LIBRARY_PATH -wdir /scratch/qe158866_45RWx pw.x -npool 4 -in pw.inp

TID   HOST_NAME   COMMAND_LINE            STATUS            TERMINATION_TIME
00000 suncat0115 pw.x -npool 4 -i  Done                     04/17/2018 03:13:46
00001 suncat0115 pw.x -npool 4 -i  Done                     04/17/2018 03:13:46
00002 suncat0115 pw.x -npool 4 -i  Done                     04/17/2018 03:13:46
00003 suncat0115 pw.x -npool 4 -i  Done                     04/17/2018 03:13:46
00004 suncat0115 pw.x -npool 4 -i  Done                     04/17/2018 03:13:46
00005 suncat0115 pw.x -npool 4 -i  Done                     04/17/2018 03:13:46
00006 suncat0115 pw.x -npool 4 -i  Done                     04/17/2018 03:13:46
00007 suncat0115 pw.x -npool 4 -i  Done                     04/17/2018 03:13:46
00008 suncat0248 pw.x -npool 4 -i  Done                     04/17/2018 03:13:46
00009 suncat0248 pw.x -npool 4 -i  Done                     04/17/2018 03:13:46
00010 suncat0248 pw.x -npool 4 -i  Done                     04/17/2018 03:13:46
00011 suncat0248 pw.x -npool 4 -i  Done                     04/17/2018 03:13:46
00012 suncat0248 pw.x -npool 4 -i  Done                     04/17/2018 03:13:46
00013 suncat0248 pw.x -npool 4 -i  Done                     04/17/2018 03:13:46
00014 suncat0248 pw.x -npool 4 -i  Done                     04/17/2018 03:13:46
00015 suncat0248 pw.x -npool 4 -i  Done                     04/17/2018 03:13:46
00016 suncat0219 pw.x -npool 4 -i  Done                     04/17/2018 03:13:46
00017 suncat0219 pw.x -npool 4 -i  Done                     04/17/2018 03:13:46
00018 suncat0219 pw.x -npool 4 -i  Done                     04/17/2018 03:13:46
00019 suncat0219 pw.x -npool 4 -i  Done                     04/17/2018 03:13:46
00020 suncat0219 pw.x -npool 4 -i  Done                     04/17/2018 03:13:46
00021 suncat0219 pw.x -npool 4 -i  Done                     04/17/2018 03:13:46
00022 suncat0219 pw.x -npool 4 -i  Done                     04/17/2018 03:13:46
00023 suncat0219 pw.x -npool 4 -i  Done                     04/17/2018 03:13:46
00024 suncat0216 pw.x -npool 4 -i  Done                     04/17/2018 03:13:46
00025 suncat0216 pw.x -npool 4 -i  Done                     04/17/2018 03:13:46
00026 suncat0216 pw.x -npool 4 -i  Done                     04/17/2018 03:13:46
00027 suncat0216 pw.x -npool 4 -i  Done                     04/17/2018 03:13:46
00028 suncat0216 pw.x -npool 4 -i  Done                     04/17/2018 03:13:46
00029 suncat0216 pw.x -npool 4 -i  Done                     04/17/2018 03:13:46
00030 suncat0216 pw.x -npool 4 -i  Done                     04/17/2018 03:13:46
00031 suncat0216 pw.x -npool 4 -i  Done                     04/17/2018 03:13:46