     Program PWSCF v.5.1rc2 (svn rev. 11289) starts on  3May2018 at  9:14:26

     Current dimensions of program PWSCF are:
     Max number of different atomic species (ntypx) = 10
     Max number of k-points (npk) =  40000
     Max angular momentum in pseudopotentials (lmaxx) =  3
     Presently stress not available with electric field

     IMPORTANT: XC functional enforced from input :
     Exchange-correlation      = BEEF-VDW ( 1  4 27 13 2)
     Any further DFT definition will be discarded
     Please, verify this is what you really want

     Subspace diagonalization in iterative solution of the eigenvalue problem:
     a serial algorithm will be used

     bravais-lattice index     =            0
     lattice parameter (alat)  =       1.8897  a.u.
     unit-cell volume          =    5182.3421 (a.u.)^3
     number of atoms/cell      =           13
     number of atomic types    =            2
     number of electrons       =       161.00
     number of Kohn-Sham states=           90
     kinetic-energy cutoff     =      36.7493  Ry
     charge density cutoff     =     367.4932  Ry
     convergence threshold     =      1.0E-05
     mixing beta               =       0.3000
     number of iterations used =           10  plain     mixing
     Exchange-correlation      = BEEF-VDW ( 1  4 27 13 2)
     nstep                     =           50

     celldm(1)=   1.889726  celldm(2)=   0.000000  celldm(3)=   0.000000
     celldm(4)=   0.000000  celldm(5)=   0.000000  celldm(6)=   0.000000

     crystal axes: (cart. coord. in units of alat)
               a(1) = (   5.970602   0.000000   0.000000 )
               a(2) = (   2.985301   5.170693   0.000000 )
               a(3) = (   0.000000   0.000000  24.874976 )

     reciprocal axes: (cart. coord. in units 2 pi/alat)
               b(1) = (  0.167487 -0.096699  0.000000 )
               b(2) = (  0.000000  0.193398  0.000000 )
               b(3) = (  0.000000  0.000000  0.040201 )

     PseudoPot. # 1 for Nb read from file:
     /u/if/mamunm/psp/gbrv1.5pbe/Nb.UPF
     MD5 check sum: 573aab8a2fa660278ed4a62cd769473f
     Pseudo is Ultrasoft + core correction, Zval = 13.0
     Generated by new atomic code, or converted to UPF format
     Using radial grid of  887 points,  6 beta functions with:
                l(1) =   0
                l(2) =   0
                l(3) =   1
                l(4) =   1
                l(5) =   2
                l(6) =   2
     Q(r) pseudized with  6 coefficients,  rinner =    1.000   1.000   1.000
                                                       1.000   1.000

     PseudoPot. # 2 for N  read from file:
     /u/if/mamunm/psp/gbrv1.5pbe/N.UPF
     MD5 check sum: 95339753478d7afb44899504a8723017
     Pseudo is Ultrasoft + core correction, Zval =  5.0
     Generated by new atomic code, or converted to UPF format
     Using radial grid of  729 points,  4 beta functions with:
                l(1) =   0
                l(2) =   0
                l(3) =   1
                l(4) =   1
     Q(r) pseudized with  8 coefficients,  rinner =    0.900   0.900   0.900

     vdW kernel table read from file vdW_kernel_table
     MD5 check sum: 095c7af220d748ca6e76c0b4c6cfb241

     atomic species   valence    mass     pseudopotential
        Nb1           13.00    92.90637     Nb( 1.00)
        N1             5.00    14.00700     N ( 1.00)

     No symmetry found

   Cartesian axes

     site n.     atom                  positions (alat units)
         1           Nb1 tau(   1) = (   1.4926504   0.8617821  10.0000000  )
         2           Nb1 tau(   2) = (   4.4779512   0.8617821  10.0000000  )
         3           Nb1 tau(   3) = (   2.9853008   3.4471284  10.0000000  )
         4           Nb1 tau(   4) = (   5.9706016   3.4471284  10.0000000  )
         5           Nb1 tau(   5) = (   5.9706016   1.7235642  12.4374879  )
         6           Nb1 tau(   6) = (   2.9853008   1.7235642  12.4374879  )
         7           Nb1 tau(   7) = (   7.4632520   4.3089105  12.4374879  )
         8           Nb1 tau(   8) = (   4.4779512   4.3089105  12.4374879  )
         9           Nb1 tau(   9) = (   0.0000000   0.0000000  14.8749758  )
        10           Nb1 tau(  10) = (   2.9853008   0.0000000  14.8749758  )
        11           Nb1 tau(  11) = (   1.4926504   2.5853463  14.8749758  )
        12           Nb1 tau(  12) = (   4.4779512   2.5853463  14.8749758  )
        13           N1  tau(  13) = (   0.0000000   0.0000000  16.8724758  )

     number of k points=    20  Fermi-Dirac smearing, width (Ry)=  0.0110
                       cart. coord. in units 2pi/alat
        k(    1) = (   0.0000000   0.0000000   0.0000000), wk =   0.0555556
        k(    2) = (   0.0000000   0.0322329   0.0000000), wk =   0.1111111
        k(    3) = (   0.0000000   0.0644659   0.0000000), wk =   0.1111111
        k(    4) = (   0.0000000  -0.0966988   0.0000000), wk =   0.0555556
        k(    5) = (   0.0279146  -0.0161165   0.0000000), wk =   0.1111111
        k(    6) = (   0.0279146   0.0161165   0.0000000), wk =   0.1111111
        k(    7) = (   0.0279146   0.0483494   0.0000000), wk =   0.1111111
        k(    8) = (   0.0279146  -0.1128153   0.0000000), wk =   0.1111111
        k(    9) = (   0.0279146  -0.0805824   0.0000000), wk =   0.1111111
        k(   10) = (   0.0279146  -0.0483494   0.0000000), wk =   0.1111111
        k(   11) = (   0.0558291  -0.0322329   0.0000000), wk =   0.1111111
        k(   12) = (   0.0558291   0.0000000   0.0000000), wk =   0.1111111
        k(   13) = (   0.0558291   0.0322329   0.0000000), wk =   0.1111111
        k(   14) = (   0.0558291  -0.1289318   0.0000000), wk =   0.1111111
        k(   15) = (   0.0558291  -0.0966988   0.0000000), wk =   0.1111111
        k(   16) = (   0.0558291  -0.0644659   0.0000000), wk =   0.1111111
        k(   17) = (  -0.0837437   0.0483494   0.0000000), wk =   0.0555556
        k(   18) = (  -0.0837437   0.0805824   0.0000000), wk =   0.1111111
        k(   19) = (  -0.0837437   0.1128153   0.0000000), wk =   0.1111111
        k(   20) = (  -0.0837437  -0.0483494   0.0000000), wk =   0.0555556

     Largest allocated arrays     est. size (Mb)     dimensions
     Largest temporary arrays     est. size (Mb)     dimensions

     Initial potential from superposition of free atoms
     Check: negative starting charge=   -0.005147

     starting charge  160.96719, renormalised to  161.00000

     negative rho (up, down):  5.148E-03 0.000E+00

     *
     * You are using vdW-DF for exchange-correlation in this calculation.
     * Please cite the following three references that made this development
     * possible:
     *
     *   M. Dion, H. Rydberg, E. Schroder, D. C. Langreth, and
     *   B. I. Lundqvist, Phys. Rev. Lett. 92, 246401 (2004).
     *
     *   T. Thonhauser, V. R. Cooper, S. Li, A. Puzder, P. Hyldgaard, and
     *   D. C. Langreth, Phys. Rev. B 76, 125112 (2007).
     *
     *   G. Roman-Perez and J. M. Soler, Phys. Rev. Lett. 103, 096102 (2009).
     *
     *
     * If you are using vdW-DF2, please also cite:
     *
     *   K. Lee, E. D. Murray, L. Kong, B. I. Lundqvist, and
     *   D. C. Langreth, Phys. Rev. B 82, 081101(R) (2010).
     *
     *
     * If you are calculating the stress with vdW-DF, please also cite:
     *
     *   R. Sabatini, E. Kucukbenli, B. Kolb, T. Thonhauser, and
     *   S. de Gironcoli, J. Phys.: Condens. Matter 24, 424209 (2012).
     *

     Carrying out vdW-DF run using the following parameters:

     Nqs =      20    Nr_points =    1024   r_max =   100.000
     q_mesh =
               0.00001000     0.04494208     0.09755937     0.15916263
               0.23128650     0.31572767     0.41458969     0.53033537
               0.66584808     0.82450364     1.01025438     1.22772762
               1.48234092     1.78043706     2.12944203     2.53805004
               3.01644009     3.57652955     4.23227104     5.00000000

     Gradients computed in reciprocal space

     Adding external electric field

     Computed dipole along edir(3) :
        Dipole               -0.0085 Ry au,         -0.0215 Debye
        Dipole field         -0.0000 Ry au

        Potential amp.        0.0019 Ry
        Total length         45.8317 bohr

     Starting wfc are  160 randomized atomic wfcs

     Self-consistent Calculation

     iteration #  1     ecut=    36.75 Ry     beta=0.30
     Davidson diagonalization with overlap
     ethr =  1.00E-02,  avg # of iterations =  2.0

[...]

     total energy              =   -1439.77826588 Ry
     Harris-Foulkes estimate   =   -1442.95953852 Ry
     estimated scf accuracy    <       7.06814786 Ry

[...]

     End of self-consistent calculation

          k = 0.0000 0.0000 0.0000 ( 19435 PWs)   bands (ev):

   -53.7928 -53.6861 -53.6858 -53.6843 -53.5757 -53.5435 -53.5434 -53.5433
   -53.4949 -53.4643 -53.4641 -53.2951 -30.1780 -30.1679 -30.1678 -30.1328
   -30.1011 -30.1011 -30.0811 -30.0480 -30.0410 -30.0410 -29.8104 -29.7340
   -29.7338 -29.5934 -29.5866 -29.5866 -29.5519 -29.4730 -29.4502 -29.4502
   -29.4004 -29.3765 -29.3764 -29.3598 -29.3598 -29.3536 -29.2741 -29.2741
   -29.2670 -29.2248 -29.1941 -29.1941 -29.1499 -29.1498 -29.0931 -29.0931
   -10.4586  -4.0374  -2.7469  -2.3005  -2.1516  -2.1516  -2.1040  -1.8418
    -1.8085  -1.8085  -1.4747  -1.4597  -1.4597  -1.3358  -1.3358  -1.3357
    -0.6025  -0.6025  -0.2555  -0.0156   0.5055   0.5055   0.8088   0.9490
     1.2254   1.2254   1.2355   1.5385   1.5385   1.6873   1.7693   1.7693
     1.8105   1.8105   1.8586   1.9164   1.9164   1.9520   1.9520   2.4397
     2.6994   2.9415

[...]

          k =-0.0837 0.0483 0.0000 ( 19524 PWs)   bands (ev):

[...]

     the Fermi energy is     1.4337 ev

!    total energy              =   -1442.34457415 Ry
     Harris-Foulkes estimate   =   -1442.34455146 Ry
     estimated scf accuracy    <       0.00000570 Ry

     The total energy is the sum of the following terms:

     one-electron contribution =  -11636.65221662 Ry
     hartree contribution      =    5810.37729204 Ry
     xc contribution           =    -233.49412055 Ry
     ewald contribution        =    4617.54251852 Ry
     electric field correction =       0.00064426 Ry
     smearing contrib. (-TS)   =      -0.11869180 Ry

     convergence has been achieved in  18 iterations

 BEEF-vdW xc energy contributions
           1 :   -200.144279490408
           2 :    181.813663696632
           3 :   -150.665883296148
           4 :    115.124659115506
           5 :   -83.1665025459801
           6 :    59.7053672436469
           7 :   -45.6309987068454
           8 :    38.5194639127190
           9 :   -34.4389563476300
          10 :    29.9035850077594
          11 :   -23.1821053823857
          12 :    14.5514755278510
          13 :   -5.61380790727549
          14 :   -1.84559271608697
          15 :    6.83061102894499
          16 :   -9.51493099166134
          17 :    10.9462810027115
          18 :   -12.3398675522349
          19 :    14.3791245193218
          20 :   -16.9021212590065
          21 :    19.0926721350562
          22 :   -20.0169873152338
          23 :    19.1722559344958
          24 :   -16.7545558994918
          25 :    13.5323607973160
          26 :   -10.4424065290158
          27 :    8.14608586357326
          28 :   -6.77942314385044
          29 :    5.99859584813652
          30 :   -5.26564524264575
          31 :   -23.1183477046498
          32 :   -17.4252661104095

     Forces acting on atoms (Ry/au):

     negative rho (up, down):  4.882E-03 0.000E+00
     atom    1 type  1   force =    -0.00053467   -0.00030573   -0.00671438
     atom    2 type  1   force =     0.00053084   -0.00029557   -0.00674173
     atom    3 type  1   force =     0.00000918    0.00060440   -0.00674984
     atom    4 type  1   force =    -0.00000204   -0.00000213   -0.00584702
     atom    5 type  1   force =    -0.00000235    0.01112782   -0.00609333
     atom    6 type  1   force =     0.00000211    0.00000055    0.01566037
     atom    7 type  1   force =    -0.00963202   -0.00556071   -0.00610294
     atom    8 type  1   force =     0.00963495   -0.00556487   -0.00609843
     atom    9 type  1   force =     0.00000075    0.00000441    0.17476346
     atom   10 type  1   force =    -0.00000568    0.00397924    0.00798515
     atom   11 type  1   force =     0.00343774   -0.00199652    0.00797742
     atom   12 type  1   force =    -0.00343689   -0.00198910    0.00795994
     atom   13 type  2   force =    -0.00000191   -0.00000178   -0.16999868

     Total force =     0.244295     Total SCF correction =     0.003043

     entering subroutine stress ...

     negative rho (up, down):  4.882E-03 0.000E+00
          total   stress  (Ry/bohr**3)                   (kbar)     P=  -24.07
  -0.00020783  -0.00000001   0.00000000        -30.57     -0.00      0.00
  -0.00000001  -0.00020783   0.00000000         -0.00    -30.57      0.00
   0.00000000   0.00000000  -0.00007523          0.00      0.00    -11.07

     BFGS Geometry Optimization

     number of scf cycles    =   1
     number of bfgs steps    =   0

     energy   new            =   -1442.3445741456 Ry

     new trust radius        =       0.1747634600 bohr
     new conv_thr            =       0.0000099958 Ry

ATOMIC_POSITIONS (crystal)
Nb1      0.166666667   0.166666667   0.402010442    0   0   0
Nb1      0.666666667   0.166666667   0.402010442    0   0   0
Nb1      0.166666667   0.666666667   0.402010442    0   0   0
Nb1      0.666666667   0.666666667   0.402010442    0   0   0
Nb1      0.833333333   0.333333333   0.500000000    0   0   0
Nb1      0.333333333   0.333333333   0.500000000    0   0   0
Nb1      0.833333333   0.833333333   0.500000000    0   0   0
Nb1      0.333333333   0.833333333   0.500000000    0   0   0
Nb1     -0.000000159   0.000000451   0.601707384
Nb1      0.499795876   0.000407242   0.598159430
Nb1      0.000406852   0.499795672   0.598159266
Nb1      0.499797171   0.499796433   0.598158894
N1      -0.000000078  -0.000000182   0.674674681

     Writing output data file calc.save
     Check: negative starting charge=   -0.005147
     NEW-OLD atomic charge density approx. for the potential
     Check: negative starting charge=   -0.005160

[...]

     energy   old            =   -1442.3445741456 Ry
     energy   new            =   -1442.3880250028 Ry

     CASE: energy  _new < energy  _old

[...]

     Threshold (ethr) on eigenvalues was too large:
     Diagonalizing with lowered threshold

     Davidson diagonalization with overlap
     ethr =  2.86E-08,  avg # of iterations =  6.2

[...]

     Total force =     0.007592     Total SCF correction =     0.000767
     SCF correction compared to forces is large: reduce conv_thr to get better values

[...]

     Total force =     0.003488     Total SCF correction =     0.000342

[...]

     number of scf cycles    =   9
     number of bfgs steps    =   8

     energy   old            =   -1442.3918655228 Ry
     energy   new            =   -1442.3919064950 Ry

     CASE: energy  _new < energy  _old

     new trust radius        =       0.0022002186 bohr
     new conv_thr            =       0.0000001000 Ry

ATOMIC_POSITIONS (crystal)
Nb1      0.166666667   0.166666667   0.402010442    0   0   0
Nb1      0.666666667   0.166666667   0.402010442    0   0   0
Nb1      0.166666667   0.666666667   0.402010442    0   0   0
Nb1      0.666666667   0.666666667   0.402010442    0   0   0
Nb1      0.833333333   0.333333333   0.500000000    0   0   0
Nb1      0.333333333   0.333333333   0.500000000    0   0   0
Nb1      0.833333333   0.833333333   0.500000000    0   0   0
Nb1      0.333333333   0.833333333   0.500000000    0   0   0
Nb1      0.000000222  -0.000000351   0.602164480
Nb1      0.496695448   0.006607725   0.597949491
Nb1      0.006606863   0.496696066   0.597949475
Nb1      0.496696469   0.496697092   0.597949123
N1      -0.000000138  -0.000000732   0.672807468

     Writing output data file calc.save
     Check: negative starting charge=   -0.005222
     NEW-OLD atomic charge density approx. for the potential
     Check: negative starting charge=   -0.005221

[...]

     Self-consistent Calculation

[...]

     Threshold (ethr) on eigenvalues was too large:
     Diagonalizing with lowered threshold

     Davidson diagonalization with overlap
     ethr =  1.46E-09,  avg # of iterations =  7.2

[...]

     total energy              =   -1442.39191107 Ry
     Harris-Foulkes estimate   =   -1442.39191117 Ry
     estimated scf accuracy    <       0.00000015 Ry

     iteration #  7     ecut=    36.75 Ry     beta=0.30
     Davidson diagonalization with overlap
     ethr =  9.27E-11,  avg # of iterations =  4.8

[...]

     negative rho (up, down):  5.000E-03 0.000E+00

     Adding external electric field

     Computed dipole along edir(3) :
        Dipole               -0.3899 Ry au,         -0.9910 Debye
        Dipole field         -0.0009 Ry au

        Potential amp.        0.0867 Ry
        Total length         45.8317 bohr

     End of self-consistent calculation

[...]

          k = 0.0558-0.0645 0.0000 ( 19505 PWs)   bands (ev):

[...]

          k =-0.0837-0.0483 0.0000 ( 19524 PWs)   bands (ev):

   -53.6078 -53.5697 -53.5359 -53.4901 -53.4893 -53.4165 -53.4158 -53.4062
   -53.4033 -53.3616 -53.3568 -52.9200 -29.9135 -29.8809 -29.8672 -29.8580
   -29.8305 -29.8157 -29.7605 -29.7235 -29.7221 -29.7014 -29.6681 -29.6167
   -29.5935 -29.5407 -29.5153 -29.4995 -29.4821 -29.4665 -29.4156 -29.3797
   -29.3775 -29.3479 -29.3456 -29.3338 -29.3116 -29.2498 -29.2283 -29.2080
   -29.1802 -29.1773 -29.1646 -29.1628 -29.0776 -29.0640 -28.9815 -28.8641
   -10.4599  -2.3714  -2.3630  -1.4751  -1.3755  -1.3698  -1.1914  -1.0247
    -0.9996  -0.9632  -0.8794  -0.8258  -0.5636  -0.5175  -0.2339  -0.2283
    -0.1524  -0.1170  -0.0319   0.1005   0.3804   0.4134   0.4831   0.4852
     0.6518   0.7404   0.9269   1.0716   1.0975   1.1718   1.2638   1.3147
     1.3568   1.3743   1.4680   1.5409   1.7328   1.7466   1.7842   1.9466
     2.1719   2.4260

     the Fermi energy is     1.5617 ev

!    total energy              =   -1442.39191108 Ry
     Harris-Foulkes estimate   =   -1442.39191126 Ry
     estimated scf accuracy    <       0.00000003 Ry

     The total energy is the sum of the following terms:

     one-electron contribution =  -11632.10407880 Ry
     hartree contribution      =    5808.79794252 Ry
     xc contribution           =    -233.70752445 Ry
     ewald contribution        =    4614.73858860 Ry
     electric field correction =       0.00036860 Ry
     smearing contrib. (-TS)   =      -0.11720755 Ry

     convergence has been achieved in   7 iterations

 BEEF-vdW xc energy contributions
           1 :   -200.349406255720
           2 :    182.036082265832
           3 :   -150.907614081125
           4 :    115.370453247630
           5 :   -83.3911160230476
           6 :    59.8811396530613
           7 :   -45.7340747632906
           8 :    38.5354011143817
           9 :   -34.3677883335690
          10 :    29.7621801174749
          11 :   -23.0010976614870
          12 :    14.3659019151323
          13 :   -5.45078661778354
          14 :   -1.97606962010468
          15 :    6.93686645891120
          16 :   -9.61628227466315
          17 :    11.0603223446010
          18 :   -12.4702423144433
          19 :    14.5123550109092
          20 :   -17.0159242027752
          21 :    19.1697514921829
          22 :   -20.0569438394411
          23 :    19.1939501194498
          24 :   -16.7865639928518
          25 :    13.5970687817492
          26 :   -10.5429850069471
          27 :    8.26427376178512
          28 :   -6.88562166007648
          29 :    6.06860760423160
          30 :   -5.29391587212086
          31 :   -23.1299732080983
          32 :   -17.4396155044467

     Forces acting on atoms (Ry/au):

     negative rho (up, down):  5.000E-03 0.000E+00
     atom    1 type  1   force =    -0.00153041   -0.00088346   -0.00696512
     atom    2 type  1   force =     0.00153041   -0.00088366   -0.00696516
     atom    3 type  1   force =    -0.00000015    0.00176708   -0.00696531
     atom    4 type  1   force =     0.00000013   -0.00000007   -0.00575936
     atom    5 type  1   force =     0.00000019    0.01266953    0.00424878
     atom    6 type  1   force =    -0.00000015   -0.00000005    0.01511149
     atom    7 type  1   force =    -0.01097257   -0.00633502    0.00424963
     atom    8 type  1   force =     0.01097252   -0.00633483    0.00424865
     atom    9 type  1   force =    -0.00000092    0.00000049   -0.00142992
     atom   10 type  1   force =     0.00000086   -0.00031501   -0.00002006
     atom   11 type  1   force =    -0.00027300    0.00015807   -0.00002034
     atom   12 type  1   force =     0.00027330    0.00015721   -0.00002004
     atom   13 type  2   force =    -0.00000021   -0.00000029    0.00028676

     Total force =     0.001558     Total SCF correction =     0.000303
     SCF correction compared to forces is large: reduce conv_thr to get better values

     entering subroutine stress ...

     negative rho (up, down):  5.000E-03 0.000E+00
          total   stress  (Ry/bohr**3)                   (kbar)     P=  -18.14
  -0.00019554   0.00000000  -0.00000000        -28.77      0.00     -0.00
   0.00000000  -0.00019554   0.00000000          0.00    -28.77      0.00
  -0.00000000   0.00000000   0.00002122         -0.00      0.00      3.12

     bfgs converged in  10 scf cycles and   9 bfgs steps
     (criteria: energy <  1.0E+00, force <  1.9E-03)

     End of BFGS Geometry Optimization

     Final energy   =   -1442.3919110842 Ry
Begin final coordinates

ATOMIC_POSITIONS (crystal)
Nb1      0.166666667   0.166666667   0.402010442    0   0   0
Nb1      0.666666667   0.166666667   0.402010442    0   0   0
Nb1      0.166666667   0.666666667   0.402010442    0   0   0
Nb1      0.666666667   0.666666667   0.402010442    0   0   0
Nb1      0.833333333   0.333333333   0.500000000    0   0   0
Nb1      0.333333333   0.333333333   0.500000000    0   0   0
Nb1      0.833333333   0.833333333   0.500000000    0   0   0
Nb1      0.333333333   0.833333333   0.500000000    0   0   0
Nb1      0.000000222  -0.000000351   0.602164480
Nb1      0.496695448   0.006607725   0.597949491
Nb1      0.006606863   0.496696066   0.597949475
Nb1      0.496696469   0.496697092   0.597949123
N1      -0.000000138  -0.000000732   0.672807468
End final coordinates

     Writing output data file calc.save

     General routines

     Parallel routines

   This run was terminated on:  10:22:33   3May2018

   JOB DONE.
Job  /afs/slac/g/suncat/bin/suncat-tsmpirun -x LD_LIBRARY_PATH -wdir /scratch/qe701963_41lDy pw.x -npool 4 -in pw.inp

TID   HOST_NAME   COMMAND_LINE            STATUS            TERMINATION_TIME
00000 suncat0095 pw.x -npool 4 -i  Done                     05/03/2018 10:22:33
00001 suncat0095 pw.x -npool 4 -i  Done                     05/03/2018 10:22:33
00002 suncat0095 pw.x -npool 4 -i  Done                     05/03/2018 10:22:33
00003 suncat0095 pw.x -npool 4 -i  Done                     05/03/2018 10:22:33
00004 suncat0095 pw.x -npool 4 -i  Done                     05/03/2018 10:22:33
00005 suncat0095 pw.x -npool 4 -i  Done                     05/03/2018 10:22:33
00006 suncat0095 pw.x -npool 4 -i  Done                     05/03/2018 10:22:33
00007 suncat0095 pw.x -npool 4 -i  Done                     05/03/2018 10:22:33
00008 suncat0088 pw.x -npool 4 -i  Done                     05/03/2018 10:22:33
00009 suncat0088 pw.x -npool 4 -i  Done                     05/03/2018 10:22:33
00010 suncat0088 pw.x -npool 4 -i  Done                     05/03/2018 10:22:33
00011 suncat0088 pw.x -npool 4 -i  Done                     05/03/2018 10:22:33
00012 suncat0088 pw.x -npool 4 -i  Done                     05/03/2018 10:22:33
00013 suncat0088 pw.x -npool 4 -i  Done                     05/03/2018 10:22:33
00014 suncat0088 pw.x -npool 4 -i  Done                     05/03/2018 10:22:33
00015 suncat0088 pw.x -npool 4 -i  Done                     05/03/2018 10:22:33
00016 suncat0008 pw.x -npool 4 -i  Done                     05/03/2018 10:22:33
00017 suncat0008 pw.x -npool 4 -i  Done                     05/03/2018 10:22:33
00018 suncat0008 pw.x -npool 4 -i  Done                     05/03/2018 10:22:33
00019 suncat0008 pw.x -npool 4 -i  Done                     05/03/2018 10:22:33
00020 suncat0008 pw.x -npool 4 -i  Done                     05/03/2018 10:22:33
00021 suncat0008 pw.x -npool 4 -i  Done                     05/03/2018 10:22:33
00022 suncat0008 pw.x -npool 4 -i  Done                     05/03/2018 10:22:33
00023 suncat0008 pw.x -npool 4 -i  Done                     05/03/2018 10:22:33
00024 suncat0001 pw.x -npool 4 -i  Done                     05/03/2018 10:22:33
00025 suncat0001 pw.x -npool 4 -i  Done                     05/03/2018 10:22:33
00026 suncat0001 pw.x -npool 4 -i  Done                     05/03/2018 10:22:33
00027 suncat0001 pw.x -npool 4 -i  Done                     05/03/2018 10:22:33
00028 suncat0001 pw.x -npool 4 -i  Done                     05/03/2018 10:22:33
00029 suncat0001 pw.x -npool 4 -i  Done                     05/03/2018 10:22:33
00030 suncat0001 pw.x -npool 4 -i  Done                     05/03/2018 10:22:33
00031 suncat0001 pw.x -npool 4 -i  Done                     05/03/2018 10:22:33