     Program PWSCF v.5.1rc2 (svn rev. 11289) starts on  3May2018 at 12:33:54

     Current dimensions of program PWSCF are:
     Max number of different atomic species (ntypx) = 10
     Max number of k-points (npk) =  40000
     Max angular momentum in pseudopotentials (lmaxx) =  3
     Presently stress not available with electric field

     IMPORTANT: XC functional enforced from input :
     Exchange-correlation      = BEEF-VDW ( 1  4 27 13 2)
     Any further DFT definition will be discarded
     Please, verify this is what you really want

     Subspace diagonalization in iterative solution of the eigenvalue problem:
     a serial algorithm will be used

     bravais-lattice index     =            0
     lattice parameter (alat)  =       1.8897  a.u.
     unit-cell volume          =    6024.3322 (a.u.)^3
     number of atoms/cell      =           13
     number of atomic types    =            2
     number of electrons       =       148.00
     number of Kohn-Sham states=           84
     kinetic-energy cutoff     =      36.7493  Ry
     charge density cutoff     =     367.4932  Ry
     convergence threshold     =      1.0E-05
     mixing beta               =       0.3000
     number of iterations used =           10  plain     mixing
     Exchange-correlation      = BEEF-VDW ( 1  4 27 13 2)
     nstep                     =           50

     celldm(1)=   1.889726  celldm(2)=   0.000000  celldm(3)=   0.000000
     celldm(4)=   0.000000  celldm(5)=   0.000000  celldm(6)=   0.000000

     crystal axes: (cart. coord. in units of alat)
               a(1) = (   6.393197   0.000000   0.000000 )
               a(2) = (   3.196599   5.536671   0.000000 )
               a(3) = (   0.000000   0.000000  25.220024 )

     reciprocal axes: (cart. coord. in units 2 pi/alat)
               b(1) = (  0.156416 -0.090307  0.000000 )
               b(2) = (  0.000000  0.180614  0.000000 )
               b(3) = (  0.000000  0.000000  0.039651 )

     PseudoPot. # 1 for Hf read from file:
     /u/if/mamunm/psp/gbrv1.5pbe/Hf.UPF
     MD5 check sum: 8ee9378dfe14276e333edf04c5e4aa26
     Pseudo is Ultrasoft + core correction, Zval = 12.0
     Generated by new atomic code, or converted to UPF format
     Using radial grid of  921 points,  8 beta functions with:
                l(1) =   0
                l(2) =   0
                l(3) =   0
                l(4) =   1
                l(5) =   1
                l(6) =   2
                l(7) =   2
                l(8) =   3
     Q(r) pseudized with  6 coefficients,  rinner =    1.200   1.200   1.200
                                                       1.200   1.200   1.200
                                                       1.200

     PseudoPot. # 2 for C  read from file:
     /u/if/mamunm/psp/gbrv1.5pbe/C.UPF
     MD5 check sum: d1aef80898a10debaa0f26306b886e00
     Pseudo is Ultrasoft + core correction, Zval =  4.0
     Generated by new atomic code, or converted to UPF format
     Using radial grid of  721 points,  4 beta functions with:
                l(1) =   0
                l(2) =   0
                l(3) =   1
                l(4) =   1
     Q(r) pseudized with  8 coefficients,  rinner =    1.100   1.100   1.100

     vdW kernel table read from file vdW_kernel_table
     MD5 check sum: 095c7af220d748ca6e76c0b4c6cfb241

     atomic species   valence    mass     pseudopotential
        Hf1           12.00   178.49000     Hf( 1.00)
        C1             4.00    12.01100     C ( 1.00)

     No symmetry found

   Cartesian axes

     site n.     atom                  positions (alat units)
         1           Hf1 tau(   1) = (   1.5982993   0.9227785  10.0000000  )
         2           Hf1 tau(   2) = (   4.7948978   0.9227785  10.0000000  )
         3           Hf1 tau(   3) = (   3.1965986   3.6911141  10.0000000  )
         4           Hf1 tau(   4) = (   6.3931971   3.6911141  10.0000000  )
         5           Hf1 tau(   5) = (   6.3931971   1.8455570  12.6100118  )
         6           Hf1 tau(   6) = (   3.1965986   1.8455570  12.6100118  )
         7           Hf1 tau(   7) = (   7.9914964   4.6138926  12.6100118  )
         8           Hf1 tau(   8) = (   4.7948978   4.6138926  12.6100118  )
         9           Hf1 tau(   9) = (   0.0000000   0.0000000  15.2200236  )
        10           Hf1 tau(  10) = (   3.1965986   0.0000000  15.2200236  )
        11           Hf1 tau(  11) = (   1.5982993   2.7683356  15.2200236  )
        12           Hf1 tau(  12) = (   4.7948978   2.7683356  15.2200236  )
        13           C1  tau(  13) = (   3.1965986   1.8455570  16.8515236  )

     number of k points=    20  Fermi-Dirac smearing, width (Ry)=  0.0110
                       cart. coord. in units 2pi/alat
        k(    1) = (   0.0000000   0.0000000   0.0000000), wk =   0.0555556
        k(    2) = (   0.0000000   0.0301023   0.0000000), wk =   0.1111111
        k(    3) = (   0.0000000   0.0602046   0.0000000), wk =   0.1111111
        k(    4) = (   0.0000000  -0.0903070   0.0000000), wk =   0.0555556
        k(    5) = (   0.0260694  -0.0150512   0.0000000), wk =   0.1111111
        k(    6) = (   0.0260694   0.0150512   0.0000000), wk =   0.1111111
        k(    7) = (   0.0260694   0.0451535   0.0000000), wk =   0.1111111
        k(    8) = (   0.0260694  -0.1053581   0.0000000), wk =   0.1111111
        k(    9) = (   0.0260694  -0.0752558   0.0000000), wk =   0.1111111
        k(   10) = (   0.0260694  -0.0451535   0.0000000), wk =   0.1111111
        k(   11) = (   0.0521388  -0.0301023   0.0000000), wk =   0.1111111
        k(   12) = (   0.0521388   0.0000000   0.0000000), wk =   0.1111111
        k(   13) = (   0.0521388   0.0301023   0.0000000), wk =   0.1111111
        k(   14) = (   0.0521388  -0.1204093   0.0000000), wk =   0.1111111
        k(   15) = (   0.0521388  -0.0903070   0.0000000), wk =   0.1111111
        k(   16) = (   0.0521388  -0.0602046   0.0000000), wk =   0.1111111
        k(   17) = (  -0.0782081   0.0451535   0.0000000), wk =   0.0555556
        k(   18) = (  -0.0782081   0.0752558   0.0000000), wk =   0.1111111
        k(   19) = (  -0.0782081   0.1053581   0.0000000), wk =   0.1111111
        k(   20) = (  -0.0782081  -0.0451535   0.0000000), wk =   0.0555556

     Largest allocated arrays     est. size (Mb)     dimensions
     Largest temporary arrays     est. size (Mb)     dimensions

     Check: negative/imaginary core charge=   -0.000003    0.000000

     Initial potential from superposition of free atoms
     Check: negative starting charge=   -1.301326

     starting charge  123.99994, renormalised to  148.00000

     negative rho (up, down):  1.553E+00 0.000E+00

     *
     * You are using vdW-DF for exchange-correlation in this calculation.
     * Please cite the following three references that made this development
     * possible:
     *
     *   M. Dion, H. Rydberg, E. Schroder, D. C. Langreth, and
     *   B. I. Lundqvist, Phys. Rev. Lett. 92, 246401 (2004).
     *
     *   T. Thonhauser, V. R. Cooper, S. Li, A. Puzder, P. Hyldgaard, and
     *   D. C. Langreth, Phys. Rev. B 76, 125112 (2007).
     *
     *   G. Roman-Perez and J. M. Soler, Phys. Rev. Lett. 103, 096102 (2009).
     *
     *
     * If you are using vdW-DF2, please also cite:
     *
     *   K. Lee, E. D. Murray, L. Kong, B. I. Lundqvist, and
     *   D. C. Langreth, Phys. Rev. B 82, 081101(R) (2010).
     *
     *
     * If you are calculating the stress with vdW-DF, please also cite:
     *
     *   R. Sabatini, E. Kucukbenli, B. Kolb, T. Thonhauser, and
     *   S. de Gironcoli, J. Phys.: Condens. Matter 24, 424209 (2012).
     *

     Carrying out vdW-DF run using the following parameters:

     Nqs =      20    Nr_points =    1024   r_max =   100.000
     q_mesh =
               0.00001000     0.04494208     0.09755937     0.15916263
               0.23128650     0.31572767     0.41458969     0.53033537
               0.66584808     0.82450364     1.01025438     1.22772762
               1.48234092     1.78043706     2.12944203     2.53805004
               3.01644009     3.57652955     4.23227104     5.00000000

     Gradients computed in reciprocal space

     Adding external electric field

     Computed dipole along edir(3) :
        Dipole               -6.2050 Ry au,        -15.7716 Debye
        Dipole field         -0.0129 Ry au

        Potential amp.        1.2029 Ry
        Total length         46.4675 bohr

     Starting wfc are  160 randomized atomic wfcs

     Self-consistent Calculation

     iteration #  1     ecut=    36.75 Ry     beta=0.30
     Davidson diagonalization with overlap
     ethr =  1.00E-02,  avg # of iterations =  9.2

[...]

     total energy              =   -1445.56856821 Ry
     Harris-Foulkes estimate   =   -1929.51555633 Ry
     estimated scf accuracy    <    1042.55747104 Ry

     iteration #  2     ecut=    36.75 Ry     beta=0.30
     Davidson diagonalization with overlap
     c_bands:  2 eigenvalues not converged
     c_bands:  4 eigenvalues not converged
     ethr =  1.00E-02,  avg # of iterations = 21.2

[...]

     End of self-consistent calculation

          k = 0.0000 0.0000 0.0000 ( 22729 PWs)   bands (ev):

   -61.7616 -61.6240 -61.5928 -61.5926 -61.5793 -61.4402 -61.4148 -61.4148
   -61.2188 -61.1883 -61.1883 -61.1750 -30.4285 -30.3806 -30.3805 -30.3785
   -30.3534 -30.3533 -30.2720 -30.2095 -30.1924 -30.1923 -30.1685 -30.0410
   -30.0274 -30.0273 -29.9616 -29.9600 -29.9599 -29.9053 -29.9053 -29.8986
   -29.8684 -29.8684 -29.8319 -29.8318 -29.8279 -29.6823 -29.6823 -29.6719
   -29.6579 -29.6579 -29.6567 -29.5807 -29.5635 -29.5635 -29.4495 -29.4495
    -7.6546  -5.3718  -3.9464  -2.7620  -2.0971  -2.0971  -2.0289  -1.7710
    -1.7710  -1.6939  -1.4374  -1.4374  -1.3448  -0.7061  -0.7061  -0.6962
    -0.1162  -0.1162   0.1217   0.5707   0.5707   0.6364   1.0225   1.2740
     1.4166   1.4166   1.4428   1.8012   1.8012   1.8108   1.9689   2.2231
     2.2259   2.2260   2.3500   2.3506

[...]

          k =-0.0782 0.0452 0.0000 ( 22668 PWs)   bands (ev):

[...]

     the Fermi energy is     1.0174 ev

!    total energy              =   -1938.07521278 Ry
     Harris-Foulkes estimate   =   -1938.07523428 Ry
     estimated scf accuracy    <       0.00000194 Ry

     The total energy is the sum of the following terms:

     one-electron contribution =   -8486.37325077 Ry
     hartree contribution      =    4225.85450083 Ry
     xc contribution           =    -931.10543386 Ry
     ewald contribution        =    3253.65736219 Ry
     electric field correction =       0.00029729 Ry
     smearing contrib. (-TS)   =      -0.10868845 Ry

     convergence has been achieved in  35 iterations

 BEEF-vdW xc energy contributions
           1 :   -841.881450046360
           2 :    782.467072407772
           3 :   -677.177147105042
           4 :    547.779677002254
           5 :   -416.800233630672
           6 :    301.184232281141
           7 :   -209.527474818120
           8 :    142.997262428435
           9 :   -98.3809508752696
          10 :    71.0573599808135
          11 :   -56.5499644885568
          12 :    50.6083444915423
          13 :   -48.7922639591304
          14 :    46.5480073458255
          15 :   -40.1285174741606
          16 :    27.8419534458815
          17 :   -10.7724186219957
          18 :   -7.63972900013368
          19 :    23.0598096086794
          20 :   -32.0674535014282
          21 :    33.4201249022231
          22 :   -28.2479060188950
          23 :    19.2558965386954
          24 :   -9.52024543404832
          25 :    1.52774935355058
          26 :    3.20012764069929
          27 :   -4.01671264899824
          28 :   0.948213757789404
          29 :    5.34359914887159
          30 :   -13.4698034544624
          31 :   -60.5856780751089
          32 :   -43.5753215153122

     Forces acting on atoms (Ry/au):

     negative rho (up, down):  1.381E+00 0.000E+00
     atom    1 type  1   force =     0.00051469    0.00031191    0.02640295
     atom    2 type  1   force =    -0.00051119    0.00031027    0.02641285
     atom    3 type  1   force =    -0.00000086   -0.00060042    0.02641843
     atom    4 type  1   force =     0.00000107   -0.00001994    0.02632591
     atom    5 type  1   force =    -0.00003467   -0.00406711   -0.00555634
     atom    6 type  1   force =     0.00003472    0.00004638   -0.02559193
     atom    7 type  1   force =     0.00356430    0.00203169   -0.00559767
     atom    8 type  1   force =    -0.00356405    0.00199040   -0.00557927
     atom    9 type  1   force =    -0.00001457    0.00000060   -0.01711786
     atom   10 type  1   force =     0.00001164    0.04480847    0.03907670
     atom   11 type  1   force =     0.03880983   -0.02240104    0.03906511
     atom   12 type  1   force =    -0.03880968   -0.02241421    0.03906266
     atom   13 type  2   force =    -0.00000125    0.00000300   -0.16332154

     Total force =     0.193831     Total SCF correction =     0.003914

     entering subroutine stress ...

     negative rho (up, down):  1.381E+00 0.000E+00
          total   stress  (Ry/bohr**3)                   (kbar)     P=  -28.71
  -0.00017014  -0.00000000  -0.00000001        -25.03     -0.00     -0.00
  -0.00000000  -0.00017012  -0.00000000         -0.00    -25.03     -0.00
  -0.00000001  -0.00000000  -0.00024516         -0.00     -0.00    -36.06

     BFGS Geometry Optimization

     number of scf cycles    =   1
     number of bfgs steps    =   0

     energy   new            =   -1938.0752127763 Ry

     new trust radius        =       0.1633215450 bohr
     new conv_thr            =       0.0000099958 Ry

ATOMIC_POSITIONS (crystal)
Hf1      0.166666667   0.166666667   0.396510335    0   0   0
Hf1      0.666666667   0.166666667   0.396510335    0   0   0
Hf1      0.166666667   0.666666667   0.396510335    0   0   0
Hf1      0.666666667   0.666666667   0.396510335    0   0   0
Hf1      0.833333333   0.333333333   0.500000000    0   0   0
Hf1      0.333333333   0.333333333   0.500000000    0   0   0
Hf1      0.833333333   0.833333333   0.500000000    0   0   0
Hf1      0.333333333   0.833333333   0.500000000    0   0   0
Hf1     -0.000001235   0.000000057   0.603130491
Hf1      0.497859639   0.004282650   0.604309589
Hf1      0.004282873   0.497858981   0.604309346
Hf1      0.497858788   0.497857721   0.604309295
C1       0.333333087   0.333333620   0.664753445

     Writing output data file calc.save
     Check: negative starting charge=   -1.301326
     NEW-OLD atomic charge density approx. for the potential

     Check: negative/imaginary core charge=   -0.000003    0.000000
     Check: negative starting charge=   -1.298294

[...]

     energy   old            =   -1938.0752127763 Ry
     energy   new            =   -1938.1109714072 Ry

     CASE: energy  _new < energy  _old

     WARNING: bfgs curvature condition failed, Theta= 0.906
     new trust radius        =       0.2449823175 bohr
     new conv_thr            =       0.0000001000 Ry

[...]

     iteration #  1     ecut=    36.75 Ry     beta=0.30
     Davidson diagonalization with overlap
     c_bands:  1 eigenvalues not converged
     ethr =  1.00E-06,  avg # of iterations = 13.8

[...]

     number of scf cycles    =  15
     number of bfgs steps    =  14

     energy   old            =   -1938.2196320445 Ry
     energy   new            =   -1938.2204416686 Ry

     CASE: energy  _new < energy  _old

     new trust radius        =       0.0864024016 bohr
     new conv_thr            =       0.0000001000 Ry

ATOMIC_POSITIONS (crystal)
Hf1      0.166666667   0.166666667   0.396510335    0   0   0
Hf1      0.666666667   0.166666667   0.396510335    0   0   0
Hf1      0.166666667   0.666666667   0.396510335    0   0   0
Hf1      0.666666667   0.666666667   0.396510335    0   0   0
Hf1      0.833333333   0.333333333   0.500000000    0   0   0
Hf1      0.333333333   0.333333333   0.500000000    0   0   0
Hf1      0.833333333   0.833333333   0.500000000    0   0   0
Hf1      0.333333333   0.833333333   0.500000000    0   0   0
Hf1      0.000000123  -0.000000002   0.594578470
Hf1      0.509072148  -0.018144439   0.600078261
Hf1     -0.018144157   0.509071624   0.600077920
Hf1      0.509072255   0.509071537   0.600078029
C1       0.333333081   0.333333421   0.627685827

     Writing output data file calc.save
     Check: negative starting charge=   -1.299752
     NEW-OLD atomic charge density approx. for the potential

     Check: negative/imaginary core charge=   -0.000003    0.000000
     Check: negative starting charge=   -1.298807

[...]

     Self-consistent Calculation

[...]

     total energy              =   -1938.22079727 Ry
     Harris-Foulkes estimate   =   -1938.22079725 Ry
     estimated scf accuracy    <       0.00000011 Ry

     iteration # 12     ecut=    36.75 Ry     beta=0.30
     Davidson diagonalization with overlap
     ethr =  7.14E-11,  avg # of iterations =  2.5

[...]

     negative rho (up, down):  1.376E+00 0.000E+00

     Adding external electric field

     Computed dipole along edir(3) :
        Dipole               -0.0825 Ry au,         -0.2097 Debye
        Dipole field         -0.0002 Ry au

        Potential amp.        0.0160 Ry
        Total length         46.4675 bohr

     End of self-consistent calculation

[...]

          k = 0.0521-0.0602 0.0000 ( 22643 PWs)   bands (ev):

[...]

          k =-0.0782-0.0452 0.0000 ( 22668 PWs)   bands (ev):

   -61.3458 -61.3423 -61.3287 -61.3227 -61.2147 -61.0379 -60.7914 -60.7793
   -60.7693 -60.7624 -60.7483 -60.7420 -30.0159 -30.0050 -29.9664 -29.9573
   -29.9172 -29.9044 -29.8925 -29.8497 -29.8444 -29.8256 -29.8026 -29.7998
   -29.7410 -29.6563 -29.6460 -29.6318 -29.6286 -29.5984 -29.5800 -29.5048
   -29.4574 -29.4449 -29.4246 -29.3608 -29.3560 -29.2908 -29.2791 -29.2673
   -29.2336 -29.2297 -29.2048 -29.1841 -29.1797 -29.1673 -29.1085 -29.0745
    -8.0882  -3.7534  -3.4914  -2.6796  -2.0944  -1.6376  -1.5670  -1.3206
    -1.1662  -0.9540  -0.8566  -0.4636  -0.3993  -0.2692   0.1038   0.1563
     0.2847   0.3157   0.4749   0.5463   0.6849   0.6977   0.7999   0.8273
     0.9353   1.0770   1.1635   1.1957   1.2478   1.3820   1.5822   1.6257
     1.7787   1.8048   2.1788   2.2311

     the Fermi energy is     1.2757 ev

!    total energy              =   -1938.22079729 Ry
     Harris-Foulkes estimate   =   -1938.22079736 Ry
     estimated scf accuracy    <       0.00000001 Ry

     The total energy is the sum of the following terms:

     one-electron contribution =   -8764.75520205 Ry
     hartree contribution      =    4366.97174825 Ry
     xc contribution           =    -931.85217487 Ry
     ewald contribution        =    3391.51675096 Ry
     electric field correction =       0.00001420 Ry
     smearing contrib. (-TS)   =      -0.10193378 Ry

     convergence has been achieved in  12 iterations

 BEEF-vdW xc energy contributions
           1 :   -842.620977171676
           2 :    783.364516841258
           3 :   -678.202891787035
           4 :    548.702335870001
           5 :   -417.334527658117
           6 :    301.169684194049
           7 :   -209.021946147965
           8 :    142.238132348744
           9 :   -97.6487362637793
          10 :    70.5296770275847
          11 :   -56.2321043344491
          12 :    50.3731610423881
          13 :   -48.4956332409939
          14 :    46.1393398174791
          15 :   -39.6815214405428
          16 :    27.4911161934697
          17 :   -10.6060849502881
          18 :   -7.64983507892885
          19 :    23.0412729153638
          20 :   -32.1566370005336
          21 :    33.6651327452804
          22 :   -28.5761049051303
          23 :    19.5289725203080
          24 :   -9.63424486789881
          25 :    1.48290487247118
          26 :    3.30918201910390
          27 :   -4.07934314000636
          28 :   0.921585667286649
          29 :    5.41119252033741
          30 :   -13.4932115494466
          31 :   -60.6356285423306
          32 :   -43.6479440610385

     Forces acting on atoms (Ry/au):

     negative rho (up, down):  1.376E+00 0.000E+00
     atom    1 type  1   force =     0.00425457    0.00245657    0.02356047
     atom    2 type  1   force =    -0.00425455    0.00245731    0.02355944
     atom    3 type  1   force =     0.00000065   -0.00491333    0.02355924
     atom    4 type  1   force =    -0.00000062   -0.00000057    0.01848778
     atom    5 type  1   force =     0.00000073    0.00018735   -0.02492813
     atom    6 type  1   force =    -0.00000103   -0.00000116   -0.01550513
     atom    7 type  1   force =    -0.00016315   -0.00009355   -0.02492642
     atom    8 type  1   force =     0.00016330   -0.00009277   -0.02492703
     atom    9 type  1   force =     0.00000040    0.00000010   -0.00086267
     atom   10 type  1   force =    -0.00000063   -0.00033636    0.00025512
     atom   11 type  1   force =    -0.00029179    0.00016803    0.00025651
     atom   12 type  1   force =     0.00029225    0.00016897    0.00025549
     atom   13 type  2   force =    -0.00000013   -0.00000057    0.00121532

     Total force =     0.001661     Total SCF correction =     0.000084

     entering subroutine stress ...

     negative rho (up, down):  1.376E+00 0.000E+00
          total   stress  (Ry/bohr**3)                   (kbar)     P=   -9.47
  -0.00004862  -0.00000000   0.00000000         -7.15     -0.00      0.00
  -0.00000000  -0.00004862   0.00000000         -0.00     -7.15      0.00
   0.00000000   0.00000000  -0.00009592          0.00      0.00    -14.11

     bfgs converged in  16 scf cycles and  15 bfgs steps
     (criteria: energy <  1.0E+00, force <  1.9E-03)

     End of BFGS Geometry Optimization

     Final energy   =   -1938.2207972863 Ry
Begin final coordinates

ATOMIC_POSITIONS (crystal)
Hf1      0.166666667   0.166666667   0.396510335    0   0   0
Hf1      0.666666667   0.166666667   0.396510335    0   0   0
Hf1      0.166666667   0.666666667   0.396510335    0   0   0
Hf1      0.666666667   0.666666667   0.396510335    0   0   0
Hf1      0.833333333   0.333333333   0.500000000    0   0   0
Hf1      0.333333333   0.333333333   0.500000000    0   0   0
Hf1      0.833333333   0.833333333   0.500000000    0   0   0
Hf1      0.333333333   0.833333333   0.500000000    0   0   0
Hf1      0.000000123  -0.000000002   0.594578470
Hf1      0.509072148  -0.018144439   0.600078261
Hf1     -0.018144157   0.509071624   0.600077920
Hf1      0.509072255   0.509071537   0.600078029
C1       0.333333081   0.333333421   0.627685827
End final coordinates

     Writing output data file calc.save

     General routines

     Parallel routines

   This run was terminated on:  16:37:23   3May2018

   JOB DONE.
Job  /afs/slac/g/suncat/bin/suncat-tsmpirun -x LD_LIBRARY_PATH -wdir /scratch/qe765718_NmsoQ pw.x -npool 4 -in pw.inp

TID   HOST_NAME   COMMAND_LINE            STATUS            TERMINATION_TIME
00000 suncat0123 pw.x -npool 4 -i  Done                     05/03/2018 16:37:23
00001 suncat0123 pw.x -npool 4 -i  Done                     05/03/2018 16:37:23
00002 suncat0123 pw.x -npool 4 -i  Done                     05/03/2018 16:37:23
00003 suncat0123 pw.x -npool 4 -i  Done                     05/03/2018 16:37:23
00004 suncat0123 pw.x -npool 4 -i  Done                     05/03/2018 16:37:23
00005 suncat0123 pw.x -npool 4 -i  Done                     05/03/2018 16:37:23
00006 suncat0123 pw.x -npool 4 -i  Done                     05/03/2018 16:37:23
00007 suncat0123 pw.x -npool 4 -i  Done                     05/03/2018 16:37:23
00008 suncat0121 pw.x -npool 4 -i  Done                     05/03/2018 16:37:23
00009 suncat0121 pw.x -npool 4 -i  Done                     05/03/2018 16:37:23
00010 suncat0121 pw.x -npool 4 -i  Done                     05/03/2018 16:37:23
00011 suncat0121 pw.x -npool 4 -i  Done                     05/03/2018 16:37:23
00012 suncat0121 pw.x -npool 4 -i  Done                     05/03/2018 16:37:23
00013 suncat0121 pw.x -npool 4 -i  Done                     05/03/2018 16:37:23
00014 suncat0121 pw.x -npool 4 -i  Done                     05/03/2018 16:37:23
00015 suncat0121 pw.x -npool 4 -i  Done                     05/03/2018 16:37:23
00016 suncat0105 pw.x -npool 4 -i  Done                     05/03/2018 16:37:23
00017 suncat0105 pw.x -npool 4 -i  Done                     05/03/2018 16:37:23
00018 suncat0105 pw.x -npool 4 -i  Done                     05/03/2018 16:37:23
00019 suncat0105 pw.x -npool 4 -i  Done                     05/03/2018 16:37:23
00020 suncat0105 pw.x -npool 4 -i  Done                     05/03/2018 16:37:23
00021 suncat0105 pw.x -npool 4 -i  Done                     05/03/2018 16:37:23
00022 suncat0105 pw.x -npool 4 -i  Done                     05/03/2018 16:37:23
00023 suncat0105 pw.x -npool 4 -i  Done                     05/03/2018 16:37:23
00024 suncat0100 pw.x -npool 4 -i  Done                     05/03/2018 16:37:23
00025 suncat0100 pw.x -npool 4 -i  Done                     05/03/2018 16:37:23
00026 suncat0100 pw.x -npool 4 -i  Done                     05/03/2018 16:37:23
00027 suncat0100 pw.x -npool 4 -i  Done                     05/03/2018 16:37:23
00028 suncat0100 pw.x -npool 4 -i  Done                     05/03/2018 16:37:23
00029 suncat0100 pw.x -npool 4 -i  Done                     05/03/2018 16:37:23
00030 suncat0100 pw.x -npool 4 -i  Done                     05/03/2018 16:37:23
00031 suncat0100 pw.x -npool 4 -i  Done                     05/03/2018 16:37:23