     Program PWSCF v.5.1rc2 (svn rev. 11289) starts on  4May2018 at  8: 1:17

     Current dimensions of program PWSCF are:
     Max number of different atomic species (ntypx) = 10
     Max number of k-points (npk) =  40000
     Max angular momentum in pseudopotentials (lmaxx) =  3
     Presently stress not available with electric field

     IMPORTANT: XC functional enforced from input :
     Exchange-correlation      = BEEF-VDW ( 1  4 27 13 2)
     Any further DFT definition will be discarded
     Please, verify this is what you really want

     Subspace diagonalization in iterative solution of the eigenvalue problem:
     a serial algorithm will be used

     bravais-lattice index     =            0
     lattice parameter (alat)  =       1.8897  a.u.
     unit-cell volume          =    5144.9564 (a.u.)^3
     number of atoms/cell      =           13
     number of atomic types    =            2
     number of electrons       =       133.00
     number of Kohn-Sham states=           76
     kinetic-energy cutoff     =      36.7493  Ry
     charge density cutoff     =     367.4932  Ry
     convergence threshold     =      1.0E-05
     mixing beta               =       0.3000
     number of iterations used =           10  plain     mixing
     Exchange-correlation      = BEEF-VDW ( 1  4 27 13 2)
     nstep                     =           50

     celldm(1)=   1.889726  celldm(2)=   0.000000  celldm(3)=   0.000000
     celldm(4)=   0.000000  celldm(5)=   0.000000  celldm(6)=   0.000000

     crystal axes: (cart. coord. in units of alat)
               a(1) = (   5.950946   0.000000   0.000000 )
               a(2) = (   2.975473   5.153671   0.000000 )
               a(3) = (   0.000000   0.000000  24.858927 )

     reciprocal axes: (cart. coord. in units 2 pi/alat)
               b(1) = (  0.168040 -0.097018  0.000000 )
               b(2) = (  0.000000  0.194036  0.000000 )
               b(3) = (  0.000000  0.000000  0.040227 )

     PseudoPot. # 1 for Au read from file:
     /u/if/mamunm/psp/gbrv1.5pbe/Au.UPF
     MD5 check sum: 9d7f43293ad2c663164586bc4b293ffc
     Pseudo is Ultrasoft + core correction, Zval = 11.0
     Generated by new atomic code, or converted to UPF format
     Using radial grid of  985 points,  7 beta functions with:
                l(1) =   0
                l(2) =   0
                l(3) =   1
                l(4) =   1
                l(5) =   2
                l(6) =   2
                l(7) =   3
     Q(r) pseudized with  6 coefficients,  rinner =    1.900   1.900   1.900
                                                       1.900   1.900   1.900
                                                       1.900

     PseudoPot. # 2 for H  read from file:
     /u/if/mamunm/psp/gbrv1.5pbe/H.UPF
     MD5 check sum: 761ae9a214b05c3daf00ab9f6b793d6f
     Pseudo is Ultrasoft, Zval =  1.0
     Generated by new atomic code, or converted to UPF format
     Using radial grid of  615 points,  2 beta functions with:
                l(1) =   0
                l(2) =   0
     Q(r) pseudized with  8 coefficients,  rinner =    0.700

     vdW kernel table read from file vdW_kernel_table
     MD5 check sum: 095c7af220d748ca6e76c0b4c6cfb241

     atomic species   valence    mass     pseudopotential
        Au1           11.00   196.96657     Au( 1.00)
        H1             1.00     1.00800     H ( 1.00)

     No symmetry found

   Cartesian axes

     site n.     atom                  positions (alat units)
         1           Au1 tau(   1) = (   1.4877366   0.8589451  10.0000000  )
         2           Au1 tau(   2) = (   4.4632098   0.8589451  10.0000000  )
         3           Au1 tau(   3) = (   2.9754732   3.4357805  10.0000000  )
         4           Au1 tau(   4) = (   5.9509464   3.4357805  10.0000000  )
         5           Au1 tau(   5) = (   5.9509464   1.7178903  12.4294637  )
         6           Au1 tau(   6) = (   2.9754732   1.7178903  12.4294637  )
         7           Au1 tau(   7) = (   7.4386830   4.2947256  12.4294637  )
         8           Au1 tau(   8) = (   4.4632098   4.2947256  12.4294637  )
         9           Au1 tau(   9) = (   0.0000000   0.0000000  14.8589274  )
        10           Au1 tau(  10) = (   2.9754732   0.0000000  14.8589274  )
        11           Au1 tau(  11) = (   1.4877366   2.5768354  14.8589274  )
        12           Au1 tau(  12) = (   4.4632098   2.5768354  14.8589274  )
        13           H1  tau(  13) = (   1.4877366   0.0000000  16.1114274  )

     number of k points=    20  Fermi-Dirac smearing, width (Ry)=  0.0110
                       cart. coord. in units 2pi/alat
        k(    1) = (   0.0000000   0.0000000   0.0000000), wk =   0.0555556
        k(    2) = (   0.0000000   0.0323394   0.0000000), wk =   0.1111111
        k(    3) = (   0.0000000   0.0646788   0.0000000), wk =   0.1111111
        k(    4) = (   0.0000000  -0.0970182   0.0000000), wk =   0.0555556
        k(    5) = (   0.0280067  -0.0161697   0.0000000), wk =   0.1111111
        k(    6) = (   0.0280067   0.0161697   0.0000000), wk =   0.1111111
        k(    7) = (   0.0280067   0.0485091   0.0000000), wk =   0.1111111
        k(    8) = (   0.0280067  -0.1131879   0.0000000), wk =   0.1111111
        k(    9) = (   0.0280067  -0.0808485   0.0000000), wk =   0.1111111
        k(   10) = (   0.0280067  -0.0485091   0.0000000), wk =   0.1111111
        k(   11) = (   0.0560135  -0.0323394   0.0000000), wk =   0.1111111
        k(   12) = (   0.0560135   0.0000000   0.0000000), wk =   0.1111111
        k(   13) = (   0.0560135   0.0323394   0.0000000), wk =   0.1111111
        k(   14) = (   0.0560135  -0.1293576   0.0000000), wk =   0.1111111
        k(   15) = (   0.0560135  -0.0970182   0.0000000), wk =   0.1111111
        k(   16) = (   0.0560135  -0.0646788   0.0000000), wk =   0.1111111
        k(   17) = (  -0.0840202   0.0485091   0.0000000), wk =   0.0555556
        k(   18) = (  -0.0840202   0.0808485   0.0000000), wk =   0.1111111
        k(   19) = (  -0.0840202   0.1131879   0.0000000), wk =   0.1111111
        k(   20) = (  -0.0840202  -0.0485091   0.0000000), wk =   0.0555556

     Largest allocated arrays     est. size (Mb)     dimensions
     Largest temporary arrays     est. size (Mb)     dimensions

     Check: negative/imaginary core charge=   -0.000002    0.000000

     Initial potential from superposition of free atoms

     starting charge  132.99852, renormalised to  133.00000

     negative rho (up, down):  7.535E-05 0.000E+00

     *
     * You are using vdW-DF for exchange-correlation in this calculation.
     * Please cite the following three references that made this development
     * possible:
     *
     *   M. Dion, H. Rydberg, E. Schroder, D. C. Langreth, and
     *   B. I. Lundqvist, Phys. Rev. Lett. 92, 246401 (2004).
     *
     *   T. Thonhauser, V. R. Cooper, S. Li, A. Puzder, P. Hyldgaard, and
     *   D. C. Langreth, Phys. Rev. B 76, 125112 (2007).
     *
     *   G. Roman-Perez and J. M. Soler, Phys. Rev. Lett. 103, 096102 (2009).
     *
     *
     * If you are using vdW-DF2, please also cite:
     *
     *   K. Lee, E. D. Murray, L. Kong, B. I. Lundqvist, and
     *   D. C. Langreth, Phys. Rev. B 82, 081101(R) (2010).
     *
     *
     * If you are calculating the stress with vdW-DF, please also cite:
     *
     *   R. Sabatini, E. Kucukbenli, B. Kolb, T. Thonhauser, and
     *   S. de Gironcoli, J. Phys.: Condens. Matter 24, 424209 (2012).
     *

     Carrying out vdW-DF run using the following parameters:

     Nqs =      20    Nr_points =    1024   r_max =   100.000
     q_mesh =
               0.00001000     0.04494208     0.09755937     0.15916263
               0.23128650     0.31572767     0.41458969     0.53033537
               0.66584808     0.82450364     1.01025438     1.22772762
               1.48234092     1.78043706     2.12944203     2.53805004
               3.01644009     3.57652955     4.23227104     5.00000000

     Gradients computed in reciprocal space

     Adding external electric field

     Computed dipole along edir(3) :
        Dipole               -0.0000 Ry au,         -0.0000 Debye
        Dipole field         -0.0000 Ry au

        Potential amp.        0.0000 Ry
        Total length         45.8022 bohr

     Starting wfc are  109 randomized atomic wfcs

     Self-consistent Calculation

     iteration #  1     ecut=    36.75 Ry     beta=0.30
     Davidson diagonalization with overlap
     ethr =  1.00E-02,  avg # of iterations =  2.2

     Threshold (ethr) on eigenvalues was too large:
     Diagonalizing with lowered threshold

     Davidson diagonalization with overlap
     ethr =  2.17E-04,  avg # of iterations =  3.7

[...]

     total energy              =   -1401.58952657 Ry
     Harris-Foulkes estimate   =   -1401.69221696 Ry
     estimated scf accuracy    <       0.34288288 Ry

[...]

     End of self-consistent calculation

          k = 0.0000 0.0000 0.0000 ( 19315 PWs)   bands (ev):

    -8.0037  -6.8758  -6.2014  -5.9782  -5.8845  -5.8795  -5.8144  -5.7238
    -5.6760  -5.5144  -5.4135  -5.3993  -5.3296  -5.2868  -5.2430  -4.7690
    -4.3294  -4.2836  -4.1765  -4.1577  -4.1551  -4.0600  -4.0201  -4.0136
    -3.8722  -3.8470  -3.7482  -3.7436  -3.7235  -3.6924  -3.6339  -3.6331
    -3.2689  -3.2189  -3.0902  -2.9524  -2.8910  -2.8067  -2.7756  -2.7423
    -2.6493  -2.4957  -2.4632  -2.3930  -2.3660  -2.0924  -2.0645  -2.0456
    -1.9929  -1.9814  -1.9306  -1.9242  -1.8869  -1.8093  -1.7845  -1.7824
    -1.7142  -1.6934  -1.6168  -1.5514  -1.4885  -1.4821  -1.4770  -0.3321
     0.6912   0.7032   0.7507   1.1863   1.3940   1.4262   1.6575   1.7313
     1.7328   2.8331   3.2137   3.3487

[...]

          k =-0.0840 0.0485 0.0000 ( 19380 PWs)   bands (ev):

[...]

     the Fermi energy is     0.1438 ev

!    total energy              =   -1401.63580425 Ry
     Harris-Foulkes estimate   =   -1401.63580528 Ry
     estimated scf accuracy    <       0.00000292 Ry

     The total energy is the sum of the following terms:

     one-electron contribution =   -8032.68581479 Ry
     hartree contribution      =    4112.57621762 Ry
     xc contribution           =    -768.80848112 Ry
     ewald contribution        =    3287.30456932 Ry
     electric field correction =       0.00000013 Ry
     smearing contrib. (-TS)   =      -0.02229540 Ry

     convergence has been achieved in   9 iterations

 BEEF-vdW xc energy contributions
           1 :   -687.309005182727
           2 :    638.964689669892
           3 :   -552.462821153333
           4 :    444.540449322910
           5 :   -333.326832594842
           6 :    233.638272689549
           7 :   -154.149309541275
           8 :    96.9323694268801
           9 :   -59.0643221661658
          10 :    35.2838722176016
          11 :   -20.4962039031780
          12 :    11.2034648796089
          13 :   -5.63555639639571
          14 :    2.97814259775691
          15 :   -2.43238477423210
          16 :    2.71264585196764
          17 :   -2.21430782802258
          18 :  -0.351964871122618
          19 :    5.29970627734917
          20 :   -11.7177210467451
          21 :    17.8127368369160
          22 :   -21.7024719584163
          23 :    22.2579639804998
          24 :   -19.5810954372951
          25 :    14.8980871273407
          26 :   -9.95629559354757
          27 :    6.24509279272502
          28 :   -4.43096421553992
          29 :    4.25102556355819
          30 :   -4.86298235989852
          31 :   -54.2538320387416
          32 :   -39.5306313876119

     Forces acting on atoms (Ry/au):

     negative rho (up, down):  1.815E-04 0.000E+00
     atom    1 type  1   force =    -0.00000412   -0.00207395   -0.00223597
     atom    2 type  1   force =     0.00000360   -0.00008971   -0.00440858
     atom    3 type  1   force =     0.00135126    0.00115434   -0.00253615
     atom    4 type  1   force =    -0.00134766    0.00113857   -0.00253920
     atom    5 type  1   force =    -0.00011579    0.00013174   -0.00080263
     atom    6 type  1   force =     0.00011738    0.00012648   -0.00078294
     atom    7 type  1   force =    -0.00000238    0.00290026    0.00855171
     atom    8 type  1   force =    -0.00000837   -0.00127761   -0.00639448
     atom    9 type  1   force =     0.00742257   -0.00136541    0.02292377
     atom   10 type  1   force =    -0.00741879   -0.00137932    0.02292127
     atom   11 type  1   force =     0.00000274    0.00670242    0.00135296
     atom   12 type  1   force =    -0.00000344   -0.00631680   -0.00058070
     atom   13 type  2   force =     0.00000302    0.00034898   -0.03546907

     Total force =     0.050099     Total SCF correction =     0.007089
     SCF correction compared to forces is large: reduce conv_thr to get better values

     entering subroutine stress ...

     negative rho (up, down):  1.815E-04 0.000E+00
          total   stress  (Ry/bohr**3)                   (kbar)     P=   -8.93
  -0.00011061  -0.00000000  -0.00000000        -16.27     -0.00     -0.00
  -0.00000000  -0.00008461  -0.00000170         -0.00    -12.45     -0.25
  -0.00000000  -0.00000170   0.00001303         -0.00     -0.25      1.92

     BFGS Geometry Optimization

     number of scf cycles    =   1
     number of bfgs steps    =   0

     energy   new            =   -1401.6358042492 Ry

     new trust radius        =       0.0354707869 bohr
     new conv_thr            =       0.0000099958 Ry

ATOMIC_POSITIONS (crystal)
Au1      0.166666667   0.166666667   0.402269971    0   0   0
Au1      0.666666667   0.166666667   0.402269971    0   0   0
Au1      0.166666667   0.666666667   0.402269971    0   0   0
Au1      0.666666667   0.666666667   0.402269971    0   0   0
Au1      0.833333333   0.333333333   0.500000000    0   0   0
Au1      0.333333333   0.333333333   0.500000000    0   0   0
Au1      0.833333333   0.833333333   0.500000000    0   0   0
Au1      0.333333333   0.833333333   0.500000000    0   0   0
Au1      0.000730138  -0.000140200   0.598218012
Au1      0.499411111  -0.000141628   0.598217959
Au1     -0.000343858   0.500688203   0.597758830
Au1      0.500323998   0.499351393   0.597717668
H1       0.249982352   0.000035833   0.647359305

     Writing output data file calc.save
     NEW-OLD atomic charge density approx. for the potential

[...]

     energy   old            =   -1401.6358042492 Ry
     energy   new            =   -1401.6381748878 Ry

     CASE: energy  _new < energy  _old

     WARNING: bfgs curvature condition failed, Theta= 0.914
     new trust radius        =       0.0532061804 bohr
     new conv_thr            =       0.0000001000 Ry

[...]

     Total force =     0.036565     Total SCF correction =     0.000717

[...]

     Total force =     0.003796     Total SCF correction =     0.000242

[...]

     WARNING: bfgs curvature condition failed, Theta= 0.943
     new trust radius        =       0.0038988264 bohr
     new conv_thr            =       0.0000001000 Ry

[...]

     number of scf cycles    =  12
     number of bfgs steps    =  11

     energy   old            =   -1401.6480657149 Ry
     energy   new            =   -1401.6481063935 Ry

     CASE: energy  _new < energy  _old

     new trust radius        =       0.0131585391 bohr
     new conv_thr            =       0.0000001000 Ry

ATOMIC_POSITIONS (crystal)
Au1      0.166666667   0.166666667   0.402269971    0   0   0
Au1      0.666666667   0.166666667   0.402269971    0   0   0
Au1      0.166666667   0.666666667   0.402269971    0   0   0
Au1      0.666666667   0.666666667   0.402269971    0   0   0
Au1      0.833333333   0.333333333   0.500000000    0   0   0
Au1      0.333333333   0.333333333   0.500000000    0   0   0
Au1      0.833333333   0.833333333   0.500000000    0   0   0
Au1      0.333333333   0.833333333   0.500000000    0   0   0
Au1     -0.004429703  -0.003141518   0.602594999
Au1      0.507573334  -0.003143625   0.602594848
Au1     -0.003766632   0.507534658   0.598066388
Au1      0.504891714   0.490215826   0.597140133
H1       0.248496331   0.003009096   0.640217621

     Writing output data file calc.save
     NEW-OLD atomic charge density approx. for the potential

     Check: negative/imaginary core charge=   -0.000002    0.000000

[...]

     Self-consistent Calculation

[...]

     Threshold (ethr) on eigenvalues was too large:
     Diagonalizing with lowered threshold

     Davidson diagonalization with overlap
     ethr =  3.36E-09,  avg # of iterations =  2.2

[...]

     total energy              =   -1401.64815902 Ry
     Harris-Foulkes estimate   =   -1401.64815902 Ry
     estimated scf accuracy    <       0.00000016 Ry

     iteration #  5     ecut=    36.75 Ry     beta=0.30
     Davidson diagonalization with overlap
     ethr =  1.23E-10,  avg # of iterations =  3.0

[...]

     negative rho (up, down):  1.760E-04 0.000E+00

     Adding external electric field

     Computed dipole along edir(3) :
        Dipole                0.0117 Ry au,          0.0298 Debye
        Dipole field          0.0000 Ry au

        Potential amp.       -0.0026 Ry
        Total length         45.8022 bohr

     End of self-consistent calculation

[...]

          k = 0.0560-0.0647 0.0000 ( 19376 PWs)   bands (ev):

[...]

          k =-0.0840-0.0485 0.0000 ( 19380 PWs)   bands (ev):

    -6.8549  -6.4229  -6.2353  -5.4079  -5.3245  -5.1850  -5.1398  -5.1298
    -5.0891  -5.0500  -5.0341  -4.7817  -4.7440  -4.6940  -4.6486  -4.5188
    -4.4579  -4.3173  -4.2965  -4.2790  -4.2463  -4.2034  -4.1599  -4.0010
    -3.9820  -3.8338  -3.7712  -3.7350  -3.6602  -3.6103  -3.5700  -3.5308
    -3.4908  -3.4286  -3.4002  -3.3742  -3.3526  -3.3208  -3.3140  -3.2933
    -3.1098  -3.0754  -3.0336  -3.0200  -2.8879  -2.8687  -2.8395  -2.7810
    -2.7632  -2.6912  -2.6303  -2.6263  -2.4525  -2.4436  -2.3383  -2.3106
    -2.1000  -2.0336  -1.9524  -1.9378  -1.9338  -1.8982  -1.7238  -1.6957
    -0.2904   0.0538   0.1412   0.1573   0.9235   1.1347   2.4841   2.9947
     3.3299   3.4045   5.1513   5.4501

     the Fermi energy is     0.1394 ev

!    total energy              =   -1401.64815901 Ry
     Harris-Foulkes estimate   =   -1401.64815904 Ry
     estimated scf accuracy    <       0.00000009 Ry

     The total energy is the sum of the following terms:

     one-electron contribution =   -7971.32543495 Ry
     hartree contribution      =    4081.87406075 Ry
     xc contribution           =    -768.81176424 Ry
     ewald contribution        =    3256.63699607 Ry
     electric field correction =       0.00000033 Ry
     smearing contrib. (-TS)   =      -0.02201697 Ry

     convergence has been achieved in   5 iterations

 BEEF-vdW xc energy contributions
           1 :   -687.307884807444
           2 :    638.934070968695
           3 :   -552.391372797893
           4 :    444.442729397215
           5 :   -333.233104254241
           6 :    233.573957614761
           7 :   -154.117960956814
           8 :    96.9136365839615
           9 :   -59.0277056897737
          10 :    35.2110383787856
          11 :   -20.3978132390505
          12 :    11.1185155046063
          13 :   -5.61042811531763
          14 :    3.03711189386604
          15 :   -2.55848744486127
          16 :    2.85166644044762
          17 :   -2.30170219697300
          18 :  -0.355450107968295
          19 :    5.38467133991639
          20 :   -11.8294322913722
          21 :    17.8814096572736
          22 :   -21.6830902275933
          23 :    22.1567510443692
          24 :   -19.4535391221532
          25 :    14.8179427000237
          26 :   -9.97236124910307
          27 :    6.35146731489112
          28 :   -4.56838011227762
          29 :    4.33950419054861
          30 :   -4.84707163582084
          31 :   -54.2535651831689
          32 :   -39.5216901314068

     Forces acting on atoms (Ry/au):

     negative rho (up, down):  1.760E-04 0.000E+00
     atom    1 type  1   force =     0.00000001   -0.00154726   -0.00204985
     atom    2 type  1   force =    -0.00000002   -0.00036178   -0.00405166
     atom    3 type  1   force =     0.00085140    0.00089685   -0.00389237
     atom    4 type  1   force =    -0.00085140    0.00089683   -0.00389240
     atom    5 type  1   force =     0.00147372   -0.00227597    0.00207441
     atom    6 type  1   force =    -0.00147371   -0.00227607    0.00207418
     atom    7 type  1   force =     0.00000011    0.00389137    0.00956435
     atom    8 type  1   force =    -0.00000005    0.00139448    0.00144390
     atom    9 type  1   force =     0.00018345   -0.00049621   -0.00013368
     atom   10 type  1   force =    -0.00018352   -0.00049570   -0.00013365
     atom   11 type  1   force =    -0.00000018   -0.00144782    0.00026852
     atom   12 type  1   force =     0.00000033    0.00069708    0.00008313
     atom   13 type  2   force =    -0.00000014    0.00112421   -0.00135488

     Total force =     0.002521     Total SCF correction =     0.001268
     SCF correction compared to forces is large: reduce conv_thr to get better values

     entering subroutine stress ...

     negative rho (up, down):  1.760E-04 0.000E+00
          total   stress  (Ry/bohr**3)                   (kbar)     P=   -9.81
  -0.00010881  -0.00000000  -0.00000000        -16.01     -0.00     -0.00
  -0.00000000  -0.00010075  -0.00000067         -0.00    -14.82     -0.10
  -0.00000000  -0.00000067   0.00000953         -0.00     -0.10      1.40

     bfgs converged in  13 scf cycles and  12 bfgs steps
     (criteria: energy <  1.0E+00, force <  1.9E-03)

     End of BFGS Geometry Optimization

     Final energy   =   -1401.6481590145 Ry
Begin final coordinates

ATOMIC_POSITIONS (crystal)
Au1      0.166666667   0.166666667   0.402269971    0   0   0
Au1      0.666666667   0.166666667   0.402269971    0   0   0
Au1      0.166666667   0.666666667   0.402269971    0   0   0
Au1      0.666666667   0.666666667   0.402269971    0   0   0
Au1      0.833333333   0.333333333   0.500000000    0   0   0
Au1      0.333333333   0.333333333   0.500000000    0   0   0
Au1      0.833333333   0.833333333   0.500000000    0   0   0
Au1      0.333333333   0.833333333   0.500000000    0   0   0
Au1     -0.004429703  -0.003141518   0.602594999
Au1      0.507573334  -0.003143625   0.602594848
Au1     -0.003766632   0.507534658   0.598066388
Au1      0.504891714   0.490215826   0.597140133
H1       0.248496331   0.003009096   0.640217621
End final coordinates

     Writing output data file calc.save

     General routines

     Parallel routines

   This run was terminated on:   9:16:37   4May2018

   JOB DONE.
Job  /afs/slac/g/suncat/bin/suncat-tsmpirun -x LD_LIBRARY_PATH -wdir /scratch/qe920290_33Gal pw.x -npool 4 -in pw.inp

TID   HOST_NAME   COMMAND_LINE            STATUS            TERMINATION_TIME
00000 suncat0116 pw.x -npool 4 -i  Done                     05/04/2018 09:16:37
00001 suncat0116 pw.x -npool 4 -i  Done                     05/04/2018 09:16:37
00002 suncat0116 pw.x -npool 4 -i  Done                     05/04/2018 09:16:37
00003 suncat0116 pw.x -npool 4 -i  Done                     05/04/2018 09:16:37
00004 suncat0116 pw.x -npool 4 -i  Done                     05/04/2018 09:16:37
00005 suncat0116 pw.x -npool 4 -i  Done                     05/04/2018 09:16:37
00006 suncat0116 pw.x -npool 4 -i  Done                     05/04/2018 09:16:37
00007 suncat0116 pw.x -npool 4 -i  Done                     05/04/2018 09:16:37
00008 suncat0114 pw.x -npool 4 -i  Done                     05/04/2018 09:16:37
00009 suncat0114 pw.x -npool 4 -i  Done                     05/04/2018 09:16:37
00010 suncat0114 pw.x -npool 4 -i  Done                     05/04/2018 09:16:37
00011 suncat0114 pw.x -npool 4 -i  Done                     05/04/2018 09:16:37
00012 suncat0114 pw.x -npool 4 -i  Done                     05/04/2018 09:16:37
00013 suncat0114 pw.x -npool 4 -i  Done                     05/04/2018 09:16:37
00014 suncat0114 pw.x -npool 4 -i  Done                     05/04/2018 09:16:37
00015 suncat0114 pw.x -npool 4 -i  Done                     05/04/2018 09:16:37
00016 suncat0212 pw.x -npool 4 -i  Done                     05/04/2018 09:16:37
00017 suncat0212 pw.x -npool 4 -i  Done                     05/04/2018 09:16:37
00018 suncat0212 pw.x -npool 4 -i  Done                     05/04/2018 09:16:37
00019 suncat0212 pw.x -npool 4 -i  Done                     05/04/2018 09:16:37
00020 suncat0212 pw.x -npool 4 -i  Done                     05/04/2018 09:16:37
00021 suncat0212 pw.x -npool 4 -i  Done                     05/04/2018 09:16:37
00022 suncat0212 pw.x -npool 4 -i  Done                     05/04/2018 09:16:37
00023 suncat0212 pw.x -npool 4 -i  Done                     05/04/2018 09:16:37
00024 suncat0211 pw.x -npool 4 -i  Done                     05/04/2018 09:16:37
00025 suncat0211 pw.x -npool 4 -i  Done                     05/04/2018 09:16:37
00026 suncat0211 pw.x -npool 4 -i  Done                     05/04/2018 09:16:37
00027 suncat0211 pw.x -npool 4 -i  Done                     05/04/2018 09:16:37
00028 suncat0211 pw.x -npool 4 -i  Done                     05/04/2018 09:16:37
00029 suncat0211 pw.x -npool 4 -i  Done                     05/04/2018 09:16:37
00030 suncat0211 pw.x -npool 4 -i  Done                     05/04/2018 09:16:37
00031 suncat0211 pw.x -npool 4 -i  Done                     05/04/2018 09:16:37