     Program PWSCF v.6.1 starts on 17Jan2019 at  0:59:22

     Current dimensions of program PWSCF are:
     Max number of different atomic species (ntypx) = 10
     Max number of k-points (npk) =  40000
     Max angular momentum in pseudopotentials (lmaxx) =  3

     IMPORTANT: XC functional enforced from input :
     Exchange-correlation      = BEEF-VDW ( 1  4 29 14 2 0)
     Any further DFT definition will be discarded
     Please, verify this is what you really want

     bravais-lattice index     =            0
     lattice parameter (alat)  =      12.7122  a.u.
     unit-cell volume          =    6741.9071 (a.u.)^3
     number of atoms/cell      =           13
     number of atomic types    =            2
     number of electrons       =       172.00
     number of Kohn-Sham states=           96
     kinetic-energy cutoff     =      36.7493  Ry
     charge density cutoff     =     367.4933  Ry
     convergence threshold     =      1.0E-04
     mixing beta               =       0.2000
     number of iterations used =            8  plain     mixing
     Exchange-correlation      = BEEF-VDW ( 1  4 29 14 2 0)
     nstep                     =           50

     celldm(1)=  12.712175  celldm(2)=   0.000000  celldm(3)=   0.000000
     celldm(4)=   0.000000  celldm(5)=   0.000000  celldm(6)=   0.000000

     crystal axes: (cart. coord. in units of alat)
               a(1) = (   1.000000   0.000000   0.000000 )
               a(2) = (   0.500000   0.866025   0.000000 )
               a(3) = (   0.000000   0.000000   3.789593 )

     reciprocal axes: (cart. coord. in units 2 pi/alat)
               b(1) = (  1.000000 -0.577350  0.000000 )
               b(2) = (  0.000000  1.154701  0.000000 )
               b(3) = (  0.000000  0.000000  0.263881 )

     PseudoPot. # 1 for Sn read from file:
     /home/users/mamunm/src/decaf-espresso/gbrv15pbe/Sn.UPF
     MD5 check sum: 469debedee59599fedebd795477fea03
     Pseudo is Ultrasoft + core correction, Zval = 14.0
     Generated by new atomic code, or converted to UPF format
     Using radial grid of  891 points,  6 beta functions with:
                l(1) =   0
                l(2) =   0
                l(3) =   1
                l(4) =   1
                l(5) =   2
                l(6) =   2
     Q(r) pseudized with  8 coefficients,  rinner =    1.350   1.350   1.350
                                                       1.350   1.350

     PseudoPot. # 2 for C  read from file:
     /home/users/mamunm/src/decaf-espresso/gbrv15pbe/C.UPF
     MD5 check sum: d1aef80898a10debaa0f26306b886e00
     Pseudo is Ultrasoft + core correction, Zval =  4.0
     Generated by new atomic code, or converted to UPF format
     Using radial grid of  721 points,  4 beta functions with:
                l(1) =   0
                l(2) =   0
                l(3) =   1
                l(4) =   1
     Q(r) pseudized with  8 coefficients,  rinner =    1.100   1.100   1.100

     vdW kernel table read from file vdW_kernel_table
     MD5 check sum: 095c7af220d748ca6e76c0b4c6cfb241

     atomic species   valence    mass     pseudopotential
        Sn            14.00   118.71000     Sn( 1.00)
        C              4.00    12.01100     C ( 1.00)

     No symmetry found

   Cartesian axes

     site n.     atom                  positions (alat units)
         1           Sn  tau(   1) = (   0.2500000   0.1443376   1.4865483  )
         2           Sn  tau(   2) = (   0.7500000   0.1443376   1.4865483  )
         3           Sn  tau(   3) = (   0.5000000   0.5773503   1.4865483  )
         4           Sn  tau(   4) = (   1.0000000   0.5773503   1.4865483  )
         5           Sn  tau(   5) = (   1.0000000   0.2886751   1.8947966  )
         6           Sn  tau(   6) = (   0.5000000   0.2886751   1.8947966  )
         7           Sn  tau(   7) = (   1.2500000   0.7216878   1.8947966  )
         8           Sn  tau(   8) = (   0.7500000   0.7216878   1.8947966  )
         9           Sn  tau(   9) = (  -0.0032417  -0.0230409   2.4952106  )
        10           Sn  tau(  10) = (   0.5036065  -0.0225935   2.4954448  )
        11           Sn  tau(  11) = (   0.2497482   0.4463378   2.3007139  )
        12           Sn  tau(  12) = (   0.7498213   0.4022950   2.2861597  )
        13           C   tau(  13) = (   0.2500427   0.1560198   2.4335556  )

     number of k points=    20  Fermi-Dirac smearing, width (Ry)=  0.0110
                       cart. coord. in units 2pi/alat
        k(    1) = (   0.0000000   0.0000000   0.0000000), wk =   0.0555556
        k(    2) = (   0.0000000   0.1924501   0.0000000), wk =   0.1111111
        k(    3) = (   0.0000000   0.3849002   0.0000000), wk =   0.1111111
        k(    4) = (   0.0000000  -0.5773503   0.0000000), wk =   0.0555556
        k(    5) = (   0.1666667  -0.0962250   0.0000000), wk =   0.1111111
        k(    6) = (   0.1666667   0.0962250   0.0000000), wk =   0.1111111
        k(    7) = (   0.1666667   0.2886751   0.0000000), wk =   0.1111111
        k(    8) = (   0.1666667  -0.6735753   0.0000000), wk =   0.1111111
        k(    9) = (   0.1666667  -0.4811252   0.0000000), wk =   0.1111111
        k(   10) = (   0.1666667  -0.2886751   0.0000000), wk =   0.1111111
        k(   11) = (   0.3333333  -0.1924501   0.0000000), wk =   0.1111111
        k(   12) = (   0.3333333   0.0000000   0.0000000), wk =   0.1111111
        k(   13) = (   0.3333333   0.1924501   0.0000000), wk =   0.1111111
        k(   14) = (   0.3333333  -0.7698004   0.0000000), wk =   0.1111111
        k(   15) = (   0.3333333  -0.5773503   0.0000000), wk =   0.1111111
        k(   16) = (   0.3333333  -0.3849002   0.0000000), wk =   0.1111111
        k(   17) = (  -0.5000000   0.2886751   0.0000000), wk =   0.0555556
        k(   18) = (  -0.5000000   0.4811252   0.0000000), wk =   0.1111111
        k(   19) = (  -0.5000000   0.6735753   0.0000000), wk =   0.1111111
        k(   20) = (  -0.5000000  -0.2886751   0.0000000), wk =   0.0555556

     Initial potential from superposition of free atoms
     Check: negative starting charge=   -0.001435

     starting charge  159.99942, renormalised to  172.00000

     negative rho (up, down):  1.543E-03 0.000E+00

     %%%%%%%%%%%%%%%%%%%%%%%%%%%%%%%%%%%%%%%%%%%%%%%%%%%%%%%%%%%%%%%%%%%%%%%%
     %                                                                      %
     % You are using vdW-DF, which was implemented by the Thonhauser group. %
     % Please cite the following two papers that made this development      %
     % possible and the two reviews that describe the various versions:     %
     %                                                                      %
     %   T. Thonhauser et al., PRL 115, 136402 (2015).                      %
     %   T. Thonhauser et al., PRB 76, 125112 (2007).                       %
     %   K. Berland et al., Rep. Prog. Phys. 78, 066501 (2015).             %
     %   D.C. Langreth et al., J. Phys.: Condens. Matter 21, 084203 (2009). %
     %                                                                      %
     %                                                                      %
     % If you are calculating the stress with vdW-DF, please also cite:     %
     %                                                                      %
     %   R. Sabatini et al., J. Phys.: Condens. Matter 24, 424209 (2012).   %
     %                                                                      %
     %%%%%%%%%%%%%%%%%%%%%%%%%%%%%%%%%%%%%%%%%%%%%%%%%%%%%%%%%%%%%%%%%%%%%%%%

     Adding external electric field

     Computed dipole along edir(3) :
        Dipole               -1.9383 Ry au,         -4.9268 Debye
        Dipole field         -0.0036 Ry au,

        Potential amp.        0.3133 Ry
        Total length         43.3566 bohr

     Starting wfc are  112 randomized atomic wfcs

     Self-consistent Calculation

     iteration #  1     ecut=    36.75 Ry     beta=0.20
     Davidson diagonalization with overlap
     ethr =  1.00E-02,  avg # of iterations =  6.3

[...]

     total energy              =   -1930.33380661 Ry
     Harris-Foulkes estimate   =   -1945.62284564 Ry
     estimated scf accuracy    <      45.28714640 Ry

[...]

     End of self-consistent calculation

          k = 0.0000 0.0000 0.0000 ( 25377 PWs)   bands (ev):

   -21.2459 -21.2449 -21.2441 -21.2034 -21.2018 -21.2010 -21.2007 -21.1918
   -21.1912 -21.1878 -21.1823 -21.1821 -21.1685 -21.1677 -21.1627 -21.1601
   -21.1540 -21.1524 -21.1472 -21.1453 -21.1389 -21.1188 -21.1134 -21.1099
   -21.1085 -21.0925 -21.0822 -21.0809 -21.0785 -21.0725 -21.0692 -21.0644
   -21.0620 -21.0549 -21.0536 -21.0513 -21.0464 -21.0453 -21.0449 -21.0425
   -21.0384 -21.0327 -21.0282 -21.0256 -21.0256 -21.0192 -21.0176 -21.0110
   -21.0109 -21.0011 -20.9981 -20.9908 -20.9477 -20.9402 -20.9387 -20.8995
   -20.8948 -20.8718 -20.8667 -20.8230 -10.4138  -9.6234  -7.8444  -6.2335
    -6.0467  -5.7307  -5.7297  -5.6269  -5.4086  -5.1361  -4.7785  -4.7221
    -4.2202  -3.0058  -2.9145  -2.6807  -2.4214  -1.9918  -1.9016  -1.8887
    -1.7952  -1.6383  -0.8107   0.2101   0.6160   0.7667   1.3695   1.4423
     1.8054   1.9320   2.3102   2.5765   3.2406   3.4192   3.5182   3.6429

[...]

          k =-0.5000 0.2887 0.0000 ( 25386 PWs)   bands (ev):

[...]

     the Fermi energy is     0.8291 ev

!    total energy              =   -1939.66522564 Ry
     Harris-Foulkes estimate   =   -1939.66527218 Ry
     estimated scf accuracy    <       0.00006884 Ry

     The total energy is the sum of the following terms:

     one-electron contribution =   -9737.01264615 Ry
     hartree contribution      =    4933.58006046 Ry
     xc contribution           =    -537.32245662 Ry
     ewald contribution        =    3401.13160208 Ry
     electric field correction =       0.00000011 Ry
     smearing contrib. (-TS)   =      -0.04178551 Ry

     convergence has been achieved in  12 iterations

[...]

     Forces acting on atoms (cartesian axes, Ry/au):

     atom    1 type  1   force =    -0.00000020   -0.00218032   -0.00180302
     atom    2 type  1   force =    -0.00001867   -0.00253503    0.00327093
     atom    3 type  1   force =    -0.00012565    0.00126755    0.00348010
     atom    4 type  1   force =     0.00013684    0.00127270    0.00345125
     atom    5 type  1   force =    -0.00022388   -0.00516464    0.00407748
     atom    6 type  1   force =     0.00020945   -0.00516339    0.00408414
     atom    7 type  1   force =    -0.00001012    0.00750724   -0.00397213
     atom    8 type  1   force =     0.00004597    0.00375173    0.00278556
     atom    9 type  1   force =     0.00304554    0.00287343   -0.00184789
     atom   10 type  1   force =    -0.00300528    0.00293330   -0.00180404
     atom   11 type  1   force =    -0.00007889   -0.00159431   -0.00254064
     atom   12 type  1   force =     0.00000727   -0.00074044   -0.00412840
     atom   13 type  2   force =     0.00001761   -0.00222782   -0.00505333

     Total force =     0.009946     Total SCF correction =     0.010279
     SCF correction compared to forces is large: reduce conv_thr to get better values

     BFGS Geometry Optimization

     number of scf cycles    =   1
     number of bfgs steps    =   0

     energy   new            =   -1939.6652256392 Ry

     new trust radius        =       0.0055226518 bohr
     new conv_thr            =       0.0001000000 Ry

ATOMIC_POSITIONS (angstrom)
Sn       1.681748263   0.970957812  10.000000000    0   0   0
Sn       5.045244789   0.970957812  10.000000000    0   0   0
Sn       3.363496526   3.883831250  10.000000000    0   0   0
Sn       6.726993052   3.883831250  10.000000000    0   0   0
Sn       6.726993052   1.941915625  12.746283414    0   0   0
Sn       3.363496526   1.941915625  12.746283414    0   0   0
Sn       8.408741315   4.854789062  12.746283414    0   0   0
Sn       5.045244789   4.854789062  12.746283414    0   0   0
Sn      -0.020195455  -0.153475617  16.784286175
Sn       3.386167137  -0.150433951  16.785885174
Sn       1.680012816   3.001667387  15.475541868
Sn       5.044046397   2.705843613  15.376795647
C        1.682045138   1.048365161  16.367837616

     Writing output data file calc.save
     Check: negative starting charge=   -0.001435
     NEW-OLD atomic charge density approx. for the potential
     Check: negative starting charge=   -0.001435

[...]

     Self-consistent Calculation

[...]

     total energy              =   -1939.66521088 Ry
     Harris-Foulkes estimate   =   -1939.66533258 Ry
     estimated scf accuracy    <       0.00077894 Ry

     iteration #  4     ecut=    36.75 Ry     beta=0.20
     Davidson diagonalization with overlap
     ethr =  4.53E-07,  avg # of iterations =  3.8

[...]

     Adding external electric field

     Computed dipole along edir(3) :
        Dipole               -0.0995 Ry au,         -0.2529 Debye
        Dipole field         -0.0002 Ry au,

        Potential amp.        0.0161 Ry
        Total length         43.3566 bohr

     End of self-consistent calculation

[...]

          k = 0.3333-0.3849 0.0000 ( 25368 PWs)   bands (ev):

[...]

          k =-0.5000-0.2887 0.0000 ( 25386 PWs)   bands (ev):

   -21.2441 -21.2397 -21.2159 -21.2105 -21.2095 -21.2087 -21.2057 -21.2031
   -21.1939 -21.1918 -21.1852 -21.1832 -21.1763 -21.1747 -21.1741 -21.1711
   -21.1677 -21.1644 -21.1603 -21.1597 -21.1497 -21.1412 -21.1388 -21.1369
   -21.1361 -21.1322 -21.1293 -21.1253 -21.1183 -21.1175 -21.1144 -21.1107
   -21.1074 -21.1041 -21.0991 -21.0971 -21.0933 -21.0891 -21.0828 -21.0815
   -21.0794 -21.0744 -21.0732 -21.0714 -21.0706 -21.0650 -21.0606 -21.0522
   -21.0490 -21.0346 -21.0283 -21.0140 -20.9843 -20.9743 -20.9628 -20.9320
   -20.9205 -20.9135 -20.9076 -20.9006 -10.2757  -8.6169  -8.5260  -7.3913
    -6.9789  -6.4452  -6.2840  -6.2689  -5.8473  -5.4903  -4.5261  -4.4262
    -3.5331  -1.9980  -1.4732  -1.3334  -1.2818  -1.1696  -0.7798  -0.7158
    -0.6224  -0.1629  -0.1368   0.1004   0.4149   0.8849   1.0045   1.1505
     1.2545   1.4425   1.7099   1.8824   1.9457   2.0855   2.3780   2.4261

     the Fermi energy is     0.8053 ev

!    total energy              =   -1939.66528082 Ry
     Harris-Foulkes estimate   =   -1939.66528163 Ry
     estimated scf accuracy    <       0.00001513 Ry

     The total energy is the sum of the following terms:

     one-electron contribution =   -9739.36364001 Ry
     hartree contribution      =    4934.90417626 Ry
     xc contribution           =    -537.33181202 Ry
     ewald contribution        =    3402.16770230 Ry
     electric field correction =       0.00001846 Ry
     smearing contrib. (-TS)   =      -0.04172581 Ry

     convergence has been achieved in   4 iterations

     negative rho (up, down):  4.099E-04 0.000E+00

     Forces acting on atoms (cartesian axes, Ry/au):

     atom    1 type  1   force =    -0.00001015   -0.00318324   -0.00031356
     atom    2 type  1   force =    -0.00001140   -0.00365871    0.00358565
     atom    3 type  1   force =    -0.00025103    0.00230943    0.00422275
     atom    4 type  1   force =     0.00024666    0.00229976    0.00422583
     atom    5 type  1   force =     0.00074445   -0.00612825   -0.00189708
     atom    6 type  1   force =    -0.00076037   -0.00614385   -0.00189856
     atom    7 type  1   force =     0.00000592    0.00786084   -0.00465383
     atom    8 type  1   force =    -0.00001278    0.00444765    0.00148137
     atom    9 type  1   force =     0.00082671    0.00109178   -0.00082533
     atom   10 type  1   force =    -0.00076533    0.00111829   -0.00085862
     atom   11 type  1   force =    -0.00004361    0.00014694   -0.00020801
     atom   12 type  1   force =     0.00001178    0.00124587   -0.00128520
     atom   13 type  2   force =     0.00001916   -0.00140652   -0.00157541

     Total force =     0.003586     Total SCF correction =     0.008554
     SCF correction compared to forces is large: reduce conv_thr to get better values

     bfgs converged in   2 scf cycles and   1 bfgs steps
     (criteria: energy <  1.0E+12 Ry, force <  1.9E-03 Ry/Bohr)

     End of BFGS Geometry Optimization

     Final energy   =   -1939.6652808218 Ry
Begin final coordinates

ATOMIC_POSITIONS (angstrom)
Sn       1.681748263   0.970957812  10.000000000    0   0   0
Sn       5.045244789   0.970957812  10.000000000    0   0   0
Sn       3.363496526   3.883831250  10.000000000    0   0   0
Sn       6.726993052   3.883831250  10.000000000    0   0   0
Sn       6.726993052   1.941915625  12.746283414    0   0   0
Sn       3.363496526   1.941915625  12.746283414    0   0   0
Sn       8.408741315   4.854789062  12.746283414    0   0   0
Sn       5.045244789   4.854789062  12.746283414    0   0   0
Sn      -0.020195455  -0.153475617  16.784286175
Sn       3.386167137  -0.150433951  16.785885174
Sn       1.680012816   3.001667387  15.475541868
Sn       5.044046397   2.705843613  15.376795647
C        1.682045138   1.048365161  16.367837616
End final coordinates

     Writing output data file calc.save

     General routines

     Parallel routines

   This run was terminated on:   1: 6: 8  17Jan2019

   JOB DONE.