     Program PWSCF v.5.1rc2 (svn rev. 11289) starts on 21Apr2018 at 21:43:29

     Current dimensions of program PWSCF are:
     Max number of different atomic species (ntypx) = 10
     Max number of k-points (npk) =  40000
     Max angular momentum in pseudopotentials (lmaxx) =  3
     Presently stress not available with electric field

     IMPORTANT: XC functional enforced from input :
     Exchange-correlation      = BEEF-VDW ( 1  4 27 13 2)
     Any further DFT definition will be discarded
     Please, verify this is what you really want

     Subspace diagonalization in iterative solution of the eigenvalue problem:
     a serial algorithm will be used

     bravais-lattice index     =            0
     lattice parameter (alat)  =       1.8897  a.u.
     unit-cell volume          =    4569.9960 (a.u.)^3
     number of atoms/cell      =           14
     number of atomic types    =            3
     number of electrons       =       198.00
     number of Kohn-Sham states=          109
     kinetic-energy cutoff     =      36.7493  Ry
     charge density cutoff     =     367.4932  Ry
     convergence threshold     =      1.0E-05
     mixing beta               =       0.3000
     number of iterations used =           10  plain     mixing
     Exchange-correlation      = BEEF-VDW ( 1  4 27 13 2)
     nstep                     =           50

     celldm(1)=   1.889726  celldm(2)=   0.000000  celldm(3)=   0.000000
     celldm(4)=   0.000000  celldm(5)=   0.000000  celldm(6)=   0.000000

     crystal axes: (cart. coord. in units of alat)
               a(1) = (   5.637663   0.000000   0.000000 )
               a(2) = (   2.818831   4.882359   0.000000 )
               a(3) = (   0.000000   0.000000  24.603132 )

     reciprocal axes: (cart. coord. in units 2 pi/alat)
               b(1) = (  0.177378 -0.102410  0.000000 )
               b(2) = (  0.000000  0.204819  0.000000 )
               b(3) = (  0.000000  0.000000  0.040645 )

     PseudoPot. # 1 for Pd read from file:
     /u/if/mamunm/psp/gbrv1.5pbe/Pd.UPF
     MD5 check sum: 2d733d2bc2cbfd217af676df1668a4bc
     Pseudo is Ultrasoft + core correction, Zval = 16.0
     Generated by new atomic code, or converted to UPF format
     Using radial grid of  887 points,  6 beta functions with:
                l(1) =   0
                l(2) =   0
                l(3) =   1
                l(4) =   1
                l(5) =   2
                l(6) =   2
     Q(r) pseudized with  8 coefficients,  rinner =    1.130   1.130   1.130
                                                       1.130   1.130

     PseudoPot. # 2 for N  read from file:
     /u/if/mamunm/psp/gbrv1.5pbe/N.UPF
     MD5 check sum: 95339753478d7afb44899504a8723017
     Pseudo is Ultrasoft + core correction, Zval =  5.0
     Generated by new atomic code, or converted to UPF format
     Using radial grid of  729 points,  4 beta functions with:
                l(1) =   0
                l(2) =   0
                l(3) =   1
                l(4) =   1
     Q(r) pseudized with  8 coefficients,  rinner =    0.900   0.900   0.900

     PseudoPot. # 3 for H  read from file:
     /u/if/mamunm/psp/gbrv1.5pbe/H.UPF
     MD5 check sum: 761ae9a214b05c3daf00ab9f6b793d6f
     Pseudo is Ultrasoft, Zval =  1.0
     Generated by new atomic code, or converted to UPF format
     Using radial grid of  615 points,  2 beta functions with:
                l(1) =   0
                l(2) =   0
     Q(r) pseudized with  8 coefficients,  rinner =    0.700

     vdW kernel table read from file vdW_kernel_table
     MD5 check sum: 095c7af220d748ca6e76c0b4c6cfb241

     atomic species   valence    mass     pseudopotential
        Pd1           16.00   106.42000     Pd( 1.00)
        N1             5.00    14.00700     N ( 1.00)
        H1             1.00     1.00800     H ( 1.00)

     No symmetry found

   Cartesian axes

     site n.     atom                  positions (alat units)
         1           Pd1 tau(   1) = (   1.4094157   0.8137265  10.0000000  )
         2           Pd1 tau(   2) = (   4.2282471   0.8137265  10.0000000  )
         3           Pd1 tau(   3) = (   2.8188314   3.2549061  10.0000000  )
         4           Pd1 tau(   4) = (   5.6376627   3.2549061  10.0000000  )
         5           Pd1 tau(   5) = (   5.6376627   1.6274531  12.3015662  )
         6           Pd1 tau(   6) = (   2.8188314   1.6274531  12.3015662  )
         7           Pd1 tau(   7) = (   7.0470784   4.0686326  12.3015662  )
         8           Pd1 tau(   8) = (   4.2282471   4.0686326  12.3015662  )
         9           Pd1 tau(   9) = (   0.0000000   0.0000000  14.6031324  )
        10           Pd1 tau(  10) = (   2.8188314   0.0000000  14.6031324  )
        11           Pd1 tau(  11) = (   1.4094157   2.4411796  14.6031324  )
        12           Pd1 tau(  12) = (   4.2282471   2.4411796  14.6031324  )
        13           N1  tau(  13) = (   0.0000000   0.0000000  16.3881324  )
        14           H1  tau(  14) = (   0.0000000   0.0000000  17.4381324  )

     number of k points=    20  Fermi-Dirac smearing, width (Ry)=  0.0110
                       cart. coord. in units 2pi/alat
        k(    1) = (   0.0000000   0.0000000   0.0000000), wk =   0.0555556
        k(    2) = (   0.0000000   0.0341365   0.0000000), wk =   0.1111111
        k(    3) = (   0.0000000   0.0682730   0.0000000), wk =   0.1111111
        k(    4) = (   0.0000000  -0.1024095   0.0000000), wk =   0.0555556
        k(    5) = (   0.0295631  -0.0170683   0.0000000), wk =   0.1111111
        k(    6) = (   0.0295631   0.0170683   0.0000000), wk =   0.1111111
        k(    7) = (   0.0295631   0.0512048   0.0000000), wk =   0.1111111
        k(    8) = (   0.0295631  -0.1194778   0.0000000), wk =   0.1111111
        k(    9) = (   0.0295631  -0.0853413   0.0000000), wk =   0.1111111
        k(   10) = (   0.0295631  -0.0512048   0.0000000), wk =   0.1111111
        k(   11) = (   0.0591262  -0.0341365   0.0000000), wk =   0.1111111
        k(   12) = (   0.0591262  -0.0000000   0.0000000), wk =   0.1111111
        k(   13) = (   0.0591262   0.0341365   0.0000000), wk =   0.1111111
        k(   14) = (   0.0591262  -0.1365460   0.0000000), wk =   0.1111111
        k(   15) = (   0.0591262  -0.1024095   0.0000000), wk =   0.1111111
        k(   16) = (   0.0591262  -0.0682730   0.0000000), wk =   0.1111111
        k(   17) = (  -0.0886892   0.0512048   0.0000000), wk =   0.0555556
        k(   18) = (  -0.0886892   0.0853413   0.0000000), wk =   0.1111111
        k(   19) = (  -0.0886892   0.1194778   0.0000000), wk =   0.1111111
        k(   20) = (  -0.0886892  -0.0512048   0.0000000), wk =   0.0555556

     Largest allocated arrays     est. size (Mb)     dimensions
     Largest temporary arrays     est. size (Mb)     dimensions

     Initial potential from superposition of free atoms
     Check: negative starting charge=   -0.903997

     starting charge  191.99990, renormalised to  198.00000

     negative rho (up, down):  9.322E-01 0.000E+00

     *
     * You are using vdW-DF for exchange-correlation in this calculation.
     * Please cite the following three references that made this development
     * possible:
     *
     *   M. Dion, H. Rydberg, E. Schroder, D. C. Langreth, and
     *   B. I. Lundqvist, Phys. Rev. Lett. 92, 246401 (2004).
     *
     *   T. Thonhauser, V. R. Cooper, S. Li, A. Puzder, P. Hyldgaard, and
     *   D. C. Langreth, Phys. Rev. B 76, 125112 (2007).
     *
     *   G. Roman-Perez and J. M. Soler, Phys. Rev. Lett. 103, 096102 (2009).
     *
     *
     * If you are using vdW-DF2, please also cite:
     *
     *   K. Lee, E. D. Murray, L. Kong, B. I. Lundqvist, and
     *   D. C. Langreth, Phys. Rev. B 82, 081101(R) (2010).
     *
     *
     * If you are calculating the stress with vdW-DF, please also cite:
     *
     *   R. Sabatini, E. Kucukbenli, B. Kolb, T. Thonhauser, and
     *   S. de Gironcoli, J. Phys.: Condens. Matter 24, 424209 (2012).
     *

     Carrying out vdW-DF run using the following parameters:

     Nqs =      20    Nr_points =    1024   r_max =   100.000
     q_mesh =
               0.00001000     0.04494208     0.09755937     0.15916263
               0.23128650     0.31572767     0.41458969     0.53033537
               0.66584808     0.82450364     1.01025438     1.22772762
               1.48234092     1.78043706     2.12944203     2.53805004
               3.01644009     3.57652955     4.23227104     5.00000000

     Gradients computed in reciprocal space

     Adding external electric field

     Computed dipole along edir(3) :
        Dipole               -1.5098 Ry au,         -3.8376 Debye
        Dipole field         -0.0042 Ry au

        Potential amp.        0.3764 Ry
        Total length         45.3309 bohr

     Starting wfc are  149 randomized atomic wfcs

     Self-consistent Calculation

     iteration #  1     ecut=    36.75 Ry     beta=0.30
     Davidson diagonalization with overlap
     ethr =  1.00E-02,  avg # of iterations =  5.8

[...]

     total energy              =   -2369.72996685 Ry
     Harris-Foulkes estimate   =   -2421.61379661 Ry
     estimated scf accuracy    <     109.59501003 Ry

[...]

     End of self-consistent calculation

          k = 0.0000 0.0000 0.0000 ( 17231 PWs)   bands (ev):

   -50.2381 -49.5573 -49.5573 -48.7105 -48.6632 -48.6629 -48.6052 -48.5827
   -48.5821 -48.5175 -48.5066 -48.5061 -48.4935 -48.4235 -48.4233 -48.4082
   -48.3981 -48.3979 -48.3710 -48.2682 -48.2679 -48.2454 -48.2271 -48.2269
   -48.1711 -48.1710 -48.1594 -48.1589 -48.1568 -48.1030 -48.0827 -48.0823
   -48.0658 -48.0531 -48.0516 -48.0359 -13.6121  -6.1413  -4.4622  -3.4476
    -3.4474  -3.3990  -3.1774  -3.1659  -3.1657  -3.1456  -2.9838  -2.9836
    -2.9451  -2.7707  -2.6966  -2.6965  -2.6038  -2.4152  -2.4151  -1.6470
    -1.4552  -1.4552  -1.3692  -1.2191  -1.2008  -1.2007  -1.1355  -1.1352
    -0.9788  -0.9787  -0.8762  -0.8761  -0.8587  -0.6154  -0.5573  -0.5571
    -0.1831  -0.1826   0.0733   0.1482   0.1483   0.1938   0.1941   0.2038
     0.4158   0.5365   0.5365   0.8347   0.8349   0.9701   0.9791   0.9797
     1.0502   1.0504   1.0738   1.1142   1.1143   1.1752   1.1755   1.2191
     1.2676   1.2677   1.4416   1.4653   1.4654   1.4874   2.1088   3.3250
     3.5968   3.7611   3.7611   4.7999   4.9572

[...]

          k =-0.0887 0.0512 0.0000 ( 17240 PWs)   bands (ev):

[...]

     the Fermi energy is     1.2375 ev

!    total energy              =   -2418.75064766 Ry
     Harris-Foulkes estimate   =   -2418.75063483 Ry
     estimated scf accuracy    <       0.00000511 Ry

     The total energy is the sum of the following terms:

     one-electron contribution =  -20559.77073065 Ry
     hartree contribution      =   10332.79715968 Ry
     xc contribution           =    -396.26022188 Ry
     ewald contribution        =    8204.61270462 Ry
     electric field correction =       0.00011471 Ry
     smearing contrib. (-TS)   =      -0.12967414 Ry

     convergence has been achieved in  21 iterations

 BEEF-vdW xc energy contributions
           1 :   -344.851448436477
           2 :    314.895177633092
           3 :   -263.897286594358
           4 :    205.660009368590
           5 :   -153.425651142861
           6 :    115.544229007359
           7 :   -93.7353575682514
           8 :    84.1676736646734
           9 :   -80.4448358565500
          10 :    76.9067052408211
          11 :   -70.7754070192855
          12 :    62.4323202861069
          13 :   -54.1269896289635
          14 :    48.1043377646769
          15 :   -45.2284256341030
          16 :    44.7041797217535
          17 :   -44.8041965101710
          18 :    43.9808544690583
          19 :   -41.6693872064544
          20 :    38.3890150878003
          21 :   -35.2150285978389
          22 :    33.0310490706414
          23 :   -32.0292000090717
          24 :    31.7028824108060
          25 :   -31.2588919109725
          26 :    30.1422736263315
          27 :   -28.3443216054244
          28 :    26.3311230707624
          29 :   -24.6840064097311
          30 :    23.7092302169227
          31 :   -33.7203950391066
          32 :   -24.8692318544051

     Forces acting on atoms (Ry/au):

     negative rho (up, down):  9.425E-01 0.000E+00
     atom    1 type  1   force =     0.00019619    0.00009031    0.00023848
     atom    2 type  1   force =    -0.00019374    0.00013012    0.00020589
     atom    3 type  1   force =     0.00003228   -0.00022188    0.00022097
     atom    4 type  1   force =    -0.00004417    0.00000331   -0.00313483
     atom    5 type  1   force =    -0.00003944   -0.00301801    0.00350813
     atom    6 type  1   force =     0.00004970    0.00006064   -0.00147650
     atom    7 type  1   force =     0.00264387    0.00149491    0.00343603
     atom    8 type  1   force =    -0.00265288    0.00146143    0.00348687
     atom    9 type  1   force =     0.00003786   -0.00000227   -0.06223731
     atom   10 type  1   force =    -0.00003562   -0.00171475    0.00035381
     atom   11 type  1   force =    -0.00147961    0.00083641    0.00035080
     atom   12 type  1   force =     0.00148635    0.00087915    0.00033916
     atom   13 type  2   force =     0.00000003    0.00000150    0.09886266
     atom   14 type  3   force =    -0.00000083   -0.00000088   -0.04415417

     Total force =     0.124924     Total SCF correction =     0.008866

     entering subroutine stress ...

     negative rho (up, down):  9.425E-01 0.000E+00
          total   stress  (Ry/bohr**3)                   (kbar)     P=   -6.84
  -0.00007239   0.00000000   0.00000001        -10.65      0.00      0.00
   0.00000000  -0.00007237  -0.00000001          0.00    -10.65     -0.00
   0.00000001  -0.00000001   0.00000526          0.00     -0.00      0.77

     BFGS Geometry Optimization

     number of scf cycles    =   1
     number of bfgs steps    =   0

     energy   new            =   -2418.7506476606 Ry

     new trust radius        =       0.0988626560 bohr
     new conv_thr            =       0.0000099958 Ry

ATOMIC_POSITIONS (crystal)
Pd1      0.166666667   0.166666667   0.406452311    0   0   0
Pd1      0.666666667   0.166666667   0.406452311    0   0   0
Pd1      0.166666667   0.666666667   0.406452311    0   0   0
Pd1      0.666666667   0.666666667   0.406452311    0   0   0
Pd1      0.833333333   0.333333333   0.500000000    0   0   0
Pd1      0.333333333   0.333333333   0.500000000    0   0   0
Pd1      0.833333333   0.833333333   0.500000000    0   0   0
Pd1      0.333333333   0.833333333   0.500000000    0   0   0
Pd1      0.000003676  -0.000000246   0.592209056
Pd1      0.500089584  -0.000185854   0.593555299
Pd1     -0.000184211   0.500090654   0.593555234
Pd1      0.500091873   0.500095287   0.593554984
N1      -0.000000079   0.000000163   0.668225817
H1      -0.000000030  -0.000000095   0.707827228

     Writing output data file calc.save
     Check: negative starting charge=   -0.903997
     NEW-OLD atomic charge density approx. for the potential
     Check: negative starting charge=   -0.906684

[...]

     energy   old            =   -2418.7506476606 Ry
     energy   new            =   -2418.7508387156 Ry

     CASE: energy  _new < energy  _old

[...]

     Total force =     0.006841     Total SCF correction =     0.000209

[...]

     Threshold (ethr) on eigenvalues was too large:
     Diagonalizing with lowered threshold

     Davidson diagonalization with overlap
     ethr =  5.64E-08,  avg # of iterations =  1.0

[...]

     Total force =     0.003738     Total SCF correction =     0.000404
     SCF correction compared to forces is large: reduce conv_thr to get better values

[...]

     Threshold (ethr) on eigenvalues was too large:
     Diagonalizing with lowered threshold

     Davidson diagonalization with overlap
     ethr =  2.32E-08,  avg # of iterations =  1.0

[...]

     number of scf cycles    =   8
     number of bfgs steps    =   7

     energy   old            =   -2418.7553152642 Ry
     energy   new            =   -2418.7553495355 Ry

     CASE: energy  _new < energy  _old

     new trust radius        =       0.0124827271 bohr
     new conv_thr            =       0.0000001000 Ry

ATOMIC_POSITIONS (crystal)
Pd1      0.166666667   0.166666667   0.406452311    0   0   0
Pd1      0.666666667   0.166666667   0.406452311    0   0   0
Pd1      0.166666667   0.666666667   0.406452311    0   0   0
Pd1      0.666666667   0.666666667   0.406452311    0   0   0
Pd1      0.833333333   0.333333333   0.500000000    0   0   0
Pd1      0.333333333   0.333333333   0.500000000    0   0   0
Pd1      0.833333333   0.833333333   0.500000000    0   0   0
Pd1      0.333333333   0.833333333   0.500000000    0   0   0
Pd1     -0.000003672  -0.000000641   0.591279905
Pd1      0.500793846  -0.001572270   0.594058215
Pd1     -0.001577032   0.500792404   0.594059001
Pd1      0.500788049   0.500782444   0.594060730
N1      -0.000006599   0.000002749   0.666400723
H1       0.000003189  -0.000000968   0.707931723

     Writing output data file calc.save
     Check: negative starting charge=   -0.905380
     NEW-OLD atomic charge density approx. for the potential
     Check: negative starting charge=   -0.904754

[...]

     Self-consistent Calculation

[...]

     total energy              =   -2418.75537244 Ry
     Harris-Foulkes estimate   =   -2418.75537259 Ry
     estimated scf accuracy    <       0.00000046 Ry

     iteration # 11     ecut=    36.75 Ry     beta=0.30
     Davidson diagonalization with overlap
     ethr =  2.34E-10,  avg # of iterations =  1.0

[...]

     negative rho (up, down):  9.434E-01 0.000E+00

     Adding external electric field

     Computed dipole along edir(3) :
        Dipole                0.1559 Ry au,          0.3963 Debye
        Dipole field          0.0004 Ry au

        Potential amp.       -0.0389 Ry
        Total length         45.3309 bohr

     End of self-consistent calculation

[...]

          k = 0.0591-0.0683 0.0000 ( 17183 PWs)   bands (ev):

[...]

          k =-0.0887-0.0512 0.0000 ( 17240 PWs)   bands (ev):

   -50.0432 -49.4751 -49.4704 -48.7224 -48.6666 -48.6597 -48.6500 -48.6466
   -48.6240 -48.6153 -48.6031 -48.5457 -48.5433 -48.5422 -48.4846 -48.4139
   -48.4037 -48.3694 -48.3483 -48.3378 -48.3344 -48.3053 -48.3010 -48.2640
   -48.2628 -48.2590 -48.2433 -48.2417 -48.1980 -48.1392 -48.1346 -48.1283
   -48.0987 -48.0939 -48.0916 -48.0871 -13.5550  -5.8483  -3.2325  -3.1853
    -3.0551  -2.8266  -2.7641  -2.6067  -2.5547  -2.4810  -2.3684  -2.3173
    -2.2875  -2.2613  -2.1863  -2.0860  -2.0778  -1.9314  -1.8979  -1.8819
    -1.6064  -1.5461  -1.5087  -1.5074  -1.4423  -1.4367  -1.2626  -1.1905
    -1.1549  -0.9946  -0.8847  -0.8616  -0.7782  -0.7676  -0.7232  -0.6824
    -0.6542  -0.5986  -0.5787  -0.5776  -0.5370  -0.4301  -0.3341  -0.2478
    -0.1912  -0.1049  -0.0851  -0.0684   0.0353   0.0817   0.1283   0.1632
     0.1723   0.2141   0.3201   0.4782   0.5430   0.5641   0.6578   0.9109
     0.9403   0.9593   1.0538   1.2003   1.2209   1.2587   1.7247   1.8475
     3.6057   3.6796   3.7847   4.0716   4.9307

     the Fermi energy is     1.1894 ev

!    total energy              =   -2418.75537243 Ry
     Harris-Foulkes estimate   =   -2418.75537088 Ry
     estimated scf accuracy    <       0.00000005 Ry

     The total energy is the sum of the following terms:

     one-electron contribution =  -20568.20207920 Ry
     hartree contribution      =   10336.83772515 Ry
     xc contribution           =    -396.25859201 Ry
     ewald contribution        =    8208.99779934 Ry
     electric field correction =       0.00006686 Ry
     smearing contrib. (-TS)   =      -0.13029256 Ry

     convergence has been achieved in  11 iterations

 BEEF-vdW xc energy contributions
           1 :   -344.844501939289
           2 :    314.872703452629
           3 :   -263.855517483595
           4 :    205.609635219352
           5 :   -153.384247829665
           6 :    115.525081209995
           7 :   -93.7407598274423
           8 :    84.1902272154433
           9 :   -80.4735956013740
          10 :    76.9330806169384
          11 :   -70.7954816636410
          12 :    62.4461471736511
          13 :   -54.1370574885159
          14 :    48.1137866703879
          15 :   -45.2397222259524
          16 :    44.7192876762382
          17 :   -44.8244124117214
          18 :    44.0055456746717
          19 :   -41.6950718732470
          20 :    38.4100051025795
          21 :   -35.2258261237254
          22 :    33.0296150935171
          23 :   -32.0189271862520
          24 :    31.6913772205355
          25 :   -31.2537506544396
          26 :    30.1469199509208
          27 :   -28.3567169943495
          28 :    26.3453883963669
          29 :   -24.6941414332319
          30 :    23.7126023335754
          31 :   -33.7199957175513
          32 :   -24.8656681377913

     Forces acting on atoms (Ry/au):

     negative rho (up, down):  9.434E-01 0.000E+00
     atom    1 type  1   force =     0.00025238    0.00014677    0.00010341
     atom    2 type  1   force =    -0.00025143    0.00014236    0.00010047
     atom    3 type  1   force =    -0.00000332   -0.00029012    0.00010330
     atom    4 type  1   force =     0.00000378    0.00000087   -0.00270088
     atom    5 type  1   force =    -0.00000011   -0.00047325    0.00135936
     atom    6 type  1   force =     0.00000005    0.00000153    0.00144665
     atom    7 type  1   force =     0.00041002    0.00023580    0.00135075
     atom    8 type  1   force =    -0.00041064    0.00023620    0.00136285
     atom    9 type  1   force =     0.00001515   -0.00000112   -0.00014799
     atom   10 type  1   force =    -0.00001448    0.00155957   -0.00046022
     atom   11 type  1   force =     0.00135178   -0.00078840   -0.00046342
     atom   12 type  1   force =    -0.00135098   -0.00077209   -0.00046664
     atom   13 type  2   force =    -0.00000541    0.00000360   -0.00063562
     atom   14 type  3   force =     0.00000321   -0.00000173   -0.00095203

     Total force =     0.003046     Total SCF correction =     0.000709
     SCF correction compared to forces is large: reduce conv_thr to get better values

     entering subroutine stress ...

     negative rho (up, down):  9.434E-01 0.000E+00
          total   stress  (Ry/bohr**3)                   (kbar)     P=   -8.41
  -0.00007637   0.00000000  -0.00000000        -11.23      0.00     -0.00
   0.00000000  -0.00007637   0.00000000          0.00    -11.23      0.00
  -0.00000000   0.00000000  -0.00001869         -0.00      0.00     -2.75

     bfgs converged in   9 scf cycles and   8 bfgs steps
     (criteria: energy <  1.0E+00, force <  1.9E-03)

     End of BFGS Geometry Optimization

     Final energy   =   -2418.7553724297 Ry
Begin final coordinates

ATOMIC_POSITIONS (crystal)
Pd1      0.166666667   0.166666667   0.406452311    0   0   0
Pd1      0.666666667   0.166666667   0.406452311    0   0   0
Pd1      0.166666667   0.666666667   0.406452311    0   0   0
Pd1      0.666666667   0.666666667   0.406452311    0   0   0
Pd1      0.833333333   0.333333333   0.500000000    0   0   0
Pd1      0.333333333   0.333333333   0.500000000    0   0   0
Pd1      0.833333333   0.833333333   0.500000000    0   0   0
Pd1      0.333333333   0.833333333   0.500000000    0   0   0
Pd1     -0.000003672  -0.000000641   0.591279905
Pd1      0.500793846  -0.001572270   0.594058215
Pd1     -0.001577032   0.500792404   0.594059001
Pd1      0.500788049   0.500782444   0.594060730
N1      -0.000006599   0.000002749   0.666400723
H1       0.000003189  -0.000000968   0.707931723
End final coordinates

     Writing output data file calc.save

     General routines

     Parallel routines

   This run was terminated on:  22:37:41  21Apr2018

   JOB DONE.
Job  /afs/slac/g/suncat/bin/suncat-tsmpirun -x LD_LIBRARY_PATH -wdir /scratch/qe448404_XriKi pw.x -npool 4 -in pw.inp

TID   HOST_NAME   COMMAND_LINE            STATUS            TERMINATION_TIME
00000 suncat0143 pw.x -npool 4 -i  Done                     04/21/2018 22:37:41
00001 suncat0143 pw.x -npool 4 -i  Done                     04/21/2018 22:37:41
00002 suncat0143 pw.x -npool 4 -i  Done                     04/21/2018 22:37:41
00003 suncat0143 pw.x -npool 4 -i  Done                     04/21/2018 22:37:41
00004 suncat0143 pw.x -npool 4 -i  Done                     04/21/2018 22:37:41
00005 suncat0143 pw.x -npool 4 -i  Done                     04/21/2018 22:37:41
00006 suncat0143 pw.x -npool 4 -i  Done                     04/21/2018 22:37:41
00007 suncat0143 pw.x -npool 4 -i  Done                     04/21/2018 22:37:41
00008 suncat0249 pw.x -npool 4 -i  Done                     04/21/2018 22:37:41
00009 suncat0249 pw.x -npool 4 -i  Done                     04/21/2018 22:37:41
00010 suncat0249 pw.x -npool 4 -i  Done                     04/21/2018 22:37:41
00011 suncat0249 pw.x -npool 4 -i  Done                     04/21/2018 22:37:41
00012 suncat0249 pw.x -npool 4 -i  Done                     04/21/2018 22:37:41
00013 suncat0249 pw.x -npool 4 -i  Done                     04/21/2018 22:37:41
00014 suncat0249 pw.x -npool 4 -i  Done                     04/21/2018 22:37:41
00015 suncat0249 pw.x -npool 4 -i  Done                     04/21/2018 22:37:41
00016 suncat0238 pw.x -npool 4 -i  Done                     04/21/2018 22:37:41
00017 suncat0238 pw.x -npool 4 -i  Done                     04/21/2018 22:37:41
00018 suncat0238 pw.x -npool 4 -i  Done                     04/21/2018 22:37:41
00019 suncat0238 pw.x -npool 4 -i  Done                     04/21/2018 22:37:41
00020 suncat0238 pw.x -npool 4 -i  Done                     04/21/2018 22:37:41
00021 suncat0238 pw.x -npool 4 -i  Done                     04/21/2018 22:37:41
00022 suncat0238 pw.x -npool 4 -i  Done                     04/21/2018 22:37:41
00023 suncat0238 pw.x -npool 4 -i  Done                     04/21/2018 22:37:41
00024 suncat0200 pw.x -npool 4 -i  Done                     04/21/2018 22:37:41
00025 suncat0200 pw.x -npool 4 -i  Done                     04/21/2018 22:37:41
00026 suncat0200 pw.x -npool 4 -i  Done                     04/21/2018 22:37:41
00027 suncat0200 pw.x -npool 4 -i  Done                     04/21/2018 22:37:41
00028 suncat0200 pw.x -npool 4 -i  Done                     04/21/2018 22:37:41
00029 suncat0200 pw.x -npool 4 -i  Done                     04/21/2018 22:37:41
00030 suncat0200 pw.x -npool 4 -i  Done                     04/21/2018 22:37:41
00031 suncat0200 pw.x -npool 4 -i  Done                     04/21/2018 22:37:41