     Program PWSCF v.5.1rc2 (svn rev. 11289) starts on 21Apr2018 at 23:26: 6

     Current dimensions of program PWSCF are:
     Max number of different atomic species (ntypx) = 10
     Max number of k-points (npk) =  40000
     Max angular momentum in pseudopotentials (lmaxx) =  3
     Presently stress not available with electric field

     IMPORTANT: XC functional enforced from input :
     Exchange-correlation      = BEEF-VDW ( 1  4 27 13 2)
     Any further DFT definition will be discarded
     Please, verify this is what you really want

     Subspace diagonalization in iterative solution of the eigenvalue problem:
     a serial algorithm will be used

     bravais-lattice index     =            0
     lattice parameter (alat)  =       1.8897  a.u.
     unit-cell volume          =    4569.9960 (a.u.)^3
     number of atoms/cell      =           16
     number of atomic types    =            3
     number of electrons       =       199.00
     number of Kohn-Sham states=          109
     kinetic-energy cutoff     =      36.7493  Ry
     charge density cutoff     =     367.4932  Ry
     convergence threshold     =      1.0E-05
     mixing beta               =       0.3000
     number of iterations used =           10  plain     mixing
     Exchange-correlation      = BEEF-VDW ( 1  4 27 13 2)
     nstep                     =           50

     celldm(1)=   1.889726  celldm(2)=   0.000000  celldm(3)=   0.000000
     celldm(4)=   0.000000  celldm(5)=   0.000000  celldm(6)=   0.000000

     crystal axes: (cart. coord. in units of alat)
               a(1) = (   5.637663   0.000000   0.000000 )
               a(2) = (   2.818831   4.882359   0.000000 )
               a(3) = (   0.000000   0.000000  24.603132 )

     reciprocal axes: (cart. coord. in units 2 pi/alat)
               b(1) = (  0.177378 -0.102410  0.000000 )
               b(2) = (  0.000000  0.204819  0.000000 )
               b(3) = (  0.000000  0.000000  0.040645 )

     PseudoPot. # 1 for Pd read from file:
     /u/if/mamunm/psp/gbrv1.5pbe/Pd.UPF
     MD5 check sum: 2d733d2bc2cbfd217af676df1668a4bc
     Pseudo is Ultrasoft + core correction, Zval = 16.0
     Generated by new atomic code, or converted to UPF format
     Using radial grid of  887 points,  6 beta functions with:
                l(1) =   0
                l(2) =   0
                l(3) =   1
                l(4) =   1
                l(5) =   2
                l(6) =   2
     Q(r) pseudized with  8 coefficients,  rinner =    1.130   1.130   1.130
                                                       1.130   1.130

     PseudoPot. # 2 for C  read from file:
     /u/if/mamunm/psp/gbrv1.5pbe/C.UPF
     MD5 check sum: d1aef80898a10debaa0f26306b886e00
     Pseudo is Ultrasoft + core correction, Zval =  4.0
     Generated by new atomic code, or converted to UPF format
     Using radial grid of  721 points,  4 beta functions with:
                l(1) =   0
                l(2) =   0
                l(3) =   1
                l(4) =   1
     Q(r) pseudized with  8 coefficients,  rinner =    1.100   1.100   1.100

     PseudoPot. # 3 for H  read from file:
     /u/if/mamunm/psp/gbrv1.5pbe/H.UPF
     MD5 check sum: 761ae9a214b05c3daf00ab9f6b793d6f
     Pseudo is Ultrasoft, Zval =  1.0
     Generated by new atomic code, or converted to UPF format
     Using radial grid of  615 points,  2 beta functions with:
                l(1) =   0
                l(2) =   0
     Q(r) pseudized with  8 coefficients,  rinner =    0.700

     vdW kernel table read from file vdW_kernel_table
     MD5 check sum: 095c7af220d748ca6e76c0b4c6cfb241

     atomic species   valence    mass     pseudopotential
        Pd1           16.00   106.42000     Pd( 1.00)
        C1             4.00    12.01100     C ( 1.00)
        H1             1.00     1.00800     H ( 1.00)

     No symmetry found

   Cartesian axes

     site n.     atom                  positions (alat units)
         1           Pd1 tau(   1) = (   1.4094157   0.8137265  10.0000000  )
         2           Pd1 tau(   2) = (   4.2282471   0.8137265  10.0000000  )
         3           Pd1 tau(   3) = (   2.8188314   3.2549061  10.0000000  )
         4           Pd1 tau(   4) = (   5.6376627   3.2549061  10.0000000  )
         5           Pd1 tau(   5) = (   5.6376627   1.6274531  12.3015662  )
         6           Pd1 tau(   6) = (   2.8188314   1.6274531  12.3015662  )
         7           Pd1 tau(   7) = (   7.0470784   4.0686326  12.3015662  )
         8           Pd1 tau(   8) = (   4.2282471   4.0686326  12.3015662  )
         9           Pd1 tau(   9) = (   0.0000000   0.0000000  14.6031324  )
        10           Pd1 tau(  10) = (   2.8188314   0.0000000  14.6031324  )
        11           Pd1 tau(  11) = (   1.4094157   2.4411796  14.6031324  )
        12           Pd1 tau(  12) = (   4.2282471   2.4411796  14.6031324  )
        13           C1  tau(  13) = (   0.0000000   0.0000000  16.4306324  )
        14           H1  tau(  14) = (   1.0900000   0.0000000  17.0606324  )
        15           H1  tau(  15) = (   5.1876627   0.8895000  17.0606324  )
        16           H1  tau(  16) = (   2.3688314   3.9928592  17.0606324  )

     number of k points=    20  Fermi-Dirac smearing, width (Ry)=  0.0110
                       cart. coord. in units 2pi/alat
        k(    1) = (   0.0000000   0.0000000   0.0000000), wk =   0.0555556
        k(    2) = (   0.0000000   0.0341365   0.0000000), wk =   0.1111111
        k(    3) = (   0.0000000   0.0682730   0.0000000), wk =   0.1111111
        k(    4) = (   0.0000000  -0.1024095   0.0000000), wk =   0.0555556
        k(    5) = (   0.0295631  -0.0170683   0.0000000), wk =   0.1111111
        k(    6) = (   0.0295631   0.0170683   0.0000000), wk =   0.1111111
        k(    7) = (   0.0295631   0.0512048   0.0000000), wk =   0.1111111
        k(    8) = (   0.0295631  -0.1194778   0.0000000), wk =   0.1111111
        k(    9) = (   0.0295631  -0.0853413   0.0000000), wk =   0.1111111
        k(   10) = (   0.0295631  -0.0512048   0.0000000), wk =   0.1111111
        k(   11) = (   0.0591262  -0.0341365   0.0000000), wk =   0.1111111
        k(   12) = (   0.0591262  -0.0000000   0.0000000), wk =   0.1111111
        k(   13) = (   0.0591262   0.0341365   0.0000000), wk =   0.1111111
        k(   14) = (   0.0591262  -0.1365460   0.0000000), wk =   0.1111111
        k(   15) = (   0.0591262  -0.1024095   0.0000000), wk =   0.1111111
        k(   16) = (   0.0591262  -0.0682730   0.0000000), wk =   0.1111111
        k(   17) = (  -0.0886892   0.0512048   0.0000000), wk =   0.0555556
        k(   18) = (  -0.0886892   0.0853413   0.0000000), wk =   0.1111111
        k(   19) = (  -0.0886892   0.1194778   0.0000000), wk =   0.1111111
        k(   20) = (  -0.0886892  -0.0512048   0.0000000), wk =   0.0555556

     Largest allocated arrays     est. size (Mb)     dimensions
     Largest temporary arrays     est. size (Mb)     dimensions

     Initial potential from superposition of free atoms
     Check: negative starting charge=   -0.903916

     starting charge  192.99985, renormalised to  199.00000

     negative rho (up, down):  9.320E-01 0.000E+00

     *
     * You are using vdW-DF for exchange-correlation in this calculation.
     * Please cite the following three references that made this development
     * possible:
     *
     *   M. Dion, H. Rydberg, E. Schroder, D. C. Langreth, and
     *   B. I. Lundqvist, Phys. Rev. Lett. 92, 246401 (2004).
     *
     *   T. Thonhauser, V. R. Cooper, S. Li, A. Puzder, P. Hyldgaard, and
     *   D. C. Langreth, Phys. Rev. B 76, 125112 (2007).
     *
     *   G. Roman-Perez and J. M. Soler, Phys. Rev. Lett. 103, 096102 (2009).
     *
     *
     * If you are using vdW-DF2, please also cite:
     *
     *   K. Lee, E. D. Murray, L. Kong, B. I. Lundqvist, and
     *   D. C. Langreth, Phys. Rev. B 82, 081101(R) (2010).
     *
     *
     * If you are calculating the stress with vdW-DF, please also cite:
     *
     *   R. Sabatini, E. Kucukbenli, B. Kolb, T. Thonhauser, and
     *   S. de Gironcoli, J. Phys.: Condens. Matter 24, 424209 (2012).
     *

     Carrying out vdW-DF run using the following parameters:

     Nqs =      20    Nr_points =    1024   r_max =   100.000
     q_mesh =
               0.00001000     0.04494208     0.09755937     0.15916263
               0.23128650     0.31572767     0.41458969     0.53033537
               0.66584808     0.82450364     1.01025438     1.22772762
               1.48234092     1.78043706     2.12944203     2.53805004
               3.01644009     3.57652955     4.23227104     5.00000000

     Gradients computed in reciprocal space

     Adding external electric field

     Computed dipole along edir(3) :
        Dipole               -1.8085 Ry au,         -4.5968 Debye
        Dipole field         -0.0050 Ry au

        Potential amp.        0.4509 Ry
        Total length         45.3309 bohr

     Starting wfc are  151 randomized atomic wfcs

     Self-consistent Calculation

     iteration #  1     ecut=    36.75 Ry     beta=0.30
     Davidson diagonalization with overlap
     ethr =  1.00E-02,  avg # of iterations =  4.5

[...]

     total energy              =   -2355.61834099 Ry
     Harris-Foulkes estimate   =   -2415.08737774 Ry
     estimated scf accuracy    <     125.37286365 Ry

[...]

     End of self-consistent calculation

          k = 0.0000 0.0000 0.0000 ( 17231 PWs)   bands (ev):

   -49.4957 -48.9682 -48.9639 -48.6430 -48.6246 -48.6242 -48.5323 -48.5100
   -48.4995 -48.4983 -48.4581 -48.4573 -48.4393 -48.3935 -48.3898 -48.3898
   -48.3752 -48.3750 -48.3564 -48.2994 -48.2981 -48.2256 -48.2157 -48.2122
   -48.2117 -48.1639 -48.1618 -48.1543 -48.1542 -48.1089 -48.0898 -48.0864
   -48.0773 -48.0657 -48.0651 -48.0195 -10.6302  -4.5359  -4.0317  -3.9096
    -3.6588  -3.2722  -3.1470  -3.1223  -3.1115  -3.1071  -2.9703  -2.9652
    -2.8522  -2.7095  -2.6736  -2.6552  -2.6190  -2.5974  -2.5746  -1.6486
    -1.5359  -1.4852  -1.3347  -1.3173  -1.2873  -1.1595  -1.1594  -1.1490
    -1.0357  -1.0336  -0.8991  -0.8948  -0.8490  -0.8488  -0.8322  -0.6193
    -0.2024  -0.1995  -0.0384  -0.0296   0.1855   0.2023   0.2029   0.3028
     0.4565   0.4719   0.5168   0.5486   0.5496   0.9236   0.9239   0.9881
     1.0236   1.0261   1.0612   1.0614   1.2246   1.2252   1.2588   1.2629
     1.3227   1.3234   1.4485   1.4807   1.4809   1.4892   2.5247   3.3073
     3.6097   3.6169   3.6820   4.7902   4.8482

[...]

          k =-0.0887 0.0512 0.0000 ( 17240 PWs)   bands (ev):

[...]

     the Fermi energy is     1.2564 ev

!    total energy              =   -2412.56032358 Ry
     Harris-Foulkes estimate   =   -2412.56032350 Ry
     estimated scf accuracy    <       0.00000170 Ry

     The total energy is the sum of the following terms:

     one-electron contribution =  -20573.72636892 Ry
     hartree contribution      =   10340.33339039 Ry
     xc contribution           =    -396.10246140 Ry
     ewald contribution        =    8217.04708351 Ry
     electric field correction =       0.00004523 Ry
     smearing contrib. (-TS)   =      -0.11201240 Ry

     convergence has been achieved in  22 iterations

 BEEF-vdW xc energy contributions
           1 :   -344.644471921325
           2 :    314.684732736749
           3 :   -263.713671622749
           4 :    205.543454209906
           5 :   -153.390384382082
           6 :    115.580527952714
           7 :   -93.8280731367389
           8 :    84.3082087110221
           9 :   -80.6298845853186
          10 :    77.1303126455616
          11 :   -71.0253413317368
          12 :    62.6932339863446
          13 :   -54.3828670453730
          14 :    48.3410033306344
          15 :   -45.4393354253738
          16 :    44.8921680075817
          17 :   -44.9745730942517
          18 :    44.1362493800306
          19 :   -41.8114352537243
          20 :    38.5218785592068
          21 :   -35.3453623773615
          22 :    33.1641040299220
          23 :   -32.1635080629903
          24 :    31.8279268415634
          25 :   -31.3586080239489
          26 :    30.2026677675773
          27 :   -28.3607410581978
          28 :    26.3121855042758
          29 :   -24.6494784942602
          30 :    23.6808574727918
          31 :   -33.7718829289618
          32 :   -24.9139803480517

     Forces acting on atoms (Ry/au):

     negative rho (up, down):  9.416E-01 0.000E+00
     atom    1 type  1   force =    -0.00008686   -0.00006110    0.00036746
     atom    2 type  1   force =     0.00011563   -0.00010179    0.00037386
     atom    3 type  1   force =    -0.00006633    0.00012990    0.00030216
     atom    4 type  1   force =     0.00004819    0.00004220   -0.00419234
     atom    5 type  1   force =     0.00006694   -0.00033485   -0.00282026
     atom    6 type  1   force =     0.00002916    0.00003425   -0.00235151
     atom    7 type  1   force =     0.00032768    0.00032065   -0.00250454
     atom    8 type  1   force =    -0.00042934    0.00013924   -0.00271964
     atom    9 type  1   force =    -0.00024217   -0.00014857   -0.11047406
     atom   10 type  1   force =    -0.00064451   -0.00128481   -0.00343845
     atom   11 type  1   force =    -0.00081262    0.00112476   -0.00453712
     atom   12 type  1   force =     0.00126992    0.00013374   -0.00465543
     atom   13 type  2   force =     0.04779499    0.00000310    0.34352618
     atom   14 type  3   force =    -0.07287557   -0.00009205   -0.07980185
     atom   15 type  3   force =     0.01282749   -0.03860596   -0.06353927
     atom   16 type  3   force =     0.01267740    0.03870127   -0.06353520

     Total force =     0.394494     Total SCF correction =     0.002558

     entering subroutine stress ...

     negative rho (up, down):  9.416E-01 0.000E+00
          total   stress  (Ry/bohr**3)                   (kbar)     P=   -8.75
  -0.00011940  -0.00000001  -0.00001202        -17.56     -0.00     -1.77
  -0.00000001  -0.00010936  -0.00000016         -0.00    -16.09     -0.02
  -0.00001202  -0.00000016   0.00005022         -1.77     -0.02      7.39

     BFGS Geometry Optimization

     number of scf cycles    =   1
     number of bfgs steps    =   0

     energy   new            =   -2412.5603235773 Ry

     new trust radius        =       0.3468351194 bohr
     new conv_thr            =       0.0000099958 Ry

ATOMIC_POSITIONS (crystal)
Pd1      0.166666667   0.166666667   0.406452311    0   0   0
Pd1      0.666666667   0.166666667   0.406452311    0   0   0
Pd1      0.166666667   0.666666667   0.406452311    0   0   0
Pd1      0.666666667   0.666666667   0.406452311    0   0   0
Pd1      0.833333333   0.333333333   0.500000000    0   0   0
Pd1      0.333333333   0.333333333   0.500000000    0   0   0
Pd1      0.833333333   0.833333333   0.500000000    0   0   0
Pd1      0.333333333   0.833333333   0.500000000    0   0   0
Pd1     -0.000014680  -0.000016103   0.591171555
Pd1      0.500009131  -0.000139255   0.593473733
Pd1     -0.000137230   0.500121908   0.593450102
Pd1      0.500111952   0.500014496   0.593447558
C1       0.004486092   0.000000336   0.675215592
H1       0.186507083  -0.000009977   0.691716924
H1       0.832382642   0.178002187   0.692066708
H1       0.010365575   0.822008144   0.692066796

     Writing output data file calc.save
     Check: negative starting charge=   -0.903916
     NEW-OLD atomic charge density approx. for the potential
     Check: negative starting charge=   -0.904162

[...]

     energy   old            =   -2412.5603235773 Ry
     energy   new            =   -2412.6364961352 Ry

     CASE: energy  _new < energy  _old

[...]

     Total force =     0.009726     Total SCF correction =     0.000997
     SCF correction compared to forces is large: reduce conv_thr to get better values

[...]

     Threshold (ethr) on eigenvalues was too large:
     Diagonalizing with lowered threshold

     Davidson diagonalization with overlap
     ethr =  2.58E-08,  avg # of iterations =  1.1

[...]

     Threshold (ethr) on eigenvalues was too large:
     Diagonalizing with lowered threshold

     Davidson diagonalization with overlap
     ethr =  6.67E-08,  avg # of iterations =  1.0

[...]

     Total force =     0.003043     Total SCF correction =     0.000223

[...]

     number of scf cycles    =  17
     number of bfgs steps    =  16

     energy   old            =   -2412.6475949664 Ry
     energy   new            =   -2412.6476470366 Ry

     CASE: energy  _new < energy  _old

     new trust radius        =       0.0093820709 bohr
     new conv_thr            =       0.0000001000 Ry

ATOMIC_POSITIONS (crystal)
Pd1      0.166666667   0.166666667   0.406452311    0   0   0
Pd1      0.666666667   0.166666667   0.406452311    0   0   0
Pd1      0.166666667   0.666666667   0.406452311    0   0   0
Pd1      0.666666667   0.666666667   0.406452311    0   0   0
Pd1      0.833333333   0.333333333   0.500000000    0   0   0
Pd1      0.333333333   0.333333333   0.500000000    0   0   0
Pd1      0.833333333   0.833333333   0.500000000    0   0   0
Pd1      0.333333333   0.833333333   0.500000000    0   0   0
Pd1      0.001098390  -0.000000305   0.599154643
Pd1      0.501202714  -0.000612393   0.592734902
Pd1      0.000095299   0.500381511   0.592732315
Pd1      0.501078600   0.500264285   0.592732946
C1       0.006555130   0.000002223   0.683153191
H1       0.192300365  -0.000601548   0.695860909
H1       0.823147492   0.184974781   0.696752915
H1       0.006920908   0.815622943   0.696759348

     Writing output data file calc.save
     Check: negative starting charge=   -0.909535
     NEW-OLD atomic charge density approx. for the potential
     Check: negative starting charge=   -0.909308

[...]

     Self-consistent Calculation

[...]

     total energy              =   -2412.64765878 Ry
     Harris-Foulkes estimate   =   -2412.64765864 Ry
     estimated scf accuracy    <       0.00000026 Ry

     iteration #  9     ecut=    36.75 Ry     beta=0.30
     Davidson diagonalization with overlap
     ethr =  1.30E-10,  avg # of iterations =  2.0

[...]

     negative rho (up, down):  9.473E-01 0.000E+00

     Adding external electric field

     Computed dipole along edir(3) :
        Dipole                0.1392 Ry au,          0.3538 Debye
        Dipole field          0.0004 Ry au

        Potential amp.       -0.0347 Ry
        Total length         45.3309 bohr

     End of self-consistent calculation

[...]

          k = 0.0591-0.0683 0.0000 ( 17183 PWs)   bands (ev):

[...]

          k =-0.0887-0.0512 0.0000 ( 17240 PWs)   bands (ev):

   -48.9096 -48.6566 -48.6393 -48.5757 -48.5744 -48.5226 -48.5112 -48.4994
   -48.4977 -48.4867 -48.4843 -48.4708 -48.4689 -48.4074 -48.4059 -48.3543
   -48.3327 -48.3214 -48.2852 -48.2745 -48.2714 -48.2687 -48.2657 -48.2639
   -48.2576 -48.2198 -48.1943 -48.1867 -48.1615 -48.1128 -48.1077 -48.1029
   -48.0651 -48.0606 -48.0557 -47.9986 -11.0067  -4.3462  -4.2766  -3.1268
    -3.0789  -2.6301  -2.5560  -2.5383  -2.4340  -2.3644  -2.2973  -2.2882
    -2.2132  -2.1747  -2.0989  -2.0208  -1.9379  -1.8581  -1.8134  -1.8036
    -1.5266  -1.5040  -1.4877  -1.4475  -1.4313  -1.2754  -1.1376  -1.0261
    -0.9915  -0.9316  -0.8319  -0.8145  -0.7560  -0.7104  -0.6320  -0.6241
    -0.6020  -0.5541  -0.5426  -0.5184  -0.4726  -0.4580  -0.3782  -0.3025
    -0.1759  -0.1592  -0.0719  -0.0066   0.0164   0.1033   0.1302   0.2056
     0.2115   0.2685   0.2754   0.3686   0.4800   0.6085   0.6358   0.7457
     1.0258   1.0366   1.0695   1.1404   1.2334   1.2826   1.3237   2.3783
     3.5425   3.7315   3.8138   4.1946   4.8572

     the Fermi energy is     1.2674 ev

!    total energy              =   -2412.64765874 Ry
     Harris-Foulkes estimate   =   -2412.64765858 Ry
     estimated scf accuracy    <       0.00000009 Ry

     The total energy is the sum of the following terms:

     one-electron contribution =  -20420.64866713 Ry
     hartree contribution      =   10263.96703460 Ry
     xc contribution           =    -396.15728375 Ry
     ewald contribution        =    8140.30516657 Ry
     electric field correction =       0.00005329 Ry
     smearing contrib. (-TS)   =      -0.11396232 Ry

     convergence has been achieved in   9 iterations

 BEEF-vdW xc energy contributions
           1 :   -344.668261274179
           2 :    314.614091882189
           3 :   -263.533676929095
           4 :    205.312502530769
           5 :   -153.190858595325
           6 :    115.481282626174
           7 :   -93.8592597585106
           8 :    84.4468101820844
           9 :   -80.8068925542848
          10 :    77.2630409452218
          11 :   -71.0606096319266
          12 :    62.6345688136383
          13 :   -54.2842424641906
          14 :    48.2723344009255
          15 :   -45.4463300385752
          16 :    44.9741947266912
          17 :   -45.0907452517993
          18 :    44.2334653540938
          19 :   -41.8569657711378
          20 :    38.5197325153849
          21 :   -35.3263668319613
          22 :    33.1588175463178
          23 :   -32.1787921047437
          24 :    31.8437826200915
          25 :   -31.3461367430585
          26 :    30.1486049370425
          27 :   -28.2797076476178
          28 :    26.2378387492381
          29 :   -24.6116763104774
          30 :    23.6850263768940
          31 :   -33.7724445710110
          32 :   -24.8938203170472

     Forces acting on atoms (Ry/au):

     negative rho (up, down):  9.473E-01 0.000E+00
     atom    1 type  1   force =    -0.00018680   -0.00010060    0.00035469
     atom    2 type  1   force =     0.00015235   -0.00009332    0.00036773
     atom    3 type  1   force =    -0.00001486    0.00019450    0.00035277
     atom    4 type  1   force =    -0.00003748   -0.00000024   -0.00463642
     atom    5 type  1   force =     0.00013922   -0.00632634    0.00296274
     atom    6 type  1   force =     0.00014095   -0.00000241   -0.00487227
     atom    7 type  1   force =     0.00563738    0.00319526    0.00301452
     atom    8 type  1   force =    -0.00532080    0.00313432    0.00290766
     atom    9 type  1   force =    -0.00004494    0.00001695    0.00046810
     atom   10 type  1   force =     0.00005293    0.00014306   -0.00016988
     atom   11 type  1   force =     0.00005336   -0.00000404   -0.00017139
     atom   12 type  1   force =    -0.00017461   -0.00015536   -0.00015974
     atom   13 type  2   force =     0.00014312   -0.00007302   -0.00066304
     atom   14 type  3   force =    -0.00025597   -0.00002789    0.00022848
     atom   15 type  3   force =    -0.00012929    0.00002427    0.00002048
     atom   16 type  3   force =    -0.00015455    0.00007485   -0.00000444

     Total force =     0.001009     Total SCF correction =     0.000383
     SCF correction compared to forces is large: reduce conv_thr to get better values

     entering subroutine stress ...

     negative rho (up, down):  9.473E-01 0.000E+00
          total   stress  (Ry/bohr**3)                   (kbar)     P=   -9.86
  -0.00009386  -0.00000032  -0.00000085        -13.81     -0.05     -0.12
  -0.00000032  -0.00009379   0.00000001         -0.05    -13.80      0.00
  -0.00000085   0.00000001  -0.00001337         -0.12      0.00     -1.97

     bfgs converged in  18 scf cycles and  17 bfgs steps
     (criteria: energy <  1.0E+00, force <  1.9E-03)

     End of BFGS Geometry Optimization

     Final energy   =   -2412.6476587431 Ry
Begin final coordinates

ATOMIC_POSITIONS (crystal)
Pd1      0.166666667   0.166666667   0.406452311    0   0   0
Pd1      0.666666667   0.166666667   0.406452311    0   0   0
Pd1      0.166666667   0.666666667   0.406452311    0   0   0
Pd1      0.666666667   0.666666667   0.406452311    0   0   0
Pd1      0.833333333   0.333333333   0.500000000    0   0   0
Pd1      0.333333333   0.333333333   0.500000000    0   0   0
Pd1      0.833333333   0.833333333   0.500000000    0   0   0
Pd1      0.333333333   0.833333333   0.500000000    0   0   0
Pd1      0.001098390  -0.000000305   0.599154643
Pd1      0.501202714  -0.000612393   0.592734902
Pd1      0.000095299   0.500381511   0.592732315
Pd1      0.501078600   0.500264285   0.592732946
C1       0.006555130   0.000002223   0.683153191
H1       0.192300365  -0.000601548   0.695860909
H1       0.823147492   0.184974781   0.696752915
H1       0.006920908   0.815622943   0.696759348
End final coordinates

     Writing output data file calc.save

     General routines

     Parallel routines

   This run was terminated on:   1:18:49  22Apr2018

   JOB DONE.
Job  /afs/slac/g/suncat/bin/suncat-tsmpirun -x LD_LIBRARY_PATH -wdir /scratch/qe532558_rW0Zh pw.x -npool 4 -in pw.inp

TID   HOST_NAME   COMMAND_LINE            STATUS            TERMINATION_TIME
00000 suncat0198 pw.x -npool 4 -i  Done                     04/22/2018 01:18:49
00001 suncat0198 pw.x -npool 4 -i  Done                     04/22/2018 01:18:49
00002 suncat0198 pw.x -npool 4 -i  Done                     04/22/2018 01:18:49
00003 suncat0198 pw.x -npool 4 -i  Done                     04/22/2018 01:18:49
00004 suncat0198 pw.x -npool 4 -i  Done                     04/22/2018 01:18:49
00005 suncat0198 pw.x -npool 4 -i  Done                     04/22/2018 01:18:49
00006 suncat0198 pw.x -npool 4 -i  Done                     04/22/2018 01:18:49
00007 suncat0198 pw.x -npool 4 -i  Done                     04/22/2018 01:18:49
00008 suncat0007 pw.x -npool 4 -i  Done                     04/22/2018 01:18:49
00009 suncat0007 pw.x -npool 4 -i  Done                     04/22/2018 01:18:49
00010 suncat0007 pw.x -npool 4 -i  Done                     04/22/2018 01:18:49
00011 suncat0007 pw.x -npool 4 -i  Done                     04/22/2018 01:18:49
00012 suncat0007 pw.x -npool 4 -i  Done                     04/22/2018 01:18:49
00013 suncat0007 pw.x -npool 4 -i  Done                     04/22/2018 01:18:49
00014 suncat0007 pw.x -npool 4 -i  Done                     04/22/2018 01:18:49
00015 suncat0007 pw.x -npool 4 -i  Done                     04/22/2018 01:18:49
00016 suncat0121 pw.x -npool 4 -i  Done                     04/22/2018 01:18:49
00017 suncat0121 pw.x -npool 4 -i  Done                     04/22/2018 01:18:49
00018 suncat0121 pw.x -npool 4 -i  Done                     04/22/2018 01:18:49
00019 suncat0121 pw.x -npool 4 -i  Done                     04/22/2018 01:18:49
00020 suncat0121 pw.x -npool 4 -i  Done                     04/22/2018 01:18:49
00021 suncat0121 pw.x -npool 4 -i  Done                     04/22/2018 01:18:49
00022 suncat0121 pw.x -npool 4 -i  Done                     04/22/2018 01:18:49
00023 suncat0121 pw.x -npool 4 -i  Done                     04/22/2018 01:18:49
00024 suncat0114 pw.x -npool 4 -i  Done                     04/22/2018 01:18:49
00025 suncat0114 pw.x -npool 4 -i  Done                     04/22/2018 01:18:49
00026 suncat0114 pw.x -npool 4 -i  Done                     04/22/2018 01:18:49
00027 suncat0114 pw.x -npool 4 -i  Done                     04/22/2018 01:18:49
00028 suncat0114 pw.x -npool 4 -i  Done                     04/22/2018 01:18:49
00029 suncat0114 pw.x -npool 4 -i  Done                     04/22/2018 01:18:49
00030 suncat0114 pw.x -npool 4 -i  Done                     04/22/2018 01:18:49
00031 suncat0114 pw.x -npool 4 -i  Done                     04/22/2018 01:18:49