     Program PWSCF v.5.1rc2 (svn rev. 11289) starts on  2May2018 at 17:15:25

     Current dimensions of program PWSCF are:
     Max number of different atomic species (ntypx) = 10
     Max number of k-points (npk) =  40000
     Max angular momentum in pseudopotentials (lmaxx) =  3
     Presently stress not available with electric field

     IMPORTANT: XC functional enforced from input :
     Exchange-correlation      = BEEF-VDW ( 1  4 27 13 2)
     Any further DFT definition will be discarded
     Please, verify this is what you really want

     Subspace diagonalization in iterative solution of the eigenvalue problem:
     a serial algorithm will be used

     bravais-lattice index     =            0
     lattice parameter (alat)  =       1.8897  a.u.
     unit-cell volume          =    4301.6107 (a.u.)^3
     number of atoms/cell      =           13
     number of atomic types    =            2
     number of electrons       =       186.00
     number of Kohn-Sham states=          103
     kinetic-energy cutoff     =      36.7493  Ry
     charge density cutoff     =     367.4932  Ry
     convergence threshold     =      1.0E-05
     mixing beta               =       0.3000
     number of iterations used =           10  plain     mixing
     Exchange-correlation      = BEEF-VDW ( 1  4 27 13 2)
     nstep                     =           50

     celldm(1)=   1.889726  celldm(2)=   0.000000  celldm(3)=   0.000000
     celldm(4)=   0.000000  celldm(5)=   0.000000  celldm(6)=   0.000000

     crystal axes: (cart. coord. in units of alat)
               a(1) = (   5.483647   0.000000   0.000000 )
               a(2) = (   2.741823   4.748977   0.000000 )
               a(3) = (   0.000000   0.000000  24.477379 )

     reciprocal axes: (cart. coord. in units 2 pi/alat)
               b(1) = (  0.182360 -0.105286  0.000000 )
               b(2) = (  0.000000  0.210572  0.000000 )
               b(3) = (  0.000000  0.000000  0.040854 )

     PseudoPot. # 1 for Tc read from file:
     /u/if/mamunm/psp/gbrv1.5pbe/Tc.UPF
     MD5 check sum: 9eb49e5b028550b2339a02317eb7b844
     Pseudo is Ultrasoft + core correction, Zval = 15.0
     Generated by new atomic code, or converted to UPF format
     Using radial grid of  965 points,  6 beta functions with:
                l(1) =   0
                l(2) =   0
                l(3) =   1
                l(4) =   1
                l(5) =   2
                l(6) =   2
     Q(r) pseudized with  8 coefficients,  rinner =    1.300   1.300   1.300
                                                       1.300   1.300

     PseudoPot. # 2 for O  read from file:
     /u/if/mamunm/psp/gbrv1.5pbe/O.UPF
     MD5 check sum: 734c27235a0248c51dbae37a1fbe46ec
     Pseudo is Ultrasoft + core correction, Zval =  6.0
     Generated by new atomic code, or converted to UPF format
     Using radial grid of  737 points,  5 beta functions with:
                l(1) =   0
                l(2) =   0
                l(3) =   1
                l(4) =   1
                l(5) =   2
     Q(r) pseudized with  8 coefficients,  rinner =    0.900   0.900   0.900
                                                       0.900   0.900

     vdW kernel table read from file vdW_kernel_table
     MD5 check sum: 095c7af220d748ca6e76c0b4c6cfb241

     atomic species   valence    mass     pseudopotential
        Tc1           15.00    97.90721     Tc( 1.00)
        O1             6.00    15.99900     O ( 1.00)

     No symmetry found

   Cartesian axes

     site n.     atom                  positions (alat units)
         1           Tc1 tau(   1) = (   1.3709117   0.7914962  10.0000000  )
         2           Tc1 tau(   2) = (   4.1127351   0.7914962  10.0000000  )
         3           Tc1 tau(   3) = (   2.7418234   3.1659850  10.0000000  )
         4           Tc1 tau(   4) = (   5.4836469   3.1659850  10.0000000  )
         5           Tc1 tau(   5) = (   5.4836469   1.5829925  12.2386895  )
         6           Tc1 tau(   6) = (   2.7418234   1.5829925  12.2386895  )
         7           Tc1 tau(   7) = (   6.8545586   3.9574812  12.2386895  )
         8           Tc1 tau(   8) = (   4.1127351   3.9574812  12.2386895  )
         9           Tc1 tau(   9) = (   0.0000000   0.0000000  14.4773789  )
        10           Tc1 tau(  10) = (   2.7418234   0.0000000  14.4773789  )
        11           Tc1 tau(  11) = (   1.3709117   2.3744887  14.4773789  )
        12           Tc1 tau(  12) = (   4.1127351   2.3744887  14.4773789  )
        13           O1  tau(  13) = (   1.3709117   0.7914962  15.8618789  )

     number of k points=    20  Fermi-Dirac smearing, width (Ry)=  0.0110
                       cart. coord. in units 2pi/alat
        k(    1) = (   0.0000000   0.0000000   0.0000000), wk =   0.0555556
        k(    2) = (   0.0000000   0.0350953   0.0000000), wk =   0.1111111
        k(    3) = (   0.0000000   0.0701905   0.0000000), wk =   0.1111111
        k(    4) = (   0.0000000  -0.1052858   0.0000000), wk =   0.0555556
        k(    5) = (   0.0303934  -0.0175476   0.0000000), wk =   0.1111111
        k(    6) = (   0.0303934   0.0175476   0.0000000), wk =   0.1111111
        k(    7) = (   0.0303934   0.0526429   0.0000000), wk =   0.1111111
        k(    8) = (   0.0303934  -0.1228335   0.0000000), wk =   0.1111111
        k(    9) = (   0.0303934  -0.0877382   0.0000000), wk =   0.1111111
        k(   10) = (   0.0303934  -0.0526429   0.0000000), wk =   0.1111111
        k(   11) = (   0.0607868  -0.0350953   0.0000000), wk =   0.1111111
        k(   12) = (   0.0607868   0.0000000   0.0000000), wk =   0.1111111
        k(   13) = (   0.0607868   0.0350953   0.0000000), wk =   0.1111111
        k(   14) = (   0.0607868  -0.1403811   0.0000000), wk =   0.1111111
        k(   15) = (   0.0607868  -0.1052858   0.0000000), wk =   0.1111111
        k(   16) = (   0.0607868  -0.0701905   0.0000000), wk =   0.1111111
        k(   17) = (  -0.0911802   0.0526429   0.0000000), wk =   0.0555556
        k(   18) = (  -0.0911802   0.0877382   0.0000000), wk =   0.1111111
        k(   19) = (  -0.0911802   0.1228335   0.0000000), wk =   0.1111111
        k(   20) = (  -0.0911802  -0.0526429   0.0000000), wk =   0.0555556

     Largest allocated arrays     est. size (Mb)     dimensions
     Largest temporary arrays     est. size (Mb)     dimensions

     Check: negative/imaginary core charge=   -0.000022    0.000000

     Initial potential from superposition of free atoms
     Check: negative starting charge=   -1.505094

     starting charge  173.99967, renormalised to  186.00000

     negative rho (up, down):  1.609E+00 0.000E+00

     *
     * You are using vdW-DF for exchange-correlation in this calculation.
     * Please cite the following three references that made this development
     * possible:
     *
     *   M. Dion, H. Rydberg, E. Schroder, D. C. Langreth, and
     *   B. I. Lundqvist, Phys. Rev. Lett. 92, 246401 (2004).
     *
     *   T. Thonhauser, V. R. Cooper, S. Li, A. Puzder, P. Hyldgaard, and
     *   D. C. Langreth, Phys. Rev. B 76, 125112 (2007).
     *
     *   G. Roman-Perez and J. M. Soler, Phys. Rev. Lett. 103, 096102 (2009).
     *
     *
     * If you are using vdW-DF2, please also cite:
     *
     *   K. Lee, E. D. Murray, L. Kong, B. I. Lundqvist, and
     *   D. C. Langreth, Phys. Rev. B 82, 081101(R) (2010).
     *
     *
     * If you are calculating the stress with vdW-DF, please also cite:
     *
     *   R. Sabatini, E. Kucukbenli, B. Kolb, T. Thonhauser, and
     *   S. de Gironcoli, J. Phys.: Condens. Matter 24, 424209 (2012).
     *

     Carrying out vdW-DF run using the following parameters:

     Nqs =      20    Nr_points =    1024   r_max =   100.000
     q_mesh =
               0.00001000     0.04494208     0.09755937     0.15916263
               0.23128650     0.31572767     0.41458969     0.53033537
               0.66584808     0.82450364     1.01025438     1.22772762
               1.48234092     1.78043706     2.12944203     2.53805004
               3.01644009     3.57652955     4.23227104     5.00000000

     Gradients computed in reciprocal space

     Adding external electric field

     Computed dipole along edir(3) :
        Dipole               -2.8332 Ry au,         -7.2014 Debye
        Dipole field         -0.0083 Ry au

        Potential amp.        0.7466 Ry
        Total length         45.0992 bohr

     Starting wfc are  160 randomized atomic wfcs

     Self-consistent Calculation

     iteration #  1     ecut=    36.75 Ry     beta=0.30
     Davidson diagonalization with overlap
     ethr =  1.00E-02,  avg # of iterations =  8.5

[...]

     total energy              =   -1907.24551434 Ry
     Harris-Foulkes estimate   =   -2131.84637563 Ry
     estimated scf accuracy    <     473.42147157 Ry

[...]

     End of self-consistent calculation

          k = 0.0000 0.0000 0.0000 ( 16073 PWs)   bands (ev):

   -65.0150 -64.9250 -64.8690 -64.8684 -64.8236 -64.8234 -64.7957 -64.7133
   -64.6027 -64.5994 -64.5799 -64.5795 -37.5275 -37.4180 -37.4179 -37.4087
   -37.3225 -37.2981 -37.2979 -37.1367 -37.1366 -37.1266 -36.8844 -36.8839
   -36.8766 -36.7483 -36.7330 -36.7330 -36.7083 -36.6986 -36.6984 -36.6647
   -36.5952 -36.5949 -36.5733 -36.5334 -36.5332 -36.5212 -36.4645 -36.4438
   -36.4438 -36.3812 -36.3810 -36.3780 -36.3210 -36.3208 -36.1808 -36.1807
   -16.1780  -4.1950  -3.4180  -3.1915  -3.1915  -2.8969  -2.7787  -2.7085
    -2.6942  -2.6942  -2.4339  -2.3217  -2.3216  -2.1896  -2.1896  -2.0602
    -1.6501  -1.6501  -1.0894  -0.5248  -0.5247   0.0556   0.0781   0.0781
     0.2251   0.5212   0.6123   0.6123   0.7145   0.9171   0.9171   0.9955
     1.0905   1.0906   1.1830   1.1830   1.6025   1.6860   1.6861   2.3913
     2.6002   2.6537   2.6537   2.9735   2.9736   3.0288   3.0288   3.2979
     3.4882   3.4882   3.7561   4.1560   4.1562   4.3052   4.3172

[...]

          k =-0.0912 0.0526 0.0000 ( 16164 PWs)   bands (ev):

[...]

     the Fermi energy is     2.3084 ev

!    total energy              =   -2135.98227808 Ry
     Harris-Foulkes estimate   =   -2135.98228202 Ry
     estimated scf accuracy    <       0.00000086 Ry

     The total energy is the sum of the following terms:

     one-electron contribution =  -19234.80302161 Ry
     hartree contribution      =    9618.04464831 Ry
     xc contribution           =    -404.49620921 Ry
     ewald contribution        =    7885.36136051 Ry
     electric field correction =       0.00006417 Ry
     smearing contrib. (-TS)   =      -0.08912025 Ry

     convergence has been achieved in  28 iterations

 BEEF-vdW xc energy contributions
           1 :   -354.293231952794
           2 :    325.522477951968
           3 :   -274.447868778606
           4 :    211.425544285107
           5 :   -147.416719962188
           6 :    90.9759912128274
           7 :   -46.6182731752195
           8 :    14.7424507776753
           9 :    7.07627802026531
          10 :   -22.2080336650159
          11 :    33.2782504315469
          12 :   -41.3135853735827
          13 :    45.8231442949293
          14 :   -45.6108713640143
          15 :    39.8196386756007
          16 :   -28.7475528182919
          17 :    14.0904083872626
          18 :    1.44092565520219
          19 :   -14.9366100172631
          20 :    24.1554943482755
          21 :   -28.1022567600210
          22 :    27.1019802622917
          23 :   -22.4135647725398
          24 :    15.6047151288091
          25 :   -7.99521572774387
          26 :   0.391160995959353
          27 :    6.83651608372475
          28 :   -13.4630960304946
          29 :    19.1206445531714
          30 :   -23.1859280598835
          31 :   -33.7805342125425
          32 :   -24.7464813316777

     Forces acting on atoms (Ry/au):

     negative rho (up, down):  1.590E+00 0.000E+00
     atom    1 type  1   force =     0.00000965    0.00000149    0.03075494
     atom    2 type  1   force =     0.00000169   -0.00534156    0.02926948
     atom    3 type  1   force =    -0.00463294    0.00267415    0.02926676
     atom    4 type  1   force =     0.00463085    0.00267402    0.02924556
     atom    5 type  1   force =    -0.00322771    0.00187544    0.00142530
     atom    6 type  1   force =     0.00323892    0.00183313    0.00145845
     atom    7 type  1   force =    -0.00001850    0.00001714   -0.06438119
     atom    8 type  1   force =     0.00004788   -0.00372143    0.00145251
     atom    9 type  1   force =     0.00021776    0.00012285    0.01668205
     atom   10 type  1   force =    -0.00021510    0.00012061    0.01671028
     atom   11 type  1   force =     0.00000286   -0.00025113    0.01669572
     atom   12 type  1   force =     0.00000175   -0.00000055   -0.05078320
     atom   13 type  2   force =    -0.00005711   -0.00000415   -0.05779665

     Total force =     0.082194     Total SCF correction =     0.001265

     entering subroutine stress ...

     negative rho (up, down):  1.590E+00 0.000E+00
          total   stress  (Ry/bohr**3)                   (kbar)     P=  -34.62
  -0.00023834   0.00000001   0.00000001        -35.06      0.00      0.00
   0.00000001  -0.00023835   0.00000000          0.00    -35.06      0.00
   0.00000001   0.00000000  -0.00022931          0.00      0.00    -33.73

     BFGS Geometry Optimization

     number of scf cycles    =   1
     number of bfgs steps    =   0

     energy   new            =   -2135.9822780799 Ry

     new trust radius        =       0.0577966782 bohr
     new conv_thr            =       0.0000099958 Ry

ATOMIC_POSITIONS (crystal)
Tc1      0.166666667   0.166666667   0.408540475    0   0   0
Tc1      0.666666667   0.166666667   0.408540475    0   0   0
Tc1      0.166666667   0.666666667   0.408540475    0   0   0
Tc1      0.666666667   0.666666667   0.408540475    0   0   0
Tc1      0.833333333   0.333333333   0.500000000    0   0   0
Tc1      0.333333333   0.333333333   0.500000000    0   0   0
Tc1      0.833333333   0.833333333   0.500000000    0   0   0
Tc1      0.333333333   0.833333333   0.500000000    0   0   0
Tc1      0.000014170   0.000013689   0.591820175
Tc1      0.499972523   0.000013440   0.591820785
Tc1      0.000014267   0.499972017   0.591820471
Tc1      0.500000200   0.499999938   0.590361642
O1       0.166661387   0.166666204   0.646772446

     Writing output data file calc.save
     Check: negative starting charge=   -1.505094
     NEW-OLD atomic charge density approx. for the potential

     Check: negative/imaginary core charge=   -0.000022    0.000000
     Check: negative starting charge=   -1.509700

[...]

     Total force =     0.063762     Total SCF correction =     0.009137
     SCF correction compared to forces is large: reduce conv_thr to get better values

[...]

     energy   old            =   -2135.9822780799 Ry
     energy   new            =   -2135.9882057904 Ry

     CASE: energy  _new < energy  _old

[...]

     Total force =     0.008912     Total SCF correction =     0.000853

[...]

     number of scf cycles    =  10
     number of bfgs steps    =   9

     energy   old            =   -2136.0007294153 Ry
     energy   new            =   -2136.0007744581 Ry

     CASE: energy  _new < energy  _old

     new trust radius        =       0.0173201673 bohr
     new conv_thr            =       0.0000001000 Ry

ATOMIC_POSITIONS (crystal)
Tc1      0.166666667   0.166666667   0.408540475    0   0   0
Tc1      0.666666667   0.166666667   0.408540475    0   0   0
Tc1      0.166666667   0.666666667   0.408540475    0   0   0
Tc1      0.666666667   0.666666667   0.408540475    0   0   0
Tc1      0.833333333   0.333333333   0.500000000    0   0   0
Tc1      0.333333333   0.333333333   0.500000000    0   0   0
Tc1      0.833333333   0.833333333   0.500000000    0   0   0
Tc1      0.333333333   0.833333333   0.500000000    0   0   0
Tc1     -0.005391188  -0.005391115   0.591779240
Tc1      0.510754359  -0.005378541   0.591779178
Tc1     -0.005382742   0.510763923   0.591779239
Tc1      0.500000657   0.500000189   0.584448812
O1       0.166665255   0.166663077   0.641464098

     Writing output data file calc.save
     Check: negative starting charge=   -1.505294
     NEW-OLD atomic charge density approx. for the potential

     Check: negative/imaginary core charge=   -0.000022    0.000000
     Check: negative starting charge=   -1.504441

[...]

     Self-consistent Calculation

[...]

     total energy              =   -2136.00080500 Ry
     Harris-Foulkes estimate   =   -2136.00080502 Ry
     estimated scf accuracy    <       0.00000020 Ry

     iteration # 13     ecut=    36.75 Ry     beta=0.30
     Davidson diagonalization with overlap
     ethr =  1.10E-10,  avg # of iterations =  4.0

[...]

     negative rho (up, down):  1.590E+00 0.000E+00

     Adding external electric field

     Computed dipole along edir(3) :
        Dipole               -0.0704 Ry au,         -0.1790 Debye
        Dipole field         -0.0002 Ry au

        Potential amp.        0.0186 Ry
        Total length         45.0992 bohr

     End of self-consistent calculation

[...]

          k = 0.0608-0.0702 0.0000 ( 16203 PWs)   bands (ev):

[...]

          k =-0.0912-0.0526 0.0000 ( 16164 PWs)   bands (ev):

   -64.8633 -64.8403 -64.7861 -64.7738 -64.7703 -64.7340 -64.7121 -64.5665
   -64.5284 -64.5105 -64.4817 -64.4645 -37.3313 -37.2122 -37.1709 -37.1358
   -37.1131 -37.0813 -37.0322 -36.9489 -36.9318 -36.8907 -36.8747 -36.8468
   -36.8021 -36.7988 -36.7564 -36.6513 -36.6487 -36.6140 -36.6017 -36.5716
   -36.5582 -36.5465 -36.5116 -36.4980 -36.4978 -36.4635 -36.4462 -36.4454
   -36.4178 -36.3865 -36.3706 -36.3466 -36.2974 -36.2581 -36.1853 -36.1596
   -16.6390  -3.5756  -3.0218  -2.9184  -2.5247  -2.4283  -1.9537  -1.8937
    -1.7628  -1.7172  -1.5632  -1.4920  -1.3643  -1.2163  -1.1074  -1.0792
    -0.9772  -0.8674  -0.7387  -0.6538  -0.3795  -0.2845  -0.1824  -0.1162
    -0.0701   0.0039   0.3338   0.4802   0.6162   0.6464   0.9529   0.9611
     0.9903   1.0211   1.1471   1.1871   1.2311   1.2707   1.3052   1.3715
     1.4335   1.8003   1.8673   2.1801   2.2469   2.2558   2.3877   2.4111
     2.6043   2.7075   2.8466   2.8598   3.0497   3.0848   3.3168

     the Fermi energy is     2.4165 ev

!    total energy              =   -2136.00080498 Ry
     Harris-Foulkes estimate   =   -2136.00080508 Ry
     estimated scf accuracy    <       0.00000005 Ry

     The total energy is the sum of the following terms:

     one-electron contribution =  -19385.41031605 Ry
     hartree contribution      =    9693.84373185 Ry
     xc contribution           =    -404.68533611 Ry
     ewald contribution        =    7960.33870658 Ry
     electric field correction =       0.00001449 Ry
     smearing contrib. (-TS)   =      -0.08760575 Ry

     convergence has been achieved in  13 iterations

 BEEF-vdW xc energy contributions
           1 :   -354.487598368765
           2 :    325.776907373634
           3 :   -274.771173679261
           4 :    211.765866951327
           5 :   -147.689877185099
           6 :    91.1065691043775
           7 :   -46.5734518346915
           8 :    14.5478582174711
           9 :    7.34157577440800
          10 :   -22.4415525269937
          11 :    33.3961564916256
          12 :   -41.2842659835223
          13 :    45.6805745867021
          14 :   -45.4383906645307
          15 :    39.7116346429238
          16 :   -28.7663519612738
          17 :    14.2366775477977
          18 :    1.22846951237909
          19 :   -14.7529645056736
          20 :    24.0848723983761
          21 :   -28.1775227910333
          22 :    27.2892296154021
          23 :   -22.6289910660882
          24 :    15.7529413277519
          25 :   -8.01280293530414
          26 :   0.275356952505945
          27 :    7.02785313463511
          28 :   -13.6389580120023
          29 :    19.1977778616409
          30 :   -23.1263431296366
          31 :   -33.7924750609657
          32 :   -24.7701957144777

     Forces acting on atoms (Ry/au):

     negative rho (up, down):  1.590E+00 0.000E+00
     atom    1 type  1   force =     0.00000128    0.00000191    0.02926006
     atom    2 type  1   force =    -0.00000471   -0.00397247    0.02531894
     atom    3 type  1   force =    -0.00344403    0.00198681    0.02532674
     atom    4 type  1   force =     0.00343963    0.00198965    0.02532191
     atom    5 type  1   force =     0.00012951   -0.00007242   -0.01368707
     atom    6 type  1   force =    -0.00013519   -0.00006736   -0.01369074
     atom    7 type  1   force =     0.00000198   -0.00000320   -0.06265925
     atom    8 type  1   force =    -0.00000784    0.00014934   -0.01369335
     atom    9 type  1   force =     0.00065460    0.00037425    0.00000900
     atom   10 type  1   force =    -0.00063688    0.00036897   -0.00000811
     atom   11 type  1   force =     0.00000390   -0.00074553    0.00000345
     atom   12 type  1   force =    -0.00000618    0.00000130   -0.00083922
     atom   13 type  2   force =     0.00000391   -0.00001126   -0.00066237

     Total force =     0.001676     Total SCF correction =     0.000310
     SCF correction compared to forces is large: reduce conv_thr to get better values

     entering subroutine stress ...

     negative rho (up, down):  1.590E+00 0.000E+00
          total   stress  (Ry/bohr**3)                   (kbar)     P=  -24.43
  -0.00018718  -0.00000001   0.00000000        -27.54     -0.00      0.00
  -0.00000001  -0.00018719   0.00000001         -0.00    -27.54      0.00
   0.00000000   0.00000001  -0.00012384          0.00      0.00    -18.22

     bfgs converged in  11 scf cycles and  10 bfgs steps
     (criteria: energy <  1.0E+00, force <  1.9E-03)

     End of BFGS Geometry Optimization

     Final energy   =   -2136.0008049830 Ry
Begin final coordinates

ATOMIC_POSITIONS (crystal)
Tc1      0.166666667   0.166666667   0.408540475    0   0   0
Tc1      0.666666667   0.166666667   0.408540475    0   0   0
Tc1      0.166666667   0.666666667   0.408540475    0   0   0
Tc1      0.666666667   0.666666667   0.408540475    0   0   0
Tc1      0.833333333   0.333333333   0.500000000    0   0   0
Tc1      0.333333333   0.333333333   0.500000000    0   0   0
Tc1      0.833333333   0.833333333   0.500000000    0   0   0
Tc1      0.333333333   0.833333333   0.500000000    0   0   0
Tc1     -0.005391188  -0.005391115   0.591779240
Tc1      0.510754359  -0.005378541   0.591779178
Tc1     -0.005382742   0.510763923   0.591779239
Tc1      0.500000657   0.500000189   0.584448812
O1       0.166665255   0.166663077   0.641464098
End final coordinates

     Writing output data file calc.save

     General routines

     Parallel routines

   This run was terminated on:  18:30:30   2May2018

   JOB DONE.
Job  /afs/slac/g/suncat/bin/suncat-tsmpirun -x LD_LIBRARY_PATH -wdir /scratch/qe805682_Z9pzB pw.x -npool 4 -in pw.inp

TID   HOST_NAME   COMMAND_LINE            STATUS            TERMINATION_TIME
00000 suncat0047 pw.x -npool 4 -i  Done                     05/02/2018 18:30:30
00001 suncat0047 pw.x -npool 4 -i  Done                     05/02/2018 18:30:30
00002 suncat0047 pw.x -npool 4 -i  Done                     05/02/2018 18:30:30
00003 suncat0047 pw.x -npool 4 -i  Done                     05/02/2018 18:30:30
00004 suncat0047 pw.x -npool 4 -i  Done                     05/02/2018 18:30:30
00005 suncat0047 pw.x -npool 4 -i  Done                     05/02/2018 18:30:30
00006 suncat0047 pw.x -npool 4 -i  Done                     05/02/2018 18:30:30
00007 suncat0047 pw.x -npool 4 -i  Done                     05/02/2018 18:30:30
00008 suncat0178 pw.x -npool 4 -i  Done                     05/02/2018 18:30:30
00009 suncat0178 pw.x -npool 4 -i  Done                     05/02/2018 18:30:30
00010 suncat0178 pw.x -npool 4 -i  Done                     05/02/2018 18:30:30
00011 suncat0178 pw.x -npool 4 -i  Done                     05/02/2018 18:30:30
00012 suncat0178 pw.x -npool 4 -i  Done                     05/02/2018 18:30:30
00013 suncat0178 pw.x -npool 4 -i  Done                     05/02/2018 18:30:30
00014 suncat0178 pw.x -npool 4 -i  Done                     05/02/2018 18:30:30
00015 suncat0178 pw.x -npool 4 -i  Done                     05/02/2018 18:30:30
00016 suncat0172 pw.x -npool 4 -i  Done                     05/02/2018 18:30:30
00017 suncat0172 pw.x -npool 4 -i  Done                     05/02/2018 18:30:30
00018 suncat0172 pw.x -npool 4 -i  Done                     05/02/2018 18:30:30
00019 suncat0172 pw.x -npool 4 -i  Done                     05/02/2018 18:30:30
00020 suncat0172 pw.x -npool 4 -i  Done                     05/02/2018 18:30:30
00021 suncat0172 pw.x -npool 4 -i  Done                     05/02/2018 18:30:30
00022 suncat0172 pw.x -npool 4 -i  Done                     05/02/2018 18:30:30
00023 suncat0172 pw.x -npool 4 -i  Done                     05/02/2018 18:30:30
00024 suncat0150 pw.x -npool 4 -i  Done                     05/02/2018 18:30:30
00025 suncat0150 pw.x -npool 4 -i  Done                     05/02/2018 18:30:30
00026 suncat0150 pw.x -npool 4 -i  Done                     05/02/2018 18:30:30
00027 suncat0150 pw.x -npool 4 -i  Done                     05/02/2018 18:30:30
00028 suncat0150 pw.x -npool 4 -i  Done                     05/02/2018 18:30:30
00029 suncat0150 pw.x -npool 4 -i  Done                     05/02/2018 18:30:30
00030 suncat0150 pw.x -npool 4 -i  Done                     05/02/2018 18:30:30
00031 suncat0150 pw.x -npool 4 -i  Done                     05/02/2018 18:30:30