     Program PWSCF v.5.1rc2 (svn rev. 11289) starts on  3May2018 at  8:57:42

     Current dimensions of program PWSCF are:
     Max number of different atomic species (ntypx) = 10
     Max number of k-points (npk) =  40000
     Max angular momentum in pseudopotentials (lmaxx) =  3
     Presently stress not available with electric field

     IMPORTANT: XC functional enforced from input :
     Exchange-correlation      = BEEF-VDW ( 1  4 27 13 2)
     Any further DFT definition will be discarded
     Please, verify this is what you really want

     Subspace diagonalization in iterative solution of the eigenvalue problem:
     a serial algorithm will be used

     bravais-lattice index     =            0
     lattice parameter (alat)  =       1.8897  a.u.
     unit-cell volume          =    4569.9960 (a.u.)^3
     number of atoms/cell      =           13
     number of atomic types    =            2
     number of electrons       =       198.00
     number of Kohn-Sham states=          109
     kinetic-energy cutoff     =      36.7493  Ry
     charge density cutoff     =     367.4932  Ry
     convergence threshold     =      1.0E-05
     mixing beta               =       0.3000
     number of iterations used =           10  plain     mixing
     Exchange-correlation      = BEEF-VDW ( 1  4 27 13 2)
     nstep                     =           50

     celldm(1)=   1.889726  celldm(2)=   0.000000  celldm(3)=   0.000000
     celldm(4)=   0.000000  celldm(5)=   0.000000  celldm(6)=   0.000000

     crystal axes: (cart. coord. in units of alat)
               a(1) = (   5.637663   0.000000   0.000000 )
               a(2) = (   2.818831   4.882359   0.000000 )
               a(3) = (   0.000000   0.000000  24.603132 )

     reciprocal axes: (cart. coord. in units 2 pi/alat)
               b(1) = (  0.177378 -0.102410  0.000000 )
               b(2) = (  0.000000  0.204819  0.000000 )
               b(3) = (  0.000000  0.000000  0.040645 )

     PseudoPot. # 1 for Pd read from file:
     /u/if/mamunm/psp/gbrv1.5pbe/Pd.UPF
     MD5 check sum: 2d733d2bc2cbfd217af676df1668a4bc
     Pseudo is Ultrasoft + core correction, Zval = 16.0
     Generated by new atomic code, or converted to UPF format
     Using radial grid of  887 points,  6 beta functions with:
                l(1) =   0
                l(2) =   0
                l(3) =   1
                l(4) =   1
                l(5) =   2
                l(6) =   2
     Q(r) pseudized with  8 coefficients,  rinner =    1.130   1.130   1.130
                                                       1.130   1.130

     PseudoPot. # 2 for S  read from file:
     /u/if/mamunm/psp/gbrv1.5pbe/S.UPF
     MD5 check sum: 88d86576ff6df21479756cfb9bdac1df
     Pseudo is Ultrasoft + core correction, Zval =  6.0
     Generated by new atomic code, or converted to UPF format
     Using radial grid of  907 points,  6 beta functions with:
                l(1) =   0
                l(2) =   0
                l(3) =   1
                l(4) =   1
                l(5) =   2
                l(6) =   2
     Q(r) pseudized with  8 coefficients,  rinner =    1.300   1.300   1.300
                                                       1.300   1.300

     vdW kernel table read from file vdW_kernel_table
     MD5 check sum: 095c7af220d748ca6e76c0b4c6cfb241

     atomic species   valence    mass     pseudopotential
        Pd1           16.00   106.42000     Pd( 1.00)
        S1             6.00    32.06000     S ( 1.00)

     No symmetry found

   Cartesian axes

     site n.     atom                  positions (alat units)
         1           Pd1 tau(   1) = (   1.4094157   0.8137265  10.0000000  )
         2           Pd1 tau(   2) = (   4.2282471   0.8137265  10.0000000  )
         3           Pd1 tau(   3) = (   2.8188314   3.2549061  10.0000000  )
         4           Pd1 tau(   4) = (   5.6376627   3.2549061  10.0000000  )
         5           Pd1 tau(   5) = (   5.6376627   1.6274531  12.3015662  )
         6           Pd1 tau(   6) = (   2.8188314   1.6274531  12.3015662  )
         7           Pd1 tau(   7) = (   7.0470784   4.0686326  12.3015662  )
         8           Pd1 tau(   8) = (   4.2282471   4.0686326  12.3015662  )
         9           Pd1 tau(   9) = (   0.0000000   0.0000000  14.6031324  )
        10           Pd1 tau(  10) = (   2.8188314   0.0000000  14.6031324  )
        11           Pd1 tau(  11) = (   1.4094157   2.4411796  14.6031324  )
        12           Pd1 tau(  12) = (   4.2282471   2.4411796  14.6031324  )
        13           S1  tau(  13) = (   1.4094157   0.8137265  16.1891324  )

     number of k points=    20  Fermi-Dirac smearing, width (Ry)=  0.0110
                       cart. coord. in units 2pi/alat
        k(    1) = (   0.0000000   0.0000000   0.0000000), wk =   0.0555556
        k(    2) = (   0.0000000   0.0341365   0.0000000), wk =   0.1111111
        k(    3) = (   0.0000000   0.0682730   0.0000000), wk =   0.1111111
        k(    4) = (   0.0000000  -0.1024095   0.0000000), wk =   0.0555556
        k(    5) = (   0.0295631  -0.0170683   0.0000000), wk =   0.1111111
        k(    6) = (   0.0295631   0.0170683   0.0000000), wk =   0.1111111
        k(    7) = (   0.0295631   0.0512048   0.0000000), wk =   0.1111111
        k(    8) = (   0.0295631  -0.1194778   0.0000000), wk =   0.1111111
        k(    9) = (   0.0295631  -0.0853413   0.0000000), wk =   0.1111111
        k(   10) = (   0.0295631  -0.0512048   0.0000000), wk =   0.1111111
        k(   11) = (   0.0591262  -0.0341365   0.0000000), wk =   0.1111111
        k(   12) = (   0.0591262  -0.0000000   0.0000000), wk =   0.1111111
        k(   13) = (   0.0591262   0.0341365   0.0000000), wk =   0.1111111
        k(   14) = (   0.0591262  -0.1365460   0.0000000), wk =   0.1111111
        k(   15) = (   0.0591262  -0.1024095   0.0000000), wk =   0.1111111
        k(   16) = (   0.0591262  -0.0682730   0.0000000), wk =   0.1111111
        k(   17) = (  -0.0886892   0.0512048   0.0000000), wk =   0.0555556
        k(   18) = (  -0.0886892   0.0853413   0.0000000), wk =   0.1111111
        k(   19) = (  -0.0886892   0.1194778   0.0000000), wk =   0.1111111
        k(   20) = (  -0.0886892  -0.0512048   0.0000000), wk =   0.0555556

     Largest allocated arrays     est. size (Mb)     dimensions
     Largest temporary arrays     est. size (Mb)     dimensions

     Initial potential from superposition of free atoms
     Check: negative starting charge=   -0.903951

     starting charge  191.99988, renormalised to  198.00000

     negative rho (up, down):  9.322E-01 0.000E+00

     *
     * You are using vdW-DF for exchange-correlation in this calculation.
     * Please cite the following three references that made this development
     * possible:
     *
     *   M. Dion, H. Rydberg, E. Schroder, D. C. Langreth, and
     *   B. I. Lundqvist, Phys. Rev. Lett. 92, 246401 (2004).
     *
     *   T. Thonhauser, V. R. Cooper, S. Li, A. Puzder, P. Hyldgaard, and
     *   D. C. Langreth, Phys. Rev. B 76, 125112 (2007).
     *
     *   G. Roman-Perez and J. M. Soler, Phys. Rev. Lett. 103, 096102 (2009).
     *
     *
     * If you are using vdW-DF2, please also cite:
     *
     *   K. Lee, E. D. Murray, L. Kong, B. I. Lundqvist, and
     *   D. C. Langreth, Phys. Rev. B 82, 081101(R) (2010).
     *
     *
     * If you are calculating the stress with vdW-DF, please also cite:
     *
     *   R. Sabatini, E. Kucukbenli, B. Kolb, T. Thonhauser, and
     *   S. de Gironcoli, J. Phys.: Condens. Matter 24, 424209 (2012).
     *

     Carrying out vdW-DF run using the following parameters:

     Nqs =      20    Nr_points =    1024   r_max =   100.000
     q_mesh =
               0.00001000     0.04494208     0.09755937     0.15916263
               0.23128650     0.31572767     0.41458969     0.53033537
               0.66584808     0.82450364     1.01025438     1.22772762
               1.48234092     1.78043706     2.12944203     2.53805004
               3.01644009     3.57652955     4.23227104     5.00000000

     Gradients computed in reciprocal space

     Adding external electric field

     Computed dipole along edir(3) :
        Dipole               -1.3772 Ry au,         -3.5005 Debye
        Dipole field         -0.0038 Ry au

        Potential amp.        0.3433 Ry
        Total length         45.3309 bohr

     Starting wfc are  148 randomized atomic wfcs

     Self-consistent Calculation

     iteration #  1     ecut=    36.75 Ry     beta=0.30
     Davidson diagonalization with overlap
     ethr =  1.00E-02,  avg # of iterations =  4.9

[...]

     total energy              =   -2373.92003960 Ry
     Harris-Foulkes estimate   =   -2424.54809116 Ry
     estimated scf accuracy    <     107.04394969 Ry

[...]

     End of self-consistent calculation

          k = 0.0000 0.0000 0.0000 ( 17231 PWs)   bands (ev):

   -49.4117 -49.2930 -49.2928 -49.0133 -49.0131 -48.9629 -48.9119 -48.8639
   -48.8636 -48.8093 -48.8090 -48.7908 -48.7163 -48.6937 -48.6816 -48.6808
   -48.6559 -48.6356 -48.6356 -48.5721 -48.5716 -48.5620 -48.5490 -48.5487
   -48.3947 -48.3944 -48.3819 -48.3319 -48.3318 -48.3272 -48.3272 -48.2482
   -48.2280 -48.2189 -48.2183 -48.1777 -12.1649  -4.7215  -4.2776  -3.9580
    -3.9579  -3.4997  -3.3751  -3.3469  -3.3270  -3.3268  -3.1152  -3.1151
    -3.0913  -2.9420  -2.9419  -2.8674  -2.6138  -2.6137  -2.2581  -1.8088
    -1.8087  -1.6752  -1.6752  -1.6430  -1.4969  -1.4025  -1.4024  -1.2573
    -1.2573  -1.1953  -1.0522  -1.0522  -1.0396  -1.0278  -1.0277  -0.6833
    -0.4484  -0.4482  -0.3190  -0.2865  -0.1434  -0.1433   0.0558   0.0560
     0.2186   0.2186   0.5041   0.5043   0.6240   0.6429   0.7113   0.7115
     0.8207   0.8331   0.8334   0.9711   0.9712   1.0066   1.0787   1.0790
     1.0979   1.2821   1.2823   1.2987   1.3478   1.3478   1.8173   2.9727
     3.5072   3.5072   3.8604   4.5637   4.5639

[...]

          k =-0.0887 0.0512 0.0000 ( 17240 PWs)   bands (ev):

[...]

     the Fermi energy is     1.0746 ev

!    total energy              =   -2421.91280642 Ry
     Harris-Foulkes estimate   =   -2421.91281482 Ry
     estimated scf accuracy    <       0.00000371 Ry

     The total energy is the sum of the following terms:

     one-electron contribution =  -20676.50487357 Ry
     hartree contribution      =   10389.72974413 Ry
     xc contribution           =    -398.97271613 Ry
     ewald contribution        =    8263.94578601 Ry
     electric field correction =       0.00001180 Ry
     smearing contrib. (-TS)   =      -0.11075866 Ry

     convergence has been achieved in  19 iterations

 BEEF-vdW xc energy contributions
           1 :   -347.210025239031
           2 :    317.117789034420
           3 :   -265.751537822919
           4 :    206.871196632138
           5 :   -153.838582705425
           6 :    115.243132762582
           7 :   -93.0212496916329
           8 :    83.4123923048198
           9 :   -79.9183252822728
          10 :    76.6773559191988
          11 :   -70.7268352910957
          12 :    62.3694521104046
          13 :   -53.9000673728024
          14 :    47.6881343667484
          15 :   -44.7289803384786
          16 :    44.2962130181102
          17 :   -44.6349123509330
          18 :    44.0980206259438
          19 :   -42.0093203781765
          20 :    38.8197403645585
          21 :   -35.6031074642633
          22 :    33.2959228964623
          23 :   -32.1621561670877
          24 :    31.7504334741809
          25 :   -31.2872138656582
          26 :    30.2019208843495
          27 :   -28.4480323938460
          28 :    26.4514300268991
          29 :   -24.7690591877493
          30 :    23.7080728645966
          31 :   -33.9829442503072
          32 :   -25.0843121694948

     Forces acting on atoms (Ry/au):

     negative rho (up, down):  9.427E-01 0.000E+00
     atom    1 type  1   force =     0.00002301   -0.00003724   -0.00005721
     atom    2 type  1   force =    -0.00002317    0.00278405   -0.00283736
     atom    3 type  1   force =     0.00244187   -0.00138521   -0.00266172
     atom    4 type  1   force =    -0.00244298   -0.00136043   -0.00270571
     atom    5 type  1   force =    -0.00200514    0.00117821   -0.00578512
     atom    6 type  1   force =     0.00200049    0.00118322   -0.00575647
     atom    7 type  1   force =     0.00000227   -0.00002137    0.01119152
     atom    8 type  1   force =    -0.00000093   -0.00234191   -0.00577714
     atom    9 type  1   force =    -0.01911340   -0.01108998    0.00064146
     atom   10 type  1   force =     0.01911288   -0.01105984    0.00062487
     atom   11 type  1   force =     0.00002560    0.02211121    0.00067063
     atom   12 type  1   force =    -0.00002373    0.00003866    0.00285545
     atom   13 type  2   force =     0.00000323    0.00000063    0.00959680

     Total force =     0.039577     Total SCF correction =     0.012028
     SCF correction compared to forces is large: reduce conv_thr to get better values

     entering subroutine stress ...

     negative rho (up, down):  9.427E-01 0.000E+00
          total   stress  (Ry/bohr**3)                   (kbar)     P=   -3.32
  -0.00004269  -0.00000001  -0.00000001         -6.28     -0.00     -0.00
  -0.00000001  -0.00004270   0.00000000         -0.00     -6.28      0.00
  -0.00000001   0.00000000   0.00001769         -0.00      0.00      2.60

     BFGS Geometry Optimization

     number of scf cycles    =   1
     number of bfgs steps    =   0

     energy   new            =   -2421.9128064231 Ry

     new trust radius        =       0.0221213923 bohr
     new conv_thr            =       0.0000099958 Ry

ATOMIC_POSITIONS (crystal)
Pd1      0.166666667   0.166666667   0.406452311    0   0   0
Pd1      0.666666667   0.166666667   0.406452311    0   0   0
Pd1      0.166666667   0.666666667   0.406452311    0   0   0
Pd1      0.666666667   0.666666667   0.406452311    0   0   0
Pd1      0.833333333   0.333333333   0.500000000    0   0   0
Pd1      0.333333333   0.333333333   0.500000000    0   0   0
Pd1      0.833333333   0.833333333   0.500000000    0   0   0
Pd1      0.333333333   0.833333333   0.500000000    0   0   0
Pd1     -0.001193076  -0.001201994   0.593561486
Pd1      0.502393387  -0.001198727   0.593561129
Pd1     -0.001195865   0.502396536   0.593562113
Pd1      0.499995678   0.500004190   0.593609106
S1       0.166666936   0.166666735   0.658217439

     Writing output data file calc.save
     Check: negative starting charge=   -0.903951
     NEW-OLD atomic charge density approx. for the potential
     Check: negative starting charge=   -0.903518

[...]

     energy   old            =   -2421.9128064231 Ry
     energy   new            =   -2421.9140541860 Ry

     CASE: energy  _new < energy  _old

[...]

     Total force =     0.011327     Total SCF correction =     0.000652

[...]

     Total force =     0.006554     Total SCF correction =     0.000478

[...]

     number of scf cycles    =   5
     number of bfgs steps    =   4

     energy   old            =   -2421.9149736539 Ry
     energy   new            =   -2421.9150560969 Ry

     CASE: energy  _new < energy  _old

     new trust radius        =       0.0102833712 bohr
     new conv_thr            =       0.0000001000 Ry

ATOMIC_POSITIONS (crystal)
Pd1      0.166666667   0.166666667   0.406452311    0   0   0
Pd1      0.666666667   0.166666667   0.406452311    0   0   0
Pd1      0.166666667   0.666666667   0.406452311    0   0   0
Pd1      0.666666667   0.666666667   0.406452311    0   0   0
Pd1      0.833333333   0.333333333   0.500000000    0   0   0
Pd1      0.333333333   0.333333333   0.500000000    0   0   0
Pd1      0.833333333   0.833333333   0.500000000    0   0   0
Pd1      0.333333333   0.833333333   0.500000000    0   0   0
Pd1     -0.003873922  -0.003870933   0.594175040
Pd1      0.507745556  -0.003871773   0.594174909
Pd1     -0.003871614   0.507742786   0.594174761
Pd1      0.500000520   0.499998466   0.593950693
S1       0.166666947   0.166667104   0.657975231

     Writing output data file calc.save
     Check: negative starting charge=   -0.904411
     NEW-OLD atomic charge density approx. for the potential
     Check: negative starting charge=   -0.905149

[...]

     Self-consistent Calculation

[...]

     total energy              =   -2421.91511797 Ry
     Harris-Foulkes estimate   =   -2421.91511797 Ry
     estimated scf accuracy    <       0.00000016 Ry

     iteration # 11     ecut=    36.75 Ry     beta=0.30
     Davidson diagonalization with overlap
     ethr =  8.26E-11,  avg # of iterations =  1.9

[...]

     negative rho (up, down):  9.438E-01 0.000E+00

     Adding external electric field

     Computed dipole along edir(3) :
        Dipole               -0.0759 Ry au,         -0.1928 Debye
        Dipole field         -0.0002 Ry au

        Potential amp.        0.0189 Ry
        Total length         45.3309 bohr

     End of self-consistent calculation

[...]

          k = 0.0591-0.0683 0.0000 ( 17183 PWs)   bands (ev):

[...]

          k =-0.0887-0.0512 0.0000 ( 17240 PWs)   bands (ev):

   -49.3619 -49.3094 -49.2727 -48.9946 -48.9764 -48.9389 -48.9157 -48.8853
   -48.8488 -48.7860 -48.7592 -48.7353 -48.7233 -48.7001 -48.6899 -48.6846
   -48.6725 -48.6675 -48.6534 -48.6306 -48.5863 -48.5285 -48.5190 -48.4617
   -48.4502 -48.4455 -48.4378 -48.3735 -48.3655 -48.3506 -48.3399 -48.2506
   -48.2357 -48.2290 -48.2250 -48.1777 -12.0495  -4.1094  -3.6019  -3.4953
    -3.2772  -3.1696  -2.8184  -2.7947  -2.7556  -2.6625  -2.5761  -2.5261
    -2.4690  -2.3948  -2.2917  -2.2814  -2.2520  -2.1486  -2.1042  -2.0654
    -1.8393  -1.8036  -1.7453  -1.6907  -1.6578  -1.5863  -1.5145  -1.4006
    -1.3751  -1.1536  -1.1374  -1.1130  -1.0300  -0.9558  -0.9146  -0.8740
    -0.8031  -0.8003  -0.7560  -0.6862  -0.6583  -0.6021  -0.5379  -0.5336
    -0.4253  -0.3697  -0.3453  -0.2948  -0.2248  -0.1640  -0.0595  -0.0289
     0.0504   0.0528   0.1816   0.2544   0.2604   0.3453   0.5415   0.7099
     0.7698   0.8219   0.8888   1.0380   1.0589   1.3772   1.5430   2.4250
     3.4523   3.5723   4.0581   4.0664   4.8906

     the Fermi energy is     1.0658 ev

!    total energy              =   -2421.91511793 Ry
     Harris-Foulkes estimate   =   -2421.91511887 Ry
     estimated scf accuracy    <       0.00000007 Ry

     The total energy is the sum of the following terms:

     one-electron contribution =  -20637.48811719 Ry
     hartree contribution      =   10370.12944045 Ry
     xc contribution           =    -398.94543683 Ry
     ewald contribution        =    8244.49995282 Ry
     electric field correction =       0.00001583 Ry
     smearing contrib. (-TS)   =      -0.11097300 Ry

     convergence has been achieved in  11 iterations

 BEEF-vdW xc energy contributions
           1 :   -347.181397978666
           2 :    317.074363363265
           3 :   -265.686878502568
           4 :    206.791619051144
           5 :   -153.760434698412
           6 :    115.183970465218
           7 :   -92.9900467402556
           8 :    83.4045183522812
           9 :   -79.9184758622843
          10 :    76.6689650437140
          11 :   -70.7022549665872
          12 :    62.3350633468771
          13 :   -53.8730421343245
          14 :    47.6865472619009
          15 :   -44.7611552013092
          16 :    44.3553858430912
          17 :   -44.7022654141664
          18 :    44.1523488905046
          19 :   -42.0375430078110
          20 :    38.8222640740821
          21 :   -35.5916795117786
          22 :    33.2854489794358
          23 :   -32.1615212240321
          24 :    31.7583125473841
          25 :   -31.2948178348350
          26 :    30.2000307295444
          27 :   -28.4336921477676
          28 :    26.4300427364623
          29 :   -24.7507052252620
          30 :    23.7008345138524
          31 :   -33.9810654506723
          32 :   -25.0785657029142

     Forces acting on atoms (Ry/au):

     negative rho (up, down):  9.438E-01 0.000E+00
     atom    1 type  1   force =     0.00000087   -0.00000595    0.00033365
     atom    2 type  1   force =    -0.00000049    0.00268424   -0.00236024
     atom    3 type  1   force =     0.00232641   -0.00133930   -0.00235652
     atom    4 type  1   force =    -0.00232671   -0.00133912   -0.00235630
     atom    5 type  1   force =    -0.00113700    0.00065748   -0.00248385
     atom    6 type  1   force =     0.00113657    0.00065745   -0.00248386
     atom    7 type  1   force =     0.00000027   -0.00000162    0.01027750
     atom    8 type  1   force =    -0.00000003   -0.00131359   -0.00248226
     atom    9 type  1   force =     0.00115918    0.00065862    0.00105133
     atom   10 type  1   force =    -0.00115980    0.00066072    0.00105148
     atom   11 type  1   force =     0.00000138   -0.00132745    0.00105306
     atom   12 type  1   force =    -0.00000094    0.00001032    0.00072637
     atom   13 type  2   force =     0.00000030   -0.00000181    0.00002966

     Total force =     0.003028     Total SCF correction =     0.000659
     SCF correction compared to forces is large: reduce conv_thr to get better values

     entering subroutine stress ...

     negative rho (up, down):  9.438E-01 0.000E+00
          total   stress  (Ry/bohr**3)                   (kbar)     P=   -5.80
  -0.00005641  -0.00000000  -0.00000000         -8.30     -0.00     -0.00
  -0.00000000  -0.00005641  -0.00000000         -0.00     -8.30     -0.00
  -0.00000000  -0.00000000  -0.00000554         -0.00     -0.00     -0.81

     bfgs converged in   6 scf cycles and   5 bfgs steps
     (criteria: energy <  1.0E+00, force <  1.9E-03)

     End of BFGS Geometry Optimization

     Final energy   =   -2421.9151179285 Ry
Begin final coordinates

ATOMIC_POSITIONS (crystal)
Pd1      0.166666667   0.166666667   0.406452311    0   0   0
Pd1      0.666666667   0.166666667   0.406452311    0   0   0
Pd1      0.166666667   0.666666667   0.406452311    0   0   0
Pd1      0.666666667   0.666666667   0.406452311    0   0   0
Pd1      0.833333333   0.333333333   0.500000000    0   0   0
Pd1      0.333333333   0.333333333   0.500000000    0   0   0
Pd1      0.833333333   0.833333333   0.500000000    0   0   0
Pd1      0.333333333   0.833333333   0.500000000    0   0   0
Pd1     -0.003873922  -0.003870933   0.594175040
Pd1      0.507745556  -0.003871773   0.594174909
Pd1     -0.003871614   0.507742786   0.594174761
Pd1      0.500000520   0.499998466   0.593950693
S1       0.166666947   0.166667104   0.657975231
End final coordinates

     Writing output data file calc.save

     General routines

     Parallel routines

   This run was terminated on:   9:38:15   3May2018

   JOB DONE.
Job  /afs/slac/g/suncat/bin/suncat-tsmpirun -x LD_LIBRARY_PATH -wdir /scratch/qe693239_jnTXX pw.x -npool 4 -in pw.inp

TID   HOST_NAME   COMMAND_LINE            STATUS            TERMINATION_TIME
00000 suncat0076 pw.x -npool 4 -i  Done                     05/03/2018 09:38:15
00001 suncat0076 pw.x -npool 4 -i  Done                     05/03/2018 09:38:15
00002 suncat0076 pw.x -npool 4 -i  Done                     05/03/2018 09:38:15
00003 suncat0076 pw.x -npool 4 -i  Done                     05/03/2018 09:38:15
00004 suncat0076 pw.x -npool 4 -i  Done                     05/03/2018 09:38:15
00005 suncat0076 pw.x -npool 4 -i  Done                     05/03/2018 09:38:15
00006 suncat0076 pw.x -npool 4 -i  Done                     05/03/2018 09:38:15
00007 suncat0076 pw.x -npool 4 -i  Done                     05/03/2018 09:38:15
00008 suncat0073 pw.x -npool 4 -i  Done                     05/03/2018 09:38:15
00009 suncat0073 pw.x -npool 4 -i  Done                     05/03/2018 09:38:15
00010 suncat0073 pw.x -npool 4 -i  Done                     05/03/2018 09:38:15
00011 suncat0073 pw.x -npool 4 -i  Done                     05/03/2018 09:38:15
00012 suncat0073 pw.x -npool 4 -i  Done                     05/03/2018 09:38:15
00013 suncat0073 pw.x -npool 4 -i  Done                     05/03/2018 09:38:15
00014 suncat0073 pw.x -npool 4 -i  Done                     05/03/2018 09:38:15
00015 suncat0073 pw.x -npool 4 -i  Done                     05/03/2018 09:38:15
00016 suncat0018 pw.x -npool 4 -i  Done                     05/03/2018 09:38:15
00017 suncat0018 pw.x -npool 4 -i  Done                     05/03/2018 09:38:15
00018 suncat0018 pw.x -npool 4 -i  Done                     05/03/2018 09:38:15
00019 suncat0018 pw.x -npool 4 -i  Done                     05/03/2018 09:38:15
00020 suncat0018 pw.x -npool 4 -i  Done                     05/03/2018 09:38:15
00021 suncat0018 pw.x -npool 4 -i  Done                     05/03/2018 09:38:15
00022 suncat0018 pw.x -npool 4 -i  Done                     05/03/2018 09:38:15
00023 suncat0018 pw.x -npool 4 -i  Done                     05/03/2018 09:38:15
00024 suncat0017 pw.x -npool 4 -i  Done                     05/03/2018 09:38:15
00025 suncat0017 pw.x -npool 4 -i  Done                     05/03/2018 09:38:15
00026 suncat0017 pw.x -npool 4 -i  Done                     05/03/2018 09:38:15
00027 suncat0017 pw.x -npool 4 -i  Done                     05/03/2018 09:38:15
00028 suncat0017 pw.x -npool 4 -i  Done                     05/03/2018 09:38:15
00029 suncat0017 pw.x -npool 4 -i  Done                     05/03/2018 09:38:15
00030 suncat0017 pw.x -npool 4 -i  Done                     05/03/2018 09:38:15
00031 suncat0017 pw.x -npool 4 -i  Done                     05/03/2018 09:38:15