     Program PWSCF v.5.1rc2 (svn rev. 11289) starts on 23Apr2018 at 13:58:32

     Current dimensions of program PWSCF are:
     Max number of different atomic species (ntypx) = 10
     Max number of k-points (npk) =  40000
     Max angular momentum in pseudopotentials (lmaxx) =  3
     Presently stress not available with electric field

     IMPORTANT: XC functional enforced from input :
     Exchange-correlation      = BEEF-VDW ( 1  4 27 13 2)
     Any further DFT definition will be discarded
     Please, verify this is what you really want

     Subspace diagonalization in iterative solution of the eigenvalue problem:
     a serial algorithm will be used

     bravais-lattice index     =            0
     lattice parameter (alat)  =       1.8897  a.u.
     unit-cell volume          =    4301.6107 (a.u.)^3
     number of atoms/cell      =           14
     number of atomic types    =            3
     number of electrons       =       187.00
     number of Kohn-Sham states=          103
     kinetic-energy cutoff     =      36.7493  Ry
     charge density cutoff     =     367.4932  Ry
     convergence threshold     =      1.0E-05
     mixing beta               =       0.3000
     number of iterations used =           10  plain     mixing
     Exchange-correlation      = BEEF-VDW ( 1  4 27 13 2)
     nstep                     =           50

     celldm(1)=   1.889726  celldm(2)=   0.000000  celldm(3)=   0.000000
     celldm(4)=   0.000000  celldm(5)=   0.000000  celldm(6)=   0.000000

     crystal axes: (cart. coord. in units of alat)
               a(1) = (   5.483647   0.000000   0.000000 )
               a(2) = (   2.741823   4.748977   0.000000 )
               a(3) = (   0.000000   0.000000  24.477379 )

     reciprocal axes: (cart. coord. in units 2 pi/alat)
               b(1) = (  0.182360 -0.105286  0.000000 )
               b(2) = (  0.000000  0.210572  0.000000 )
               b(3) = (  0.000000  0.000000  0.040854 )

     PseudoPot. # 1 for Tc read from file:
     /u/if/mamunm/psp/gbrv1.5pbe/Tc.UPF
     MD5 check sum: 9eb49e5b028550b2339a02317eb7b844
     Pseudo is Ultrasoft + core correction, Zval = 15.0
     Generated by new atomic code, or converted to UPF format
     Using radial grid of  965 points,  6 beta functions with:
                l(1) =   0
                l(2) =   0
                l(3) =   1
                l(4) =   1
                l(5) =   2
                l(6) =   2
     Q(r) pseudized with  8 coefficients,  rinner =    1.300   1.300   1.300
                                                       1.300   1.300

     PseudoPot. # 2 for S  read from file:
     /u/if/mamunm/psp/gbrv1.5pbe/S.UPF
     MD5 check sum: 88d86576ff6df21479756cfb9bdac1df
     Pseudo is Ultrasoft + core correction, Zval =  6.0
     Generated by new atomic code, or converted to UPF format
     Using radial grid of  907 points,  6 beta functions with:
                l(1) =   0
                l(2) =   0
                l(3) =   1
                l(4) =   1
                l(5) =   2
                l(6) =   2
     Q(r) pseudized with  8 coefficients,  rinner =    1.300   1.300   1.300
                                                       1.300   1.300

     PseudoPot. # 3 for H  read from file:
     /u/if/mamunm/psp/gbrv1.5pbe/H.UPF
     MD5 check sum: 761ae9a214b05c3daf00ab9f6b793d6f
     Pseudo is Ultrasoft, Zval =  1.0
     Generated by new atomic code, or converted to UPF format
     Using radial grid of  615 points,  2 beta functions with:
                l(1) =   0
                l(2) =   0
     Q(r) pseudized with  8 coefficients,  rinner =    0.700

     vdW kernel table read from file vdW_kernel_table
     MD5 check sum: 095c7af220d748ca6e76c0b4c6cfb241

     atomic species   valence    mass     pseudopotential
        Tc1           15.00    97.90721     Tc( 1.00)
        S1             6.00    32.06000     S ( 1.00)
        H1             1.00     1.00800     H ( 1.00)

     No symmetry found

   Cartesian axes

     site n.     atom                  positions (alat units)
         1           Tc1 tau(   1) = (   1.3709117   0.7914962  10.0000000  )
         2           Tc1 tau(   2) = (   4.1127351   0.7914962  10.0000000  )
         3           Tc1 tau(   3) = (   2.7418234   3.1659850  10.0000000  )
         4           Tc1 tau(   4) = (   5.4836469   3.1659850  10.0000000  )
         5           Tc1 tau(   5) = (   5.4836469   1.5829925  12.2386895  )
         6           Tc1 tau(   6) = (   2.7418234   1.5829925  12.2386895  )
         7           Tc1 tau(   7) = (   6.8545586   3.9574812  12.2386895  )
         8           Tc1 tau(   8) = (   4.1127351   3.9574812  12.2386895  )
         9           Tc1 tau(   9) = (   0.0000000   0.0000000  14.4773789  )
        10           Tc1 tau(  10) = (   2.7418234   0.0000000  14.4773789  )
        11           Tc1 tau(  11) = (   1.3709117   2.3744887  14.4773789  )
        12           Tc1 tau(  12) = (   4.1127351   2.3744887  14.4773789  )
        13           S1  tau(  13) = (   1.3709117   0.7914962  16.1153789  )
        14           H1  tau(  14) = (   1.3709117   0.7914962  17.3653789  )

     number of k points=    20  Fermi-Dirac smearing, width (Ry)=  0.0110
                       cart. coord. in units 2pi/alat
        k(    1) = (   0.0000000   0.0000000   0.0000000), wk =   0.0555556
        k(    2) = (   0.0000000   0.0350953   0.0000000), wk =   0.1111111
        k(    3) = (   0.0000000   0.0701905   0.0000000), wk =   0.1111111
        k(    4) = (   0.0000000  -0.1052858   0.0000000), wk =   0.0555556
        k(    5) = (   0.0303934  -0.0175476   0.0000000), wk =   0.1111111
        k(    6) = (   0.0303934   0.0175476   0.0000000), wk =   0.1111111
        k(    7) = (   0.0303934   0.0526429   0.0000000), wk =   0.1111111
        k(    8) = (   0.0303934  -0.1228335   0.0000000), wk =   0.1111111
        k(    9) = (   0.0303934  -0.0877382   0.0000000), wk =   0.1111111
        k(   10) = (   0.0303934  -0.0526429   0.0000000), wk =   0.1111111
        k(   11) = (   0.0607868  -0.0350953   0.0000000), wk =   0.1111111
        k(   12) = (   0.0607868   0.0000000   0.0000000), wk =   0.1111111
        k(   13) = (   0.0607868   0.0350953   0.0000000), wk =   0.1111111
        k(   14) = (   0.0607868  -0.1403811   0.0000000), wk =   0.1111111
        k(   15) = (   0.0607868  -0.1052858   0.0000000), wk =   0.1111111
        k(   16) = (   0.0607868  -0.0701905   0.0000000), wk =   0.1111111
        k(   17) = (  -0.0911802   0.0526429   0.0000000), wk =   0.0555556
        k(   18) = (  -0.0911802   0.0877382   0.0000000), wk =   0.1111111
        k(   19) = (  -0.0911802   0.1228335   0.0000000), wk =   0.1111111
        k(   20) = (  -0.0911802  -0.0526429   0.0000000), wk =   0.0555556

     Largest allocated arrays     est. size (Mb)     dimensions
     Largest temporary arrays     est. size (Mb)     dimensions

     Check: negative/imaginary core charge=   -0.000022    0.000000

     Initial potential from superposition of free atoms
     Check: negative starting charge=   -1.504579

     starting charge  174.99962, renormalised to  187.00000

     negative rho (up, down):  1.608E+00 0.000E+00

     *
     * You are using vdW-DF for exchange-correlation in this calculation.
     * Please cite the following three references that made this development
     * possible:
     *
     *   M. Dion, H. Rydberg, E. Schroder, D. C. Langreth, and
     *   B. I. Lundqvist, Phys. Rev. Lett. 92, 246401 (2004).
     *
     *   T. Thonhauser, V. R. Cooper, S. Li, A. Puzder, P. Hyldgaard, and
     *   D. C. Langreth, Phys. Rev. B 76, 125112 (2007).
     *
     *   G. Roman-Perez and J. M. Soler, Phys. Rev. Lett. 103, 096102 (2009).
     *
     *
     * If you are using vdW-DF2, please also cite:
     *
     *   K. Lee, E. D. Murray, L. Kong, B. I. Lundqvist, and
     *   D. C. Langreth, Phys. Rev. B 82, 081101(R) (2010).
     *
     *
     * If you are calculating the stress with vdW-DF, please also cite:
     *
     *   R. Sabatini, E. Kucukbenli, B. Kolb, T. Thonhauser, and
     *   S. de Gironcoli, J. Phys.: Condens. Matter 24, 424209 (2012).
     *

     Carrying out vdW-DF run using the following parameters:

     Nqs =      20    Nr_points =    1024   r_max =   100.000
     q_mesh =
               0.00001000     0.04494208     0.09755937     0.15916263
               0.23128650     0.31572767     0.41458969     0.53033537
               0.66584808     0.82450364     1.01025438     1.22772762
               1.48234092     1.78043706     2.12944203     2.53805004
               3.01644009     3.57652955     4.23227104     5.00000000

     Gradients computed in reciprocal space

     Adding external electric field

     Computed dipole along edir(3) :
        Dipole               -3.6781 Ry au,         -9.3489 Debye
        Dipole field         -0.0107 Ry au

        Potential amp.        0.9692 Ry
        Total length         45.0992 bohr

     Starting wfc are  161 randomized atomic wfcs

     Self-consistent Calculation

     iteration #  1     ecut=    36.75 Ry     beta=0.30
     Davidson diagonalization with overlap
     ethr =  1.00E-02,  avg # of iterations =  7.8

[...]

     total energy              =   -1834.18375562 Ry
     Harris-Foulkes estimate   =   -2122.80717497 Ry
     estimated scf accuracy    <     606.81017098 Ry

[...]

     End of self-consistent calculation

          k = 0.0000 0.0000 0.0000 ( 16073 PWs)   bands (ev):

   -64.0046 -63.8705 -63.8594 -63.8589 -63.7860 -63.7647 -63.7640 -63.7496
   -63.6504 -63.6379 -63.6246 -63.6240 -36.4716 -36.4304 -36.4254 -36.4251
   -36.3225 -36.2880 -36.2877 -36.1577 -36.1576 -36.1561 -35.8640 -35.8636
   -35.8624 -35.7548 -35.7491 -35.7489 -35.7135 -35.7014 -35.6971 -35.6969
   -35.5771 -35.5768 -35.5460 -35.5319 -35.5285 -35.5282 -35.4875 -35.4597
   -35.4596 -35.4195 -35.4151 -35.4149 -35.3182 -35.3180 -35.2211 -35.2211
   -12.1746  -5.6022  -3.1189  -2.4401  -2.4401  -1.9694  -1.8338  -1.7804
    -1.7802  -1.7671  -1.4709  -1.3462  -1.3461  -1.2247  -1.2246  -1.0880
    -0.8770  -0.7087  -0.7086   0.4539   0.4539   0.5136   0.9697   0.9698
     1.0766   1.2676   1.5800   1.5847   1.5847   1.8519   1.8519   1.9688
     2.0150   2.0151   2.1036   2.1036   2.5417   2.6735   2.6736   3.1595
     3.5406   3.5406   3.5614   3.8797   3.8799   3.9621   3.9647   3.9647
     4.3774   4.3774   4.5951   5.1352   5.1353   5.2476   5.2629

[...]

          k =-0.0912 0.0526 0.0000 ( 16164 PWs)   bands (ev):

[...]

     the Fermi energy is     3.2804 ev

!    total energy              =   -2129.04527043 Ry
     Harris-Foulkes estimate   =   -2129.04525292 Ry
     estimated scf accuracy    <       0.00000682 Ry

     The total energy is the sum of the following terms:

     one-electron contribution =  -19159.21859572 Ry
     hartree contribution      =    9585.20793010 Ry
     xc contribution           =    -406.83811067 Ry
     ewald contribution        =    7851.89309580 Ry
     electric field correction =       0.00045135 Ry
     smearing contrib. (-TS)   =      -0.09004128 Ry

     convergence has been achieved in  33 iterations

 BEEF-vdW xc energy contributions
           1 :   -356.242529405685
           2 :    327.351792253541
           3 :   -276.004393920175
           4 :    212.536245055570
           5 :   -147.963911643741
           6 :    90.9799536771513
           7 :   -46.2479169621741
           8 :    14.2357678887893
           9 :    7.52904296374834
          10 :   -22.5484941310892
          11 :    33.5819756727876
          12 :   -41.7110979782534
          13 :    46.3953555240314
          14 :   -46.3260364136166
          15 :    40.5447359642852
          16 :   -29.3158182514295
          17 :    14.3793473008787
          18 :    1.45921150410203
          19 :   -15.1939706162945
          20 :    24.5276420804447
          21 :   -28.4641044830286
          22 :    27.3715825453287
          23 :   -22.5706984972136
          24 :    15.6811315676553
          25 :   -8.05033633209331
          26 :   0.481786091360618
          27 :    6.68295773805312
          28 :   -13.2616558311783
          29 :    18.9214552602076
          30 :   -23.0500241062744
          31 :   -34.0944874116175
          32 :   -25.0125024964190

     Forces acting on atoms (Ry/au):

     negative rho (up, down):  1.590E+00 0.000E+00
     atom    1 type  1   force =     0.00000713   -0.00000158    0.02899186
     atom    2 type  1   force =    -0.00001335   -0.00569097    0.03027956
     atom    3 type  1   force =    -0.00492320    0.00284162    0.03029199
     atom    4 type  1   force =     0.00492006    0.00285279    0.03029733
     atom    5 type  1   force =    -0.00446049    0.00258782    0.00719771
     atom    6 type  1   force =     0.00446546    0.00254431    0.00724643
     atom    7 type  1   force =    -0.00005643    0.00000238   -0.06097323
     atom    8 type  1   force =     0.00005466   -0.00515004    0.00722848
     atom    9 type  1   force =    -0.03380501   -0.01952072   -0.03377784
     atom   10 type  1   force =     0.03379479   -0.01950419   -0.03377814
     atom   11 type  1   force =     0.00001000    0.03904132   -0.03379603
     atom   12 type  1   force =    -0.00001115    0.00000128   -0.04653376
     atom   13 type  2   force =     0.00002064   -0.00000686   -0.07177677
     atom   14 type  3   force =    -0.00000310    0.00000285    0.13910242

     Total force =     0.186176     Total SCF correction =     0.003910

     entering subroutine stress ...

     negative rho (up, down):  1.590E+00 0.000E+00
          total   stress  (Ry/bohr**3)                   (kbar)     P=  -19.10
  -0.00014742   0.00000005   0.00000007        -21.69      0.01      0.01
   0.00000005  -0.00014739  -0.00000003          0.01    -21.68     -0.00
   0.00000007  -0.00000003  -0.00009467          0.01     -0.00    -13.93

     BFGS Geometry Optimization

     number of scf cycles    =   1
     number of bfgs steps    =   0

     energy   new            =   -2129.0452704267 Ry

     new trust radius        =       0.1391024161 bohr
     new conv_thr            =       0.0000099958 Ry

ATOMIC_POSITIONS (crystal)
Tc1      0.166666667   0.166666667   0.408540475    0   0   0
Tc1      0.666666667   0.166666667   0.408540475    0   0   0
Tc1      0.166666667   0.666666667   0.408540475    0   0   0
Tc1      0.666666667   0.666666667   0.408540475    0   0   0
Tc1      0.833333333   0.333333333   0.500000000    0   0   0
Tc1      0.333333333   0.333333333   0.500000000    0   0   0
Tc1      0.833333333   0.833333333   0.500000000    0   0   0
Tc1      0.333333333   0.833333333   0.500000000    0   0   0
Tc1     -0.002174622  -0.002175188   0.590729281
Tc1      0.504347903  -0.002173347   0.590729275
Tc1     -0.002174217   0.504350364   0.590728888
Tc1      0.499998853   0.500000143   0.590453510
S1       0.166669041   0.166665902   0.656826711
H1       0.166666209   0.166666984   0.712453274

     Writing output data file calc.save
     Check: negative starting charge=   -1.504579
     NEW-OLD atomic charge density approx. for the potential

     Check: negative/imaginary core charge=   -0.000022    0.000000
     Check: negative starting charge=   -1.505990

[...]

     energy   old            =   -2129.0452704267 Ry
     energy   new            =   -2129.0638766915 Ry

     CASE: energy  _new < energy  _old

[...]

     Total force =     0.005578     Total SCF correction =     0.000506

[...]

     Total force =     0.004723     Total SCF correction =     0.000545
     SCF correction compared to forces is large: reduce conv_thr to get better values

[...]

     number of scf cycles    =  11
     number of bfgs steps    =  10

     energy   old            =   -2129.0802219328 Ry
     energy   new            =   -2129.0802835622 Ry

     CASE: energy  _new < energy  _old

     new trust radius        =       0.0195505415 bohr
     new conv_thr            =       0.0000001000 Ry

ATOMIC_POSITIONS (crystal)
Tc1      0.166666667   0.166666667   0.408540475    0   0   0
Tc1      0.666666667   0.166666667   0.408540475    0   0   0
Tc1      0.166666667   0.666666667   0.408540475    0   0   0
Tc1      0.666666667   0.666666667   0.408540475    0   0   0
Tc1      0.833333333   0.333333333   0.500000000    0   0   0
Tc1      0.333333333   0.333333333   0.500000000    0   0   0
Tc1      0.833333333   0.833333333   0.500000000    0   0   0
Tc1      0.333333333   0.833333333   0.500000000    0   0   0
Tc1     -0.001812159  -0.001812965   0.588990316
Tc1      0.503628807  -0.001815683   0.588990996
Tc1     -0.001814691   0.503627670   0.588989979
Tc1      0.500003811   0.500001058   0.584586964
S1       0.166670141   0.166666898   0.661695891
H1       0.166665080   0.166667215   0.717840420

     Writing output data file calc.save
     Check: negative starting charge=   -1.504264
     NEW-OLD atomic charge density approx. for the potential

     Check: negative/imaginary core charge=   -0.000022    0.000000
     Check: negative starting charge=   -1.504601

[...]

     Self-consistent Calculation

[...]

     total energy              =   -2129.08032063 Ry
     Harris-Foulkes estimate   =   -2129.08032065 Ry
     estimated scf accuracy    <       0.00000062 Ry

     iteration # 11     ecut=    36.75 Ry     beta=0.30
     Davidson diagonalization with overlap
     ethr =  3.31E-10,  avg # of iterations =  4.7

[...]

     negative rho (up, down):  1.589E+00 0.000E+00

     Adding external electric field

     Computed dipole along edir(3) :
        Dipole                0.3464 Ry au,          0.8805 Debye
        Dipole field          0.0010 Ry au

        Potential amp.       -0.0913 Ry
        Total length         45.0992 bohr

     End of self-consistent calculation

[...]

          k = 0.0608-0.0702 0.0000 ( 16203 PWs)   bands (ev):

[...]

          k =-0.0912-0.0526 0.0000 ( 16164 PWs)   bands (ev):

   -64.0405 -64.0183 -63.9556 -63.9108 -63.8649 -63.8476 -63.8144 -63.7929
   -63.7751 -63.7391 -63.7246 -63.7145 -36.4367 -36.3731 -36.3721 -36.3425
   -36.3156 -36.3003 -36.1631 -36.1445 -36.1345 -36.0854 -36.0659 -36.0566
   -35.8922 -35.8830 -35.8578 -35.8092 -35.8063 -35.7980 -35.7879 -35.7721
   -35.7413 -35.7383 -35.7197 -35.7161 -35.7002 -35.6984 -35.6678 -35.6673
   -35.5898 -35.5744 -35.5368 -35.5149 -35.5087 -35.4545 -35.4156 -35.4015
   -11.3935  -4.6479  -2.0902  -1.7809  -1.5390  -1.4943  -1.1856  -1.1190
    -1.1135  -1.0161  -0.8147  -0.7468  -0.5576  -0.4705  -0.3064  -0.2431
    -0.1867  -0.1294  -0.0942  -0.0164   0.3440   0.4465   0.6246   0.6395
     0.7255   0.7382   1.1156   1.3082   1.4375   1.4776   1.5738   1.7035
     1.7458   1.8056   1.8725   1.9525   1.9879   2.0067   2.0731   2.1264
     2.1684   2.3638   2.4344   2.5151   2.9526   3.0225   3.1493   3.1697
     3.3533   3.4934   3.6283   3.6386   3.6898   3.7661   3.8726

     the Fermi energy is     3.2040 ev

!    total energy              =   -2129.08032061 Ry
     Harris-Foulkes estimate   =   -2129.08032109 Ry
     estimated scf accuracy    <       0.00000010 Ry

     The total energy is the sum of the following terms:

     one-electron contribution =  -19333.74496777 Ry
     hartree contribution      =    9672.09490522 Ry
     xc contribution           =    -406.84637932 Ry
     ewald contribution        =    7939.50501026 Ry
     electric field correction =       0.00035058 Ry
     smearing contrib. (-TS)   =      -0.08923957 Ry

     convergence has been achieved in  11 iterations

 BEEF-vdW xc energy contributions
           1 :   -356.257310360463
           2 :    327.388714139507
           3 :   -276.078291424098
           4 :    212.637495305386
           5 :   -148.053334591705
           6 :    91.0064056914995
           7 :   -46.1787871743923
           8 :    14.0809618447204
           9 :    7.71284278531260
          10 :   -22.6780488161365
          11 :    33.5848951651867
          12 :   -41.5609218329755
          13 :    46.1281962309986
          14 :   -46.0280202814399
          15 :    40.3128803414434
          16 :   -29.2133686875755
          17 :    14.4044193272431
          18 :    1.37240159719414
          19 :   -15.1391584205700
          20 :    24.5752358413141
          21 :   -28.6215542794684
          22 :    27.5763639962049
          23 :   -22.7209303177092
          24 :    15.6891594675157
          25 :   -7.88980252936784
          26 :   0.204154612698176
          27 :    6.97190346471143
          28 :   -13.4524473304040
          29 :    18.9509641712732
          30 :   -22.9279296407411
          31 :   -34.0955329638302
          32 :   -25.0169157440296

     Forces acting on atoms (Ry/au):

     negative rho (up, down):  1.589E+00 0.000E+00
     atom    1 type  1   force =    -0.00000003    0.00000761    0.02049407
     atom    2 type  1   force =     0.00000073   -0.00477864    0.02007273
     atom    3 type  1   force =    -0.00414594    0.00238690    0.02007276
     atom    4 type  1   force =     0.00414624    0.00238645    0.02007625
     atom    5 type  1   force =    -0.00102213    0.00058715   -0.00746661
     atom    6 type  1   force =     0.00102336    0.00058732   -0.00746512
     atom    7 type  1   force =     0.00000123    0.00000185   -0.05855505
     atom    8 type  1   force =     0.00000035   -0.00117937   -0.00746393
     atom    9 type  1   force =    -0.00048004   -0.00026694    0.00012551
     atom   10 type  1   force =     0.00048239   -0.00026318    0.00011961
     atom   11 type  1   force =     0.00000417    0.00054028    0.00011647
     atom   12 type  1   force =    -0.00000661   -0.00001222   -0.00062310
     atom   13 type  2   force =    -0.00000413    0.00000273    0.00181757
     atom   14 type  3   force =     0.00000041    0.00000006   -0.00132117

     Total force =     0.002525     Total SCF correction =     0.000695
     SCF correction compared to forces is large: reduce conv_thr to get better values

     entering subroutine stress ...

     negative rho (up, down):  1.589E+00 0.000E+00
          total   stress  (Ry/bohr**3)                   (kbar)     P=  -17.90
  -0.00013513  -0.00000000  -0.00000001        -19.88     -0.00     -0.00
  -0.00000000  -0.00013512   0.00000000         -0.00    -19.88      0.00
  -0.00000001   0.00000000  -0.00009489         -0.00      0.00    -13.96

     bfgs converged in  12 scf cycles and  11 bfgs steps
     (criteria: energy <  1.0E+00, force <  1.9E-03)

     End of BFGS Geometry Optimization

     Final energy   =   -2129.0803206077 Ry
Begin final coordinates

ATOMIC_POSITIONS (crystal)
Tc1      0.166666667   0.166666667   0.408540475    0   0   0
Tc1      0.666666667   0.166666667   0.408540475    0   0   0
Tc1      0.166666667   0.666666667   0.408540475    0   0   0
Tc1      0.666666667   0.666666667   0.408540475    0   0   0
Tc1      0.833333333   0.333333333   0.500000000    0   0   0
Tc1      0.333333333   0.333333333   0.500000000    0   0   0
Tc1      0.833333333   0.833333333   0.500000000    0   0   0
Tc1      0.333333333   0.833333333   0.500000000    0   0   0
Tc1     -0.001812159  -0.001812965   0.588990316
Tc1      0.503628807  -0.001815683   0.588990996
Tc1     -0.001814691   0.503627670   0.588989979
Tc1      0.500003811   0.500001058   0.584586964
S1       0.166670141   0.166666898   0.661695891
H1       0.166665080   0.166667215   0.717840420
End final coordinates

     Writing output data file calc.save

     General routines

     Parallel routines

   This run was terminated on:  14:51:51  23Apr2018

   JOB DONE.
Job  /afs/slac/g/suncat/bin/suncat-tsmpirun -x LD_LIBRARY_PATH -wdir /scratch/qe17386_IpOC9 pw.x -npool 3 -in pw.inp

TID   HOST_NAME   COMMAND_LINE            STATUS            TERMINATION_TIME
00000 suncat2065 pw.x -npool 3 -i  Done                     04/23/2018 14:51:51
00001 suncat2065 pw.x -npool 3 -i  Done                     04/23/2018 14:51:51
00002 suncat2065 pw.x -npool 3 -i  Done                     04/23/2018 14:51:51
00003 suncat2065 pw.x -npool 3 -i  Done                     04/23/2018 14:51:51
00004 suncat2066 pw.x -npool 3 -i  Done                     04/23/2018 14:51:51
00005 suncat2066 pw.x -npool 3 -i  Done                     04/23/2018 14:51:51
00006 suncat2066 pw.x -npool 3 -i  Done                     04/23/2018 14:51:51
00007 suncat2066 pw.x -npool 3 -i  Done                     04/23/2018 14:51:51
00008 suncat2066 pw.x -npool 3 -i  Done                     04/23/2018 14:51:51
00009 suncat2066 pw.x -npool 3 -i  Done                     04/23/2018 14:51:51
00010 suncat2066 pw.x -npool 3 -i  Done                     04/23/2018 14:51:51
00011 suncat2066 pw.x -npool 3 -i  Done                     04/23/2018 14:51:51
00012 suncat2066 pw.x -npool 3 -i  Done                     04/23/2018 14:51:51
00013 suncat2066 pw.x -npool 3 -i  Done                     04/23/2018 14:51:51
00014 suncat2066 pw.x -npool 3 -i  Done                     04/23/2018 14:51:51
00015 suncat2066 pw.x -npool 3 -i  Done                     04/23/2018 14:51:51
00016 suncat2066 pw.x -npool 3 -i  Done                     04/23/2018 14:51:51
00017 suncat2066 pw.x -npool 3 -i  Done                     04/23/2018 14:51:51
00018 suncat2066 pw.x -npool 3 -i  Done                     04/23/2018 14:51:51
00019 suncat2066 pw.x -npool 3 -i  Done                     04/23/2018 14:51:51
00020 suncat2002 pw.x -npool 3 -i  Done                     04/23/2018 14:51:51
00021 suncat2002 pw.x -npool 3 -i  Done                     04/23/2018 14:51:51
00022 suncat2002 pw.x -npool 3 -i  Done                     04/23/2018 14:51:51
00023 suncat2002 pw.x -npool 3 -i  Done                     04/23/2018 14:51:51
00024 suncat2002 pw.x -npool 3 -i  Done                     04/23/2018 14:51:51
00025 suncat2002 pw.x -npool 3 -i  Done                     04/23/2018 14:51:51
00026 suncat2002 pw.x -npool 3 -i  Done                     04/23/2018 14:51:51
00027 suncat2002 pw.x -npool 3 -i  Done                     04/23/2018 14:51:51
00028 suncat2002 pw.x -npool 3 -i  Done                     04/23/2018 14:51:51
00029 suncat2002 pw.x -npool 3 -i  Done                     04/23/2018 14:51:51
00030 suncat2002 pw.x -npool 3 -i  Done                     04/23/2018 14:51:51
00031 suncat2002 pw.x -npool 3 -i  Done                     04/23/2018 14:51:51
00032 suncat2002 pw.x -npool 3 -i  Done                     04/23/2018 14:51:51
00033 suncat2002 pw.x -npool 3 -i  Done                     04/23/2018 14:51:51
00034 suncat2002 pw.x -npool 3 -i  Done                     04/23/2018 14:51:51
00035 suncat2002 pw.x -npool 3 -i  Done                     04/23/2018 14:51:51