     Program PWSCF v.5.1rc2 (svn rev. 11289) starts on 17Jan2018 at 20:37:12

     Current dimensions of program PWSCF are:
     Max number of different atomic species (ntypx) = 10
     Max number of k-points (npk) =  40000
     Max angular momentum in pseudopotentials (lmaxx) =  3
     Presently stress not available with electric field

     IMPORTANT: XC functional enforced from input :
     Exchange-correlation      = BEEF-VDW ( 1  4 27 13 2)
     Any further DFT definition will be discarded
     Please, verify this is what you really want

     Subspace diagonalization in iterative solution of the eigenvalue problem:
     a serial algorithm will be used

     bravais-lattice index     =            0
     lattice parameter (alat)  =       1.8897  a.u.
     unit-cell volume          =    4228.3700 (a.u.)^3
     number of atoms/cell      =           13
     number of atomic types    =            2
     number of electrons       =       197.00
     number of Kohn-Sham states=          108
     kinetic-energy cutoff     =      36.7493  Ry
     charge density cutoff     =     367.4932  Ry
     convergence threshold     =      1.0E-05
     mixing beta               =       0.3000
     number of iterations used =           10  plain     mixing
     Exchange-correlation      = BEEF-VDW ( 1  4 27 13 2)
     nstep                     =           50

     celldm(1)=   1.889726  celldm(2)=   0.000000  celldm(3)=   0.000000
     celldm(4)=   0.000000  celldm(5)=   0.000000  celldm(6)=   0.000000

     crystal axes: (cart. coord. in units of alat)
               a(1) = (   5.440665   0.000000   0.000000 )
               a(2) = (   2.720332   4.711754   0.000000 )
               a(3) = (   0.000000   0.000000  24.442284 )

     reciprocal axes: (cart. coord. in units 2 pi/alat)
               b(1) = (  0.183801 -0.106118  0.000000 )
               b(2) = (  0.000000  0.212235  0.000000 )
               b(3) = (  0.000000  0.000000  0.040913 )

     PseudoPot. # 1 for Os read from file:
     /afs/slac.stanford.edu/u/if/mamunm/psp/gbrv1.5pbe/Os.UPF
     MD5 check sum: a3fb40a04f0c37c25c34bbc47164c9a8
     Pseudo is Ultrasoft + core correction, Zval = 16.0
     Generated by new atomic code, or converted to UPF format
     Using radial grid of  983 points,  8 beta functions with:
                l(1) =   0
                l(2) =   0
                l(3) =   1
                l(4) =   1
                l(5) =   2
                l(6) =   2
                l(7) =   3
                l(8) =   3
     Q(r) pseudized with  8 coefficients,  rinner =    1.150   1.150   1.150
                                                       1.150   1.150   1.150
                                                       1.150

     PseudoPot. # 2 for N  read from file:
     /afs/slac.stanford.edu/u/if/mamunm/psp/gbrv1.5pbe/N.UPF
     MD5 check sum: 95339753478d7afb44899504a8723017
     Pseudo is Ultrasoft + core correction, Zval =  5.0
     Generated by new atomic code, or converted to UPF format
     Using radial grid of  729 points,  4 beta functions with:
                l(1) =   0
                l(2) =   0
                l(3) =   1
                l(4) =   1
     Q(r) pseudized with  8 coefficients,  rinner =    0.900   0.900   0.900

     vdW kernel table read from file vdW_kernel_table
     MD5 check sum: 095c7af220d748ca6e76c0b4c6cfb241

     atomic species   valence    mass     pseudopotential
        Os1           16.00   190.23000     Os( 1.00)
        N1             5.00    14.00700     N ( 1.00)

     No symmetry found

   Cartesian axes

     site n.     atom                  positions (alat units)
         1           Os1 tau(   1) = (   1.3601662   0.7852923  10.0000000  )
         2           Os1 tau(   2) = (   4.0804987   0.7852923  10.0000000  )
         3           Os1 tau(   3) = (   2.7203325   3.1411694  10.0000000  )
         4           Os1 tau(   4) = (   5.4406649   3.1411694  10.0000000  )
         5           Os1 tau(   5) = (   5.4406649   1.5705847  12.2211422  )
         6           Os1 tau(   6) = (   2.7203325   1.5705847  12.2211422  )
         7           Os1 tau(   7) = (   6.8008312   3.9264617  12.2211422  )
         8           Os1 tau(   8) = (   4.0804987   3.9264617  12.2211422  )
         9           Os1 tau(   9) = (   0.0000000   0.0000000  14.4422843  )
        10           Os1 tau(  10) = (   2.7203325   0.0000000  14.4422843  )
        11           Os1 tau(  11) = (   1.3601662   2.3558770  14.4422843  )
        12           Os1 tau(  12) = (   4.0804987   2.3558770  14.4422843  )
        13           N1  tau(  13) = (   1.3601662   0.0000000  16.5922843  )

     number of k points=    20  Fermi-Dirac smearing, width (Ry)=  0.0110
                       cart. coord. in units 2pi/alat
        k(    1) = (   0.0000000   0.0000000   0.0000000), wk =   0.0555556
        k(    2) = (   0.0000000   0.0353725   0.0000000), wk =   0.1111111
        k(    3) = (   0.0000000   0.0707451   0.0000000), wk =   0.1111111
        k(    4) = (   0.0000000  -0.1061176   0.0000000), wk =   0.0555556
        k(    5) = (   0.0306335  -0.0176863   0.0000000), wk =   0.1111111
        k(    6) = (   0.0306335   0.0176863   0.0000000), wk =   0.1111111
        k(    7) = (   0.0306335   0.0530588   0.0000000), wk =   0.1111111
        k(    8) = (   0.0306335  -0.1238039   0.0000000), wk =   0.1111111
        k(    9) = (   0.0306335  -0.0884313   0.0000000), wk =   0.1111111
        k(   10) = (   0.0306335  -0.0530588   0.0000000), wk =   0.1111111
        k(   11) = (   0.0612670  -0.0353725   0.0000000), wk =   0.1111111
        k(   12) = (   0.0612670   0.0000000   0.0000000), wk =   0.1111111
        k(   13) = (   0.0612670   0.0353725   0.0000000), wk =   0.1111111
        k(   14) = (   0.0612670  -0.1414901   0.0000000), wk =   0.1111111
        k(   15) = (   0.0612670  -0.1061176   0.0000000), wk =   0.1111111
        k(   16) = (   0.0612670  -0.0707451   0.0000000), wk =   0.1111111
        k(   17) = (  -0.0919005   0.0530588   0.0000000), wk =   0.0555556
        k(   18) = (  -0.0919005   0.0884313   0.0000000), wk =   0.1111111
        k(   19) = (  -0.0919005   0.1238039   0.0000000), wk =   0.1111111
        k(   20) = (  -0.0919005  -0.0530588   0.0000000), wk =   0.0555556

     Largest allocated arrays     est. size (Mb)     dimensions
     Largest temporary arrays     est. size (Mb)     dimensions

     Initial potential from superposition of free atoms
     Check: negative starting charge=   -1.495828

     starting charge  190.99955, renormalised to  197.00000

     negative rho (up, down):  1.543E+00 0.000E+00

     *
     * You are using vdW-DF for exchange-correlation in this calculation.
     * Please cite the following three references that made this development
     * possible:
     *
     *   M. Dion, H. Rydberg, E. Schroder, D. C. Langreth, and
     *   B. I. Lundqvist, Phys. Rev. Lett. 92, 246401 (2004).
     *
     *   T. Thonhauser, V. R. Cooper, S. Li, A. Puzder, P. Hyldgaard, and
     *   D. C. Langreth, Phys. Rev. B 76, 125112 (2007).
     *
     *   G. Roman-Perez and J. M. Soler, Phys. Rev. Lett. 103, 096102 (2009).
     *
     *
     * If you are using vdW-DF2, please also cite:
     *
     *   K. Lee, E. D. Murray, L. Kong, B. I. Lundqvist, and
     *   D. C. Langreth, Phys. Rev. B 82, 081101(R) (2010).
     *
     *
     * If you are calculating the stress with vdW-DF, please also cite:
     *
     *   R. Sabatini, E. Kucukbenli, B. Kolb, T. Thonhauser, and
     *   S. de Gironcoli, J. Phys.: Condens. Matter 24, 424209 (2012).
     *

     Carrying out vdW-DF run using the following parameters:

     Nqs =      20    Nr_points =    1024   r_max =   100.000
     q_mesh =
               0.00001000     0.04494208     0.09755937     0.15916263
               0.23128650     0.31572767     0.41458969     0.53033537
               0.66584808     0.82450364     1.01025438     1.22772762
               1.48234092     1.78043706     2.12944203     2.53805004
               3.01644009     3.57652955     4.23227104     5.00000000

     Gradients computed in reciprocal space

     Adding external electric field

     Computed dipole along edir(3) :
        Dipole               -1.2974 Ry au,         -3.2978 Debye
        Dipole field         -0.0039 Ry au

        Potential amp.        0.3473 Ry
        Total length         45.0345 bohr

     Starting wfc are  160 randomized atomic wfcs

     Self-consistent Calculation

     iteration #  1     ecut=    36.75 Ry     beta=0.30
     Davidson diagonalization with overlap
     ethr =  1.00E-02,  avg # of iterations =  2.0

[...]

     total energy              =   -2393.25930586 Ry
     Harris-Foulkes estimate   =   -2417.72153588 Ry
     estimated scf accuracy    <      50.57963821 Ry

[...]

     End of self-consistent calculation

          k = 0.0000 0.0000 0.0000 ( 15845 PWs)   bands (ev):

   -84.5497 -84.4998 -84.4845 -84.4084 -84.1779 -84.1430 -84.0478 -84.0306
   -84.0026 -83.9943 -83.9883 -83.9831 -44.2233 -44.1881 -44.1868 -44.0360
   -43.9437 -43.9209 -43.9080 -43.7267 -43.7008 -43.6828 -43.6133 -43.6027
   -43.5852 -43.5437 -43.5289 -43.5133 -43.4072 -43.4037 -43.4000 -43.3524
   -43.2930 -43.2597 -43.2158 -43.2082 -43.1891 -43.1885 -43.1819 -43.1802
   -43.1370 -43.0873 -43.0847 -43.0817 -42.9846 -42.9709 -42.9098 -42.9081
    -9.5047  -7.0986  -5.0988  -4.7056  -4.3762  -4.3660  -4.3650  -4.0549
    -4.0405  -4.0397  -3.4623  -3.4490  -3.4442  -3.1885  -3.1764  -3.1650
    -1.6404  -1.6374  -1.5970  -0.8473  -0.8144  -0.8137  -0.5607  -0.4063
    -0.3316  -0.3300   0.1615   0.1671   0.1770   0.1999   0.2051   0.3523
     0.4792   0.5047   0.5154   0.5677   1.2073   1.5651   1.7831   1.8918
     2.1157   2.2345   2.2373   2.3497   2.5199   2.5448   2.6348   2.6663
     3.2488   3.2600   3.4586   3.8422   3.9046   3.9648   4.1339   4.1553
     4.1598   4.2893   4.3356   4.3969

[...]

          k =-0.0919 0.0531 0.0000 ( 15968 PWs)   bands (ev):

[...]

     the Fermi energy is     2.5377 ev

!    total energy              =   -2417.35050573 Ry
     Harris-Foulkes estimate   =   -2417.35053080 Ry
     estimated scf accuracy    <       0.00000429 Ry

     The total energy is the sum of the following terms:

     one-electron contribution =  -21773.67935586 Ry
     hartree contribution      =   10868.56846124 Ry
     xc contribution           =    -469.36349162 Ry
     ewald contribution        =    8957.20082453 Ry
     electric field correction =       0.00044062 Ry
     smearing contrib. (-TS)   =      -0.07738462 Ry

     convergence has been achieved in  20 iterations

 BEEF-vdW xc energy contributions
           1 :   -411.069530403083
           2 :    380.723000861292
           3 :   -327.228952273317
           4 :    262.301121959691
           5 :   -198.461784355913
           6 :    145.655981107405
           7 :   -109.070658106670
           8 :    88.6321057197662
           9 :   -80.1619051547987
          10 :    77.5933680776570
          11 :   -75.3533526768198
          12 :    70.0548736593823
          13 :   -61.0479978938945
          14 :    49.8791230710750
[...]

[...]

     Program PWSCF v.5.1rc2 (svn rev. 11289) starts on 17Jan2018 at 21:36: 2

[...]

   This run was terminated on:  22: 7:22  17Jan2018

[...]

     Program PWSCF v.5.1rc2 (svn rev. 11289) starts on 17Jan2018 at 22: 7:28

[...]

     Program PWSCF v.5.1rc2 (svn rev. 11289) starts on 17Jan2018 at 22:39: 3

[...]

     Total force =     0.088438     Total SCF correction =     0.009523
     SCF correction compared to forces is large: reduce conv_thr to get better values

[...]

     Program PWSCF v.5.1rc2 (svn rev. 11289) starts on 17Jan2018 at 22:50:49

     Current dimensions of program PWSCF are:
     Max number of different atomic species (ntypx) = 10
     Max number of k-points (npk) =  40000
     Max angular momentum in pseudopotentials (lmaxx) =  3
     Presently stress not available with electric field

     IMPORTANT: XC functional enforced from input :
     Exchange-correlation      = BEEF-VDW ( 1  4 27 13 2)
     Any further DFT definition will be discarded
     Please, verify this is what you really want

     Subspace diagonalization in iterative solution of the eigenvalue problem:
     a serial algorithm will be used

     bravais-lattice index     =            0
     lattice parameter (alat)  =       1.8897  a.u.
     unit-cell volume          =    4228.3700 (a.u.)^3
     number of atoms/cell      =           13
     number of atomic types    =            2
     number of electrons       =       197.00
     number of Kohn-Sham states=          108
     kinetic-energy cutoff     =      36.7493  Ry
     charge density cutoff     =     367.4932  Ry
     convergence threshold     =      1.0E-05
     mixing beta               =       0.3000
     number of iterations used =           10  plain     mixing
     Exchange-correlation      = BEEF-VDW ( 1  4 27 13 2)
     nstep                     =           50

     celldm(1)=   1.889726  celldm(2)=   0.000000  celldm(3)=   0.000000
     celldm(4)=   0.000000  celldm(5)=   0.000000  celldm(6)=   0.000000

     crystal axes: (cart. coord. in units of alat)
               a(1) = (   5.440665   0.000000   0.000000 )
               a(2) = (   2.720332   4.711754   0.000000 )
               a(3) = (   0.000000   0.000000  24.442284 )

     reciprocal axes: (cart. coord. in units 2 pi/alat)
               b(1) = (  0.183801 -0.106118  0.000000 )
               b(2) = (  0.000000  0.212235  0.000000 )
               b(3) = (  0.000000  0.000000  0.040913 )

     PseudoPot. # 1 for Os read from file:
     /afs/slac.stanford.edu/u/if/mamunm/psp/gbrv1.5pbe/Os.UPF
     MD5 check sum: a3fb40a04f0c37c25c34bbc47164c9a8
     Pseudo is Ultrasoft + core correction, Zval = 16.0
     Generated by new atomic code, or converted to UPF format
     Using radial grid of  983 points,  8 beta functions with:
                l(1) =   0
                l(2) =   0
                l(3) =   1
                l(4) =   1
                l(5) =   2
                l(6) =   2
                l(7) =   3
                l(8) =   3
     Q(r) pseudized with  8 coefficients,  rinner =    1.150   1.150   1.150
                                                       1.150   1.150   1.150
                                                       1.150

     PseudoPot. # 2 for N  read from file:
     /afs/slac.stanford.edu/u/if/mamunm/psp/gbrv1.5pbe/N.UPF
     MD5 check sum: 95339753478d7afb44899504a8723017
     Pseudo is Ultrasoft + core correction, Zval =  5.0
     Generated by new atomic code, or converted to UPF format
     Using radial grid of  729 points,  4 beta functions with:
                l(1) =   0
                l(2) =   0
                l(3) =   1
                l(4) =   1
     Q(r) pseudized with  8 coefficients,  rinner =    0.900   0.900   0.900

     vdW kernel table read from file vdW_kernel_table
     MD5 check sum: 095c7af220d748ca6e76c0b4c6cfb241

     atomic species   valence    mass     pseudopotential
        Os1           16.00   190.23000     Os( 1.00)
        N1             5.00    14.00700     N ( 1.00)

     No symmetry found

   Cartesian axes

     site n.     atom                  positions (alat units)
         1           Os1 tau(   1) = (   1.3601662   0.7852923  10.0000000  )
         2           Os1 tau(   2) = (   4.0804987   0.7852923  10.0000000  )
         3           Os1 tau(   3) = (   2.7203325   3.1411694  10.0000000  )
         4           Os1 tau(   4) = (   5.4406649   3.1411694  10.0000000  )
         5           Os1 tau(   5) = (   5.4406649   1.5705847  12.2211422  )
         6           Os1 tau(   6) = (   2.7203325   1.5705847  12.2211422  )
         7           Os1 tau(   7) = (   6.8008312   3.9264617  12.2211422  )
         8           Os1 tau(   8) = (   4.0804987   3.9264617  12.2211422  )
         9           Os1 tau(   9) = (   5.3838794   0.0323194  14.4062992  )
        10           Os1 tau(  10) = (   2.7771279   0.0324695  14.4062651  )
        11           Os1 tau(  11) = (   1.3603101   2.3550746  14.3221428  )
        12           Os1 tau(  12) = (   4.0803952   2.2899285  14.4054401  )
        13           N1  tau(  13) = (   4.0805458   3.9249520  15.5237332  )

     number of k points=    20  Fermi-Dirac smearing, width (Ry)=  0.0110
                       cart. coord. in units 2pi/alat
        k(    1) = (   0.0000000   0.0000000   0.0000000), wk =   0.0555556
        k(    2) = (   0.0000000   0.0353725   0.0000000), wk =   0.1111111
        k(    3) = (   0.0000000   0.0707451   0.0000000), wk =   0.1111111
        k(    4) = (   0.0000000  -0.1061176   0.0000000), wk =   0.0555556
        k(    5) = (   0.0306335  -0.0176863   0.0000000), wk =   0.1111111
        k(    6) = (   0.0306335   0.0176863   0.0000000), wk =   0.1111111
        k(    7) = (   0.0306335   0.0530588   0.0000000), wk =   0.1111111
        k(    8) = (   0.0306335  -0.1238039   0.0000000), wk =   0.1111111
        k(    9) = (   0.0306335  -0.0884313   0.0000000), wk =   0.1111111
        k(   10) = (   0.0306335  -0.0530588   0.0000000), wk =   0.1111111
        k(   11) = (   0.0612670  -0.0353725   0.0000000), wk =   0.1111111
        k(   12) = (   0.0612670   0.0000000   0.0000000), wk =   0.1111111
        k(   13) = (   0.0612670   0.0353725   0.0000000), wk =   0.1111111
        k(   14) = (   0.0612670  -0.1414901   0.0000000), wk =   0.1111111
        k(   15) = (   0.0612670  -0.1061176   0.0000000), wk =   0.1111111
        k(   16) = (   0.0612670  -0.0707451   0.0000000), wk =   0.1111111
        k(   17) = (  -0.0919005   0.0530588   0.0000000), wk =   0.0555556
        k(   18) = (  -0.0919005   0.0884313   0.0000000), wk =   0.1111111
        k(   19) = (  -0.0919005   0.1238039   0.0000000), wk =   0.1111111
        k(   20) = (  -0.0919005  -0.0530588   0.0000000), wk =   0.0555556

     Largest allocated arrays     est. size (Mb)     dimensions
     Largest temporary arrays     est. size (Mb)     dimensions

     Initial potential from superposition of free atoms
     Check: negative starting charge=   -1.487787

     starting charge  190.99955, renormalised to  197.00000

[...]

     *
     * You are using vdW-DF for exchange-correlation in this calculation.
     * Please cite the following three references that made this development
     * possible:
     *
     *   M. Dion, H. Rydberg, E. Schroder, D. C. Langreth, and
     *   B. I. Lundqvist, Phys. Rev. Lett. 92, 246401 (2004).
     *
     *   T. Thonhauser, V. R. Cooper, S. Li, A. Puzder, P. Hyldgaard, and
     *   D. C. Langreth, Phys. Rev. B 76, 125112 (2007).
     *
     *   G. Roman-Perez and J. M. Soler, Phys. Rev. Lett. 103, 096102 (2009).
     *
     *
     * If you are using vdW-DF2, please also cite:
     *
     *   K. Lee, E. D. Murray, L. Kong, B. I. Lundqvist, and
     *   D. C. Langreth, Phys. Rev. B 82, 081101(R) (2010).
     *
     *
     * If you are calculating the stress with vdW-DF, please also cite:
     *
     *   R. Sabatini, E. Kucukbenli, B. Kolb, T. Thonhauser, and
     *   S. de Gironcoli, J. Phys.: Condens. Matter 24, 424209 (2012).
     *

     Carrying out vdW-DF run using the following parameters:

     Nqs =      20    Nr_points =    1024   r_max =   100.000
     q_mesh =
               0.00001000     0.04494208     0.09755937     0.15916263
               0.23128650     0.31572767     0.41458969     0.53033537
               0.66584808     0.82450364     1.01025438     1.22772762
               1.48234092     1.78043706     2.12944203     2.53805004
               3.01644009     3.57652955     4.23227104     5.00000000

     Gradients computed in reciprocal space

[...]

     Starting wfc are  160 randomized atomic wfcs

     Self-consistent Calculation

[...]

     total energy              =   -2417.66897297 Ry
     Harris-Foulkes estimate   =   -2417.66897524 Ry
     estimated scf accuracy    <       0.00001108 Ry

     iteration # 20     ecut=    36.75 Ry     beta=0.30
     Davidson diagonalization with overlap
     ethr =  5.63E-09,  avg # of iterations =  3.9

[...]

     negative rho (up, down):  1.511E+00 0.000E+00

     Adding external electric field

     Computed dipole along edir(3) :
        Dipole               -0.0536 Ry au,         -0.1363 Debye
        Dipole field         -0.0002 Ry au

        Potential amp.        0.0144 Ry
        Total length         45.0345 bohr

     End of self-consistent calculation

[...]

          k = 0.0613-0.0707 0.0000 ( 15922 PWs)   bands (ev):

[...]

          k =-0.0919-0.0531 0.0000 ( 15968 PWs)   bands (ev):

   -84.0345 -84.0311 -84.0017 -83.9989 -83.8708 -83.8423 -83.8312 -83.4837
   -83.4785 -83.4544 -83.4431 -83.4362 -43.6843 -43.6081 -43.6038 -43.5503
   -43.4868 -43.4804 -43.3881 -43.3819 -43.3570 -43.3328 -43.2924 -43.2433
   -43.1483 -43.1107 -43.0808 -43.0403 -43.0337 -43.0083 -42.9772 -42.9433
   -42.9247 -42.9226 -42.8324 -42.7460 -42.7438 -42.7357 -42.7174 -42.6995
   -42.6873 -42.6832 -42.6740 -42.6439 -42.6332 -42.5604 -42.4581 -42.4556
   -12.2861  -4.9791  -4.6935  -3.7404  -3.1804  -3.0980  -2.9031  -2.8109
    -2.7858  -2.7055  -2.6659  -2.5214  -2.1125  -2.0081  -1.9748  -1.8149
    -1.6852  -1.5688  -1.4681  -1.1865  -1.0885  -0.9577  -0.9388  -0.6162
    -0.5835  -0.4435  -0.1412  -0.0170   0.1552   0.2005   0.2774   0.3805
     0.5347   0.6348   0.6886   0.7577   0.7831   0.8455   0.8904   0.9367
     0.9577   1.3193   1.6259   1.8818   1.9310   1.9817   2.3158   2.4005
     2.4228   2.5383   2.6075   2.8777   3.0169   3.1356   3.3036   3.4455
     3.6242   3.6710   3.7922   4.2856

     the Fermi energy is     3.0970 ev

!    total energy              =   -2417.66897299 Ry
     Harris-Foulkes estimate   =   -2417.66897317 Ry
     estimated scf accuracy    <       0.00000341 Ry

     The total energy is the sum of the following terms:

     one-electron contribution =  -22299.50761821 Ry
     hartree contribution      =   11133.74588641 Ry
     xc contribution           =    -470.18494881 Ry
     ewald contribution        =    9218.34335804 Ry
     electric field correction =       0.00000855 Ry
     smearing contrib. (-TS)   =      -0.06565897 Ry

     convergence has been achieved in  20 iterations

 BEEF-vdW xc energy contributions
           1 :   -411.905574081856
           2 :    381.831219973471
           3 :   -328.667537534424
           4 :    263.884566417835
           5 :   -199.874401845779
           6 :    146.599732133876
           7 :   -109.387991403423
           8 :    88.3650837874946
           9 :   -79.5294279870358
          10 :    76.8991104720175
          11 :   -74.8644466751418
          12 :    69.9066203155834
          13 :   -61.2161321642944
          14 :    50.2190559430064
          15 :   -39.4169601680861
          16 :    31.0917489178777
          17 :   -26.3745081411711
          18 :    24.9542947899868
          19 :   -25.4262717745862
          20 :    26.0255631663690
          21 :   -25.3888569983524
          22 :    23.0279102168872
          23 :   -19.3702314547390
          24 :    15.4152858789268
          25 :   -12.2068909148855
          26 :    10.3659927625094
          27 :   -9.87555834440553
          28 :    10.1748665375197
          29 :   -10.4827445539696
          30 :    10.1767803128076
          31 :   -39.1363780984906
          32 :   -29.9093547210474

     Forces acting on atoms (Ry/au):

     negative rho (up, down):  1.511E+00 0.000E+00
     atom    1 type  1   force =     0.00001615   -0.01100550    0.02882074
     atom    2 type  1   force =    -0.00002120   -0.00008105    0.01179380
     atom    3 type  1   force =     0.00945382    0.00549490    0.02890122
     atom    4 type  1   force =    -0.00945096    0.00551197    0.02893482
     atom    5 type  1   force =     0.01209933    0.00698662   -0.01395092
     atom    6 type  1   force =    -0.01209035    0.00707000   -0.01405839
     atom    7 type  1   force =     0.00007222   -0.01411896   -0.01395517
     atom    8 type  1   force =    -0.00007046   -0.00010220   -0.05953401
     atom    9 type  1   force =     0.00033305   -0.00027828    0.00071216
     atom   10 type  1   force =    -0.00033361   -0.00038975    0.00071982
     atom   11 type  1   force =    -0.00007790    0.00034012    0.00036617
     atom   12 type  1   force =     0.00008590    0.00027568    0.00106290
     atom   13 type  2   force =    -0.00001599    0.00029644    0.00018686

     Total force =     0.087908     Total SCF correction =     0.008653

     entering subroutine stress ...

     negative rho (up, down):  1.511E+00 0.000E+00
          total   stress  (Ry/bohr**3)                   (kbar)     P=  -15.55
  -0.00010162  -0.00000000   0.00000001        -14.95     -0.00      0.00
  -0.00000000  -0.00010177   0.00000049         -0.00    -14.97      0.07
   0.00000001   0.00000049  -0.00011384          0.00      0.07    -16.75

 !ASE

     Writing output data file calc.save

     General routines

     Parallel routines

   This run was terminated on:  22:56:50  17Jan2018

   JOB DONE.
Job  /afs/slac/g/suncat/bin/suncat-tsmpirun -x LD_LIBRARY_PATH -wdir /scratch/qe842464_XK5e6 pw.x -in pw.inp

TID   HOST_NAME   COMMAND_LINE            STATUS            TERMINATION_TIME
00000 suncat2041 pw.x -in pw.inp   Done                     01/17/2018 22:56:50
00001 suncat2041 pw.x -in pw.inp   Done                     01/17/2018 22:56:50
00002 suncat2041 pw.x -in pw.inp   Done                     01/17/2018 22:56:50
00003 suncat2041 pw.x -in pw.inp   Done                     01/17/2018 22:56:50
00004 suncat2041 pw.x -in pw.inp   Done                     01/17/2018 22:56:50
00005 suncat2041 pw.x -in pw.inp   Done                     01/17/2018 22:56:50
00006 suncat2041 pw.x -in pw.inp   Done                     01/17/2018 22:56:50
00007 suncat2041 pw.x -in pw.inp   Done                     01/17/2018 22:56:50
00008 suncat2041 pw.x -in pw.inp   Done                     01/17/2018 22:56:50
00009 suncat2041 pw.x -in pw.inp   Done                     01/17/2018 22:56:50
00010 suncat2041 pw.x -in pw.inp   Done                     01/17/2018 22:56:50
00011 suncat2041 pw.x -in pw.inp   Done                     01/17/2018 22:56:50
00012 suncat2041 pw.x -in pw.inp   Done                     01/17/2018 22:56:50
00013 suncat2041 pw.x -in pw.inp   Done                     01/17/2018 22:56:50
00014 suncat2041 pw.x -in pw.inp   Done                     01/17/2018 22:56:50
00015 suncat2041 pw.x -in pw.inp   Done                     01/17/2018 22:56:50
00016 suncat2040 pw.x -in pw.inp   Done                     01/17/2018 22:56:50
00017 suncat2040 pw.x -in pw.inp   Done                     01/17/2018 22:56:50
00018 suncat2040 pw.x -in pw.inp   Done                     01/17/2018 22:56:50
00019 suncat2040 pw.x -in pw.inp   Done                     01/17/2018 22:56:50
00020 suncat2040 pw.x -in pw.inp   Done                     01/17/2018 22:56:50
00021 suncat2040 pw.x -in pw.inp   Done                     01/17/2018 22:56:50
00022 suncat2040 pw.x -in pw.inp   Done                     01/17/2018 22:56:50
00023 suncat2040 pw.x -in pw.inp   Done                     01/17/2018 22:56:50
00024 suncat2040 pw.x -in pw.inp   Done                     01/17/2018 22:56:50
00025 suncat2040 pw.x -in pw.inp   Done                     01/17/2018 22:56:50
00026 suncat2040 pw.x -in pw.inp   Done                     01/17/2018 22:56:50
00027 suncat2040 pw.x -in pw.inp   Done                     01/17/2018 22:56:50
00028 suncat2040 pw.x -in pw.inp   Done                     01/17/2018 22:56:50
00029 suncat2040 pw.x -in pw.inp   Done                     01/17/2018 22:56:50
00030 suncat2040 pw.x -in pw.inp   Done                     01/17/2018 22:56:50
00031 suncat2040 pw.x -in pw.inp   Done                     01/17/2018 22:56:50