     Program PWSCF v.5.1rc2 (svn rev. 11289) starts on 17Jan2018 at  4: 1:50

     Current dimensions of program PWSCF are:
     Max number of different atomic species (ntypx) = 10
     Max number of k-points (npk) =  40000
     Max angular momentum in pseudopotentials (lmaxx) =  3
     Presently stress not available with electric field

     IMPORTANT: XC functional enforced from input :
     Exchange-correlation      = BEEF-VDW ( 1  4 27 13 2)
     Any further DFT definition will be discarded
     Please, verify this is what you really want

     Subspace diagonalization in iterative solution of the eigenvalue problem:
     a serial algorithm will be used

     bravais-lattice index     =            0
     lattice parameter (alat)  =       1.8897  a.u.
     unit-cell volume          =    4481.2752 (a.u.)^3
     number of atoms/cell      =           13
     number of atomic types    =            2
     number of electrons       =       198.00
     number of Kohn-Sham states=          109
     kinetic-energy cutoff     =      36.7493  Ry
     charge density cutoff     =     367.4932  Ry
     convergence threshold     =      1.0E-05
     mixing beta               =       0.3000
     number of iterations used =           10  plain     mixing
     Exchange-correlation      = BEEF-VDW ( 1  4 27 13 2)
     nstep                     =           50

     celldm(1)=   1.889726  celldm(2)=   0.000000  celldm(3)=   0.000000
     celldm(4)=   0.000000  celldm(5)=   0.000000  celldm(6)=   0.000000

     crystal axes: (cart. coord. in units of alat)
               a(1) = (   5.587338   0.000000   0.000000 )
               a(2) = (   2.793669   4.838777   0.000000 )
               a(3) = (   0.000000   0.000000  24.562042 )

     reciprocal axes: (cart. coord. in units 2 pi/alat)
               b(1) = (  0.178976 -0.103332  0.000000 )
               b(2) = (  0.000000  0.206664  0.000000 )
               b(3) = (  0.000000  0.000000  0.040713 )

     PseudoPot. # 1 for Pt read from file:
     /afs/slac.stanford.edu/u/if/mamunm/psp/gbrv1.5pbe/Pt.UPF
     MD5 check sum: f09d6de1a584b5a045c4fc126da2d0c4
     Pseudo is Ultrasoft + core correction, Zval = 16.0
     Generated by new atomic code, or converted to UPF format
     Using radial grid of  985 points,  6 beta functions with:
                l(1) =   0
                l(2) =   0
                l(3) =   1
                l(4) =   1
                l(5) =   2
                l(6) =   2
     Q(r) pseudized with  8 coefficients,  rinner =    1.300   1.300   1.300
                                                       1.300   1.300

     PseudoPot. # 2 for O  read from file:
     /afs/slac.stanford.edu/u/if/mamunm/psp/gbrv1.5pbe/O.UPF
     MD5 check sum: 734c27235a0248c51dbae37a1fbe46ec
     Pseudo is Ultrasoft + core correction, Zval =  6.0
     Generated by new atomic code, or converted to UPF format
     Using radial grid of  737 points,  5 beta functions with:
                l(1) =   0
                l(2) =   0
                l(3) =   1
                l(4) =   1
                l(5) =   2
     Q(r) pseudized with  8 coefficients,  rinner =    0.900   0.900   0.900
                                                       0.900   0.900

     vdW kernel table read from file vdW_kernel_table
     MD5 check sum: 095c7af220d748ca6e76c0b4c6cfb241

     atomic species   valence    mass     pseudopotential
        Pt1           16.00   195.08400     Pt( 1.00)
        O1             6.00    15.99900     O ( 1.00)

     No symmetry found

   Cartesian axes

     site n.     atom                  positions (alat units)
         1           Pt1 tau(   1) = (   1.3968345   0.8064628  10.0000000  )
         2           Pt1 tau(   2) = (   4.1905036   0.8064628  10.0000000  )
         3           Pt1 tau(   3) = (   2.7936691   3.2258512  10.0000000  )
         4           Pt1 tau(   4) = (   5.5873381   3.2258512  10.0000000  )
         5           Pt1 tau(   5) = (   5.5873381   1.6129256  12.2810212  )
         6           Pt1 tau(   6) = (   2.7936691   1.6129256  12.2810212  )
         7           Pt1 tau(   7) = (   6.9841727   4.0323140  12.2810212  )
         8           Pt1 tau(   8) = (   4.1905036   4.0323140  12.2810212  )
         9           Pt1 tau(   9) = (   0.0000000   0.0000000  14.5620425  )
        10           Pt1 tau(  10) = (   2.7936691   0.0000000  14.5620425  )
        11           Pt1 tau(  11) = (   1.3968345   2.4193884  14.5620425  )
        12           Pt1 tau(  12) = (   4.1905036   2.4193884  14.5620425  )
        13           O1  tau(  13) = (   2.7936691   1.6129256  16.5820425  )

     number of k points=    20  Fermi-Dirac smearing, width (Ry)=  0.0110
                       cart. coord. in units 2pi/alat
        k(    1) = (   0.0000000   0.0000000   0.0000000), wk =   0.0555556
        k(    2) = (   0.0000000   0.0344440   0.0000000), wk =   0.1111111
        k(    3) = (   0.0000000   0.0688879   0.0000000), wk =   0.1111111
        k(    4) = (   0.0000000  -0.1033319   0.0000000), wk =   0.0555556
        k(    5) = (   0.0298294  -0.0172220   0.0000000), wk =   0.1111111
        k(    6) = (   0.0298294   0.0172220   0.0000000), wk =   0.1111111
        k(    7) = (   0.0298294   0.0516660   0.0000000), wk =   0.1111111
        k(    8) = (   0.0298294  -0.1205539   0.0000000), wk =   0.1111111
        k(    9) = (   0.0298294  -0.0861099   0.0000000), wk =   0.1111111
        k(   10) = (   0.0298294  -0.0516660   0.0000000), wk =   0.1111111
        k(   11) = (   0.0596587  -0.0344440   0.0000000), wk =   0.1111111
        k(   12) = (   0.0596587   0.0000000   0.0000000), wk =   0.1111111
        k(   13) = (   0.0596587   0.0344440   0.0000000), wk =   0.1111111
        k(   14) = (   0.0596587  -0.1377759   0.0000000), wk =   0.1111111
        k(   15) = (   0.0596587  -0.1033319   0.0000000), wk =   0.1111111
        k(   16) = (   0.0596587  -0.0688879   0.0000000), wk =   0.1111111
        k(   17) = (  -0.0894881   0.0516660   0.0000000), wk =   0.0555556
        k(   18) = (  -0.0894881   0.0861099   0.0000000), wk =   0.1111111
        k(   19) = (  -0.0894881   0.1205539   0.0000000), wk =   0.1111111
        k(   20) = (  -0.0894881  -0.0516660   0.0000000), wk =   0.0555556

     Largest allocated arrays     est. size (Mb)     dimensions
     Largest temporary arrays     est. size (Mb)     dimensions

     Check: negative/imaginary core charge=   -0.000001    0.000000

     Initial potential from superposition of free atoms
     Check: negative starting charge=   -2.200955

     starting charge  191.99986, renormalised to  198.00000

     negative rho (up, down):  2.270E+00 0.000E+00

     *
     * You are using vdW-DF for exchange-correlation in this calculation.
     * Please cite the following three references that made this development
     * possible:
     *
     *   M. Dion, H. Rydberg, E. Schroder, D. C. Langreth, and
     *   B. I. Lundqvist, Phys. Rev. Lett. 92, 246401 (2004).
     *
     *   T. Thonhauser, V. R. Cooper, S. Li, A. Puzder, P. Hyldgaard, and
     *   D. C. Langreth, Phys. Rev. B 76, 125112 (2007).
     *
     *   G. Roman-Perez and J. M. Soler, Phys. Rev. Lett. 103, 096102 (2009).
     *
     *
     * If you are using vdW-DF2, please also cite:
     *
     *   K. Lee, E. D. Murray, L. Kong, B. I. Lundqvist, and
     *   D. C. Langreth, Phys. Rev. B 82, 081101(R) (2010).
     *
     *
     * If you are calculating the stress with vdW-DF, please also cite:
     *
     *   R. Sabatini, E. Kucukbenli, B. Kolb, T. Thonhauser, and
     *   S. de Gironcoli, J. Phys.: Condens. Matter 24, 424209 (2012).
     *

     Carrying out vdW-DF run using the following parameters:

     Nqs =      20    Nr_points =    1024   r_max =   100.000
     q_mesh =
               0.00001000     0.04494208     0.09755937     0.15916263
               0.23128650     0.31572767     0.41458969     0.53033537
               0.66584808     0.82450364     1.01025438     1.22772762
               1.48234092     1.78043706     2.12944203     2.53805004
               3.01644009     3.57652955     4.23227104     5.00000000

     Gradients computed in reciprocal space

     Adding external electric field

     Computed dipole along edir(3) :
        Dipole               -1.5240 Ry au,         -3.8736 Debye
        Dipole field         -0.0043 Ry au

        Potential amp.        0.3868 Ry
        Total length         45.2551 bohr

     Starting wfc are  148 randomized atomic wfcs

     Self-consistent Calculation

     iteration #  1     ecut=    36.75 Ry     beta=0.30
     Davidson diagonalization with overlap
     ethr =  1.00E-02,  avg # of iterations =  3.5

[...]

     total energy              =   -2551.17235330 Ry
     Harris-Foulkes estimate   =   -2583.44208937 Ry
     estimated scf accuracy    <      68.05085986 Ry

[...]

     End of self-consistent calculation

          k = 0.0000 0.0000 0.0000 ( 16787 PWs)   bands (ev):

   -51.8285 -51.8202 -51.8196 -51.7215 -51.6922 -51.6914 -51.6737 -51.5946
   -51.5846 -51.5620 -51.5615 -51.5560 -51.5554 -51.4833 -51.4832 -51.4464
   -51.4460 -51.4328 -51.4074 -51.4069 -51.3970 -51.3156 -51.2748 -51.2741
   -51.2245 -51.2243 -51.2113 -51.1582 -51.1581 -51.1396 -51.1395 -51.0507
   -51.0173 -51.0023 -51.0017 -50.9192 -14.7370  -7.5804  -5.8415  -5.4323
    -5.0838  -5.0837  -5.0779  -4.8759  -4.8539  -4.8539  -4.4123  -4.4122
    -4.4105  -4.2677  -4.2422  -4.2420  -2.9558  -2.8590  -2.8587  -2.4991
    -2.4800  -2.4799  -2.3112  -2.2042  -2.2042  -1.9145  -1.9145  -1.8943
    -1.7860  -1.7692  -1.7692  -1.6798  -1.6798  -1.3362  -1.3358  -1.0945
    -0.6628  -0.4459  -0.4458  -0.2887  -0.2133  -0.2133  -0.0856  -0.0853
     0.1776   0.1776   0.2905   0.4150   0.4151   0.9386   0.9681   0.9682
     0.9833   1.0983   1.0985   1.1520   1.3172   1.3172   1.3390   1.3913
     1.3914   1.5799   1.6508   1.6511   1.7383   1.7389   1.7391   2.4254
     2.5646   2.5646   3.3171   4.1917   4.1918

[...]

          k =-0.0895 0.0517 0.0000 ( 16880 PWs)   bands (ev):

[...]

     the Fermi energy is     1.2149 ev

!    total energy              =   -2580.51602520 Ry
     Harris-Foulkes estimate   =   -2580.51607784 Ry
     estimated scf accuracy    <       0.00000797 Ry

     The total energy is the sum of the following terms:

     one-electron contribution =  -20587.01637156 Ry
     hartree contribution      =   10329.99586825 Ry
     xc contribution           =    -710.66147345 Ry
     ewald contribution        =    8387.28269084 Ry
     electric field correction =       0.00061936 Ry
     smearing contrib. (-TS)   =      -0.11735864 Ry

     convergence has been achieved in  18 iterations

 BEEF-vdW xc energy contributions
           1 :   -632.519887005537
           2 :    588.370241310337
           3 :   -509.367931752571
           4 :    410.695994864668
           5 :   -308.787834738618
           6 :    217.179046324368
           7 :   -143.885666245538
           8 :    90.7772870662460
           9 :   -54.8555668769892
          10 :    30.7023545975370
          11 :   -13.0553385610555
          12 :   -1.44694858368189
          13 :    13.7807091770679
[...]
     SCF correction compared to forces is large: reduce conv_thr to get better values

[...]

     Total force =     0.235005     Total SCF correction =     0.009262

[...]

   This run was terminated on:   4:50: 4  17Jan2018

[...]

   This run was terminated on:   5: 6:24  17Jan2018

[...]

     Program PWSCF v.5.1rc2 (svn rev. 11289) starts on 17Jan2018 at  5: 6:30

[...]

     Program PWSCF v.5.1rc2 (svn rev. 11289) starts on 17Jan2018 at  6:12:53

     Current dimensions of program PWSCF are:
     Max number of different atomic species (ntypx) = 10
     Max number of k-points (npk) =  40000
     Max angular momentum in pseudopotentials (lmaxx) =  3
     Presently stress not available with electric field

     IMPORTANT: XC functional enforced from input :
     Exchange-correlation      = BEEF-VDW ( 1  4 27 13 2)
     Any further DFT definition will be discarded
     Please, verify this is what you really want

     Subspace diagonalization in iterative solution of the eigenvalue problem:
     a serial algorithm will be used

     bravais-lattice index     =            0
     lattice parameter (alat)  =       1.8897  a.u.
     unit-cell volume          =    4481.2752 (a.u.)^3
     number of atoms/cell      =           13
     number of atomic types    =            2
     number of electrons       =       198.00
     number of Kohn-Sham states=          109
     kinetic-energy cutoff     =      36.7493  Ry
     charge density cutoff     =     367.4932  Ry
     convergence threshold     =      1.0E-05
     mixing beta               =       0.3000
     number of iterations used =           10  plain     mixing
     Exchange-correlation      = BEEF-VDW ( 1  4 27 13 2)
     nstep                     =           50

     celldm(1)=   1.889726  celldm(2)=   0.000000  celldm(3)=   0.000000
     celldm(4)=   0.000000  celldm(5)=   0.000000  celldm(6)=   0.000000

     crystal axes: (cart. coord. in units of alat)
               a(1) = (   5.587338   0.000000   0.000000 )
               a(2) = (   2.793669   4.838777   0.000000 )
               a(3) = (   0.000000   0.000000  24.562042 )

     reciprocal axes: (cart. coord. in units 2 pi/alat)
               b(1) = (  0.178976 -0.103332  0.000000 )
               b(2) = (  0.000000  0.206664  0.000000 )
               b(3) = (  0.000000  0.000000  0.040713 )

     PseudoPot. # 1 for Pt read from file:
     /afs/slac.stanford.edu/u/if/mamunm/psp/gbrv1.5pbe/Pt.UPF
     MD5 check sum: f09d6de1a584b5a045c4fc126da2d0c4
     Pseudo is Ultrasoft + core correction, Zval = 16.0
     Generated by new atomic code, or converted to UPF format
     Using radial grid of  985 points,  6 beta functions with:
                l(1) =   0
                l(2) =   0
                l(3) =   1
                l(4) =   1
                l(5) =   2
                l(6) =   2
     Q(r) pseudized with  8 coefficients,  rinner =    1.300   1.300   1.300
                                                       1.300   1.300

     PseudoPot. # 2 for O  read from file:
     /afs/slac.stanford.edu/u/if/mamunm/psp/gbrv1.5pbe/O.UPF
     MD5 check sum: 734c27235a0248c51dbae37a1fbe46ec
     Pseudo is Ultrasoft + core correction, Zval =  6.0
     Generated by new atomic code, or converted to UPF format
     Using radial grid of  737 points,  5 beta functions with:
                l(1) =   0
                l(2) =   0
                l(3) =   1
                l(4) =   1
                l(5) =   2
     Q(r) pseudized with  8 coefficients,  rinner =    0.900   0.900   0.900
                                                       0.900   0.900

     vdW kernel table read from file vdW_kernel_table
     MD5 check sum: 095c7af220d748ca6e76c0b4c6cfb241

     atomic species   valence    mass     pseudopotential
        Pt1           16.00   195.08400     Pt( 1.00)
        O1             6.00    15.99900     O ( 1.00)

     No symmetry found

   Cartesian axes

     site n.     atom                  positions (alat units)
         1           Pt1 tau(   1) = (   1.3968345   0.8064628  10.0000000  )
         2           Pt1 tau(   2) = (   4.1905036   0.8064628  10.0000000  )
         3           Pt1 tau(   3) = (   2.7936691   3.2258512  10.0000000  )
         4           Pt1 tau(   4) = (   5.5873381   3.2258512  10.0000000  )
         5           Pt1 tau(   5) = (   5.5873381   1.6129256  12.2810212  )
         6           Pt1 tau(   6) = (   2.7936691   1.6129256  12.2810212  )
         7           Pt1 tau(   7) = (   6.9841727   4.0323140  12.2810212  )
         8           Pt1 tau(   8) = (   4.1905036   4.0323140  12.2810212  )
         9           Pt1 tau(   9) = (   2.7937185   4.8387759  14.5785867  )
        10           Pt1 tau(  10) = (   5.5872505   4.7995923  14.6918744  )
        11           Pt1 tau(  11) = (   6.9503266   2.4388811  14.6919804  )
        12           Pt1 tau(  12) = (   4.2243384   2.4389790  14.6917922  )
        13           O1  tau(  13) = (   2.7937232   1.6129099  15.9410043  )

     number of k points=    20  Fermi-Dirac smearing, width (Ry)=  0.0110
                       cart. coord. in units 2pi/alat
        k(    1) = (   0.0000000   0.0000000   0.0000000), wk =   0.0555556
        k(    2) = (   0.0000000   0.0344440   0.0000000), wk =   0.1111111
        k(    3) = (   0.0000000   0.0688879   0.0000000), wk =   0.1111111
        k(    4) = (   0.0000000  -0.1033319   0.0000000), wk =   0.0555556
        k(    5) = (   0.0298294  -0.0172220   0.0000000), wk =   0.1111111
        k(    6) = (   0.0298294   0.0172220   0.0000000), wk =   0.1111111
        k(    7) = (   0.0298294   0.0516660   0.0000000), wk =   0.1111111
        k(    8) = (   0.0298294  -0.1205539   0.0000000), wk =   0.1111111
        k(    9) = (   0.0298294  -0.0861099   0.0000000), wk =   0.1111111
        k(   10) = (   0.0298294  -0.0516660   0.0000000), wk =   0.1111111
        k(   11) = (   0.0596587  -0.0344440   0.0000000), wk =   0.1111111
        k(   12) = (   0.0596587   0.0000000   0.0000000), wk =   0.1111111
        k(   13) = (   0.0596587   0.0344440   0.0000000), wk =   0.1111111
        k(   14) = (   0.0596587  -0.1377759   0.0000000), wk =   0.1111111
        k(   15) = (   0.0596587  -0.1033319   0.0000000), wk =   0.1111111
        k(   16) = (   0.0596587  -0.0688879   0.0000000), wk =   0.1111111
        k(   17) = (  -0.0894881   0.0516660   0.0000000), wk =   0.0555556
        k(   18) = (  -0.0894881   0.0861099   0.0000000), wk =   0.1111111
        k(   19) = (  -0.0894881   0.1205539   0.0000000), wk =   0.1111111
        k(   20) = (  -0.0894881  -0.0516660   0.0000000), wk =   0.0555556

     Largest allocated arrays     est. size (Mb)     dimensions
     Largest temporary arrays     est. size (Mb)     dimensions

     Check: negative/imaginary core charge=   -0.000001    0.000000

     Initial potential from superposition of free atoms
     Check: negative starting charge=   -2.198507

     starting charge  191.99986, renormalised to  198.00000

[...]

     *
     * You are using vdW-DF for exchange-correlation in this calculation.
     * Please cite the following three references that made this development
     * possible:
     *
     *   M. Dion, H. Rydberg, E. Schroder, D. C. Langreth, and
     *   B. I. Lundqvist, Phys. Rev. Lett. 92, 246401 (2004).
     *
     *   T. Thonhauser, V. R. Cooper, S. Li, A. Puzder, P. Hyldgaard, and
     *   D. C. Langreth, Phys. Rev. B 76, 125112 (2007).
     *
     *   G. Roman-Perez and J. M. Soler, Phys. Rev. Lett. 103, 096102 (2009).
     *
     *
     * If you are using vdW-DF2, please also cite:
     *
     *   K. Lee, E. D. Murray, L. Kong, B. I. Lundqvist, and
     *   D. C. Langreth, Phys. Rev. B 82, 081101(R) (2010).
     *
     *
     * If you are calculating the stress with vdW-DF, please also cite:
     *
     *   R. Sabatini, E. Kucukbenli, B. Kolb, T. Thonhauser, and
     *   S. de Gironcoli, J. Phys.: Condens. Matter 24, 424209 (2012).
     *

     Carrying out vdW-DF run using the following parameters:

     Nqs =      20    Nr_points =    1024   r_max =   100.000
     q_mesh =
               0.00001000     0.04494208     0.09755937     0.15916263
               0.23128650     0.31572767     0.41458969     0.53033537
               0.66584808     0.82450364     1.01025438     1.22772762
               1.48234092     1.78043706     2.12944203     2.53805004
               3.01644009     3.57652955     4.23227104     5.00000000

     Gradients computed in reciprocal space

[...]

     Starting wfc are  148 randomized atomic wfcs

     Self-consistent Calculation

[...]

     total energy              =   -2580.63701896 Ry
     Harris-Foulkes estimate   =   -2580.63702931 Ry
     estimated scf accuracy    <       0.00016003 Ry

     iteration # 19     ecut=    36.75 Ry     beta=0.30
     Davidson diagonalization with overlap
     ethr =  4.26E-08,  avg # of iterations =  1.0

[...]

     negative rho (up, down):  2.117E+00 0.000E+00

     Adding external electric field

     Computed dipole along edir(3) :
        Dipole               -0.0791 Ry au,         -0.2010 Debye
        Dipole field         -0.0002 Ry au

        Potential amp.        0.0201 Ry
        Total length         45.2551 bohr

     End of self-consistent calculation

[...]

          k = 0.0597-0.0689 0.0000 ( 16875 PWs)   bands (ev):

[...]

          k =-0.0895-0.0517 0.0000 ( 16880 PWs)   bands (ev):

   -51.5434 -51.4550 -51.3920 -51.1902 -51.1813 -51.1428 -51.1212 -51.0897
   -51.0398 -51.0342 -51.0195 -51.0121 -51.0039 -50.9874 -50.9561 -50.9461
   -50.9157 -50.9111 -50.8880 -50.8707 -50.8566 -50.8456 -50.8085 -50.7787
   -50.7308 -50.7249 -50.7132 -50.6382 -50.6381 -50.6212 -50.6156 -50.5186
   -50.4419 -50.4352 -50.4297 -50.3658 -17.3880  -5.4142  -5.1416  -4.5961
    -4.1633  -4.1353  -3.8775  -3.6304  -3.5050  -3.4866  -3.4530  -3.3224
    -3.2028  -3.0390  -2.9231  -2.8753  -2.8062  -2.6636  -2.5799  -2.3520
    -2.2017  -2.1830  -2.1689  -2.0866  -2.0249  -2.0173  -1.8163  -1.7164
    -1.4779  -1.4364  -1.4317  -1.3250  -1.2250  -1.1090  -1.0530  -1.0341
    -0.9917  -0.8953  -0.8796  -0.8487  -0.7920  -0.6588  -0.4705  -0.2499
    -0.2306  -0.1757  -0.0534  -0.0413   0.0763   0.0935   0.1536   0.2813
     0.4201   0.4502   0.6292   0.7668   0.8165   0.9221   1.1007   1.2920
     1.3356   1.5287   1.6430   1.6714   1.7954   1.9658   2.1347   2.6357
     3.6526   3.7457   3.9686   4.1724   4.9675

     the Fermi energy is     1.7402 ev

!    total energy              =   -2580.63701704 Ry
     Harris-Foulkes estimate   =   -2580.63702278 Ry
     estimated scf accuracy    <       0.00000491 Ry

     The total energy is the sum of the following terms:

     one-electron contribution =  -20554.49079732 Ry
     hartree contribution      =   10316.43447890 Ry
     xc contribution           =    -710.87272313 Ry
     ewald contribution        =    8368.40148802 Ry
     electric field correction =       0.00001753 Ry
     smearing contrib. (-TS)   =      -0.10948104 Ry

     convergence has been achieved in  19 iterations

 BEEF-vdW xc energy contributions
           1 :   -632.749906130840
           2 :    588.683697688843
           3 :   -509.732935841320
           4 :    410.987362582521
           5 :   -308.889337991458
           6 :    217.059478137131
           7 :   -143.609854829443
           8 :    90.4627176284927
           9 :   -54.6080377577345
          10 :    30.5679505483054
          11 :   -13.0115475129512
          12 :   -1.45885901735744
          13 :    13.8058043447094
          14 :   -23.2131385078457
          15 :    28.3531852056433
          16 :   -28.5985688183595
          17 :    24.6389037811922
          18 :   -18.3308172253513
          19 :    11.9791261812924
          20 :   -7.46842840194233
          21 :    5.64782289127299
          22 :   -6.20529416312957
          23 :    8.01867409634463
          24 :   -9.76951572355699
          25 :    10.5167152651358
          26 :   -10.0001665819818
          27 :    8.59582558827822
          28 :   -7.00855575704975
          29 :    5.88251592096708
          30 :   -5.51614438996694
          31 :   -52.0202478853063
          32 :   -38.4399981631682

     Forces acting on atoms (Ry/au):

     negative rho (up, down):  2.117E+00 0.000E+00
     atom    1 type  1   force =    -0.00228144   -0.00131044   -0.01826937
     atom    2 type  1   force =     0.00228063   -0.00131313   -0.01825550
     atom    3 type  1   force =     0.00000112    0.00263086   -0.01824483
     atom    4 type  1   force =     0.00000920   -0.00000698   -0.00991699
     atom    5 type  1   force =     0.00000285    0.00883181    0.01856789
     atom    6 type  1   force =     0.00000927   -0.00000344    0.00872737
     atom    7 type  1   force =    -0.00763051   -0.00441090    0.01856057
     atom    8 type  1   force =     0.00765800   -0.00442472    0.01857252
     atom    9 type  1   force =    -0.00005023    0.00000638    0.00021537
     atom   10 type  1   force =     0.00004789   -0.00028619   -0.00014022
     atom   11 type  1   force =    -0.00031381    0.00019269   -0.00017089
     atom   12 type  1   force =     0.00025740    0.00010319   -0.00013943
     atom   13 type  2   force =     0.00000964   -0.00000914    0.00049352

     Total force =     0.049638     Total SCF correction =     0.014293
     SCF correction compared to forces is large: reduce conv_thr to get better values

     entering subroutine stress ...

     negative rho (up, down):  2.117E+00 0.000E+00
          total   stress  (Ry/bohr**3)                   (kbar)     P=   -7.68
  -0.00010258  -0.00000001   0.00000000        -15.09     -0.00      0.00
  -0.00000001  -0.00010259  -0.00000000         -0.00    -15.09     -0.00
   0.00000000  -0.00000000   0.00004859          0.00     -0.00      7.15

 !ASE

     Writing output data file calc.save

     General routines

     Parallel routines

   This run was terminated on:   6:29:11  17Jan2018

   JOB DONE.
Job  /afs/slac/g/suncat/bin/suncat-tsmpirun -x LD_LIBRARY_PATH -wdir /scratch/qe842471_OSCx1 pw.x -in pw.inp

TID   HOST_NAME   COMMAND_LINE            STATUS            TERMINATION_TIME
00000 suncat0264 pw.x -in pw.inp   Done                     01/17/2018 06:29:11
00001 suncat0264 pw.x -in pw.inp   Done                     01/17/2018 06:29:11
00002 suncat0264 pw.x -in pw.inp   Done                     01/17/2018 06:29:11
00003 suncat0264 pw.x -in pw.inp   Done                     01/17/2018 06:29:11
00004 suncat0264 pw.x -in pw.inp   Done                     01/17/2018 06:29:11
00005 suncat0264 pw.x -in pw.inp   Done                     01/17/2018 06:29:11
00006 suncat0264 pw.x -in pw.inp   Done                     01/17/2018 06:29:11
00007 suncat0264 pw.x -in pw.inp   Done                     01/17/2018 06:29:11
00008 suncat0259 pw.x -in pw.inp   Done                     01/17/2018 06:29:11
00009 suncat0259 pw.x -in pw.inp   Done                     01/17/2018 06:29:11
00010 suncat0259 pw.x -in pw.inp   Done                     01/17/2018 06:29:11
00011 suncat0259 pw.x -in pw.inp   Done                     01/17/2018 06:29:11
00012 suncat0259 pw.x -in pw.inp   Done                     01/17/2018 06:29:11
00013 suncat0259 pw.x -in pw.inp   Done                     01/17/2018 06:29:11
00014 suncat0259 pw.x -in pw.inp   Done                     01/17/2018 06:29:11
00015 suncat0259 pw.x -in pw.inp   Done                     01/17/2018 06:29:11
00016 suncat0258 pw.x -in pw.inp   Done                     01/17/2018 06:29:11
00017 suncat0258 pw.x -in pw.inp   Done                     01/17/2018 06:29:11
00018 suncat0258 pw.x -in pw.inp   Done                     01/17/2018 06:29:11
00019 suncat0258 pw.x -in pw.inp   Done                     01/17/2018 06:29:11
00020 suncat0258 pw.x -in pw.inp   Done                     01/17/2018 06:29:11
00021 suncat0258 pw.x -in pw.inp   Done                     01/17/2018 06:29:11
00022 suncat0258 pw.x -in pw.inp   Done                     01/17/2018 06:29:11
00023 suncat0258 pw.x -in pw.inp   Done                     01/17/2018 06:29:11
00024 suncat0256 pw.x -in pw.inp   Done                     01/17/2018 06:29:11
00025 suncat0256 pw.x -in pw.inp   Done                     01/17/2018 06:29:11
00026 suncat0256 pw.x -in pw.inp   Done                     01/17/2018 06:29:11
00027 suncat0256 pw.x -in pw.inp   Done                     01/17/2018 06:29:11
00028 suncat0256 pw.x -in pw.inp   Done                     01/17/2018 06:29:11
00029 suncat0256 pw.x -in pw.inp   Done                     01/17/2018 06:29:11
00030 suncat0256 pw.x -in pw.inp   Done                     01/17/2018 06:29:11
00031 suncat0256 pw.x -in pw.inp   Done                     01/17/2018 06:29:11