     Program PWSCF v.5.1rc2 (svn rev. ) starts on 22Feb2018 at 18:29: 8

     Current dimensions of program PWSCF are:
     Max number of different atomic species (ntypx) = 10
     Max number of k-points (npk) =  40000
     Max angular momentum in pseudopotentials (lmaxx) =  3
     Presently stress not available with electric field

     IMPORTANT: XC functional enforced from input :
     Exchange-correlation      = BEEF-VDW ( 1  4 27 13 2)
     Any further DFT definition will be discarded
     Please, verify this is what you really want

     Subspace diagonalization in iterative solution of the eigenvalue problem:
     a serial algorithm will be used

     bravais-lattice index     =            0
     lattice parameter (alat)  =       1.8897  a.u.
     unit-cell volume          =    7276.7660 (a.u.)^3
     number of atoms/cell      =           13
     number of atomic types    =            2
     number of electrons       =       186.00
     number of Kohn-Sham states=          103
     kinetic-energy cutoff     =      36.7493  Ry
     charge density cutoff     =     367.4932  Ry
     convergence threshold     =      1.0E-05
     mixing beta               =       0.3000
     number of iterations used =           10  plain     mixing
     Exchange-correlation      = BEEF-VDW ( 1  4 27 13 2)
     nstep                     =           50

     celldm(1)=   1.889726  celldm(2)=   0.000000  celldm(3)=   0.000000
     celldm(4)=   0.000000  celldm(5)=   0.000000  celldm(6)=   0.000000

     crystal axes: (cart. coord. in units of alat)
               a(1) = (   6.962526   0.000000   0.000000 )
               a(2) = (   3.481263   6.029724   0.000000 )
               a(3) = (   0.000000   0.000000  25.684879 )

     reciprocal axes: (cart. coord. in units 2 pi/alat)
               b(1) = (  0.143626 -0.082923  0.000000 )
               b(2) = (  0.000000  0.165845  0.000000 )
               b(3) = (  0.000000  0.000000  0.038933 )

     PseudoPot. # 1 for Bi read from file:
     /home/mamunm/src/pseudo/gbrv1.5pbe/Bi.UPF
     MD5 check sum: 81103212dc04adf40945787f699eab19
     Pseudo is Ultrasoft + core correction, Zval = 15.0
     Generated by new atomic code, or converted to UPF format
     Using radial grid of  899 points,  6 beta functions with:
                l(1) =   0
                l(2) =   0
                l(3) =   1
                l(4) =   1
                l(5) =   2
                l(6) =   2
     Q(r) pseudized with  6 coefficients,  rinner =    1.000   1.000   1.000
                                                       1.000   1.000

     PseudoPot. # 2 for O  read from file:
     /home/mamunm/src/pseudo/gbrv1.5pbe/O.UPF
     MD5 check sum: 734c27235a0248c51dbae37a1fbe46ec
     Pseudo is Ultrasoft + core correction, Zval =  6.0
     Generated by new atomic code, or converted to UPF format
     Using radial grid of  737 points,  5 beta functions with:
                l(1) =   0
                l(2) =   0
                l(3) =   1
                l(4) =   1
                l(5) =   2
     Q(r) pseudized with  8 coefficients,  rinner =    0.900   0.900   0.900
                                                       0.900   0.900

     vdW kernel table read from file vdW_kernel_table
     MD5 check sum: 095c7af220d748ca6e76c0b4c6cfb241

     atomic species   valence    mass     pseudopotential
        Bi1           15.00   208.98040     Bi( 1.00)
        O1             6.00    15.99900     O ( 1.00)

     No symmetry found

   Cartesian axes

     site n.     atom                  positions (alat units)
         1           Bi1 tau(   1) = (   1.7406315   1.0049541  10.0000000  )
         2           Bi1 tau(   2) = (   5.2218945   1.0049541  10.0000000  )
         3           Bi1 tau(   3) = (   3.4812630   4.0198163  10.0000000  )
         4           Bi1 tau(   4) = (   6.9625260   4.0198163  10.0000000  )
         5           Bi1 tau(   5) = (   6.9625260   2.0099081  12.8424393  )
         6           Bi1 tau(   6) = (   3.4812630   2.0099081  12.8424393  )
         7           Bi1 tau(   7) = (   8.7031575   5.0247703  12.8424393  )
         8           Bi1 tau(   8) = (   5.2218945   5.0247703  12.8424393  )
         9           Bi1 tau(   9) = (   0.0000000   0.0000000  15.6848787  )
        10           Bi1 tau(  10) = (   3.4812630   0.0000000  15.6848787  )
        11           Bi1 tau(  11) = (   1.7406315   3.0148622  15.6848787  )
        12           Bi1 tau(  12) = (   5.2218945   3.0148622  15.6848787  )
        13           O1  tau(  13) = (   3.4812630   2.0099081  17.0758787  )

     number of k points=    20  Fermi-Dirac smearing, width (Ry)=  0.0110
                       cart. coord. in units 2pi/alat
        k(    1) = (   0.0000000   0.0000000   0.0000000), wk =   0.0555556
        k(    2) = (   0.0000000   0.0276408   0.0000000), wk =   0.1111111
        k(    3) = (   0.0000000   0.0552817   0.0000000), wk =   0.1111111
        k(    4) = (   0.0000000  -0.0829225   0.0000000), wk =   0.0555556
        k(    5) = (   0.0239377  -0.0138204   0.0000000), wk =   0.1111111
        k(    6) = (   0.0239377   0.0138204   0.0000000), wk =   0.1111111
        k(    7) = (   0.0239377   0.0414613   0.0000000), wk =   0.1111111
        k(    8) = (   0.0239377  -0.0967430   0.0000000), wk =   0.1111111
        k(    9) = (   0.0239377  -0.0691021   0.0000000), wk =   0.1111111
        k(   10) = (   0.0239377  -0.0414613   0.0000000), wk =   0.1111111
        k(   11) = (   0.0478753  -0.0276408   0.0000000), wk =   0.1111111
        k(   12) = (   0.0478753   0.0000000   0.0000000), wk =   0.1111111
        k(   13) = (   0.0478753   0.0276408   0.0000000), wk =   0.1111111
        k(   14) = (   0.0478753  -0.1105634   0.0000000), wk =   0.1111111
        k(   15) = (   0.0478753  -0.0829225   0.0000000), wk =   0.1111111
        k(   16) = (   0.0478753  -0.0552817   0.0000000), wk =   0.1111111
        k(   17) = (  -0.0718130   0.0414613   0.0000000), wk =   0.0555556
        k(   18) = (  -0.0718130   0.0691021   0.0000000), wk =   0.1111111
        k(   19) = (  -0.0718130   0.0967430   0.0000000), wk =   0.1111111
        k(   20) = (  -0.0718130  -0.0414613   0.0000000), wk =   0.0555556

     Largest allocated arrays     est. size (Mb)     dimensions
     Largest temporary arrays     est. size (Mb)     dimensions

     Check: negative/imaginary core charge=   -0.000001    0.000000

     Initial potential from superposition of free atoms
     Check: negative starting charge=   -0.503640

     starting charge  173.99950, renormalised to  186.00000

     negative rho (up, down):  5.384E-01 0.000E+00

     *
     * You are using vdW-DF for exchange-correlation in this calculation.
     * Please cite the following three references that made this development
     * possible:
     *
     *   M. Dion, H. Rydberg, E. Schroder, D. C. Langreth, and
     *   B. I. Lundqvist, Phys. Rev. Lett. 92, 246401 (2004).
     *
     *   T. Thonhauser, V. R. Cooper, S. Li, A. Puzder, P. Hyldgaard, and
     *   D. C. Langreth, Phys. Rev. B 76, 125112 (2007).
     *
     *   G. Roman-Perez and J. M. Soler, Phys. Rev. Lett. 103, 096102 (2009).
     *
     *
     * If you are using vdW-DF2, please also cite:
     *
     *   K. Lee, E. D. Murray, L. Kong, B. I. Lundqvist, and
     *   D. C. Langreth, Phys. Rev. B 82, 081101(R) (2010).
     *
     *
     * If you are calculating the stress with vdW-DF, please also cite:
     *
     *   R. Sabatini, E. Kucukbenli, B. Kolb, T. Thonhauser, and
     *   S. de Gironcoli, J. Phys.: Condens. Matter 24, 424209 (2012).
     *

     Carrying out vdW-DF run using the following parameters:

     Nqs =      20    Nr_points =    1024   r_max =   100.000
     q_mesh =
               0.00001000     0.04494208     0.09755937     0.15916263
               0.23128650     0.31572767     0.41458969     0.53033537
               0.66584808     0.82450364     1.01025438     1.22772762
               1.48234092     1.78043706     2.12944203     2.53805004
               3.01644009     3.57652955     4.23227104     5.00000000

     Gradients computed in reciprocal space

     Adding external electric field

     Computed dipole along edir(3) :
        Dipole               -3.3105 Ry au,         -8.4144 Debye
        Dipole field         -0.0057 Ry au

        Potential amp.        0.5411 Ry
        Total length         47.3240 bohr

     Starting wfc are  112 randomized atomic wfcs

     Self-consistent Calculation

     iteration #  1     ecut=    36.75 Ry     beta=0.30
     Davidson diagonalization with overlap
     ethr =  1.00E-02,  avg # of iterations =  7.3

[...]

     total energy              =   -2231.83618383 Ry
     Harris-Foulkes estimate   =   -2280.71960076 Ry
     estimated scf accuracy    <     103.36833607 Ry

[...]

     End of self-consistent calculation

          k = 0.0000 0.0000 0.0000 ( 27441 PWs)   bands (ev):

   -22.6249 -22.6249 -22.6159 -22.5739 -22.5739 -22.5598 -22.5594 -22.5594
   -22.5314 -22.5132 -22.4975 -22.4975 -22.4879 -22.4824 -22.4824 -22.4751
   -22.4570 -22.4570 -22.4535 -22.4535 -22.4406 -22.4207 -22.4207 -22.4095
   -22.4038 -22.3998 -22.3998 -22.3885 -22.3885 -22.3702 -22.3676 -22.3676
   -22.3654 -22.3654 -22.3652 -22.3424 -22.3424 -22.3291 -22.3209 -22.3209
   -22.3035 -22.3035 -22.3027 -22.2805 -22.2500 -22.2499 -22.2350 -22.2278
   -22.2264 -22.2263 -22.2038 -22.2037 -22.1891 -22.1891 -22.1849 -22.1848
   -22.1771 -22.1767 -22.1715 -22.1715 -16.1063 -12.3847 -11.2177 -10.1287
    -9.6088  -9.6088  -9.5834  -9.1251  -9.1251  -8.9874  -8.6971  -8.6971
    -8.6221  -3.8764  -3.8643  -3.8643  -3.2321  -3.2287  -3.2287  -3.0589
    -2.8253  -2.7751  -2.7751  -1.3439  -1.3439  -0.5573  -0.2073   0.7559
     0.7559   0.8398   1.2276   1.2276   1.5456   1.9004   1.9853   1.9853
     2.6220   2.9490   3.0069   3.0069   3.0559   3.5933   3.5933

[...]

          k =-0.0718 0.0415 0.0000 ( 27378 PWs)   bands (ev):

[...]

     the Fermi energy is     1.1685 ev

!    total energy              =   -2278.32204143 Ry
     Harris-Foulkes estimate   =   -2278.32204200 Ry
     estimated scf accuracy    <       0.00000104 Ry

     The total energy is the sum of the following terms:

     one-electron contribution =  -11063.18944591 Ry
     hartree contribution      =    5587.44216033 Ry
     xc contribution           =    -806.48005084 Ry
     ewald contribution        =    4003.95866753 Ry
     electric field correction =       0.00026660 Ry
     smearing contrib. (-TS)   =      -0.05363913 Ry

     convergence has been achieved in  15 iterations

 BEEF-vdW xc energy contributions
           1 :   -718.874719405533
           2 :    667.912526401712
           3 :   -578.073801700796
           4 :    468.959519601597
           5 :   -361.092877461646
           6 :    269.951265468806
           7 :   -202.500055417720
           8 :    157.081567315267
           9 :   -126.299634099364
          10 :    101.414021509280
          11 :   -76.2972033246707
          12 :    49.3968084224758
          13 :   -23.2178793256669
          14 :    1.99919682506061
          15 :    11.0280943144320
          16 :   -15.4489511451868
          17 :    13.8172464009231
          18 :   -10.2954634894642
          19 :    8.61764015916947
          20 :   -10.4589351407751
          21 :    14.9821241243994
          22 :   -19.6719294480611
          23 :    21.9104813801778
          24 :   -20.4313162958996
          25 :    15.9285926611062
          26 :   -10.5896898286913
          27 :    6.87755348711585
          28 :   -6.24657122756332
          29 :    8.46256742672608
          30 :   -11.8405586300353
          31 :   -57.5035066972421
          32 :   -42.2869817529377

     Forces acting on atoms (Ry/au):

     negative rho (up, down):  5.262E-01 0.000E+00
     atom    1 type  1   force =     0.00107963    0.00062034   -0.01022976
     atom    2 type  1   force =    -0.00107893    0.00063205   -0.01021820
     atom    3 type  1   force =     0.00002199   -0.00125810   -0.01021182
     atom    4 type  1   force =    -0.00001719    0.00000297    0.00022586
     atom    5 type  1   force =     0.00003220    0.00084661   -0.00647424
     atom    6 type  1   force =    -0.00003189    0.00000229    0.00652607
     atom    7 type  1   force =    -0.00073481   -0.00043906   -0.00644642
     atom    8 type  1   force =     0.00072858   -0.00040902   -0.00646958
     atom    9 type  1   force =     0.00001177    0.00000017    0.00654309
     atom   10 type  1   force =    -0.00000863    0.01955205    0.02873664
     atom   11 type  1   force =     0.01692814   -0.00977971    0.02872689
     atom   12 type  1   force =    -0.01693287   -0.00977181    0.02873197
     atom   13 type  2   force =     0.00000202    0.00000123   -0.04944051

     Total force =     0.078169     Total SCF correction =     0.002754

     entering subroutine stress ...

     negative rho (up, down):  5.262E-01 0.000E+00
          total   stress  (Ry/bohr**3)                   (kbar)     P=    3.22
   0.00002581   0.00000000   0.00000000          3.80      0.00      0.00
   0.00000000   0.00002581   0.00000000          0.00      3.80      0.00
   0.00000000   0.00000000   0.00001399          0.00      0.00      2.06

     BFGS Geometry Optimization

     number of scf cycles    =   1
     number of bfgs steps    =   0

     energy   new            =   -2278.3220414287 Ry

     new trust radius        =       0.0494405070 bohr
     new conv_thr            =       0.0000099958 Ry

ATOMIC_POSITIONS (crystal)
Bi1      0.166666667   0.166666667   0.389334134    0   0   0
Bi1      0.666666667   0.166666667   0.389334134    0   0   0
Bi1      0.166666667   0.666666667   0.389334134    0   0   0
Bi1      0.666666667   0.666666667   0.389334134    0   0   0
Bi1      0.833333333   0.333333333   0.500000000    0   0   0
Bi1      0.333333333   0.333333333   0.500000000    0   0   0
Bi1      0.833333333   0.833333333   0.500000000    0   0   0
Bi1      0.333333333   0.833333333   0.500000000    0   0   0
Bi1      0.000000887   0.000000015   0.610800671
Bi1      0.499141386   0.001715916   0.611257917
Bi1      0.001715741   0.499141719   0.611257716
Bi1      0.499141834   0.499142412   0.611257821
O1       0.333333433   0.333333441   0.663803637

     Writing output data file calc.save
     Check: negative starting charge=   -0.503640
     NEW-OLD atomic charge density approx. for the potential

     Check: negative/imaginary core charge=   -0.000001    0.000000
     Check: negative starting charge=   -0.502811

[...]

     energy   old            =   -2278.3220414287 Ry
     energy   new            =   -2278.3275838380 Ry

     CASE: energy  _new < energy  _old

     WARNING: bfgs curvature condition failed, Theta= 0.988
     new trust radius        =       0.0741607606 bohr
     new conv_thr            =       0.0000001000 Ry

[...]

     WARNING: bfgs curvature condition failed, Theta= 0.869
     new trust radius        =       0.0164554134 bohr
     new conv_thr            =       0.0000001000 Ry

[...]

     Total force =     0.009014     Total SCF correction =     0.001588
     SCF correction compared to forces is large: reduce conv_thr to get better values

[...]

     Total force =     0.005666     Total SCF correction =     0.000252

[...]

     number of scf cycles    =  16
     number of bfgs steps    =  15

     energy   old            =   -2278.3429494689 Ry
     energy   new            =   -2278.3431654565 Ry

     CASE: energy  _new < energy  _old

     new trust radius        =       0.0858909667 bohr
     new conv_thr            =       0.0000001000 Ry

ATOMIC_POSITIONS (crystal)
Bi1      0.166666667   0.166666667   0.389334134    0   0   0
Bi1      0.666666667   0.166666667   0.389334134    0   0   0
Bi1      0.166666667   0.666666667   0.389334134    0   0   0
Bi1      0.666666667   0.666666667   0.389334134    0   0   0
Bi1      0.833333333   0.333333333   0.500000000    0   0   0
Bi1      0.333333333   0.333333333   0.500000000    0   0   0
Bi1      0.833333333   0.833333333   0.500000000    0   0   0
Bi1      0.333333333   0.833333333   0.500000000    0   0   0
Bi1      0.000000869  -0.000000310   0.616720157
Bi1      0.500838741  -0.001677889   0.620520730
Bi1     -0.001677201   0.500838481   0.620520605
Bi1      0.500837805   0.500839189   0.620520621
O1       0.333333353   0.333333289   0.663729842

     Writing output data file calc.save
     Check: negative starting charge=   -0.502692
     NEW-OLD atomic charge density approx. for the potential

     Check: negative/imaginary core charge=   -0.000001    0.000000
     Check: negative starting charge=   -0.502969

[...]

     Self-consistent Calculation

[...]

     total energy              =   -2278.34333576 Ry
     Harris-Foulkes estimate   =   -2278.34333589 Ry
     estimated scf accuracy    <       0.00000061 Ry

     iteration #  9     ecut=    36.75 Ry     beta=0.30
     Davidson diagonalization with overlap
     ethr =  3.29E-10,  avg # of iterations =  2.6

[...]

     negative rho (up, down):  5.253E-01 0.000E+00

     Adding external electric field

     Computed dipole along edir(3) :
        Dipole               -0.2814 Ry au,         -0.7152 Debye
        Dipole field         -0.0005 Ry au

        Potential amp.        0.0460 Ry
        Total length         47.3240 bohr

     End of self-consistent calculation

[...]

          k = 0.0479-0.0553 0.0000 ( 27352 PWs)   bands (ev):

[...]

          k =-0.0718-0.0415 0.0000 ( 27378 PWs)   bands (ev):

   -22.4347 -22.4196 -22.4133 -22.3773 -22.3710 -22.3636 -22.3533 -22.3521
   -22.3506 -22.3461 -22.3389 -22.3343 -22.3310 -22.3285 -22.3274 -22.3267
   -22.3250 -22.3187 -22.3112 -22.3060 -22.3019 -22.2955 -22.2860 -22.2817
   -22.2749 -22.2719 -22.2710 -22.2651 -22.2511 -22.2490 -22.2474 -22.2398
   -22.2388 -22.2309 -22.2234 -22.2185 -22.1972 -22.1856 -22.1751 -22.1693
   -22.1692 -22.1626 -22.1492 -22.1394 -22.1379 -22.1365 -22.1353 -22.1327
   -22.1306 -22.1300 -22.1254 -22.1194 -22.1089 -22.0845 -22.0731 -22.0509
   -22.0422 -22.0320 -22.0299 -22.0204 -16.9155 -11.1699 -11.1111 -10.3488
    -9.9881  -9.5868  -9.5608  -9.4750  -9.2675  -9.1224  -8.7776  -8.5520
    -8.4447  -3.4693  -2.7084  -2.4713  -2.1588  -2.1057  -2.0599  -1.9728
    -1.8387  -1.7938  -1.4360  -0.6790  -0.5922  -0.5403  -0.4319  -0.0256
     0.3921   0.5623   0.5706   0.7287   0.7768   0.9185   0.9782   1.3377
     1.4872   1.5601   1.6842   2.0690   2.1833   2.9883   3.3220

     the Fermi energy is     1.2940 ev

!    total energy              =   -2278.34333582 Ry
     Harris-Foulkes estimate   =   -2278.34333454 Ry
     estimated scf accuracy    <       0.00000010 Ry

     The total energy is the sum of the following terms:

     one-electron contribution =  -10747.33111703 Ry
     hartree contribution      =    5430.25063873 Ry
     xc contribution           =    -806.41642885 Ry
     ewald contribution        =    3845.20808397 Ry
     electric field correction =       0.00013671 Ry
     smearing contrib. (-TS)   =      -0.05464935 Ry

     convergence has been achieved in   9 iterations

 BEEF-vdW xc energy contributions
           1 :   -718.808142409900
           2 :    667.780479630254
           3 :   -577.834692260415
           4 :    468.631658228774
           5 :   -360.763536388334
           6 :    269.732520228579
           7 :   -202.459634754448
           8 :    157.196820726224
           9 :   -126.465411986326
          10 :    101.500037809014
          11 :   -76.2212207044822
          12 :    49.1723344844168
          13 :   -22.9499171812527
          14 :    1.82814547787837
          15 :    11.0062126532191
          16 :   -15.2404970967625
          17 :    13.5314568790345
          18 :   -10.0867250292449
          19 :    8.60194722289293
          20 :   -10.6499502541333
          21 :    15.2813863565527
          22 :   -19.9196920743311
          23 :    21.9707988036971
          24 :   -20.2655387457124
          25 :    15.6169956456899
          26 :   -10.2892273041305
          27 :    6.73871450441061
          28 :   -6.33457219074887
          29 :    8.72370210505551
          30 :   -12.1304132304481
          31 :   -57.4945291167228
          32 :   -42.2565814615787

     Forces acting on atoms (Ry/au):

     negative rho (up, down):  5.253E-01 0.000E+00
     atom    1 type  1   force =     0.00037367    0.00021569   -0.00712369
     atom    2 type  1   force =    -0.00037364    0.00021572   -0.00712367
     atom    3 type  1   force =     0.00000000   -0.00043140   -0.00712368
     atom    4 type  1   force =     0.00000002    0.00000001    0.00216174
     atom    5 type  1   force =    -0.00000002    0.00217272    0.00238707
     atom    6 type  1   force =     0.00000001   -0.00000003    0.01329861
     atom    7 type  1   force =    -0.00188168   -0.00108627    0.00238712
     atom    8 type  1   force =     0.00188164   -0.00108625    0.00238729
     atom    9 type  1   force =     0.00000000    0.00000007   -0.00179530
     atom   10 type  1   force =     0.00000021   -0.00006871   -0.00027626
     atom   11 type  1   force =    -0.00005998    0.00003437   -0.00027628
     atom   12 type  1   force =     0.00005990    0.00003420   -0.00027634
     atom   13 type  2   force =    -0.00000013   -0.00000012    0.00137339

     Total force =     0.002314     Total SCF correction =     0.001648
     SCF correction compared to forces is large: reduce conv_thr to get better values

     entering subroutine stress ...

     negative rho (up, down):  5.253E-01 0.000E+00
          total   stress  (Ry/bohr**3)                   (kbar)     P=    2.07
   0.00002261   0.00000000  -0.00000000          3.33      0.00     -0.00
   0.00000000   0.00002261  -0.00000000          0.00      3.33     -0.00
  -0.00000000  -0.00000000  -0.00000292         -0.00     -0.00     -0.43

     bfgs converged in  17 scf cycles and  16 bfgs steps
     (criteria: energy <  1.0E+00, force <  1.9E-03)

     End of BFGS Geometry Optimization

     Final energy   =   -2278.3433358170 Ry
Begin final coordinates

ATOMIC_POSITIONS (crystal)
Bi1      0.166666667   0.166666667   0.389334134    0   0   0
Bi1      0.666666667   0.166666667   0.389334134    0   0   0
Bi1      0.166666667   0.666666667   0.389334134    0   0   0
Bi1      0.666666667   0.666666667   0.389334134    0   0   0
Bi1      0.833333333   0.333333333   0.500000000    0   0   0
Bi1      0.333333333   0.333333333   0.500000000    0   0   0
Bi1      0.833333333   0.833333333   0.500000000    0   0   0
Bi1      0.333333333   0.833333333   0.500000000    0   0   0
Bi1      0.000000869  -0.000000310   0.616720157
Bi1      0.500838741  -0.001677889   0.620520730
Bi1     -0.001677201   0.500838481   0.620520605
Bi1      0.500837805   0.500839189   0.620520621
O1       0.333333353   0.333333289   0.663729842
End final coordinates

     Writing output data file calc.save

     General routines

     Parallel routines

   This run was terminated on:  19:58: 2  22Feb2018

   JOB DONE.