     Program PWSCF v.5.1rc2 (svn rev. 11289) starts on  3May2018 at  9: 1:44

     Current dimensions of program PWSCF are:
     Max number of different atomic species (ntypx) = 10
     Max number of k-points (npk) =  40000
     Max angular momentum in pseudopotentials (lmaxx) =  3
     Presently stress not available with electric field

     IMPORTANT: XC functional enforced from input :
     Exchange-correlation      = BEEF-VDW ( 1  4 27 13 2)
     Any further DFT definition will be discarded
     Please, verify this is what you really want

     Subspace diagonalization in iterative solution of the eigenvalue problem:
     a serial algorithm will be used

     bravais-lattice index     =            0
     lattice parameter (alat)  =       1.8897  a.u.
     unit-cell volume          =    5182.3421 (a.u.)^3
     number of atoms/cell      =           13
     number of atomic types    =            2
     number of electrons       =       160.00
     number of Kohn-Sham states=           90
     kinetic-energy cutoff     =      36.7493  Ry
     charge density cutoff     =     367.4932  Ry
     convergence threshold     =      1.0E-05
     mixing beta               =       0.3000
     number of iterations used =           10  plain     mixing
     Exchange-correlation      = BEEF-VDW ( 1  4 27 13 2)
     nstep                     =           50

     celldm(1)=   1.889726  celldm(2)=   0.000000  celldm(3)=   0.000000
     celldm(4)=   0.000000  celldm(5)=   0.000000  celldm(6)=   0.000000

     crystal axes: (cart. coord. in units of alat)
               a(1) = (   5.970602   0.000000   0.000000 )
               a(2) = (   2.985301   5.170693   0.000000 )
               a(3) = (   0.000000   0.000000  24.874976 )

     reciprocal axes: (cart. coord. in units 2 pi/alat)
               b(1) = (  0.167487 -0.096699  0.000000 )
               b(2) = (  0.000000  0.193398  0.000000 )
               b(3) = (  0.000000  0.000000  0.040201 )

     PseudoPot. # 1 for Nb read from file:
     /u/if/mamunm/psp/gbrv1.5pbe/Nb.UPF
     MD5 check sum: 573aab8a2fa660278ed4a62cd769473f
     Pseudo is Ultrasoft + core correction, Zval = 13.0
     Generated by new atomic code, or converted to UPF format
     Using radial grid of  887 points,  6 beta functions with:
                l(1) =   0
                l(2) =   0
                l(3) =   1
                l(4) =   1
                l(5) =   2
                l(6) =   2
     Q(r) pseudized with  6 coefficients,  rinner =    1.000   1.000   1.000
                                                       1.000   1.000

     PseudoPot. # 2 for C  read from file:
     /u/if/mamunm/psp/gbrv1.5pbe/C.UPF
     MD5 check sum: d1aef80898a10debaa0f26306b886e00
     Pseudo is Ultrasoft + core correction, Zval =  4.0
     Generated by new atomic code, or converted to UPF format
     Using radial grid of  721 points,  4 beta functions with:
                l(1) =   0
                l(2) =   0
                l(3) =   1
                l(4) =   1
     Q(r) pseudized with  8 coefficients,  rinner =    1.100   1.100   1.100

     vdW kernel table read from file vdW_kernel_table
     MD5 check sum: 095c7af220d748ca6e76c0b4c6cfb241

     atomic species   valence    mass     pseudopotential
        Nb1           13.00    92.90637     Nb( 1.00)
        C1             4.00    12.01100     C ( 1.00)

     No symmetry found

   Cartesian axes

     site n.     atom                  positions (alat units)
         1           Nb1 tau(   1) = (   1.4926504   0.8617821  10.0000000  )
         2           Nb1 tau(   2) = (   4.4779512   0.8617821  10.0000000  )
         3           Nb1 tau(   3) = (   2.9853008   3.4471284  10.0000000  )
         4           Nb1 tau(   4) = (   5.9706016   3.4471284  10.0000000  )
         5           Nb1 tau(   5) = (   5.9706016   1.7235642  12.4374879  )
         6           Nb1 tau(   6) = (   2.9853008   1.7235642  12.4374879  )
         7           Nb1 tau(   7) = (   7.4632520   4.3089105  12.4374879  )
         8           Nb1 tau(   8) = (   4.4779512   4.3089105  12.4374879  )
         9           Nb1 tau(   9) = (   0.0000000   0.0000000  14.8749758  )
        10           Nb1 tau(  10) = (   2.9853008   0.0000000  14.8749758  )
        11           Nb1 tau(  11) = (   1.4926504   2.5853463  14.8749758  )
        12           Nb1 tau(  12) = (   4.4779512   2.5853463  14.8749758  )
        13           C1  tau(  13) = (   1.4926504   0.8617821  16.4349758  )

     number of k points=    20  Fermi-Dirac smearing, width (Ry)=  0.0110
                       cart. coord. in units 2pi/alat
        k(    1) = (   0.0000000   0.0000000   0.0000000), wk =   0.0555556
        k(    2) = (   0.0000000   0.0322329   0.0000000), wk =   0.1111111
        k(    3) = (   0.0000000   0.0644659   0.0000000), wk =   0.1111111
        k(    4) = (   0.0000000  -0.0966988   0.0000000), wk =   0.0555556
        k(    5) = (   0.0279146  -0.0161165   0.0000000), wk =   0.1111111
        k(    6) = (   0.0279146   0.0161165   0.0000000), wk =   0.1111111
        k(    7) = (   0.0279146   0.0483494   0.0000000), wk =   0.1111111
        k(    8) = (   0.0279146  -0.1128153   0.0000000), wk =   0.1111111
        k(    9) = (   0.0279146  -0.0805824   0.0000000), wk =   0.1111111
        k(   10) = (   0.0279146  -0.0483494   0.0000000), wk =   0.1111111
        k(   11) = (   0.0558291  -0.0322329   0.0000000), wk =   0.1111111
        k(   12) = (   0.0558291   0.0000000   0.0000000), wk =   0.1111111
        k(   13) = (   0.0558291   0.0322329   0.0000000), wk =   0.1111111
        k(   14) = (   0.0558291  -0.1289318   0.0000000), wk =   0.1111111
        k(   15) = (   0.0558291  -0.0966988   0.0000000), wk =   0.1111111
        k(   16) = (   0.0558291  -0.0644659   0.0000000), wk =   0.1111111
        k(   17) = (  -0.0837437   0.0483494   0.0000000), wk =   0.0555556
        k(   18) = (  -0.0837437   0.0805824   0.0000000), wk =   0.1111111
        k(   19) = (  -0.0837437   0.1128153   0.0000000), wk =   0.1111111
        k(   20) = (  -0.0837437  -0.0483494   0.0000000), wk =   0.0555556

     Largest allocated arrays     est. size (Mb)     dimensions
     Largest temporary arrays     est. size (Mb)     dimensions

     Initial potential from superposition of free atoms
     Check: negative starting charge=   -0.005161

     starting charge  159.96716, renormalised to  160.00000

     negative rho (up, down):  5.162E-03 0.000E+00

     *
     * You are using vdW-DF for exchange-correlation in this calculation.
     * Please cite the following three references that made this development
     * possible:
     *
     *   M. Dion, H. Rydberg, E. Schroder, D. C. Langreth, and
     *   B. I. Lundqvist, Phys. Rev. Lett. 92, 246401 (2004).
     *
     *   T. Thonhauser, V. R. Cooper, S. Li, A. Puzder, P. Hyldgaard, and
     *   D. C. Langreth, Phys. Rev. B 76, 125112 (2007).
     *
     *   G. Roman-Perez and J. M. Soler, Phys. Rev. Lett. 103, 096102 (2009).
     *
     *
     * If you are using vdW-DF2, please also cite:
     *
     *   K. Lee, E. D. Murray, L. Kong, B. I. Lundqvist, and
     *   D. C. Langreth, Phys. Rev. B 82, 081101(R) (2010).
     *
     *
     * If you are calculating the stress with vdW-DF, please also cite:
     *
     *   R. Sabatini, E. Kucukbenli, B. Kolb, T. Thonhauser, and
     *   S. de Gironcoli, J. Phys.: Condens. Matter 24, 424209 (2012).
     *

     Carrying out vdW-DF run using the following parameters:

     Nqs =      20    Nr_points =    1024   r_max =   100.000
     q_mesh =
               0.00001000     0.04494208     0.09755937     0.15916263
               0.23128650     0.31572767     0.41458969     0.53033537
               0.66584808     0.82450364     1.01025438     1.22772762
               1.48234092     1.78043706     2.12944203     2.53805004
               3.01644009     3.57652955     4.23227104     5.00000000

     Gradients computed in reciprocal space

     Adding external electric field

     Computed dipole along edir(3) :
        Dipole               -0.0059 Ry au,         -0.0149 Debye
        Dipole field         -0.0000 Ry au

        Potential amp.        0.0013 Ry
        Total length         45.8317 bohr

     Starting wfc are  160 randomized atomic wfcs

     Self-consistent Calculation

     iteration #  1     ecut=    36.75 Ry     beta=0.30
     Davidson diagonalization with overlap
     ethr =  1.00E-02,  avg # of iterations =  2.0

[...]

     total energy              =   -1430.81021674 Ry
     Harris-Foulkes estimate   =   -1434.16133745 Ry
     estimated scf accuracy    <       7.45433378 Ry

[...]

     End of self-consistent calculation

          k = 0.0000 0.0000 0.0000 ( 19435 PWs)   bands (ev):

   -53.5495 -53.4927 -53.4136 -53.3594 -53.3569 -53.3561 -53.3542 -53.3408
   -53.3405 -53.2742 -53.2740 -53.2295 -29.9631 -29.9630 -29.9512 -29.9135
   -29.8767 -29.8766 -29.8632 -29.8494 -29.8491 -29.8257 -29.5916 -29.4757
   -29.4192 -29.4186 -29.3873 -29.3636 -29.3634 -29.2563 -29.2563 -29.2521
   -29.1911 -29.1908 -29.1812 -29.1500 -29.1500 -29.1430 -29.0688 -29.0652
   -29.0615 -29.0615 -29.0093 -29.0093 -28.9771 -28.9771 -28.8899 -28.8899
    -7.2497  -3.7591  -2.4367  -2.0417  -1.9627  -1.9627  -1.9115  -1.6493
    -1.6493  -1.5534  -1.2599  -1.2598  -1.2333  -1.1937  -1.1937  -1.1683
    -0.2301  -0.2300  -0.0311   0.7195   0.7195   0.9727   1.1105   1.2200
     1.2201   1.3230   1.7604   1.7605   1.8477   1.9903   1.9903   2.0455
     2.0457   2.0818   2.1045   2.1045   2.1228   2.2171   2.3836   2.3837
     3.0604   3.0605

[...]

          k =-0.0837 0.0483 0.0000 ( 19524 PWs)   bands (ev):

[...]

     the Fermi energy is     1.6313 ev

!    total energy              =   -1433.61862178 Ry
     Harris-Foulkes estimate   =   -1433.61860247 Ry
     estimated scf accuracy    <       0.00000483 Ry

     The total energy is the sum of the following terms:

     one-electron contribution =  -11650.56347505 Ry
     hartree contribution      =    5817.43632603 Ry
     xc contribution           =    -231.65083353 Ry
     ewald contribution        =    4631.27517573 Ry
     electric field correction =       0.00031137 Ry
     smearing contrib. (-TS)   =      -0.11612632 Ry

     convergence has been achieved in  18 iterations

 BEEF-vdW xc energy contributions
           1 :   -198.588127182794
           2 :    180.587456601449
           3 :   -149.915588305301
           4 :    114.805073756824
           5 :   -83.1517711800278
           6 :    59.8792885653101
           7 :   -45.9089217747795
           8 :    38.8330810552584
           9 :   -34.7304909160828
          10 :    30.1404015327815
          11 :   -23.3677684276607
          12 :    14.7130064200872
          13 :   -5.77678974167299
          14 :   -1.66838177221035
          15 :    6.63274427742437
          16 :   -9.28732470997551
          17 :    10.6781833993054
          18 :   -12.0299815294083
          19 :    14.0471711170867
          20 :   -16.5879673276649
          21 :    18.8404211510652
          22 :   -19.8547779555299
          23 :    19.1001699578727
          24 :   -16.7469571271675
          25 :    13.5519766447591
          26 :   -10.4564755541954
          27 :    8.13623054423275
          28 :   -6.74407414591826
          29 :    5.94927916602120
          30 :   -5.21774226638018
          31 :   -22.9640806423608
          32 :   -17.3629170726003

     Forces acting on atoms (Ry/au):

     negative rho (up, down):  4.891E-03 0.000E+00
     atom    1 type  1   force =     0.00000539    0.00000114   -0.00604178
     atom    2 type  1   force =    -0.00000073    0.00239255   -0.00395988
     atom    3 type  1   force =     0.00207074   -0.00120138   -0.00394890
     atom    4 type  1   force =    -0.00207146   -0.00119404   -0.00396847
     atom    5 type  1   force =     0.00186487   -0.00108459    0.00345061
     atom    6 type  1   force =    -0.00186444   -0.00105572    0.00342918
     atom    7 type  1   force =     0.00002482   -0.00000428   -0.00132600
     atom    8 type  1   force =    -0.00002831    0.00214974    0.00343085
     atom    9 type  1   force =     0.01982950    0.01144194    0.06449708
     atom   10 type  1   force =    -0.01983510    0.01145592    0.06449452
     atom   11 type  1   force =     0.00000717   -0.02290406    0.06450829
     atom   12 type  1   force =    -0.00001215    0.00000096   -0.00398545
     atom   13 type  2   force =     0.00000970    0.00000183   -0.18058006

     Total force =     0.216054     Total SCF correction =     0.011940

     entering subroutine stress ...

     negative rho (up, down):  4.891E-03 0.000E+00
          total   stress  (Ry/bohr**3)                   (kbar)     P=  -25.35
  -0.00021582  -0.00000000   0.00000000        -31.75     -0.00      0.00
  -0.00000000  -0.00021581  -0.00000000         -0.00    -31.75     -0.00
   0.00000000  -0.00000000  -0.00008540          0.00     -0.00    -12.56

     BFGS Geometry Optimization

     number of scf cycles    =   1
     number of bfgs steps    =   0

     energy   new            =   -1433.6186217780 Ry

     new trust radius        =       0.1805800612 bohr
     new conv_thr            =       0.0000099958 Ry

ATOMIC_POSITIONS (crystal)
Nb1      0.166666667   0.166666667   0.402010442    0   0   0
Nb1      0.666666667   0.166666667   0.402010442    0   0   0
Nb1      0.166666667   0.666666667   0.402010442    0   0   0
Nb1      0.666666667   0.666666667   0.402010442    0   0   0
Nb1      0.833333333   0.333333333   0.500000000    0   0   0
Nb1      0.333333333   0.333333333   0.500000000    0   0   0
Nb1      0.833333333   0.833333333   0.500000000    0   0   0
Nb1      0.333333333   0.833333333   0.500000000    0   0   0
Nb1      0.001172004   0.001170987   0.599361635
Nb1      0.497655798   0.001172417   0.599361581
Nb1      0.001172655   0.497655961   0.599361874
Nb1      0.499998874   0.500000098   0.597904774
C1       0.166667433   0.166666854   0.656861621

     Writing output data file calc.save
     Check: negative starting charge=   -0.005161
     NEW-OLD atomic charge density approx. for the potential
     Check: negative starting charge=   -0.005144

[...]

     energy   old            =   -1433.6186217780 Ry
     energy   new            =   -1433.6618161503 Ry

     CASE: energy  _new < energy  _old

     WARNING: bfgs curvature condition failed, Theta= 0.959
     new trust radius        =       0.1986380674 bohr
     new conv_thr            =       0.0000001000 Ry

[...]

     Threshold (ethr) on eigenvalues was too large:
     Diagonalizing with lowered threshold

     Davidson diagonalization with overlap
     ethr =  5.02E-08,  avg # of iterations =  2.8

[...]

     WARNING: bfgs curvature condition failed, Theta= 0.899
     new trust radius        =       0.0253186032 bohr
     new conv_thr            =       0.0000001000 Ry

[...]

     Total force =     0.004949     Total SCF correction =     0.000328

[...]

     number of scf cycles    =  10
     number of bfgs steps    =   9

     energy   old            =   -1433.7304087563 Ry
     energy   new            =   -1433.7310161887 Ry

     CASE: energy  _new < energy  _old

     new trust radius        =       0.0427170099 bohr
     new conv_thr            =       0.0000001000 Ry

ATOMIC_POSITIONS (crystal)
Nb1      0.166666667   0.166666667   0.402010442    0   0   0
Nb1      0.666666667   0.166666667   0.402010442    0   0   0
Nb1      0.166666667   0.666666667   0.402010442    0   0   0
Nb1      0.666666667   0.666666667   0.402010442    0   0   0
Nb1      0.833333333   0.333333333   0.500000000    0   0   0
Nb1      0.333333333   0.333333333   0.500000000    0   0   0
Nb1      0.833333333   0.833333333   0.500000000    0   0   0
Nb1      0.333333333   0.833333333   0.500000000    0   0   0
Nb1     -0.003227774  -0.003227119   0.601164772
Nb1      0.506456120  -0.003227963   0.601164521
Nb1     -0.003227917   0.506454857   0.601164658
Nb1      0.499999790   0.499999499   0.591432651
C1       0.166667655   0.166666022   0.641193512

     Writing output data file calc.save
     Check: negative starting charge=   -0.005225
     NEW-OLD atomic charge density approx. for the potential
     Check: negative starting charge=   -0.005209

[...]

     Self-consistent Calculation

[...]

     total energy              =   -1433.73116110 Ry
     Harris-Foulkes estimate   =   -1433.73116120 Ry
     estimated scf accuracy    <       0.00000050 Ry

     iteration # 11     ecut=    36.75 Ry     beta=0.30
     Davidson diagonalization with overlap
     ethr =  3.10E-10,  avg # of iterations =  3.0

[...]

     negative rho (up, down):  4.968E-03 0.000E+00

     Adding external electric field

     Computed dipole along edir(3) :
        Dipole               -0.1922 Ry au,         -0.4886 Debye
        Dipole field         -0.0005 Ry au

        Potential amp.        0.0427 Ry
        Total length         45.8317 bohr

     End of self-consistent calculation

[...]

          k = 0.0558-0.0645 0.0000 ( 19505 PWs)   bands (ev):

[...]

          k =-0.0837-0.0483 0.0000 ( 19524 PWs)   bands (ev):

   -53.2872 -53.2777 -53.2438 -53.2097 -53.2041 -53.1913 -53.1534 -53.1434
   -53.1316 -53.1216 -53.0943 -53.0840 -29.6782 -29.6215 -29.6060 -29.5883
   -29.5781 -29.5743 -29.5187 -29.4977 -29.4723 -29.4085 -29.3727 -29.3556
   -29.2833 -29.2687 -29.2643 -29.2359 -29.2064 -29.1996 -29.1989 -29.1670
   -29.1146 -29.1126 -29.0962 -29.0931 -29.0811 -29.0628 -28.9829 -28.9601
   -28.9577 -28.9351 -28.9097 -28.9087 -28.8820 -28.8794 -28.8153 -28.8031
    -7.6005  -2.3221  -2.1062  -1.6187  -1.1670  -1.0528  -0.9893  -0.8966
    -0.7888  -0.7230  -0.6854  -0.5923  -0.3464  -0.1228  -0.0651   0.0209
     0.0542   0.1135   0.3482   0.3649   0.5437   0.6925   0.7449   0.7570
     0.8047   0.9511   1.1034   1.2698   1.3807   1.4078   1.4436   1.4890
     1.5247   1.5909   1.7968   1.9129   1.9678   1.9962   2.3436   2.5385
     2.6301   2.9531

     the Fermi energy is     1.7785 ev

!    total energy              =   -1433.73116113 Ry
     Harris-Foulkes estimate   =   -1433.73116101 Ry
     estimated scf accuracy    <       0.00000005 Ry

     The total energy is the sum of the following terms:

     one-electron contribution =  -11706.81304451 Ry
     hartree contribution      =    5846.49267011 Ry
     xc contribution           =    -232.00341420 Ry
     ewald contribution        =    4658.70340200 Ry
     electric field correction =       0.00008961 Ry
     smearing contrib. (-TS)   =      -0.11086413 Ry

     convergence has been achieved in  11 iterations

 BEEF-vdW xc energy contributions
           1 :   -198.935287924276
           2 :    180.998166095063
           3 :   -150.390602139501
           4 :    115.280325596368
           5 :   -83.5384210339764
           6 :    60.1014490018603
           7 :   -45.9259756060026
           8 :    38.6500956362422
           9 :   -34.3985741617624
          10 :    29.7451634143206
          11 :   -23.0041516837144
          12 :    14.4518497691805
          13 :   -5.63817393411901
          14 :   -1.71876246727058
          15 :    6.66142974819411
          16 :   -9.35818128166397
          17 :    10.8220949392672
          18 :   -12.2314135272779
          19 :    14.2522026119422
          20 :   -16.7306692566873
          21 :    18.8750941948661
          22 :   -19.7802903144824
          23 :    18.9641170385862
          24 :   -16.6250672226498
          25 :    13.5119310020050
          26 :   -10.5250367073977
          27 :    8.28853521858233
          28 :   -6.92100372664549
          29 :    6.09191362623369
          30 :   -5.29756901708035
          31 :   -22.9862440058118
          32 :   -17.3976976462137

     Forces acting on atoms (Ry/au):

     negative rho (up, down):  4.968E-03 0.000E+00
     atom    1 type  1   force =    -0.00000008   -0.00000023   -0.00402239
     atom    2 type  1   force =     0.00000040    0.00147656   -0.00523552
     atom    3 type  1   force =     0.00127859   -0.00073752   -0.00523520
     atom    4 type  1   force =    -0.00127869   -0.00073800   -0.00523466
     atom    5 type  1   force =     0.01835940   -0.01059896    0.00294706
     atom    6 type  1   force =    -0.01835976   -0.01059893    0.00294738
     atom    7 type  1   force =     0.00000032   -0.00000100    0.01127440
     atom    8 type  1   force =    -0.00000019    0.02119837    0.00294608
     atom    9 type  1   force =     0.00000188   -0.00000084   -0.00012442
     atom   10 type  1   force =    -0.00000344    0.00000068   -0.00012312
     atom   11 type  1   force =     0.00000077   -0.00000187   -0.00012325
     atom   12 type  1   force =     0.00000028    0.00000083    0.00010801
     atom   13 type  2   force =     0.00000051    0.00000090   -0.00012439

     Total force =     0.000270     Total SCF correction =     0.000395
     SCF correction compared to forces is large: reduce conv_thr to get better values

     entering subroutine stress ...

     negative rho (up, down):  4.968E-03 0.000E+00
          total   stress  (Ry/bohr**3)                   (kbar)     P=  -13.16
  -0.00014204   0.00000000  -0.00000000        -20.89      0.00     -0.00
   0.00000000  -0.00014204  -0.00000000          0.00    -20.90     -0.00
  -0.00000000  -0.00000000   0.00001564         -0.00     -0.00      2.30

     bfgs converged in  11 scf cycles and  10 bfgs steps
     (criteria: energy <  1.0E+00, force <  1.9E-03)

     End of BFGS Geometry Optimization

     Final energy   =   -1433.7311611283 Ry
Begin final coordinates

ATOMIC_POSITIONS (crystal)
Nb1      0.166666667   0.166666667   0.402010442    0   0   0
Nb1      0.666666667   0.166666667   0.402010442    0   0   0
Nb1      0.166666667   0.666666667   0.402010442    0   0   0
Nb1      0.666666667   0.666666667   0.402010442    0   0   0
Nb1      0.833333333   0.333333333   0.500000000    0   0   0
Nb1      0.333333333   0.333333333   0.500000000    0   0   0
Nb1      0.833333333   0.833333333   0.500000000    0   0   0
Nb1      0.333333333   0.833333333   0.500000000    0   0   0
Nb1     -0.003227774  -0.003227119   0.601164772
Nb1      0.506456120  -0.003227963   0.601164521
Nb1     -0.003227917   0.506454857   0.601164658
Nb1      0.499999790   0.499999499   0.591432651
C1       0.166667655   0.166666022   0.641193512
End final coordinates

     Writing output data file calc.save

     General routines

     Parallel routines

   This run was terminated on:  10:20:39   3May2018

   JOB DONE.
Job  /afs/slac/g/suncat/bin/suncat-tsmpirun -x LD_LIBRARY_PATH -wdir /scratch/qe696802_9DvX1 pw.x -npool 4 -in pw.inp

TID   HOST_NAME   COMMAND_LINE            STATUS            TERMINATION_TIME
00000 suncat0179 pw.x -npool 4 -i  Done                     05/03/2018 10:20:39
00001 suncat0179 pw.x -npool 4 -i  Done                     05/03/2018 10:20:39
00002 suncat0179 pw.x -npool 4 -i  Done                     05/03/2018 10:20:39
00003 suncat0179 pw.x -npool 4 -i  Done                     05/03/2018 10:20:39
00004 suncat0179 pw.x -npool 4 -i  Done                     05/03/2018 10:20:39
00005 suncat0179 pw.x -npool 4 -i  Done                     05/03/2018 10:20:39
00006 suncat0179 pw.x -npool 4 -i  Done                     05/03/2018 10:20:39
00007 suncat0179 pw.x -npool 4 -i  Done                     05/03/2018 10:20:39
00008 suncat0174 pw.x -npool 4 -i  Done                     05/03/2018 10:20:39
00009 suncat0174 pw.x -npool 4 -i  Done                     05/03/2018 10:20:39
00010 suncat0174 pw.x -npool 4 -i  Done                     05/03/2018 10:20:39
00011 suncat0174 pw.x -npool 4 -i  Done                     05/03/2018 10:20:39
00012 suncat0174 pw.x -npool 4 -i  Done                     05/03/2018 10:20:39
00013 suncat0174 pw.x -npool 4 -i  Done                     05/03/2018 10:20:39
00014 suncat0174 pw.x -npool 4 -i  Done                     05/03/2018 10:20:39
00015 suncat0174 pw.x -npool 4 -i  Done                     05/03/2018 10:20:39
00016 suncat0215 pw.x -npool 4 -i  Done                     05/03/2018 10:20:39
00017 suncat0215 pw.x -npool 4 -i  Done                     05/03/2018 10:20:39
00018 suncat0215 pw.x -npool 4 -i  Done                     05/03/2018 10:20:39
00019 suncat0215 pw.x -npool 4 -i  Done                     05/03/2018 10:20:39
00020 suncat0215 pw.x -npool 4 -i  Done                     05/03/2018 10:20:39
00021 suncat0215 pw.x -npool 4 -i  Done                     05/03/2018 10:20:39
00022 suncat0215 pw.x -npool 4 -i  Done                     05/03/2018 10:20:39
00023 suncat0215 pw.x -npool 4 -i  Done                     05/03/2018 10:20:39
00024 suncat0213 pw.x -npool 4 -i  Done                     05/03/2018 10:20:39
00025 suncat0213 pw.x -npool 4 -i  Done                     05/03/2018 10:20:39
00026 suncat0213 pw.x -npool 4 -i  Done                     05/03/2018 10:20:39
00027 suncat0213 pw.x -npool 4 -i  Done                     05/03/2018 10:20:39
00028 suncat0213 pw.x -npool 4 -i  Done                     05/03/2018 10:20:39
00029 suncat0213 pw.x -npool 4 -i  Done                     05/03/2018 10:20:39
00030 suncat0213 pw.x -npool 4 -i  Done                     05/03/2018 10:20:39
00031 suncat0213 pw.x -npool 4 -i  Done                     05/03/2018 10:20:39