     Program PWSCF v.5.1rc2 (svn rev. 11289) starts on  2May2018 at 11:13:49

     Current dimensions of program PWSCF are:
     Max number of different atomic species (ntypx) = 10
     Max number of k-points (npk) =  40000
     Max angular momentum in pseudopotentials (lmaxx) =  3
     Presently stress not available with electric field

     IMPORTANT: XC functional enforced from input :
     Exchange-correlation      = BEEF-VDW ( 1  4 27 13 2)
     Any further DFT definition will be discarded
     Please, verify this is what you really want

     Subspace diagonalization in iterative solution of the eigenvalue problem:
     a serial algorithm will be used

     bravais-lattice index     =            0
     lattice parameter (alat)  =       1.8897  a.u.
     unit-cell volume          =    3807.2308 (a.u.)^3
     number of atoms/cell      =           13
     number of atomic types    =            2
     number of electrons       =       229.00
     number of Kohn-Sham states=          124
     kinetic-energy cutoff     =      36.7493  Ry
     charge density cutoff     =     367.4932  Ry
     convergence threshold     =      1.0E-05
     mixing beta               =       0.3000
     number of iterations used =           10  plain     mixing
     Exchange-correlation      = BEEF-VDW ( 1  4 27 13 2)
     nstep                     =           50

     celldm(1)=   1.889726  celldm(2)=   0.000000  celldm(3)=   0.000000
     celldm(4)=   0.000000  celldm(5)=   0.000000  celldm(6)=   0.000000

     crystal axes: (cart. coord. in units of alat)
               a(1) = (   5.184823   0.000000   0.000000 )
               a(2) = (   2.592411   4.490188   0.000000 )
               a(3) = (   0.000000   0.000000  24.233390 )

     reciprocal axes: (cart. coord. in units 2 pi/alat)
               b(1) = (  0.192871 -0.111354  0.000000 )
               b(2) = (  0.000000  0.222708  0.000000 )
               b(3) = (  0.000000  0.000000  0.041265 )

     PseudoPot. # 1 for Cu read from file:
     /u/if/mamunm/psp/gbrv1.5pbe/Cu.UPF
     MD5 check sum: 6e991ff952a84172a2a52a1c1e996048
     Pseudo is Ultrasoft + core correction, Zval = 19.0
     Generated by new atomic code, or converted to UPF format
     Using radial grid of  867 points,  6 beta functions with:
                l(1) =   0
                l(2) =   0
                l(3) =   1
                l(4) =   1
                l(5) =   2
                l(6) =   2
     Q(r) pseudized with  8 coefficients,  rinner =    1.150   1.150   1.150
                                                       1.150   1.150

     PseudoPot. # 2 for H  read from file:
     /u/if/mamunm/psp/gbrv1.5pbe/H.UPF
     MD5 check sum: 761ae9a214b05c3daf00ab9f6b793d6f
     Pseudo is Ultrasoft, Zval =  1.0
     Generated by new atomic code, or converted to UPF format
     Using radial grid of  615 points,  2 beta functions with:
                l(1) =   0
                l(2) =   0
     Q(r) pseudized with  8 coefficients,  rinner =    0.700

     vdW kernel table read from file vdW_kernel_table
     MD5 check sum: 095c7af220d748ca6e76c0b4c6cfb241

     atomic species   valence    mass     pseudopotential
        Cu1           19.00    63.54600     Cu( 1.00)
        H1             1.00     1.00800     H ( 1.00)

     No symmetry found

   Cartesian axes

     site n.     atom                  positions (alat units)
         1           Cu1 tau(   1) = (   1.2962057   0.7483647  10.0000000  )
         2           Cu1 tau(   2) = (   3.8886170   0.7483647  10.0000000  )
         3           Cu1 tau(   3) = (   2.5924113   2.9934587  10.0000000  )
         4           Cu1 tau(   4) = (   5.1848226   2.9934587  10.0000000  )
         5           Cu1 tau(   5) = (   5.1848226   1.4967294  12.1166950  )
         6           Cu1 tau(   6) = (   2.5924113   1.4967294  12.1166950  )
         7           Cu1 tau(   7) = (   6.4810283   3.7418234  12.1166950  )
         8           Cu1 tau(   8) = (   3.8886170   3.7418234  12.1166950  )
         9           Cu1 tau(   9) = (   0.0000000   0.0000000  14.2333899  )
        10           Cu1 tau(  10) = (   2.5924113   0.0000000  14.2333899  )
        11           Cu1 tau(  11) = (   1.2962057   2.2450940  14.2333899  )
        12           Cu1 tau(  12) = (   3.8886170   2.2450940  14.2333899  )
        13           H1  tau(  13) = (   1.2962057   0.7483647  15.2928899  )

     number of k points=    20  Fermi-Dirac smearing, width (Ry)=  0.0110
                       cart. coord. in units 2pi/alat
        k(    1) = (   0.0000000   0.0000000   0.0000000), wk =   0.0555556
        k(    2) = (   0.0000000   0.0371180   0.0000000), wk =   0.1111111
        k(    3) = (   0.0000000   0.0742359   0.0000000), wk =   0.1111111
        k(    4) = (   0.0000000  -0.1113539   0.0000000), wk =   0.0555556
        k(    5) = (   0.0321451  -0.0185590   0.0000000), wk =   0.1111111
        k(    6) = (   0.0321451   0.0185590   0.0000000), wk =   0.1111111
        k(    7) = (   0.0321451   0.0556770   0.0000000), wk =   0.1111111
        k(    8) = (   0.0321451  -0.1299129   0.0000000), wk =   0.1111111
        k(    9) = (   0.0321451  -0.0927949   0.0000000), wk =   0.1111111
        k(   10) = (   0.0321451  -0.0556770   0.0000000), wk =   0.1111111
        k(   11) = (   0.0642902  -0.0371180   0.0000000), wk =   0.1111111
        k(   12) = (   0.0642902  -0.0000000   0.0000000), wk =   0.1111111
        k(   13) = (   0.0642902   0.0371180   0.0000000), wk =   0.1111111
        k(   14) = (   0.0642902  -0.1484719   0.0000000), wk =   0.1111111
        k(   15) = (   0.0642902  -0.1113539   0.0000000), wk =   0.1111111
        k(   16) = (   0.0642902  -0.0742359   0.0000000), wk =   0.1111111
        k(   17) = (  -0.0964353   0.0556770   0.0000000), wk =   0.0555556
        k(   18) = (  -0.0964353   0.0927949   0.0000000), wk =   0.1111111
        k(   19) = (  -0.0964353   0.1299129   0.0000000), wk =   0.1111111
        k(   20) = (  -0.0964353  -0.0556770   0.0000000), wk =   0.0555556

     Largest allocated arrays     est. size (Mb)     dimensions
     Largest temporary arrays     est. size (Mb)     dimensions

     Initial potential from superposition of free atoms
     Check: negative starting charge=   -0.000124

     starting charge  216.99997, renormalised to  229.00000

     negative rho (up, down):  1.308E-04 0.000E+00

     *
     * You are using vdW-DF for exchange-correlation in this calculation.
     * Please cite the following three references that made this development
     * possible:
     *
     *   M. Dion, H. Rydberg, E. Schroder, D. C. Langreth, and
     *   B. I. Lundqvist, Phys. Rev. Lett. 92, 246401 (2004).
     *
     *   T. Thonhauser, V. R. Cooper, S. Li, A. Puzder, P. Hyldgaard, and
     *   D. C. Langreth, Phys. Rev. B 76, 125112 (2007).
     *
     *   G. Roman-Perez and J. M. Soler, Phys. Rev. Lett. 103, 096102 (2009).
     *
     *
     * If you are using vdW-DF2, please also cite:
     *
     *   K. Lee, E. D. Murray, L. Kong, B. I. Lundqvist, and
     *   D. C. Langreth, Phys. Rev. B 82, 081101(R) (2010).
     *
     *
     * If you are calculating the stress with vdW-DF, please also cite:
     *
     *   R. Sabatini, E. Kucukbenli, B. Kolb, T. Thonhauser, and
     *   S. de Gironcoli, J. Phys.: Condens. Matter 24, 424209 (2012).
     *

     Carrying out vdW-DF run using the following parameters:

     Nqs =      20    Nr_points =    1024   r_max =   100.000
     q_mesh =
               0.00001000     0.04494208     0.09755937     0.15916263
               0.23128650     0.31572767     0.41458969     0.53033537
               0.66584808     0.82450364     1.01025438     1.22772762
               1.48234092     1.78043706     2.12944203     2.53805004
               3.01644009     3.57652955     4.23227104     5.00000000

     Gradients computed in reciprocal space

     Adding external electric field

     Computed dipole along edir(3) :
        Dipole               -0.3319 Ry au,         -0.8435 Debye
        Dipole field         -0.0011 Ry au

        Potential amp.        0.0978 Ry
        Total length         44.6496 bohr

     Starting wfc are  157 randomized atomic wfcs

     Self-consistent Calculation

     iteration #  1     ecut=    36.75 Ry     beta=0.30
     Davidson diagonalization with overlap
     ethr =  1.00E-02,  avg # of iterations =  5.5

[...]

     total energy              =   -4812.49349781 Ry
     Harris-Foulkes estimate   =   -4872.19932080 Ry
     estimated scf accuracy    <     125.68066147 Ry

[...]

     End of self-consistent calculation

          k = 0.0000 0.0000 0.0000 ( 14321 PWs)   bands (ev):

  -112.3479-112.2385-112.2330-112.2329-112.2005-112.1949-112.1949-112.0067
  -112.0008-112.0006-111.9832-111.9023 -69.7495 -69.7494 -69.7474 -69.6784
   -69.6581 -69.6428 -69.6428 -69.6358 -69.6358 -69.6345 -69.6204 -69.6204
   -69.6171 -69.6104 -69.6104 -69.5966 -69.5966 -69.5905 -69.5469 -69.5370
   -69.5369 -69.4619 -69.4471 -69.4471 -69.4046 -69.4045 -69.3986 -69.3794
   -69.3793 -69.3683 -69.3628 -69.3627 -69.3364 -69.3145 -69.3145 -69.2806
    -8.0697  -6.5464  -5.0289  -4.3452  -4.2173  -4.2173  -4.1415  -4.0399
    -4.0399  -3.9118  -3.6873  -3.6873  -3.6458  -3.6254  -3.6253  -3.3078
    -3.0164  -3.0164  -2.7374  -2.7033  -2.7033  -2.6668  -2.6375  -2.5806
    -2.5806  -2.4580  -2.4580  -2.4192  -2.3960  -2.3947  -2.3946  -2.2971
    -2.2971  -2.2208  -2.2208  -2.0792  -1.8299  -1.8299  -1.8269  -1.8125
    -1.8124  -1.7399  -1.7399  -1.5900  -1.5638  -1.5637  -1.4109  -1.4109
    -1.4029  -1.3802  -1.3802  -1.3299  -1.3299  -1.2897  -1.2897  -1.2881
    -1.2872  -1.2234  -1.1348  -1.1348  -1.0635  -1.0572  -1.0571  -0.4466
     0.3828   0.4420   0.4420   1.0718   1.4894   1.4894   1.8073   1.9136
     1.9136   3.7420   4.0989   4.5462

[...]

          k =-0.0964 0.0557 0.0000 ( 14294 PWs)   bands (ev):

[...]

     the Fermi energy is     0.3016 ev

!    total energy              =   -4860.41803453 Ry
     Harris-Foulkes estimate   =   -4860.41803539 Ry
     estimated scf accuracy    <       0.00000155 Ry

     The total energy is the sum of the following terms:

     one-electron contribution =  -37191.38269747 Ry
     hartree contribution      =   18609.34085485 Ry
     xc contribution           =    -480.76650240 Ry
     ewald contribution        =   14202.41548674 Ry
     electric field correction =       0.00000126 Ry
     smearing contrib. (-TS)   =      -0.02517750 Ry

     convergence has been achieved in  17 iterations

 BEEF-vdW xc energy contributions
           1 :   -426.161384568328
           2 :    386.406128452129
           3 :   -319.021655614069
           4 :    242.539116466129
           5 :   -173.876571022190
           6 :    122.228371125059
           7 :   -87.5890874648588
           8 :    63.8920833310507
           9 :   -44.3018563232492
          10 :    25.3800613620339
          11 :   -8.02941539665198
          12 :   -4.63570675258848
          13 :    10.4975920594096
          14 :   -10.3991242166724
          15 :    7.71601396946039
          16 :   -6.15011305859178
          17 :    7.46858729952015
          18 :   -10.7411964084490
          19 :    13.4374279263803
          20 :   -13.4604308138290
          21 :    10.6513263577810
          22 :   -6.79115452589019
          23 :    4.23658391021945
          24 :   -4.25322987590863
          25 :    6.22482683069904
          26 :   -8.22182875855276
          27 :    8.44092711652559
          28 :   -6.46250962555348
          29 :    3.46536294966336
          30 :   -1.31129054647039
          31 :   -33.9013902678590
          32 :   -23.1520238141166

     Forces acting on atoms (Ry/au):

     negative rho (up, down):  1.073E-03 0.000E+00
     atom    1 type  1   force =    -0.00000543   -0.00000574    0.00835620
     atom    2 type  1   force =     0.00000220    0.00065698    0.00408056
     atom    3 type  1   force =     0.00057168   -0.00032410    0.00408354
     atom    4 type  1   force =    -0.00057283   -0.00032929    0.00398079
     atom    5 type  1   force =    -0.00184753    0.00105210   -0.00580941
     atom    6 type  1   force =     0.00185188    0.00106932   -0.00581482
     atom    7 type  1   force =     0.00001138    0.00000615    0.00848198
     atom    8 type  1   force =    -0.00001223   -0.00212591   -0.00580414
     atom    9 type  1   force =     0.00546736    0.00315028    0.00665082
     atom   10 type  1   force =    -0.00546649    0.00314261    0.00665286
     atom   11 type  1   force =    -0.00000747   -0.00630141    0.00665369
     atom   12 type  1   force =     0.00000795    0.00000951   -0.00900769
     atom   13 type  2   force =    -0.00000048   -0.00000050   -0.02250436

     Total force =     0.028976     Total SCF correction =     0.002608

     entering subroutine stress ...

     negative rho (up, down):  1.073E-03 0.000E+00
          total   stress  (Ry/bohr**3)                   (kbar)     P=  -25.96
  -0.00019268   0.00000000   0.00000000        -28.34      0.00      0.00
   0.00000000  -0.00019268   0.00000000          0.00    -28.34      0.00
   0.00000000   0.00000000  -0.00014416          0.00      0.00    -21.21

     BFGS Geometry Optimization

     number of scf cycles    =   1
     number of bfgs steps    =   0

     energy   new            =   -4860.4180345253 Ry

     new trust radius        =       0.0225043644 bohr
     new conv_thr            =       0.0000099958 Ry

ATOMIC_POSITIONS (crystal)
Cu1      0.166666667   0.166666667   0.412653782    0   0   0
Cu1      0.666666667   0.166666667   0.412653782    0   0   0
Cu1      0.166666667   0.666666667   0.412653782    0   0   0
Cu1      0.666666667   0.666666667   0.412653782    0   0   0
Cu1      0.833333333   0.333333333   0.500000000    0   0   0
Cu1      0.333333333   0.333333333   0.500000000    0   0   0
Cu1      0.833333333   0.833333333   0.500000000    0   0   0
Cu1      0.333333333   0.833333333   0.500000000    0   0   0
Cu1      0.000372381   0.000371267   0.587491450
Cu1      0.499256894   0.000370363   0.587491495
Cu1      0.000370554   0.499257367   0.587491513
Cu1      0.500000251   0.500001121   0.587149520
H1       0.166666647   0.166666607   0.630575465

     Writing output data file calc.save
     Check: negative starting charge=   -0.000124
     NEW-OLD atomic charge density approx. for the potential
     Check: negative starting charge=   -0.000125

[...]

     Total force =     0.019793     Total SCF correction =     0.018413
     SCF correction compared to forces is large: reduce conv_thr to get better values

[...]

     energy   old            =   -4860.4180345253 Ry
     energy   new            =   -4860.4187943014 Ry

     CASE: energy  _new < energy  _old

     new trust radius        =       0.0247548009 bohr
     new conv_thr            =       0.0000001000 Ry

[...]

     Threshold (ethr) on eigenvalues was too large:
     Diagonalizing with lowered threshold

     Davidson diagonalization with overlap
     ethr =  6.30E-08,  avg # of iterations =  1.0

[...]

     WARNING: bfgs curvature condition failed, Theta= 0.717
     new trust radius        =       0.0371322013 bohr
     new conv_thr            =       0.0000001000 Ry

[...]

     WARNING: info= 39 for Hessian
     new trust radius        =       0.0556983019 bohr
     new conv_thr            =       0.0000001000 Ry

[...]

     Total force =     0.013935     Total SCF correction =     0.001115

[...]

     number of scf cycles    =   8
     number of bfgs steps    =   7

     energy   old            =   -4860.4218323949 Ry
     energy   new            =   -4860.4219667690 Ry

     CASE: energy  _new < energy  _old

     WARNING: info= 39 for Hessian
     new trust radius        =       0.0176677322 bohr
     new conv_thr            =       0.0000001000 Ry

ATOMIC_POSITIONS (crystal)
Cu1      0.166666667   0.166666667   0.412653782    0   0   0
Cu1      0.666666667   0.166666667   0.412653782    0   0   0
Cu1      0.166666667   0.666666667   0.412653782    0   0   0
Cu1      0.666666667   0.666666667   0.412653782    0   0   0
Cu1      0.833333333   0.333333333   0.500000000    0   0   0
Cu1      0.333333333   0.333333333   0.500000000    0   0   0
Cu1      0.833333333   0.833333333   0.500000000    0   0   0
Cu1      0.333333333   0.833333333   0.500000000    0   0   0
Cu1     -0.000881169  -0.000882113   0.587611251
Cu1      0.501769977  -0.000886263   0.587611791
Cu1     -0.000887492   0.501773736   0.587610940
Cu1      0.499999960   0.499999031   0.585059691
H1       0.166666592   0.166667916   0.623674640

     Writing output data file calc.save
     Check: negative starting charge=   -0.000129
     NEW-OLD atomic charge density approx. for the potential
     Check: negative starting charge=   -0.000130

[...]

     Self-consistent Calculation

[...]

     total energy              =   -4860.42210767 Ry
     Harris-Foulkes estimate   =   -4860.42210769 Ry
     estimated scf accuracy    <       0.00000036 Ry

     iteration #  9     ecut=    36.75 Ry     beta=0.30
     Davidson diagonalization with overlap
     ethr =  1.59E-10,  avg # of iterations =  2.0

[...]

     negative rho (up, down):  1.083E-03 0.000E+00

     Adding external electric field

     Computed dipole along edir(3) :
        Dipole               -0.0076 Ry au,         -0.0192 Debye
        Dipole field         -0.0000 Ry au

        Potential amp.        0.0022 Ry
        Total length         44.6496 bohr

     End of self-consistent calculation

[...]

          k = 0.0643-0.0742 0.0000 ( 14299 PWs)   bands (ev):

[...]

          k =-0.0964-0.0557 0.0000 ( 14294 PWs)   bands (ev):

  -112.3166-112.2211-112.2193-112.2172-112.2133-112.2116-112.2098-111.9728
  -111.9714-111.9691-111.9639-111.9207 -69.7195 -69.7157 -69.7107 -69.6809
   -69.6645 -69.6510 -69.6408 -69.6291 -69.6248 -69.6188 -69.6144 -69.6132
   -69.6117 -69.6081 -69.6033 -69.6029 -69.5980 -69.5887 -69.5561 -69.5528
   -69.5499 -69.4149 -69.4066 -69.3936 -69.3872 -69.3849 -69.3826 -69.3662
   -69.3597 -69.3340 -69.3324 -69.3304 -69.3300 -69.3280 -69.3187 -69.3072
    -6.7237  -6.1583  -5.6278  -4.5543  -4.1236  -3.9285  -3.9059  -3.6701
    -3.6593  -3.6498  -3.5303  -3.3577  -3.3411  -3.2097  -3.1849  -3.1075
    -3.0819  -2.9652  -2.9309  -2.9277  -2.9070  -2.8539  -2.8337  -2.6377
    -2.6060  -2.5481  -2.5214  -2.4877  -2.4550  -2.4458  -2.4012  -2.3413
    -2.3190  -2.2998  -2.2960  -2.2808  -2.2567  -2.2334  -2.2274  -2.2188
    -2.0276  -2.0037  -1.9907  -1.9361  -1.9318  -1.8727  -1.8391  -1.8111
    -1.7675  -1.7312  -1.7001  -1.6607  -1.6379  -1.5863  -1.5808  -1.5301
    -1.4697  -1.3914  -1.3606  -1.3291  -1.3006  -1.2732  -1.2101  -1.2060
    -0.1822   0.2655   0.3583   0.5555   1.2217   1.3941   2.5887   3.1389
     3.5949   3.8235   5.7318   5.8309

     the Fermi energy is     0.3264 ev

!    total energy              =   -4860.42210771 Ry
     Harris-Foulkes estimate   =   -4860.42210769 Ry
     estimated scf accuracy    <       0.00000009 Ry

     The total energy is the sum of the following terms:

     one-electron contribution =  -37250.59023888 Ry
     hartree contribution      =   18639.03406953 Ry
     xc contribution           =    -480.81159011 Ry
     ewald contribution        =   14231.97045791 Ry
     electric field correction =       0.00000019 Ry
     smearing contrib. (-TS)   =      -0.02480636 Ry

     convergence has been achieved in   9 iterations

 BEEF-vdW xc energy contributions
           1 :   -426.209160139905
           2 :    386.471047302315
           3 :   -319.099574277553
           4 :    242.603648738513
           5 :   -173.897572475811
           6 :    122.194650228188
           7 :   -87.5189965801533
           8 :    63.8231282899354
           9 :   -44.2659370404724
          10 :    25.3822816547811
          11 :   -8.04624180282474
          12 :   -4.63718199970140
          13 :    10.5334962714603
          14 :   -10.4551423721753
          15 :    7.75673258357671
          16 :   -6.14505407047147
          17 :    7.41566668636437
          18 :   -10.6699395885457
          19 :    13.3893266477183
          20 :   -13.4603994997648
          21 :    10.6905009946908
          22 :   -6.83349843246640
          23 :    4.24486200983017
          24 :   -4.21573343615648
          25 :    6.16402945999357
          26 :   -8.17895503037704
          27 :    8.44674056432268
          28 :   -6.51471592672732
          29 :    3.52893171102380
          30 :   -1.34209424871403
          31 :   -33.9049628898630
          32 :   -23.1581334536672

     Forces acting on atoms (Ry/au):

     negative rho (up, down):  1.083E-03 0.000E+00
     atom    1 type  1   force =     0.00000003    0.00000004    0.00638669
     atom    2 type  1   force =     0.00000007    0.00038677    0.00262812
     atom    3 type  1   force =     0.00033494   -0.00019330    0.00262816
     atom    4 type  1   force =    -0.00033492   -0.00019331    0.00262825
     atom    5 type  1   force =    -0.00015705    0.00009180   -0.00695878
     atom    6 type  1   force =     0.00015688    0.00009042   -0.00695778
     atom    7 type  1   force =    -0.00000010    0.00000069    0.00843111
     atom    8 type  1   force =     0.00000119   -0.00018223   -0.00695812
     atom    9 type  1   force =    -0.00110325   -0.00063552   -0.00079673
     atom   10 type  1   force =     0.00109890   -0.00063067   -0.00079805
     atom   11 type  1   force =     0.00000185    0.00126284   -0.00079392
     atom   12 type  1   force =     0.00000039    0.00000061   -0.00091178
     atom   13 type  2   force =     0.00000108    0.00000184    0.00147282

     Total force =     0.003118     Total SCF correction =     0.001160
     SCF correction compared to forces is large: reduce conv_thr to get better values

     entering subroutine stress ...

     negative rho (up, down):  1.083E-03 0.000E+00
          total   stress  (Ry/bohr**3)                   (kbar)     P=  -21.26
  -0.00016301  -0.00000000  -0.00000000        -23.98     -0.00     -0.00
  -0.00000000  -0.00016301   0.00000000         -0.00    -23.98      0.00
  -0.00000000   0.00000000  -0.00010758         -0.00      0.00    -15.83

     bfgs converged in   9 scf cycles and   8 bfgs steps
     (criteria: energy <  1.0E+00, force <  1.9E-03)

     End of BFGS Geometry Optimization

     Final energy   =   -4860.4221077144 Ry
Begin final coordinates

ATOMIC_POSITIONS (crystal)
Cu1      0.166666667   0.166666667   0.412653782    0   0   0
Cu1      0.666666667   0.166666667   0.412653782    0   0   0
Cu1      0.166666667   0.666666667   0.412653782    0   0   0
Cu1      0.666666667   0.666666667   0.412653782    0   0   0
Cu1      0.833333333   0.333333333   0.500000000    0   0   0
Cu1      0.333333333   0.333333333   0.500000000    0   0   0
Cu1      0.833333333   0.833333333   0.500000000    0   0   0
Cu1      0.333333333   0.833333333   0.500000000    0   0   0
Cu1     -0.000881169  -0.000882113   0.587611251
Cu1      0.501769977  -0.000886263   0.587611791
Cu1     -0.000887492   0.501773736   0.587610940
Cu1      0.499999960   0.499999031   0.585059691
H1       0.166666592   0.166667916   0.623674640
End final coordinates

     Writing output data file calc.save

     General routines

     Parallel routines

   This run was terminated on:  11:50:32   2May2018

   JOB DONE.
Job  /afs/slac/g/suncat/bin/suncat-tsmpirun -x LD_LIBRARY_PATH -wdir /scratch/qe580373_n2a7G pw.x -npool 4 -in pw.inp

TID   HOST_NAME   COMMAND_LINE            STATUS            TERMINATION_TIME
00000 suncat0055 pw.x -npool 4 -i  Done                     05/02/2018 11:50:32
00001 suncat0055 pw.x -npool 4 -i  Done                     05/02/2018 11:50:32
00002 suncat0055 pw.x -npool 4 -i  Done                     05/02/2018 11:50:32
00003 suncat0055 pw.x -npool 4 -i  Done                     05/02/2018 11:50:32
00004 suncat0055 pw.x -npool 4 -i  Done                     05/02/2018 11:50:32
00005 suncat0055 pw.x -npool 4 -i  Done                     05/02/2018 11:50:32
00006 suncat0055 pw.x -npool 4 -i  Done                     05/02/2018 11:50:32
00007 suncat0055 pw.x -npool 4 -i  Done                     05/02/2018 11:50:32
00008 suncat0049 pw.x -npool 4 -i  Done                     05/02/2018 11:50:32
00009 suncat0049 pw.x -npool 4 -i  Done                     05/02/2018 11:50:32
00010 suncat0049 pw.x -npool 4 -i  Done                     05/02/2018 11:50:32
00011 suncat0049 pw.x -npool 4 -i  Done                     05/02/2018 11:50:32
00012 suncat0049 pw.x -npool 4 -i  Done                     05/02/2018 11:50:32
00013 suncat0049 pw.x -npool 4 -i  Done                     05/02/2018 11:50:32
00014 suncat0049 pw.x -npool 4 -i  Done                     05/02/2018 11:50:32
00015 suncat0049 pw.x -npool 4 -i  Done                     05/02/2018 11:50:32
00016 suncat0042 pw.x -npool 4 -i  Done                     05/02/2018 11:50:32
00017 suncat0042 pw.x -npool 4 -i  Done                     05/02/2018 11:50:32
00018 suncat0042 pw.x -npool 4 -i  Done                     05/02/2018 11:50:32
00019 suncat0042 pw.x -npool 4 -i  Done                     05/02/2018 11:50:32
00020 suncat0042 pw.x -npool 4 -i  Done                     05/02/2018 11:50:32
00021 suncat0042 pw.x -npool 4 -i  Done                     05/02/2018 11:50:32
00022 suncat0042 pw.x -npool 4 -i  Done                     05/02/2018 11:50:32
00023 suncat0042 pw.x -npool 4 -i  Done                     05/02/2018 11:50:32
00024 suncat0033 pw.x -npool 4 -i  Done                     05/02/2018 11:50:32
00025 suncat0033 pw.x -npool 4 -i  Done                     05/02/2018 11:50:32
00026 suncat0033 pw.x -npool 4 -i  Done                     05/02/2018 11:50:32
00027 suncat0033 pw.x -npool 4 -i  Done                     05/02/2018 11:50:32
00028 suncat0033 pw.x -npool 4 -i  Done                     05/02/2018 11:50:32
00029 suncat0033 pw.x -npool 4 -i  Done                     05/02/2018 11:50:32
00030 suncat0033 pw.x -npool 4 -i  Done                     05/02/2018 11:50:32
00031 suncat0033 pw.x -npool 4 -i  Done                     05/02/2018 11:50:32