     Program PWSCF v.5.1rc2 (svn rev. 11289) starts on  3May2018 at  1:10:43

     Current dimensions of program PWSCF are:
     Max number of different atomic species (ntypx) = 10
     Max number of k-points (npk) =  40000
     Max angular momentum in pseudopotentials (lmaxx) =  3
     Presently stress not available with electric field

     IMPORTANT: XC functional enforced from input :
     Exchange-correlation      = BEEF-VDW ( 1  4 27 13 2)
     Any further DFT definition will be discarded
     Please, verify this is what you really want

     Subspace diagonalization in iterative solution of the eigenvalue problem:
     a serial algorithm will be used

     bravais-lattice index     =            0
     lattice parameter (alat)  =       1.8897  a.u.
     unit-cell volume          =    7725.1200 (a.u.)^3
     number of atoms/cell      =           13
     number of atomic types    =            2
     number of electrons       =       138.00
     number of Kohn-Sham states=           79
     kinetic-energy cutoff     =      36.7493  Ry
     charge density cutoff     =     367.4932  Ry
     convergence threshold     =      1.0E-05
     mixing beta               =       0.3000
     number of iterations used =           10  plain     mixing
     Exchange-correlation      = BEEF-VDW ( 1  4 27 13 2)
     nstep                     =           50

     celldm(1)=   1.889726  celldm(2)=   0.000000  celldm(3)=   0.000000
     celldm(4)=   0.000000  celldm(5)=   0.000000  celldm(6)=   0.000000

     crystal axes: (cart. coord. in units of alat)
               a(1) = (   7.152277   0.000000   0.000000 )
               a(2) = (   3.576139   6.194054   0.000000 )
               a(3) = (   0.000000   0.000000  25.839810 )

     reciprocal axes: (cart. coord. in units 2 pi/alat)
               b(1) = (  0.139816 -0.080723  0.000000 )
               b(2) = (  0.000000  0.161445  0.000000 )
               b(3) = (  0.000000  0.000000  0.038700 )

     PseudoPot. # 1 for Y  read from file:
     /u/if/mamunm/psp/gbrv1.5pbe/Y.UPF
     MD5 check sum: d034151ed7554c50b6e82763ed42c788
     Pseudo is Ultrasoft + core correction, Zval = 11.0
     Generated by new atomic code, or converted to UPF format
     Using radial grid of  885 points,  6 beta functions with:
                l(1) =   0
                l(2) =   0
                l(3) =   1
                l(4) =   1
                l(5) =   2
                l(6) =   2
     Q(r) pseudized with  8 coefficients,  rinner =    1.200   1.200   1.200
                                                       1.200   1.200

     PseudoPot. # 2 for S  read from file:
     /u/if/mamunm/psp/gbrv1.5pbe/S.UPF
     MD5 check sum: 88d86576ff6df21479756cfb9bdac1df
     Pseudo is Ultrasoft + core correction, Zval =  6.0
     Generated by new atomic code, or converted to UPF format
     Using radial grid of  907 points,  6 beta functions with:
                l(1) =   0
                l(2) =   0
                l(3) =   1
                l(4) =   1
                l(5) =   2
                l(6) =   2
     Q(r) pseudized with  8 coefficients,  rinner =    1.300   1.300   1.300
                                                       1.300   1.300

     vdW kernel table read from file vdW_kernel_table
     MD5 check sum: 095c7af220d748ca6e76c0b4c6cfb241

     atomic species   valence    mass     pseudopotential
        Y1            11.00    88.90584     Y ( 1.00)
        S1             6.00    32.06000     S ( 1.00)

     No symmetry found

   Cartesian axes

     site n.     atom                  positions (alat units)
         1           Y1  tau(   1) = (   1.7880693   1.0323423  10.0000000  )
         2           Y1  tau(   2) = (   5.3642080   1.0323423  10.0000000  )
         3           Y1  tau(   3) = (   3.5761386   4.1293692  10.0000000  )
         4           Y1  tau(   4) = (   7.1522773   4.1293692  10.0000000  )
         5           Y1  tau(   5) = (   7.1522773   2.0646846  12.9199050  )
         6           Y1  tau(   6) = (   3.5761386   2.0646846  12.9199050  )
         7           Y1  tau(   7) = (   8.9403466   5.1617115  12.9199050  )
         8           Y1  tau(   8) = (   5.3642080   5.1617115  12.9199050  )
         9           Y1  tau(   9) = (   0.0000000   0.0000000  15.8398100  )
        10           Y1  tau(  10) = (   3.5761386   0.0000000  15.8398100  )
        11           Y1  tau(  11) = (   1.7880693   3.0970269  15.8398100  )
        12           Y1  tau(  12) = (   5.3642080   3.0970269  15.8398100  )
        13           S1  tau(  13) = (   1.7880693   0.0000000  18.0523100  )

     number of k points=    20  Fermi-Dirac smearing, width (Ry)=  0.0110
                       cart. coord. in units 2pi/alat
        k(    1) = (   0.0000000   0.0000000   0.0000000), wk =   0.0555556
        k(    2) = (   0.0000000   0.0269075   0.0000000), wk =   0.1111111
        k(    3) = (   0.0000000   0.0538151   0.0000000), wk =   0.1111111
        k(    4) = (   0.0000000  -0.0807226   0.0000000), wk =   0.0555556
        k(    5) = (   0.0233026  -0.0134538   0.0000000), wk =   0.1111111
        k(    6) = (   0.0233026   0.0134538   0.0000000), wk =   0.1111111
        k(    7) = (   0.0233026   0.0403613   0.0000000), wk =   0.1111111
        k(    8) = (   0.0233026  -0.0941763   0.0000000), wk =   0.1111111
        k(    9) = (   0.0233026  -0.0672688   0.0000000), wk =   0.1111111
        k(   10) = (   0.0233026  -0.0403613   0.0000000), wk =   0.1111111
        k(   11) = (   0.0466052  -0.0269075   0.0000000), wk =   0.1111111
        k(   12) = (   0.0466052   0.0000000   0.0000000), wk =   0.1111111
        k(   13) = (   0.0466052   0.0269075   0.0000000), wk =   0.1111111
        k(   14) = (   0.0466052  -0.1076301   0.0000000), wk =   0.1111111
        k(   15) = (   0.0466052  -0.0807226   0.0000000), wk =   0.1111111
        k(   16) = (   0.0466052  -0.0538151   0.0000000), wk =   0.1111111
        k(   17) = (  -0.0699078   0.0403613   0.0000000), wk =   0.0555556
        k(   18) = (  -0.0699078   0.0672688   0.0000000), wk =   0.1111111
        k(   19) = (  -0.0699078   0.0941763   0.0000000), wk =   0.1111111
        k(   20) = (  -0.0699078  -0.0403613   0.0000000), wk =   0.0555556

     Largest allocated arrays     est. size (Mb)     dimensions
     Largest temporary arrays     est. size (Mb)     dimensions

     Initial potential from superposition of free atoms
     Check: negative starting charge=   -0.000526

     starting charge  137.94633, renormalised to  138.00000

     negative rho (up, down):  5.264E-04 0.000E+00

     *
     * You are using vdW-DF for exchange-correlation in this calculation.
     * Please cite the following three references that made this development
     * possible:
     *
     *   M. Dion, H. Rydberg, E. Schroder, D. C. Langreth, and
     *   B. I. Lundqvist, Phys. Rev. Lett. 92, 246401 (2004).
     *
     *   T. Thonhauser, V. R. Cooper, S. Li, A. Puzder, P. Hyldgaard, and
     *   D. C. Langreth, Phys. Rev. B 76, 125112 (2007).
     *
     *   G. Roman-Perez and J. M. Soler, Phys. Rev. Lett. 103, 096102 (2009).
     *
     *
     * If you are using vdW-DF2, please also cite:
     *
     *   K. Lee, E. D. Murray, L. Kong, B. I. Lundqvist, and
     *   D. C. Langreth, Phys. Rev. B 82, 081101(R) (2010).
     *
     *
     * If you are calculating the stress with vdW-DF, please also cite:
     *
     *   R. Sabatini, E. Kucukbenli, B. Kolb, T. Thonhauser, and
     *   S. de Gironcoli, J. Phys.: Condens. Matter 24, 424209 (2012).
     *

     Carrying out vdW-DF run using the following parameters:

     Nqs =      20    Nr_points =    1024   r_max =   100.000
     q_mesh =
               0.00001000     0.04494208     0.09755937     0.15916263
               0.23128650     0.31572767     0.41458969     0.53033537
               0.66584808     0.82450364     1.01025438     1.22772762
               1.48234092     1.78043706     2.12944203     2.53805004
               3.01644009     3.57652955     4.23227104     5.00000000

     Gradients computed in reciprocal space

     Adding external electric field

     Computed dipole along edir(3) :
        Dipole               -0.0223 Ry au,         -0.0566 Debye
        Dipole field         -0.0000 Ry au

        Potential amp.        0.0035 Ry
        Total length         47.6094 bohr

     Starting wfc are  160 randomized atomic wfcs

     Self-consistent Calculation

     iteration #  1     ecut=    36.75 Ry     beta=0.30
     Davidson diagonalization with overlap
     ethr =  1.00E-02,  avg # of iterations =  2.0

[...]

     total energy              =   -1147.15575696 Ry
     Harris-Foulkes estimate   =   -1149.21365552 Ry
     estimated scf accuracy    <       4.46362559 Ry

[...]

     End of self-consistent calculation

          k = 0.0000 0.0000 0.0000 ( 28997 PWs)   bands (ev):

   -42.7789 -42.7425 -42.6612 -42.6209 -42.6175 -42.6162 -42.4349 -42.4145
   -42.1086 -42.0710 -42.0669 -42.0567 -22.8287 -22.8250 -22.7837 -22.7727
   -22.7665 -22.7645 -22.7623 -22.7193 -22.6918 -22.6245 -22.6203 -22.6201
   -22.5029 -22.4595 -22.4431 -22.4414 -22.4399 -22.4077 -22.3771 -22.3424
   -22.3424 -22.3168 -22.2762 -22.2260 -22.2188 -22.2175 -22.1605 -22.0152
   -21.9976 -21.9912 -21.9768 -21.9318 -21.9247 -21.9227 -21.8296 -21.8288
   -10.6636  -3.5928  -2.6952  -1.7453  -1.5082  -1.4600  -1.3590  -0.9147
    -0.8594  -0.8257  -0.7844  -0.7614  -0.7094  -0.3816  -0.3487  -0.2243
    -0.0014   0.0168   0.0656   0.4253   0.5306   0.6296   0.8733   1.2740
     1.3574   1.3848   1.3917   1.4706   1.5201   1.8054   1.8776

[...]

          k =-0.0699 0.0404 0.0000 ( 29048 PWs)   bands (ev):

[...]

     the Fermi energy is     0.6857 ev

!    total energy              =   -1148.86963327 Ry
     Harris-Foulkes estimate   =   -1148.86961853 Ry
     estimated scf accuracy    <       0.00000381 Ry

     The total energy is the sum of the following terms:

     one-electron contribution =   -5497.01203380 Ry
     hartree contribution      =    2741.28096265 Ry
     xc contribution           =    -347.59850784 Ry
     ewald contribution        =    1954.58135934 Ry
     electric field correction =       0.00067271 Ry
     smearing contrib. (-TS)   =      -0.12208633 Ry

     convergence has been achieved in  18 iterations

 BEEF-vdW xc energy contributions
           1 :   -302.991748318668
           2 :    271.886076124338
           3 :   -218.385569947572
           4 :    155.677956174362
           5 :   -96.0019837225924
           6 :    47.0487762210506
           7 :   -11.4241313899690
           8 :   -11.5897306065276
           9 :    23.7714402672198
          10 :   -26.6806530105926
          11 :    21.7282471556415
          12 :   -10.9622284352396
          13 :   -2.43343532934352
          14 :    14.5602912068174
          15 :   -22.0193277861782
          16 :    23.1530927793758
          17 :   -18.5104040532768
          18 :    10.2799163220170
          19 :   -1.13345980401698
          20 :   -6.78834919286226
          21 :    12.2733843578141
          22 :   -14.8724574917488
          23 :    14.5712860532535
          24 :   -11.6538616363250
          25 :    6.79435774488479
          26 :   -1.14014981962021
          27 :   -3.86986999324068
          28 :    6.97235964255663
          29 :   -7.58439874578983
          30 :    6.01898581727050
          31 :   -29.1572907610037
          32 :   -19.9221470167509

     Forces acting on atoms (Ry/au):

     negative rho (up, down):  2.033E-05 0.000E+00
     atom    1 type  1   force =     0.00000259   -0.00030931    0.00366494
     atom    2 type  1   force =    -0.00000159   -0.00079683    0.00390245
     atom    3 type  1   force =    -0.00034337    0.00048134    0.00474191
     atom    4 type  1   force =     0.00033790    0.00047513    0.00473551
     atom    5 type  1   force =     0.00011484    0.00328089    0.00303705
     atom    6 type  1   force =    -0.00012754    0.00327753    0.00302138
     atom    7 type  1   force =     0.00000428   -0.00328173   -0.00517752
     atom    8 type  1   force =     0.00000458   -0.00319449   -0.00501261
     atom    9 type  1   force =     0.02986881    0.00110985    0.03379559
     atom   10 type  1   force =    -0.02986919    0.00112083    0.03378938
     atom   11 type  1   force =     0.00001698   -0.01858354    0.00291419
     atom   12 type  1   force =    -0.00000961    0.01688514    0.00279896
     atom   13 type  2   force =     0.00000133   -0.00046480   -0.08621124

     Total force =     0.110227     Total SCF correction =     0.004586

     entering subroutine stress ...

     negative rho (up, down):  2.033E-05 0.000E+00
          total   stress  (Ry/bohr**3)                   (kbar)     P=   -5.52
  -0.00002075  -0.00000000   0.00000000         -3.05     -0.00      0.00
  -0.00000000  -0.00001961  -0.00000010         -0.00     -2.88     -0.01
   0.00000000  -0.00000010  -0.00007216          0.00     -0.01    -10.61

     BFGS Geometry Optimization

     number of scf cycles    =   1
     number of bfgs steps    =   0

     energy   new            =   -1148.8696332696 Ry

     new trust radius        =       0.0862124907 bohr
     new conv_thr            =       0.0000099958 Ry

ATOMIC_POSITIONS (crystal)
Y1       0.166666667   0.166666667   0.386999750    0   0   0
Y1       0.666666667   0.166666667   0.386999750    0   0   0
Y1       0.166666667   0.666666667   0.386999750    0   0   0
Y1       0.666666667   0.666666667   0.386999750    0   0   0
Y1       0.833333333   0.333333333   0.500000000    0   0   0
Y1       0.333333333   0.333333333   0.500000000    0   0   0
Y1       0.833333333   0.833333333   0.500000000    0   0   0
Y1       0.333333333   0.833333333   0.500000000    0   0   0
Y1       0.002162502   0.000094818   0.613692355
Y1       0.497742184   0.000095756   0.613692227
Y1       0.000795081   0.498412350   0.613059930
Y1       0.499278014   0.501442550   0.613057570
S1       0.250019953  -0.000039709   0.696858412

     Writing output data file calc.save
     Check: negative starting charge=   -0.000526
     NEW-OLD atomic charge density approx. for the potential
     Check: negative starting charge=   -0.000530

[...]

     energy   old            =   -1148.8696332696 Ry
     energy   new            =   -1148.8808431805 Ry

     CASE: energy  _new < energy  _old

     WARNING: bfgs curvature condition failed, Theta= 0.947
     new trust radius        =       0.0948337398 bohr
     new conv_thr            =       0.0000001000 Ry

[...]

     Threshold (ethr) on eigenvalues was too large:
     Diagonalizing with lowered threshold

     Davidson diagonalization with overlap
     ethr =  5.30E-08,  avg # of iterations =  9.0

[...]

     WARNING: bfgs curvature condition failed, Theta= 0.921
     new trust radius        =       0.0239675194 bohr
     new conv_thr            =       0.0000001000 Ry

[...]

     Total force =     0.004562     Total SCF correction =     0.000113

[...]

     Total force =     0.003719     Total SCF correction =     0.000489
     SCF correction compared to forces is large: reduce conv_thr to get better values

[...]

     number of scf cycles    =  17
     number of bfgs steps    =  16

     energy   old            =   -1148.9085310201 Ry
     energy   new            =   -1148.9085570526 Ry

     CASE: energy  _new < energy  _old

     new trust radius        =       0.0091378008 bohr
     new conv_thr            =       0.0000001000 Ry

ATOMIC_POSITIONS (crystal)
Y1       0.166666667   0.166666667   0.386999750    0   0   0
Y1       0.666666667   0.166666667   0.386999750    0   0   0
Y1       0.166666667   0.666666667   0.386999750    0   0   0
Y1       0.666666667   0.666666667   0.386999750    0   0   0
Y1       0.833333333   0.333333333   0.500000000    0   0   0
Y1       0.333333333   0.333333333   0.500000000    0   0   0
Y1       0.833333333   0.833333333   0.500000000    0   0   0
Y1       0.333333333   0.833333333   0.500000000    0   0   0
Y1      -0.006005764   0.002046607   0.610831570
Y1       0.503959814   0.002047140   0.610831494
Y1       0.012673529   0.474654024   0.613814193
Y1       0.487151729   0.525695348   0.613358787
S1       0.250589752  -0.001178073   0.681730737

     Writing output data file calc.save
     Check: negative starting charge=   -0.000558
     NEW-OLD atomic charge density approx. for the potential
     Check: negative starting charge=   -0.000558

[...]

     Self-consistent Calculation

[...]

     Threshold (ethr) on eigenvalues was too large:
     Diagonalizing with lowered threshold

     Davidson diagonalization with overlap
     ethr =  4.87E-08,  avg # of iterations =  6.3

[...]

     total energy              =   -1148.90857335 Ry
     Harris-Foulkes estimate   =   -1148.90857340 Ry
     estimated scf accuracy    <       0.00000032 Ry

     iteration #  9     ecut=    36.75 Ry     beta=0.30
     Davidson diagonalization with overlap
     ethr =  1.86E-10,  avg # of iterations =  2.6

[...]

     negative rho (up, down):  2.090E-05 0.000E+00

     Adding external electric field

     Computed dipole along edir(3) :
        Dipole               -0.3119 Ry au,         -0.7928 Debye
        Dipole field         -0.0005 Ry au

        Potential amp.        0.0483 Ry
        Total length         47.6094 bohr

     End of self-consistent calculation

[...]

          k = 0.0466-0.0538 0.0000 ( 29098 PWs)   bands (ev):

[...]

          k =-0.0699-0.0404 0.0000 ( 29048 PWs)   bands (ev):

   -42.5608 -42.5086 -42.4022 -42.4013 -42.3807 -42.3798 -42.0702 -42.0651
   -41.8523 -41.8361 -41.8280 -41.7801 -22.5914 -22.5359 -22.5087 -22.4700
   -22.4494 -22.4465 -22.4365 -22.4191 -22.4172 -22.4008 -22.3809 -22.3784
   -22.3212 -22.3208 -22.2878 -22.2878 -22.1545 -22.1536 -22.1194 -22.1159
   -22.0614 -22.0320 -21.9894 -21.9755 -21.9057 -21.8853 -21.7954 -21.7818
   -21.7693 -21.7597 -21.7500 -21.7445 -21.7272 -21.6893 -21.6394 -21.6124
   -11.2963  -2.5493  -2.2839  -2.2318  -1.9338  -1.8994  -1.1201  -1.0517
    -0.4628  -0.4226  -0.2365  -0.1930  -0.0006   0.0233   0.6262   0.6568
     0.6713   0.7449   0.7698   0.7750   0.9259   0.9718   1.0228   1.0637
     1.0677   1.1432   1.3102   1.3584   1.3875   1.4065   1.4497

     the Fermi energy is     0.9250 ev

!    total energy              =   -1148.90857330 Ry
     Harris-Foulkes estimate   =   -1148.90857338 Ry
     estimated scf accuracy    <       0.00000007 Ry

     The total energy is the sum of the following terms:

     one-electron contribution =   -5576.36481471 Ry
     hartree contribution      =    2781.95416954 Ry
     xc contribution           =    -347.77822036 Ry
     ewald contribution        =    1993.40354374 Ry
     electric field correction =       0.00015825 Ry
     smearing contrib. (-TS)   =      -0.12340976 Ry

     convergence has been achieved in   9 iterations

 BEEF-vdW xc energy contributions
           1 :   -303.172861777885
           2 :    272.131081006272
           3 :   -218.685019678902
           4 :    155.959607263493
           5 :   -96.1938259438529
           6 :    47.1270464518362
           7 :   -11.4158168109942
           8 :   -11.6381343083000
           9 :    23.8248714024171
          10 :   -26.7260238338566
          11 :    21.7684309389523
          12 :   -11.0052882341108
          13 :   -2.38284377913612
          14 :    14.5050667241820
          15 :   -21.9686907346139
          16 :    23.1174591819309
          17 :   -18.4960973976104
          18 :    10.2867792346555
          19 :   -1.15591003407036
          20 :   -6.75857990768304
          21 :    12.2446217510129
          22 :   -14.8509781889570
          23 :    14.5596402030691
          24 :   -11.6502641175872
          25 :    6.79357125195259
          26 :   -1.13567059260140
          27 :   -3.88274292868869
          28 :    6.99397531784507
          29 :   -7.61052863256259
          30 :    6.04344986219007
          31 :   -29.1713926382964
          32 :   -19.9499985508731

     Forces acting on atoms (Ry/au):

     negative rho (up, down):  2.090E-05 0.000E+00
     atom    1 type  1   force =    -0.00000005   -0.00024360    0.00351572
     atom    2 type  1   force =     0.00000011   -0.00058328    0.00465044
     atom    3 type  1   force =    -0.00078503    0.00022429    0.00585402
     atom    4 type  1   force =     0.00078518    0.00022401    0.00585405
     atom    5 type  1   force =    -0.00179100    0.00406523    0.00156977
     atom    6 type  1   force =     0.00179090    0.00406555    0.00156926
     atom    7 type  1   force =     0.00000004   -0.00952412   -0.00994518
     atom    8 type  1   force =    -0.00000012    0.00169550   -0.01148911
     atom    9 type  1   force =    -0.00040274   -0.00054846   -0.00002133
     atom   10 type  1   force =     0.00040223   -0.00054983   -0.00002098
     atom   11 type  1   force =    -0.00000040    0.00149235   -0.00002604
     atom   12 type  1   force =     0.00000108   -0.00018449   -0.00009478
     atom   13 type  2   force =    -0.00000019   -0.00013315   -0.00141584

     Total force =     0.002285     Total SCF correction =     0.000705
     SCF correction compared to forces is large: reduce conv_thr to get better values

     entering subroutine stress ...

     negative rho (up, down):  2.090E-05 0.000E+00
          total   stress  (Ry/bohr**3)                   (kbar)     P=   -1.48
   0.00000796  -0.00000000  -0.00000000          1.17     -0.00     -0.00
  -0.00000000  -0.00002117   0.00000028         -0.00     -3.11      0.04
  -0.00000000   0.00000028  -0.00001699         -0.00      0.04     -2.50

     bfgs converged in  18 scf cycles and  17 bfgs steps
     (criteria: energy <  1.0E+00, force <  1.9E-03)

     End of BFGS Geometry Optimization

     Final energy   =   -1148.9085733027 Ry
Begin final coordinates

ATOMIC_POSITIONS (crystal)
Y1       0.166666667   0.166666667   0.386999750    0   0   0
Y1       0.666666667   0.166666667   0.386999750    0   0   0
Y1       0.166666667   0.666666667   0.386999750    0   0   0
Y1       0.666666667   0.666666667   0.386999750    0   0   0
Y1       0.833333333   0.333333333   0.500000000    0   0   0
Y1       0.333333333   0.333333333   0.500000000    0   0   0
Y1       0.833333333   0.833333333   0.500000000    0   0   0
Y1       0.333333333   0.833333333   0.500000000    0   0   0
Y1      -0.006005764   0.002046607   0.610831570
Y1       0.503959814   0.002047140   0.610831494
Y1       0.012673529   0.474654024   0.613814193
Y1       0.487151729   0.525695348   0.613358787
S1       0.250589752  -0.001178073   0.681730737
End final coordinates

     Writing output data file calc.save

     General routines

     Parallel routines

   This run was terminated on:   4:30:52   3May2018

   JOB DONE.
Job  /afs/slac/g/suncat/bin/suncat-tsmpirun -x LD_LIBRARY_PATH -wdir /scratch/qe579516_GVX2Q pw.x -npool 4 -in pw.inp

TID   HOST_NAME   COMMAND_LINE            STATUS            TERMINATION_TIME
00000 suncat0080 pw.x -npool 4 -i  Done                     05/03/2018 04:30:52
00001 suncat0080 pw.x -npool 4 -i  Done                     05/03/2018 04:30:52
00002 suncat0080 pw.x -npool 4 -i  Done                     05/03/2018 04:30:52
00003 suncat0080 pw.x -npool 4 -i  Done                     05/03/2018 04:30:52
00004 suncat0080 pw.x -npool 4 -i  Done                     05/03/2018 04:30:52
00005 suncat0080 pw.x -npool 4 -i  Done                     05/03/2018 04:30:52
00006 suncat0080 pw.x -npool 4 -i  Done                     05/03/2018 04:30:52
00007 suncat0080 pw.x -npool 4 -i  Done                     05/03/2018 04:30:52
00008 suncat0071 pw.x -npool 4 -i  Done                     05/03/2018 04:30:52
00009 suncat0071 pw.x -npool 4 -i  Done                     05/03/2018 04:30:52
00010 suncat0071 pw.x -npool 4 -i  Done                     05/03/2018 04:30:52
00011 suncat0071 pw.x -npool 4 -i  Done                     05/03/2018 04:30:52
00012 suncat0071 pw.x -npool 4 -i  Done                     05/03/2018 04:30:52
00013 suncat0071 pw.x -npool 4 -i  Done                     05/03/2018 04:30:52
00014 suncat0071 pw.x -npool 4 -i  Done                     05/03/2018 04:30:52
00015 suncat0071 pw.x -npool 4 -i  Done                     05/03/2018 04:30:52
00016 suncat0068 pw.x -npool 4 -i  Done                     05/03/2018 04:30:52
00017 suncat0068 pw.x -npool 4 -i  Done                     05/03/2018 04:30:52
00018 suncat0068 pw.x -npool 4 -i  Done                     05/03/2018 04:30:52
00019 suncat0068 pw.x -npool 4 -i  Done                     05/03/2018 04:30:52
00020 suncat0068 pw.x -npool 4 -i  Done                     05/03/2018 04:30:52
00021 suncat0068 pw.x -npool 4 -i  Done                     05/03/2018 04:30:52
00022 suncat0068 pw.x -npool 4 -i  Done                     05/03/2018 04:30:52
00023 suncat0068 pw.x -npool 4 -i  Done                     05/03/2018 04:30:52
00024 suncat0039 pw.x -npool 4 -i  Done                     05/03/2018 04:30:52
00025 suncat0039 pw.x -npool 4 -i  Done                     05/03/2018 04:30:52
00026 suncat0039 pw.x -npool 4 -i  Done                     05/03/2018 04:30:52
00027 suncat0039 pw.x -npool 4 -i  Done                     05/03/2018 04:30:52
00028 suncat0039 pw.x -npool 4 -i  Done                     05/03/2018 04:30:52
00029 suncat0039 pw.x -npool 4 -i  Done                     05/03/2018 04:30:52
00030 suncat0039 pw.x -npool 4 -i  Done                     05/03/2018 04:30:52
00031 suncat0039 pw.x -npool 4 -i  Done                     05/03/2018 04:30:52