     Program PWSCF v.5.1rc2 (svn rev. 11289) starts on 16Apr2018 at 12: 6: 1

     Current dimensions of program PWSCF are:
     Max number of different atomic species (ntypx) = 10
     Max number of k-points (npk) =  40000
     Max angular momentum in pseudopotentials (lmaxx) =  3
     Presently stress not available with electric field

     IMPORTANT: XC functional enforced from input :
     Exchange-correlation      = BEEF-VDW ( 1  4 27 13 2)
     Any further DFT definition will be discarded
     Please, verify this is what you really want

     Subspace diagonalization in iterative solution of the eigenvalue problem:
     a serial algorithm will be used

     bravais-lattice index     =            0
     lattice parameter (alat)  =       1.8897  a.u.
     unit-cell volume          =    5144.9564 (a.u.)^3
     number of atoms/cell      =           14
     number of atomic types    =            3
     number of electrons       =       139.00
     number of Kohn-Sham states=           79
     kinetic-energy cutoff     =      36.7493  Ry
     charge density cutoff     =     367.4932  Ry
     convergence threshold     =      1.0E-05
     mixing beta               =       0.3000
     number of iterations used =           10  plain     mixing
     Exchange-correlation      = BEEF-VDW ( 1  4 27 13 2)
     nstep                     =           50

     celldm(1)=   1.889726  celldm(2)=   0.000000  celldm(3)=   0.000000
     celldm(4)=   0.000000  celldm(5)=   0.000000  celldm(6)=   0.000000

     crystal axes: (cart. coord. in units of alat)
               a(1) = (   5.950946   0.000000   0.000000 )
               a(2) = (   2.975473   5.153671   0.000000 )
               a(3) = (   0.000000   0.000000  24.858927 )

     reciprocal axes: (cart. coord. in units 2 pi/alat)
               b(1) = (  0.168040 -0.097018  0.000000 )
               b(2) = (  0.000000  0.194036  0.000000 )
               b(3) = (  0.000000  0.000000  0.040227 )

     PseudoPot. # 1 for Au read from file:
     /u/if/mamunm/psp/gbrv1.5pbe/Au.UPF
     MD5 check sum: 9d7f43293ad2c663164586bc4b293ffc
     Pseudo is Ultrasoft + core correction, Zval = 11.0
     Generated by new atomic code, or converted to UPF format
     Using radial grid of  985 points,  7 beta functions with:
                l(1) =   0
                l(2) =   0
                l(3) =   1
                l(4) =   1
                l(5) =   2
                l(6) =   2
                l(7) =   3
     Q(r) pseudized with  6 coefficients,  rinner =    1.900   1.900   1.900
                                                       1.900   1.900   1.900
                                                       1.900

     PseudoPot. # 2 for S  read from file:
     /u/if/mamunm/psp/gbrv1.5pbe/S.UPF
     MD5 check sum: 88d86576ff6df21479756cfb9bdac1df
     Pseudo is Ultrasoft + core correction, Zval =  6.0
     Generated by new atomic code, or converted to UPF format
     Using radial grid of  907 points,  6 beta functions with:
                l(1) =   0
                l(2) =   0
                l(3) =   1
                l(4) =   1
                l(5) =   2
                l(6) =   2
     Q(r) pseudized with  8 coefficients,  rinner =    1.300   1.300   1.300
                                                       1.300   1.300

     PseudoPot. # 3 for H  read from file:
     /u/if/mamunm/psp/gbrv1.5pbe/H.UPF
     MD5 check sum: 761ae9a214b05c3daf00ab9f6b793d6f
     Pseudo is Ultrasoft, Zval =  1.0
     Generated by new atomic code, or converted to UPF format
     Using radial grid of  615 points,  2 beta functions with:
                l(1) =   0
                l(2) =   0
     Q(r) pseudized with  8 coefficients,  rinner =    0.700

     vdW kernel table read from file vdW_kernel_table
     MD5 check sum: 095c7af220d748ca6e76c0b4c6cfb241

     atomic species   valence    mass     pseudopotential
        Au1           11.00   196.96657     Au( 1.00)
        S1             6.00    32.06000     S ( 1.00)
        H1             1.00     1.00800     H ( 1.00)

     No symmetry found

   Cartesian axes

     site n.     atom                  positions (alat units)
         1           Au1 tau(   1) = (   1.4877366   0.8589451  10.0000000  )
         2           Au1 tau(   2) = (   4.4632098   0.8589451  10.0000000  )
         3           Au1 tau(   3) = (   2.9754732   3.4357805  10.0000000  )
         4           Au1 tau(   4) = (   5.9509464   3.4357805  10.0000000  )
         5           Au1 tau(   5) = (   5.9509464   1.7178903  12.4294637  )
         6           Au1 tau(   6) = (   2.9754732   1.7178903  12.4294637  )
         7           Au1 tau(   7) = (   7.4386830   4.2947256  12.4294637  )
         8           Au1 tau(   8) = (   4.4632098   4.2947256  12.4294637  )
         9           Au1 tau(   9) = (   0.0000000   0.0000000  14.8589274  )
        10           Au1 tau(  10) = (   2.9754732   0.0000000  14.8589274  )
        11           Au1 tau(  11) = (   1.4877366   2.5768354  14.8589274  )
        12           Au1 tau(  12) = (   4.4632098   2.5768354  14.8589274  )
        13           S1  tau(  13) = (   2.9754732   1.7178903  16.4254274  )
        14           H1  tau(  14) = (   2.9754732   1.7178903  17.6754274  )

     number of k points=    20  Fermi-Dirac smearing, width (Ry)=  0.0110
                       cart. coord. in units 2pi/alat
        k(    1) = (   0.0000000   0.0000000   0.0000000), wk =   0.0555556
        k(    2) = (   0.0000000   0.0323394   0.0000000), wk =   0.1111111
        k(    3) = (   0.0000000   0.0646788   0.0000000), wk =   0.1111111
        k(    4) = (   0.0000000  -0.0970182   0.0000000), wk =   0.0555556
        k(    5) = (   0.0280067  -0.0161697   0.0000000), wk =   0.1111111
        k(    6) = (   0.0280067   0.0161697   0.0000000), wk =   0.1111111
        k(    7) = (   0.0280067   0.0485091   0.0000000), wk =   0.1111111
        k(    8) = (   0.0280067  -0.1131879   0.0000000), wk =   0.1111111
        k(    9) = (   0.0280067  -0.0808485   0.0000000), wk =   0.1111111
        k(   10) = (   0.0280067  -0.0485091   0.0000000), wk =   0.1111111
        k(   11) = (   0.0560135  -0.0323394   0.0000000), wk =   0.1111111
        k(   12) = (   0.0560135   0.0000000   0.0000000), wk =   0.1111111
        k(   13) = (   0.0560135   0.0323394   0.0000000), wk =   0.1111111
        k(   14) = (   0.0560135  -0.1293576   0.0000000), wk =   0.1111111
        k(   15) = (   0.0560135  -0.0970182   0.0000000), wk =   0.1111111
        k(   16) = (   0.0560135  -0.0646788   0.0000000), wk =   0.1111111
        k(   17) = (  -0.0840202   0.0485091   0.0000000), wk =   0.0555556
        k(   18) = (  -0.0840202   0.0808485   0.0000000), wk =   0.1111111
        k(   19) = (  -0.0840202   0.1131879   0.0000000), wk =   0.1111111
        k(   20) = (  -0.0840202  -0.0485091   0.0000000), wk =   0.0555556

     Largest allocated arrays     est. size (Mb)     dimensions
     Largest temporary arrays     est. size (Mb)     dimensions

     Check: negative/imaginary core charge=   -0.000002    0.000000

     Initial potential from superposition of free atoms

     starting charge  138.99849, renormalised to  139.00000

     negative rho (up, down):  6.264E-05 0.000E+00

     *
     * You are using vdW-DF for exchange-correlation in this calculation.
     * Please cite the following three references that made this development
     * possible:
     *
     *   M. Dion, H. Rydberg, E. Schroder, D. C. Langreth, and
     *   B. I. Lundqvist, Phys. Rev. Lett. 92, 246401 (2004).
     *
     *   T. Thonhauser, V. R. Cooper, S. Li, A. Puzder, P. Hyldgaard, and
     *   D. C. Langreth, Phys. Rev. B 76, 125112 (2007).
     *
     *   G. Roman-Perez and J. M. Soler, Phys. Rev. Lett. 103, 096102 (2009).
     *
     *
     * If you are using vdW-DF2, please also cite:
     *
     *   K. Lee, E. D. Murray, L. Kong, B. I. Lundqvist, and
     *   D. C. Langreth, Phys. Rev. B 82, 081101(R) (2010).
     *
     *
     * If you are calculating the stress with vdW-DF, please also cite:
     *
     *   R. Sabatini, E. Kucukbenli, B. Kolb, T. Thonhauser, and
     *   S. de Gironcoli, J. Phys.: Condens. Matter 24, 424209 (2012).
     *

     Carrying out vdW-DF run using the following parameters:

     Nqs =      20    Nr_points =    1024   r_max =   100.000
     q_mesh =
               0.00001000     0.04494208     0.09755937     0.15916263
               0.23128650     0.31572767     0.41458969     0.53033537
               0.66584808     0.82450364     1.01025438     1.22772762
               1.48234092     1.78043706     2.12944203     2.53805004
               3.01644009     3.57652955     4.23227104     5.00000000

     Gradients computed in reciprocal space

     Adding external electric field

     Computed dipole along edir(3) :
        Dipole               -0.0002 Ry au,         -0.0006 Debye
        Dipole field         -0.0000 Ry au

        Potential amp.        0.0001 Ry
        Total length         45.8022 bohr

     Starting wfc are  113 randomized atomic wfcs

     Self-consistent Calculation

     iteration #  1     ecut=    36.75 Ry     beta=0.30
     Davidson diagonalization with overlap
     ethr =  1.00E-02,  avg # of iterations =  2.4

     Threshold (ethr) on eigenvalues was too large:
     Diagonalizing with lowered threshold

     Davidson diagonalization with overlap
     ethr =  2.53E-04,  avg # of iterations =  4.8

[...]

     total energy              =   -1425.95982204 Ry
     Harris-Foulkes estimate   =   -1426.10376497 Ry
     estimated scf accuracy    <       0.44813486 Ry

[...]

     End of self-consistent calculation

          k = 0.0000 0.0000 0.0000 ( 19315 PWs)   bands (ev):

   -14.3348  -8.2856  -6.9922  -5.6871  -5.6871  -5.6171  -5.3933  -5.1662
    -5.0854  -5.0854  -4.8952  -4.8167  -4.8167  -4.7151  -4.5745  -4.5745
    -4.3805  -4.3805  -4.3569  -3.5678  -3.5678  -3.5113  -3.4684  -3.4684
    -3.4112  -3.2347  -3.2347  -3.2059  -3.2059  -3.1868  -3.1026  -2.9213
    -2.9213  -2.8751  -2.8751  -2.6557  -2.4328  -2.4328  -2.3865  -2.2218
    -2.0609  -2.0609  -1.8742  -1.8742  -1.7626  -1.7626  -1.5563  -1.5563
    -1.4764  -1.3405  -1.3223  -1.3223  -1.2949  -1.2128  -1.2128  -1.1728
    -1.1205  -1.1205  -1.0161  -0.9642  -0.9642  -0.7092  -0.7092  -0.7066
    -0.3579  -0.3579  -0.1280   1.3488   1.4188   1.4188   1.7723   2.0857
     2.0857   2.3891   2.4096   2.4096   3.1050   4.0098   4.3029

[...]

          k =-0.0840 0.0485 0.0000 ( 19380 PWs)   bands (ev):

[...]

     the Fermi energy is     0.9537 ev

!    total energy              =   -1426.02334811 Ry
     Harris-Foulkes estimate   =   -1426.02337260 Ry
     estimated scf accuracy    <       0.00000390 Ry

     The total energy is the sum of the following terms:

     one-electron contribution =   -8355.17546349 Ry
     hartree contribution      =    4278.36197859 Ry
     xc contribution           =    -777.95755174 Ry
     ewald contribution        =    3428.77297502 Ry
     electric field correction =       0.00036407 Ry
     smearing contrib. (-TS)   =      -0.02565056 Ry

     convergence has been achieved in  10 iterations

 BEEF-vdW xc energy contributions
           1 :   -695.061244749973
           2 :    645.855434718862
           3 :   -557.882855139448
           4 :    448.215863397839
           5 :   -335.294557054361
           6 :    234.198718271272
           7 :   -153.781195700904
           8 :    96.1590589699535
           9 :   -58.3097372686333
          10 :    34.7728074167544
          11 :   -20.2376866860017
          12 :    11.0566516935452
          13 :   -5.42147690997365
          14 :    2.58615935874820
          15 :   -1.87749702834310
          16 :    2.12217386893224
          17 :   -1.75825294377262
          18 :  -0.546320536154440
          19 :    5.20559887308957
          20 :   -11.4151608635599
          21 :    17.4461259970402
          22 :   -21.4129465974357
          23 :    22.1230997219907
          24 :   -19.5900438794224
          25 :    14.9705758686979
          26 :   -9.99277936697695
          27 :    6.18170133811475
          28 :   -4.27161955817667
          29 :    4.06188006944569
          30 :   -4.73427730072831
          31 :   -55.2254539426170
          32 :   -40.2332968627120

     Forces acting on atoms (Ry/au):

     negative rho (up, down):  1.575E-04 0.000E+00
     atom    1 type  1   force =     0.00155397    0.00090430   -0.00283246
     atom    2 type  1   force =    -0.00155656    0.00089725   -0.00283869
     atom    3 type  1   force =    -0.00000908   -0.00179803   -0.00283604
     atom    4 type  1   force =     0.00000674    0.00000430   -0.00676022
     atom    5 type  1   force =    -0.00000641    0.00287547    0.00768861
     atom    6 type  1   force =     0.00000241    0.00000276   -0.00628172
     atom    7 type  1   force =    -0.00249442   -0.00143575    0.00768207
     atom    8 type  1   force =     0.00249519   -0.00144745    0.00769124
     atom    9 type  1   force =     0.00000115   -0.00000319   -0.01174408
     atom   10 type  1   force =     0.00000704   -0.07420414   -0.03223192
     atom   11 type  1   force =    -0.06426864    0.03710805   -0.03223043
     atom   12 type  1   force =     0.06426530    0.03709883   -0.03222928
     atom   13 type  2   force =     0.00000182   -0.00000178   -0.03098004
     atom   14 type  3   force =     0.00000148   -0.00000063    0.13790295

     Total force =     0.199378     Total SCF correction =     0.009446

     entering subroutine stress ...

     negative rho (up, down):  1.575E-04 0.000E+00
          total   stress  (Ry/bohr**3)                   (kbar)     P=    5.59
  -0.00000876   0.00000000  -0.00000000         -1.29      0.00     -0.00
   0.00000000  -0.00000876  -0.00000000          0.00     -1.29     -0.00
  -0.00000000  -0.00000000   0.00013146         -0.00     -0.00     19.34

     BFGS Geometry Optimization

     number of scf cycles    =   1
     number of bfgs steps    =   0

     energy   new            =   -1426.0233481131 Ry

     new trust radius        =       0.1379029514 bohr
     new conv_thr            =       0.0000099958 Ry

ATOMIC_POSITIONS (crystal)
Au1      0.166666667   0.166666667   0.402269971    0   0   0
Au1      0.666666667   0.166666667   0.402269971    0   0   0
Au1      0.166666667   0.666666667   0.402269971    0   0   0
Au1      0.666666667   0.666666667   0.402269971    0   0   0
Au1      0.833333333   0.333333333   0.500000000    0   0   0
Au1      0.333333333   0.333333333   0.500000000    0   0   0
Au1      0.833333333   0.833333333   0.500000000    0   0   0
Au1      0.333333333   0.833333333   0.500000000    0   0   0
Au1      0.000000266  -0.000000327   0.597480031
Au1      0.503810254  -0.007619256   0.597043901
Au1     -0.007620094   0.503810242   0.597043933
Au1      0.503810028   0.503809296   0.597043958
S1       0.333333587   0.333333150   0.660086141
H1       0.333333497   0.333333269   0.713964936

     Writing output data file calc.save
     NEW-OLD atomic charge density approx. for the potential

[...]

     energy   old            =   -1426.0233481131 Ry
     energy   new            =   -1426.0501269293 Ry

     CASE: energy  _new < energy  _old

[...]

     number of scf cycles    =  14
     number of bfgs steps    =  13

     energy   old            =   -1426.0782299460 Ry
     energy   new            =   -1426.0784273673 Ry

     CASE: energy  _new < energy  _old

     new trust radius        =       0.0134823773 bohr
     new conv_thr            =       0.0000001000 Ry

ATOMIC_POSITIONS (crystal)
Au1      0.166666667   0.166666667   0.402269971    0   0   0
Au1      0.666666667   0.166666667   0.402269971    0   0   0
Au1      0.166666667   0.666666667   0.402269971    0   0   0
Au1      0.666666667   0.666666667   0.402269971    0   0   0
Au1      0.833333333   0.333333333   0.500000000    0   0   0
Au1      0.333333333   0.333333333   0.500000000    0   0   0
Au1      0.833333333   0.833333333   0.500000000    0   0   0
Au1      0.333333333   0.833333333   0.500000000    0   0   0
Au1     -0.000000289   0.000000076   0.595515718
Au1      0.506723155  -0.013444575   0.597944059
Au1     -0.013445415   0.506722761   0.597943981
Au1      0.506722785   0.506721515   0.597944069
S1       0.333334194   0.333332689   0.674285746
H1       0.333333901   0.333333405   0.729267295

     Writing output data file calc.save
     NEW-OLD atomic charge density approx. for the potential

     Check: negative/imaginary core charge=   -0.000002    0.000000

[...]

     Self-consistent Calculation

[...]

     Threshold (ethr) on eigenvalues was too large:
     Diagonalizing with lowered threshold

     Davidson diagonalization with overlap
     ethr =  6.94E-08,  avg # of iterations =  1.1

[...]

     total energy              =   -1426.07846446 Ry
     Harris-Foulkes estimate   =   -1426.07846422 Ry
     estimated scf accuracy    <       0.00000016 Ry

     iteration #  7     ecut=    36.75 Ry     beta=0.30
     Davidson diagonalization with overlap
     ethr =  1.13E-10,  avg # of iterations =  3.0

[...]

     negative rho (up, down):  1.492E-04 0.000E+00

     Adding external electric field

     Computed dipole along edir(3) :
        Dipole                0.1835 Ry au,          0.4664 Debye
        Dipole field          0.0004 Ry au

        Potential amp.       -0.0411 Ry
        Total length         45.8022 bohr

     End of self-consistent calculation

[...]

          k = 0.0560-0.0647 0.0000 ( 19376 PWs)   bands (ev):

[...]

          k =-0.0840-0.0485 0.0000 ( 19380 PWs)   bands (ev):

   -12.7280  -6.4957  -6.0818  -5.8328  -5.0344  -4.9249  -4.8057  -4.7740
    -4.7408  -4.7005  -4.6945  -4.6476  -4.3844  -4.3658  -4.2981  -4.2389
    -4.0830  -4.0788  -4.0735  -3.9482  -3.8828  -3.8567  -3.8034  -3.7574
    -3.5553  -3.5057  -3.4262  -3.4107  -3.3091  -3.2677  -3.2071  -3.1728
    -3.1255  -3.0969  -3.0803  -3.0240  -2.9745  -2.9707  -2.9184  -2.8838
    -2.8746  -2.8200  -2.6672  -2.6338  -2.6143  -2.5493  -2.5074  -2.4138
    -2.3656  -2.3543  -2.2839  -2.2062  -2.1723  -2.1264  -2.0351  -1.9415
    -1.9102  -1.8814  -1.8088  -1.5899  -1.4795  -1.4770  -1.4362  -1.3064
    -1.2392  -0.8632  -0.5817  -0.5061   0.5607   0.6346   1.0920   1.2711
     1.8734   1.9154   3.5413   3.9063   4.3391   4.3507   5.2507

     the Fermi energy is     0.6189 ev

!    total energy              =   -1426.07846449 Ry
     Harris-Foulkes estimate   =   -1426.07846439 Ry
     estimated scf accuracy    <       0.00000003 Ry

     The total energy is the sum of the following terms:

     one-electron contribution =   -8273.26710567 Ry
     hartree contribution      =    4236.75260416 Ry
     xc contribution           =    -777.71638304 Ry
     ewald contribution        =    3388.18008674 Ry
     electric field correction =       0.00008223 Ry
     smearing contrib. (-TS)   =      -0.02774890 Ry

     convergence has been achieved in   7 iterations

 BEEF-vdW xc energy contributions
           1 :   -694.806132965297
           2 :    645.476334575503
           3 :   -557.350909770025
           4 :    447.615065270921
           5 :   -334.768174152604
           6 :    233.869630489896
           7 :   -153.689889401553
           8 :    96.2496382677376
           9 :   -58.4659175462813
          10 :    34.8809357288069
          11 :   -20.2431542965450
          12 :    10.9852274127089
          13 :   -5.35530649204190
          14 :    2.61106754419268
          15 :   -2.03273386600233
          16 :    2.37851452236384
          17 :   -2.03332074996854
          18 :  -0.346219327005315
          19 :    5.14096214722690
          20 :   -11.4877231444872
          21 :    17.6032258362068
          22 :   -21.5766911916973
          23 :    22.2281383802207
          24 :   -19.6107224016273
          25 :    14.9258332469129
          26 :   -9.92910137465299
          27 :    6.14536588129477
          28 :   -4.28586439090213
          29 :    4.12022553967256
          30 :   -4.81028154142280
          31 :   -55.2070216497259
          32 :   -40.1834158054274

     Forces acting on atoms (Ry/au):

     negative rho (up, down):  1.492E-04 0.000E+00
     atom    1 type  1   force =     0.00074931    0.00043272   -0.00258255
     atom    2 type  1   force =    -0.00074935    0.00043260   -0.00258260
     atom    3 type  1   force =    -0.00000008   -0.00086522   -0.00258262
     atom    4 type  1   force =     0.00000003    0.00000005   -0.00544954
     atom    5 type  1   force =    -0.00000007    0.00286944    0.00284271
     atom    6 type  1   force =    -0.00000003    0.00000015    0.00586573
     atom    7 type  1   force =    -0.00248501   -0.00143463    0.00284275
     atom    8 type  1   force =     0.00248508   -0.00143478    0.00284383
     atom    9 type  1   force =     0.00000118   -0.00000036   -0.00020149
     atom   10 type  1   force =    -0.00000149   -0.00050673   -0.00064013
     atom   11 type  1   force =    -0.00043669    0.00025186   -0.00063957
     atom   12 type  1   force =     0.00043782    0.00025442   -0.00063983
     atom   13 type  2   force =    -0.00000097    0.00000056    0.00159784
     atom   14 type  3   force =     0.00000026   -0.00000006   -0.00067453

     Total force =     0.002246     Total SCF correction =     0.000215

     entering subroutine stress ...

     negative rho (up, down):  1.492E-04 0.000E+00
          total   stress  (Ry/bohr**3)                   (kbar)     P=   -5.37
  -0.00005973  -0.00000000  -0.00000000         -8.79     -0.00     -0.00
  -0.00000000  -0.00005973   0.00000000         -0.00     -8.79      0.00
  -0.00000000   0.00000000   0.00001000         -0.00      0.00      1.47

     bfgs converged in  15 scf cycles and  14 bfgs steps
     (criteria: energy <  1.0E+00, force <  1.9E-03)

     End of BFGS Geometry Optimization

     Final energy   =   -1426.0784644888 Ry
Begin final coordinates

ATOMIC_POSITIONS (crystal)
Au1      0.166666667   0.166666667   0.402269971    0   0   0
Au1      0.666666667   0.166666667   0.402269971    0   0   0
Au1      0.166666667   0.666666667   0.402269971    0   0   0
Au1      0.666666667   0.666666667   0.402269971    0   0   0
Au1      0.833333333   0.333333333   0.500000000    0   0   0
Au1      0.333333333   0.333333333   0.500000000    0   0   0
Au1      0.833333333   0.833333333   0.500000000    0   0   0
Au1      0.333333333   0.833333333   0.500000000    0   0   0
Au1     -0.000000289   0.000000076   0.595515718
Au1      0.506723155  -0.013444575   0.597944059
Au1     -0.013445415   0.506722761   0.597943981
Au1      0.506722785   0.506721515   0.597944069
S1       0.333334194   0.333332689   0.674285746
H1       0.333333901   0.333333405   0.729267295
End final coordinates

     Writing output data file calc.save

     General routines

     Parallel routines

   This run was terminated on:  13:53:46  16Apr2018

   JOB DONE.
Job  /afs/slac/g/suncat/bin/suncat-tsmpirun -x LD_LIBRARY_PATH -wdir /scratch/qe125008_VdN47 pw.x -npool 4 -in pw.inp

TID   HOST_NAME   COMMAND_LINE            STATUS            TERMINATION_TIME
00000 suncat0080 pw.x -npool 4 -i  Done                     04/16/2018 13:53:46
00001 suncat0080 pw.x -npool 4 -i  Done                     04/16/2018 13:53:46
00002 suncat0080 pw.x -npool 4 -i  Done                     04/16/2018 13:53:46
00003 suncat0080 pw.x -npool 4 -i  Done                     04/16/2018 13:53:46
00004 suncat0080 pw.x -npool 4 -i  Done                     04/16/2018 13:53:46
00005 suncat0080 pw.x -npool 4 -i  Done                     04/16/2018 13:53:46
00006 suncat0080 pw.x -npool 4 -i  Done                     04/16/2018 13:53:46
00007 suncat0080 pw.x -npool 4 -i  Done                     04/16/2018 13:53:46
00008 suncat0076 pw.x -npool 4 -i  Done                     04/16/2018 13:53:46
00009 suncat0076 pw.x -npool 4 -i  Done                     04/16/2018 13:53:46
00010 suncat0076 pw.x -npool 4 -i  Done                     04/16/2018 13:53:46
00011 suncat0076 pw.x -npool 4 -i  Done                     04/16/2018 13:53:46
00012 suncat0076 pw.x -npool 4 -i  Done                     04/16/2018 13:53:46
00013 suncat0076 pw.x -npool 4 -i  Done                     04/16/2018 13:53:46
00014 suncat0076 pw.x -npool 4 -i  Done                     04/16/2018 13:53:46
00015 suncat0076 pw.x -npool 4 -i  Done                     04/16/2018 13:53:46
00016 suncat0003 pw.x -npool 4 -i  Done                     04/16/2018 13:53:46
00017 suncat0003 pw.x -npool 4 -i  Done                     04/16/2018 13:53:46
00018 suncat0003 pw.x -npool 4 -i  Done                     04/16/2018 13:53:46
00019 suncat0003 pw.x -npool 4 -i  Done                     04/16/2018 13:53:46
00020 suncat0003 pw.x -npool 4 -i  Done                     04/16/2018 13:53:46
00021 suncat0003 pw.x -npool 4 -i  Done                     04/16/2018 13:53:46
00022 suncat0003 pw.x -npool 4 -i  Done                     04/16/2018 13:53:46
00023 suncat0003 pw.x -npool 4 -i  Done                     04/16/2018 13:53:46
00024 suncat0183 pw.x -npool 4 -i  Done                     04/16/2018 13:53:46
00025 suncat0183 pw.x -npool 4 -i  Done                     04/16/2018 13:53:46
00026 suncat0183 pw.x -npool 4 -i  Done                     04/16/2018 13:53:46
00027 suncat0183 pw.x -npool 4 -i  Done                     04/16/2018 13:53:46
00028 suncat0183 pw.x -npool 4 -i  Done                     04/16/2018 13:53:46
00029 suncat0183 pw.x -npool 4 -i  Done                     04/16/2018 13:53:46
00030 suncat0183 pw.x -npool 4 -i  Done                     04/16/2018 13:53:46
00031 suncat0183 pw.x -npool 4 -i  Done                     04/16/2018 13:53:46