     Program PWSCF v.5.1rc2 (svn rev. 11289) starts on 21Apr2018 at 22:46:17

     Current dimensions of program PWSCF are:
     Max number of different atomic species (ntypx) = 10
     Max number of k-points (npk) =  40000
     Max angular momentum in pseudopotentials (lmaxx) =  3
     Presently stress not available with electric field

     IMPORTANT: XC functional enforced from input :
     Exchange-correlation      = BEEF-VDW ( 1  4 27 13 2)
     Any further DFT definition will be discarded
     Please, verify this is what you really want

     Subspace diagonalization in iterative solution of the eigenvalue problem:
     a serial algorithm will be used

     bravais-lattice index     =            0
     lattice parameter (alat)  =       1.8897  a.u.
     unit-cell volume          =    4569.9960 (a.u.)^3
     number of atoms/cell      =           14
     number of atomic types    =            3
     number of electrons       =       199.00
     number of Kohn-Sham states=          109
     kinetic-energy cutoff     =      36.7493  Ry
     charge density cutoff     =     367.4932  Ry
     convergence threshold     =      1.0E-05
     mixing beta               =       0.3000
     number of iterations used =           10  plain     mixing
     Exchange-correlation      = BEEF-VDW ( 1  4 27 13 2)
     nstep                     =           50

     celldm(1)=   1.889726  celldm(2)=   0.000000  celldm(3)=   0.000000
     celldm(4)=   0.000000  celldm(5)=   0.000000  celldm(6)=   0.000000

     crystal axes: (cart. coord. in units of alat)
               a(1) = (   5.637663   0.000000   0.000000 )
               a(2) = (   2.818831   4.882359   0.000000 )
               a(3) = (   0.000000   0.000000  24.603132 )

     reciprocal axes: (cart. coord. in units 2 pi/alat)
               b(1) = (  0.177378 -0.102410  0.000000 )
               b(2) = (  0.000000  0.204819  0.000000 )
               b(3) = (  0.000000  0.000000  0.040645 )

     PseudoPot. # 1 for Pd read from file:
     /u/if/mamunm/psp/gbrv1.5pbe/Pd.UPF
     MD5 check sum: 2d733d2bc2cbfd217af676df1668a4bc
     Pseudo is Ultrasoft + core correction, Zval = 16.0
     Generated by new atomic code, or converted to UPF format
     Using radial grid of  887 points,  6 beta functions with:
                l(1) =   0
                l(2) =   0
                l(3) =   1
                l(4) =   1
                l(5) =   2
                l(6) =   2
     Q(r) pseudized with  8 coefficients,  rinner =    1.130   1.130   1.130
                                                       1.130   1.130

     PseudoPot. # 2 for S  read from file:
     /u/if/mamunm/psp/gbrv1.5pbe/S.UPF
     MD5 check sum: 88d86576ff6df21479756cfb9bdac1df
     Pseudo is Ultrasoft + core correction, Zval =  6.0
     Generated by new atomic code, or converted to UPF format
     Using radial grid of  907 points,  6 beta functions with:
                l(1) =   0
                l(2) =   0
                l(3) =   1
                l(4) =   1
                l(5) =   2
                l(6) =   2
     Q(r) pseudized with  8 coefficients,  rinner =    1.300   1.300   1.300
                                                       1.300   1.300

     PseudoPot. # 3 for H  read from file:
     /u/if/mamunm/psp/gbrv1.5pbe/H.UPF
     MD5 check sum: 761ae9a214b05c3daf00ab9f6b793d6f
     Pseudo is Ultrasoft, Zval =  1.0
     Generated by new atomic code, or converted to UPF format
     Using radial grid of  615 points,  2 beta functions with:
                l(1) =   0
                l(2) =   0
     Q(r) pseudized with  8 coefficients,  rinner =    0.700

     vdW kernel table read from file vdW_kernel_table
     MD5 check sum: 095c7af220d748ca6e76c0b4c6cfb241

     atomic species   valence    mass     pseudopotential
        Pd1           16.00   106.42000     Pd( 1.00)
        S1             6.00    32.06000     S ( 1.00)
        H1             1.00     1.00800     H ( 1.00)

     No symmetry found

   Cartesian axes

     site n.     atom                  positions (alat units)
         1           Pd1 tau(   1) = (   1.4094157   0.8137265  10.0000000  )
         2           Pd1 tau(   2) = (   4.2282471   0.8137265  10.0000000  )
         3           Pd1 tau(   3) = (   2.8188314   3.2549061  10.0000000  )
         4           Pd1 tau(   4) = (   5.6376627   3.2549061  10.0000000  )
         5           Pd1 tau(   5) = (   5.6376627   1.6274531  12.3015662  )
         6           Pd1 tau(   6) = (   2.8188314   1.6274531  12.3015662  )
         7           Pd1 tau(   7) = (   7.0470784   4.0686326  12.3015662  )
         8           Pd1 tau(   8) = (   4.2282471   4.0686326  12.3015662  )
         9           Pd1 tau(   9) = (   0.0000000   0.0000000  14.6031324  )
        10           Pd1 tau(  10) = (   2.8188314   0.0000000  14.6031324  )
        11           Pd1 tau(  11) = (   1.4094157   2.4411796  14.6031324  )
        12           Pd1 tau(  12) = (   4.2282471   2.4411796  14.6031324  )
        13           S1  tau(  13) = (   1.4094157   0.8137265  16.1891324  )
        14           H1  tau(  14) = (   1.4094157   0.8137265  17.4391324  )

     number of k points=    20  Fermi-Dirac smearing, width (Ry)=  0.0110
                       cart. coord. in units 2pi/alat
        k(    1) = (   0.0000000   0.0000000   0.0000000), wk =   0.0555556
        k(    2) = (   0.0000000   0.0341365   0.0000000), wk =   0.1111111
        k(    3) = (   0.0000000   0.0682730   0.0000000), wk =   0.1111111
        k(    4) = (   0.0000000  -0.1024095   0.0000000), wk =   0.0555556
        k(    5) = (   0.0295631  -0.0170683   0.0000000), wk =   0.1111111
        k(    6) = (   0.0295631   0.0170683   0.0000000), wk =   0.1111111
        k(    7) = (   0.0295631   0.0512048   0.0000000), wk =   0.1111111
        k(    8) = (   0.0295631  -0.1194778   0.0000000), wk =   0.1111111
        k(    9) = (   0.0295631  -0.0853413   0.0000000), wk =   0.1111111
        k(   10) = (   0.0295631  -0.0512048   0.0000000), wk =   0.1111111
        k(   11) = (   0.0591262  -0.0341365   0.0000000), wk =   0.1111111
        k(   12) = (   0.0591262  -0.0000000   0.0000000), wk =   0.1111111
        k(   13) = (   0.0591262   0.0341365   0.0000000), wk =   0.1111111
        k(   14) = (   0.0591262  -0.1365460   0.0000000), wk =   0.1111111
        k(   15) = (   0.0591262  -0.1024095   0.0000000), wk =   0.1111111
        k(   16) = (   0.0591262  -0.0682730   0.0000000), wk =   0.1111111
        k(   17) = (  -0.0886892   0.0512048   0.0000000), wk =   0.0555556
        k(   18) = (  -0.0886892   0.0853413   0.0000000), wk =   0.1111111
        k(   19) = (  -0.0886892   0.1194778   0.0000000), wk =   0.1111111
        k(   20) = (  -0.0886892  -0.0512048   0.0000000), wk =   0.0555556

     Largest allocated arrays     est. size (Mb)     dimensions
     Largest temporary arrays     est. size (Mb)     dimensions

     Initial potential from superposition of free atoms
     Check: negative starting charge=   -0.903878

     starting charge  192.99987, renormalised to  199.00000

     negative rho (up, down):  9.320E-01 0.000E+00

     *
     * You are using vdW-DF for exchange-correlation in this calculation.
     * Please cite the following three references that made this development
     * possible:
     *
     *   M. Dion, H. Rydberg, E. Schroder, D. C. Langreth, and
     *   B. I. Lundqvist, Phys. Rev. Lett. 92, 246401 (2004).
     *
     *   T. Thonhauser, V. R. Cooper, S. Li, A. Puzder, P. Hyldgaard, and
     *   D. C. Langreth, Phys. Rev. B 76, 125112 (2007).
     *
     *   G. Roman-Perez and J. M. Soler, Phys. Rev. Lett. 103, 096102 (2009).
     *
     *
     * If you are using vdW-DF2, please also cite:
     *
     *   K. Lee, E. D. Murray, L. Kong, B. I. Lundqvist, and
     *   D. C. Langreth, Phys. Rev. B 82, 081101(R) (2010).
     *
     *
     * If you are calculating the stress with vdW-DF, please also cite:
     *
     *   R. Sabatini, E. Kucukbenli, B. Kolb, T. Thonhauser, and
     *   S. de Gironcoli, J. Phys.: Condens. Matter 24, 424209 (2012).
     *

     Carrying out vdW-DF run using the following parameters:

     Nqs =      20    Nr_points =    1024   r_max =   100.000
     q_mesh =
               0.00001000     0.04494208     0.09755937     0.15916263
               0.23128650     0.31572767     0.41458969     0.53033537
               0.66584808     0.82450364     1.01025438     1.22772762
               1.48234092     1.78043706     2.12944203     2.53805004
               3.01644009     3.57652955     4.23227104     5.00000000

     Gradients computed in reciprocal space

     Adding external electric field

     Computed dipole along edir(3) :
        Dipole               -1.6718 Ry au,         -4.2493 Debye
        Dipole field         -0.0046 Ry au

        Potential amp.        0.4168 Ry
        Total length         45.3309 bohr

     Starting wfc are  149 randomized atomic wfcs

     Self-consistent Calculation

     iteration #  1     ecut=    36.75 Ry     beta=0.30
     Davidson diagonalization with overlap
     ethr =  1.00E-02,  avg # of iterations =  5.0

[...]

     total energy              =   -2361.59905685 Ry
     Harris-Foulkes estimate   =   -2425.19400781 Ry
     estimated scf accuracy    <     134.11932054 Ry

[...]

     End of self-consistent calculation

          k = 0.0000 0.0000 0.0000 ( 17231 PWs)   bands (ev):

   -48.6799 -48.5637 -48.5620 -48.3686 -48.3673 -48.3209 -48.3147 -48.3146
   -48.2644 -48.2548 -48.2400 -48.1889 -48.1876 -48.1319 -48.1289 -48.1287
   -48.1112 -48.1110 -48.0949 -48.0266 -48.0263 -48.0254 -48.0094 -48.0094
   -47.8575 -47.8574 -47.8444 -47.7950 -47.7950 -47.7622 -47.7620 -47.7182
   -47.6962 -47.6849 -47.6846 -47.6123 -13.2796  -6.7017  -4.0271  -3.5727
    -3.5726  -2.9755  -2.8539  -2.8047  -2.7908  -2.7908  -2.5564  -2.5464
    -2.5462  -2.4157  -2.4156  -2.3242  -2.2277  -2.1183  -2.1182  -1.2632
    -1.2629  -1.2235  -1.1179  -1.1179  -1.0187  -0.9329  -0.8424  -0.8422
    -0.7120  -0.7118  -0.6115  -0.5149  -0.5147  -0.4942  -0.4940  -0.2982
     0.1213   0.1218   0.1955   0.2975   0.4058   0.4060   0.5849   0.5850
     0.7678   0.7680   0.8388   1.0109   1.0111   1.2088   1.2607   1.2609
     1.3854   1.3855   1.4049   1.4310   1.5432   1.5437   1.5987   1.5990
     1.6534   1.7339   1.7344   1.8401   1.8432   1.8433   2.2855   3.2589
     4.0016   4.0016   4.1341   4.7334   5.0540

[...]

          k =-0.0887 0.0512 0.0000 ( 17240 PWs)   bands (ev):

[...]

     the Fermi energy is     1.6146 ev

!    total energy              =   -2423.05424003 Ry
     Harris-Foulkes estimate   =   -2423.05422492 Ry
     estimated scf accuracy    <       0.00000514 Ry

     The total energy is the sum of the following terms:

     one-electron contribution =  -20712.99018014 Ry
     hartree contribution      =   10411.53912763 Ry
     xc contribution           =    -399.91110251 Ry
     ewald contribution        =    8278.42208431 Ry
     electric field correction =       0.00027799 Ry
     smearing contrib. (-TS)   =      -0.11444732 Ry

     convergence has been achieved in  21 iterations

 BEEF-vdW xc energy contributions
           1 :   -347.984529946783
           2 :    317.773824070379
           3 :   -266.229420784798
           4 :    207.176320994886
           5 :   -154.013838725521
           6 :    115.342383695660
           7 :   -93.0902000117638
           8 :    83.4762859170586
           9 :   -79.9800060916394
          10 :    76.7257295432737
          11 :   -70.7509568017382
          12 :    62.3698909763295
          13 :   -53.8915764211038
          14 :    47.6925146769208
          15 :   -44.7620343078040
          16 :    44.3570648348776
          17 :   -44.7049619894380
          18 :    44.1501575277406
          19 :   -42.0224372494685
          20 :    38.7902759642894
          21 :   -35.5467301310590
          22 :    33.2387817128655
          23 :   -32.1270062781257
          24 :    31.7457602596732
          25 :   -31.3053566018739
          26 :    30.2260978200869
          27 :   -28.4636856740116
          28 :    26.4551167579697
          29 :   -24.7698863285128
          30 :    23.7213705867285
          31 :   -34.0917537632830
          32 :   -25.1568727112141

     Forces acting on atoms (Ry/au):

     negative rho (up, down):  9.425E-01 0.000E+00
     atom    1 type  1   force =     0.00000462   -0.00000472    0.00160060
     atom    2 type  1   force =    -0.00000385    0.00066231   -0.00142487
     atom    3 type  1   force =     0.00057859   -0.00033006   -0.00141966
     atom    4 type  1   force =    -0.00057923   -0.00032364   -0.00142086
     atom    5 type  1   force =    -0.00282414    0.00169078   -0.00733787
     atom    6 type  1   force =     0.00282136    0.00167741   -0.00733539
     atom    7 type  1   force =    -0.00000898   -0.00004874    0.01655182
     atom    8 type  1   force =     0.00001139   -0.00331156   -0.00737849
     atom    9 type  1   force =    -0.03433925   -0.01985147   -0.00763969
     atom   10 type  1   force =     0.03434018   -0.01984914   -0.00764594
     atom   11 type  1   force =     0.00000127    0.03964914   -0.00763446
     atom   12 type  1   force =    -0.00000399    0.00002341   -0.00228024
     atom   13 type  2   force =    -0.00000083    0.00000334   -0.10300327
     atom   14 type  3   force =     0.00000286    0.00001293    0.13636834

     Total force =     0.184675     Total SCF correction =     0.005350

     entering subroutine stress ...

     negative rho (up, down):  9.425E-01 0.000E+00
          total   stress  (Ry/bohr**3)                   (kbar)     P=    2.13
  -0.00002322  -0.00000001  -0.00000003         -3.42     -0.00     -0.00
  -0.00000001  -0.00002308  -0.00000014         -0.00     -3.39     -0.02
  -0.00000003  -0.00000014   0.00008972         -0.00     -0.02     13.20

     BFGS Geometry Optimization

     number of scf cycles    =   1
     number of bfgs steps    =   0

     energy   new            =   -2423.0542400348 Ry

     new trust radius        =       0.1363683363 bohr
     new conv_thr            =       0.0000099958 Ry

ATOMIC_POSITIONS (crystal)
Pd1      0.166666667   0.166666667   0.406452311    0   0   0
Pd1      0.666666667   0.166666667   0.406452311    0   0   0
Pd1      0.166666667   0.666666667   0.406452311    0   0   0
Pd1      0.666666667   0.666666667   0.406452311    0   0   0
Pd1      0.833333333   0.333333333   0.500000000    0   0   0
Pd1      0.333333333   0.333333333   0.500000000    0   0   0
Pd1      0.833333333   0.833333333   0.500000000    0   0   0
Pd1      0.333333333   0.833333333   0.500000000    0   0   0
Pd1     -0.002147435  -0.002151612   0.593383371
Pd1      0.504299009  -0.002151360   0.593383236
Pd1     -0.002148577   0.504297394   0.593383483
Pd1      0.499998357   0.500002537   0.593498644
S1       0.166666408   0.166667029   0.655795577
H1       0.166666234   0.166668068   0.711750647

     Writing output data file calc.save
     Check: negative starting charge=   -0.903878
     NEW-OLD atomic charge density approx. for the potential
     Check: negative starting charge=   -0.903497

[...]

     Total force =     0.072631     Total SCF correction =     0.013732
     SCF correction compared to forces is large: reduce conv_thr to get better values

[...]

     energy   old            =   -2423.0542400348 Ry
     energy   new            =   -2423.0687524732 Ry

     CASE: energy  _new < energy  _old

[...]

     WARNING: bfgs curvature condition failed, Theta= 0.987
     new trust radius        =       0.0128784842 bohr
     new conv_thr            =       0.0000001000 Ry

[...]

     Total force =     0.005987     Total SCF correction =     0.000201

[...]

     number of scf cycles    =   9
     number of bfgs steps    =   8

     energy   old            =   -2423.0746384606 Ry
     energy   new            =   -2423.0748989028 Ry

     CASE: energy  _new < energy  _old

     new trust radius        =       0.0474148450 bohr
     new conv_thr            =       0.0000001000 Ry

ATOMIC_POSITIONS (crystal)
Pd1      0.166666667   0.166666667   0.406452311    0   0   0
Pd1      0.666666667   0.166666667   0.406452311    0   0   0
Pd1      0.166666667   0.666666667   0.406452311    0   0   0
Pd1      0.666666667   0.666666667   0.406452311    0   0   0
Pd1      0.833333333   0.333333333   0.500000000    0   0   0
Pd1      0.333333333   0.333333333   0.500000000    0   0   0
Pd1      0.833333333   0.833333333   0.500000000    0   0   0
Pd1      0.333333333   0.833333333   0.500000000    0   0   0
Pd1     -0.005327246  -0.005317448   0.594165598
Pd1      0.510645813  -0.005316486   0.594165843
Pd1     -0.005319329   0.510641455   0.594164260
Pd1      0.500005224   0.499989103   0.592453225
S1       0.166669469   0.166660286   0.660389131
H1       0.166664265   0.166671507   0.715965573

     Writing output data file calc.save
     Check: negative starting charge=   -0.904673
     NEW-OLD atomic charge density approx. for the potential
     Check: negative starting charge=   -0.907336

[...]

     Self-consistent Calculation

[...]

     total energy              =   -2423.07500901 Ry
     Harris-Foulkes estimate   =   -2423.07500897 Ry
     estimated scf accuracy    <       0.00000021 Ry

     iteration # 13     ecut=    36.75 Ry     beta=0.30
     Davidson diagonalization with overlap
     ethr =  1.06E-10,  avg # of iterations =  1.1

[...]

     negative rho (up, down):  9.459E-01 0.000E+00

     Adding external electric field

     Computed dipole along edir(3) :
        Dipole                0.2746 Ry au,          0.6981 Debye
        Dipole field          0.0008 Ry au

        Potential amp.       -0.0685 Ry
        Total length         45.3309 bohr

     End of self-consistent calculation

[...]

          k = 0.0591-0.0683 0.0000 ( 17183 PWs)   bands (ev):

[...]

          k =-0.0887-0.0512 0.0000 ( 17240 PWs)   bands (ev):

   -48.6072 -48.5418 -48.5103 -48.3590 -48.3448 -48.3422 -48.3356 -48.3070
   -48.2995 -48.2826 -48.2635 -48.2451 -48.2053 -48.1913 -48.1881 -48.1815
   -48.1576 -48.1547 -48.1408 -48.1404 -48.0872 -48.0329 -48.0272 -47.9681
   -47.9558 -47.9541 -47.9426 -47.8775 -47.8741 -47.8613 -47.8473 -47.7685
   -47.7456 -47.7392 -47.7347 -47.6918 -12.6553  -5.8899  -3.4498  -2.9738
    -2.7847  -2.6681  -2.3302  -2.2852  -2.2481  -2.1580  -2.0812  -2.0143
    -1.9770  -1.8777  -1.7956  -1.7698  -1.7547  -1.7175  -1.5834  -1.5501
    -1.3176  -1.2969  -1.2132  -1.2114  -1.1627  -1.1293  -1.0077  -0.9043
    -0.7986  -0.6859  -0.5959  -0.5667  -0.5578  -0.5132  -0.4351  -0.4067
    -0.3118  -0.3037  -0.2669  -0.2151  -0.1870  -0.1056  -0.0484   0.0033
     0.0577   0.1083   0.1226   0.2299   0.2588   0.3853   0.4037   0.4933
     0.5147   0.5489   0.6232   0.6721   0.7803   0.8568   0.9628   1.0249
     1.2813   1.3167   1.4053   1.5346   1.5762   1.7023   1.9118   2.2488
     3.9163   4.0635   4.3271   4.4375   4.9588

     the Fermi energy is     1.5634 ev

!    total energy              =   -2423.07500899 Ry
     Harris-Foulkes estimate   =   -2423.07500800 Ry
     estimated scf accuracy    <       0.00000002 Ry

     The total energy is the sum of the following terms:

     one-electron contribution =  -20666.98291661 Ry
     hartree contribution      =   10388.35680686 Ry
     xc contribution           =    -399.78215540 Ry
     ewald contribution        =    8255.44902367 Ry
     electric field correction =       0.00020741 Ry
     smearing contrib. (-TS)   =      -0.11597491 Ry

     convergence has been achieved in  13 iterations

 BEEF-vdW xc energy contributions
           1 :   -347.858010964674
           2 :    317.616727119607
           3 :   -266.033757579883
           4 :    206.962352477892
           5 :   -153.818587660848
           6 :    115.200329149010
           7 :   -93.0163926562639
           8 :    83.4600644388304
           9 :   -79.9920343790333
          10 :    76.7344422845094
          11 :   -70.7394856657222
          12 :    62.3445202286174
          13 :   -53.8768163397125
          14 :    47.7156327455659
          15 :   -44.8362207541094
          16 :    44.4726043860688
          17 :   -44.8323802217807
          18 :    44.2531530243722
          19 :   -42.0741598782710
          20 :    38.7849785534640
          21 :   -35.5015059825563
          22 :    33.1847095114446
          23 :   -32.0941563981028
          24 :    31.7495470556381
          25 :   -31.3404235764426
          26 :    30.2704030207918
          27 :   -28.4903549187153
          28 :    26.4456500373921
          29 :   -24.7222848618319
          30 :    23.6496405112965
          31 :   -34.0834696549444
          32 :   -25.1405080403817

     Forces acting on atoms (Ry/au):

     negative rho (up, down):  9.459E-01 0.000E+00
     atom    1 type  1   force =    -0.00000657   -0.00000130    0.00176903
     atom    2 type  1   force =     0.00000572    0.00021316   -0.00140099
     atom    3 type  1   force =     0.00018584   -0.00010232   -0.00140562
     atom    4 type  1   force =    -0.00018601   -0.00010973   -0.00139912
     atom    5 type  1   force =    -0.00010625    0.00006143   -0.00487339
     atom    6 type  1   force =     0.00010595    0.00006145   -0.00487670
     atom    7 type  1   force =     0.00000052   -0.00000036    0.01462073
     atom    8 type  1   force =    -0.00000052   -0.00012328   -0.00486508
     atom    9 type  1   force =     0.00074695    0.00041379    0.00073111
     atom   10 type  1   force =    -0.00074676    0.00040525    0.00073687
     atom   11 type  1   force =    -0.00000739   -0.00084714    0.00074431
     atom   12 type  1   force =     0.00000843    0.00002361    0.00123239
     atom   13 type  2   force =     0.00000040    0.00000543   -0.00188876
     atom   14 type  3   force =    -0.00000032    0.00000002    0.00087521

     Total force =     0.003107     Total SCF correction =     0.000382
     SCF correction compared to forces is large: reduce conv_thr to get better values

     entering subroutine stress ...

     negative rho (up, down):  9.459E-01 0.000E+00
          total   stress  (Ry/bohr**3)                   (kbar)     P=   -4.26
  -0.00003763   0.00000000   0.00000000         -5.54      0.00      0.00
   0.00000000  -0.00003764   0.00000001          0.00     -5.54      0.00
   0.00000000   0.00000001  -0.00001158          0.00      0.00     -1.70

     bfgs converged in  10 scf cycles and   9 bfgs steps
     (criteria: energy <  1.0E+00, force <  1.9E-03)

     End of BFGS Geometry Optimization

     Final energy   =   -2423.0750089861 Ry
Begin final coordinates

ATOMIC_POSITIONS (crystal)
Pd1      0.166666667   0.166666667   0.406452311    0   0   0
Pd1      0.666666667   0.166666667   0.406452311    0   0   0
Pd1      0.166666667   0.666666667   0.406452311    0   0   0
Pd1      0.666666667   0.666666667   0.406452311    0   0   0
Pd1      0.833333333   0.333333333   0.500000000    0   0   0
Pd1      0.333333333   0.333333333   0.500000000    0   0   0
Pd1      0.833333333   0.833333333   0.500000000    0   0   0
Pd1      0.333333333   0.833333333   0.500000000    0   0   0
Pd1     -0.005327246  -0.005317448   0.594165598
Pd1      0.510645813  -0.005316486   0.594165843
Pd1     -0.005319329   0.510641455   0.594164260
Pd1      0.500005224   0.499989103   0.592453225
S1       0.166669469   0.166660286   0.660389131
H1       0.166664265   0.166671507   0.715965573
End final coordinates

     Writing output data file calc.save

     General routines

     Parallel routines

   This run was terminated on:  23:51:32  21Apr2018

   JOB DONE.
Job  /afs/slac/g/suncat/bin/suncat-tsmpirun -x LD_LIBRARY_PATH -wdir /scratch/qe480006_YDweX pw.x -npool 4 -in pw.inp

TID   HOST_NAME   COMMAND_LINE            STATUS            TERMINATION_TIME
00000 suncat0264 pw.x -npool 4 -i  Done                     04/21/2018 23:51:32
00001 suncat0264 pw.x -npool 4 -i  Done                     04/21/2018 23:51:32
00002 suncat0264 pw.x -npool 4 -i  Done                     04/21/2018 23:51:32
00003 suncat0264 pw.x -npool 4 -i  Done                     04/21/2018 23:51:32
00004 suncat0264 pw.x -npool 4 -i  Done                     04/21/2018 23:51:32
00005 suncat0264 pw.x -npool 4 -i  Done                     04/21/2018 23:51:32
00006 suncat0264 pw.x -npool 4 -i  Done                     04/21/2018 23:51:32
00007 suncat0264 pw.x -npool 4 -i  Done                     04/21/2018 23:51:32
00008 suncat0233 pw.x -npool 4 -i  Done                     04/21/2018 23:51:32
00009 suncat0233 pw.x -npool 4 -i  Done                     04/21/2018 23:51:32
00010 suncat0233 pw.x -npool 4 -i  Done                     04/21/2018 23:51:32
00011 suncat0233 pw.x -npool 4 -i  Done                     04/21/2018 23:51:32
00012 suncat0233 pw.x -npool 4 -i  Done                     04/21/2018 23:51:32
00013 suncat0233 pw.x -npool 4 -i  Done                     04/21/2018 23:51:32
00014 suncat0233 pw.x -npool 4 -i  Done                     04/21/2018 23:51:32
00015 suncat0233 pw.x -npool 4 -i  Done                     04/21/2018 23:51:32
00016 suncat0213 pw.x -npool 4 -i  Done                     04/21/2018 23:51:32
00017 suncat0213 pw.x -npool 4 -i  Done                     04/21/2018 23:51:32
00018 suncat0213 pw.x -npool 4 -i  Done                     04/21/2018 23:51:32
00019 suncat0213 pw.x -npool 4 -i  Done                     04/21/2018 23:51:32
00020 suncat0213 pw.x -npool 4 -i  Done                     04/21/2018 23:51:32
00021 suncat0213 pw.x -npool 4 -i  Done                     04/21/2018 23:51:32
00022 suncat0213 pw.x -npool 4 -i  Done                     04/21/2018 23:51:32
00023 suncat0213 pw.x -npool 4 -i  Done                     04/21/2018 23:51:32
00024 suncat0207 pw.x -npool 4 -i  Done                     04/21/2018 23:51:32
00025 suncat0207 pw.x -npool 4 -i  Done                     04/21/2018 23:51:32
00026 suncat0207 pw.x -npool 4 -i  Done                     04/21/2018 23:51:32
00027 suncat0207 pw.x -npool 4 -i  Done                     04/21/2018 23:51:32
00028 suncat0207 pw.x -npool 4 -i  Done                     04/21/2018 23:51:32
00029 suncat0207 pw.x -npool 4 -i  Done                     04/21/2018 23:51:32
00030 suncat0207 pw.x -npool 4 -i  Done                     04/21/2018 23:51:32
00031 suncat0207 pw.x -npool 4 -i  Done                     04/21/2018 23:51:32