     Program PWSCF v.5.1rc2 (svn rev. 11289) starts on  4May2018 at  8:40:15

     Current dimensions of program PWSCF are:
     Max number of different atomic species (ntypx) = 10
     Max number of k-points (npk) =  40000
     Max angular momentum in pseudopotentials (lmaxx) =  3
     Presently stress not available with electric field

     IMPORTANT: XC functional enforced from input :
     Exchange-correlation      = BEEF-VDW ( 1  4 27 13 2)
     Any further DFT definition will be discarded
     Please, verify this is what you really want

     Subspace diagonalization in iterative solution of the eigenvalue problem:
     a serial algorithm will be used

     bravais-lattice index     =            0
     lattice parameter (alat)  =       1.8897  a.u.
     unit-cell volume          =    5144.9564 (a.u.)^3
     number of atoms/cell      =           13
     number of atomic types    =            2
     number of electrons       =       137.00
     number of Kohn-Sham states=           78
     kinetic-energy cutoff     =      36.7493  Ry
     charge density cutoff     =     367.4932  Ry
     convergence threshold     =      1.0E-05
     mixing beta               =       0.3000
     number of iterations used =           10  plain     mixing
     Exchange-correlation      = BEEF-VDW ( 1  4 27 13 2)
     nstep                     =           50

     celldm(1)=   1.889726  celldm(2)=   0.000000  celldm(3)=   0.000000
     celldm(4)=   0.000000  celldm(5)=   0.000000  celldm(6)=   0.000000

     crystal axes: (cart. coord. in units of alat)
               a(1) = (   5.950946   0.000000   0.000000 )
               a(2) = (   2.975473   5.153671   0.000000 )
               a(3) = (   0.000000   0.000000  24.858927 )

     reciprocal axes: (cart. coord. in units 2 pi/alat)
               b(1) = (  0.168040 -0.097018  0.000000 )
               b(2) = (  0.000000  0.194036  0.000000 )
               b(3) = (  0.000000  0.000000  0.040227 )

     PseudoPot. # 1 for Au read from file:
     /u/if/mamunm/psp/gbrv1.5pbe/Au.UPF
     MD5 check sum: 9d7f43293ad2c663164586bc4b293ffc
     Pseudo is Ultrasoft + core correction, Zval = 11.0
     Generated by new atomic code, or converted to UPF format
     Using radial grid of  985 points,  7 beta functions with:
                l(1) =   0
                l(2) =   0
                l(3) =   1
                l(4) =   1
                l(5) =   2
                l(6) =   2
                l(7) =   3
     Q(r) pseudized with  6 coefficients,  rinner =    1.900   1.900   1.900
                                                       1.900   1.900   1.900
                                                       1.900

     PseudoPot. # 2 for N  read from file:
     /u/if/mamunm/psp/gbrv1.5pbe/N.UPF
     MD5 check sum: 95339753478d7afb44899504a8723017
     Pseudo is Ultrasoft + core correction, Zval =  5.0
     Generated by new atomic code, or converted to UPF format
     Using radial grid of  729 points,  4 beta functions with:
                l(1) =   0
                l(2) =   0
                l(3) =   1
                l(4) =   1
     Q(r) pseudized with  8 coefficients,  rinner =    0.900   0.900   0.900

     vdW kernel table read from file vdW_kernel_table
     MD5 check sum: 095c7af220d748ca6e76c0b4c6cfb241

     atomic species   valence    mass     pseudopotential
        Au1           11.00   196.96657     Au( 1.00)
        N1             5.00    14.00700     N ( 1.00)

     No symmetry found

   Cartesian axes

     site n.     atom                  positions (alat units)
         1           Au1 tau(   1) = (   1.4877366   0.8589451  10.0000000  )
         2           Au1 tau(   2) = (   4.4632098   0.8589451  10.0000000  )
         3           Au1 tau(   3) = (   2.9754732   3.4357805  10.0000000  )
         4           Au1 tau(   4) = (   5.9509464   3.4357805  10.0000000  )
         5           Au1 tau(   5) = (   5.9509464   1.7178903  12.4294637  )
         6           Au1 tau(   6) = (   2.9754732   1.7178903  12.4294637  )
         7           Au1 tau(   7) = (   7.4386830   4.2947256  12.4294637  )
         8           Au1 tau(   8) = (   4.4632098   4.2947256  12.4294637  )
         9           Au1 tau(   9) = (   0.0000000   0.0000000  14.8589274  )
        10           Au1 tau(  10) = (   2.9754732   0.0000000  14.8589274  )
        11           Au1 tau(  11) = (   1.4877366   2.5768354  14.8589274  )
        12           Au1 tau(  12) = (   4.4632098   2.5768354  14.8589274  )
        13           N1  tau(  13) = (   0.0000000   0.0000000  16.6184274  )

     number of k points=    20  Fermi-Dirac smearing, width (Ry)=  0.0110
                       cart. coord. in units 2pi/alat
        k(    1) = (   0.0000000   0.0000000   0.0000000), wk =   0.0555556
        k(    2) = (   0.0000000   0.0323394   0.0000000), wk =   0.1111111
        k(    3) = (   0.0000000   0.0646788   0.0000000), wk =   0.1111111
        k(    4) = (   0.0000000  -0.0970182   0.0000000), wk =   0.0555556
        k(    5) = (   0.0280067  -0.0161697   0.0000000), wk =   0.1111111
        k(    6) = (   0.0280067   0.0161697   0.0000000), wk =   0.1111111
        k(    7) = (   0.0280067   0.0485091   0.0000000), wk =   0.1111111
        k(    8) = (   0.0280067  -0.1131879   0.0000000), wk =   0.1111111
        k(    9) = (   0.0280067  -0.0808485   0.0000000), wk =   0.1111111
        k(   10) = (   0.0280067  -0.0485091   0.0000000), wk =   0.1111111
        k(   11) = (   0.0560135  -0.0323394   0.0000000), wk =   0.1111111
        k(   12) = (   0.0560135   0.0000000   0.0000000), wk =   0.1111111
        k(   13) = (   0.0560135   0.0323394   0.0000000), wk =   0.1111111
        k(   14) = (   0.0560135  -0.1293576   0.0000000), wk =   0.1111111
        k(   15) = (   0.0560135  -0.0970182   0.0000000), wk =   0.1111111
        k(   16) = (   0.0560135  -0.0646788   0.0000000), wk =   0.1111111
        k(   17) = (  -0.0840202   0.0485091   0.0000000), wk =   0.0555556
        k(   18) = (  -0.0840202   0.0808485   0.0000000), wk =   0.1111111
        k(   19) = (  -0.0840202   0.1131879   0.0000000), wk =   0.1111111
        k(   20) = (  -0.0840202  -0.0485091   0.0000000), wk =   0.0555556

     Largest allocated arrays     est. size (Mb)     dimensions
     Largest temporary arrays     est. size (Mb)     dimensions

     Check: negative/imaginary core charge=   -0.000002    0.000000

     Initial potential from superposition of free atoms

     starting charge  136.99852, renormalised to  137.00000

     negative rho (up, down):  8.160E-05 0.000E+00

     *
     * You are using vdW-DF for exchange-correlation in this calculation.
     * Please cite the following three references that made this development
     * possible:
     *
     *   M. Dion, H. Rydberg, E. Schroder, D. C. Langreth, and
     *   B. I. Lundqvist, Phys. Rev. Lett. 92, 246401 (2004).
     *
     *   T. Thonhauser, V. R. Cooper, S. Li, A. Puzder, P. Hyldgaard, and
     *   D. C. Langreth, Phys. Rev. B 76, 125112 (2007).
     *
     *   G. Roman-Perez and J. M. Soler, Phys. Rev. Lett. 103, 096102 (2009).
     *
     *
     * If you are using vdW-DF2, please also cite:
     *
     *   K. Lee, E. D. Murray, L. Kong, B. I. Lundqvist, and
     *   D. C. Langreth, Phys. Rev. B 82, 081101(R) (2010).
     *
     *
     * If you are calculating the stress with vdW-DF, please also cite:
     *
     *   R. Sabatini, E. Kucukbenli, B. Kolb, T. Thonhauser, and
     *   S. de Gironcoli, J. Phys.: Condens. Matter 24, 424209 (2012).
     *

     Carrying out vdW-DF run using the following parameters:

     Nqs =      20    Nr_points =    1024   r_max =   100.000
     q_mesh =
               0.00001000     0.04494208     0.09755937     0.15916263
               0.23128650     0.31572767     0.41458969     0.53033537
               0.66584808     0.82450364     1.01025438     1.22772762
               1.48234092     1.78043706     2.12944203     2.53805004
               3.01644009     3.57652955     4.23227104     5.00000000

     Gradients computed in reciprocal space

     Adding external electric field

     Computed dipole along edir(3) :
        Dipole               -0.0004 Ry au,         -0.0009 Debye
        Dipole field         -0.0000 Ry au

        Potential amp.        0.0001 Ry
        Total length         45.8022 bohr

     Starting wfc are  112 randomized atomic wfcs

     Self-consistent Calculation

     iteration #  1     ecut=    36.75 Ry     beta=0.30
     Davidson diagonalization with overlap
     ethr =  1.00E-02,  avg # of iterations =  2.0

[...]

     total energy              =   -1418.87487734 Ry
     Harris-Foulkes estimate   =   -1420.73925017 Ry
     estimated scf accuracy    <       4.03153793 Ry

[...]

     End of self-consistent calculation

          k = 0.0000 0.0000 0.0000 ( 19315 PWs)   bands (ev):

   -14.5243  -8.2024  -6.9755  -6.5253  -6.5072  -6.5072  -6.2147  -6.1868
    -6.1868  -6.0018  -6.0018  -5.9683  -5.8173  -5.6625  -5.6625  -5.5560
    -5.3656  -5.3656  -5.1432  -4.5269  -4.4863  -4.4863  -4.3520  -4.3077
    -4.3077  -4.2463  -4.2463  -4.1790  -4.0837  -4.0837  -3.9750  -3.9415
    -3.9415  -3.7278  -3.6035  -3.6035  -3.3560  -3.3560  -3.0560  -3.0560
    -2.9684  -2.8736  -2.8736  -2.8105  -2.6631  -2.6631  -2.5638  -2.3805
    -2.3805  -2.2841  -2.2756  -2.2756  -2.1974  -2.1973  -2.1110  -2.1110
    -2.0678  -2.0272  -2.0272  -1.7915  -1.7776  -1.7776  -1.7585  -1.5525
    -0.8373  -0.8373   0.0645   0.4366   0.6342   0.6342   1.1222   1.1872
     1.3111   1.3111   1.4350   1.9090   1.9090   3.1046

[...]

          k =-0.0840 0.0485 0.0000 ( 19380 PWs)   bands (ev):

[...]

     the Fermi energy is    -0.1048 ev

!    total energy              =   -1420.44664308 Ry
     Harris-Foulkes estimate   =   -1420.44666702 Ry
     estimated scf accuracy    <       0.00000870 Ry

     The total energy is the sum of the following terms:

     one-electron contribution =   -8236.64854662 Ry
     hartree contribution      =    4214.74009489 Ry
     xc contribution           =    -773.39333400 Ry
     ewald contribution        =    3374.89032481 Ry
     electric field correction =       0.00024882 Ry
     smearing contrib. (-TS)   =      -0.03543098 Ry

     convergence has been achieved in  11 iterations

 BEEF-vdW xc energy contributions
           1 :   -691.169931077673
           2 :    642.327854637820
           3 :   -555.072740034615
           4 :    446.393302820352
           5 :   -334.537659807225
           6 :    234.339423049767
           7 :   -154.460770634660
           8 :    96.9690644310940
           9 :   -58.9417946007915
          10 :    35.1080389208383
          11 :   -20.3450582049794
          12 :    11.1127811736659
          13 :   -5.59367402656301
          14 :    2.93756089062026
          15 :   -2.34041031714457
          16 :    2.54271530966287
          17 :   -1.97747482073612
          18 :  -0.617178712096006
          19 :    5.54756172530551
          20 :   -11.9124109487838
          21 :    17.9376906203253
          22 :   -21.7607941937964
          23 :    22.2647008094934
          24 :   -19.5532651507621
          25 :    14.8498028794135
          26 :   -9.89973727705308
          27 :    6.19284108341992
          28 :   -4.39675557665021
          29 :    4.24735622783453
          30 :   -4.89560072205438
          31 :   -54.7470603308601
          32 :   -39.8737098959773

     Forces acting on atoms (Ry/au):

     negative rho (up, down):  6.029E-04 0.000E+00
     atom    1 type  1   force =    -0.00131975   -0.00076304   -0.00417172
     atom    2 type  1   force =     0.00132613   -0.00076385   -0.00417229
     atom    3 type  1   force =    -0.00000171    0.00153272   -0.00416961
     atom    4 type  1   force =     0.00000285   -0.00001086   -0.00248962
     atom    5 type  1   force =    -0.00000688   -0.00268080    0.00165999
     atom    6 type  1   force =     0.00000019   -0.00000218    0.00135007
     atom    7 type  1   force =     0.00232142    0.00134223    0.00168132
     atom    8 type  1   force =    -0.00232497    0.00134266    0.00167909
     atom    9 type  1   force =    -0.00000219   -0.00000259   -0.13521251
     atom   10 type  1   force =    -0.00000250    0.00008704   -0.00269133
     atom   11 type  1   force =     0.00007840   -0.00004390   -0.00266138
     atom   12 type  1   force =    -0.00007126   -0.00003771   -0.00268258
     atom   13 type  2   force =     0.00000027    0.00000028    0.15188055

     Total force =     0.203400     Total SCF correction =     0.010588

     entering subroutine stress ...

     negative rho (up, down):  6.029E-04 0.000E+00
          total   stress  (Ry/bohr**3)                   (kbar)     P=   -1.14
  -0.00008022   0.00000000  -0.00000000        -11.80      0.00     -0.00
   0.00000000  -0.00008022  -0.00000000          0.00    -11.80     -0.00
  -0.00000000  -0.00000000   0.00013727         -0.00     -0.00     20.19

     BFGS Geometry Optimization

     number of scf cycles    =   1
     number of bfgs steps    =   0

     energy   new            =   -1420.4466430762 Ry

     new trust radius        =       0.1518805532 bohr
     new conv_thr            =       0.0000099958 Ry

ATOMIC_POSITIONS (crystal)
Au1      0.166666667   0.166666667   0.402269971    0   0   0
Au1      0.666666667   0.166666667   0.402269971    0   0   0
Au1      0.166666667   0.666666667   0.402269971    0   0   0
Au1      0.666666667   0.666666667   0.402269971    0   0   0
Au1      0.833333333   0.333333333   0.500000000    0   0   0
Au1      0.333333333   0.333333333   0.500000000    0   0   0
Au1      0.833333333   0.833333333   0.500000000    0   0   0
Au1      0.333333333   0.833333333   0.500000000    0   0   0
Au1     -0.000000062  -0.000000266   0.594851732
Au1      0.499995309   0.000008937   0.597672738
Au1      0.000009225   0.499995493   0.597673376
Au1      0.499995600   0.499996128   0.597672924
N1       0.000000009   0.000000029   0.671742544

     Writing output data file calc.save
     NEW-OLD atomic charge density approx. for the potential

[...]

     energy   old            =   -1420.4466430762 Ry
     energy   new            =   -1420.4628009098 Ry

     CASE: energy  _new < energy  _old

[...]

     Total force =     0.011300     Total SCF correction =     0.001146
     SCF correction compared to forces is large: reduce conv_thr to get better values

[...]

     CASE: energy  _new > energy  _old

[...]

     WARNING: bfgs curvature condition failed, Theta= 0.828
     new trust radius        =       0.0020371584 bohr
     new conv_thr            =       0.0000001000 Ry

[...]

     Threshold (ethr) on eigenvalues was too large:
     Diagonalizing with lowered threshold

     Davidson diagonalization with overlap
     ethr =  2.42E-09,  avg # of iterations =  4.0

[...]

     WARNING: bfgs curvature condition failed, Theta= 0.683
     uphill step: resetting bfgs history

[...]

     Total force =     0.004663     Total SCF correction =     0.000296

[...]

     number of scf cycles    =  17
     number of bfgs steps    =  15

     energy   old            =   -1420.4649246664 Ry
     energy   new            =   -1420.4649524252 Ry

     CASE: energy  _new < energy  _old

     new trust radius        =       0.0105878387 bohr
     new conv_thr            =       0.0000001000 Ry

ATOMIC_POSITIONS (crystal)
Au1      0.166666667   0.166666667   0.402269971    0   0   0
Au1      0.666666667   0.166666667   0.402269971    0   0   0
Au1      0.166666667   0.666666667   0.402269971    0   0   0
Au1      0.666666667   0.666666667   0.402269971    0   0   0
Au1      0.833333333   0.333333333   0.500000000    0   0   0
Au1      0.333333333   0.333333333   0.500000000    0   0   0
Au1      0.833333333   0.833333333   0.500000000    0   0   0
Au1      0.333333333   0.833333333   0.500000000    0   0   0
Au1     -0.000000213   0.000000131   0.601028000
Au1      0.500003754  -0.000007482   0.597909531
Au1     -0.000007529   0.500003702   0.597909245
Au1      0.500003797   0.500003681   0.597909524
N1       0.000000182   0.000000099   0.677246082

     Writing output data file calc.save
     NEW-OLD atomic charge density approx. for the potential

     Check: negative/imaginary core charge=   -0.000002    0.000000

[...]

     Self-consistent Calculation

[...]

     Threshold (ethr) on eigenvalues was too large:
     Diagonalizing with lowered threshold

     Davidson diagonalization with overlap
     ethr =  7.81E-08,  avg # of iterations =  1.0

[...]

     total energy              =   -1420.46496491 Ry
     Harris-Foulkes estimate   =   -1420.46496488 Ry
     estimated scf accuracy    <       0.00000021 Ry

     iteration #  7     ecut=    36.75 Ry     beta=0.30
     Davidson diagonalization with overlap
     ethr =  1.50E-10,  avg # of iterations =  3.0

[...]

     negative rho (up, down):  5.953E-04 0.000E+00

     Adding external electric field

     Computed dipole along edir(3) :
        Dipole               -0.4081 Ry au,         -1.0372 Debye
        Dipole field         -0.0010 Ry au

        Potential amp.        0.0913 Ry
        Total length         45.8022 bohr

     End of self-consistent calculation

[...]

          k = 0.0560-0.0647 0.0000 ( 19376 PWs)   bands (ev):

[...]

          k =-0.0840-0.0485 0.0000 ( 19380 PWs)   bands (ev):

   -13.6126  -6.8115  -6.7932  -5.9553  -5.8244  -5.7513  -5.6756  -5.6011
    -5.5328  -5.5067  -5.4978  -5.3752  -5.2369  -5.1784  -5.1266  -5.0187
    -5.0051  -4.9071  -4.8974  -4.7880  -4.6802  -4.6577  -4.6090  -4.4889
    -4.4413  -4.4197  -4.3769  -4.2535  -4.0989  -3.9955  -3.9714  -3.9059
    -3.8797  -3.8519  -3.8330  -3.7769  -3.7350  -3.7335  -3.7270  -3.6949
    -3.6431  -3.5950  -3.4978  -3.4630  -3.3754  -3.2853  -3.2305  -3.2028
    -3.1557  -3.1257  -3.0817  -3.0143  -2.9849  -2.8890  -2.8743  -2.7093
    -2.6887  -2.5755  -2.3450  -2.3347  -2.2857  -2.2579  -2.2268  -2.1090
    -2.0459  -0.7733  -0.6648  -0.4375  -0.2961  -0.0135   0.1770   0.5548
     1.1081   1.4985   2.8090   2.9963   3.3074   4.2846

     the Fermi energy is    -0.2022 ev

!    total energy              =   -1420.46496492 Ry
     Harris-Foulkes estimate   =   -1420.46496632 Ry
     estimated scf accuracy    <       0.00000008 Ry

     The total energy is the sum of the following terms:

     one-electron contribution =   -8169.63751472 Ry
     hartree contribution      =    4181.09193303 Ry
     xc contribution           =    -773.27728788 Ry
     ewald contribution        =    3341.39524353 Ry
     electric field correction =       0.00040668 Ry
     smearing contrib. (-TS)   =      -0.03774556 Ry

     convergence has been achieved in   7 iterations

 BEEF-vdW xc energy contributions
           1 :   -691.045603462777
           2 :    642.140437067829
           3 :   -554.808344615517
           4 :    446.095317037207
           5 :   -334.278556304041
           6 :    234.181842237407
           7 :   -154.427022341274
           8 :    97.0309592964838
           9 :   -59.0348625662693
          10 :    35.1637480407352
          11 :   -20.3254021688480
          12 :    11.0280880460830
          13 :   -5.49351665792972
          14 :    2.88101888369044
          15 :   -2.36258221704077
          16 :    2.63644947508294
          17 :   -2.09964109845441
          18 :  -0.519874350332316
          19 :    5.50798831084114
          20 :   -11.9256453969781
          21 :    17.9667713655512
          22 :   -21.7619028767282
          23 :    22.2166345368443
          24 :   -19.4728055425369
          25 :    14.7832098350593
          26 :   -9.89539385433375
          27 :    6.27092160443101
          28 :   -4.53309944777300
          29 :    4.38267758615416
          30 :   -4.96575239834078
          31 :   -54.7386960354239
          32 :   -39.8499789717673

     Forces acting on atoms (Ry/au):

     negative rho (up, down):  5.953E-04 0.000E+00
     atom    1 type  1   force =    -0.00121131   -0.00069935   -0.00452507
     atom    2 type  1   force =     0.00121130   -0.00069937   -0.00452499
     atom    3 type  1   force =     0.00000001    0.00139870   -0.00452496
     atom    4 type  1   force =     0.00000002    0.00000001   -0.00296454
     atom    5 type  1   force =    -0.00000018   -0.00451815    0.00524985
     atom    6 type  1   force =     0.00000019   -0.00000011    0.00233402
     atom    7 type  1   force =     0.00391274    0.00225922    0.00525004
     atom    8 type  1   force =    -0.00391275    0.00225900    0.00525017
     atom    9 type  1   force =    -0.00000006   -0.00000034    0.00140761
     atom   10 type  1   force =    -0.00000004   -0.00013307   -0.00043739
     atom   11 type  1   force =    -0.00011494    0.00006671   -0.00043670
     atom   12 type  1   force =     0.00011499    0.00006675   -0.00043755
     atom   13 type  2   force =     0.00000004    0.00000001   -0.00164049

     Total force =     0.002302     Total SCF correction =     0.001398
     SCF correction compared to forces is large: reduce conv_thr to get better values

     entering subroutine stress ...

     negative rho (up, down):  5.953E-04 0.000E+00
          total   stress  (Ry/bohr**3)                   (kbar)     P=   -9.74
  -0.00010431   0.00000000   0.00000000        -15.35      0.00      0.00
   0.00000000  -0.00010431  -0.00000000          0.00    -15.35     -0.00
   0.00000000  -0.00000000   0.00001006          0.00     -0.00      1.48

     bfgs converged in  18 scf cycles and  16 bfgs steps
     (criteria: energy <  1.0E+00, force <  1.9E-03)

     End of BFGS Geometry Optimization

     Final energy   =   -1420.4649649216 Ry
Begin final coordinates

ATOMIC_POSITIONS (crystal)
Au1      0.166666667   0.166666667   0.402269971    0   0   0
Au1      0.666666667   0.166666667   0.402269971    0   0   0
Au1      0.166666667   0.666666667   0.402269971    0   0   0
Au1      0.666666667   0.666666667   0.402269971    0   0   0
Au1      0.833333333   0.333333333   0.500000000    0   0   0
Au1      0.333333333   0.333333333   0.500000000    0   0   0
Au1      0.833333333   0.833333333   0.500000000    0   0   0
Au1      0.333333333   0.833333333   0.500000000    0   0   0
Au1     -0.000000213   0.000000131   0.601028000
Au1      0.500003754  -0.000007482   0.597909531
Au1     -0.000007529   0.500003702   0.597909245
Au1      0.500003797   0.500003681   0.597909524
N1       0.000000182   0.000000099   0.677246082
End final coordinates

     Writing output data file calc.save

     General routines

     Parallel routines

   This run was terminated on:  10:41: 1   4May2018

   JOB DONE.
Job  /afs/slac/g/suncat/bin/suncat-tsmpirun -x LD_LIBRARY_PATH -wdir /scratch/qe922128_S3ZHk pw.x -npool 4 -in pw.inp

TID   HOST_NAME   COMMAND_LINE            STATUS            TERMINATION_TIME
00000 suncat0180 pw.x -npool 4 -i  Done                     05/04/2018 10:41:01
00001 suncat0180 pw.x -npool 4 -i  Done                     05/04/2018 10:41:01
00002 suncat0180 pw.x -npool 4 -i  Done                     05/04/2018 10:41:01
00003 suncat0180 pw.x -npool 4 -i  Done                     05/04/2018 10:41:01
00004 suncat0180 pw.x -npool 4 -i  Done                     05/04/2018 10:41:01
00005 suncat0180 pw.x -npool 4 -i  Done                     05/04/2018 10:41:01
00006 suncat0180 pw.x -npool 4 -i  Done                     05/04/2018 10:41:01
00007 suncat0180 pw.x -npool 4 -i  Done                     05/04/2018 10:41:01
00008 suncat0166 pw.x -npool 4 -i  Done                     05/04/2018 10:41:01
00009 suncat0166 pw.x -npool 4 -i  Done                     05/04/2018 10:41:01
00010 suncat0166 pw.x -npool 4 -i  Done                     05/04/2018 10:41:01
00011 suncat0166 pw.x -npool 4 -i  Done                     05/04/2018 10:41:01
00012 suncat0166 pw.x -npool 4 -i  Done                     05/04/2018 10:41:01
00013 suncat0166 pw.x -npool 4 -i  Done                     05/04/2018 10:41:01
00014 suncat0166 pw.x -npool 4 -i  Done                     05/04/2018 10:41:01
00015 suncat0166 pw.x -npool 4 -i  Done                     05/04/2018 10:41:01
00016 suncat0152 pw.x -npool 4 -i  Done                     05/04/2018 10:41:01
00017 suncat0152 pw.x -npool 4 -i  Done                     05/04/2018 10:41:01
00018 suncat0152 pw.x -npool 4 -i  Done                     05/04/2018 10:41:01
00019 suncat0152 pw.x -npool 4 -i  Done                     05/04/2018 10:41:01
00020 suncat0152 pw.x -npool 4 -i  Done                     05/04/2018 10:41:01
00021 suncat0152 pw.x -npool 4 -i  Done                     05/04/2018 10:41:01
00022 suncat0152 pw.x -npool 4 -i  Done                     05/04/2018 10:41:01
00023 suncat0152 pw.x -npool 4 -i  Done                     05/04/2018 10:41:01
00024 suncat0139 pw.x -npool 4 -i  Done                     05/04/2018 10:41:01
00025 suncat0139 pw.x -npool 4 -i  Done                     05/04/2018 10:41:01
00026 suncat0139 pw.x -npool 4 -i  Done                     05/04/2018 10:41:01
00027 suncat0139 pw.x -npool 4 -i  Done                     05/04/2018 10:41:01
00028 suncat0139 pw.x -npool 4 -i  Done                     05/04/2018 10:41:01
00029 suncat0139 pw.x -npool 4 -i  Done                     05/04/2018 10:41:01
00030 suncat0139 pw.x -npool 4 -i  Done                     05/04/2018 10:41:01
00031 suncat0139 pw.x -npool 4 -i  Done                     05/04/2018 10:41:01