     Program PWSCF v.5.1rc2 (svn rev. 11289) starts on  2May2018 at 17:49:10

     Current dimensions of program PWSCF are:
     Max number of different atomic species (ntypx) = 10
     Max number of k-points (npk) =  40000
     Max angular momentum in pseudopotentials (lmaxx) =  3
     Presently stress not available with electric field

     IMPORTANT: XC functional enforced from input :
     Exchange-correlation      = BEEF-VDW ( 1  4 27 13 2)
     Any further DFT definition will be discarded
     Please, verify this is what you really want

     Subspace diagonalization in iterative solution of the eigenvalue problem:
     a serial algorithm will be used

     bravais-lattice index     =            0
     lattice parameter (alat)  =       1.8897  a.u.
     unit-cell volume          =    4158.3597 (a.u.)^3
     number of atoms/cell      =           13
     number of atomic types    =            2
     number of electrons       =       162.00
     number of Kohn-Sham states=           91
     kinetic-energy cutoff     =      36.7493  Ry
     charge density cutoff     =     367.4932  Ry
     convergence threshold     =      1.0E-05
     mixing beta               =       0.3000
     number of iterations used =           10  plain     mixing
     Exchange-correlation      = BEEF-VDW ( 1  4 27 13 2)
     nstep                     =           50

     celldm(1)=   1.889726  celldm(2)=   0.000000  celldm(3)=   0.000000
     celldm(4)=   0.000000  celldm(5)=   0.000000  celldm(6)=   0.000000

     crystal axes: (cart. coord. in units of alat)
               a(1) = (   5.399178   0.000000   0.000000 )
               a(2) = (   2.699589   4.675825   0.000000 )
               a(3) = (   0.000000   0.000000  24.408411 )

     reciprocal axes: (cart. coord. in units 2 pi/alat)
               b(1) = (  0.185213 -0.106933  0.000000 )
               b(2) = (  0.000000  0.213866  0.000000 )
               b(3) = (  0.000000  0.000000  0.040969 )

     PseudoPot. # 1 for V  read from file:
     /u/if/mamunm/psp/gbrv1.5pbe/V.UPF
     MD5 check sum: 22b79981416ebb76fdaf5b1b8640f6fb
     Pseudo is Ultrasoft + core correction, Zval = 13.0
     Generated by new atomic code, or converted to UPF format
     Using radial grid of  853 points,  6 beta functions with:
                l(1) =   0
                l(2) =   0
                l(3) =   1
                l(4) =   1
                l(5) =   2
                l(6) =   2
     Q(r) pseudized with  8 coefficients,  rinner =    1.100   1.100   1.100
                                                       1.100   1.100

     PseudoPot. # 2 for O  read from file:
     /u/if/mamunm/psp/gbrv1.5pbe/O.UPF
     MD5 check sum: 734c27235a0248c51dbae37a1fbe46ec
     Pseudo is Ultrasoft + core correction, Zval =  6.0
     Generated by new atomic code, or converted to UPF format
     Using radial grid of  737 points,  5 beta functions with:
                l(1) =   0
                l(2) =   0
                l(3) =   1
                l(4) =   1
                l(5) =   2
     Q(r) pseudized with  8 coefficients,  rinner =    0.900   0.900   0.900
                                                       0.900   0.900

     vdW kernel table read from file vdW_kernel_table
     MD5 check sum: 095c7af220d748ca6e76c0b4c6cfb241

     atomic species   valence    mass     pseudopotential
        V1            13.00    50.94150     V ( 1.00)
        O1             6.00    15.99900     O ( 1.00)

     No symmetry found

   Cartesian axes

     site n.     atom                  positions (alat units)
         1           V1  tau(   1) = (   1.3497945   0.7793042  10.0000000  )
         2           V1  tau(   2) = (   4.0493836   0.7793042  10.0000000  )
         3           V1  tau(   3) = (   2.6995891   3.1172170  10.0000000  )
         4           V1  tau(   4) = (   5.3991782   3.1172170  10.0000000  )
         5           V1  tau(   5) = (   5.3991782   1.5586085  12.2042053  )
         6           V1  tau(   6) = (   2.6995891   1.5586085  12.2042053  )
         7           V1  tau(   7) = (   6.7489727   3.8965212  12.2042053  )
         8           V1  tau(   8) = (   4.0493836   3.8965212  12.2042053  )
         9           V1  tau(   9) = (   0.0000000   0.0000000  14.4084105  )
        10           V1  tau(  10) = (   2.6995891   0.0000000  14.4084105  )
        11           V1  tau(  11) = (   1.3497945   2.3379127  14.4084105  )
        12           V1  tau(  12) = (   4.0493836   2.3379127  14.4084105  )
        13           O1  tau(  13) = (   0.0000000   0.0000000  16.2699105  )

     number of k points=    20  Fermi-Dirac smearing, width (Ry)=  0.0110
                       cart. coord. in units 2pi/alat
        k(    1) = (   0.0000000   0.0000000   0.0000000), wk =   0.0555556
        k(    2) = (   0.0000000   0.0356443   0.0000000), wk =   0.1111111
        k(    3) = (   0.0000000   0.0712887   0.0000000), wk =   0.1111111
        k(    4) = (   0.0000000  -0.1069330   0.0000000), wk =   0.0555556
        k(    5) = (   0.0308689  -0.0178222   0.0000000), wk =   0.1111111
        k(    6) = (   0.0308689   0.0178222   0.0000000), wk =   0.1111111
        k(    7) = (   0.0308689   0.0534665   0.0000000), wk =   0.1111111
        k(    8) = (   0.0308689  -0.1247552   0.0000000), wk =   0.1111111
        k(    9) = (   0.0308689  -0.0891108   0.0000000), wk =   0.1111111
        k(   10) = (   0.0308689  -0.0534665   0.0000000), wk =   0.1111111
        k(   11) = (   0.0617378  -0.0356443   0.0000000), wk =   0.1111111
        k(   12) = (   0.0617378   0.0000000   0.0000000), wk =   0.1111111
        k(   13) = (   0.0617378   0.0356443   0.0000000), wk =   0.1111111
        k(   14) = (   0.0617378  -0.1425773   0.0000000), wk =   0.1111111
        k(   15) = (   0.0617378  -0.1069330   0.0000000), wk =   0.1111111
        k(   16) = (   0.0617378  -0.0712887   0.0000000), wk =   0.1111111
        k(   17) = (  -0.0926067   0.0534665   0.0000000), wk =   0.0555556
        k(   18) = (  -0.0926067   0.0891108   0.0000000), wk =   0.1111111
        k(   19) = (  -0.0926067   0.1247552   0.0000000), wk =   0.1111111
        k(   20) = (  -0.0926067  -0.0534665   0.0000000), wk =   0.0555556

     Largest allocated arrays     est. size (Mb)     dimensions
     Largest temporary arrays     est. size (Mb)     dimensions

     Check: negative/imaginary core charge=   -0.000001    0.000000

     Initial potential from superposition of free atoms
     Check: negative starting charge=   -0.011706

     starting charge  161.98527, renormalised to  162.00000

     negative rho (up, down):  1.171E-02 0.000E+00

     *
     * You are using vdW-DF for exchange-correlation in this calculation.
     * Please cite the following three references that made this development
     * possible:
     *
     *   M. Dion, H. Rydberg, E. Schroder, D. C. Langreth, and
     *   B. I. Lundqvist, Phys. Rev. Lett. 92, 246401 (2004).
     *
     *   T. Thonhauser, V. R. Cooper, S. Li, A. Puzder, P. Hyldgaard, and
     *   D. C. Langreth, Phys. Rev. B 76, 125112 (2007).
     *
     *   G. Roman-Perez and J. M. Soler, Phys. Rev. Lett. 103, 096102 (2009).
     *
     *
     * If you are using vdW-DF2, please also cite:
     *
     *   K. Lee, E. D. Murray, L. Kong, B. I. Lundqvist, and
     *   D. C. Langreth, Phys. Rev. B 82, 081101(R) (2010).
     *
     *
     * If you are calculating the stress with vdW-DF, please also cite:
     *
     *   R. Sabatini, E. Kucukbenli, B. Kolb, T. Thonhauser, and
     *   S. de Gironcoli, J. Phys.: Condens. Matter 24, 424209 (2012).
     *

     Carrying out vdW-DF run using the following parameters:

     Nqs =      20    Nr_points =    1024   r_max =   100.000
     q_mesh =
               0.00001000     0.04494208     0.09755937     0.15916263
               0.23128650     0.31572767     0.41458969     0.53033537
               0.66584808     0.82450364     1.01025438     1.22772762
               1.48234092     1.78043706     2.12944203     2.53805004
               3.01644009     3.57652955     4.23227104     5.00000000

     Gradients computed in reciprocal space

     Adding external electric field

     Computed dipole along edir(3) :
        Dipole               -0.0042 Ry au,         -0.0106 Debye
        Dipole field         -0.0000 Ry au

        Potential amp.        0.0011 Ry
        Total length         44.9721 bohr

     Starting wfc are  124 randomized atomic wfcs

     Self-consistent Calculation

     iteration #  1     ecut=    36.75 Ry     beta=0.30
     Davidson diagonalization with overlap
     ethr =  1.00E-02,  avg # of iterations =  2.4

[...]

     total energy              =   -1776.26926478 Ry
     Harris-Foulkes estimate   =   -1782.13984546 Ry
     estimated scf accuracy    <      12.14036116 Ry

[...]

     End of self-consistent calculation

          k = 0.0000 0.0000 0.0000 ( 15569 PWs)   bands (ev):

   -63.8291 -63.7278 -63.6917 -63.6584 -63.6572 -63.6273 -63.5952 -63.5693
   -63.5689 -63.5441 -63.5412 -63.5409 -37.8822 -37.8818 -37.8748 -37.8132
   -37.8130 -37.8117 -37.7866 -37.7109 -37.7108 -37.7029 -37.6280 -37.5605
   -37.5224 -37.5215 -37.4182 -37.4170 -37.4168 -37.3947 -37.3723 -37.3722
   -37.3025 -37.2895 -37.2894 -37.2802 -37.2731 -37.2728 -37.2427 -37.2042
   -37.2041 -37.1919 -37.1810 -37.1806 -37.1346 -37.1345 -37.0713 -37.0713
   -16.2992  -5.5337  -3.9784  -2.8918  -2.6579  -2.6579  -2.6060  -2.4795
    -2.2877  -2.2877  -2.1200  -2.1199  -2.0818  -1.7947  -1.7946  -1.7785
    -1.6477  -1.6477  -1.6162  -0.8803  -0.6076  -0.6075   0.0598   0.1860
     0.2824   0.2825   0.4128   0.5952   0.6915   0.6915   0.7801   0.7803
     0.8491   0.8491   0.9395   0.9568   0.9569   0.9772   0.9772   1.0624
     1.4304   1.6946   1.6948

[...]

          k =-0.0926 0.0535 0.0000 ( 15660 PWs)   bands (ev):

[...]

     the Fermi energy is     0.5586 ev

!    total energy              =   -1781.43855166 Ry
     Harris-Foulkes estimate   =   -1781.43856927 Ry
     estimated scf accuracy    <       0.00000593 Ry

     The total energy is the sum of the following terms:

     one-electron contribution =  -15307.30280217 Ry
     hartree contribution      =    7641.37968451 Ry
     xc contribution           =    -251.66667158 Ry
     ewald contribution        =    6136.29356352 Ry
     electric field correction =       0.00039963 Ry
     smearing contrib. (-TS)   =      -0.14272557 Ry

     convergence has been achieved in  29 iterations

 BEEF-vdW xc energy contributions
           1 :   -216.779599033436
           2 :    194.299529389084
           3 :   -157.289157238051
           4 :    117.465710062598
           5 :   -84.8923287945452
           6 :    64.2600762885207
           7 :   -54.3648064655474
           8 :    50.3827449085763
           9 :   -47.2436003989052
          10 :    42.1787276663544
          11 :   -35.3690580420836
          12 :    28.8076811257583
          13 :   -24.4260132857165
          14 :    22.7292116686421
          15 :   -22.6545236978109
          16 :    22.4910368794623
          17 :   -21.0898706952225
          18 :    18.5241501552115
          19 :   -15.8353742263579
          20 :    14.1557313808905
          21 :   -13.8857148546522
          22 :    14.4785120959622
          23 :   -14.9044940500800
          24 :    14.3955235328496
          25 :   -12.9352999001451
          26 :    11.1928063330643
          27 :   -9.99877236769584
          28 :    9.76103860175306
          29 :   -10.2238660335915
          30 :    10.7016911024017
          31 :   -22.4968694996588
          32 :   -16.1667405695972

     Forces acting on atoms (Ry/au):

     negative rho (up, down):  1.554E-02 0.000E+00
     atom    1 type  1   force =    -0.00022478   -0.00011843   -0.00147283
     atom    2 type  1   force =     0.00023468   -0.00012369   -0.00145754
     atom    3 type  1   force =     0.00001073    0.00024770   -0.00147079
     atom    4 type  1   force =    -0.00000306   -0.00000544   -0.00059861
     atom    5 type  1   force =     0.00000810    0.00592198   -0.00535326
     atom    6 type  1   force =    -0.00002361    0.00004009    0.00944196
     atom    7 type  1   force =    -0.00508097   -0.00297909   -0.00542507
     atom    8 type  1   force =     0.00508408   -0.00298709   -0.00542988
     atom    9 type  1   force =     0.00000262    0.00000489    0.19454566
     atom   10 type  1   force =    -0.00000396    0.00437936   -0.00497688
     atom   11 type  1   force =     0.00378288   -0.00218726   -0.00493855
     atom   12 type  1   force =    -0.00378850   -0.00218769   -0.00494579
     atom   13 type  2   force =     0.00000179   -0.00000534   -0.16791844

     Total force =     0.257246     Total SCF correction =     0.002325

     entering subroutine stress ...

     negative rho (up, down):  1.554E-02 0.000E+00
          total   stress  (Ry/bohr**3)                   (kbar)     P=  -22.87
  -0.00016727   0.00000001   0.00000001        -24.61      0.00      0.00
   0.00000001  -0.00016735   0.00000001          0.00    -24.62      0.00
   0.00000001   0.00000001  -0.00013189          0.00      0.00    -19.40

     BFGS Geometry Optimization

     number of scf cycles    =   1
     number of bfgs steps    =   0

     energy   new            =   -1781.4385516561 Ry

     new trust radius        =       0.1945456632 bohr
     new conv_thr            =       0.0000099958 Ry

ATOMIC_POSITIONS (crystal)
V1       0.166666667   0.166666667   0.409694847    0   0   0
V1       0.666666667   0.166666667   0.409694847    0   0   0
V1       0.166666667   0.666666667   0.409694847    0   0   0
V1       0.666666667   0.666666667   0.409694847    0   0   0
V1       0.833333333   0.333333333   0.500000000    0   0   0
V1       0.333333333   0.333333333   0.500000000    0   0   0
V1       0.833333333   0.833333333   0.500000000    0   0   0
V1       0.333333333   0.833333333   0.500000000    0   0   0
V1      -0.000000020   0.000000554   0.594522926
V1       0.499751799   0.000495626   0.590197254
V1       0.000494532   0.499752461   0.590198085
V1       0.499752480   0.499752412   0.590197928
O1       0.000000478  -0.000000605   0.662929358

     Writing output data file calc.save
     Check: negative starting charge=   -0.011706
     NEW-OLD atomic charge density approx. for the potential

     Check: negative/imaginary core charge=   -0.000001    0.000000
     Check: negative starting charge=   -0.011662

[...]

     energy   old            =   -1781.4385516561 Ry
     energy   new            =   -1781.4836376033 Ry

     CASE: energy  _new < energy  _old

[...]

     iteration #  1     ecut=    36.75 Ry     beta=0.30
     Davidson diagonalization with overlap
     c_bands:  1 eigenvalues not converged
     c_bands:  1 eigenvalues not converged
     ethr =  1.00E-06,  avg # of iterations = 14.8

[...]

     number of scf cycles    =  13
     number of bfgs steps    =  12

     energy   old            =   -1781.4953386202 Ry
     energy   new            =   -1781.4954154729 Ry

     CASE: energy  _new < energy  _old

     new trust radius        =       0.0082360060 bohr
     new conv_thr            =       0.0000001000 Ry

ATOMIC_POSITIONS (crystal)
V1       0.166666667   0.166666667   0.409694847    0   0   0
V1       0.666666667   0.166666667   0.409694847    0   0   0
V1       0.166666667   0.666666667   0.409694847    0   0   0
V1       0.666666667   0.666666667   0.409694847    0   0   0
V1       0.833333333   0.333333333   0.500000000    0   0   0
V1       0.333333333   0.333333333   0.500000000    0   0   0
V1       0.833333333   0.833333333   0.500000000    0   0   0
V1       0.333333333   0.833333333   0.500000000    0   0   0
V1       0.000000789   0.000000549   0.603389704
V1       0.498861465   0.002277322   0.583927037
V1       0.002268785   0.498866940   0.583931634
V1       0.498861903   0.498865066   0.583928851
O1       0.000003560  -0.000003966   0.669836775

     Writing output data file calc.save
     Check: negative starting charge=   -0.011406
     NEW-OLD atomic charge density approx. for the potential

     Check: negative/imaginary core charge=   -0.000001    0.000000
     Check: negative starting charge=   -0.011450

[...]

     Self-consistent Calculation

[...]

     Threshold (ethr) on eigenvalues was too large:
     Diagonalizing with lowered threshold

     Davidson diagonalization with overlap
     ethr =  7.47E-08,  avg # of iterations =  1.6

[...]

     total energy              =   -1781.49543527 Ry
     Harris-Foulkes estimate   =   -1781.49543524 Ry
     estimated scf accuracy    <       0.00000030 Ry

     iteration # 14     ecut=    36.75 Ry     beta=0.30
     Davidson diagonalization with overlap
     ethr =  1.63E-10,  avg # of iterations =  1.2

[...]

     negative rho (up, down):  1.539E-02 0.000E+00

     Adding external electric field

     Computed dipole along edir(3) :
        Dipole               -0.3952 Ry au,         -1.0044 Debye
        Dipole field         -0.0012 Ry au

        Potential amp.        0.1074 Ry
        Total length         44.9721 bohr

     End of self-consistent calculation

[...]

          k = 0.0617-0.0713 0.0000 ( 15642 PWs)   bands (ev):

[...]

          k =-0.0926-0.0535 0.0000 ( 15660 PWs)   bands (ev):

   -63.7490 -63.7368 -63.7084 -63.6618 -63.6565 -63.6462 -63.6362 -63.6180
   -63.6107 -63.6095 -63.5984 -63.5923 -37.9743 -37.8282 -37.8063 -37.7990
   -37.7519 -37.7126 -37.7071 -37.6591 -37.6456 -37.6318 -37.6271 -37.6114
   -37.5279 -37.4899 -37.4786 -37.4504 -37.4469 -37.4457 -37.4393 -37.4185
   -37.4101 -37.3946 -37.3835 -37.3664 -37.3660 -37.3580 -37.3183 -37.2962
   -37.2806 -37.2666 -37.2350 -37.2220 -37.2201 -37.2139 -37.1810 -37.1641
   -16.7039  -3.9134  -3.8906  -3.0749  -3.0502  -2.9788  -2.5938  -2.4971
    -1.9330  -1.8530  -1.8478  -1.7785  -1.7295  -1.5818  -1.1775  -1.1479
    -1.0636  -0.9228  -0.9138  -0.8134  -0.5748  -0.5536  -0.4257  -0.4094
    -0.3814  -0.3618  -0.1243  -0.0227   0.0532   0.0735   0.1314   0.1771
     0.2109   0.3339   0.3799   0.4675   0.5949   0.6873   0.7126   0.8567
     0.9892   1.0222   1.4575

     the Fermi energy is     0.4907 ev

!    total energy              =   -1781.49543519 Ry
     Harris-Foulkes estimate   =   -1781.49543830 Ry
     estimated scf accuracy    <       0.00000009 Ry

     The total energy is the sum of the following terms:

     one-electron contribution =  -15350.86865225 Ry
     hartree contribution      =    7662.92332699 Ry
     xc contribution           =    -251.89212527 Ry
     ewald contribution        =    6158.48348999 Ry
     electric field correction =       0.00047192 Ry
     smearing contrib. (-TS)   =      -0.14194656 Ry

     convergence has been achieved in  14 iterations

 BEEF-vdW xc energy contributions
           1 :   -217.012881192890
           2 :    194.593198853860
           3 :   -157.645641627002
           4 :    117.809683958173
           5 :   -85.1209539132394
           6 :    64.3195969593207
           7 :   -54.2796900116331
           8 :    50.2256891276363
           9 :   -47.0852462194526
          10 :    42.0557868989706
          11 :   -35.2777853127365
          12 :    28.7117393044587
          13 :   -24.2780511051657
          14 :    22.5042214545034
          15 :   -22.3716974010051
          16 :    22.2042648875096
          17 :   -20.8525377923117
          18 :    18.3517606092903
          19 :   -15.6919405305414
          20 :    13.9751256223993
          21 :   -13.6159689629008
          22 :    14.1195599515582
          23 :   -14.5108223719091
          24 :    14.0403285040095
          25 :   -12.6625216217140
          26 :    10.9897506040829
          27 :   -9.80785783574544
          28 :    9.52442448015918
          29 :   -9.92875773882798
          30 :    10.3914440491033
          31 :   -22.5100356454951
          32 :   -16.1891614535554

     Forces acting on atoms (Ry/au):

     negative rho (up, down):  1.539E-02 0.000E+00
     atom    1 type  1   force =    -0.00080793   -0.00046684    0.00166574
     atom    2 type  1   force =     0.00080814   -0.00046700    0.00166556
     atom    3 type  1   force =    -0.00000031    0.00093232    0.00166175
     atom    4 type  1   force =    -0.00000044    0.00000013    0.00223725
     atom    5 type  1   force =    -0.00000022   -0.01077690    0.00206115
     atom    6 type  1   force =    -0.00000034    0.00001275   -0.01651686
     atom    7 type  1   force =     0.00934298    0.00538080    0.00204041
     atom    8 type  1   force =    -0.00934264    0.00538026    0.00203905
     atom    9 type  1   force =    -0.00000141    0.00000006   -0.00032122
     atom   10 type  1   force =     0.00000025    0.00065876    0.00053822
     atom   11 type  1   force =     0.00057011   -0.00032710    0.00054160
     atom   12 type  1   force =    -0.00056856   -0.00032617    0.00053900
     atom   13 type  2   force =     0.00000038   -0.00000105    0.00184834

     Total force =     0.002385     Total SCF correction =     0.000232

     entering subroutine stress ...

     negative rho (up, down):  1.539E-02 0.000E+00
          total   stress  (Ry/bohr**3)                   (kbar)     P=  -10.34
  -0.00010031   0.00000000   0.00000000        -14.76      0.00      0.00
   0.00000000  -0.00010032   0.00000000          0.00    -14.76      0.00
   0.00000000   0.00000000  -0.00001032          0.00      0.00     -1.52

     bfgs converged in  14 scf cycles and  13 bfgs steps
     (criteria: energy <  1.0E+00, force <  1.9E-03)

     End of BFGS Geometry Optimization

     Final energy   =   -1781.4954351938 Ry
Begin final coordinates

ATOMIC_POSITIONS (crystal)
V1       0.166666667   0.166666667   0.409694847    0   0   0
V1       0.666666667   0.166666667   0.409694847    0   0   0
V1       0.166666667   0.666666667   0.409694847    0   0   0
V1       0.666666667   0.666666667   0.409694847    0   0   0
V1       0.833333333   0.333333333   0.500000000    0   0   0
V1       0.333333333   0.333333333   0.500000000    0   0   0
V1       0.833333333   0.833333333   0.500000000    0   0   0
V1       0.333333333   0.833333333   0.500000000    0   0   0
V1       0.000000789   0.000000549   0.603389704
V1       0.498861465   0.002277322   0.583927037
V1       0.002268785   0.498866940   0.583931634
V1       0.498861903   0.498865066   0.583928851
O1       0.000003560  -0.000003966   0.669836775
End final coordinates

     Writing output data file calc.save

     General routines

     Parallel routines

   This run was terminated on:  19:40:28   2May2018

   JOB DONE.
Job  /afs/slac/g/suncat/bin/suncat-tsmpirun -x LD_LIBRARY_PATH -wdir /scratch/qe820033_1BUNz pw.x -npool 4 -in pw.inp

TID   HOST_NAME   COMMAND_LINE            STATUS            TERMINATION_TIME
00000 suncat0010 pw.x -npool 4 -i  Done                     05/02/2018 19:40:28
00001 suncat0010 pw.x -npool 4 -i  Done                     05/02/2018 19:40:28
00002 suncat0010 pw.x -npool 4 -i  Done                     05/02/2018 19:40:28
00003 suncat0010 pw.x -npool 4 -i  Done                     05/02/2018 19:40:28
00004 suncat0010 pw.x -npool 4 -i  Done                     05/02/2018 19:40:28
00005 suncat0010 pw.x -npool 4 -i  Done                     05/02/2018 19:40:28
00006 suncat0010 pw.x -npool 4 -i  Done                     05/02/2018 19:40:28
00007 suncat0010 pw.x -npool 4 -i  Done                     05/02/2018 19:40:28
00008 suncat0191 pw.x -npool 4 -i  Done                     05/02/2018 19:40:28
00009 suncat0191 pw.x -npool 4 -i  Done                     05/02/2018 19:40:28
00010 suncat0191 pw.x -npool 4 -i  Done                     05/02/2018 19:40:28
00011 suncat0191 pw.x -npool 4 -i  Done                     05/02/2018 19:40:28
00012 suncat0191 pw.x -npool 4 -i  Done                     05/02/2018 19:40:28
00013 suncat0191 pw.x -npool 4 -i  Done                     05/02/2018 19:40:28
00014 suncat0191 pw.x -npool 4 -i  Done                     05/02/2018 19:40:28
00015 suncat0191 pw.x -npool 4 -i  Done                     05/02/2018 19:40:28
00016 suncat0143 pw.x -npool 4 -i  Done                     05/02/2018 19:40:28
00017 suncat0143 pw.x -npool 4 -i  Done                     05/02/2018 19:40:28
00018 suncat0143 pw.x -npool 4 -i  Done                     05/02/2018 19:40:28
00019 suncat0143 pw.x -npool 4 -i  Done                     05/02/2018 19:40:28
00020 suncat0143 pw.x -npool 4 -i  Done                     05/02/2018 19:40:28
00021 suncat0143 pw.x -npool 4 -i  Done                     05/02/2018 19:40:28
00022 suncat0143 pw.x -npool 4 -i  Done                     05/02/2018 19:40:28
00023 suncat0143 pw.x -npool 4 -i  Done                     05/02/2018 19:40:28
00024 suncat0279 pw.x -npool 4 -i  Done                     05/02/2018 19:40:28
00025 suncat0279 pw.x -npool 4 -i  Done                     05/02/2018 19:40:28
00026 suncat0279 pw.x -npool 4 -i  Done                     05/02/2018 19:40:28
00027 suncat0279 pw.x -npool 4 -i  Done                     05/02/2018 19:40:28
00028 suncat0279 pw.x -npool 4 -i  Done                     05/02/2018 19:40:28
00029 suncat0279 pw.x -npool 4 -i  Done                     05/02/2018 19:40:28
00030 suncat0279 pw.x -npool 4 -i  Done                     05/02/2018 19:40:28
00031 suncat0279 pw.x -npool 4 -i  Done                     05/02/2018 19:40:28