     Program PWSCF v.5.1rc2 (svn rev. 11289) starts on 16Jan2018 at 21: 3:42

     Current dimensions of program PWSCF are:
     Max number of different atomic species (ntypx) = 10
     Max number of k-points (npk) =  40000
     Max angular momentum in pseudopotentials (lmaxx) =  3
     Presently stress not available with electric field

     IMPORTANT: XC functional enforced from input :
     Exchange-correlation      = BEEF-VDW ( 1  4 27 13 2)
     Any further DFT definition will be discarded
     Please, verify this is what you really want

     Subspace diagonalization in iterative solution of the eigenvalue problem:
     a serial algorithm will be used

     bravais-lattice index     =            0
     lattice parameter (alat)  =       1.8897  a.u.
     unit-cell volume          =    4198.3539 (a.u.)^3
     number of atoms/cell      =           13
     number of atomic types    =            2
     number of electrons       =       198.00
     number of Kohn-Sham states=          109
     kinetic-energy cutoff     =      36.7493  Ry
     charge density cutoff     =     367.4932  Ry
     convergence threshold     =      1.0E-05
     mixing beta               =       0.3000
     number of iterations used =           10  plain     mixing
     Exchange-correlation      = BEEF-VDW ( 1  4 27 13 2)
     nstep                     =           50

     celldm(1)=   1.889726  celldm(2)=   0.000000  celldm(3)=   0.000000
     celldm(4)=   0.000000  celldm(5)=   0.000000  celldm(6)=   0.000000

     crystal axes: (cart. coord. in units of alat)
               a(1) = (   5.422927   0.000000   0.000000 )
               a(2) = (   2.711463   4.696392   0.000000 )
               a(3) = (   0.000000   0.000000  24.427801 )

     reciprocal axes: (cart. coord. in units 2 pi/alat)
               b(1) = (  0.184402 -0.106465  0.000000 )
               b(2) = (  0.000000  0.212929  0.000000 )
               b(3) = (  0.000000  0.000000  0.040937 )

     PseudoPot. # 1 for Ru read from file:
     /afs/slac.stanford.edu/u/if/mamunm/psp/gbrv1.5pbe/Ru.UPF
     MD5 check sum: 7158a806dd851261a58e6920c40ebe78
     Pseudo is Ultrasoft + core correction, Zval = 16.0
     Generated by new atomic code, or converted to UPF format
     Using radial grid of  967 points,  6 beta functions with:
                l(1) =   0
                l(2) =   0
                l(3) =   1
                l(4) =   1
                l(5) =   2
                l(6) =   2
     Q(r) pseudized with  8 coefficients,  rinner =    1.300   1.300   1.300
                                                       1.300   1.300

     PseudoPot. # 2 for O  read from file:
     /afs/slac.stanford.edu/u/if/mamunm/psp/gbrv1.5pbe/O.UPF
     MD5 check sum: 734c27235a0248c51dbae37a1fbe46ec
     Pseudo is Ultrasoft + core correction, Zval =  6.0
     Generated by new atomic code, or converted to UPF format
     Using radial grid of  737 points,  5 beta functions with:
                l(1) =   0
                l(2) =   0
                l(3) =   1
                l(4) =   1
                l(5) =   2
     Q(r) pseudized with  8 coefficients,  rinner =    0.900   0.900   0.900
                                                       0.900   0.900

     vdW kernel table read from file vdW_kernel_table
     MD5 check sum: 095c7af220d748ca6e76c0b4c6cfb241

     atomic species   valence    mass     pseudopotential
        Ru1           16.00   101.07000     Ru( 1.00)
        O1             6.00    15.99900     O ( 1.00)

     No symmetry found

   Cartesian axes

     site n.     atom                  positions (alat units)
         1           Ru1 tau(   1) = (   1.3557316   0.7827320  10.0000000  )
         2           Ru1 tau(   2) = (   4.0671949   0.7827320  10.0000000  )
         3           Ru1 tau(   3) = (   2.7114633   3.1309281  10.0000000  )
         4           Ru1 tau(   4) = (   5.4229265   3.1309281  10.0000000  )
         5           Ru1 tau(   5) = (   5.4229265   1.5654640  12.2139005  )
         6           Ru1 tau(   6) = (   2.7114633   1.5654640  12.2139005  )
         7           Ru1 tau(   7) = (   6.7786581   3.9136601  12.2139005  )
         8           Ru1 tau(   8) = (   4.0671949   3.9136601  12.2139005  )
         9           Ru1 tau(   9) = (   0.0000000   0.0000000  14.4278010  )
        10           Ru1 tau(  10) = (   2.7114633   0.0000000  14.4278010  )
        11           Ru1 tau(  11) = (   1.3557316   2.3481961  14.4278010  )
        12           Ru1 tau(  12) = (   4.0671949   2.3481961  14.4278010  )
        13           O1  tau(  13) = (   1.3557316   0.0000000  16.5478010  )

     number of k points=    20  Fermi-Dirac smearing, width (Ry)=  0.0110
                       cart. coord. in units 2pi/alat
        k(    1) = (   0.0000000   0.0000000   0.0000000), wk =   0.0555556
        k(    2) = (   0.0000000   0.0354882   0.0000000), wk =   0.1111111
        k(    3) = (   0.0000000   0.0709765   0.0000000), wk =   0.1111111
        k(    4) = (   0.0000000  -0.1064647   0.0000000), wk =   0.0555556
        k(    5) = (   0.0307337  -0.0177441   0.0000000), wk =   0.1111111
        k(    6) = (   0.0307337   0.0177441   0.0000000), wk =   0.1111111
        k(    7) = (   0.0307337   0.0532324   0.0000000), wk =   0.1111111
        k(    8) = (   0.0307337  -0.1242088   0.0000000), wk =   0.1111111
        k(    9) = (   0.0307337  -0.0887206   0.0000000), wk =   0.1111111
        k(   10) = (   0.0307337  -0.0532324   0.0000000), wk =   0.1111111
        k(   11) = (   0.0614674  -0.0354882   0.0000000), wk =   0.1111111
        k(   12) = (   0.0614674   0.0000000   0.0000000), wk =   0.1111111
        k(   13) = (   0.0614674   0.0354882   0.0000000), wk =   0.1111111
        k(   14) = (   0.0614674  -0.1419529   0.0000000), wk =   0.1111111
        k(   15) = (   0.0614674  -0.1064647   0.0000000), wk =   0.1111111
        k(   16) = (   0.0614674  -0.0709765   0.0000000), wk =   0.1111111
        k(   17) = (  -0.0922011   0.0532324   0.0000000), wk =   0.0555556
        k(   18) = (  -0.0922011   0.0887206   0.0000000), wk =   0.1111111
        k(   19) = (  -0.0922011   0.1242088   0.0000000), wk =   0.1111111
        k(   20) = (  -0.0922011  -0.0532324   0.0000000), wk =   0.0555556

     Largest allocated arrays     est. size (Mb)     dimensions
     Largest temporary arrays     est. size (Mb)     dimensions

     Initial potential from superposition of free atoms
     Check: negative starting charge=   -0.873770

     starting charge  185.99981, renormalised to  198.00000

     negative rho (up, down):  9.301E-01 0.000E+00

     *
     * You are using vdW-DF for exchange-correlation in this calculation.
     * Please cite the following three references that made this development
     * possible:
     *
     *   M. Dion, H. Rydberg, E. Schroder, D. C. Langreth, and
     *   B. I. Lundqvist, Phys. Rev. Lett. 92, 246401 (2004).
     *
     *   T. Thonhauser, V. R. Cooper, S. Li, A. Puzder, P. Hyldgaard, and
     *   D. C. Langreth, Phys. Rev. B 76, 125112 (2007).
     *
     *   G. Roman-Perez and J. M. Soler, Phys. Rev. Lett. 103, 096102 (2009).
     *
     *
     * If you are using vdW-DF2, please also cite:
     *
     *   K. Lee, E. D. Murray, L. Kong, B. I. Lundqvist, and
     *   D. C. Langreth, Phys. Rev. B 82, 081101(R) (2010).
     *
     *
     * If you are calculating the stress with vdW-DF, please also cite:
     *
     *   R. Sabatini, E. Kucukbenli, B. Kolb, T. Thonhauser, and
     *   S. de Gironcoli, J. Phys.: Condens. Matter 24, 424209 (2012).
     *

     Carrying out vdW-DF run using the following parameters:

     Nqs =      20    Nr_points =    1024   r_max =   100.000
     q_mesh =
               0.00001000     0.04494208     0.09755937     0.15916263
               0.23128650     0.31572767     0.41458969     0.53033537
               0.66584808     0.82450364     1.01025438     1.22772762
               1.48234092     1.78043706     2.12944203     2.53805004
               3.01644009     3.57652955     4.23227104     5.00000000

     Gradients computed in reciprocal space

     Adding external electric field

     Computed dipole along edir(3) :
        Dipole               -3.1703 Ry au,         -8.0581 Debye
        Dipole field         -0.0095 Ry au

        Potential amp.        0.8542 Ry
        Total length         45.0078 bohr

     Starting wfc are  160 randomized atomic wfcs

     Self-consistent Calculation

     iteration #  1     ecut=    36.75 Ry     beta=0.30
     Davidson diagonalization with overlap
     ethr =  1.00E-02,  avg # of iterations =  5.8

[...]

     total energy              =   -2122.53753719 Ry
     Harris-Foulkes estimate   =   -2369.98243673 Ry
     estimated scf accuracy    <     518.13143767 Ry

[...]

     End of self-consistent calculation

          k = 0.0000 0.0000 0.0000 ( 15761 PWs)   bands (ev):

   -71.7804 -71.6934 -71.6749 -71.6137 -71.4132 -71.3513 -71.2669 -71.2364
   -71.1972 -71.1732 -71.1693 -71.1654 -42.0556 -42.0330 -42.0321 -41.8865
   -41.8091 -41.7814 -41.7736 -41.6050 -41.5771 -41.5600 -41.4984 -41.4836
   -41.4653 -41.4295 -41.4137 -41.3983 -41.3032 -41.3018 -41.2925 -41.2605
   -41.1658 -41.1243 -41.1128 -41.0998 -41.0740 -41.0724 -41.0611 -41.0548
   -41.0474 -40.9911 -40.9905 -40.9897 -40.9124 -40.9017 -40.8275 -40.8274
   -14.1613  -5.2002  -3.9955  -3.9870  -3.9800  -3.8870  -3.7382  -3.6197
    -3.6155  -3.6153  -3.3858  -3.3660  -3.3562  -3.0187  -3.0129  -2.9951
    -1.9300  -1.8728  -1.8270  -1.2908  -1.2523  -1.2514  -1.0158  -0.8703
    -0.8686  -0.6779  -0.4861  -0.4819  -0.4602  -0.4317  -0.4276  -0.2197
    -0.2083  -0.1627   0.0683   0.2839   0.4301   0.6361   0.7988   1.1849
     1.2124   1.2472   1.3351   1.3405   1.3861   1.4390   1.5796   1.9305
     1.9412   1.9503   2.5454   2.5581   2.5737   2.5806   2.6204   2.7138
     2.7413   2.8458   3.0713   3.0899   3.0973

[...]

          k =-0.0922 0.0532 0.0000 ( 15808 PWs)   bands (ev):

[...]

     the Fermi energy is     1.5229 ev

!    total energy              =   -2373.62396334 Ry
     Harris-Foulkes estimate   =   -2373.62396395 Ry
     estimated scf accuracy    <       0.00000478 Ry

     The total energy is the sum of the following terms:

     one-electron contribution =  -22233.88567555 Ry
     hartree contribution      =   11114.75135907 Ry
     xc contribution           =    -328.96923115 Ry
     ewald contribution        =    9074.57387741 Ry
     electric field correction =       0.00113656 Ry
     smearing contrib. (-TS)   =      -0.09542967 Ry

     convergence has been achieved in  28 iterations

 BEEF-vdW xc energy contributions
           1 :   -285.155004183133
           2 :    261.357169473018
           3 :   -220.346435982074
           4 :    172.447709147233
           5 :   -127.956022086504
           6 :    94.0582352921190
           7 :   -73.2806815131754
           8 :    63.7329332459736
           9 :   -60.7899791318571
          10 :    59.3797164114438
          11 :   -55.9343095570539
          12 :    49.3236246705316
          13 :   -40.6237948799729
          14 :    32.0669523670405
          15 :   -25.7482585295134
[...]

[...]

   This run was terminated on:   2:43: 2  17Jan2018

[...]

     Program PWSCF v.5.1rc2 (svn rev. 11289) starts on 17Jan2018 at  2:43: 9

[...]

   This run was terminated on:   3: 3: 9  17Jan2018

[...]

     Total force =     0.078839     Total SCF correction =     0.014839
     SCF correction compared to forces is large: reduce conv_thr to get better values

[...]

   This run was terminated on:   4: 2:22  17Jan2018

[...]

     Program PWSCF v.5.1rc2 (svn rev. 11289) starts on 17Jan2018 at  4: 2:28

[...]

     Program PWSCF v.5.1rc2 (svn rev. 11289) starts on 17Jan2018 at  4:22:30

     Current dimensions of program PWSCF are:
     Max number of different atomic species (ntypx) = 10
     Max number of k-points (npk) =  40000
     Max angular momentum in pseudopotentials (lmaxx) =  3
     Presently stress not available with electric field

     IMPORTANT: XC functional enforced from input :
     Exchange-correlation      = BEEF-VDW ( 1  4 27 13 2)
     Any further DFT definition will be discarded
     Please, verify this is what you really want

     Subspace diagonalization in iterative solution of the eigenvalue problem:
     a serial algorithm will be used

     bravais-lattice index     =            0
     lattice parameter (alat)  =       1.8897  a.u.
     unit-cell volume          =    4198.3539 (a.u.)^3
     number of atoms/cell      =           13
     number of atomic types    =            2
     number of electrons       =       198.00
     number of Kohn-Sham states=          109
     kinetic-energy cutoff     =      36.7493  Ry
     charge density cutoff     =     367.4932  Ry
     convergence threshold     =      1.0E-05
     mixing beta               =       0.3000
     number of iterations used =           10  plain     mixing
     Exchange-correlation      = BEEF-VDW ( 1  4 27 13 2)
     nstep                     =           50

     celldm(1)=   1.889726  celldm(2)=   0.000000  celldm(3)=   0.000000
     celldm(4)=   0.000000  celldm(5)=   0.000000  celldm(6)=   0.000000

     crystal axes: (cart. coord. in units of alat)
               a(1) = (   5.422927   0.000000   0.000000 )
               a(2) = (   2.711463   4.696392   0.000000 )
               a(3) = (   0.000000   0.000000  24.427801 )

     reciprocal axes: (cart. coord. in units 2 pi/alat)
               b(1) = (  0.184402 -0.106465  0.000000 )
               b(2) = (  0.000000  0.212929  0.000000 )
               b(3) = (  0.000000  0.000000  0.040937 )

     PseudoPot. # 1 for Ru read from file:
     /afs/slac.stanford.edu/u/if/mamunm/psp/gbrv1.5pbe/Ru.UPF
     MD5 check sum: 7158a806dd851261a58e6920c40ebe78
     Pseudo is Ultrasoft + core correction, Zval = 16.0
     Generated by new atomic code, or converted to UPF format
     Using radial grid of  967 points,  6 beta functions with:
                l(1) =   0
                l(2) =   0
                l(3) =   1
                l(4) =   1
                l(5) =   2
                l(6) =   2
     Q(r) pseudized with  8 coefficients,  rinner =    1.300   1.300   1.300
                                                       1.300   1.300

     PseudoPot. # 2 for O  read from file:
     /afs/slac.stanford.edu/u/if/mamunm/psp/gbrv1.5pbe/O.UPF
     MD5 check sum: 734c27235a0248c51dbae37a1fbe46ec
     Pseudo is Ultrasoft + core correction, Zval =  6.0
     Generated by new atomic code, or converted to UPF format
     Using radial grid of  737 points,  5 beta functions with:
                l(1) =   0
                l(2) =   0
                l(3) =   1
                l(4) =   1
                l(5) =   2
     Q(r) pseudized with  8 coefficients,  rinner =    0.900   0.900   0.900
                                                       0.900   0.900

     vdW kernel table read from file vdW_kernel_table
     MD5 check sum: 095c7af220d748ca6e76c0b4c6cfb241

     atomic species   valence    mass     pseudopotential
        Ru1           16.00   101.07000     Ru( 1.00)
        O1             6.00    15.99900     O ( 1.00)

     No symmetry found

   Cartesian axes

     site n.     atom                  positions (alat units)
         1           Ru1 tau(   1) = (   1.3557316   0.7827320  10.0000000  )
         2           Ru1 tau(   2) = (   4.0671949   0.7827320  10.0000000  )
         3           Ru1 tau(   3) = (   2.7114633   3.1309281  10.0000000  )
         4           Ru1 tau(   4) = (   5.4229265   3.1309281  10.0000000  )
         5           Ru1 tau(   5) = (   5.4229265   1.5654640  12.2139005  )
         6           Ru1 tau(   6) = (   2.7114633   1.5654640  12.2139005  )
         7           Ru1 tau(   7) = (   6.7786581   3.9136601  12.2139005  )
         8           Ru1 tau(   8) = (   4.0671949   3.9136601  12.2139005  )
         9           Ru1 tau(   9) = (   5.3433261   0.0458557  14.3668258  )
        10           Ru1 tau(  10) = (   2.7912141   0.0459051  14.3668303  )
        11           Ru1 tau(  11) = (   1.3557600   2.3476458  14.2834821  )
        12           Ru1 tau(  12) = (   4.0672407   2.2561961  14.3665010  )
        13           O1  tau(  13) = (   4.0672964   3.9140360  15.5236929  )

     number of k points=    20  Fermi-Dirac smearing, width (Ry)=  0.0110
                       cart. coord. in units 2pi/alat
        k(    1) = (   0.0000000   0.0000000   0.0000000), wk =   0.0555556
        k(    2) = (   0.0000000   0.0354882   0.0000000), wk =   0.1111111
        k(    3) = (   0.0000000   0.0709765   0.0000000), wk =   0.1111111
        k(    4) = (   0.0000000  -0.1064647   0.0000000), wk =   0.0555556
        k(    5) = (   0.0307337  -0.0177441   0.0000000), wk =   0.1111111
        k(    6) = (   0.0307337   0.0177441   0.0000000), wk =   0.1111111
        k(    7) = (   0.0307337   0.0532324   0.0000000), wk =   0.1111111
        k(    8) = (   0.0307337  -0.1242088   0.0000000), wk =   0.1111111
        k(    9) = (   0.0307337  -0.0887206   0.0000000), wk =   0.1111111
        k(   10) = (   0.0307337  -0.0532324   0.0000000), wk =   0.1111111
        k(   11) = (   0.0614674  -0.0354882   0.0000000), wk =   0.1111111
        k(   12) = (   0.0614674   0.0000000   0.0000000), wk =   0.1111111
        k(   13) = (   0.0614674   0.0354882   0.0000000), wk =   0.1111111
        k(   14) = (   0.0614674  -0.1419529   0.0000000), wk =   0.1111111
        k(   15) = (   0.0614674  -0.1064647   0.0000000), wk =   0.1111111
        k(   16) = (   0.0614674  -0.0709765   0.0000000), wk =   0.1111111
        k(   17) = (  -0.0922011   0.0532324   0.0000000), wk =   0.0555556
        k(   18) = (  -0.0922011   0.0887206   0.0000000), wk =   0.1111111
        k(   19) = (  -0.0922011   0.1242088   0.0000000), wk =   0.1111111
        k(   20) = (  -0.0922011  -0.0532324   0.0000000), wk =   0.0555556

     Largest allocated arrays     est. size (Mb)     dimensions
     Largest temporary arrays     est. size (Mb)     dimensions

     Initial potential from superposition of free atoms
     Check: negative starting charge=   -0.879764

     starting charge  185.99981, renormalised to  198.00000

[...]

     *
     * You are using vdW-DF for exchange-correlation in this calculation.
     * Please cite the following three references that made this development
     * possible:
     *
     *   M. Dion, H. Rydberg, E. Schroder, D. C. Langreth, and
     *   B. I. Lundqvist, Phys. Rev. Lett. 92, 246401 (2004).
     *
     *   T. Thonhauser, V. R. Cooper, S. Li, A. Puzder, P. Hyldgaard, and
     *   D. C. Langreth, Phys. Rev. B 76, 125112 (2007).
     *
     *   G. Roman-Perez and J. M. Soler, Phys. Rev. Lett. 103, 096102 (2009).
     *
     *
     * If you are using vdW-DF2, please also cite:
     *
     *   K. Lee, E. D. Murray, L. Kong, B. I. Lundqvist, and
     *   D. C. Langreth, Phys. Rev. B 82, 081101(R) (2010).
     *
     *
     * If you are calculating the stress with vdW-DF, please also cite:
     *
     *   R. Sabatini, E. Kucukbenli, B. Kolb, T. Thonhauser, and
     *   S. de Gironcoli, J. Phys.: Condens. Matter 24, 424209 (2012).
     *

     Carrying out vdW-DF run using the following parameters:

     Nqs =      20    Nr_points =    1024   r_max =   100.000
     q_mesh =
               0.00001000     0.04494208     0.09755937     0.15916263
               0.23128650     0.31572767     0.41458969     0.53033537
               0.66584808     0.82450364     1.01025438     1.22772762
               1.48234092     1.78043706     2.12944203     2.53805004
               3.01644009     3.57652955     4.23227104     5.00000000

     Gradients computed in reciprocal space

[...]

     Starting wfc are  160 randomized atomic wfcs

     Self-consistent Calculation

[...]

     total energy              =   -2373.85594420 Ry
     Harris-Foulkes estimate   =   -2373.85594466 Ry
     estimated scf accuracy    <       0.00001142 Ry

     iteration # 27     ecut=    36.75 Ry     beta=0.30
     Davidson diagonalization with overlap
     ethr =  5.77E-09,  avg # of iterations =  3.0

[...]

     negative rho (up, down):  9.175E-01 0.000E+00

     Adding external electric field

     Computed dipole along edir(3) :
        Dipole               -0.0649 Ry au,         -0.1650 Debye
        Dipole field         -0.0002 Ry au

        Potential amp.        0.0175 Ry
        Total length         45.0078 bohr

     End of self-consistent calculation

[...]

          k = 0.0615-0.0710 0.0000 ( 15803 PWs)   bands (ev):

[...]

          k =-0.0922-0.0532 0.0000 ( 15808 PWs)   bands (ev):

   -70.9688 -70.9463 -70.9067 -70.8686 -70.8455 -70.8102 -70.8011 -70.3711
   -70.3661 -70.3522 -70.3175 -70.2842 -41.3752 -41.1871 -41.1458 -41.1430
   -41.0916 -41.0590 -40.9661 -40.9633 -40.9235 -40.9230 -40.8562 -40.8118
   -40.7938 -40.7226 -40.7073 -40.6313 -40.6215 -40.6033 -40.5838 -40.5367
   -40.4986 -40.4912 -40.4630 -40.3297 -40.3148 -40.3104 -40.2962 -40.2711
   -40.2454 -40.2282 -40.2223 -40.2116 -40.1937 -40.1663 -40.0590 -40.0384
   -16.7925  -4.0411  -3.2947  -3.2193  -2.9423  -2.8390  -2.4563  -2.4144
    -2.3170  -2.1468  -2.0489  -1.9406  -1.8527  -1.8212  -1.7510  -1.6567
    -1.4886  -1.4208  -1.3657  -1.0480  -0.9149  -0.7908  -0.7558  -0.7500
    -0.6398  -0.5615  -0.2587  -0.1357  -0.0316   0.0032   0.2979   0.3397
     0.3899   0.4152   0.4682   0.5473   0.5833   0.6477   0.7346   0.7649
     0.7864   0.9278   1.0907   1.2721   1.4044   1.4244   1.6767   1.6839
     1.8017   1.8118   1.9261   2.1361   2.2115   2.3035   2.5407   2.5449
     2.6829   2.7666   2.9307   3.2422   3.2613

     the Fermi energy is     2.3874 ev

!    total energy              =   -2373.85594454 Ry
     Harris-Foulkes estimate   =   -2373.85594641 Ry
     estimated scf accuracy    <       0.00000061 Ry

     The total energy is the sum of the following terms:

     one-electron contribution =  -22891.92178408 Ry
     hartree contribution      =   11447.77969868 Ry
     xc contribution           =    -329.60857265 Ry
     ewald contribution        =    9399.97740731 Ry
     electric field correction =       0.00001261 Ry
     smearing contrib. (-TS)   =      -0.08270641 Ry

     convergence has been achieved in  27 iterations

 BEEF-vdW xc energy contributions
           1 :   -285.832263343828
           2 :    262.316072198158
           3 :   -221.604673926296
           4 :    173.742398667543
           5 :   -128.920860868070
           6 :    94.4288483671855
           7 :   -73.0227306791301
           8 :    63.0496579618870
           9 :   -60.0231216295547
          10 :    58.8593048280224
          11 :   -55.8461813784642
          12 :    49.6524781335045
          13 :   -41.1864065631408
          14 :    32.6058377099272
          15 :   -26.0433192857165
          16 :    22.6026463300817
          17 :   -21.9882176102265
          18 :    22.8203469726036
          19 :   -23.3964308770958
          20 :    22.4976411896401
          21 :   -19.8720570568026
          22 :    16.2137105767990
          23 :   -12.7069373183327
          24 :    10.3944194679962
          25 :   -9.68466325959764
          26 :    10.2179119725927
          27 :   -11.1152226475970
          28 :    11.4512777027331
          29 :   -10.7025738567465
          30 :    8.95596528042540
          31 :   -29.7027156300180
          32 :   -22.4996087456445

     Forces acting on atoms (Ry/au):

     negative rho (up, down):  9.175E-01 0.000E+00
     atom    1 type  1   force =     0.00000474   -0.00350138    0.02953956
     atom    2 type  1   force =     0.00000320    0.00000097    0.01443630
     atom    3 type  1   force =     0.00304040    0.00174299    0.02960883
     atom    4 type  1   force =    -0.00302760    0.00174592    0.02957057
     atom    5 type  1   force =     0.00316897    0.00178941   -0.01679031
     atom    6 type  1   force =    -0.00315754    0.00177223   -0.01678139
     atom    7 type  1   force =    -0.00000727   -0.00368190   -0.01671581
     atom    8 type  1   force =     0.00001676    0.00000857   -0.05162062
     atom    9 type  1   force =     0.00004132   -0.00002939   -0.00034531
     atom   10 type  1   force =    -0.00006999   -0.00004341   -0.00034379
     atom   11 type  1   force =     0.00000542    0.00019403   -0.00020452
     atom   12 type  1   force =    -0.00000390    0.00016383   -0.00013486
     atom   13 type  2   force =    -0.00001452   -0.00016186   -0.00021863

     Total force =     0.080105     Total SCF correction =     0.006328

     entering subroutine stress ...

     negative rho (up, down):  9.175E-01 0.000E+00
          total   stress  (Ry/bohr**3)                   (kbar)     P=  -18.12
  -0.00012929  -0.00000001  -0.00000002        -19.02     -0.00     -0.00
  -0.00000001  -0.00012951   0.00000005         -0.00    -19.05      0.01
  -0.00000002   0.00000005  -0.00011066         -0.00      0.01    -16.28

 !ASE

     Writing output data file calc.save

     General routines

     Parallel routines

   This run was terminated on:   4:42:44  17Jan2018

   JOB DONE.
Job  /afs/slac/g/suncat/bin/suncat-tsmpirun -x LD_LIBRARY_PATH -wdir /scratch/qe842477_18Ew4 pw.x -in pw.inp

TID   HOST_NAME   COMMAND_LINE            STATUS            TERMINATION_TIME
00000 suncat0153 pw.x -in pw.inp   Done                     01/17/2018 04:42:44
00001 suncat0153 pw.x -in pw.inp   Done                     01/17/2018 04:42:44
00002 suncat0153 pw.x -in pw.inp   Done                     01/17/2018 04:42:44
00003 suncat0153 pw.x -in pw.inp   Done                     01/17/2018 04:42:44
00004 suncat0153 pw.x -in pw.inp   Done                     01/17/2018 04:42:44
00005 suncat0153 pw.x -in pw.inp   Done                     01/17/2018 04:42:44
00006 suncat0153 pw.x -in pw.inp   Done                     01/17/2018 04:42:44
00007 suncat0153 pw.x -in pw.inp   Done                     01/17/2018 04:42:44
00008 suncat0146 pw.x -in pw.inp   Done                     01/17/2018 04:42:44
00009 suncat0146 pw.x -in pw.inp   Done                     01/17/2018 04:42:44
00010 suncat0146 pw.x -in pw.inp   Done                     01/17/2018 04:42:44
00011 suncat0146 pw.x -in pw.inp   Done                     01/17/2018 04:42:44
00012 suncat0146 pw.x -in pw.inp   Done                     01/17/2018 04:42:44
00013 suncat0146 pw.x -in pw.inp   Done                     01/17/2018 04:42:44
00014 suncat0146 pw.x -in pw.inp   Done                     01/17/2018 04:42:44
00015 suncat0146 pw.x -in pw.inp   Done                     01/17/2018 04:42:44
00016 suncat0115 pw.x -in pw.inp   Done                     01/17/2018 04:42:44
00017 suncat0115 pw.x -in pw.inp   Done                     01/17/2018 04:42:44
00018 suncat0115 pw.x -in pw.inp   Done                     01/17/2018 04:42:44
00019 suncat0115 pw.x -in pw.inp   Done                     01/17/2018 04:42:44
00020 suncat0115 pw.x -in pw.inp   Done                     01/17/2018 04:42:44
00021 suncat0115 pw.x -in pw.inp   Done                     01/17/2018 04:42:44
00022 suncat0115 pw.x -in pw.inp   Done                     01/17/2018 04:42:44
00023 suncat0115 pw.x -in pw.inp   Done                     01/17/2018 04:42:44
00024 suncat0114 pw.x -in pw.inp   Done                     01/17/2018 04:42:44
00025 suncat0114 pw.x -in pw.inp   Done                     01/17/2018 04:42:44
00026 suncat0114 pw.x -in pw.inp   Done                     01/17/2018 04:42:44
00027 suncat0114 pw.x -in pw.inp   Done                     01/17/2018 04:42:44
00028 suncat0114 pw.x -in pw.inp   Done                     01/17/2018 04:42:44
00029 suncat0114 pw.x -in pw.inp   Done                     01/17/2018 04:42:44
00030 suncat0114 pw.x -in pw.inp   Done                     01/17/2018 04:42:44
00031 suncat0114 pw.x -in pw.inp   Done                     01/17/2018 04:42:44