     Program PWSCF v.5.1rc2 (svn rev. 11289) starts on 23Apr2018 at  0:31:34

     Current dimensions of program PWSCF are:
     Max number of different atomic species (ntypx) = 10
     Max number of k-points (npk) =  40000
     Max angular momentum in pseudopotentials (lmaxx) =  3
     Presently stress not available with electric field

     IMPORTANT: XC functional enforced from input :
     Exchange-correlation      = BEEF-VDW ( 1  4 27 13 2)
     Any further DFT definition will be discarded
     Please, verify this is what you really want

     Subspace diagonalization in iterative solution of the eigenvalue problem:
     a serial algorithm will be used

     bravais-lattice index     =            0
     lattice parameter (alat)  =       1.8897  a.u.
     unit-cell volume          =    6116.8020 (a.u.)^3
     number of atoms/cell      =           16
     number of atomic types    =            3
     number of electrons       =       139.00
     number of Kohn-Sham states=           79
     kinetic-energy cutoff     =      36.7493  Ry
     charge density cutoff     =     367.4932  Ry
     convergence threshold     =      1.0E-05
     mixing beta               =       0.3000
     number of iterations used =           10  plain     mixing
     Exchange-correlation      = BEEF-VDW ( 1  4 27 13 2)
     nstep                     =           50

     celldm(1)=   1.889726  celldm(2)=   0.000000  celldm(3)=   0.000000
     celldm(4)=   0.000000  celldm(5)=   0.000000  celldm(6)=   0.000000

     crystal axes: (cart. coord. in units of alat)
               a(1) = (   6.437465   0.000000   0.000000 )
               a(2) = (   3.218732   5.575008   0.000000 )
               a(3) = (   0.000000   0.000000  25.256168 )

     reciprocal axes: (cart. coord. in units 2 pi/alat)
               b(1) = (  0.155341 -0.089686  0.000000 )
               b(2) = (  0.000000  0.179372  0.000000 )
               b(3) = (  0.000000  0.000000  0.039594 )

     PseudoPot. # 1 for Sc read from file:
     /u/if/mamunm/psp/gbrv1.5pbe/Sc.UPF
     MD5 check sum: db30a2753ba66ef00f23801d899b7e7f
     Pseudo is Ultrasoft + core correction, Zval = 11.0
     Generated by new atomic code, or converted to UPF format
     Using radial grid of  849 points,  6 beta functions with:
                l(1) =   0
                l(2) =   0
                l(3) =   1
                l(4) =   1
                l(5) =   2
                l(6) =   2
     Q(r) pseudized with  6 coefficients,  rinner =    1.200   1.200   1.200
                                                       1.200   1.200

     PseudoPot. # 2 for C  read from file:
     /u/if/mamunm/psp/gbrv1.5pbe/C.UPF
     MD5 check sum: d1aef80898a10debaa0f26306b886e00
     Pseudo is Ultrasoft + core correction, Zval =  4.0
     Generated by new atomic code, or converted to UPF format
     Using radial grid of  721 points,  4 beta functions with:
                l(1) =   0
                l(2) =   0
                l(3) =   1
                l(4) =   1
     Q(r) pseudized with  8 coefficients,  rinner =    1.100   1.100   1.100

     PseudoPot. # 3 for H  read from file:
     /u/if/mamunm/psp/gbrv1.5pbe/H.UPF
     MD5 check sum: 761ae9a214b05c3daf00ab9f6b793d6f
     Pseudo is Ultrasoft, Zval =  1.0
     Generated by new atomic code, or converted to UPF format
     Using radial grid of  615 points,  2 beta functions with:
                l(1) =   0
                l(2) =   0
     Q(r) pseudized with  8 coefficients,  rinner =    0.700

     vdW kernel table read from file vdW_kernel_table
     MD5 check sum: 095c7af220d748ca6e76c0b4c6cfb241

     atomic species   valence    mass     pseudopotential
        Sc1           11.00    44.95591     Sc( 1.00)
        C1             4.00    12.01100     C ( 1.00)
        H1             1.00     1.00800     H ( 1.00)

     No symmetry found

   Cartesian axes

     site n.     atom                  positions (alat units)
         1           Sc1 tau(   1) = (   1.6093662   0.9291680  10.0000000  )
         2           Sc1 tau(   2) = (   4.8280986   0.9291680  10.0000000  )
         3           Sc1 tau(   3) = (   3.2187324   3.7166720  10.0000000  )
         4           Sc1 tau(   4) = (   6.4374648   3.7166720  10.0000000  )
         5           Sc1 tau(   5) = (   6.4374648   1.8583360  12.6280840  )
         6           Sc1 tau(   6) = (   3.2187324   1.8583360  12.6280840  )
         7           Sc1 tau(   7) = (   8.0468310   4.6458400  12.6280840  )
         8           Sc1 tau(   8) = (   4.8280986   4.6458400  12.6280840  )
         9           Sc1 tau(   9) = (   0.0000000   0.0000000  15.2561680  )
        10           Sc1 tau(  10) = (   3.2187324   0.0000000  15.2561680  )
        11           Sc1 tau(  11) = (   1.6093662   2.7875040  15.2561680  )
        12           Sc1 tau(  12) = (   4.8280986   2.7875040  15.2561680  )
        13           C1  tau(  13) = (   3.2187324   1.8583360  16.8551680  )
        14           H1  tau(  14) = (   4.3087324   1.8583360  17.4851680  )
        15           H1  tau(  15) = (   2.7687324   2.7478360  17.4851680  )
        16           H1  tau(  16) = (   2.7687324   0.9688360  17.4851680  )

     number of k points=    20  Fermi-Dirac smearing, width (Ry)=  0.0110
                       cart. coord. in units 2pi/alat
        k(    1) = (   0.0000000   0.0000000   0.0000000), wk =   0.0555556
        k(    2) = (   0.0000000   0.0298953   0.0000000), wk =   0.1111111
        k(    3) = (   0.0000000   0.0597906   0.0000000), wk =   0.1111111
        k(    4) = (   0.0000000  -0.0896860   0.0000000), wk =   0.0555556
        k(    5) = (   0.0258901  -0.0149477   0.0000000), wk =   0.1111111
        k(    6) = (   0.0258901   0.0149477   0.0000000), wk =   0.1111111
        k(    7) = (   0.0258901   0.0448430   0.0000000), wk =   0.1111111
        k(    8) = (   0.0258901  -0.1046336   0.0000000), wk =   0.1111111
        k(    9) = (   0.0258901  -0.0747383   0.0000000), wk =   0.1111111
        k(   10) = (   0.0258901  -0.0448430   0.0000000), wk =   0.1111111
        k(   11) = (   0.0517802  -0.0298953   0.0000000), wk =   0.1111111
        k(   12) = (   0.0517802   0.0000000   0.0000000), wk =   0.1111111
        k(   13) = (   0.0517802   0.0298953   0.0000000), wk =   0.1111111
        k(   14) = (   0.0517802  -0.1195813   0.0000000), wk =   0.1111111
        k(   15) = (   0.0517802  -0.0896860   0.0000000), wk =   0.1111111
        k(   16) = (   0.0517802  -0.0597906   0.0000000), wk =   0.1111111
        k(   17) = (  -0.0776703   0.0448430   0.0000000), wk =   0.0555556
        k(   18) = (  -0.0776703   0.0747383   0.0000000), wk =   0.1111111
        k(   19) = (  -0.0776703   0.1046336   0.0000000), wk =   0.1111111
        k(   20) = (  -0.0776703  -0.0448430   0.0000000), wk =   0.0555556

     Largest allocated arrays     est. size (Mb)     dimensions
     Largest temporary arrays     est. size (Mb)     dimensions

     Initial potential from superposition of free atoms
     Check: negative starting charge=   -0.000264

     starting charge  138.97110, renormalised to  139.00000

     negative rho (up, down):  2.641E-04 0.000E+00

     *
     * You are using vdW-DF for exchange-correlation in this calculation.
     * Please cite the following three references that made this development
     * possible:
     *
     *   M. Dion, H. Rydberg, E. Schroder, D. C. Langreth, and
     *   B. I. Lundqvist, Phys. Rev. Lett. 92, 246401 (2004).
     *
     *   T. Thonhauser, V. R. Cooper, S. Li, A. Puzder, P. Hyldgaard, and
     *   D. C. Langreth, Phys. Rev. B 76, 125112 (2007).
     *
     *   G. Roman-Perez and J. M. Soler, Phys. Rev. Lett. 103, 096102 (2009).
     *
     *
     * If you are using vdW-DF2, please also cite:
     *
     *   K. Lee, E. D. Murray, L. Kong, B. I. Lundqvist, and
     *   D. C. Langreth, Phys. Rev. B 82, 081101(R) (2010).
     *
     *
     * If you are calculating the stress with vdW-DF, please also cite:
     *
     *   R. Sabatini, E. Kucukbenli, B. Kolb, T. Thonhauser, and
     *   S. de Gironcoli, J. Phys.: Condens. Matter 24, 424209 (2012).
     *

     Carrying out vdW-DF run using the following parameters:

     Nqs =      20    Nr_points =    1024   r_max =   100.000
     q_mesh =
               0.00001000     0.04494208     0.09755937     0.15916263
               0.23128650     0.31572767     0.41458969     0.53033537
               0.66584808     0.82450364     1.01025438     1.22772762
               1.48234092     1.78043706     2.12944203     2.53805004
               3.01644009     3.57652955     4.23227104     5.00000000

     Gradients computed in reciprocal space

     Adding external electric field

     Computed dipole along edir(3) :
        Dipole               -0.0118 Ry au,         -0.0300 Debye
        Dipole field         -0.0000 Ry au

        Potential amp.        0.0023 Ry
        Total length         46.5341 bohr

     Starting wfc are  163 randomized atomic wfcs

     Self-consistent Calculation

     iteration #  1     ecut=    36.75 Ry     beta=0.30
     Davidson diagonalization with overlap
     ethr =  1.00E-02,  avg # of iterations =  2.0

[...]

     total energy              =   -1150.30540191 Ry
     Harris-Foulkes estimate   =   -1153.57005162 Ry
     estimated scf accuracy    <       6.94713318 Ry

[...]

     iteration # 11     ecut=    36.75 Ry     beta=0.30
     Davidson diagonalization with overlap
     c_bands:  1 eigenvalues not converged
     ethr =  4.49E-06,  avg # of iterations = 10.3

[...]

     End of self-consistent calculation

          k = 0.0000 0.0000 0.0000 ( 23031 PWs)   bands (ev):

   -49.1208 -49.1043 -49.0605 -49.0575 -49.0569 -49.0521 -49.0253 -49.0195
   -48.6586 -48.6185 -48.6179 -48.5971 -27.8390 -27.8227 -27.8211 -27.8169
   -27.8101 -27.8072 -27.7903 -27.7832 -27.7396 -27.7291 -27.7276 -27.7214
   -27.6947 -27.6873 -27.5579 -27.5575 -27.5569 -27.5499 -27.5468 -27.5285
   -27.4787 -27.4787 -27.4558 -27.4547 -27.3783 -27.3758 -27.3754 -27.2240
   -27.2050 -27.2041 -27.1787 -27.1480 -27.1327 -27.1325 -27.0612 -27.0610
   -12.9244  -5.9836  -5.5575  -4.1702  -3.5696  -2.5167  -1.4183  -0.6537
    -0.6251  -0.6239  -0.5364  -0.5339  -0.4529  -0.2472  -0.2437   0.0369
     0.2713   0.2748   0.2800   0.5486   0.5599   0.5857   0.9361   1.0506
     1.3604   1.4039   1.4281   1.4743   1.5357   1.5626   1.9774

[...]

          k =-0.0777 0.0448 0.0000 ( 23032 PWs)   bands (ev):

[...]

     the Fermi energy is     0.8447 ev

!    total energy              =   -1152.89415959 Ry
     Harris-Foulkes estimate   =   -1152.89416080 Ry
     estimated scf accuracy    <       0.00000148 Ry

     The total energy is the sum of the following terms:

     one-electron contribution =   -7406.60138775 Ry
     hartree contribution      =    3688.75907339 Ry
     xc contribution           =    -172.35040228 Ry
     ewald contribution        =    2737.43270870 Ry
     electric field correction =       0.00007404 Ry
     smearing contrib. (-TS)   =      -0.13422570 Ry

     convergence has been achieved in  20 iterations

 BEEF-vdW xc energy contributions
           1 :   -145.958324819306
           2 :    128.377355205155
           3 :   -100.992982003962
           4 :    74.3944136052141
           5 :   -55.9985285843094
           6 :    47.0827318391506
           7 :   -44.0729977644828
           8 :    42.2878437902424
           9 :   -39.1458836200819
          10 :    34.9231427236713
          11 :   -31.2945276349103
          12 :    29.3450509214734
          13 :   -28.6696464715434
          14 :    27.9774563580244
          15 :   -26.3686049181794
          16 :    24.0703578895304
          17 :   -22.0751575793224
          18 :    21.1404816892567
          19 :   -21.1104593522731
          20 :    21.1257213033849
          21 :   -20.4404549913622
          22 :    19.0548062818815
          23 :   -17.6240112849590
          24 :    16.8050414356217
          25 :   -16.6785087627327
          26 :    16.7430576760518
          27 :   -16.4227664040802
          28 :    15.5842813331915
          29 :   -14.6070059489538
          30 :    13.9889460197355
          31 :   -17.3453338869296
          32 :   -12.4266204108624

     Forces acting on atoms (Ry/au):

     negative rho (up, down):  1.672E-04 0.000E+00
     atom    1 type  1   force =     0.00019443    0.00006954    0.00203670
     atom    2 type  1   force =    -0.00015981    0.00012369    0.00210931
     atom    3 type  1   force =    -0.00006175   -0.00018447    0.00213824
     atom    4 type  1   force =     0.00001727    0.00002339    0.00170537
     atom    5 type  1   force =     0.00000175   -0.00123280    0.00189894
     atom    6 type  1   force =     0.00005293   -0.00007049   -0.01169901
     atom    7 type  1   force =     0.00102444    0.00052837    0.00183594
     atom    8 type  1   force =    -0.00100637    0.00066847    0.00189139
     atom    9 type  1   force =     0.00081052    0.00058494   -0.01737310
     atom   10 type  1   force =    -0.00276503    0.00848688    0.00198889
     atom   11 type  1   force =     0.00688079   -0.00167591    0.00098483
     atom   12 type  1   force =    -0.00584481   -0.00574810    0.00312836
     atom   13 type  2   force =     0.04515679   -0.00176148    0.15954977
     atom   14 type  3   force =    -0.07307158    0.00289354   -0.06410921
     atom   15 type  3   force =     0.01187485   -0.04218339   -0.04356226
     atom   16 type  3   force =     0.01689559    0.03947780   -0.04252416

     Total force =     0.211993     Total SCF correction =     0.003242

     entering subroutine stress ...

     negative rho (up, down):  1.672E-04 0.000E+00
          total   stress  (Ry/bohr**3)                   (kbar)     P=   -2.93
  -0.00001317  -0.00000060  -0.00000825         -1.94     -0.09     -1.21
  -0.00000060  -0.00000778  -0.00000070         -0.09     -1.14     -0.10
  -0.00000825  -0.00000070  -0.00003880         -1.21     -0.10     -5.71

     BFGS Geometry Optimization

     number of scf cycles    =   1
     number of bfgs steps    =   0

     energy   new            =   -1152.8941595944 Ry

     new trust radius        =       0.1658263120 bohr
     new conv_thr            =       0.0000099958 Ry

ATOMIC_POSITIONS (crystal)
Sc1      0.166666667   0.166666667   0.395942884    0   0   0
Sc1      0.666666667   0.166666667   0.395942884    0   0   0
Sc1      0.166666667   0.666666667   0.395942884    0   0   0
Sc1      0.666666667   0.666666667   0.395942884    0   0   0
Sc1      0.833333333   0.333333333   0.500000000    0   0   0
Sc1      0.333333333   0.333333333   0.500000000    0   0   0
Sc1      0.833333333   0.833333333   0.500000000    0   0   0
Sc1      0.333333333   0.833333333   0.500000000    0   0   0
Sc1      0.000038866   0.000055523   0.603693107
Sc1      0.499369921   0.000805571   0.604098788
Sc1      0.000645158   0.499840923   0.604077750
Sc1      0.499792344   0.499454393   0.604122662
C1       0.337128944   0.333166134   0.670711333
H1       0.496510637   0.333607987   0.690969543
H1       0.186632528   0.488880645   0.691400051
H1       0.342720964   0.177529208   0.691421802

     Writing output data file calc.save
     Check: negative starting charge=   -0.000264
     NEW-OLD atomic charge density approx. for the potential
     Check: negative starting charge=   -0.000263

[...]

     energy   old            =   -1152.8941595944 Ry
     energy   new            =   -1152.9245442532 Ry

     CASE: energy  _new < energy  _old

[...]

     Threshold (ethr) on eigenvalues was too large:
     Diagonalizing with lowered threshold

     Davidson diagonalization with overlap
     c_bands:  1 eigenvalues not converged
     ethr =  7.43E-08,  avg # of iterations =  7.5

[...]

     number of scf cycles    =  21
     number of bfgs steps    =  20

     energy   old            =   -1152.9340188376 Ry
     energy   new            =   -1152.9341217629 Ry

     CASE: energy  _new < energy  _old

     new trust radius        =       0.0207348038 bohr
     new conv_thr            =       0.0000001000 Ry

ATOMIC_POSITIONS (crystal)
Sc1      0.166666667   0.166666667   0.395942884    0   0   0
Sc1      0.666666667   0.166666667   0.395942884    0   0   0
Sc1      0.166666667   0.666666667   0.395942884    0   0   0
Sc1      0.666666667   0.666666667   0.395942884    0   0   0
Sc1      0.833333333   0.333333333   0.500000000    0   0   0
Sc1      0.333333333   0.333333333   0.500000000    0   0   0
Sc1      0.833333333   0.833333333   0.500000000    0   0   0
Sc1      0.333333333   0.833333333   0.500000000    0   0   0
Sc1      0.002456246  -0.000299089   0.597834253
Sc1      0.495386361   0.011308451   0.607456333
Sc1      0.013525413   0.495905967   0.607292033
Sc1      0.498367618   0.492503212   0.607370353
C1       0.335983165   0.333030410   0.678397931
H1       0.477885559   0.358794218   0.696603045
H1       0.170115832   0.474127575   0.697310538
H1       0.361937609   0.166963657   0.697453145

     Writing output data file calc.save
     Check: negative starting charge=   -0.000247
     NEW-OLD atomic charge density approx. for the potential
     Check: negative starting charge=   -0.000247

[...]

     Self-consistent Calculation

[...]

     Threshold (ethr) on eigenvalues was too large:
     Diagonalizing with lowered threshold

     Davidson diagonalization with overlap
     ethr =  8.26E-08,  avg # of iterations =  2.8

[...]

     iteration # 12     ecut=    36.75 Ry     beta=0.30
     Davidson diagonalization with overlap
     ethr =  1.91E-10,  avg # of iterations =  8.8

[...]

     total energy              =   -1152.93417526 Ry
     Harris-Foulkes estimate   =   -1152.93417530 Ry
     estimated scf accuracy    <       0.00000021 Ry

     iteration # 13     ecut=    36.75 Ry     beta=0.30
     Davidson diagonalization with overlap
     c_bands:  1 eigenvalues not converged
     ethr =  1.49E-10,  avg # of iterations =  5.1

[...]

     negative rho (up, down):  1.818E-04 0.000E+00

     Adding external electric field

     Computed dipole along edir(3) :
        Dipole                0.1562 Ry au,          0.3970 Debye
        Dipole field          0.0003 Ry au

        Potential amp.       -0.0299 Ry
        Total length         46.5341 bohr

     End of self-consistent calculation

[...]

          k = 0.0518-0.0598 0.0000 ( 23012 PWs)   bands (ev):

[...]

          k =-0.0777-0.0448 0.0000 ( 23032 PWs)   bands (ev):

   -49.1410 -49.1242 -49.1228 -49.1183 -49.1125 -49.0991 -49.0953 -49.0030
   -48.6919 -48.6878 -48.6698 -48.6607 -27.8251 -27.8123 -27.8034 -27.7957
   -27.7923 -27.7873 -27.7856 -27.7792 -27.7646 -27.7621 -27.7587 -27.7368
   -27.7168 -27.6900 -27.6879 -27.6724 -27.6645 -27.6608 -27.6544 -27.5755
   -27.5644 -27.5589 -27.5563 -27.5034 -27.3791 -27.3655 -27.2831 -27.2731
   -27.2638 -27.2629 -27.2578 -27.2520 -27.2479 -27.2249 -27.1588 -27.1493
   -13.2199  -6.2546  -6.2018  -3.2605  -2.6092  -2.4788  -1.6115  -1.4018
    -0.7080  -0.6976  -0.4308  -0.3033  -0.1644  -0.1374   0.5162   0.5390
     0.5673   0.5780   0.5935   0.6988   0.8173   0.8525   0.9032   0.9107
     0.9540   0.9968   1.0207   1.1703   1.2330   1.3222   1.3351

     the Fermi energy is     0.8039 ev

!    total energy              =   -1152.93417525 Ry
     Harris-Foulkes estimate   =   -1152.93417548 Ry
     estimated scf accuracy    <       0.00000003 Ry

     The total energy is the sum of the following terms:

     one-electron contribution =   -7344.19602452 Ry
     hartree contribution      =    3657.43330519 Ry
     xc contribution           =    -172.47545608 Ry
     ewald contribution        =    2706.43961743 Ry
     electric field correction =       0.00005013 Ry
     smearing contrib. (-TS)   =      -0.13566741 Ry

     convergence has been achieved in  13 iterations

 BEEF-vdW xc energy contributions
           1 :   -146.060310857825
           2 :    128.432942535465
           3 :   -101.010880274600
           4 :    74.4214666210534
           5 :   -56.0674611417598
           6 :    47.1871728820108
           7 :   -44.1798907524254
           8 :    42.3662978662620
           9 :   -39.1882888393934
          10 :    34.9453108056587
          11 :   -31.3176593165056
          12 :    29.3758843534673
          13 :   -28.6968401133982
          14 :    27.9868947349502
          15 :   -26.3610317021249
          16 :    24.0627549361027
          17 :   -22.0829610883399
          18 :    21.1577083431090
          19 :   -21.1103995753886
          20 :    21.0843812042880
          21 :   -20.3591866591794
          22 :    18.9591537432814
          23 :   -17.5409470994864
          24 :    16.7419877918250
          25 :   -16.6234005686094
          26 :    16.6820424358080
          27 :   -16.3556456937816
          28 :    15.5230336050881
          29 :   -14.5602858519697
          30 :    13.9484662102317
          31 :   -17.3505351095767
          32 :   -12.4237105029925

     Forces acting on atoms (Ry/au):

     negative rho (up, down):  1.818E-04 0.000E+00
     atom    1 type  1   force =     0.00056001    0.00031032    0.00172055
     atom    2 type  1   force =    -0.00060345    0.00033841    0.00168318
     atom    3 type  1   force =    -0.00001667   -0.00065846    0.00168583
     atom    4 type  1   force =    -0.00004839    0.00001656    0.00329670
     atom    5 type  1   force =     0.00058191    0.00093145   -0.00142898
     atom    6 type  1   force =     0.00028382    0.00001145    0.00073227
     atom    7 type  1   force =    -0.00064146   -0.00005488   -0.00122853
     atom    8 type  1   force =     0.00118615   -0.00098250   -0.00153445
     atom    9 type  1   force =    -0.00029420    0.00019111   -0.00054927
     atom   10 type  1   force =    -0.00098798   -0.00074901   -0.00010259
     atom   11 type  1   force =    -0.00059838    0.00014613    0.00025123
     atom   12 type  1   force =     0.00050150    0.00045578   -0.00026533
     atom   13 type  2   force =    -0.00004970    0.00008232   -0.00035161
     atom   14 type  3   force =    -0.00004572    0.00152733   -0.00064445
     atom   15 type  3   force =    -0.00147461   -0.00008273   -0.00159009
     atom   16 type  3   force =     0.00164718   -0.00148329   -0.00167446

     Total force =     0.004273     Total SCF correction =     0.000242

     entering subroutine stress ...

     negative rho (up, down):  1.818E-04 0.000E+00
          total   stress  (Ry/bohr**3)                   (kbar)     P=    0.24
   0.00001119  -0.00000071  -0.00000096          1.65     -0.10     -0.14
  -0.00000071   0.00001159   0.00000006         -0.10      1.70      0.01
  -0.00000096   0.00000006  -0.00001781         -0.14      0.01     -2.62

     bfgs converged in  22 scf cycles and  21 bfgs steps
     (criteria: energy <  1.0E+00, force <  1.9E-03)

     End of BFGS Geometry Optimization

     Final energy   =   -1152.9341752497 Ry
Begin final coordinates

ATOMIC_POSITIONS (crystal)
Sc1      0.166666667   0.166666667   0.395942884    0   0   0
Sc1      0.666666667   0.166666667   0.395942884    0   0   0
Sc1      0.166666667   0.666666667   0.395942884    0   0   0
Sc1      0.666666667   0.666666667   0.395942884    0   0   0
Sc1      0.833333333   0.333333333   0.500000000    0   0   0
Sc1      0.333333333   0.333333333   0.500000000    0   0   0
Sc1      0.833333333   0.833333333   0.500000000    0   0   0
Sc1      0.333333333   0.833333333   0.500000000    0   0   0
Sc1      0.002456246  -0.000299089   0.597834253
Sc1      0.495386361   0.011308451   0.607456333
Sc1      0.013525413   0.495905967   0.607292033
Sc1      0.498367618   0.492503212   0.607370353
C1       0.335983165   0.333030410   0.678397931
H1       0.477885559   0.358794218   0.696603045
H1       0.170115832   0.474127575   0.697310538
H1       0.361937609   0.166963657   0.697453145
End final coordinates

     Writing output data file calc.save

     General routines

     Parallel routines

   This run was terminated on:   4:10:46  23Apr2018

   JOB DONE.
Job  /afs/slac/g/suncat/bin/suncat-tsmpirun -x LD_LIBRARY_PATH -wdir /scratch/qe363544_aiCPB pw.x -npool 4 -in pw.inp

TID   HOST_NAME   COMMAND_LINE            STATUS            TERMINATION_TIME
00000 suncat0056 pw.x -npool 4 -i  Done                     04/23/2018 04:10:46
00001 suncat0056 pw.x -npool 4 -i  Done                     04/23/2018 04:10:46
00002 suncat0056 pw.x -npool 4 -i  Done                     04/23/2018 04:10:46
00003 suncat0056 pw.x -npool 4 -i  Done                     04/23/2018 04:10:46
00004 suncat0056 pw.x -npool 4 -i  Done                     04/23/2018 04:10:46
00005 suncat0056 pw.x -npool 4 -i  Done                     04/23/2018 04:10:46
00006 suncat0056 pw.x -npool 4 -i  Done                     04/23/2018 04:10:46
00007 suncat0056 pw.x -npool 4 -i  Done                     04/23/2018 04:10:46
00008 suncat0019 pw.x -npool 4 -i  Done                     04/23/2018 04:10:46
00009 suncat0019 pw.x -npool 4 -i  Done                     04/23/2018 04:10:46
00010 suncat0019 pw.x -npool 4 -i  Done                     04/23/2018 04:10:46
00011 suncat0019 pw.x -npool 4 -i  Done                     04/23/2018 04:10:46
00012 suncat0019 pw.x -npool 4 -i  Done                     04/23/2018 04:10:46
00013 suncat0019 pw.x -npool 4 -i  Done                     04/23/2018 04:10:46
00014 suncat0019 pw.x -npool 4 -i  Done                     04/23/2018 04:10:46
00015 suncat0019 pw.x -npool 4 -i  Done                     04/23/2018 04:10:46
00016 suncat0214 pw.x -npool 4 -i  Done                     04/23/2018 04:10:46
00017 suncat0214 pw.x -npool 4 -i  Done                     04/23/2018 04:10:46
00018 suncat0214 pw.x -npool 4 -i  Done                     04/23/2018 04:10:46
00019 suncat0214 pw.x -npool 4 -i  Done                     04/23/2018 04:10:46
00020 suncat0214 pw.x -npool 4 -i  Done                     04/23/2018 04:10:46
00021 suncat0214 pw.x -npool 4 -i  Done                     04/23/2018 04:10:46
00022 suncat0214 pw.x -npool 4 -i  Done                     04/23/2018 04:10:46
00023 suncat0214 pw.x -npool 4 -i  Done                     04/23/2018 04:10:46
00024 suncat0209 pw.x -npool 4 -i  Done                     04/23/2018 04:10:46
00025 suncat0209 pw.x -npool 4 -i  Done                     04/23/2018 04:10:46
00026 suncat0209 pw.x -npool 4 -i  Done                     04/23/2018 04:10:46
00027 suncat0209 pw.x -npool 4 -i  Done                     04/23/2018 04:10:46
00028 suncat0209 pw.x -npool 4 -i  Done                     04/23/2018 04:10:46
00029 suncat0209 pw.x -npool 4 -i  Done                     04/23/2018 04:10:46
00030 suncat0209 pw.x -npool 4 -i  Done                     04/23/2018 04:10:46
00031 suncat0209 pw.x -npool 4 -i  Done                     04/23/2018 04:10:46