     Program PWSCF v.5.1rc2 (svn rev. 11289) starts on 15Jan2018 at  7:16:35

     Current dimensions of program PWSCF are:
     Max number of different atomic species (ntypx) = 10
     Max number of k-points (npk) =  40000
     Max angular momentum in pseudopotentials (lmaxx) =  3
     Presently stress not available with electric field

     IMPORTANT: XC functional enforced from input :
     Exchange-correlation      = BEEF-VDW ( 1  4 27 13 2)
     Any further DFT definition will be discarded
     Please, verify this is what you really want

     Subspace diagonalization in iterative solution of the eigenvalue problem:
     a serial algorithm will be used

     bravais-lattice index     =            0
     lattice parameter (alat)  =       1.8897  a.u.
     unit-cell volume          =    4306.9643 (a.u.)^3
     number of atoms/cell      =           13
     number of atomic types    =            2
     number of electrons       =       186.00
     number of Kohn-Sham states=          103
     kinetic-energy cutoff     =      36.7493  Ry
     charge density cutoff     =     367.4932  Ry
     convergence threshold     =      1.0E-05
     mixing beta               =       0.3000
     number of iterations used =           10  plain     mixing
     Exchange-correlation      = BEEF-VDW ( 1  4 27 13 2)
     nstep                     =           50

     celldm(1)=   1.889726  celldm(2)=   0.000000  celldm(3)=   0.000000
     celldm(4)=   0.000000  celldm(5)=   0.000000  celldm(6)=   0.000000

     crystal axes: (cart. coord. in units of alat)
               a(1) = (   5.486772   0.000000   0.000000 )
               a(2) = (   2.743386   4.751684   0.000000 )
               a(3) = (   0.000000   0.000000  24.479931 )

     reciprocal axes: (cart. coord. in units 2 pi/alat)
               b(1) = (  0.182257 -0.105226  0.000000 )
               b(2) = (  0.000000  0.210452  0.000000 )
               b(3) = (  0.000000  0.000000  0.040850 )

     PseudoPot. # 1 for Re read from file:
     /afs/slac.stanford.edu/u/if/mamunm/psp/gbrv1.5pbe/Re.UPF
     MD5 check sum: 85f993410f3e006da9d71c142b4ad953
     Pseudo is Ultrasoft + core correction, Zval = 15.0
     Generated by new atomic code, or converted to UPF format
     Using radial grid of  981 points,  8 beta functions with:
                l(1) =   0
                l(2) =   0
                l(3) =   1
                l(4) =   1
                l(5) =   2
                l(6) =   2
                l(7) =   3
                l(8) =   3
     Q(r) pseudized with  8 coefficients,  rinner =    1.150   1.150   1.150
                                                       1.150   1.150   1.150
                                                       1.150

     PseudoPot. # 2 for O  read from file:
     /afs/slac.stanford.edu/u/if/mamunm/psp/gbrv1.5pbe/O.UPF
     MD5 check sum: 734c27235a0248c51dbae37a1fbe46ec
     Pseudo is Ultrasoft + core correction, Zval =  6.0
     Generated by new atomic code, or converted to UPF format
     Using radial grid of  737 points,  5 beta functions with:
                l(1) =   0
                l(2) =   0
                l(3) =   1
                l(4) =   1
                l(5) =   2
     Q(r) pseudized with  8 coefficients,  rinner =    0.900   0.900   0.900
                                                       0.900   0.900

     vdW kernel table read from file vdW_kernel_table
     MD5 check sum: 095c7af220d748ca6e76c0b4c6cfb241

     atomic species   valence    mass     pseudopotential
        Re1           15.00   186.20700     Re( 1.00)
        O1             6.00    15.99900     O ( 1.00)

     No symmetry found

   Cartesian axes

     site n.     atom                  positions (alat units)
         1           Re1 tau(   1) = (   1.3716930   0.7919474  10.0000000  )
         2           Re1 tau(   2) = (   4.1150791   0.7919474  10.0000000  )
         3           Re1 tau(   3) = (   2.7433861   3.1677894  10.0000000  )
         4           Re1 tau(   4) = (   5.4867722   3.1677894  10.0000000  )
         5           Re1 tau(   5) = (   5.4867722   1.5838947  12.2399654  )
         6           Re1 tau(   6) = (   2.7433861   1.5838947  12.2399654  )
         7           Re1 tau(   7) = (   6.8584652   3.9597368  12.2399654  )
         8           Re1 tau(   8) = (   4.1150791   3.9597368  12.2399654  )
         9           Re1 tau(   9) = (   0.0000000   0.0000000  14.4799307  )
        10           Re1 tau(  10) = (   2.7433861   0.0000000  14.4799307  )
        11           Re1 tau(  11) = (   1.3716930   2.3758421  14.4799307  )
        12           Re1 tau(  12) = (   4.1150791   2.3758421  14.4799307  )
        13           O1  tau(  13) = (   2.7433861   1.5838947  16.6499307  )

     number of k points=    20  Fermi-Dirac smearing, width (Ry)=  0.0110
                       cart. coord. in units 2pi/alat
        k(    1) = (   0.0000000   0.0000000   0.0000000), wk =   0.0555556
        k(    2) = (   0.0000000   0.0350753   0.0000000), wk =   0.1111111
        k(    3) = (   0.0000000   0.0701506   0.0000000), wk =   0.1111111
        k(    4) = (   0.0000000  -0.1052259   0.0000000), wk =   0.0555556
        k(    5) = (   0.0303761  -0.0175376   0.0000000), wk =   0.1111111
        k(    6) = (   0.0303761   0.0175376   0.0000000), wk =   0.1111111
        k(    7) = (   0.0303761   0.0526129   0.0000000), wk =   0.1111111
        k(    8) = (   0.0303761  -0.1227635   0.0000000), wk =   0.1111111
        k(    9) = (   0.0303761  -0.0876882   0.0000000), wk =   0.1111111
        k(   10) = (   0.0303761  -0.0526129   0.0000000), wk =   0.1111111
        k(   11) = (   0.0607522  -0.0350753   0.0000000), wk =   0.1111111
        k(   12) = (   0.0607522   0.0000000   0.0000000), wk =   0.1111111
        k(   13) = (   0.0607522   0.0350753   0.0000000), wk =   0.1111111
        k(   14) = (   0.0607522  -0.1403011   0.0000000), wk =   0.1111111
        k(   15) = (   0.0607522  -0.1052259   0.0000000), wk =   0.1111111
        k(   16) = (   0.0607522  -0.0701506   0.0000000), wk =   0.1111111
        k(   17) = (  -0.0911283   0.0526129   0.0000000), wk =   0.0555556
        k(   18) = (  -0.0911283   0.0876882   0.0000000), wk =   0.1111111
        k(   19) = (  -0.0911283   0.1227635   0.0000000), wk =   0.1111111
        k(   20) = (  -0.0911283  -0.0526129   0.0000000), wk =   0.0555556

     Largest allocated arrays     est. size (Mb)     dimensions
     Largest temporary arrays     est. size (Mb)     dimensions

     Initial potential from superposition of free atoms
     Check: negative starting charge=   -1.539739

     starting charge  179.99946, renormalised to  186.00000

     negative rho (up, down):  1.591E+00 0.000E+00

     *
     * You are using vdW-DF for exchange-correlation in this calculation.
     * Please cite the following three references that made this development
     * possible:
     *
     *   M. Dion, H. Rydberg, E. Schroder, D. C. Langreth, and
     *   B. I. Lundqvist, Phys. Rev. Lett. 92, 246401 (2004).
     *
     *   T. Thonhauser, V. R. Cooper, S. Li, A. Puzder, P. Hyldgaard, and
     *   D. C. Langreth, Phys. Rev. B 76, 125112 (2007).
     *
     *   G. Roman-Perez and J. M. Soler, Phys. Rev. Lett. 103, 096102 (2009).
     *
     *
     * If you are using vdW-DF2, please also cite:
     *
     *   K. Lee, E. D. Murray, L. Kong, B. I. Lundqvist, and
     *   D. C. Langreth, Phys. Rev. B 82, 081101(R) (2010).
     *
     *
     * If you are calculating the stress with vdW-DF, please also cite:
     *
     *   R. Sabatini, E. Kucukbenli, B. Kolb, T. Thonhauser, and
     *   S. de Gironcoli, J. Phys.: Condens. Matter 24, 424209 (2012).
     *

     Carrying out vdW-DF run using the following parameters:

     Nqs =      20    Nr_points =    1024   r_max =   100.000
     q_mesh =
               0.00001000     0.04494208     0.09755937     0.15916263
               0.23128650     0.31572767     0.41458969     0.53033537
               0.66584808     0.82450364     1.01025438     1.22772762
               1.48234092     1.78043706     2.12944203     2.53805004
               3.01644009     3.57652955     4.23227104     5.00000000

     Gradients computed in reciprocal space

     Adding external electric field

     Computed dipole along edir(3) :
        Dipole               -1.6669 Ry au,         -4.2368 Debye
        Dipole field         -0.0049 Ry au

        Potential amp.        0.4387 Ry
        Total length         45.1039 bohr

     Starting wfc are  160 randomized atomic wfcs

     Self-consistent Calculation

     iteration #  1     ecut=    36.75 Ry     beta=0.30
     Davidson diagonalization with overlap
     ethr =  1.00E-02,  avg # of iterations =  2.0

[...]

     total energy              =   -2301.14441362 Ry
     Harris-Foulkes estimate   =   -2338.50268595 Ry
     estimated scf accuracy    <      77.16165201 Ry

[...]

     End of self-consistent calculation

          k = 0.0000 0.0000 0.0000 ( 16091 PWs)   bands (ev):

   -78.4039 -78.3480 -78.3127 -78.3123 -78.2935 -78.2931 -78.2915 -78.2537
   -78.1963 -78.1865 -78.1856 -78.1788 -40.6547 -40.6431 -40.6430 -40.5558
   -40.5023 -40.4694 -40.4692 -40.3595 -40.3388 -40.3386 -40.1356 -40.0390
   -40.0387 -39.9989 -39.9723 -39.9720 -39.9662 -39.8930 -39.8890 -39.8888
   -39.7793 -39.7793 -39.7632 -39.6956 -39.6935 -39.6931 -39.6901 -39.6398
   -39.6398 -39.6039 -39.5994 -39.5990 -39.4728 -39.4726 -39.3997 -39.3996
   -13.5661  -6.9760  -5.0138  -4.4653  -4.0737  -4.0672  -4.0672  -3.7751
    -3.7575  -3.7575  -3.0850  -3.0785  -3.0784  -2.9177  -2.8868  -2.8867
    -1.4136  -1.3417  -1.3416  -0.4105  -0.2936  -0.2936  -0.1270   0.0400
     0.3800   0.3800   0.5426   0.5426   0.7472   0.8272   0.8272   0.8766
     0.8857   0.8858   0.9283   1.1279   1.1279   1.4995   1.4996   1.8479
     2.5725   2.5726   2.6746   2.8902   2.9296   2.9298   3.3814   3.4593
     3.4593   4.0150   4.0150   4.0316   4.0317   4.3526   4.6794

[...]

          k =-0.0911 0.0526 0.0000 ( 16164 PWs)   bands (ev):

[...]

     the Fermi energy is     2.2537 ev

!    total energy              =   -2338.25544000 Ry
     Harris-Foulkes estimate   =   -2338.25544059 Ry
     estimated scf accuracy    <       0.00000759 Ry

     The total energy is the sum of the following terms:

     one-electron contribution =  -18791.74590122 Ry
     hartree contribution      =    9380.05856594 Ry
     xc contribution           =    -656.56779383 Ry
     ewald contribution        =    7730.06634346 Ry
     electric field correction =       0.00089784 Ry
     smearing contrib. (-TS)   =      -0.06755219 Ry

     convergence has been achieved in  22 iterations

 BEEF-vdW xc energy contributions
           1 :   -583.555034023417
           2 :    542.170968617057
           3 :   -468.068664466902
           4 :    375.495462378264
           5 :   -279.979594953514
           6 :    194.414660084830
           7 :   -126.514761742554
           8 :    78.1682186054165
           9 :   -46.5994882295741
          10 :    26.6353458876395
          11 :   -13.0928748172682
          12 :    2.43214495561233
          13 :    6.70962371088410
[...]

[...]

     Program PWSCF v.5.1rc2 (svn rev. 11289) starts on 15Jan2018 at  9:16: 0

[...]

   This run was terminated on:   9:32: 0  15Jan2018

[...]

     Program PWSCF v.5.1rc2 (svn rev. 11289) starts on 15Jan2018 at  9:32: 5

[...]

     Program PWSCF v.5.1rc2 (svn rev. 11289) starts on 15Jan2018 at  9:47:35

[...]

   This run was terminated on:  10: 3:10  15Jan2018

[...]

     Program PWSCF v.5.1rc2 (svn rev. 11289) starts on 15Jan2018 at 10: 3:16

     Current dimensions of program PWSCF are:
     Max number of different atomic species (ntypx) = 10
     Max number of k-points (npk) =  40000
     Max angular momentum in pseudopotentials (lmaxx) =  3
     Presently stress not available with electric field

     IMPORTANT: XC functional enforced from input :
     Exchange-correlation      = BEEF-VDW ( 1  4 27 13 2)
     Any further DFT definition will be discarded
     Please, verify this is what you really want

     Subspace diagonalization in iterative solution of the eigenvalue problem:
     a serial algorithm will be used

     bravais-lattice index     =            0
     lattice parameter (alat)  =       1.8897  a.u.
     unit-cell volume          =    4306.9643 (a.u.)^3
     number of atoms/cell      =           13
     number of atomic types    =            2
     number of electrons       =       186.00
     number of Kohn-Sham states=          103
     kinetic-energy cutoff     =      36.7493  Ry
     charge density cutoff     =     367.4932  Ry
     convergence threshold     =      1.0E-05
     mixing beta               =       0.3000
     number of iterations used =           10  plain     mixing
     Exchange-correlation      = BEEF-VDW ( 1  4 27 13 2)
     nstep                     =           50

     celldm(1)=   1.889726  celldm(2)=   0.000000  celldm(3)=   0.000000
     celldm(4)=   0.000000  celldm(5)=   0.000000  celldm(6)=   0.000000

     crystal axes: (cart. coord. in units of alat)
               a(1) = (   5.486772   0.000000   0.000000 )
               a(2) = (   2.743386   4.751684   0.000000 )
               a(3) = (   0.000000   0.000000  24.479931 )

     reciprocal axes: (cart. coord. in units 2 pi/alat)
               b(1) = (  0.182257 -0.105226  0.000000 )
               b(2) = (  0.000000  0.210452  0.000000 )
               b(3) = (  0.000000  0.000000  0.040850 )

     PseudoPot. # 1 for Re read from file:
     /afs/slac.stanford.edu/u/if/mamunm/psp/gbrv1.5pbe/Re.UPF
     MD5 check sum: 85f993410f3e006da9d71c142b4ad953
     Pseudo is Ultrasoft + core correction, Zval = 15.0
     Generated by new atomic code, or converted to UPF format
     Using radial grid of  981 points,  8 beta functions with:
                l(1) =   0
                l(2) =   0
                l(3) =   1
                l(4) =   1
                l(5) =   2
                l(6) =   2
                l(7) =   3
                l(8) =   3
     Q(r) pseudized with  8 coefficients,  rinner =    1.150   1.150   1.150
                                                       1.150   1.150   1.150
                                                       1.150

     PseudoPot. # 2 for O  read from file:
     /afs/slac.stanford.edu/u/if/mamunm/psp/gbrv1.5pbe/O.UPF
     MD5 check sum: 734c27235a0248c51dbae37a1fbe46ec
     Pseudo is Ultrasoft + core correction, Zval =  6.0
     Generated by new atomic code, or converted to UPF format
     Using radial grid of  737 points,  5 beta functions with:
                l(1) =   0
                l(2) =   0
                l(3) =   1
                l(4) =   1
                l(5) =   2
     Q(r) pseudized with  8 coefficients,  rinner =    0.900   0.900   0.900
                                                       0.900   0.900

     vdW kernel table read from file vdW_kernel_table
     MD5 check sum: 095c7af220d748ca6e76c0b4c6cfb241

     atomic species   valence    mass     pseudopotential
        Re1           15.00   186.20700     Re( 1.00)
        O1             6.00    15.99900     O ( 1.00)

     No symmetry found

   Cartesian axes

     site n.     atom                  positions (alat units)
         1           Re1 tau(   1) = (   1.3716930   0.7919474  10.0000000  )
         2           Re1 tau(   2) = (   4.1150791   0.7919474  10.0000000  )
         3           Re1 tau(   3) = (   2.7433861   3.1677894  10.0000000  )
         4           Re1 tau(   4) = (   5.4867722   3.1677894  10.0000000  )
         5           Re1 tau(   5) = (   5.4867722   1.5838947  12.2399654  )
         6           Re1 tau(   6) = (   2.7433861   1.5838947  12.2399654  )
         7           Re1 tau(   7) = (   6.8584652   3.9597368  12.2399654  )
         8           Re1 tau(   8) = (   4.1150791   3.9597368  12.2399654  )
         9           Re1 tau(   9) = (   5.4868043   0.0003017  14.3872671  )
        10           Re1 tau(  10) = (   5.4868046   4.7069441  14.4520550  )
        11           Re1 tau(  11) = (   6.8198104   2.3980906  14.4523453  )
        12           Re1 tau(  12) = (   4.1538409   2.3981059  14.4521320  )
        13           O1  tau(  13) = (   2.7433165   1.5839389  15.6912271  )

     number of k points=    20  Fermi-Dirac smearing, width (Ry)=  0.0110
                       cart. coord. in units 2pi/alat
        k(    1) = (   0.0000000   0.0000000   0.0000000), wk =   0.0555556
        k(    2) = (   0.0000000   0.0350753   0.0000000), wk =   0.1111111
        k(    3) = (   0.0000000   0.0701506   0.0000000), wk =   0.1111111
        k(    4) = (   0.0000000  -0.1052259   0.0000000), wk =   0.0555556
        k(    5) = (   0.0303761  -0.0175376   0.0000000), wk =   0.1111111
        k(    6) = (   0.0303761   0.0175376   0.0000000), wk =   0.1111111
        k(    7) = (   0.0303761   0.0526129   0.0000000), wk =   0.1111111
        k(    8) = (   0.0303761  -0.1227635   0.0000000), wk =   0.1111111
        k(    9) = (   0.0303761  -0.0876882   0.0000000), wk =   0.1111111
        k(   10) = (   0.0303761  -0.0526129   0.0000000), wk =   0.1111111
        k(   11) = (   0.0607522  -0.0350753   0.0000000), wk =   0.1111111
        k(   12) = (   0.0607522   0.0000000   0.0000000), wk =   0.1111111
        k(   13) = (   0.0607522   0.0350753   0.0000000), wk =   0.1111111
        k(   14) = (   0.0607522  -0.1403011   0.0000000), wk =   0.1111111
        k(   15) = (   0.0607522  -0.1052259   0.0000000), wk =   0.1111111
        k(   16) = (   0.0607522  -0.0701506   0.0000000), wk =   0.1111111
        k(   17) = (  -0.0911283   0.0526129   0.0000000), wk =   0.0555556
        k(   18) = (  -0.0911283   0.0876882   0.0000000), wk =   0.1111111
        k(   19) = (  -0.0911283   0.1227635   0.0000000), wk =   0.1111111
        k(   20) = (  -0.0911283  -0.0526129   0.0000000), wk =   0.0555556

     Largest allocated arrays     est. size (Mb)     dimensions
     Largest temporary arrays     est. size (Mb)     dimensions

     Initial potential from superposition of free atoms
     Check: negative starting charge=   -1.537859

     starting charge  179.99946, renormalised to  186.00000

[...]

     *
     * You are using vdW-DF for exchange-correlation in this calculation.
     * Please cite the following three references that made this development
     * possible:
     *
     *   M. Dion, H. Rydberg, E. Schroder, D. C. Langreth, and
     *   B. I. Lundqvist, Phys. Rev. Lett. 92, 246401 (2004).
     *
     *   T. Thonhauser, V. R. Cooper, S. Li, A. Puzder, P. Hyldgaard, and
     *   D. C. Langreth, Phys. Rev. B 76, 125112 (2007).
     *
     *   G. Roman-Perez and J. M. Soler, Phys. Rev. Lett. 103, 096102 (2009).
     *
     *
     * If you are using vdW-DF2, please also cite:
     *
     *   K. Lee, E. D. Murray, L. Kong, B. I. Lundqvist, and
     *   D. C. Langreth, Phys. Rev. B 82, 081101(R) (2010).
     *
     *
     * If you are calculating the stress with vdW-DF, please also cite:
     *
     *   R. Sabatini, E. Kucukbenli, B. Kolb, T. Thonhauser, and
     *   S. de Gironcoli, J. Phys.: Condens. Matter 24, 424209 (2012).
     *

     Carrying out vdW-DF run using the following parameters:

     Nqs =      20    Nr_points =    1024   r_max =   100.000
     q_mesh =
               0.00001000     0.04494208     0.09755937     0.15916263
               0.23128650     0.31572767     0.41458969     0.53033537
               0.66584808     0.82450364     1.01025438     1.22772762
               1.48234092     1.78043706     2.12944203     2.53805004
               3.01644009     3.57652955     4.23227104     5.00000000

     Gradients computed in reciprocal space

[...]

     Starting wfc are  160 randomized atomic wfcs

     Self-consistent Calculation

[...]

     total energy              =   -2338.51945722 Ry
     Harris-Foulkes estimate   =   -2338.51945948 Ry
     estimated scf accuracy    <       0.00002437 Ry

     iteration # 20     ecut=    36.75 Ry     beta=0.30
     Davidson diagonalization with overlap
     ethr =  9.40E-09,  avg # of iterations =  2.4

[...]

     negative rho (up, down):  1.622E+00 0.000E+00

     Adding external electric field

     Computed dipole along edir(3) :
        Dipole               -0.0093 Ry au,         -0.0236 Debye
        Dipole field         -0.0000 Ry au

        Potential amp.        0.0024 Ry
        Total length         45.1039 bohr

     End of self-consistent calculation

[...]

          k = 0.0608-0.0702 0.0000 ( 16218 PWs)   bands (ev):

[...]

          k =-0.0911-0.0526 0.0000 ( 16164 PWs)   bands (ev):

   -77.6843 -77.6576 -77.6347 -77.5993 -77.5396 -77.5136 -77.4961 -77.4527
   -77.4469 -77.4174 -77.4117 -77.3295 -39.8516 -39.7367 -39.7302 -39.6924
   -39.6744 -39.6238 -39.5214 -39.5165 -39.4776 -39.4753 -39.4365 -39.4096
   -39.4055 -39.3060 -39.2540 -39.2094 -39.2055 -39.1843 -39.1445 -39.1164
   -39.1160 -39.1114 -39.0848 -39.0671 -39.0571 -39.0496 -39.0195 -38.9888
   -38.9460 -38.9419 -38.9165 -38.8608 -38.8462 -38.7626 -38.7336 -38.7230
   -16.6283  -4.5120  -4.2235  -3.4656  -3.0864  -3.0335  -2.6026  -2.3130
    -2.1478  -2.0799  -2.0601  -2.0344  -1.7243  -1.5092  -1.2620  -1.2258
    -0.9542  -0.8957  -0.8346  -0.5007  -0.3543  -0.2692  -0.2214  -0.2064
     0.1298   0.1486   0.5755   0.7002   0.8822   0.9187   0.9918   1.0572
     1.1146   1.1913   1.2475   1.3584   1.5116   1.5524   1.6369   1.7982
     1.9761   2.0069   2.2077   2.8315   2.9912   3.0141   3.0305   3.2548
     3.3842   3.5222   3.6761   3.7472   4.0364   4.1430   4.2200

     the Fermi energy is     3.0246 ev

!    total energy              =   -2338.51945347 Ry
     Harris-Foulkes estimate   =   -2338.51945919 Ry
     estimated scf accuracy    <       0.00000573 Ry

     The total energy is the sum of the following terms:

     one-electron contribution =  -19257.92116692 Ry
     hartree contribution      =    9616.85206030 Ry
     xc contribution           =    -657.21003123 Ry
     ewald contribution        =    7959.82248232 Ry
     electric field correction =       0.00000025 Ry
     smearing contrib. (-TS)   =      -0.06279819 Ry

     convergence has been achieved in  20 iterations

 BEEF-vdW xc energy contributions
           1 :   -584.217988770071
           2 :    543.066138151033
           3 :   -469.207627599229
           4 :    376.662983877011
           5 :   -280.882346332692
           6 :    194.842108657670
           7 :   -126.436208625763
           8 :    77.7358531887202
           9 :   -46.0688259611098
          10 :    26.2488676113900
          11 :   -12.9840610234423
          12 :    2.59362500861801
          13 :    6.39138905895209
          14 :   -13.6593581908170
          15 :    18.1448658469664
          16 :   -19.1082090843555
          17 :    16.8109170485371
          18 :   -12.5711356229268
          19 :    8.26681638536581
          20 :   -5.58002682284280
          21 :    5.34696813540052
          22 :   -7.29566493234768
          23 :    10.2605462095254
          24 :   -12.7535458660426
          25 :    13.6205854598679
          26 :   -12.4964273134020
          27 :    9.87984271508856
          28 :   -6.82981251709077
          29 :    4.44942808721737
          30 :   -3.40700961281652
          31 :   -48.6907899885772
          32 :   -36.1252908682660

     Forces acting on atoms (Ry/au):

     negative rho (up, down):  1.622E+00 0.000E+00
     atom    1 type  1   force =     0.00014884    0.00001014    0.01430304
     atom    2 type  1   force =    -0.00016463    0.00009016    0.01438400
     atom    3 type  1   force =     0.00008935   -0.00015746    0.01459830
     atom    4 type  1   force =    -0.00008273    0.00005105    0.01939913
     atom    5 type  1   force =    -0.00008346   -0.00097123   -0.01876515
     atom    6 type  1   force =     0.00005376   -0.00012322   -0.00697713
     atom    7 type  1   force =     0.00071487    0.00059350   -0.01869072
     atom    8 type  1   force =    -0.00070052    0.00054241   -0.01857943
     atom    9 type  1   force =     0.00010170   -0.00020661    0.00038024
     atom   10 type  1   force =    -0.00006294    0.00005788    0.00005646
     atom   11 type  1   force =     0.00005049    0.00007047   -0.00003315
     atom   12 type  1   force =    -0.00011839    0.00011280    0.00004131
     atom   13 type  2   force =     0.00005366   -0.00006991   -0.00011690

     Total force =     0.045818     Total SCF correction =     0.014120
     SCF correction compared to forces is large: reduce conv_thr to get better values

     entering subroutine stress ...

     negative rho (up, down):  1.622E+00 0.000E+00
          total   stress  (Ry/bohr**3)                   (kbar)     P=  -14.05
  -0.00009269  -0.00000002   0.00000000        -13.64     -0.00      0.00
  -0.00000002  -0.00009278  -0.00000002         -0.00    -13.65     -0.00
   0.00000000  -0.00000002  -0.00010102          0.00     -0.00    -14.86

 !ASE

     Writing output data file calc.save

     General routines

     Parallel routines

   This run was terminated on:  10:19:30  15Jan2018

   JOB DONE.
Job  /afs/slac/g/suncat/bin/suncat-tsmpirun -x LD_LIBRARY_PATH -wdir /scratch/qe842473_0TckQ pw.x -in pw.inp

TID   HOST_NAME   COMMAND_LINE            STATUS            TERMINATION_TIME
00000 suncat0050 pw.x -in pw.inp   Done                     01/15/2018 10:19:30
00001 suncat0050 pw.x -in pw.inp   Done                     01/15/2018 10:19:30
00002 suncat0050 pw.x -in pw.inp   Done                     01/15/2018 10:19:30
00003 suncat0050 pw.x -in pw.inp   Done                     01/15/2018 10:19:30
00004 suncat0050 pw.x -in pw.inp   Done                     01/15/2018 10:19:30
00005 suncat0050 pw.x -in pw.inp   Done                     01/15/2018 10:19:30
00006 suncat0050 pw.x -in pw.inp   Done                     01/15/2018 10:19:30
00007 suncat0050 pw.x -in pw.inp   Done                     01/15/2018 10:19:30
00008 suncat0242 pw.x -in pw.inp   Done                     01/15/2018 10:19:30
00009 suncat0242 pw.x -in pw.inp   Done                     01/15/2018 10:19:30
00010 suncat0242 pw.x -in pw.inp   Done                     01/15/2018 10:19:30
00011 suncat0242 pw.x -in pw.inp   Done                     01/15/2018 10:19:30
00012 suncat0242 pw.x -in pw.inp   Done                     01/15/2018 10:19:30
00013 suncat0242 pw.x -in pw.inp   Done                     01/15/2018 10:19:30
00014 suncat0242 pw.x -in pw.inp   Done                     01/15/2018 10:19:30
00015 suncat0242 pw.x -in pw.inp   Done                     01/15/2018 10:19:30
00016 suncat0241 pw.x -in pw.inp   Done                     01/15/2018 10:19:30
00017 suncat0241 pw.x -in pw.inp   Done                     01/15/2018 10:19:30
00018 suncat0241 pw.x -in pw.inp   Done                     01/15/2018 10:19:30
00019 suncat0241 pw.x -in pw.inp   Done                     01/15/2018 10:19:30
00020 suncat0241 pw.x -in pw.inp   Done                     01/15/2018 10:19:30
00021 suncat0241 pw.x -in pw.inp   Done                     01/15/2018 10:19:30
00022 suncat0241 pw.x -in pw.inp   Done                     01/15/2018 10:19:30
00023 suncat0241 pw.x -in pw.inp   Done                     01/15/2018 10:19:30
00024 suncat0240 pw.x -in pw.inp   Done                     01/15/2018 10:19:30
00025 suncat0240 pw.x -in pw.inp   Done                     01/15/2018 10:19:30
00026 suncat0240 pw.x -in pw.inp   Done                     01/15/2018 10:19:30
00027 suncat0240 pw.x -in pw.inp   Done                     01/15/2018 10:19:30
00028 suncat0240 pw.x -in pw.inp   Done                     01/15/2018 10:19:30
00029 suncat0240 pw.x -in pw.inp   Done                     01/15/2018 10:19:30
00030 suncat0240 pw.x -in pw.inp   Done                     01/15/2018 10:19:30
00031 suncat0240 pw.x -in pw.inp   Done                     01/15/2018 10:19:30