     Program PWSCF v.5.1rc2 (svn rev. 11289) starts on 11Jan2019 at 21:27:46

     Current dimensions of program PWSCF are:
     Max number of different atomic species (ntypx) = 10
     Max number of k-points (npk) =  40000
     Max angular momentum in pseudopotentials (lmaxx) =  3

     IMPORTANT: XC functional enforced from input :
     Exchange-correlation      = BEEF-VDW ( 1  4 27 13 2)
     Any further DFT definition will be discarded
     Please, verify this is what you really want

     Subspace diagonalization in iterative solution of the eigenvalue problem:
     a serial algorithm will be used

     bravais-lattice index     =            0
     lattice parameter (alat)  =      11.8187  a.u.
     unit-cell volume          =    5739.2980 (a.u.)^3
     number of atoms/cell      =           13
     number of atomic types    =            2
     number of electrons       =       150.00
     number of Kohn-Sham states=           85
     kinetic-energy cutoff     =      36.7493  Ry
     charge density cutoff     =     367.4933  Ry
     convergence threshold     =      1.0E-04
     mixing beta               =       0.2000
     number of iterations used =            8  plain     mixing
     Exchange-correlation      = BEEF-VDW ( 1  4 27 13 2)
     nstep                     =           50

     celldm(1)=  11.818741  celldm(2)=   0.000000  celldm(3)=   0.000000
     celldm(4)=   0.000000  celldm(5)=   0.000000  celldm(6)=   0.000000

     crystal axes: (cart. coord. in units of alat)
               a(1) = (   1.000000   0.000000   0.000000 )
               a(2) = (   0.500000   0.866025   0.000000 )
               a(3) = (   0.000000   0.000000   4.014343 )

     reciprocal axes: (cart. coord. in units 2 pi/alat)
               b(1) = (  1.000000 -0.577350  0.000000 )
               b(2) = (  0.000000  1.154701  0.000000 )
               b(3) = (  0.000000  0.000000  0.249107 )

     PseudoPot. # 1 for Cd read from file:
     /u/if/jboes/code/decaf-espresso/gbrv15pbe/Cd.UPF
     MD5 check sum: 17164a7926edb8e0dc231208abae86a6
     Pseudo is Ultrasoft + core correction, Zval = 12.0
     Generated by new atomic code, or converted to UPF format
     Using radial grid of  889 points,  6 beta functions with:
                l(1) =   0
                l(2) =   0
                l(3) =   1
                l(4) =   1
                l(5) =   2
                l(6) =   2
     Q(r) pseudized with  6 coefficients,  rinner =    1.000   1.000   1.000
                                                       1.000   1.000

     PseudoPot. # 2 for S  read from file:
     /u/if/jboes/code/decaf-espresso/gbrv15pbe/S.UPF
     MD5 check sum: 88d86576ff6df21479756cfb9bdac1df
     Pseudo is Ultrasoft + core correction, Zval =  6.0
     Generated by new atomic code, or converted to UPF format
     Using radial grid of  907 points,  6 beta functions with:
                l(1) =   0
                l(2) =   0
                l(3) =   1
                l(4) =   1
                l(5) =   2
                l(6) =   2
     Q(r) pseudized with  8 coefficients,  rinner =    1.300   1.300   1.300
                                                       1.300   1.300

     vdW kernel table read from file vdW_kernel_table
     MD5 check sum: 095c7af220d748ca6e76c0b4c6cfb241

     atomic species   valence    mass     pseudopotential
        Cd            12.00   112.41400     Cd( 1.00)
        S              6.00    32.06000     S ( 1.00)

     No symmetry found

   Cartesian axes

     site n.     atom                  positions (alat units)
         1           Cd  tau(   1) = (   0.2500000   0.1443376   1.5989234  )
         2           Cd  tau(   2) = (   0.7500000   0.1443376   1.5989234  )
         3           Cd  tau(   3) = (   0.5000000   0.5773503   1.5989234  )
         4           Cd  tau(   4) = (   1.0000000   0.5773503   1.5989234  )
         5           Cd  tau(   5) = (   1.0000000   0.2886751   2.0071717  )
         6           Cd  tau(   6) = (   0.5000000   0.2886751   2.0071717  )
         7           Cd  tau(   7) = (   1.2500000   0.7216878   2.0071717  )
         8           Cd  tau(   8) = (   0.7500000   0.7216878   2.0071717  )
         9           Cd  tau(   9) = (  -0.0000002  -0.0000014   2.4270490  )
        10           Cd  tau(  10) = (   0.5000081  -0.0217025   2.4842132  )
        11           Cd  tau(  11) = (   0.2312026   0.4438704   2.4842192  )
        12           Cd  tau(  12) = (   0.7688020   0.4438663   2.4842200  )
        13           S   tau(  13) = (   0.5000062   0.2886706   2.7483070  )

     number of k points=    20  Fermi-Dirac smearing, width (Ry)=  0.0110
                       cart. coord. in units 2pi/alat
        k(    1) = (   0.0000000   0.0000000   0.0000000), wk =   0.0555556
        k(    2) = (   0.0000000   0.1924501   0.0000000), wk =   0.1111111
        k(    3) = (   0.0000000   0.3849002   0.0000000), wk =   0.1111111
        k(    4) = (   0.0000000  -0.5773503   0.0000000), wk =   0.0555556
        k(    5) = (   0.1666667  -0.0962250   0.0000000), wk =   0.1111111
        k(    6) = (   0.1666667   0.0962250   0.0000000), wk =   0.1111111
        k(    7) = (   0.1666667   0.2886751   0.0000000), wk =   0.1111111
        k(    8) = (   0.1666667  -0.6735753   0.0000000), wk =   0.1111111
        k(    9) = (   0.1666667  -0.4811252   0.0000000), wk =   0.1111111
        k(   10) = (   0.1666667  -0.2886751   0.0000000), wk =   0.1111111
        k(   11) = (   0.3333333  -0.1924501   0.0000000), wk =   0.1111111
        k(   12) = (   0.3333333   0.0000000   0.0000000), wk =   0.1111111
        k(   13) = (   0.3333333   0.1924501   0.0000000), wk =   0.1111111
        k(   14) = (   0.3333333  -0.7698004   0.0000000), wk =   0.1111111
        k(   15) = (   0.3333333  -0.5773503   0.0000000), wk =   0.1111111
        k(   16) = (   0.3333333  -0.3849002   0.0000000), wk =   0.1111111
        k(   17) = (  -0.5000000   0.2886751   0.0000000), wk =   0.0555556
        k(   18) = (  -0.5000000   0.4811252   0.0000000), wk =   0.1111111
        k(   19) = (  -0.5000000   0.6735753   0.0000000), wk =   0.1111111
        k(   20) = (  -0.5000000  -0.2886751   0.0000000), wk =   0.0555556

     Largest allocated arrays     est. size (Mb)     dimensions
     Largest temporary arrays     est. size (Mb)     dimensions

     Initial potential from superposition of free atoms
     Check: negative starting charge=   -0.258517

     starting charge  143.99947, renormalised to  150.00000

     negative rho (up, down):  2.693E-01 0.000E+00

     *
     * You are using vdW-DF for exchange-correlation in this calculation.
     * Please cite the following three references that made this development
     * possible:
     *
     *   M. Dion, H. Rydberg, E. Schroder, D. C. Langreth, and
     *   B. I. Lundqvist, Phys. Rev. Lett. 92, 246401 (2004).
     *
     *   T. Thonhauser, V. R. Cooper, S. Li, A. Puzder, P. Hyldgaard, and
     *   D. C. Langreth, Phys. Rev. B 76, 125112 (2007).
     *
     *   G. Roman-Perez and J. M. Soler, Phys. Rev. Lett. 103, 096102 (2009).
     *
     *
     * If you are using vdW-DF2, please also cite:
     *
     *   K. Lee, E. D. Murray, L. Kong, B. I. Lundqvist, and
     *   D. C. Langreth, Phys. Rev. B 82, 081101(R) (2010).
     *
     *
     * If you are calculating the stress with vdW-DF, please also cite:
     *
     *   R. Sabatini, E. Kucukbenli, B. Kolb, T. Thonhauser, and
     *   S. de Gironcoli, J. Phys.: Condens. Matter 24, 424209 (2012).
     *

     Carrying out vdW-DF run using the following parameters:

     Nqs =      20    Nr_points =    1024   r_max =   100.000
     q_mesh =
               0.00001000     0.04494208     0.09755937     0.15916263
               0.23128650     0.31572767     0.41458969     0.53033537
               0.66584808     0.82450364     1.01025438     1.22772762
               1.48234092     1.78043706     2.12944203     2.53805004
               3.01644009     3.57652955     4.23227104     5.00000000

     Gradients computed in reciprocal space

     Adding external electric field

     Computed dipole along edir(3) :
        Dipole               -2.1360 Ry au,         -5.4292 Debye
        Dipole field         -0.0047 Ry au

        Potential amp.        0.3994 Ry
        Total length         42.7000 bohr

     Starting wfc are  112 randomized atomic wfcs

     Self-consistent Calculation

     iteration #  1     ecut=    36.75 Ry     beta=0.20
     Davidson diagonalization with overlap
     ethr =  1.00E-02,  avg # of iterations =  5.1

[...]

     total energy              =   -1413.06493838 Ry
     Harris-Foulkes estimate   =   -1418.15589369 Ry
     estimated scf accuracy    <      14.71091766 Ry

[...]

     End of self-consistent calculation

          k = 0.0000 0.0000 0.0000 ( 21643 PWs)   bands (ev):

   -12.1951  -9.4416  -9.4243  -9.4243  -9.2916  -9.2808  -9.2573  -9.2573
    -9.2339  -9.2339  -9.2330  -9.1932  -9.1573  -9.1573  -9.0339  -8.9566
    -8.9500  -8.9499  -8.9498  -8.9061  -8.9061  -8.8254  -8.8254  -8.8102
    -8.8102  -8.7504  -8.7503  -8.7503  -8.7042  -8.7042  -8.6213  -8.4936
    -8.4936  -8.4427  -8.4427  -8.3882  -8.3604  -8.3426  -8.3425  -8.3121
    -8.3121  -8.2962  -8.2962  -8.2761  -8.2593  -8.2593  -8.2569  -8.2077
    -8.2076  -8.1522  -8.1521  -8.1498  -8.1420  -8.1259  -8.1259  -8.0441
    -8.0411  -8.0410  -7.9666  -7.9666  -7.8914  -7.5569  -5.8000  -3.5471
    -2.4143  -2.4143  -2.1719  -1.7199  -1.4332  -1.4332  -1.3977  -1.3977
    -1.2308  -0.6967  -0.5150  -0.5150   0.1665   0.8670   0.8670   1.0084
     1.6181   1.9486   1.9487   2.4564   2.5456

[...]

          k =-0.5000 0.2887 0.0000 ( 21576 PWs)   bands (ev):

[...]

     the Fermi energy is     0.4197 ev

!    total energy              =   -1417.49407433 Ry
     Harris-Foulkes estimate   =   -1417.49423878 Ry
     estimated scf accuracy    <       0.00007343 Ry

     The total energy is the sum of the following terms:

     one-electron contribution =   -8568.53804273 Ry
     hartree contribution      =    4378.52491321 Ry
     xc contribution           =    -498.38754330 Ry
     ewald contribution        =    3270.93207900 Ry
     electric field correction =       0.00020717 Ry
     smearing contrib. (-TS)   =      -0.02568768 Ry

     convergence has been achieved in  12 iterations

     Forces acting on atoms (Ry/au):

     negative rho (up, down):  2.671E-01 0.000E+00
     atom    1 type  1   force =     0.00021290    0.00025399   -0.02293377
     atom    2 type  1   force =    -0.00024390    0.00009464   -0.02299042
     atom    3 type  1   force =     0.00000547   -0.00022472   -0.02292069
     atom    4 type  1   force =     0.00007465    0.00002591   -0.02144047
     atom    5 type  1   force =    -0.00001317    0.00400937    0.01671280
     atom    6 type  1   force =    -0.00001580   -0.00007496    0.02125553
     atom    7 type  1   force =    -0.00347165   -0.00198349    0.01684200
     atom    8 type  1   force =     0.00347657   -0.00198647    0.01673822
     atom    9 type  1   force =     0.00001866   -0.00004243    0.00405045
     atom   10 type  1   force =     0.00000850    0.00553663    0.00579830
     atom   11 type  1   force =     0.00482978   -0.00276890    0.00578756
     atom   12 type  1   force =    -0.00488143   -0.00284019    0.00577984
     atom   13 type  2   force =    -0.00000059    0.00000062   -0.00267935

     Total force =     0.014753     Total SCF correction =     0.027487
     SCF correction compared to forces is large: reduce conv_thr to get better values

     BFGS Geometry Optimization

     number of scf cycles    =   1
     number of bfgs steps    =   0

     energy   new            =   -1417.4940743331 Ry

     new trust radius        =       0.0080809384 bohr
     new conv_thr            =       0.0001000000 Ry

ATOMIC_POSITIONS (angstrom)
Cd       1.563552067   0.902717207  10.000000000    0   0   0
Cd       4.690656202   0.902717207  10.000000000    0   0   0
Cd       3.127104135   3.610868828  10.000000000    0   0   0
Cd       6.254208270   3.610868828  10.000000000    0   0   0
Cd       6.254208270   1.805434414  12.553269834    0   0   0
Cd       3.127104135   1.805434414  12.553269834    0   0   0
Cd       7.817760337   4.513586035  12.553269834    0   0   0
Cd       4.690656202   4.513586035  12.553269834    0   0   0
Cd       0.000008347  -0.000031135  15.181413279
Cd       3.127159276  -0.132802118  15.539855326
Cd       1.448545114   2.774592769  15.539886877
Cd       4.805664889   2.774529475  15.539887784
S        3.127142585   1.805406154  17.187066680

     Writing output data file calc.save
     Check: negative starting charge=   -0.258517
     NEW-OLD atomic charge density approx. for the potential
     Check: negative starting charge=   -0.258232

[...]

     number of scf cycles    =   2
     number of bfgs steps    =   1

     energy   old            =   -1417.4940743331 Ry
     energy   new            =   -1417.4941403554 Ry

     CASE: energy  _new < energy  _old

     new trust radius        =       0.0043553991 bohr
     new conv_thr            =       0.0000010000 Ry

ATOMIC_POSITIONS (angstrom)
Cd       1.563552067   0.902717207  10.000000000    0   0   0
Cd       4.690656202   0.902717207  10.000000000    0   0   0
Cd       3.127104135   3.610868828  10.000000000    0   0   0
Cd       6.254208270   3.610868828  10.000000000    0   0   0
Cd       6.254208270   1.805434414  12.553269834    0   0   0
Cd       3.127104135   1.805434414  12.553269834    0   0   0
Cd       7.817760337   4.513586035  12.553269834    0   0   0
Cd       4.690656202   4.513586035  12.553269834    0   0   0
Cd       0.000005695  -0.000014285  15.180635593
Cd       3.127151274  -0.134768967  15.538692597
Cd       1.446829197   2.775570377  15.538730227
Cd       4.807391997   2.775531263  15.538736471
S        3.127142786   1.805404448  17.188373665

     Writing output data file calc.save
     Check: negative starting charge=   -0.258232
     NEW-OLD atomic charge density approx. for the potential
     Check: negative starting charge=   -0.258367

[...]

     Self-consistent Calculation

[...]

     total energy              =   -1417.49419855 Ry
     Harris-Foulkes estimate   =   -1417.49420014 Ry
     estimated scf accuracy    <       0.00000112 Ry

     iteration #  6     ecut=    36.75 Ry     beta=0.20
     Davidson diagonalization with overlap
     ethr =  7.49E-10,  avg # of iterations =  2.6

     negative rho (up, down):  2.670E-01 0.000E+00

     Adding external electric field

     Computed dipole along edir(3) :
        Dipole               -0.3792 Ry au,         -0.9637 Debye
        Dipole field         -0.0008 Ry au

        Potential amp.        0.0709 Ry
        Total length         42.7000 bohr

     End of self-consistent calculation

[...]

          k = 0.3333-0.3849 0.0000 ( 21571 PWs)   bands (ev):

[...]

          k =-0.5000-0.2887 0.0000 ( 21576 PWs)   bands (ev):

   -12.1612  -9.2315  -9.2123  -9.1458  -9.1056  -9.0862  -9.0818  -9.0691
    -9.0430  -9.0339  -9.0193  -9.0181  -8.9413  -8.9357  -8.9105  -8.8898
    -8.8850  -8.8822  -8.8591  -8.8131  -8.8015  -8.7549  -8.7504  -8.7192
    -8.7100  -8.6990  -8.6646  -8.6531  -8.6422  -8.6308  -8.6245  -8.6040
    -8.5572  -8.5423  -8.5249  -8.5090  -8.4938  -8.4847  -8.4789  -8.4504
    -8.4442  -8.4317  -8.4235  -8.4037  -8.3923  -8.3833  -8.3825  -8.3531
    -8.3344  -8.3119  -8.3024  -8.2879  -8.2686  -8.2228  -8.1925  -8.1874
    -8.1681  -8.1268  -8.1015  -8.0459  -8.0315  -6.1054  -5.9846  -4.7989
    -4.3305  -3.1012  -3.0159  -2.8499  -2.5245  -2.5068  -1.8763  -1.1926
    -0.7797  -0.2260   0.6859   1.0401   1.3023   2.0237   2.6860   2.7013
     3.0316   3.1078   3.5598   3.7873   4.0716

     the Fermi energy is     0.4332 ev

!    total energy              =   -1417.49419849 Ry
     Harris-Foulkes estimate   =   -1417.49419236 Ry
     estimated scf accuracy    <       0.00000029 Ry

     The total energy is the sum of the following terms:

     one-electron contribution =   -8566.46988268 Ry
     hartree contribution      =    4377.44545094 Ry
     xc contribution           =    -498.38981704 Ry
     ewald contribution        =    3269.94538090 Ry
     electric field correction =       0.00031476 Ry
     smearing contrib. (-TS)   =      -0.02564537 Ry

     convergence has been achieved in   6 iterations

     Forces acting on atoms (Ry/au):

     negative rho (up, down):  2.670E-01 0.000E+00
     atom    1 type  1   force =     0.00037237    0.00022334   -0.01909690
     atom    2 type  1   force =    -0.00037640    0.00021360   -0.01910568
     atom    3 type  1   force =     0.00000628   -0.00042464   -0.01909803
     atom    4 type  1   force =     0.00000548    0.00000001   -0.01797500
     atom    5 type  1   force =    -0.00000105    0.00353225    0.01666899
     atom    6 type  1   force =    -0.00000014   -0.00000704    0.02174452
     atom    7 type  1   force =    -0.00305768   -0.00176310    0.01667060
     atom    8 type  1   force =     0.00305877   -0.00176579    0.01666965
     atom    9 type  1   force =     0.00000521    0.00000518    0.00020639
     atom   10 type  1   force =    -0.00000610    0.00117459    0.00098409
     atom   11 type  1   force =     0.00102763   -0.00059802    0.00099161
     atom   12 type  1   force =    -0.00102622   -0.00059363    0.00098665
     atom   13 type  2   force =    -0.00000815    0.00000324    0.00035311

     Total force =     0.002700     Total SCF correction =     0.001200
     SCF correction compared to forces is large: reduce conv_thr to get better values

     bfgs converged in   3 scf cycles and   2 bfgs steps
     (criteria: energy <  1.0E+12, force <  1.9E-03)

     End of BFGS Geometry Optimization

     Final energy   =   -1417.4941984854 Ry
Begin final coordinates

ATOMIC_POSITIONS (angstrom)
Cd       1.563552067   0.902717207  10.000000000    0   0   0
Cd       4.690656202   0.902717207  10.000000000    0   0   0
Cd       3.127104135   3.610868828  10.000000000    0   0   0
Cd       6.254208270   3.610868828  10.000000000    0   0   0
Cd       6.254208270   1.805434414  12.553269834    0   0   0
Cd       3.127104135   1.805434414  12.553269834    0   0   0
Cd       7.817760337   4.513586035  12.553269834    0   0   0
Cd       4.690656202   4.513586035  12.553269834    0   0   0
Cd       0.000005695  -0.000014285  15.180635593
Cd       3.127151274  -0.134768967  15.538692597
Cd       1.446829197   2.775570377  15.538730227
Cd       4.807391997   2.775531263  15.538736471
S        3.127142786   1.805404448  17.188373665
End final coordinates

     Writing output data file calc.save

     General routines

     Parallel routines

   This run was terminated on:  21:32:46  11Jan2019

   JOB DONE.
Job  /afs/slac/g/suncat/bin/suncat-tsmpirun -x LD_LIBRARY_PATH -wdir /tmp/qe_6733588ke7cmg__scratch pw.x -npool 2 -in pw.pwi

TID   HOST_NAME   COMMAND_LINE            STATUS            TERMINATION_TIME
00000 suncat2060 pw.x -npool 2 -i  Done                     01/11/2019 21:32:46
00001 suncat2060 pw.x -npool 2 -i  Done                     01/11/2019 21:32:46
00002 suncat2060 pw.x -npool 2 -i  Done                     01/11/2019 21:32:46
00003 suncat2060 pw.x -npool 2 -i  Done                     01/11/2019 21:32:46
00004 suncat2060 pw.x -npool 2 -i  Done                     01/11/2019 21:32:46
00005 suncat2060 pw.x -npool 2 -i  Done                     01/11/2019 21:32:46
00006 suncat2060 pw.x -npool 2 -i  Done                     01/11/2019 21:32:46
00007 suncat2060 pw.x -npool 2 -i  Done                     01/11/2019 21:32:46
00008 suncat2060 pw.x -npool 2 -i  Done                     01/11/2019 21:32:46
00009 suncat2060 pw.x -npool 2 -i  Done                     01/11/2019 21:32:46
00010 suncat2060 pw.x -npool 2 -i  Done                     01/11/2019 21:32:46
00011 suncat2060 pw.x -npool 2 -i  Done                     01/11/2019 21:32:46
00012 suncat2060 pw.x -npool 2 -i  Done                     01/11/2019 21:32:46
00013 suncat2060 pw.x -npool 2 -i  Done                     01/11/2019 21:32:46
00014 suncat2060 pw.x -npool 2 -i  Done                     01/11/2019 21:32:46
00015 suncat2060 pw.x -npool 2 -i  Done                     01/11/2019 21:32:46
00016 suncat2055 pw.x -npool 2 -i  Done                     01/11/2019 21:32:46
00017 suncat2055 pw.x -npool 2 -i  Done                     01/11/2019 21:32:46
00018 suncat2055 pw.x -npool 2 -i  Done                     01/11/2019 21:32:46
00019 suncat2055 pw.x -npool 2 -i  Done                     01/11/2019 21:32:46
00020 suncat2055 pw.x -npool 2 -i  Done                     01/11/2019 21:32:46
00021 suncat2055 pw.x -npool 2 -i  Done                     01/11/2019 21:32:46
00022 suncat2055 pw.x -npool 2 -i  Done                     01/11/2019 21:32:46
00023 suncat2055 pw.x -npool 2 -i  Done                     01/11/2019 21:32:46
00024 suncat2055 pw.x -npool 2 -i  Done                     01/11/2019 21:32:46
00025 suncat2055 pw.x -npool 2 -i  Done                     01/11/2019 21:32:46
00026 suncat2055 pw.x -npool 2 -i  Done                     01/11/2019 21:32:46
00027 suncat2055 pw.x -npool 2 -i  Done                     01/11/2019 21:32:46
00028 suncat2055 pw.x -npool 2 -i  Done                     01/11/2019 21:32:46
00029 suncat2055 pw.x -npool 2 -i  Done                     01/11/2019 21:32:46
00030 suncat2055 pw.x -npool 2 -i  Done                     01/11/2019 21:32:46
00031 suncat2055 pw.x -npool 2 -i  Done                     01/11/2019 21:32:46