     Program PWSCF v.5.1rc2 (svn rev. 11289) starts on  3May2018 at 17:39:12

     Current dimensions of program PWSCF are:
     Max number of different atomic species (ntypx) = 10
     Max number of k-points (npk) =  40000
     Max angular momentum in pseudopotentials (lmaxx) =  3
     Presently stress not available with electric field

     IMPORTANT: XC functional enforced from input :
     Exchange-correlation      = BEEF-VDW ( 1  4 27 13 2)
     Any further DFT definition will be discarded
     Please, verify this is what you really want

     Subspace diagonalization in iterative solution of the eigenvalue problem:
     a serial algorithm will be used

     bravais-lattice index     =            0
     lattice parameter (alat)  =       1.8897  a.u.
     unit-cell volume          =    6024.3322 (a.u.)^3
     number of atoms/cell      =           13
     number of atomic types    =            2
     number of electrons       =       150.00
     number of Kohn-Sham states=           85
     kinetic-energy cutoff     =      36.7493  Ry
     charge density cutoff     =     367.4932  Ry
     convergence threshold     =      1.0E-05
     mixing beta               =       0.3000
     number of iterations used =           10  plain     mixing
     Exchange-correlation      = BEEF-VDW ( 1  4 27 13 2)
     nstep                     =           50

     celldm(1)=   1.889726  celldm(2)=   0.000000  celldm(3)=   0.000000
     celldm(4)=   0.000000  celldm(5)=   0.000000  celldm(6)=   0.000000

     crystal axes: (cart. coord. in units of alat)
               a(1) = (   6.393197   0.000000   0.000000 )
               a(2) = (   3.196599   5.536671   0.000000 )
               a(3) = (   0.000000   0.000000  25.220024 )

     reciprocal axes: (cart. coord. in units 2 pi/alat)
               b(1) = (  0.156416 -0.090307  0.000000 )
               b(2) = (  0.000000  0.180614  0.000000 )
               b(3) = (  0.000000  0.000000  0.039651 )

     PseudoPot. # 1 for Hf read from file:
     /u/if/mamunm/psp/gbrv1.5pbe/Hf.UPF
     MD5 check sum: 8ee9378dfe14276e333edf04c5e4aa26
     Pseudo is Ultrasoft + core correction, Zval = 12.0
     Generated by new atomic code, or converted to UPF format
     Using radial grid of  921 points,  8 beta functions with:
                l(1) =   0
                l(2) =   0
                l(3) =   0
                l(4) =   1
                l(5) =   1
                l(6) =   2
                l(7) =   2
                l(8) =   3
     Q(r) pseudized with  6 coefficients,  rinner =    1.200   1.200   1.200
                                                       1.200   1.200   1.200
                                                       1.200

     PseudoPot. # 2 for S  read from file:
     /u/if/mamunm/psp/gbrv1.5pbe/S.UPF
     MD5 check sum: 88d86576ff6df21479756cfb9bdac1df
     Pseudo is Ultrasoft + core correction, Zval =  6.0
     Generated by new atomic code, or converted to UPF format
     Using radial grid of  907 points,  6 beta functions with:
                l(1) =   0
                l(2) =   0
                l(3) =   1
                l(4) =   1
                l(5) =   2
                l(6) =   2
     Q(r) pseudized with  8 coefficients,  rinner =    1.300   1.300   1.300
                                                       1.300   1.300

     vdW kernel table read from file vdW_kernel_table
     MD5 check sum: 095c7af220d748ca6e76c0b4c6cfb241

     atomic species   valence    mass     pseudopotential
        Hf1           12.00   178.49000     Hf( 1.00)
        S1             6.00    32.06000     S ( 1.00)

     No symmetry found

   Cartesian axes

     site n.     atom                  positions (alat units)
         1           Hf1 tau(   1) = (   1.5982993   0.9227785  10.0000000  )
         2           Hf1 tau(   2) = (   4.7948978   0.9227785  10.0000000  )
         3           Hf1 tau(   3) = (   3.1965986   3.6911141  10.0000000  )
         4           Hf1 tau(   4) = (   6.3931971   3.6911141  10.0000000  )
         5           Hf1 tau(   5) = (   6.3931971   1.8455570  12.6100118  )
         6           Hf1 tau(   6) = (   3.1965986   1.8455570  12.6100118  )
         7           Hf1 tau(   7) = (   7.9914964   4.6138926  12.6100118  )
         8           Hf1 tau(   8) = (   4.7948978   4.6138926  12.6100118  )
         9           Hf1 tau(   9) = (   0.0000000   0.0000000  15.2200236  )
        10           Hf1 tau(  10) = (   3.1965986   0.0000000  15.2200236  )
        11           Hf1 tau(  11) = (   1.5982993   2.7683356  15.2200236  )
        12           Hf1 tau(  12) = (   4.7948978   2.7683356  15.2200236  )
        13           S1  tau(  13) = (   3.1965986   1.8455570  17.0400236  )

     number of k points=    20  Fermi-Dirac smearing, width (Ry)=  0.0110
                       cart. coord. in units 2pi/alat
        k(    1) = (   0.0000000   0.0000000   0.0000000), wk =   0.0555556
        k(    2) = (   0.0000000   0.0301023   0.0000000), wk =   0.1111111
        k(    3) = (   0.0000000   0.0602046   0.0000000), wk =   0.1111111
        k(    4) = (   0.0000000  -0.0903070   0.0000000), wk =   0.0555556
        k(    5) = (   0.0260694  -0.0150512   0.0000000), wk =   0.1111111
        k(    6) = (   0.0260694   0.0150512   0.0000000), wk =   0.1111111
        k(    7) = (   0.0260694   0.0451535   0.0000000), wk =   0.1111111
        k(    8) = (   0.0260694  -0.1053581   0.0000000), wk =   0.1111111
        k(    9) = (   0.0260694  -0.0752558   0.0000000), wk =   0.1111111
        k(   10) = (   0.0260694  -0.0451535   0.0000000), wk =   0.1111111
        k(   11) = (   0.0521388  -0.0301023   0.0000000), wk =   0.1111111
        k(   12) = (   0.0521388   0.0000000   0.0000000), wk =   0.1111111
        k(   13) = (   0.0521388   0.0301023   0.0000000), wk =   0.1111111
        k(   14) = (   0.0521388  -0.1204093   0.0000000), wk =   0.1111111
        k(   15) = (   0.0521388  -0.0903070   0.0000000), wk =   0.1111111
        k(   16) = (   0.0521388  -0.0602046   0.0000000), wk =   0.1111111
        k(   17) = (  -0.0782081   0.0451535   0.0000000), wk =   0.0555556
        k(   18) = (  -0.0782081   0.0752558   0.0000000), wk =   0.1111111
        k(   19) = (  -0.0782081   0.1053581   0.0000000), wk =   0.1111111
        k(   20) = (  -0.0782081  -0.0451535   0.0000000), wk =   0.0555556

     Largest allocated arrays     est. size (Mb)     dimensions
     Largest temporary arrays     est. size (Mb)     dimensions

     Check: negative/imaginary core charge=   -0.000003    0.000000

     Initial potential from superposition of free atoms
     Check: negative starting charge=   -1.301222

     starting charge  125.99994, renormalised to  150.00000

     negative rho (up, down):  1.549E+00 0.000E+00

     *
     * You are using vdW-DF for exchange-correlation in this calculation.
     * Please cite the following three references that made this development
     * possible:
     *
     *   M. Dion, H. Rydberg, E. Schroder, D. C. Langreth, and
     *   B. I. Lundqvist, Phys. Rev. Lett. 92, 246401 (2004).
     *
     *   T. Thonhauser, V. R. Cooper, S. Li, A. Puzder, P. Hyldgaard, and
     *   D. C. Langreth, Phys. Rev. B 76, 125112 (2007).
     *
     *   G. Roman-Perez and J. M. Soler, Phys. Rev. Lett. 103, 096102 (2009).
     *
     *
     * If you are using vdW-DF2, please also cite:
     *
     *   K. Lee, E. D. Murray, L. Kong, B. I. Lundqvist, and
     *   D. C. Langreth, Phys. Rev. B 82, 081101(R) (2010).
     *
     *
     * If you are calculating the stress with vdW-DF, please also cite:
     *
     *   R. Sabatini, E. Kucukbenli, B. Kolb, T. Thonhauser, and
     *   S. de Gironcoli, J. Phys.: Condens. Matter 24, 424209 (2012).
     *

     Carrying out vdW-DF run using the following parameters:

     Nqs =      20    Nr_points =    1024   r_max =   100.000
     q_mesh =
               0.00001000     0.04494208     0.09755937     0.15916263
               0.23128650     0.31572767     0.41458969     0.53033537
               0.66584808     0.82450364     1.01025438     1.22772762
               1.48234092     1.78043706     2.12944203     2.53805004
               3.01644009     3.57652955     4.23227104     5.00000000

     Gradients computed in reciprocal space

     Adding external electric field

     Computed dipole along edir(3) :
        Dipole               -9.5671 Ry au,        -24.3171 Debye
        Dipole field         -0.0200 Ry au

        Potential amp.        1.8546 Ry
        Total length         46.4675 bohr

     Starting wfc are  160 randomized atomic wfcs

     Self-consistent Calculation

     iteration #  1     ecut=    36.75 Ry     beta=0.30
     Davidson diagonalization with overlap
     ethr =  1.00E-02,  avg # of iterations =  9.6

[...]

     total energy              =   -1266.43108286 Ry
     Harris-Foulkes estimate   =   -1938.95220993 Ry
     estimated scf accuracy    <    1446.08996962 Ry

[...]

     End of self-consistent calculation

          k = 0.0000 0.0000 0.0000 ( 22729 PWs)   bands (ev):

   -61.2594 -61.1789 -61.1471 -61.1467 -61.1378 -61.0918 -61.0670 -61.0670
   -60.7674 -60.7386 -60.7385 -60.7060 -29.9513 -29.9512 -29.9322 -29.9212
   -29.9183 -29.9181 -29.8748 -29.8233 -29.7544 -29.7542 -29.7338 -29.6901
   -29.6444 -29.6443 -29.5202 -29.5202 -29.5181 -29.5132 -29.5131 -29.4743
   -29.4628 -29.4494 -29.4493 -29.3882 -29.3882 -29.3508 -29.3508 -29.2282
   -29.2216 -29.2215 -29.1788 -29.1347 -29.1139 -29.1139 -28.9989 -28.9989
   -11.3223  -5.0261  -3.7660  -2.6232  -2.4569  -2.4569  -2.0761  -1.5423
    -1.4056  -1.4055  -1.2500  -1.2499  -1.1397  -0.5962  -0.5962  -0.2790
    -0.2401  -0.2401  -0.2227   0.5788   0.5789   0.7010   1.4563   1.6297
     1.8236   1.8236   1.8708   1.9901   2.1295   2.1295   2.3189   2.4130
     2.5291   2.5291   2.6581   2.7109   2.7111

[...]

          k =-0.0782 0.0452 0.0000 ( 22668 PWs)   bands (ev):

[...]

     the Fermi energy is     1.4580 ev

!    total energy              =   -1951.25705138 Ry
     Harris-Foulkes estimate   =   -1951.25706491 Ry
     estimated scf accuracy    <       0.00000539 Ry

     The total energy is the sum of the following terms:

     one-electron contribution =   -8560.95764358 Ry
     hartree contribution      =    4265.64268251 Ry
     xc contribution           =    -936.60704085 Ry
     ewald contribution        =    3280.78127866 Ry
     electric field correction =       0.00000921 Ry
     smearing contrib. (-TS)   =      -0.11633733 Ry

     convergence has been achieved in  36 iterations

 BEEF-vdW xc energy contributions
           1 :   -846.567061232414
           2 :    786.537415034958
           3 :   -680.187117879366
           4 :    549.540096447694
           5 :   -417.388755838903
           6 :    300.902587455918
           7 :   -208.794479463595
           8 :    142.200861196864
           9 :   -97.7546692199857
          10 :    70.6416350583154
          11 :   -56.2462235379988
          12 :    50.2814361176854
          13 :   -48.3617139680489
          14 :    46.0279432350594
          15 :   -39.6089131550636
          16 :    27.4325354759648
          17 :   -10.5430590048262
          18 :   -7.69022103184739
          19 :    22.9937617780582
          20 :   -31.9688396283723
          21 :    33.3515482843618
          22 :   -28.2271260418313
          23 :    19.2608996728814
          24 :   -9.51388835386240
          25 :    1.48251995639248
          26 :    3.29060909215525
          27 :   -4.14088286937022
          28 :    1.08597806321495
          29 :    5.21550792715811
          30 :   -13.3776177610007
          31 :   -61.1106756400997
          32 :   -43.9174791484439

     Forces acting on atoms (Ry/au):

     negative rho (up, down):  1.379E+00 0.000E+00
     atom    1 type  1   force =    -0.00015198   -0.00009413    0.02435568
     atom    2 type  1   force =     0.00015022   -0.00005712    0.02428710
     atom    3 type  1   force =     0.00003116    0.00016170    0.02427717
     atom    4 type  1   force =    -0.00003163   -0.00001028    0.02510641
     atom    5 type  1   force =     0.00001136   -0.00145378   -0.00717807
     atom    6 type  1   force =    -0.00001567   -0.00001347   -0.00453968
     atom    7 type  1   force =     0.00125006    0.00072787   -0.00717231
     atom    8 type  1   force =    -0.00124780    0.00073885   -0.00718369
     atom    9 type  1   force =     0.00002304    0.00001576   -0.04291675
     atom   10 type  1   force =    -0.00001298    0.00544865   -0.00267248
     atom   11 type  1   force =     0.00471073   -0.00273770   -0.00267238
     atom   12 type  1   force =    -0.00471176   -0.00272246   -0.00272534
     atom   13 type  2   force =    -0.00000473   -0.00000390   -0.02096566

     Total force =     0.048909     Total SCF correction =     0.005785
     SCF correction compared to forces is large: reduce conv_thr to get better values

     entering subroutine stress ...

     negative rho (up, down):  1.379E+00 0.000E+00
          total   stress  (Ry/bohr**3)                   (kbar)     P=  -22.52
  -0.00014149   0.00000000  -0.00000000        -20.81      0.00     -0.00
   0.00000000  -0.00014149  -0.00000000          0.00    -20.81     -0.00
  -0.00000000  -0.00000000  -0.00017634         -0.00     -0.00    -25.94

     BFGS Geometry Optimization

     number of scf cycles    =   1
     number of bfgs steps    =   0

     energy   new            =   -1951.2570513779 Ry

     new trust radius        =       0.0429167571 bohr
     new conv_thr            =       0.0000099958 Ry

ATOMIC_POSITIONS (crystal)
Hf1      0.166666667   0.166666667   0.396510335    0   0   0
Hf1      0.666666667   0.166666667   0.396510335    0   0   0
Hf1      0.166666667   0.666666667   0.396510335    0   0   0
Hf1      0.666666667   0.666666667   0.396510335    0   0   0
Hf1      0.833333333   0.333333333   0.500000000    0   0   0
Hf1      0.333333333   0.333333333   0.500000000    0   0   0
Hf1      0.833333333   0.833333333   0.500000000    0   0   0
Hf1      0.333333333   0.833333333   0.500000000    0   0   0
Hf1      0.000001154   0.000001507   0.602589168
Hf1      0.499738544   0.000520764   0.603433590
Hf1      0.000520746   0.499738339   0.603433592
Hf1      0.499740101   0.499739796   0.603432481
S1       0.333333128   0.333332961   0.675214636

     Writing output data file calc.save
     Check: negative starting charge=   -1.301222
     NEW-OLD atomic charge density approx. for the potential

     Check: negative/imaginary core charge=   -0.000003    0.000000
     Check: negative starting charge=   -1.301211

[...]

     Total force =     0.045075     Total SCF correction =     0.000899

[...]

     energy   old            =   -1951.2570513779 Ry
     energy   new            =   -1951.2593807192 Ry

     CASE: energy  _new < energy  _old

     WARNING: bfgs curvature condition failed, Theta= 0.870
     new trust radius        =       0.0643751356 bohr
     new conv_thr            =       0.0000001000 Ry

[...]

     iteration #  1     ecut=    36.75 Ry     beta=0.30
     Davidson diagonalization with overlap
     c_bands:  2 eigenvalues not converged
     ethr =  1.00E-06,  avg # of iterations = 13.0

[...]

     iteration #  1     ecut=    36.75 Ry     beta=0.30
     Davidson diagonalization with overlap
     c_bands:  1 eigenvalues not converged
     c_bands:  1 eigenvalues not converged
     c_bands:  1 eigenvalues not converged
     ethr =  1.00E-06,  avg # of iterations = 17.4

[...]

     Total force =     0.010067     Total SCF correction =     0.000856

[...]

     number of scf cycles    =  12
     number of bfgs steps    =  11

     energy   old            =   -1951.2733416778 Ry
     energy   new            =   -1951.2735078447 Ry

     CASE: energy  _new < energy  _old

     new trust radius        =       0.0083455162 bohr
     new conv_thr            =       0.0000001000 Ry

ATOMIC_POSITIONS (crystal)
Hf1      0.166666667   0.166666667   0.396510335    0   0   0
Hf1      0.666666667   0.166666667   0.396510335    0   0   0
Hf1      0.166666667   0.666666667   0.396510335    0   0   0
Hf1      0.666666667   0.666666667   0.396510335    0   0   0
Hf1      0.833333333   0.333333333   0.500000000    0   0   0
Hf1      0.333333333   0.333333333   0.500000000    0   0   0
Hf1      0.833333333   0.833333333   0.500000000    0   0   0
Hf1      0.333333333   0.833333333   0.500000000    0   0   0
Hf1     -0.000000582  -0.000000665   0.592994037
Hf1      0.501222252  -0.002450581   0.599998755
Hf1     -0.002450272   0.501221835   0.599998720
Hf1      0.501225271   0.501224779   0.599998961
S1       0.333337066   0.333336372   0.669490685

     Writing output data file calc.save
     Check: negative starting charge=   -1.301745
     NEW-OLD atomic charge density approx. for the potential

     Check: negative/imaginary core charge=   -0.000003    0.000000
     Check: negative starting charge=   -1.301712

[...]

     Self-consistent Calculation

[...]

     total energy              =   -1951.27354791 Ry
     Harris-Foulkes estimate   =   -1951.27354816 Ry
     estimated scf accuracy    <       0.00000094 Ry

     iteration # 10     ecut=    36.75 Ry     beta=0.30
     Davidson diagonalization with overlap
     ethr =  6.28E-10,  avg # of iterations =  3.4

[...]

     negative rho (up, down):  1.378E+00 0.000E+00

     Adding external electric field

     Computed dipole along edir(3) :
        Dipole               -0.1029 Ry au,         -0.2616 Debye
        Dipole field         -0.0002 Ry au

        Potential amp.        0.0200 Ry
        Total length         46.4675 bohr

     End of self-consistent calculation

[...]

          k = 0.0521-0.0602 0.0000 ( 22643 PWs)   bands (ev):

[...]

          k =-0.0782-0.0452 0.0000 ( 22668 PWs)   bands (ev):

   -61.1830 -61.1795 -61.1659 -61.1599 -61.0426 -61.0351 -61.0247 -60.9861
   -60.6604 -60.6512 -60.6390 -60.6348 -29.8500 -29.8466 -29.8042 -29.7966
   -29.7598 -29.7558 -29.7418 -29.7402 -29.7232 -29.7037 -29.6805 -29.6674
   -29.6594 -29.6538 -29.6280 -29.6218 -29.5998 -29.5690 -29.5568 -29.5273
   -29.4730 -29.4679 -29.3651 -29.3613 -29.3050 -29.2725 -29.1734 -29.1683
   -29.1381 -29.1361 -29.1182 -29.1112 -29.1068 -29.0890 -28.9873 -28.9704
   -11.3973  -3.6567  -3.5195  -2.7129  -2.5635  -2.3668  -1.8654  -1.5818
    -1.1882  -1.1755  -0.8315  -0.6222  -0.5716  -0.5561   0.2378   0.2618
     0.4091   0.4432   0.5622   0.6003   0.7923   0.8936   0.9056   0.9617
     0.9673   1.1078   1.2977   1.3458   1.3770   1.4179   1.4296   1.5971
     1.7196   1.7352   1.8587   1.9583   2.3840

     the Fermi energy is     1.4359 ev

!    total energy              =   -1951.27354794 Ry
     Harris-Foulkes estimate   =   -1951.27354757 Ry
     estimated scf accuracy    <       0.00000008 Ry

     The total energy is the sum of the following terms:

     one-electron contribution =   -8739.30333171 Ry
     hartree contribution      =    4355.07267903 Ry
     xc contribution           =    -936.87435381 Ry
     ewald contribution        =    3369.94451835 Ry
     electric field correction =       0.00002210 Ry
     smearing contrib. (-TS)   =      -0.11308190 Ry

     convergence has been achieved in  10 iterations

 BEEF-vdW xc energy contributions
           1 :   -846.835027706621
           2 :    786.882404553346
           3 :   -680.598846038068
           4 :    549.910467831894
           5 :   -417.585894807477
           6 :    300.871220752564
           7 :   -208.601507113666
           8 :    141.992502306862
           9 :   -97.6588244544397
          10 :    70.6889547677113
          11 :   -56.3624428036926
          12 :    50.3505264462026
          13 :   -48.3119466689001
          14 :    45.8813029803433
          15 :   -39.4607780417062
          16 :    27.3792620904189
          17 :   -10.6097431336457
          18 :   -7.56997286035346
          19 :    22.9299351589494
          20 :   -32.0329390626752
          21 :    33.5204428193426
          22 :   -28.3960996186441
          23 :    19.3177701518955
          24 :   -9.41859231175113
          25 :    1.29376060114919
          26 :    3.46085134849147
          27 :   -4.20938653624489
          28 :    1.05537457823243
          29 :    5.26717895799470
          30 :   -13.3657922078382
          31 :   -61.1301196144115
          32 :   -43.9483599437212

     Forces acting on atoms (Ry/au):

     negative rho (up, down):  1.378E+00 0.000E+00
     atom    1 type  1   force =    -0.00018756   -0.00010834    0.01990065
     atom    2 type  1   force =     0.00018765   -0.00010941    0.01990098
     atom    3 type  1   force =    -0.00000088    0.00021724    0.01990103
     atom    4 type  1   force =     0.00000116    0.00000071    0.01839136
     atom    5 type  1   force =     0.00000171    0.00665165   -0.02301686
     atom    6 type  1   force =    -0.00000225   -0.00000138   -0.00902326
     atom    7 type  1   force =    -0.00576273   -0.00332717   -0.02301340
     atom    8 type  1   force =     0.00576137   -0.00332439   -0.02301674
     atom    9 type  1   force =     0.00000065    0.00000021    0.00022500
     atom   10 type  1   force =     0.00000157    0.00073267    0.00016193
     atom   11 type  1   force =     0.00063552   -0.00036489    0.00016216
     atom   12 type  1   force =    -0.00063289   -0.00036519    0.00016013
     atom   13 type  2   force =    -0.00000333   -0.00000170   -0.00073298

     Total force =     0.001508     Total SCF correction =     0.000583
     SCF correction compared to forces is large: reduce conv_thr to get better values

     entering subroutine stress ...

     negative rho (up, down):  1.378E+00 0.000E+00
          total   stress  (Ry/bohr**3)                   (kbar)     P=  -15.42
  -0.00011268   0.00000000  -0.00000000        -16.58      0.00     -0.00
   0.00000000  -0.00011268  -0.00000000          0.00    -16.58     -0.00
  -0.00000000  -0.00000000  -0.00008908         -0.00     -0.00    -13.10

     bfgs converged in  13 scf cycles and  12 bfgs steps
     (criteria: energy <  1.0E+00, force <  1.9E-03)

     End of BFGS Geometry Optimization

     Final energy   =   -1951.2735479374 Ry
Begin final coordinates

ATOMIC_POSITIONS (crystal)
Hf1      0.166666667   0.166666667   0.396510335    0   0   0
Hf1      0.666666667   0.166666667   0.396510335    0   0   0
Hf1      0.166666667   0.666666667   0.396510335    0   0   0
Hf1      0.666666667   0.666666667   0.396510335    0   0   0
Hf1      0.833333333   0.333333333   0.500000000    0   0   0
Hf1      0.333333333   0.333333333   0.500000000    0   0   0
Hf1      0.833333333   0.833333333   0.500000000    0   0   0
Hf1      0.333333333   0.833333333   0.500000000    0   0   0
Hf1     -0.000000582  -0.000000665   0.592994037
Hf1      0.501222252  -0.002450581   0.599998755
Hf1     -0.002450272   0.501221835   0.599998720
Hf1      0.501225271   0.501224779   0.599998961
S1       0.333337066   0.333336372   0.669490685
End final coordinates

     Writing output data file calc.save

     General routines

     Parallel routines

   This run was terminated on:  21: 4:30   3May2018

   JOB DONE.
Job  /afs/slac/g/suncat/bin/suncat-tsmpirun -x LD_LIBRARY_PATH -wdir /scratch/qe795755_asgW6 pw.x -npool 4 -in pw.inp

TID   HOST_NAME   COMMAND_LINE            STATUS            TERMINATION_TIME
00000 suncat0170 pw.x -npool 4 -i  Done                     05/03/2018 21:04:30
00001 suncat0170 pw.x -npool 4 -i  Done                     05/03/2018 21:04:30
00002 suncat0170 pw.x -npool 4 -i  Done                     05/03/2018 21:04:30
00003 suncat0170 pw.x -npool 4 -i  Done                     05/03/2018 21:04:30
00004 suncat0170 pw.x -npool 4 -i  Done                     05/03/2018 21:04:30
00005 suncat0170 pw.x -npool 4 -i  Done                     05/03/2018 21:04:30
00006 suncat0170 pw.x -npool 4 -i  Done                     05/03/2018 21:04:30
00007 suncat0170 pw.x -npool 4 -i  Done                     05/03/2018 21:04:30
00008 suncat0169 pw.x -npool 4 -i  Done                     05/03/2018 21:04:30
00009 suncat0169 pw.x -npool 4 -i  Done                     05/03/2018 21:04:30
00010 suncat0169 pw.x -npool 4 -i  Done                     05/03/2018 21:04:30
00011 suncat0169 pw.x -npool 4 -i  Done                     05/03/2018 21:04:30
00012 suncat0169 pw.x -npool 4 -i  Done                     05/03/2018 21:04:30
00013 suncat0169 pw.x -npool 4 -i  Done                     05/03/2018 21:04:30
00014 suncat0169 pw.x -npool 4 -i  Done                     05/03/2018 21:04:30
00015 suncat0169 pw.x -npool 4 -i  Done                     05/03/2018 21:04:30
00016 suncat0278 pw.x -npool 4 -i  Done                     05/03/2018 21:04:30
00017 suncat0278 pw.x -npool 4 -i  Done                     05/03/2018 21:04:30
00018 suncat0278 pw.x -npool 4 -i  Done                     05/03/2018 21:04:30
00019 suncat0278 pw.x -npool 4 -i  Done                     05/03/2018 21:04:30
00020 suncat0278 pw.x -npool 4 -i  Done                     05/03/2018 21:04:30
00021 suncat0278 pw.x -npool 4 -i  Done                     05/03/2018 21:04:30
00022 suncat0278 pw.x -npool 4 -i  Done                     05/03/2018 21:04:30
00023 suncat0278 pw.x -npool 4 -i  Done                     05/03/2018 21:04:30
00024 suncat0273 pw.x -npool 4 -i  Done                     05/03/2018 21:04:30
00025 suncat0273 pw.x -npool 4 -i  Done                     05/03/2018 21:04:30
00026 suncat0273 pw.x -npool 4 -i  Done                     05/03/2018 21:04:30
00027 suncat0273 pw.x -npool 4 -i  Done                     05/03/2018 21:04:30
00028 suncat0273 pw.x -npool 4 -i  Done                     05/03/2018 21:04:30
00029 suncat0273 pw.x -npool 4 -i  Done                     05/03/2018 21:04:30
00030 suncat0273 pw.x -npool 4 -i  Done                     05/03/2018 21:04:30
00031 suncat0273 pw.x -npool 4 -i  Done                     05/03/2018 21:04:30