     Program PWSCF v.5.1rc2 (svn rev. 11289) starts on  2May2018 at 18:29:44

     Current dimensions of program PWSCF are:
     Max number of different atomic species (ntypx) = 10
     Max number of k-points (npk) =  40000
     Max angular momentum in pseudopotentials (lmaxx) =  3
     Presently stress not available with electric field

     IMPORTANT: XC functional enforced from input :
     Exchange-correlation      = BEEF-VDW ( 1  4 27 13 2)
     Any further DFT definition will be discarded
     Please, verify this is what you really want

     Subspace diagonalization in iterative solution of the eigenvalue problem:
     a serial algorithm will be used

     bravais-lattice index     =            0
     lattice parameter (alat)  =       1.8897  a.u.
     unit-cell volume          =    6082.7792 (a.u.)^3
     number of atoms/cell      =           13
     number of atomic types    =            2
     number of electrons       =       145.00
     number of Kohn-Sham states=           82
     kinetic-energy cutoff     =      36.7493  Ry
     charge density cutoff     =     367.4932  Ry
     convergence threshold     =      1.0E-05
     mixing beta               =       0.3000
     number of iterations used =           10  plain     mixing
     Exchange-correlation      = BEEF-VDW ( 1  4 27 13 2)
     nstep                     =           50

     celldm(1)=   1.889726  celldm(2)=   0.000000  celldm(3)=   0.000000
     celldm(4)=   0.000000  celldm(5)=   0.000000  celldm(6)=   0.000000

     crystal axes: (cart. coord. in units of alat)
               a(1) = (   6.421223   0.000000   0.000000 )
               a(2) = (   3.210611   5.560942   0.000000 )
               a(3) = (   0.000000   0.000000  25.242906 )

     reciprocal axes: (cart. coord. in units 2 pi/alat)
               b(1) = (  0.155734 -0.089913  0.000000 )
               b(2) = (  0.000000  0.179826  0.000000 )
               b(3) = (  0.000000  0.000000  0.039615 )

     PseudoPot. # 1 for Zr read from file:
     /u/if/mamunm/psp/gbrv1.5pbe/Zr.UPF
     MD5 check sum: 5db81b1e868ab7776c4564c113de050b
     Pseudo is Ultrasoft + core correction, Zval = 12.0
     Generated by new atomic code, or converted to UPF format
     Using radial grid of  887 points,  6 beta functions with:
                l(1) =   0
                l(2) =   0
                l(3) =   1
                l(4) =   1
                l(5) =   2
                l(6) =   2
     Q(r) pseudized with  6 coefficients,  rinner =    1.200   1.200   1.200
                                                       1.200   1.200

     PseudoPot. # 2 for H  read from file:
     /u/if/mamunm/psp/gbrv1.5pbe/H.UPF
     MD5 check sum: 761ae9a214b05c3daf00ab9f6b793d6f
     Pseudo is Ultrasoft, Zval =  1.0
     Generated by new atomic code, or converted to UPF format
     Using radial grid of  615 points,  2 beta functions with:
                l(1) =   0
                l(2) =   0
     Q(r) pseudized with  8 coefficients,  rinner =    0.700

     vdW kernel table read from file vdW_kernel_table
     MD5 check sum: 095c7af220d748ca6e76c0b4c6cfb241

     atomic species   valence    mass     pseudopotential
        Zr1           12.00    91.22400     Zr( 1.00)
        H1             1.00     1.00800     H ( 1.00)

     No symmetry found

   Cartesian axes

     site n.     atom                  positions (alat units)
         1           Zr1 tau(   1) = (   1.6053057   0.9268237  10.0000000  )
         2           Zr1 tau(   2) = (   4.8159170   0.9268237  10.0000000  )
         3           Zr1 tau(   3) = (   3.2106113   3.7072946  10.0000000  )
         4           Zr1 tau(   4) = (   6.4212227   3.7072946  10.0000000  )
         5           Zr1 tau(   5) = (   6.4212227   1.8536473  12.6214532  )
         6           Zr1 tau(   6) = (   3.2106113   1.8536473  12.6214532  )
         7           Zr1 tau(   7) = (   8.0265283   4.6341183  12.6214532  )
         8           Zr1 tau(   8) = (   4.8159170   4.6341183  12.6214532  )
         9           Zr1 tau(   9) = (   0.0000000   0.0000000  15.2429064  )
        10           Zr1 tau(  10) = (   3.2106113   0.0000000  15.2429064  )
        11           Zr1 tau(  11) = (   1.6053057   2.7804710  15.2429064  )
        12           Zr1 tau(  12) = (   4.8159170   2.7804710  15.2429064  )
        13           H1  tau(  13) = (   1.6053057   0.9268237  16.5819064  )

     number of k points=    20  Fermi-Dirac smearing, width (Ry)=  0.0110
                       cart. coord. in units 2pi/alat
        k(    1) = (   0.0000000   0.0000000   0.0000000), wk =   0.0555556
        k(    2) = (   0.0000000   0.0299709   0.0000000), wk =   0.1111111
        k(    3) = (   0.0000000   0.0599419   0.0000000), wk =   0.1111111
        k(    4) = (   0.0000000  -0.0899128   0.0000000), wk =   0.0555556
        k(    5) = (   0.0259556  -0.0149855   0.0000000), wk =   0.1111111
        k(    6) = (   0.0259556   0.0149855   0.0000000), wk =   0.1111111
        k(    7) = (   0.0259556   0.0449564   0.0000000), wk =   0.1111111
        k(    8) = (   0.0259556  -0.1048983   0.0000000), wk =   0.1111111
        k(    9) = (   0.0259556  -0.0749274   0.0000000), wk =   0.1111111
        k(   10) = (   0.0259556  -0.0449564   0.0000000), wk =   0.1111111
        k(   11) = (   0.0519112  -0.0299709   0.0000000), wk =   0.1111111
        k(   12) = (   0.0519112   0.0000000   0.0000000), wk =   0.1111111
        k(   13) = (   0.0519112   0.0299709   0.0000000), wk =   0.1111111
        k(   14) = (   0.0519112  -0.1198838   0.0000000), wk =   0.1111111
        k(   15) = (   0.0519112  -0.0899128   0.0000000), wk =   0.1111111
        k(   16) = (   0.0519112  -0.0599419   0.0000000), wk =   0.1111111
        k(   17) = (  -0.0778668   0.0449564   0.0000000), wk =   0.0555556
        k(   18) = (  -0.0778668   0.0749274   0.0000000), wk =   0.1111111
        k(   19) = (  -0.0778668   0.1048983   0.0000000), wk =   0.1111111
        k(   20) = (  -0.0778668  -0.0449564   0.0000000), wk =   0.0555556

     Largest allocated arrays     est. size (Mb)     dimensions
     Largest temporary arrays     est. size (Mb)     dimensions

     Initial potential from superposition of free atoms
     Check: negative starting charge=   -0.729137

     starting charge  144.97420, renormalised to  145.00000

     negative rho (up, down):  7.293E-01 0.000E+00

     *
     * You are using vdW-DF for exchange-correlation in this calculation.
     * Please cite the following three references that made this development
     * possible:
     *
     *   M. Dion, H. Rydberg, E. Schroder, D. C. Langreth, and
     *   B. I. Lundqvist, Phys. Rev. Lett. 92, 246401 (2004).
     *
     *   T. Thonhauser, V. R. Cooper, S. Li, A. Puzder, P. Hyldgaard, and
     *   D. C. Langreth, Phys. Rev. B 76, 125112 (2007).
     *
     *   G. Roman-Perez and J. M. Soler, Phys. Rev. Lett. 103, 096102 (2009).
     *
     *
     * If you are using vdW-DF2, please also cite:
     *
     *   K. Lee, E. D. Murray, L. Kong, B. I. Lundqvist, and
     *   D. C. Langreth, Phys. Rev. B 82, 081101(R) (2010).
     *
     *
     * If you are calculating the stress with vdW-DF, please also cite:
     *
     *   R. Sabatini, E. Kucukbenli, B. Kolb, T. Thonhauser, and
     *   S. de Gironcoli, J. Phys.: Condens. Matter 24, 424209 (2012).
     *

     Carrying out vdW-DF run using the following parameters:

     Nqs =      20    Nr_points =    1024   r_max =   100.000
     q_mesh =
               0.00001000     0.04494208     0.09755937     0.15916263
               0.23128650     0.31572767     0.41458969     0.53033537
               0.66584808     0.82450364     1.01025438     1.22772762
               1.48234092     1.78043706     2.12944203     2.53805004
               3.01644009     3.57652955     4.23227104     5.00000000

     Gradients computed in reciprocal space

     Adding external electric field

     Computed dipole along edir(3) :
        Dipole               -0.0013 Ry au,         -0.0032 Debye
        Dipole field         -0.0000 Ry au

        Potential amp.        0.0002 Ry
        Total length         46.5096 bohr

     Starting wfc are  157 randomized atomic wfcs

     Self-consistent Calculation

     iteration #  1     ecut=    36.75 Ry     beta=0.30
     Davidson diagonalization with overlap
     ethr =  1.00E-02,  avg # of iterations =  2.0

[...]

     total energy              =   -1195.22799999 Ry
     Harris-Foulkes estimate   =   -1198.68240980 Ry
     estimated scf accuracy    <       7.25274720 Ry

[...]

     End of self-consistent calculation

          k = 0.0000 0.0000 0.0000 ( 22923 PWs)   bands (ev):

   -47.8801 -47.8574 -47.7963 -47.7856 -47.7854 -47.7682 -47.7678 -47.7674
   -47.5564 -47.4817 -47.4812 -47.4520 -26.1626 -26.1626 -26.1575 -26.1129
   -26.1128 -26.1097 -26.0768 -25.9942 -25.9880 -25.9879 -25.8886 -25.7895
   -25.7833 -25.7832 -25.6480 -25.6435 -25.6435 -25.6085 -25.6085 -25.6055
   -25.5881 -25.5880 -25.5875 -25.4383 -25.4383 -25.4266 -25.4266 -25.3948
   -25.3945 -25.3812 -25.3456 -25.2975 -25.2882 -25.2880 -25.1408 -25.1408
    -3.8068  -3.0629  -2.0213  -1.4549  -1.1461  -1.1390  -1.1389  -1.0336
    -1.0336  -0.8530  -0.5997  -0.5996  -0.4812  -0.3998  -0.3998  -0.1001
     0.4457   0.4457   0.8506   1.3230   1.5553   1.5857   1.5858   1.8239
     1.9854   2.1029   2.1029   2.1195   2.3132   2.3133   2.3454   2.5615
     2.5616   2.5765

[...]

          k =-0.0779 0.0450 0.0000 ( 22880 PWs)   bands (ev):

[...]

     the Fermi energy is     1.4197 ev

!    total energy              =   -1198.10966921 Ry
     Harris-Foulkes estimate   =   -1198.10967134 Ry
     estimated scf accuracy    <       0.00000240 Ry

     The total energy is the sum of the following terms:

     one-electron contribution =   -8234.01567968 Ry
     hartree contribution      =    4107.65987407 Ry
     xc contribution           =    -221.18801830 Ry
     ewald contribution        =    3149.55355368 Ry
     electric field correction =       0.00000000 Ry
     smearing contrib. (-TS)   =      -0.11939897 Ry

     convergence has been achieved in  17 iterations

 BEEF-vdW xc energy contributions
           1 :   -189.469413710756
           2 :    171.503581343531
           3 :   -141.203039918450
           4 :    107.107568312699
           5 :   -76.9615409522503
           6 :    54.9631225240934
           7 :   -41.0822787698468
           8 :    32.3910699215448
           9 :   -25.3574120919088
          10 :    17.7798430431064
          11 :   -9.50200633602930
          12 :    1.84956675274617
          13 :    3.60689366632573
          14 :   -6.14621363565789
          15 :    6.27661634423214
          16 :   -5.32282354345907
          17 :    4.59238801710939
          18 :   -4.67564956449647
          19 :    5.28024915526777
          20 :   -5.62826752367539
          21 :    5.09476792960299
          22 :   -3.65389966833897
          23 :    1.87120774024345
          24 :  -0.503496452075638
          25 :   1.347152260825624E-002
          26 :  -0.321460916025245
          27 :   0.923032473468226
          28 :   -1.25434341310091
          29 :    1.04817430746039
          30 :  -0.460649383358145
          31 :   -21.9347845062989
          32 :   -16.3497704667364

     Forces acting on atoms (Ry/au):

     negative rho (up, down):  7.490E-01 0.000E+00
     atom    1 type  1   force =    -0.00000475   -0.00003899    0.01513607
     atom    2 type  1   force =     0.00001224    0.00075511    0.01488891
     atom    3 type  1   force =     0.00068657   -0.00034832    0.01491000
     atom    4 type  1   force =    -0.00069106   -0.00036321    0.01493048
     atom    5 type  1   force =    -0.00059049    0.00032580   -0.00062769
     atom    6 type  1   force =     0.00058165    0.00033407   -0.00063880
     atom    7 type  1   force =     0.00000782    0.00000766   -0.00574833
     atom    8 type  1   force =    -0.00000735   -0.00067151   -0.00062671
     atom    9 type  1   force =     0.00847393    0.00486812   -0.00333555
     atom   10 type  1   force =    -0.00847328    0.00485085   -0.00335990
     atom   11 type  1   force =    -0.00001144   -0.00975247   -0.00333971
     atom   12 type  1   force =     0.00001558    0.00003348   -0.01918694
     atom   13 type  2   force =     0.00000057   -0.00000058   -0.02300182

     Total force =     0.034882     Total SCF correction =     0.001586

     entering subroutine stress ...

     negative rho (up, down):  7.490E-01 0.000E+00
          total   stress  (Ry/bohr**3)                   (kbar)     P=  -12.82
  -0.00007958   0.00000000  -0.00000000        -11.71      0.00     -0.00
   0.00000000  -0.00007958   0.00000000          0.00    -11.71      0.00
  -0.00000000   0.00000000  -0.00010237         -0.00      0.00    -15.06

     BFGS Geometry Optimization

     number of scf cycles    =   1
     number of bfgs steps    =   0

     energy   new            =   -1198.1096692059 Ry

     new trust radius        =       0.0230018196 bohr
     new conv_thr            =       0.0000099958 Ry

ATOMIC_POSITIONS (crystal)
Zr1      0.166666667   0.166666667   0.396150897    0   0   0
Zr1      0.666666667   0.166666667   0.396150897    0   0   0
Zr1      0.166666667   0.666666667   0.396150897    0   0   0
Zr1      0.666666667   0.666666667   0.396150897    0   0   0
Zr1      0.833333333   0.333333333   0.500000000    0   0   0
Zr1      0.333333333   0.333333333   0.500000000    0   0   0
Zr1      0.833333333   0.833333333   0.500000000    0   0   0
Zr1      0.333333333   0.833333333   0.500000000    0   0   0
Zr1      0.000466718   0.000463248   0.603779178
Zr1      0.499070909   0.000461605   0.603778668
Zr1      0.000463078   0.499071959   0.603779091
Zr1      0.499999691   0.500003186   0.603446879
H1       0.166666741   0.166666612   0.656411512

     Writing output data file calc.save
     Check: negative starting charge=   -0.729137
     NEW-OLD atomic charge density approx. for the potential
     Check: negative starting charge=   -0.729297

[...]

     Total force =     0.032896     Total SCF correction =     0.004193
     SCF correction compared to forces is large: reduce conv_thr to get better values

[...]

     energy   old            =   -1198.1096692059 Ry
     energy   new            =   -1198.1108593143 Ry

     CASE: energy  _new < energy  _old

     WARNING: bfgs curvature condition failed, Theta= 0.850
     new trust radius        =       0.0345027294 bohr
     new conv_thr            =       0.0000001000 Ry

[...]

     iteration #  1     ecut=    36.75 Ry     beta=0.30
     Davidson diagonalization with overlap
     c_bands:  1 eigenvalues not converged
     ethr =  1.00E-06,  avg # of iterations =  5.7

[...]

     iteration #  1     ecut=    36.75 Ry     beta=0.30
     Davidson diagonalization with overlap
     c_bands:  1 eigenvalues not converged
     ethr =  1.00E-06,  avg # of iterations = 11.2

[...]

     Total force =     0.003501     Total SCF correction =     0.000228

[...]

     number of scf cycles    =  14
     number of bfgs steps    =  13

     energy   old            =   -1198.1213973878 Ry
     energy   new            =   -1198.1214799444 Ry

     CASE: energy  _new < energy  _old

     new trust radius        =       0.0324088373 bohr
     new conv_thr            =       0.0000001000 Ry

ATOMIC_POSITIONS (crystal)
Zr1      0.166666667   0.166666667   0.396150897    0   0   0
Zr1      0.666666667   0.166666667   0.396150897    0   0   0
Zr1      0.166666667   0.666666667   0.396150897    0   0   0
Zr1      0.666666667   0.666666667   0.396150897    0   0   0
Zr1      0.833333333   0.333333333   0.500000000    0   0   0
Zr1      0.333333333   0.333333333   0.500000000    0   0   0
Zr1      0.833333333   0.833333333   0.500000000    0   0   0
Zr1      0.333333333   0.833333333   0.500000000    0   0   0
Zr1      0.001329093   0.001331060   0.599967302
Zr1      0.497338943   0.001333429   0.599967417
Zr1      0.001334105   0.497335996   0.599967208
Zr1      0.499999433   0.499996400   0.597829223
H1       0.166669898   0.166665220   0.644791023

     Writing output data file calc.save
     Check: negative starting charge=   -0.729248
     NEW-OLD atomic charge density approx. for the potential
     Check: negative starting charge=   -0.729355

[...]

     Self-consistent Calculation

[...]

     Threshold (ethr) on eigenvalues was too large:
     Diagonalizing with lowered threshold

     Davidson diagonalization with overlap
     ethr =  8.91E-08,  avg # of iterations =  4.0

[...]

     total energy              =   -1198.12153490 Ry
     Harris-Foulkes estimate   =   -1198.12153497 Ry
     estimated scf accuracy    <       0.00000058 Ry

     iteration #  9     ecut=    36.75 Ry     beta=0.30
     Davidson diagonalization with overlap
     ethr =  3.97E-10,  avg # of iterations =  3.1

[...]

     negative rho (up, down):  7.494E-01 0.000E+00

     Adding external electric field

     Computed dipole along edir(3) :
        Dipole                0.0147 Ry au,          0.0373 Debye
        Dipole field          0.0000 Ry au

        Potential amp.       -0.0028 Ry
        Total length         46.5096 bohr

     End of self-consistent calculation

[...]

          k = 0.0519-0.0599 0.0000 ( 22856 PWs)   bands (ev):

[...]

          k =-0.0779-0.0450 0.0000 ( 22880 PWs)   bands (ev):

   -47.7907 -47.7896 -47.7777 -47.7641 -47.7452 -47.7444 -47.7304 -47.7049
   -47.4394 -47.4316 -47.3997 -47.3857 -26.0094 -26.0060 -25.9730 -25.9616
   -25.9561 -25.9528 -25.8845 -25.8804 -25.8508 -25.8455 -25.8075 -25.8043
   -25.7664 -25.7573 -25.7523 -25.7257 -25.7055 -25.7037 -25.6953 -25.6825
   -25.4970 -25.4910 -25.4884 -25.4878 -25.4691 -25.4607 -25.3773 -25.3703
   -25.3470 -25.3428 -25.2901 -25.2765 -25.2614 -25.2528 -25.1443 -25.1389
    -3.4691  -2.1010  -1.9722  -1.1516  -0.8899  -0.4755  -0.4720  -0.3721
    -0.3641  -0.3547  -0.2199   0.3382   0.3407   0.4087   0.4236   0.4812
     0.5264   0.8338   0.8359   0.8764   0.9337   0.9774   1.0859   1.2344
     1.2477   1.2708   1.4112   1.4891   1.5150   1.5253   1.7082   1.7435
     2.0257   2.0749

     the Fermi energy is     1.4341 ev

!    total energy              =   -1198.12153498 Ry
     Harris-Foulkes estimate   =   -1198.12153493 Ry
     estimated scf accuracy    <       0.00000005 Ry

     The total energy is the sum of the following terms:

     one-electron contribution =   -8375.19386963 Ry
     hartree contribution      =    4178.51848987 Ry
     xc contribution           =    -221.38844991 Ry
     ewald contribution        =    3220.05839638 Ry
     electric field correction =       0.00000044 Ry
     smearing contrib. (-TS)   =      -0.11610212 Ry

     convergence has been achieved in   9 iterations

 BEEF-vdW xc energy contributions
           1 :   -189.670122234669
           2 :    171.763896359366
           3 :   -141.519716780645
           4 :    107.406532763115
           5 :   -77.1466045165183
           6 :    54.9823632028055
           7 :   -40.9658093696277
           8 :    32.2354081117264
           9 :   -25.2683256980085
          10 :    17.8109691462379
          11 :   -9.62640298390266
          12 :    1.98001044104453
          13 :    3.56177454475852
          14 :   -6.22375206261532
          15 :    6.43605193540017
          16 :   -5.47183905022814
          17 :    4.64836098268020
          18 :   -4.62134169332870
          19 :    5.17534713194766
          20 :   -5.56795490444046
          21 :    5.14396474533103
          22 :   -3.80306665484298
          23 :    2.04377203777130
          24 :  -0.608002068819815
          25 :   3.596460865310291E-003
          26 :  -0.224126417211266
          27 :   0.818230844424988
          28 :   -1.22209400968046
          29 :    1.11766498971832
          30 :  -0.593773205956381
          31 :   -21.9502540789741
          32 :   -16.3764720059088

     Forces acting on atoms (Ry/au):

     negative rho (up, down):  7.494E-01 0.000E+00
     atom    1 type  1   force =     0.00000015    0.00000017    0.01265735
     atom    2 type  1   force =    -0.00000038    0.00093877    0.01260355
     atom    3 type  1   force =     0.00081274   -0.00046974    0.01260354
     atom    4 type  1   force =    -0.00081294   -0.00046939    0.01260407
     atom    5 type  1   force =     0.00154749   -0.00089314   -0.01184876
     atom    6 type  1   force =    -0.00154725   -0.00089358   -0.01185248
     atom    7 type  1   force =    -0.00000043   -0.00000066   -0.01353361
     atom    8 type  1   force =     0.00000041    0.00178669   -0.01184629
     atom    9 type  1   force =     0.00064318    0.00036947    0.00015528
     atom   10 type  1   force =    -0.00064114    0.00036590    0.00015359
     atom   11 type  1   force =    -0.00000218   -0.00073670    0.00015479
     atom   12 type  1   force =     0.00000241    0.00000231   -0.00086077
     atom   13 type  2   force =    -0.00000205   -0.00000009   -0.00099027

     Total force =     0.001852     Total SCF correction =     0.000320
     SCF correction compared to forces is large: reduce conv_thr to get better values

     entering subroutine stress ...

     negative rho (up, down):  7.494E-01 0.000E+00
          total   stress  (Ry/bohr**3)                   (kbar)     P=   -6.87
  -0.00004862   0.00000000  -0.00000000         -7.15      0.00     -0.00
   0.00000000  -0.00004862   0.00000000          0.00     -7.15      0.00
  -0.00000000   0.00000000  -0.00004288         -0.00      0.00     -6.31

     bfgs converged in  15 scf cycles and  14 bfgs steps
     (criteria: energy <  1.0E+00, force <  1.9E-03)

     End of BFGS Geometry Optimization

     Final energy   =   -1198.1215349767 Ry
Begin final coordinates

ATOMIC_POSITIONS (crystal)
Zr1      0.166666667   0.166666667   0.396150897    0   0   0
Zr1      0.666666667   0.166666667   0.396150897    0   0   0
Zr1      0.166666667   0.666666667   0.396150897    0   0   0
Zr1      0.666666667   0.666666667   0.396150897    0   0   0
Zr1      0.833333333   0.333333333   0.500000000    0   0   0
Zr1      0.333333333   0.333333333   0.500000000    0   0   0
Zr1      0.833333333   0.833333333   0.500000000    0   0   0
Zr1      0.333333333   0.833333333   0.500000000    0   0   0
Zr1      0.001329093   0.001331060   0.599967302
Zr1      0.497338943   0.001333429   0.599967417
Zr1      0.001334105   0.497335996   0.599967208
Zr1      0.499999433   0.499996400   0.597829223
H1       0.166669898   0.166665220   0.644791023
End final coordinates

     Writing output data file calc.save

     General routines

     Parallel routines

   This run was terminated on:  20:16: 9   2May2018

   JOB DONE.
Job  /afs/slac/g/suncat/bin/suncat-tsmpirun -x LD_LIBRARY_PATH -wdir /scratch/qe852468_tt2bH pw.x -npool 4 -in pw.inp

TID   HOST_NAME   COMMAND_LINE            STATUS            TERMINATION_TIME
00000 suncat0144 pw.x -npool 4 -i  Done                     05/02/2018 20:16:09
00001 suncat0144 pw.x -npool 4 -i  Done                     05/02/2018 20:16:09
00002 suncat0144 pw.x -npool 4 -i  Done                     05/02/2018 20:16:09
00003 suncat0144 pw.x -npool 4 -i  Done                     05/02/2018 20:16:09
00004 suncat0144 pw.x -npool 4 -i  Done                     05/02/2018 20:16:09
00005 suncat0144 pw.x -npool 4 -i  Done                     05/02/2018 20:16:09
00006 suncat0144 pw.x -npool 4 -i  Done                     05/02/2018 20:16:09
00007 suncat0144 pw.x -npool 4 -i  Done                     05/02/2018 20:16:09
00008 suncat0128 pw.x -npool 4 -i  Done                     05/02/2018 20:16:09
00009 suncat0128 pw.x -npool 4 -i  Done                     05/02/2018 20:16:09
00010 suncat0128 pw.x -npool 4 -i  Done                     05/02/2018 20:16:09
00011 suncat0128 pw.x -npool 4 -i  Done                     05/02/2018 20:16:09
00012 suncat0128 pw.x -npool 4 -i  Done                     05/02/2018 20:16:09
00013 suncat0128 pw.x -npool 4 -i  Done                     05/02/2018 20:16:09
00014 suncat0128 pw.x -npool 4 -i  Done                     05/02/2018 20:16:09
00015 suncat0128 pw.x -npool 4 -i  Done                     05/02/2018 20:16:09
00016 suncat0276 pw.x -npool 4 -i  Done                     05/02/2018 20:16:09
00017 suncat0276 pw.x -npool 4 -i  Done                     05/02/2018 20:16:09
00018 suncat0276 pw.x -npool 4 -i  Done                     05/02/2018 20:16:09
00019 suncat0276 pw.x -npool 4 -i  Done                     05/02/2018 20:16:09
00020 suncat0276 pw.x -npool 4 -i  Done                     05/02/2018 20:16:09
00021 suncat0276 pw.x -npool 4 -i  Done                     05/02/2018 20:16:09
00022 suncat0276 pw.x -npool 4 -i  Done                     05/02/2018 20:16:09
00023 suncat0276 pw.x -npool 4 -i  Done                     05/02/2018 20:16:09
00024 suncat0270 pw.x -npool 4 -i  Done                     05/02/2018 20:16:09
00025 suncat0270 pw.x -npool 4 -i  Done                     05/02/2018 20:16:09
00026 suncat0270 pw.x -npool 4 -i  Done                     05/02/2018 20:16:09
00027 suncat0270 pw.x -npool 4 -i  Done                     05/02/2018 20:16:09
00028 suncat0270 pw.x -npool 4 -i  Done                     05/02/2018 20:16:09
00029 suncat0270 pw.x -npool 4 -i  Done                     05/02/2018 20:16:09
00030 suncat0270 pw.x -npool 4 -i  Done                     05/02/2018 20:16:09
00031 suncat0270 pw.x -npool 4 -i  Done                     05/02/2018 20:16:09