     Program PWSCF v.5.1rc2 (svn rev. 11289) starts on  3May2018 at 18:29:33

     Current dimensions of program PWSCF are:
     Max number of different atomic species (ntypx) = 10
     Max number of k-points (npk) =  40000
     Max angular momentum in pseudopotentials (lmaxx) =  3
     Presently stress not available with electric field

     IMPORTANT: XC functional enforced from input :
     Exchange-correlation      = BEEF-VDW ( 1  4 27 13 2)
     Any further DFT definition will be discarded
     Please, verify this is what you really want

     Subspace diagonalization in iterative solution of the eigenvalue problem:
     a serial algorithm will be used

     bravais-lattice index     =            0
     lattice parameter (alat)  =       1.8897  a.u.
     unit-cell volume          =    5409.9593 (a.u.)^3
     number of atoms/cell      =           13
     number of atomic types    =            2
     number of electrons       =       229.00
     number of Kohn-Sham states=          124
     kinetic-energy cutoff     =      36.7493  Ry
     charge density cutoff     =     367.4932  Ry
     convergence threshold     =      1.0E-05
     mixing beta               =       0.3000
     number of iterations used =           10  plain     mixing
     Exchange-correlation      = BEEF-VDW ( 1  4 27 13 2)
     nstep                     =           50

     celldm(1)=   1.889726  celldm(2)=   0.000000  celldm(3)=   0.000000
     celldm(4)=   0.000000  celldm(5)=   0.000000  celldm(6)=   0.000000

     crystal axes: (cart. coord. in units of alat)
               a(1) = (   6.088539   0.000000   0.000000 )
               a(2) = (   3.044269   5.272829   0.000000 )
               a(3) = (   0.000000   0.000000  24.971271 )

     reciprocal axes: (cart. coord. in units 2 pi/alat)
               b(1) = (  0.164243 -0.094826  0.000000 )
               b(2) = (  0.000000  0.189652  0.000000 )
               b(3) = (  0.000000  0.000000  0.040046 )

     PseudoPot. # 1 for Ga read from file:
     /u/if/mamunm/psp/gbrv1.5pbe/Ga.UPF
     MD5 check sum: ccd671392a58a050fbb373893b4fcd66
     Pseudo is Ultrasoft + core correction, Zval = 19.0
     Generated by new atomic code, or converted to UPF format
     Using radial grid of  871 points,  6 beta functions with:
                l(1) =   0
                l(2) =   0
                l(3) =   1
                l(4) =   1
                l(5) =   2
                l(6) =   2
     Q(r) pseudized with  8 coefficients,  rinner =    1.250   1.250   1.250
                                                       1.250   1.250

     PseudoPot. # 2 for H  read from file:
     /u/if/mamunm/psp/gbrv1.5pbe/H.UPF
     MD5 check sum: 761ae9a214b05c3daf00ab9f6b793d6f
     Pseudo is Ultrasoft, Zval =  1.0
     Generated by new atomic code, or converted to UPF format
     Using radial grid of  615 points,  2 beta functions with:
                l(1) =   0
                l(2) =   0
     Q(r) pseudized with  8 coefficients,  rinner =    0.700

     vdW kernel table read from file vdW_kernel_table
     MD5 check sum: 095c7af220d748ca6e76c0b4c6cfb241

     atomic species   valence    mass     pseudopotential
        Ga1           19.00    69.72300     Ga( 1.00)
        H1             1.00     1.00800     H ( 1.00)

     No symmetry found

   Cartesian axes

     site n.     atom                  positions (alat units)
         1           Ga1 tau(   1) = (   1.5221346   0.8788048  10.0000000  )
         2           Ga1 tau(   2) = (   4.5664039   0.8788048  10.0000000  )
         3           Ga1 tau(   3) = (   3.0442693   3.5152194  10.0000000  )
         4           Ga1 tau(   4) = (   6.0885386   3.5152194  10.0000000  )
         5           Ga1 tau(   5) = (   6.0885386   1.7576097  12.4856355  )
         6           Ga1 tau(   6) = (   3.0442693   1.7576097  12.4856355  )
         7           Ga1 tau(   7) = (   7.6106732   4.3940242  12.4856355  )
         8           Ga1 tau(   8) = (   4.5664039   4.3940242  12.4856355  )
         9           Ga1 tau(   9) = (   0.0000000   0.0000000  14.9712709  )
        10           Ga1 tau(  10) = (   3.0442693   0.0000000  14.9712709  )
        11           Ga1 tau(  11) = (   1.5221346   2.6364145  14.9712709  )
        12           Ga1 tau(  12) = (   4.5664039   2.6364145  14.9712709  )
        13           H1  tau(  13) = (   0.0000000   0.0000000  16.2717709  )

     number of k points=    20  Fermi-Dirac smearing, width (Ry)=  0.0110
                       cart. coord. in units 2pi/alat
        k(    1) = (   0.0000000   0.0000000   0.0000000), wk =   0.0555556
        k(    2) = (   0.0000000   0.0316086   0.0000000), wk =   0.1111111
        k(    3) = (   0.0000000   0.0632172   0.0000000), wk =   0.1111111
        k(    4) = (   0.0000000  -0.0948258   0.0000000), wk =   0.0555556
        k(    5) = (   0.0273738  -0.0158043   0.0000000), wk =   0.1111111
        k(    6) = (   0.0273738   0.0158043   0.0000000), wk =   0.1111111
        k(    7) = (   0.0273738   0.0474129   0.0000000), wk =   0.1111111
        k(    8) = (   0.0273738  -0.1106300   0.0000000), wk =   0.1111111
        k(    9) = (   0.0273738  -0.0790215   0.0000000), wk =   0.1111111
        k(   10) = (   0.0273738  -0.0474129   0.0000000), wk =   0.1111111
        k(   11) = (   0.0547477  -0.0316086   0.0000000), wk =   0.1111111
        k(   12) = (   0.0547477   0.0000000   0.0000000), wk =   0.1111111
        k(   13) = (   0.0547477   0.0316086   0.0000000), wk =   0.1111111
        k(   14) = (   0.0547477  -0.1264343   0.0000000), wk =   0.1111111
        k(   15) = (   0.0547477  -0.0948258   0.0000000), wk =   0.1111111
        k(   16) = (   0.0547477  -0.0632172   0.0000000), wk =   0.1111111
        k(   17) = (  -0.0821215   0.0474129   0.0000000), wk =   0.0555556
        k(   18) = (  -0.0821215   0.0790215   0.0000000), wk =   0.1111111
        k(   19) = (  -0.0821215   0.1106300   0.0000000), wk =   0.1111111
        k(   20) = (  -0.0821215  -0.0474129   0.0000000), wk =   0.0555556

     Largest allocated arrays     est. size (Mb)     dimensions
     Largest temporary arrays     est. size (Mb)     dimensions

     Initial potential from superposition of free atoms
     Check: negative starting charge=   -0.001259

     starting charge  216.99998, renormalised to  229.00000

     negative rho (up, down):  1.329E-03 0.000E+00

     *
     * You are using vdW-DF for exchange-correlation in this calculation.
     * Please cite the following three references that made this development
     * possible:
     *
     *   M. Dion, H. Rydberg, E. Schroder, D. C. Langreth, and
     *   B. I. Lundqvist, Phys. Rev. Lett. 92, 246401 (2004).
     *
     *   T. Thonhauser, V. R. Cooper, S. Li, A. Puzder, P. Hyldgaard, and
     *   D. C. Langreth, Phys. Rev. B 76, 125112 (2007).
     *
     *   G. Roman-Perez and J. M. Soler, Phys. Rev. Lett. 103, 096102 (2009).
     *
     *
     * If you are using vdW-DF2, please also cite:
     *
     *   K. Lee, E. D. Murray, L. Kong, B. I. Lundqvist, and
     *   D. C. Langreth, Phys. Rev. B 82, 081101(R) (2010).
     *
     *
     * If you are calculating the stress with vdW-DF, please also cite:
     *
     *   R. Sabatini, E. Kucukbenli, B. Kolb, T. Thonhauser, and
     *   S. de Gironcoli, J. Phys.: Condens. Matter 24, 424209 (2012).
     *

     Carrying out vdW-DF run using the following parameters:

     Nqs =      20    Nr_points =    1024   r_max =   100.000
     q_mesh =
               0.00001000     0.04494208     0.09755937     0.15916263
               0.23128650     0.31572767     0.41458969     0.53033537
               0.66584808     0.82450364     1.01025438     1.22772762
               1.48234092     1.78043706     2.12944203     2.53805004
               3.01644009     3.57652955     4.23227104     5.00000000

     Gradients computed in reciprocal space

     Adding external electric field

     Computed dipole along edir(3) :
        Dipole               -0.3956 Ry au,         -1.0055 Debye
        Dipole field         -0.0009 Ry au

        Potential amp.        0.0846 Ry
        Total length         46.0091 bohr

     Starting wfc are  145 randomized atomic wfcs

     Self-consistent Calculation

     iteration #  1     ecut=    36.75 Ry     beta=0.30
     Davidson diagonalization with overlap
     ethr =  1.00E-02,  avg # of iterations =  8.1

[...]

     total energy              =   -4937.42118150 Ry
     Harris-Foulkes estimate   =   -5023.61630233 Ry
     estimated scf accuracy    <     180.13280621 Ry

[...]

     End of self-consistent calculation

          k = 0.0000 0.0000 0.0000 ( 20347 PWs)   bands (ev):

   -94.8830 -94.8830 -94.8428 -94.7002 -94.7000 -94.7000 -94.6952 -94.6773
   -94.6773 -94.6772 -94.6764 -94.6756 -94.6756 -94.6746 -94.6746 -94.6706
   -94.6693 -94.6693 -94.6654 -94.6652 -94.6652 -94.6642 -94.6642 -94.6637
   -94.6606 -94.6603 -94.6603 -94.6409 -94.6395 -94.6395 -94.6360 -94.6360
   -94.6356 -94.6124 -94.6124 -94.5987 -15.5723 -15.2579 -15.2579 -15.2114
   -15.2114 -15.1644 -15.1604 -15.1604 -15.1259 -15.1150 -15.1143 -15.1101
   -15.1101 -15.1016 -15.1016 -15.0884 -15.0801 -15.0634 -15.0634 -15.0564
   -15.0525 -15.0525 -15.0436 -15.0436 -15.0400 -15.0400 -15.0397 -15.0353
   -15.0268 -15.0268 -14.9964 -14.9939 -14.9939 -14.9667 -14.9667 -14.9662
   -14.9489 -14.9489 -14.9471 -14.9471 -14.9259 -14.9168 -14.9168 -14.9057
   -14.9057 -14.8984 -14.8928 -14.8928 -14.8770 -14.8762 -14.8762 -14.8672
   -14.8672 -14.8668 -14.8660 -14.8660 -14.8539 -14.8438 -14.8438 -14.8335
   -10.0842  -8.7581  -6.8199  -5.4004  -4.8498  -4.8498  -4.7333  -4.4566
    -4.4566  -3.9323  -3.1966  -3.1966  -2.7836  -2.6928  -2.6928  -2.5265
    -1.6056  -0.9124  -0.9124  -0.7492  -0.7483  -0.7483   0.3679   1.6163
     2.9329   3.0687   3.0687   3.0883

[...]

          k =-0.0821 0.0474 0.0000 ( 20384 PWs)   bands (ev):

[...]

     the Fermi energy is     0.0408 ev

!    total energy              =   -5000.14544166 Ry
     Harris-Foulkes estimate   =   -5000.14543940 Ry
     estimated scf accuracy    <       0.00000109 Ry

     The total energy is the sum of the following terms:

     one-electron contribution =  -27136.13473847 Ry
     hartree contribution      =   13571.73039384 Ry
     xc contribution           =    -597.29520968 Ry
     ewald contribution        =    9161.58683923 Ry
     electric field correction =       0.00001386 Ry
     smearing contrib. (-TS)   =      -0.03274043 Ry

     convergence has been achieved in  14 iterations

 BEEF-vdW xc energy contributions
           1 :   -534.077599444998
           2 :    484.911858498219
           3 :   -402.439690962053
           4 :    310.605728805465
           5 :   -230.660766146107
           6 :    173.166870116707
           7 :   -136.439843795682
           8 :    111.248103412671
           9 :   -88.2140024370576
          10 :    63.3168454762445
          11 :   -38.7136105580093
          12 :    19.3556416687761
          13 :   -8.42237803851924
          14 :    4.84277725352786
          15 :   -4.26229472836508
          16 :    2.25656570827982
          17 :    2.78572456952656
          18 :   -9.11880526572759
          19 :    13.5366650744597
          20 :   -14.0659020364482
          21 :    11.4192538712671
          22 :   -8.28960767695821
          23 :    7.22360308910822
          24 :   -8.78545297523090
          25 :    11.3509180742299
          26 :   -12.5540077710115
          27 :    11.1759246679466
          28 :   -8.03054822313811
          29 :    5.25183660288121
          30 :   -4.62315788552974
          31 :   -39.3407161278739
          32 :   -26.7065356445469

     Forces acting on atoms (Ry/au):

     negative rho (up, down):  1.024E-03 0.000E+00
     atom    1 type  1   force =     0.00183624    0.00106714    0.00673165
     atom    2 type  1   force =    -0.00184220    0.00106021    0.00674925
     atom    3 type  1   force =    -0.00000561   -0.00212782    0.00672850
     atom    4 type  1   force =     0.00000200   -0.00001094    0.00003718
     atom    5 type  1   force =    -0.00000899    0.00131814    0.00420322
     atom    6 type  1   force =     0.00000566    0.00000170   -0.00677843
     atom    7 type  1   force =    -0.00113774   -0.00066271    0.00424931
     atom    8 type  1   force =     0.00115067   -0.00065461    0.00413855
     atom    9 type  1   force =    -0.00000835    0.00000112   -0.26536785
     atom   10 type  1   force =     0.00001377    0.00282574   -0.00642656
     atom   11 type  1   force =     0.00243710   -0.00141730   -0.00641372
     atom   12 type  1   force =    -0.00244085   -0.00139936   -0.00641104
     atom   13 type  2   force =    -0.00000171   -0.00000130    0.25855994

     Total force =     0.370703     Total SCF correction =     0.004015

     entering subroutine stress ...

     negative rho (up, down):  1.024E-03 0.000E+00
          total   stress  (Ry/bohr**3)                   (kbar)     P=   -0.31
  -0.00004876   0.00000000   0.00000000         -7.17      0.00      0.00
   0.00000000  -0.00004876   0.00000000          0.00     -7.17      0.00
   0.00000000   0.00000000   0.00009115          0.00      0.00     13.41

     BFGS Geometry Optimization

     number of scf cycles    =   1
     number of bfgs steps    =   0

     energy   new            =   -5000.1454416566 Ry

     new trust radius        =       0.2653678551 bohr
     new conv_thr            =       0.0000099958 Ry

ATOMIC_POSITIONS (crystal)
Ga1      0.166666667   0.166666667   0.400460194    0   0   0
Ga1      0.666666667   0.166666667   0.400460194    0   0   0
Ga1      0.166666667   0.666666667   0.400460194    0   0   0
Ga1      0.666666667   0.666666667   0.400460194    0   0   0
Ga1      0.833333333   0.333333333   0.500000000    0   0   0
Ga1      0.333333333   0.333333333   0.500000000    0   0   0
Ga1      0.833333333   0.833333333   0.500000000    0   0   0
Ga1      0.333333333   0.833333333   0.500000000    0   0   0
Ga1     -0.000000782   0.000000112   0.593916279
Ga1      0.499859402   0.000283589   0.599403618
Ga1      0.000282937   0.499857760   0.599403890
Ga1      0.499858076   0.499859561   0.599403947
H1      -0.000000083  -0.000000130   0.657098912

     Writing output data file calc.save
     Check: negative starting charge=   -0.001259
     NEW-OLD atomic charge density approx. for the potential
     Check: negative starting charge=   -0.001240

[...]

     Total force =     0.017652     Total SCF correction =     0.006247
     SCF correction compared to forces is large: reduce conv_thr to get better values

[...]

     energy   old            =   -5000.1454416566 Ry
     energy   new            =   -5000.2035949244 Ry

     CASE: energy  _new < energy  _old

[...]

     WARNING: bfgs curvature condition failed, Theta= 0.644
     new trust radius        =       0.0068088388 bohr
     new conv_thr            =       0.0000001000 Ry

[...]

     WARNING: info= 31 for Hessian
     new trust radius        =       0.0102132582 bohr
     new conv_thr            =       0.0000001000 Ry

[...]

     CASE: energy  _new > energy  _old

[...]

     Threshold (ethr) on eigenvalues was too large:
     Diagonalizing with lowered threshold

     Davidson diagonalization with overlap
     ethr =  2.57E-08,  avg # of iterations =  3.0

[...]

     Total force =     0.004250     Total SCF correction =     0.000059

[...]

     new trust radius        =       0.0001062269 bohr
     new conv_thr            =       0.0000001000 Ry

[...]

     CASE: energy  _new > energy  _old

     new trust radius        =       0.0000302459 bohr

     trust_radius < trust_radius_min

     resetting bfgs history

     new conv_thr            =       0.0000001000 Ry

[...]

     number of scf cycles    =  20
     number of bfgs steps    =  13

     energy   old            =   -5000.2052574665 Ry
     energy   new            =   -5000.2052742675 Ry

     CASE: energy  _new < energy  _old

     WARNING: bfgs curvature condition failed, Theta= 0.973
     new trust radius        =       0.0034288180 bohr
     new conv_thr            =       0.0000001000 Ry

ATOMIC_POSITIONS (crystal)
Ga1      0.166666667   0.166666667   0.400460194    0   0   0
Ga1      0.666666667   0.166666667   0.400460194    0   0   0
Ga1      0.166666667   0.666666667   0.400460194    0   0   0
Ga1      0.666666667   0.666666667   0.400460194    0   0   0
Ga1      0.833333333   0.333333333   0.500000000    0   0   0
Ga1      0.333333333   0.333333333   0.500000000    0   0   0
Ga1      0.833333333   0.833333333   0.500000000    0   0   0
Ga1      0.333333333   0.833333333   0.500000000    0   0   0
Ga1     -0.000000839  -0.000000786   0.593510781
Ga1      0.497064935   0.005870335   0.595447726
Ga1      0.005868508   0.497065022   0.595448611
Ga1      0.497065163   0.497067090   0.595451124
H1       0.000000322  -0.000000004   0.657409145

     Writing output data file calc.save
     Check: negative starting charge=   -0.001224
     NEW-OLD atomic charge density approx. for the potential
     Check: negative starting charge=   -0.001224

[...]

     Self-consistent Calculation

[...]

     Threshold (ethr) on eigenvalues was too large:
     Diagonalizing with lowered threshold

     Davidson diagonalization with overlap
     ethr =  2.96E-09,  avg # of iterations =  4.5

[...]

     total energy              =   -5000.20529467 Ry
     Harris-Foulkes estimate   =   -5000.20529468 Ry
     estimated scf accuracy    <       0.00000037 Ry

     iteration #  5     ecut=    36.75 Ry     beta=0.30
     Davidson diagonalization with overlap
     ethr =  1.63E-10,  avg # of iterations =  2.9

[...]

     negative rho (up, down):  1.024E-03 0.000E+00

     Adding external electric field

     Computed dipole along edir(3) :
        Dipole               -0.1543 Ry au,         -0.3921 Debye
        Dipole field         -0.0004 Ry au

        Potential amp.        0.0330 Ry
        Total length         46.0091 bohr

     End of self-consistent calculation

[...]

          k = 0.0547-0.0632 0.0000 ( 20377 PWs)   bands (ev):

[...]

          k =-0.0821-0.0474 0.0000 ( 20384 PWs)   bands (ev):

   -94.8175 -94.8175 -94.8125 -94.8001 -94.8000 -94.8000 -94.7924 -94.7923
   -94.7802 -94.7798 -94.7795 -94.7793 -94.7792 -94.7791 -94.7787 -94.7782
   -94.7777 -94.7742 -94.7740 -94.7738 -94.7702 -94.7701 -94.7700 -94.7604
   -94.7603 -94.7603 -94.7395 -94.7389 -94.7385 -94.7375 -94.7373 -94.7371
   -94.7294 -94.7294 -94.7160 -94.7129 -15.2540 -15.2382 -15.2322 -15.2228
   -15.2191 -15.2108 -15.2100 -15.2023 -15.1904 -15.1886 -15.1829 -15.1767
   -15.1752 -15.1711 -15.1622 -15.1612 -15.1606 -15.1563 -15.1403 -15.1379
   -15.1377 -15.1375 -15.1361 -15.1282 -15.1210 -15.1173 -15.1155 -15.1125
   -15.1091 -15.1040 -15.0985 -15.0916 -15.0857 -15.0820 -15.0791 -15.0728
   -15.0678 -15.0664 -15.0641 -15.0614 -15.0562 -15.0557 -15.0485 -15.0464
   -15.0382 -15.0346 -15.0342 -15.0287 -15.0208 -15.0185 -15.0184 -15.0124
   -15.0034 -14.9985 -14.9849 -14.9833 -14.9822 -14.9654 -14.9553 -14.9526
    -8.9741  -8.8966  -7.5209  -7.3494  -6.2444  -6.1608  -5.5362  -5.0253
    -4.7585  -4.6738  -3.2417  -2.6261  -1.8450  -0.9549  -0.6523  -0.6133
    -0.3188  -0.2775   0.1471   0.9270   0.9938   1.0460   1.4127   2.0209
     2.0852   2.1751   2.3352   2.3666

     the Fermi energy is    -0.0825 ev

!    total energy              =   -5000.20529472 Ry
     Harris-Foulkes estimate   =   -5000.20529467 Ry
     estimated scf accuracy    <       0.00000007 Ry

     The total energy is the sum of the following terms:

     one-electron contribution =  -27503.75397329 Ry
     hartree contribution      =   13754.84642702 Ry
     xc contribution           =    -597.27414824 Ry
     ewald contribution        =    9346.00899239 Ry
     electric field correction =       0.00005529 Ry
     smearing contrib. (-TS)   =      -0.03264788 Ry

     convergence has been achieved in   5 iterations

 BEEF-vdW xc energy contributions
           1 :   -534.061348416944
           2 :    484.926149301088
           3 :   -402.504734599652
           4 :    310.723389029052
           5 :   -230.814303276261
           6 :    173.327243575068
           7 :   -136.575052718141
           8 :    111.333658208104
           9 :   -88.2415764947191
          10 :    63.2978457275358
          11 :   -38.6751517429570
          12 :    19.3289445234076
          13 :   -8.42772129403568
          14 :    4.87812910630805
          15 :   -4.30326434647850
          16 :    2.27076570349402
          17 :    2.81742135092736
          18 :   -9.18790621037761
          19 :    13.6091716381634
          20 :   -14.1012374022592
          21 :    11.3956539037829
          22 :   -8.21957004169917
          23 :    7.14849650502788
          24 :   -8.75168687603104
          25 :    11.3826530577758
          26 :   -12.6400121839745
          27 :    11.2789595423928
          28 :   -8.11136150801610
          29 :    5.28893230275116
          30 :   -4.61388022850133
          31 :   -39.3411106788529
          32 :   -26.7173734169306

     Forces acting on atoms (Ry/au):

     negative rho (up, down):  1.024E-03 0.000E+00
     atom    1 type  1   force =     0.00194122    0.00112072    0.00458437
     atom    2 type  1   force =    -0.00194124    0.00112081    0.00458472
     atom    3 type  1   force =    -0.00000006   -0.00224155    0.00458473
     atom    4 type  1   force =     0.00000001    0.00000004   -0.00209023
     atom    5 type  1   force =    -0.00000110    0.00210632   -0.00006830
     atom    6 type  1   force =     0.00000115    0.00000115   -0.01277804
     atom    7 type  1   force =    -0.00182342   -0.00105319   -0.00006966
     atom    8 type  1   force =     0.00182332   -0.00105420   -0.00006870
     atom    9 type  1   force =     0.00000008    0.00000017    0.00073111
     atom   10 type  1   force =    -0.00000022   -0.00192598   -0.00002596
     atom   11 type  1   force =    -0.00166791    0.00096285   -0.00002760
     atom   12 type  1   force =     0.00166819    0.00096282   -0.00003155
     atom   13 type  2   force =    -0.00000001    0.00000003    0.00067511

     Total force =     0.003482     Total SCF correction =     0.001114
     SCF correction compared to forces is large: reduce conv_thr to get better values

     entering subroutine stress ...

     negative rho (up, down):  1.024E-03 0.000E+00
          total   stress  (Ry/bohr**3)                   (kbar)     P=   -5.34
  -0.00004675  -0.00000000   0.00000000         -6.88     -0.00      0.00
  -0.00000000  -0.00004675   0.00000000         -0.00     -6.88      0.00
   0.00000000   0.00000000  -0.00001537          0.00      0.00     -2.26

     bfgs converged in  21 scf cycles and  14 bfgs steps
     (criteria: energy <  1.0E+00, force <  1.9E-03)

     End of BFGS Geometry Optimization

     Final energy   =   -5000.2052947195 Ry
Begin final coordinates

ATOMIC_POSITIONS (crystal)
Ga1      0.166666667   0.166666667   0.400460194    0   0   0
Ga1      0.666666667   0.166666667   0.400460194    0   0   0
Ga1      0.166666667   0.666666667   0.400460194    0   0   0
Ga1      0.666666667   0.666666667   0.400460194    0   0   0
Ga1      0.833333333   0.333333333   0.500000000    0   0   0
Ga1      0.333333333   0.333333333   0.500000000    0   0   0
Ga1      0.833333333   0.833333333   0.500000000    0   0   0
Ga1      0.333333333   0.833333333   0.500000000    0   0   0
Ga1     -0.000000839  -0.000000786   0.593510781
Ga1      0.497064935   0.005870335   0.595447726
Ga1      0.005868508   0.497065022   0.595448611
Ga1      0.497065163   0.497067090   0.595451124
H1       0.000000322  -0.000000004   0.657409145
End final coordinates

     Writing output data file calc.save

     General routines

     Parallel routines

   This run was terminated on:  20:18:38   3May2018

   JOB DONE.
Job  /afs/slac/g/suncat/bin/suncat-tsmpirun -x LD_LIBRARY_PATH -wdir /scratch/qe800311_rFgjm pw.x -npool 4 -in pw.inp

TID   HOST_NAME   COMMAND_LINE            STATUS            TERMINATION_TIME
00000 suncat0030 pw.x -npool 4 -i  Done                     05/03/2018 20:18:38
00001 suncat0030 pw.x -npool 4 -i  Done                     05/03/2018 20:18:38
00002 suncat0030 pw.x -npool 4 -i  Done                     05/03/2018 20:18:38
00003 suncat0030 pw.x -npool 4 -i  Done                     05/03/2018 20:18:38
00004 suncat0030 pw.x -npool 4 -i  Done                     05/03/2018 20:18:38
00005 suncat0030 pw.x -npool 4 -i  Done                     05/03/2018 20:18:38
00006 suncat0030 pw.x -npool 4 -i  Done                     05/03/2018 20:18:38
00007 suncat0030 pw.x -npool 4 -i  Done                     05/03/2018 20:18:38
00008 suncat0019 pw.x -npool 4 -i  Done                     05/03/2018 20:18:38
00009 suncat0019 pw.x -npool 4 -i  Done                     05/03/2018 20:18:38
00010 suncat0019 pw.x -npool 4 -i  Done                     05/03/2018 20:18:38
00011 suncat0019 pw.x -npool 4 -i  Done                     05/03/2018 20:18:38
00012 suncat0019 pw.x -npool 4 -i  Done                     05/03/2018 20:18:38
00013 suncat0019 pw.x -npool 4 -i  Done                     05/03/2018 20:18:38
00014 suncat0019 pw.x -npool 4 -i  Done                     05/03/2018 20:18:38
00015 suncat0019 pw.x -npool 4 -i  Done                     05/03/2018 20:18:38
00016 suncat0161 pw.x -npool 4 -i  Done                     05/03/2018 20:18:38
00017 suncat0161 pw.x -npool 4 -i  Done                     05/03/2018 20:18:38
00018 suncat0161 pw.x -npool 4 -i  Done                     05/03/2018 20:18:38
00019 suncat0161 pw.x -npool 4 -i  Done                     05/03/2018 20:18:38
00020 suncat0161 pw.x -npool 4 -i  Done                     05/03/2018 20:18:38
00021 suncat0161 pw.x -npool 4 -i  Done                     05/03/2018 20:18:38
00022 suncat0161 pw.x -npool 4 -i  Done                     05/03/2018 20:18:38
00023 suncat0161 pw.x -npool 4 -i  Done                     05/03/2018 20:18:38
00024 suncat0146 pw.x -npool 4 -i  Done                     05/03/2018 20:18:38
00025 suncat0146 pw.x -npool 4 -i  Done                     05/03/2018 20:18:38
00026 suncat0146 pw.x -npool 4 -i  Done                     05/03/2018 20:18:38
00027 suncat0146 pw.x -npool 4 -i  Done                     05/03/2018 20:18:38
00028 suncat0146 pw.x -npool 4 -i  Done                     05/03/2018 20:18:38
00029 suncat0146 pw.x -npool 4 -i  Done                     05/03/2018 20:18:38
00030 suncat0146 pw.x -npool 4 -i  Done                     05/03/2018 20:18:38
00031 suncat0146 pw.x -npool 4 -i  Done                     05/03/2018 20:18:38