     Program PWSCF v.5.1rc2 (svn rev. 11289) starts on 16Jan2018 at 16:47: 4

     Current dimensions of program PWSCF are:
     Max number of different atomic species (ntypx) = 10
     Max number of k-points (npk) =  40000
     Max angular momentum in pseudopotentials (lmaxx) =  3
     Presently stress not available with electric field

     IMPORTANT: XC functional enforced from input :
     Exchange-correlation      = BEEF-VDW ( 1  4 27 13 2)
     Any further DFT definition will be discarded
     Please, verify this is what you really want

     Subspace diagonalization in iterative solution of the eigenvalue problem:
     a serial algorithm will be used

     bravais-lattice index     =            0
     lattice parameter (alat)  =       1.8897  a.u.
     unit-cell volume          =    4198.3539 (a.u.)^3
     number of atoms/cell      =           13
     number of atomic types    =            2
     number of electrons       =       193.00
     number of Kohn-Sham states=          106
     kinetic-energy cutoff     =      36.7493  Ry
     charge density cutoff     =     367.4932  Ry
     convergence threshold     =      1.0E-05
     mixing beta               =       0.3000
     number of iterations used =           10  plain     mixing
     Exchange-correlation      = BEEF-VDW ( 1  4 27 13 2)
     nstep                     =           50

     celldm(1)=   1.889726  celldm(2)=   0.000000  celldm(3)=   0.000000
     celldm(4)=   0.000000  celldm(5)=   0.000000  celldm(6)=   0.000000

     crystal axes: (cart. coord. in units of alat)
               a(1) = (   5.422927   0.000000   0.000000 )
               a(2) = (   2.711463   4.696392   0.000000 )
               a(3) = (   0.000000   0.000000  24.427801 )

     reciprocal axes: (cart. coord. in units 2 pi/alat)
               b(1) = (  0.184402 -0.106465  0.000000 )
               b(2) = (  0.000000  0.212929  0.000000 )
               b(3) = (  0.000000  0.000000  0.040937 )

     PseudoPot. # 1 for Ru read from file:
     /afs/slac.stanford.edu/u/if/mamunm/psp/gbrv1.5pbe/Ru.UPF
     MD5 check sum: 7158a806dd851261a58e6920c40ebe78
     Pseudo is Ultrasoft + core correction, Zval = 16.0
     Generated by new atomic code, or converted to UPF format
     Using radial grid of  967 points,  6 beta functions with:
                l(1) =   0
                l(2) =   0
                l(3) =   1
                l(4) =   1
                l(5) =   2
                l(6) =   2
     Q(r) pseudized with  8 coefficients,  rinner =    1.300   1.300   1.300
                                                       1.300   1.300

     PseudoPot. # 2 for H  read from file:
     /afs/slac.stanford.edu/u/if/mamunm/psp/gbrv1.5pbe/H.UPF
     MD5 check sum: 761ae9a214b05c3daf00ab9f6b793d6f
     Pseudo is Ultrasoft, Zval =  1.0
     Generated by new atomic code, or converted to UPF format
     Using radial grid of  615 points,  2 beta functions with:
                l(1) =   0
                l(2) =   0
     Q(r) pseudized with  8 coefficients,  rinner =    0.700

     vdW kernel table read from file vdW_kernel_table
     MD5 check sum: 095c7af220d748ca6e76c0b4c6cfb241

     atomic species   valence    mass     pseudopotential
        Ru1           16.00   101.07000     Ru( 1.00)
        H1             1.00     1.00800     H ( 1.00)

     No symmetry found

   Cartesian axes

     site n.     atom                  positions (alat units)
         1           Ru1 tau(   1) = (   1.3557316   0.7827320  10.0000000  )
         2           Ru1 tau(   2) = (   4.0671949   0.7827320  10.0000000  )
         3           Ru1 tau(   3) = (   2.7114633   3.1309281  10.0000000  )
         4           Ru1 tau(   4) = (   5.4229265   3.1309281  10.0000000  )
         5           Ru1 tau(   5) = (   5.4229265   1.5654640  12.2139005  )
         6           Ru1 tau(   6) = (   2.7114633   1.5654640  12.2139005  )
         7           Ru1 tau(   7) = (   6.7786581   3.9136601  12.2139005  )
         8           Ru1 tau(   8) = (   4.0671949   3.9136601  12.2139005  )
         9           Ru1 tau(   9) = (   0.0000000   0.0000000  14.4278010  )
        10           Ru1 tau(  10) = (   2.7114633   0.0000000  14.4278010  )
        11           Ru1 tau(  11) = (   1.3557316   2.3481961  14.4278010  )
        12           Ru1 tau(  12) = (   4.0671949   2.3481961  14.4278010  )
        13           H1  tau(  13) = (   2.7114633   1.5654640  16.1978010  )

     number of k points=    20  Fermi-Dirac smearing, width (Ry)=  0.0110
                       cart. coord. in units 2pi/alat
        k(    1) = (   0.0000000   0.0000000   0.0000000), wk =   0.0555556
        k(    2) = (   0.0000000   0.0354882   0.0000000), wk =   0.1111111
        k(    3) = (   0.0000000   0.0709765   0.0000000), wk =   0.1111111
        k(    4) = (   0.0000000  -0.1064647   0.0000000), wk =   0.0555556
        k(    5) = (   0.0307337  -0.0177441   0.0000000), wk =   0.1111111
        k(    6) = (   0.0307337   0.0177441   0.0000000), wk =   0.1111111
        k(    7) = (   0.0307337   0.0532324   0.0000000), wk =   0.1111111
        k(    8) = (   0.0307337  -0.1242088   0.0000000), wk =   0.1111111
        k(    9) = (   0.0307337  -0.0887206   0.0000000), wk =   0.1111111
        k(   10) = (   0.0307337  -0.0532324   0.0000000), wk =   0.1111111
        k(   11) = (   0.0614674  -0.0354882   0.0000000), wk =   0.1111111
        k(   12) = (   0.0614674   0.0000000   0.0000000), wk =   0.1111111
        k(   13) = (   0.0614674   0.0354882   0.0000000), wk =   0.1111111
        k(   14) = (   0.0614674  -0.1419529   0.0000000), wk =   0.1111111
        k(   15) = (   0.0614674  -0.1064647   0.0000000), wk =   0.1111111
        k(   16) = (   0.0614674  -0.0709765   0.0000000), wk =   0.1111111
        k(   17) = (  -0.0922011   0.0532324   0.0000000), wk =   0.0555556
        k(   18) = (  -0.0922011   0.0887206   0.0000000), wk =   0.1111111
        k(   19) = (  -0.0922011   0.1242088   0.0000000), wk =   0.1111111
        k(   20) = (  -0.0922011  -0.0532324   0.0000000), wk =   0.0555556

     Largest allocated arrays     est. size (Mb)     dimensions
     Largest temporary arrays     est. size (Mb)     dimensions

     Initial potential from superposition of free atoms
     Check: negative starting charge=   -0.873644

     starting charge  180.99980, renormalised to  193.00000

     negative rho (up, down):  9.316E-01 0.000E+00

     *
     * You are using vdW-DF for exchange-correlation in this calculation.
     * Please cite the following three references that made this development
     * possible:
     *
     *   M. Dion, H. Rydberg, E. Schroder, D. C. Langreth, and
     *   B. I. Lundqvist, Phys. Rev. Lett. 92, 246401 (2004).
     *
     *   T. Thonhauser, V. R. Cooper, S. Li, A. Puzder, P. Hyldgaard, and
     *   D. C. Langreth, Phys. Rev. B 76, 125112 (2007).
     *
     *   G. Roman-Perez and J. M. Soler, Phys. Rev. Lett. 103, 096102 (2009).
     *
     *
     * If you are using vdW-DF2, please also cite:
     *
     *   K. Lee, E. D. Murray, L. Kong, B. I. Lundqvist, and
     *   D. C. Langreth, Phys. Rev. B 82, 081101(R) (2010).
     *
     *
     * If you are calculating the stress with vdW-DF, please also cite:
     *
     *   R. Sabatini, E. Kucukbenli, B. Kolb, T. Thonhauser, and
     *   S. de Gironcoli, J. Phys.: Condens. Matter 24, 424209 (2012).
     *

     Carrying out vdW-DF run using the following parameters:

     Nqs =      20    Nr_points =    1024   r_max =   100.000
     q_mesh =
               0.00001000     0.04494208     0.09755937     0.15916263
               0.23128650     0.31572767     0.41458969     0.53033537
               0.66584808     0.82450364     1.01025438     1.22772762
               1.48234092     1.78043706     2.12944203     2.53805004
               3.01644009     3.57652955     4.23227104     5.00000000

     Gradients computed in reciprocal space

     Adding external electric field

     Computed dipole along edir(3) :
        Dipole               -0.4991 Ry au,         -1.2685 Debye
        Dipole field         -0.0015 Ry au

        Potential amp.        0.1345 Ry
        Total length         45.0078 bohr

     Starting wfc are  157 randomized atomic wfcs

     Self-consistent Calculation

     iteration #  1     ecut=    36.75 Ry     beta=0.30
     Davidson diagonalization with overlap
     ethr =  1.00E-02,  avg # of iterations =  2.6

[...]

     total energy              =   -2334.32823844 Ry
     Harris-Foulkes estimate   =   -2347.63539165 Ry
     estimated scf accuracy    <      29.76565305 Ry

[...]

     End of self-consistent calculation

          k = 0.0000 0.0000 0.0000 ( 15761 PWs)   bands (ev):

   -71.0781 -70.9869 -70.9558 -70.9555 -70.6388 -70.5844 -70.5502 -70.5500
   -70.5111 -70.4906 -70.4903 -70.4794 -41.3475 -41.3473 -41.3403 -41.1821
   -41.0989 -41.0655 -41.0653 -40.8849 -40.8610 -40.8608 -40.7935 -40.7934
   -40.7741 -40.7320 -40.7061 -40.7059 -40.6112 -40.6112 -40.5520 -40.4712
   -40.4711 -40.4371 -40.3899 -40.3898 -40.3839 -40.3629 -40.3540 -40.3539
   -40.3537 -40.3082 -40.3023 -40.3022 -40.1901 -40.1901 -40.1417 -40.1417
    -4.5500  -3.3676  -3.2942  -3.2942  -3.2240  -3.1088  -2.9363  -2.9226
    -2.9225  -2.6739  -2.6632  -2.6631  -2.3591  -2.2997  -2.2996  -1.5102
    -1.1518  -1.1517  -0.7266  -0.5508  -0.5508  -0.3741  -0.2452  -0.1775
    -0.1775   0.2279   0.2279   0.2635   0.2636   0.2761   0.4929   0.4929
     0.6240   0.9752   0.9753   1.0053   1.8793   1.8794   1.8856   2.0085
     2.0240   2.0241   2.0306   2.0306   2.6206   2.6206   2.7688   3.1595
     3.1595   3.1929   3.2585   3.2585   3.2710   3.4327   3.4327   3.7736
     3.7737   3.7847

[...]

          k =-0.0922 0.0532 0.0000 ( 15808 PWs)   bands (ev):

[...]

     the Fermi energy is     2.2210 ev

!    total energy              =   -2342.37724085 Ry
     Harris-Foulkes estimate   =   -2342.37724502 Ry
     estimated scf accuracy    <       0.00000143 Ry

     The total energy is the sum of the following terms:

     one-electron contribution =  -21880.87598933 Ry
     hartree contribution      =   10939.35507151 Ry
     xc contribution           =    -322.36291593 Ry
     ewald contribution        =    8921.59307379 Ry
     electric field correction =       0.00001433 Ry
     smearing contrib. (-TS)   =      -0.08649522 Ry

     convergence has been achieved in  20 iterations

 BEEF-vdW xc energy contributions
           1 :   -279.583581707385
           2 :    256.649474442287
           3 :   -216.931245050819
           4 :    170.269479455435
           5 :   -126.697047826541
           6 :    93.3666643466944
           7 :   -72.8924912319417
           8 :    63.4973307980697
           9 :   -60.6400496018978
          10 :    59.2897781052660
          11 :   -55.8856055880468
          12 :    49.2965418948853
          13 :   -40.6109742037942
          14 :    32.0783712366018
          15 :   -25.7990704427478
          16 :    22.7430486456275
          17 :   -22.4446743057862
          18 :    23.3929426179394
          19 :   -23.8455535069583
          20 :    22.6485903463612
          21 :   -19.6880006471357
[...]

[...]

     Total force =     0.089569     Total SCF correction =     0.009395
     SCF correction compared to forces is large: reduce conv_thr to get better values

[...]

   This run was terminated on:  17:14:32  16Jan2018

[...]

     Program PWSCF v.5.1rc2 (svn rev. 11289) starts on 16Jan2018 at 17:14:37

[...]

     Total force =     0.095602     Total SCF correction =     0.007179

[...]

   This run was terminated on:  17:55:21  16Jan2018

[...]

   This run was terminated on:  18: 8:10  16Jan2018

[...]

     Program PWSCF v.5.1rc2 (svn rev. 11289) starts on 16Jan2018 at 18: 8:16

[...]

   This run was terminated on:  18:21: 7  16Jan2018

[...]

     Program PWSCF v.5.1rc2 (svn rev. 11289) starts on 16Jan2018 at 18:21:13

     Current dimensions of program PWSCF are:
     Max number of different atomic species (ntypx) = 10
     Max number of k-points (npk) =  40000
     Max angular momentum in pseudopotentials (lmaxx) =  3
     Presently stress not available with electric field

     IMPORTANT: XC functional enforced from input :
     Exchange-correlation      = BEEF-VDW ( 1  4 27 13 2)
     Any further DFT definition will be discarded
     Please, verify this is what you really want

     Subspace diagonalization in iterative solution of the eigenvalue problem:
     a serial algorithm will be used

     bravais-lattice index     =            0
     lattice parameter (alat)  =       1.8897  a.u.
     unit-cell volume          =    4198.3539 (a.u.)^3
     number of atoms/cell      =           13
     number of atomic types    =            2
     number of electrons       =       193.00
     number of Kohn-Sham states=          106
     kinetic-energy cutoff     =      36.7493  Ry
     charge density cutoff     =     367.4932  Ry
     convergence threshold     =      1.0E-05
     mixing beta               =       0.3000
     number of iterations used =           10  plain     mixing
     Exchange-correlation      = BEEF-VDW ( 1  4 27 13 2)
     nstep                     =           50

     celldm(1)=   1.889726  celldm(2)=   0.000000  celldm(3)=   0.000000
     celldm(4)=   0.000000  celldm(5)=   0.000000  celldm(6)=   0.000000

     crystal axes: (cart. coord. in units of alat)
               a(1) = (   5.422927   0.000000   0.000000 )
               a(2) = (   2.711463   4.696392   0.000000 )
               a(3) = (   0.000000   0.000000  24.427801 )

     reciprocal axes: (cart. coord. in units 2 pi/alat)
               b(1) = (  0.184402 -0.106465  0.000000 )
               b(2) = (  0.000000  0.212929  0.000000 )
               b(3) = (  0.000000  0.000000  0.040937 )

     PseudoPot. # 1 for Ru read from file:
     /afs/slac.stanford.edu/u/if/mamunm/psp/gbrv1.5pbe/Ru.UPF
     MD5 check sum: 7158a806dd851261a58e6920c40ebe78
     Pseudo is Ultrasoft + core correction, Zval = 16.0
     Generated by new atomic code, or converted to UPF format
     Using radial grid of  967 points,  6 beta functions with:
                l(1) =   0
                l(2) =   0
                l(3) =   1
                l(4) =   1
                l(5) =   2
                l(6) =   2
     Q(r) pseudized with  8 coefficients,  rinner =    1.300   1.300   1.300
                                                       1.300   1.300

     PseudoPot. # 2 for H  read from file:
     /afs/slac.stanford.edu/u/if/mamunm/psp/gbrv1.5pbe/H.UPF
     MD5 check sum: 761ae9a214b05c3daf00ab9f6b793d6f
     Pseudo is Ultrasoft, Zval =  1.0
     Generated by new atomic code, or converted to UPF format
     Using radial grid of  615 points,  2 beta functions with:
                l(1) =   0
                l(2) =   0
     Q(r) pseudized with  8 coefficients,  rinner =    0.700

     vdW kernel table read from file vdW_kernel_table
     MD5 check sum: 095c7af220d748ca6e76c0b4c6cfb241

     atomic species   valence    mass     pseudopotential
        Ru1           16.00   101.07000     Ru( 1.00)
        H1             1.00     1.00800     H ( 1.00)

     No symmetry found

   Cartesian axes

     site n.     atom                  positions (alat units)
         1           Ru1 tau(   1) = (   1.3557316   0.7827320  10.0000000  )
         2           Ru1 tau(   2) = (   4.0671949   0.7827320  10.0000000  )
         3           Ru1 tau(   3) = (   2.7114633   3.1309281  10.0000000  )
         4           Ru1 tau(   4) = (   5.4229265   3.1309281  10.0000000  )
         5           Ru1 tau(   5) = (   5.4229265   1.5654640  12.2139005  )
         6           Ru1 tau(   6) = (   2.7114633   1.5654640  12.2139005  )
         7           Ru1 tau(   7) = (   6.7786581   3.9136601  12.2139005  )
         8           Ru1 tau(   8) = (   4.0671949   3.9136601  12.2139005  )
         9           Ru1 tau(   9) = (   5.4229300   0.0000448  14.3064403  )
        10           Ru1 tau(  10) = (   5.4229425   4.6526455  14.3446835  )
        11           Ru1 tau(  11) = (   6.7407532   2.3700417  14.3446268  )
        12           Ru1 tau(  12) = (   4.1051208   2.3700442  14.3446099  )
        13           H1  tau(  13) = (   2.7114465   1.5655523  15.3420607  )

     number of k points=    20  Fermi-Dirac smearing, width (Ry)=  0.0110
                       cart. coord. in units 2pi/alat
        k(    1) = (   0.0000000   0.0000000   0.0000000), wk =   0.0555556
        k(    2) = (   0.0000000   0.0354882   0.0000000), wk =   0.1111111
        k(    3) = (   0.0000000   0.0709765   0.0000000), wk =   0.1111111
        k(    4) = (   0.0000000  -0.1064647   0.0000000), wk =   0.0555556
        k(    5) = (   0.0307337  -0.0177441   0.0000000), wk =   0.1111111
        k(    6) = (   0.0307337   0.0177441   0.0000000), wk =   0.1111111
        k(    7) = (   0.0307337   0.0532324   0.0000000), wk =   0.1111111
        k(    8) = (   0.0307337  -0.1242088   0.0000000), wk =   0.1111111
        k(    9) = (   0.0307337  -0.0887206   0.0000000), wk =   0.1111111
        k(   10) = (   0.0307337  -0.0532324   0.0000000), wk =   0.1111111
        k(   11) = (   0.0614674  -0.0354882   0.0000000), wk =   0.1111111
        k(   12) = (   0.0614674   0.0000000   0.0000000), wk =   0.1111111
        k(   13) = (   0.0614674   0.0354882   0.0000000), wk =   0.1111111
        k(   14) = (   0.0614674  -0.1419529   0.0000000), wk =   0.1111111
        k(   15) = (   0.0614674  -0.1064647   0.0000000), wk =   0.1111111
        k(   16) = (   0.0614674  -0.0709765   0.0000000), wk =   0.1111111
        k(   17) = (  -0.0922011   0.0532324   0.0000000), wk =   0.0555556
        k(   18) = (  -0.0922011   0.0887206   0.0000000), wk =   0.1111111
        k(   19) = (  -0.0922011   0.1242088   0.0000000), wk =   0.1111111
        k(   20) = (  -0.0922011  -0.0532324   0.0000000), wk =   0.0555556

     Largest allocated arrays     est. size (Mb)     dimensions
     Largest temporary arrays     est. size (Mb)     dimensions

     Initial potential from superposition of free atoms
     Check: negative starting charge=   -0.880500

     starting charge  180.99980, renormalised to  193.00000

[...]

     *
     * You are using vdW-DF for exchange-correlation in this calculation.
     * Please cite the following three references that made this development
     * possible:
     *
     *   M. Dion, H. Rydberg, E. Schroder, D. C. Langreth, and
     *   B. I. Lundqvist, Phys. Rev. Lett. 92, 246401 (2004).
     *
     *   T. Thonhauser, V. R. Cooper, S. Li, A. Puzder, P. Hyldgaard, and
     *   D. C. Langreth, Phys. Rev. B 76, 125112 (2007).
     *
     *   G. Roman-Perez and J. M. Soler, Phys. Rev. Lett. 103, 096102 (2009).
     *
     *
     * If you are using vdW-DF2, please also cite:
     *
     *   K. Lee, E. D. Murray, L. Kong, B. I. Lundqvist, and
     *   D. C. Langreth, Phys. Rev. B 82, 081101(R) (2010).
     *
     *
     * If you are calculating the stress with vdW-DF, please also cite:
     *
     *   R. Sabatini, E. Kucukbenli, B. Kolb, T. Thonhauser, and
     *   S. de Gironcoli, J. Phys.: Condens. Matter 24, 424209 (2012).
     *

     Carrying out vdW-DF run using the following parameters:

     Nqs =      20    Nr_points =    1024   r_max =   100.000
     q_mesh =
               0.00001000     0.04494208     0.09755937     0.15916263
               0.23128650     0.31572767     0.41458969     0.53033537
               0.66584808     0.82450364     1.01025438     1.22772762
               1.48234092     1.78043706     2.12944203     2.53805004
               3.01644009     3.57652955     4.23227104     5.00000000

     Gradients computed in reciprocal space

[...]

     Starting wfc are  157 randomized atomic wfcs

     Self-consistent Calculation

[...]

     total energy              =   -2342.45386332 Ry
     Harris-Foulkes estimate   =   -2342.45387262 Ry
     estimated scf accuracy    <       0.00009798 Ry

     iteration # 19     ecut=    36.75 Ry     beta=0.30
     Davidson diagonalization with overlap
     ethr =  3.39E-08,  avg # of iterations =  2.9

[...]

     negative rho (up, down):  9.167E-01 0.000E+00

     Adding external electric field

     Computed dipole along edir(3) :
        Dipole                0.0199 Ry au,          0.0507 Debye
        Dipole field          0.0001 Ry au

        Potential amp.       -0.0054 Ry
        Total length         45.0078 bohr

     End of self-consistent calculation

[...]

          k = 0.0615-0.0710 0.0000 ( 15803 PWs)   bands (ev):

[...]

          k =-0.0922-0.0532 0.0000 ( 15808 PWs)   bands (ev):

   -70.9455 -70.9363 -70.8907 -70.8780 -70.5402 -70.5119 -70.4834 -70.4397
   -70.3838 -70.3807 -70.3349 -70.3311 -41.1540 -41.1348 -41.0763 -41.0528
   -41.0018 -40.9779 -40.9331 -40.9252 -40.8785 -40.8706 -40.7045 -40.6287
   -40.6173 -40.6156 -40.5551 -40.5080 -40.5009 -40.4598 -40.4323 -40.4026
   -40.3883 -40.3676 -40.3675 -40.3364 -40.3253 -40.3196 -40.2812 -40.2748
   -40.2430 -40.2363 -40.2288 -40.2282 -40.2247 -40.1731 -40.0758 -40.0693
    -3.9469  -2.9802  -2.8889  -2.3993  -2.3763  -2.3265  -2.1674  -2.0818
    -2.0596  -1.8547  -1.8295  -1.7696  -1.7504  -1.3985  -1.3632  -1.3551
    -1.1576  -0.9525  -0.8950  -0.8118  -0.8005  -0.5813  -0.5697  -0.1553
    -0.0809   0.1545   0.1651   0.2656   0.2764   0.4244   0.4727   0.5134
     0.5736   0.6083   0.6143   0.6754   0.7394   0.7481   0.8090   0.8110
     1.2944   1.3431   1.5246   1.5739   1.6707   1.6857   1.9697   1.9711
     2.0228   2.2041   2.2872   2.2966   2.5149   2.6547   2.6621   2.7364
     2.7657   2.7804

     the Fermi energy is     2.3586 ev

!    total energy              =   -2342.45386588 Ry
     Harris-Foulkes estimate   =   -2342.45386756 Ry
     estimated scf accuracy    <       0.00000333 Ry

     The total energy is the sum of the following terms:

     one-electron contribution =  -22225.93034212 Ry
     hartree contribution      =   11112.38197822 Ry
     xc contribution           =    -322.73159317 Ry
     ewald contribution        =    9093.90672360 Ry
     electric field correction =       0.00000119 Ry
     smearing contrib. (-TS)   =      -0.08063360 Ry

     convergence has been achieved in  19 iterations

 BEEF-vdW xc energy contributions
           1 :   -279.964619975650
           2 :    257.170280030179
           3 :   -217.624068490844
           4 :    171.029812952623
           5 :   -127.335500297139
           6 :    93.7068883947115
           7 :   -72.8665003820829
           8 :    63.1871513195508
           9 :   -60.2424284168454
          10 :    59.0220748431730
          11 :   -55.8825374808926
          12 :    49.5509801446623
          13 :   -40.9868834171967
          14 :    32.3856672370036
          15 :   -25.8897868878956
          16 :    22.5814958855994
          17 :   -22.1200316978799
          18 :    23.0709118177233
          19 :   -23.6853178698931
          20 :    22.7268650073227
          21 :   -19.9653910709920
          22 :    16.1486158631157
          23 :   -12.5233230439171
          24 :    10.1772042380014
          25 :   -9.52720172914428
          26 :    10.1803327557046
          27 :   -11.1970472113860
          28 :    11.5933684802489
          29 :   -10.8173779577747
          30 :    8.97164227204428
          31 :   -29.0412270965235
          32 :   -22.0535685678917

     Forces acting on atoms (Ry/au):

     negative rho (up, down):  9.167E-01 0.000E+00
     atom    1 type  1   force =    -0.00004787   -0.00004268    0.02925541
     atom    2 type  1   force =     0.00005050   -0.00002948    0.02926536
     atom    3 type  1   force =     0.00001091    0.00006217    0.02930131
     atom    4 type  1   force =    -0.00000950    0.00000413    0.02376559
     atom    5 type  1   force =    -0.00000896   -0.00044617   -0.02698250
     atom    6 type  1   force =     0.00001935    0.00000958   -0.02888843
     atom    7 type  1   force =     0.00039648    0.00022617   -0.02698355
     atom    8 type  1   force =    -0.00038606    0.00021151   -0.02698465
     atom    9 type  1   force =     0.00001422   -0.00002016   -0.00044443
     atom   10 type  1   force =    -0.00002096    0.00005718   -0.00041489
     atom   11 type  1   force =     0.00004443   -0.00001291   -0.00039186
     atom   12 type  1   force =    -0.00007178   -0.00001280   -0.00037333
     atom   13 type  2   force =     0.00000924   -0.00000654   -0.00012403

     Total force =     0.078460     Total SCF correction =     0.009680
     SCF correction compared to forces is large: reduce conv_thr to get better values

     entering subroutine stress ...

     negative rho (up, down):  9.167E-01 0.000E+00
          total   stress  (Ry/bohr**3)                   (kbar)     P=  -22.10
  -0.00016525  -0.00000002  -0.00000001        -24.31     -0.00     -0.00
  -0.00000002  -0.00016526  -0.00000000         -0.00    -24.31     -0.00
  -0.00000001  -0.00000000  -0.00012026         -0.00     -0.00    -17.69

 !ASE

     Writing output data file calc.save

     General routines

     Parallel routines

   This run was terminated on:  18:34: 8  16Jan2018

   JOB DONE.
Job  /afs/slac/g/suncat/bin/suncat-tsmpirun -x LD_LIBRARY_PATH -wdir /scratch/qe842477_roKgb pw.x -in pw.inp

TID   HOST_NAME   COMMAND_LINE            STATUS            TERMINATION_TIME
00000 suncat0153 pw.x -in pw.inp   Done                     01/16/2018 18:34:08
00001 suncat0153 pw.x -in pw.inp   Done                     01/16/2018 18:34:08
00002 suncat0153 pw.x -in pw.inp   Done                     01/16/2018 18:34:08
00003 suncat0153 pw.x -in pw.inp   Done                     01/16/2018 18:34:08
00004 suncat0153 pw.x -in pw.inp   Done                     01/16/2018 18:34:08
00005 suncat0153 pw.x -in pw.inp   Done                     01/16/2018 18:34:08
00006 suncat0153 pw.x -in pw.inp   Done                     01/16/2018 18:34:08
00007 suncat0153 pw.x -in pw.inp   Done                     01/16/2018 18:34:08
00008 suncat0146 pw.x -in pw.inp   Done                     01/16/2018 18:34:08
00009 suncat0146 pw.x -in pw.inp   Done                     01/16/2018 18:34:08
00010 suncat0146 pw.x -in pw.inp   Done                     01/16/2018 18:34:08
00011 suncat0146 pw.x -in pw.inp   Done                     01/16/2018 18:34:08
00012 suncat0146 pw.x -in pw.inp   Done                     01/16/2018 18:34:08
00013 suncat0146 pw.x -in pw.inp   Done                     01/16/2018 18:34:08
00014 suncat0146 pw.x -in pw.inp   Done                     01/16/2018 18:34:08
00015 suncat0146 pw.x -in pw.inp   Done                     01/16/2018 18:34:08
00016 suncat0115 pw.x -in pw.inp   Done                     01/16/2018 18:34:08
00017 suncat0115 pw.x -in pw.inp   Done                     01/16/2018 18:34:08
00018 suncat0115 pw.x -in pw.inp   Done                     01/16/2018 18:34:08
00019 suncat0115 pw.x -in pw.inp   Done                     01/16/2018 18:34:08
00020 suncat0115 pw.x -in pw.inp   Done                     01/16/2018 18:34:08
00021 suncat0115 pw.x -in pw.inp   Done                     01/16/2018 18:34:08
00022 suncat0115 pw.x -in pw.inp   Done                     01/16/2018 18:34:08
00023 suncat0115 pw.x -in pw.inp   Done                     01/16/2018 18:34:08
00024 suncat0114 pw.x -in pw.inp   Done                     01/16/2018 18:34:08
00025 suncat0114 pw.x -in pw.inp   Done                     01/16/2018 18:34:08
00026 suncat0114 pw.x -in pw.inp   Done                     01/16/2018 18:34:08
00027 suncat0114 pw.x -in pw.inp   Done                     01/16/2018 18:34:08
00028 suncat0114 pw.x -in pw.inp   Done                     01/16/2018 18:34:08
00029 suncat0114 pw.x -in pw.inp   Done                     01/16/2018 18:34:08
00030 suncat0114 pw.x -in pw.inp   Done                     01/16/2018 18:34:08
00031 suncat0114 pw.x -in pw.inp   Done                     01/16/2018 18:34:08