     Program PWSCF v.6.1 starts on  9Jan2019 at 14:50:37

     Current dimensions of program PWSCF are:
     Max number of different atomic species (ntypx) = 10
     Max number of k-points (npk) =  40000
     Max angular momentum in pseudopotentials (lmaxx) =  3

     IMPORTANT: XC functional enforced from input :
     Exchange-correlation      = BEEF-VDW ( 1  4 29 14 2 0)
     Any further DFT definition will be discarded
     Please, verify this is what you really want

     bravais-lattice index     =            0
     lattice parameter (alat)  =       9.4723  a.u.
     unit-cell volume          =    3537.7769 (a.u.)^3
     number of atoms/cell      =           14
     number of atomic types    =            3
     number of electrons       =       211.00
     number of Kohn-Sham states=          115
     kinetic-energy cutoff     =      36.7493  Ry
     charge density cutoff     =     367.4933  Ry
     convergence threshold     =      1.0E-04
     mixing beta               =       0.1000
     number of iterations used =            8  plain     mixing
     Exchange-correlation      = BEEF-VDW ( 1  4 29 14 2 0)
     nstep                     =           50

     celldm(1)=   9.472344  celldm(2)=   0.000000  celldm(3)=   0.000000
     celldm(4)=   0.000000  celldm(5)=   0.000000  celldm(6)=   0.000000

     crystal axes: (cart. coord. in units of alat)
               a(1) = (   1.000000   0.000000   0.000000 )
               a(2) = (   0.500000   0.866025   0.000000 )
               a(3) = (   0.000000   0.000000   4.806483 )

     reciprocal axes: (cart. coord. in units 2 pi/alat)
               b(1) = (  1.000000 -0.577350  0.000000 )
               b(2) = (  0.000000  1.154701  0.000000 )
               b(3) = (  0.000000  0.000000  0.208052 )

     PseudoPot. # 1 for Co read from file:
     /home/users/jrboes/code/decaf-espresso/gbrv15pbe/Co.UPF
     MD5 check sum: 5f91765df6ddd3222702df6e7b74a16d
     Pseudo is Ultrasoft + core correction, Zval = 17.0
     Generated by new atomic code, or converted to UPF format
     Using radial grid of  863 points,  6 beta functions with:
                l(1) =   0
                l(2) =   0
                l(3) =   1
                l(4) =   1
                l(5) =   2
                l(6) =   2
     Q(r) pseudized with  8 coefficients,  rinner =    1.200   1.200   1.200
                                                       1.200   1.200

     PseudoPot. # 2 for O  read from file:
     /home/users/jrboes/code/decaf-espresso/gbrv15pbe/O.UPF
     MD5 check sum: 734c27235a0248c51dbae37a1fbe46ec
     Pseudo is Ultrasoft + core correction, Zval =  6.0
     Generated by new atomic code, or converted to UPF format
     Using radial grid of  737 points,  5 beta functions with:
                l(1) =   0
                l(2) =   0
                l(3) =   1
                l(4) =   1
                l(5) =   2
     Q(r) pseudized with  8 coefficients,  rinner =    0.900   0.900   0.900
                                                       0.900   0.900

     PseudoPot. # 3 for H  read from file:
     /home/users/jrboes/code/decaf-espresso/gbrv15pbe/H.UPF
     MD5 check sum: 761ae9a214b05c3daf00ab9f6b793d6f
     Pseudo is Ultrasoft, Zval =  1.0
     Generated by new atomic code, or converted to UPF format
     Using radial grid of  615 points,  2 beta functions with:
                l(1) =   0
                l(2) =   0
     Q(r) pseudized with  8 coefficients,  rinner =    0.700

     vdW kernel table read from file vdW_kernel_table
     MD5 check sum: 095c7af220d748ca6e76c0b4c6cfb241

     atomic species   valence    mass     pseudopotential
        Co            17.00    58.93319     Co( 1.00)
        O              6.00    15.99900     O ( 1.00)
        H              1.00     1.00800     H ( 1.00)

     Starting magnetic structure
     atomic species   magnetization
        Co           0.118
        O            0.000
        H            0.000

     No symmetry found

   Cartesian axes

     site n.     atom                  positions (alat units)
         1           Co  tau(   1) = (   0.2500000   0.1443376   1.9949931  )
         2           Co  tau(   2) = (   0.7500000   0.1443376   1.9949931  )
         3           Co  tau(   3) = (   0.5000000   0.5773503   1.9949931  )
         4           Co  tau(   4) = (   1.0000000   0.5773503   1.9949931  )
         5           Co  tau(   5) = (   1.0000000   0.2886751   2.4032414  )
         6           Co  tau(   6) = (   0.5000000   0.2886751   2.4032414  )
         7           Co  tau(   7) = (   1.2500000   0.7216878   2.4032414  )
         8           Co  tau(   8) = (   0.7500000   0.7216878   2.4032414  )
         9           Co  tau(   9) = (  -0.0119591   0.0010311   2.8112963  )
        10           Co  tau(  10) = (   0.5119727   0.0010397   2.8113317  )
        11           Co  tau(  11) = (   0.2500096   0.4334081   2.7942979  )
        12           Co  tau(  12) = (   0.7499970   0.4321386   2.7959681  )
        13           O   tau(  13) = (   0.2499932   0.0013018   3.1000375  )
        14           H   tau(  14) = (   0.2499781   0.0004982   3.2934328  )

     number of k points=    20  Fermi-Dirac smearing, width (Ry)=  0.0110
                       cart. coord. in units 2pi/alat
        k(    1) = (   0.0000000   0.0000000   0.0000000), wk =   0.0277778
        k(    2) = (   0.0000000   0.1924501   0.0000000), wk =   0.0555556
        k(    3) = (   0.0000000   0.3849002   0.0000000), wk =   0.0555556
        k(    4) = (   0.0000000  -0.5773503   0.0000000), wk =   0.0277778
        k(    5) = (   0.1666667  -0.0962250   0.0000000), wk =   0.0555556
        k(    6) = (   0.1666667   0.0962250   0.0000000), wk =   0.0555556
        k(    7) = (   0.1666667   0.2886751   0.0000000), wk =   0.0555556
        k(    8) = (   0.1666667  -0.6735753   0.0000000), wk =   0.0555556
        k(    9) = (   0.1666667  -0.4811252   0.0000000), wk =   0.0555556
        k(   10) = (   0.1666667  -0.2886751   0.0000000), wk =   0.0555556
        k(   11) = (   0.3333333  -0.1924501   0.0000000), wk =   0.0555556
        k(   12) = (   0.3333333  -0.0000000   0.0000000), wk =   0.0555556
        k(   13) = (   0.3333333   0.1924501   0.0000000), wk =   0.0555556
        k(   14) = (   0.3333333  -0.7698004   0.0000000), wk =   0.0555556
        k(   15) = (   0.3333333  -0.5773503   0.0000000), wk =   0.0555556
        k(   16) = (   0.3333333  -0.3849002   0.0000000), wk =   0.0555556
        k(   17) = (  -0.5000000   0.2886751   0.0000000), wk =   0.0277778
        k(   18) = (  -0.5000000   0.4811252   0.0000000), wk =   0.0555556
        k(   19) = (  -0.5000000   0.6735753   0.0000000), wk =   0.0555556
        k(   20) = (  -0.5000000  -0.2886751   0.0000000), wk =   0.0277778

     Check: negative/imaginary core charge=   -0.000007    0.000000

     Initial potential from superposition of free atoms
     Check: negative starting charge=(component1):   -0.000205
     Check: negative starting charge=(component2):   -0.000174

     starting charge  198.99991, renormalised to  211.00000

     negative rho (up, down):  2.177E-04 1.848E-04

     %%%%%%%%%%%%%%%%%%%%%%%%%%%%%%%%%%%%%%%%%%%%%%%%%%%%%%%%%%%%%%%%%%%%%%%%
     %                                                                      %
     % You are using vdW-DF, which was implemented by the Thonhauser group. %
     % Please cite the following two papers that made this development      %
     % possible and the two reviews that describe the various versions:     %
     %                                                                      %
     %   T. Thonhauser et al., PRL 115, 136402 (2015).                      %
     %   T. Thonhauser et al., PRB 76, 125112 (2007).                       %
     %   K. Berland et al., Rep. Prog. Phys. 78, 066501 (2015).             %
     %   D.C. Langreth et al., J. Phys.: Condens. Matter 21, 084203 (2009). %
     %                                                                      %
     %                                                                      %
     % If you are calculating the stress with vdW-DF, please also cite:     %
     %                                                                      %
     %   R. Sabatini et al., J. Phys.: Condens. Matter 24, 424209 (2012).   %
     %                                                                      %
     %%%%%%%%%%%%%%%%%%%%%%%%%%%%%%%%%%%%%%%%%%%%%%%%%%%%%%%%%%%%%%%%%%%%%%%%

     Adding external electric field

     Computed dipole along edir(3) :
        Dipole               -2.9075 Ry au,         -7.3901 Debye
        Dipole field         -0.0103 Ry au,

        Potential amp.        0.8464 Ry
        Total length         40.9758 bohr

[...]

     Starting wfc are  161 randomized atomic wfcs

     Self-consistent Calculation

     iteration #  1     ecut=    36.75 Ry     beta=0.10
     Davidson diagonalization with overlap
     ethr =  1.00E-02,  avg # of iterations =  7.3

[...]

     total energy              =   -3437.53180734 Ry
     Harris-Foulkes estimate   =   -3654.17826762 Ry
     estimated scf accuracy    <    1188.11284192 Ry

     total magnetization       =     9.89 Bohr mag/cell
     absolute magnetization    =    10.54 Bohr mag/cell

[...]

     Magnetic moment per site:
     atom:    1    charge:   14.3006    magn:    1.6730    constr:    0.0000
     atom:    2    charge:   14.3010    magn:    1.6669    constr:    0.0000
     atom:    3    charge:   14.2994    magn:    1.6672    constr:    0.0000
     atom:    4    charge:   14.2998    magn:    1.6666    constr:    0.0000
     atom:    5    charge:   14.3095    magn:    1.6486    constr:    0.0000
     atom:    6    charge:   14.3093    magn:    1.6494    constr:    0.0000
     atom:    7    charge:   14.3110    magn:    1.4984    constr:    0.0000
     atom:    8    charge:   14.3036    magn:    1.6932    constr:    0.0000
     atom:    9    charge:   14.3121    magn:    1.5843    constr:    0.0000
     atom:   10    charge:   14.3096    magn:    1.5910    constr:    0.0000
     atom:   11    charge:   14.3233    magn:    1.6945    constr:    0.0000
     atom:   12    charge:   14.3239    magn:    1.7173    constr:    0.0000
     atom:   13    charge:    1.9595    magn:    0.0283    constr:    0.0000
     atom:   14    charge:    0.3964    magn:    0.0014    constr:    0.0000

     End of self-consistent calculation

 ------ SPIN UP ------------

          k = 0.0000 0.0000 0.0000 ( 13257 PWs)   bands (ev):

   -94.7385 -94.6999 -94.6865 -94.5924 -94.5676 -94.5409 -94.5364 -94.5099
   -94.5000 -94.4714 -94.4691 -94.4675 -58.1119 -58.0875 -58.0682 -58.0571
   -58.0272 -58.0060 -57.9967 -57.9720 -57.9117 -57.9111 -57.8973 -57.8678
   -57.8637 -57.8469 -57.8450 -57.8194 -57.8102 -57.8071 -57.7991 -57.7943
   -57.7867 -57.7852 -57.7788 -57.7560 -57.7538 -57.7298 -57.7160 -57.7062
   -57.6848 -57.6570 -57.6550 -57.6541 -57.6505 -57.6504 -57.6011 -57.6009
   -18.9515  -7.5603  -6.1363  -4.1836  -3.6803  -3.6286  -3.3682  -3.1712
    -3.1602  -3.0994  -2.9314  -2.8493  -2.8288  -2.6232  -2.6145  -2.5153
    -2.4390  -2.3864  -2.1631  -1.7878  -1.6744  -1.5364  -1.2641  -1.2478
    -1.1556  -1.1348  -1.0603  -1.0475  -1.0254  -0.9153  -0.8970  -0.8730
    -0.8718  -0.8177  -0.7006  -0.6976  -0.6120  -0.5693  -0.4322  -0.0974
    -0.0760  -0.0327  -0.0191   0.0317   0.0999   0.1544   0.2212   0.2548
     0.3256   0.5277   0.5468   0.5715   0.5728   0.6368   0.6528   0.6684
     0.8019   0.8466   0.8616   0.9300   0.9848   0.9870   1.0502   1.0586
     1.0759   1.0810   1.0988

[...]

          k =-0.5000 0.2887 0.0000 ( 13378 PWs)   bands (ev):

[...]

 ------ SPIN DOWN ----------

[...]

     the Fermi energy is     1.8183 ev

!    total energy              =   -3628.09243943 Ry
     Harris-Foulkes estimate   =   -3628.09258393 Ry
     estimated scf accuracy    <       0.00007622 Ry

     The total energy is the sum of the following terms:

     one-electron contribution =  -32261.32636618 Ry
     hartree contribution      =   16145.23291788 Ry
     xc contribution           =    -413.77969654 Ry
     ewald contribution        =   12901.85600522 Ry
     electric field correction =       0.00043536 Ry
     smearing contrib. (-TS)   =      -0.07573517 Ry

[...]

     convergence has been achieved in  33 iterations

[...]

     Forces acting on atoms (cartesian axes, Ry/au):

     atom    1 type  1   force =     0.00009395   -0.00014052    0.01049025
     atom    2 type  1   force =    -0.00007814   -0.00095992    0.01109555
     atom    3 type  1   force =     0.00014997    0.00085256    0.01225673
     atom    4 type  1   force =    -0.00017344    0.00092913    0.01225269
     atom    5 type  1   force =    -0.00146821   -0.00251546   -0.01037045
     atom    6 type  1   force =     0.00147162   -0.00277584   -0.01009408
     atom    7 type  1   force =    -0.00017802   -0.00079125   -0.00816018
     atom    8 type  1   force =     0.00022410    0.00164479   -0.00942344
     atom    9 type  1   force =     0.00191779    0.00127105   -0.00310730
     atom   10 type  1   force =    -0.00199696    0.00133629   -0.00308661
     atom   11 type  1   force =     0.00001669   -0.00129937   -0.00430585
     atom   12 type  1   force =    -0.00006626    0.00207818   -0.00465656
     atom   13 type  2   force =     0.00011624    0.00033094    0.00125507
     atom   14 type  3   force =    -0.00002933    0.00003943    0.00585419

     Total force =     0.010605     Total SCF correction =     0.040365
     SCF correction compared to forces is large: reduce conv_thr to get better values

     BFGS Geometry Optimization

     number of scf cycles    =   1
     number of bfgs steps    =   0

     energy   new            =   -3628.0924394312 Ry

     new trust radius        =       0.0058543949 bohr
     new conv_thr            =       0.0001000000 Ry

ATOMIC_POSITIONS (angstrom)
Co       1.253137179   0.723499088  10.000000000    0   0   0
Co       3.759411536   0.723499088  10.000000000    0   0   0
Co       2.506274358   2.893996350  10.000000000    0   0   0
Co       5.012548715   2.893996350  10.000000000    0   0   0
Co       5.012548715   1.446998175  12.046364444    0   0   0
Co       2.506274357   1.446998175  12.046364444    0   0   0
Co       6.265685894   3.617495438  12.046364444    0   0   0
Co       3.759411536   3.617495438  12.046364444    0   0   0
Co      -0.058930934   0.005840943  14.090115451
Co       2.565231262   0.005918920  14.090303603
Co       1.253194178   2.171791771  14.004275972
Co       3.759361279   2.167215277  14.012462291
O        1.253164809   0.006700439  15.539753046
H        1.253011807   0.002518103  16.511590436

     Writing output data file calc.save
     Check: negative starting charge=(component1):   -0.000379
     NEW-OLD atomic charge density approx. for the potential

     Check: negative/imaginary core charge=   -0.000007    0.000000
     Check: negative starting charge=(component1):   -0.000379

[...]

     number of scf cycles    =   2
     number of bfgs steps    =   1

     energy   old            =   -3628.0924394312 Ry
     energy   new            =   -3628.0924601722 Ry

     CASE: energy  _new < energy  _old

     new trust radius        =       0.0032084385 bohr
     new conv_thr            =       0.0000010000 Ry

ATOMIC_POSITIONS (angstrom)
Co       1.253137179   0.723499088  10.000000000    0   0   0
Co       3.759411536   0.723499088  10.000000000    0   0   0
Co       2.506274358   2.893996350  10.000000000    0   0   0
Co       5.012548715   2.893996350  10.000000000    0   0   0
Co       5.012548715   1.446998175  12.046364444    0   0   0
Co       2.506274357   1.446998175  12.046364444    0   0   0
Co       6.265685894   3.617495438  12.046364444    0   0   0
Co       3.759411536   3.617495438  12.046364444    0   0   0
Co      -0.059369424   0.006158776  14.091535838
Co       2.565650983   0.006239600  14.091669653
Co       1.253184539   2.172166142  14.005762451
Co       3.759362783   2.167225684  14.014018344
O        1.253168444   0.006732042  15.539405528
H        1.253009813   0.002504672  16.509892658

     Writing output data file calc.save
     Check: negative starting charge=(component1):   -0.000379
     NEW-OLD atomic charge density approx. for the potential

     Check: negative/imaginary core charge=   -0.000007    0.000000
     Check: negative starting charge=(component1):   -0.000379

[...]

     Self-consistent Calculation

[...]

     total energy              =   -3628.09252482 Ry
     Harris-Foulkes estimate   =   -3628.09252445 Ry
     estimated scf accuracy    <       0.00000170 Ry

[...]

     iteration # 16     ecut=    36.75 Ry     beta=0.10
     Davidson diagonalization with overlap
     ethr =  8.04E-10,  avg # of iterations =  2.7

[...]

     Adding external electric field

     Computed dipole along edir(3) :
        Dipole                0.3909 Ry au,          0.9936 Debye
        Dipole field          0.0014 Ry au,

        Potential amp.       -0.1138 Ry
        Total length         40.9758 bohr

     Magnetic moment per site:
     atom:    1    charge:   14.3008    magn:    1.6787    constr:    0.0000
     atom:    2    charge:   14.3006    magn:    1.6731    constr:    0.0000
     atom:    3    charge:   14.3001    magn:    1.6717    constr:    0.0000
     atom:    4    charge:   14.3001    magn:    1.6717    constr:    0.0000
     atom:    5    charge:   14.3092    magn:    1.6446    constr:    0.0000
     atom:    6    charge:   14.3091    magn:    1.6449    constr:    0.0000
     atom:    7    charge:   14.3110    magn:    1.4889    constr:    0.0000
     atom:    8    charge:   14.3041    magn:    1.6879    constr:    0.0000
     atom:    9    charge:   14.3083    magn:    1.6012    constr:    0.0000
     atom:   10    charge:   14.3082    magn:    1.6023    constr:    0.0000
     atom:   11    charge:   14.3232    magn:    1.6984    constr:    0.0000
     atom:   12    charge:   14.3231    magn:    1.7217    constr:    0.0000
     atom:   13    charge:    1.9590    magn:    0.0286    constr:    0.0000
     atom:   14    charge:    0.3967    magn:    0.0015    constr:    0.0000

     End of self-consistent calculation

 ------ SPIN UP ------------

[...]

 ------ SPIN DOWN ----------

[...]

          k = 0.3333-0.3849 0.0000 ( 13313 PWs)   bands (ev):

[...]

          k =-0.5000-0.2887 0.0000 ( 13378 PWs)   bands (ev):

   -92.4081 -92.3503 -92.3451 -92.3310 -92.3235 -92.3157 -92.1289 -92.1263
   -92.1203 -92.1125 -92.1118 -92.1086 -55.8521 -55.8209 -55.7895 -55.7809
   -55.7520 -55.7425 -55.7348 -55.7210 -55.7163 -55.7114 -55.7061 -55.6866
   -55.6683 -55.6599 -55.6391 -55.6080 -55.6069 -55.5716 -55.5624 -55.5531
   -55.4980 -55.4951 -55.4920 -55.4822 -55.4772 -55.4763 -55.4691 -55.4563
   -55.4366 -55.4336 -55.4221 -55.4211 -55.4201 -55.4163 -55.4059 -55.3998
   -18.8504  -7.2873  -4.6679  -4.4448  -3.5062  -3.1257  -2.6053  -2.3875
    -1.9176  -1.8521  -1.4244  -1.3709  -1.3521  -1.2912  -0.8264  -0.7988
    -0.7097  -0.6577  -0.4594  -0.4261  -0.1862  -0.1735  -0.1523  -0.1118
    -0.0799  -0.0406   0.2077   0.2925   0.4124   0.4307   0.4489   0.5124
     0.5395   0.6120   0.6623   0.7697   0.8984   0.9113   0.9401   0.9834
     1.0841   1.1835   1.2508   1.4835   1.5258   1.5909   1.6116   1.7226
     1.7369   1.8415   1.8796   1.9076   1.9555   2.0057   2.0349   2.1112
     2.2262   2.2812   2.3287   2.3465   2.4332   2.5829   2.7033   2.7655
     2.7794   2.8897   2.9158

     the Fermi energy is     1.7964 ev

!    total energy              =   -3628.09252503 Ry
     Harris-Foulkes estimate   =   -3628.09252551 Ry
     estimated scf accuracy    <       0.00000068 Ry

     The total energy is the sum of the following terms:

     one-electron contribution =  -32263.00748157 Ry
     hartree contribution      =   16145.96113069 Ry
     xc contribution           =    -413.77117928 Ry
     ewald contribution        =   12902.80003293 Ry
     electric field correction =       0.00054282 Ry
     smearing contrib. (-TS)   =      -0.07557063 Ry

     total magnetization       =    18.93 Bohr mag/cell
     absolute magnetization    =    22.06 Bohr mag/cell

     convergence has been achieved in  16 iterations

     negative rho (up, down):  6.243E-04 3.319E-04

     Forces acting on atoms (cartesian axes, Ry/au):

     atom    1 type  1   force =     0.00000264   -0.00001694    0.00922200
     atom    2 type  1   force =    -0.00000499   -0.00106962    0.00988611
     atom    3 type  1   force =    -0.00015332    0.00073604    0.01110786
     atom    4 type  1   force =     0.00015576    0.00074326    0.01108975
     atom    5 type  1   force =    -0.00160206   -0.00322021   -0.01027929
     atom    6 type  1   force =     0.00159888   -0.00327028   -0.01027381
     atom    7 type  1   force =    -0.00005109    0.00003105   -0.00750672
     atom    8 type  1   force =     0.00003749    0.00215379   -0.00895664
     atom    9 type  1   force =     0.00071377    0.00141799   -0.00059675
     atom   10 type  1   force =    -0.00067299    0.00139102   -0.00070172
     atom   11 type  1   force =    -0.00002530   -0.00062994   -0.00112380
     atom   12 type  1   force =     0.00002573    0.00144494   -0.00129439
     atom   13 type  2   force =    -0.00002456    0.00027296    0.00018634
     atom   14 type  3   force =     0.00000004    0.00001594   -0.00075894

     Total force =     0.003445     Total SCF correction =     0.001751
     SCF correction compared to forces is large: reduce conv_thr to get better values

     bfgs converged in   3 scf cycles and   2 bfgs steps
     (criteria: energy <  1.0E+12 Ry, force <  1.9E-03 Ry/Bohr)

     End of BFGS Geometry Optimization

     Final energy   =   -3628.0925250345 Ry
Begin final coordinates

ATOMIC_POSITIONS (angstrom)
Co       1.253137179   0.723499088  10.000000000    0   0   0
Co       3.759411536   0.723499088  10.000000000    0   0   0
Co       2.506274358   2.893996350  10.000000000    0   0   0
Co       5.012548715   2.893996350  10.000000000    0   0   0
Co       5.012548715   1.446998175  12.046364444    0   0   0
Co       2.506274357   1.446998175  12.046364444    0   0   0
Co       6.265685894   3.617495438  12.046364444    0   0   0
Co       3.759411536   3.617495438  12.046364444    0   0   0
Co      -0.059369424   0.006158776  14.091535838
Co       2.565650983   0.006239600  14.091669653
Co       1.253184539   2.172166142  14.005762451
Co       3.759362783   2.167225684  14.014018344
O        1.253168444   0.006732042  15.539405528
H        1.253009813   0.002504672  16.509892658
End final coordinates

     Writing output data file calc.save

     General routines

     Parallel routines

   This run was terminated on:  15: 8:25   9Jan2019

   JOB DONE.