     Program PWSCF v.5.1rc2 (svn rev. 11289) starts on 18Apr2018 at  8: 4:31

     Current dimensions of program PWSCF are:
     Max number of different atomic species (ntypx) = 10
     Max number of k-points (npk) =  40000
     Max angular momentum in pseudopotentials (lmaxx) =  3
     Presently stress not available with electric field

     IMPORTANT: XC functional enforced from input :
     Exchange-correlation      = BEEF-VDW ( 1  4 27 13 2)
     Any further DFT definition will be discarded
     Please, verify this is what you really want

     Subspace diagonalization in iterative solution of the eigenvalue problem:
     a serial algorithm will be used

     bravais-lattice index     =            0
     lattice parameter (alat)  =       1.8897  a.u.
     unit-cell volume          =    6501.5726 (a.u.)^3
     number of atoms/cell      =           14
     number of atomic types    =            3
     number of electrons       =       161.00
     number of Kohn-Sham states=           90
     kinetic-energy cutoff     =      36.7493  Ry
     charge density cutoff     =     367.4932  Ry
     convergence threshold     =      1.0E-05
     mixing beta               =       0.3000
     number of iterations used =           10  plain     mixing
     Exchange-correlation      = BEEF-VDW ( 1  4 27 13 2)
     nstep                     =           50

     celldm(1)=   1.889726  celldm(2)=   0.000000  celldm(3)=   0.000000
     celldm(4)=   0.000000  celldm(5)=   0.000000  celldm(6)=   0.000000

     crystal axes: (cart. coord. in units of alat)
               a(1) = (   6.617606   0.000000   0.000000 )
               a(2) = (   3.308803   5.731015   0.000000 )
               a(3) = (   0.000000   0.000000  25.403253 )

     reciprocal axes: (cart. coord. in units 2 pi/alat)
               b(1) = (  0.151112 -0.087245  0.000000 )
               b(2) = (  0.000000  0.174489  0.000000 )
               b(3) = (  0.000000  0.000000  0.039365 )

     PseudoPot. # 1 for In read from file:
     /u/if/mamunm/psp/gbrv1.5pbe/In.UPF
     MD5 check sum: 90777abd96fbb83f2e67db2a40c566b9
     Pseudo is Ultrasoft + core correction, Zval = 13.0
     Generated by new atomic code, or converted to UPF format
     Using radial grid of  889 points,  6 beta functions with:
                l(1) =   0
                l(2) =   0
                l(3) =   1
                l(4) =   1
                l(5) =   2
                l(6) =   2
     Q(r) pseudized with  6 coefficients,  rinner =    1.400   1.400   1.400
                                                       1.400   1.400

     PseudoPot. # 2 for C  read from file:
     /u/if/mamunm/psp/gbrv1.5pbe/C.UPF
     MD5 check sum: d1aef80898a10debaa0f26306b886e00
     Pseudo is Ultrasoft + core correction, Zval =  4.0
     Generated by new atomic code, or converted to UPF format
     Using radial grid of  721 points,  4 beta functions with:
                l(1) =   0
                l(2) =   0
                l(3) =   1
                l(4) =   1
     Q(r) pseudized with  8 coefficients,  rinner =    1.100   1.100   1.100

     PseudoPot. # 3 for H  read from file:
     /u/if/mamunm/psp/gbrv1.5pbe/H.UPF
     MD5 check sum: 761ae9a214b05c3daf00ab9f6b793d6f
     Pseudo is Ultrasoft, Zval =  1.0
     Generated by new atomic code, or converted to UPF format
     Using radial grid of  615 points,  2 beta functions with:
                l(1) =   0
                l(2) =   0
     Q(r) pseudized with  8 coefficients,  rinner =    0.700

     vdW kernel table read from file vdW_kernel_table
     MD5 check sum: 095c7af220d748ca6e76c0b4c6cfb241

     atomic species   valence    mass     pseudopotential
        In1           13.00   114.81800     In( 1.00)
        C1             4.00    12.01100     C ( 1.00)
        H1             1.00     1.00800     H ( 1.00)

     No symmetry found

   Cartesian axes

     site n.     atom                  positions (alat units)
         1           In1 tau(   1) = (   1.6544016   0.9551692  10.0000000  )
         2           In1 tau(   2) = (   4.9632047   0.9551692  10.0000000  )
         3           In1 tau(   3) = (   3.3088031   3.8206768  10.0000000  )
         4           In1 tau(   4) = (   6.6176063   3.8206768  10.0000000  )
         5           In1 tau(   5) = (   6.6176063   1.9103384  12.7016265  )
         6           In1 tau(   6) = (   3.3088031   1.9103384  12.7016265  )
         7           In1 tau(   7) = (   8.2720078   4.7758460  12.7016265  )
         8           In1 tau(   8) = (   4.9632047   4.7758460  12.7016265  )
         9           In1 tau(   9) = (   0.0000000   0.0000000  15.4032529  )
        10           In1 tau(  10) = (   3.3088031   0.0000000  15.4032529  )
        11           In1 tau(  11) = (   1.6544016   2.8655076  15.4032529  )
        12           In1 tau(  12) = (   4.9632047   2.8655076  15.4032529  )
        13           C1  tau(  13) = (   3.3088031   1.9103384  16.8202529  )
        14           H1  tau(  14) = (   3.3088031   1.9103384  17.9202529  )

     number of k points=    20  Fermi-Dirac smearing, width (Ry)=  0.0110
                       cart. coord. in units 2pi/alat
        k(    1) = (   0.0000000   0.0000000   0.0000000), wk =   0.0555556
        k(    2) = (   0.0000000   0.0290815   0.0000000), wk =   0.1111111
        k(    3) = (   0.0000000   0.0581631   0.0000000), wk =   0.1111111
        k(    4) = (   0.0000000  -0.0872446   0.0000000), wk =   0.0555556
        k(    5) = (   0.0251853  -0.0145408   0.0000000), wk =   0.1111111
        k(    6) = (   0.0251853   0.0145408   0.0000000), wk =   0.1111111
        k(    7) = (   0.0251853   0.0436223   0.0000000), wk =   0.1111111
        k(    8) = (   0.0251853  -0.1017853   0.0000000), wk =   0.1111111
        k(    9) = (   0.0251853  -0.0727038   0.0000000), wk =   0.1111111
        k(   10) = (   0.0251853  -0.0436223   0.0000000), wk =   0.1111111
        k(   11) = (   0.0503707  -0.0290815   0.0000000), wk =   0.1111111
        k(   12) = (   0.0503707   0.0000000   0.0000000), wk =   0.1111111
        k(   13) = (   0.0503707   0.0290815   0.0000000), wk =   0.1111111
        k(   14) = (   0.0503707  -0.1163261   0.0000000), wk =   0.1111111
        k(   15) = (   0.0503707  -0.0872446   0.0000000), wk =   0.1111111
        k(   16) = (   0.0503707  -0.0581631   0.0000000), wk =   0.1111111
        k(   17) = (  -0.0755560   0.0436223   0.0000000), wk =   0.0555556
        k(   18) = (  -0.0755560   0.0727038   0.0000000), wk =   0.1111111
        k(   19) = (  -0.0755560   0.1017853   0.0000000), wk =   0.1111111
        k(   20) = (  -0.0755560  -0.0436223   0.0000000), wk =   0.0555556

     Largest allocated arrays     est. size (Mb)     dimensions
     Largest temporary arrays     est. size (Mb)     dimensions

     Initial potential from superposition of free atoms
     Check: negative starting charge=   -0.000198

     starting charge  142.99995, renormalised to  161.00000

     negative rho (up, down):  2.230E-04 0.000E+00

     *
     * You are using vdW-DF for exchange-correlation in this calculation.
     * Please cite the following three references that made this development
     * possible:
     *
     *   M. Dion, H. Rydberg, E. Schroder, D. C. Langreth, and
     *   B. I. Lundqvist, Phys. Rev. Lett. 92, 246401 (2004).
     *
     *   T. Thonhauser, V. R. Cooper, S. Li, A. Puzder, P. Hyldgaard, and
     *   D. C. Langreth, Phys. Rev. B 76, 125112 (2007).
     *
     *   G. Roman-Perez and J. M. Soler, Phys. Rev. Lett. 103, 096102 (2009).
     *
     *
     * If you are using vdW-DF2, please also cite:
     *
     *   K. Lee, E. D. Murray, L. Kong, B. I. Lundqvist, and
     *   D. C. Langreth, Phys. Rev. B 82, 081101(R) (2010).
     *
     *
     * If you are calculating the stress with vdW-DF, please also cite:
     *
     *   R. Sabatini, E. Kucukbenli, B. Kolb, T. Thonhauser, and
     *   S. de Gironcoli, J. Phys.: Condens. Matter 24, 424209 (2012).
     *

     Carrying out vdW-DF run using the following parameters:

     Nqs =      20    Nr_points =    1024   r_max =   100.000
     q_mesh =
               0.00001000     0.04494208     0.09755937     0.15916263
               0.23128650     0.31572767     0.41458969     0.53033537
               0.66584808     0.82450364     1.01025438     1.22772762
               1.48234092     1.78043706     2.12944203     2.53805004
               3.01644009     3.57652955     4.23227104     5.00000000

     Gradients computed in reciprocal space

     Adding external electric field

     Computed dipole along edir(3) :
        Dipole               -5.1597 Ry au,        -13.1145 Debye
        Dipole field         -0.0100 Ry au

        Potential amp.        0.9335 Ry
        Total length         46.8051 bohr

     Starting wfc are  113 randomized atomic wfcs

     Self-consistent Calculation

     iteration #  1     ecut=    36.75 Ry     beta=0.30
     Davidson diagonalization with overlap
     ethr =  1.00E-02,  avg # of iterations =  7.8

[...]

     total energy              =   -1368.59103607 Ry
     Harris-Foulkes estimate   =   -1632.68603578 Ry
     estimated scf accuracy    <     566.20937577 Ry

     iteration #  2     ecut=    36.75 Ry     beta=0.30
     Davidson diagonalization with overlap
     c_bands:  1 eigenvalues not converged
     c_bands:  4 eigenvalues not converged
     ethr =  1.00E-02,  avg # of iterations = 20.1

[...]

     End of self-consistent calculation

          k = 0.0000 0.0000 0.0000 ( 24345 PWs)   bands (ev):

   -14.5714 -14.5683 -14.5683 -14.5019 -14.4815 -14.4815 -14.4745 -14.4745
   -14.4735 -14.4489 -14.4410 -14.4355 -14.4355 -14.4145 -14.3915 -14.3851
   -14.3851 -14.3793 -14.3793 -14.3743 -14.3602 -14.3602 -14.3494 -14.3494
   -14.3375 -14.3375 -14.3330 -14.3267 -14.3129 -14.3129 -14.2221 -14.2221
   -14.2053 -14.2053 -14.1974 -14.1731 -14.1576 -14.1576 -14.1435 -14.1435
   -14.1226 -14.1087 -14.1087 -14.1047 -14.1016 -14.1016 -14.0794 -14.0794
   -14.0748 -14.0688 -14.0688 -14.0625 -14.0483 -14.0482 -14.0380 -14.0380
   -14.0372 -13.9991 -13.9991 -13.9827 -10.3539  -8.5318  -7.1406  -5.2435
    -4.1693  -3.7653  -3.7653  -3.6239  -3.6239  -3.5268  -3.0984  -2.6452
    -2.6452  -2.2099  -1.9747  -1.9747  -1.6704  -0.9531  -0.9393  -0.9393
    -0.3153  -0.1116  -0.1116   1.2643   1.4092   1.4092   2.0333   3.2720
     3.2720   3.3331

[...]

          k =-0.0756 0.0436 0.0000 ( 24448 PWs)   bands (ev):

[...]

     the Fermi energy is     0.6324 ev

!    total energy              =   -1629.91855159 Ry
     Harris-Foulkes estimate   =   -1629.91854338 Ry
     estimated scf accuracy    <       0.00000033 Ry

     The total energy is the sum of the following terms:

     one-electron contribution =   -9421.98183168 Ry
     hartree contribution      =    4792.33395489 Ry
     xc contribution           =    -473.93359447 Ry
     ewald contribution        =    3473.69918939 Ry
     electric field correction =       0.00002696 Ry
     smearing contrib. (-TS)   =      -0.03629668 Ry

     convergence has been achieved in  30 iterations

 BEEF-vdW xc energy contributions
           1 :   -415.059398126186
           2 :    379.354722038331
           3 :   -319.074937408408
           4 :    251.160186892640
           5 :   -191.074525255889
           6 :    147.219393762429
           7 :   -119.347370084125
           8 :    101.135449261434
           9 :   -85.0326388948281
          10 :    66.5524809575547
          11 :   -45.8866504649925
          12 :    26.4984395561805
          13 :   -12.1141792364002
          14 :    4.18919007908642
          15 :   -1.26478092784714
          16 :   0.234488440902169
          17 :    1.61594325768499
          18 :   -5.19701037965717
          19 :    9.57259283837004
          20 :   -13.0398541605424
          21 :    14.4373861127402
          22 :   -13.8215814839936
          23 :    12.2165406749324
          24 :   -10.8003163394726
          25 :    10.1787546828374
          26 :   -10.2022201310304
          27 :    10.3123648578703
          28 :   -10.0505135896093
          29 :    9.33571984527202
          30 :   -8.38468320826718
          31 :   -37.8199290757939
          32 :   -27.4786545201306

     Forces acting on atoms (Ry/au):

     negative rho (up, down):  1.169E-03 0.000E+00
     atom    1 type  1   force =     0.00099159    0.00057517   -0.01067130
     atom    2 type  1   force =    -0.00099178    0.00057409   -0.01066651
     atom    3 type  1   force =    -0.00000139   -0.00114603   -0.01067262
     atom    4 type  1   force =     0.00000146   -0.00000238   -0.00858235
     atom    5 type  1   force =    -0.00000277   -0.00128636    0.00314607
     atom    6 type  1   force =     0.00000230   -0.00000177    0.00978611
     atom    7 type  1   force =     0.00111154    0.00064598    0.00314583
     atom    8 type  1   force =    -0.00111276    0.00064236    0.00315094
     atom    9 type  1   force =    -0.00000037   -0.00000065    0.00843551
     atom   10 type  1   force =     0.00000018   -0.00171880    0.02844620
     atom   11 type  1   force =    -0.00148691    0.00085926    0.02844868
     atom   12 type  1   force =     0.00148866    0.00085988    0.02844827
     atom   13 type  2   force =     0.00000001   -0.00000034   -0.06916769
     atom   14 type  3   force =     0.00000023   -0.00000040   -0.00324715

     Total force =     0.085455     Total SCF correction =     0.000682

     entering subroutine stress ...

     negative rho (up, down):  1.169E-03 0.000E+00
          total   stress  (Ry/bohr**3)                   (kbar)     P=    5.36
   0.00004876  -0.00000000  -0.00000000          7.17     -0.00     -0.00
  -0.00000000   0.00004876   0.00000000         -0.00      7.17      0.00
  -0.00000000   0.00000000   0.00001171         -0.00      0.00      1.72

     BFGS Geometry Optimization

     number of scf cycles    =   1
     number of bfgs steps    =   0

     energy   new            =   -1629.9185515850 Ry

     new trust radius        =       0.0691676937 bohr
     new conv_thr            =       0.0000099958 Ry

ATOMIC_POSITIONS (crystal)
In1      0.166666667   0.166666667   0.393650374    0   0   0
In1      0.666666667   0.166666667   0.393650374    0   0   0
In1      0.166666667   0.666666667   0.393650374    0   0   0
In1      0.666666667   0.666666667   0.393650374    0   0   0
In1      0.833333333   0.333333333   0.500000000    0   0   0
In1      0.333333333   0.333333333   0.500000000    0   0   0
In1      0.833333333   0.833333333   0.500000000    0   0   0
In1      0.333333333   0.833333333   0.500000000    0   0   0
In1      0.000000000  -0.000000060   0.606525347
In1      0.500079367  -0.000158706   0.606942191
In1     -0.000158571   0.500079340   0.606942243
In1      0.500079342   0.500079398   0.606942234
C1       0.333333350   0.333333302   0.660689046
H1       0.333333370   0.333333297   0.705363784

     Writing output data file calc.save
     Check: negative starting charge=   -0.000198
     NEW-OLD atomic charge density approx. for the potential
     Check: negative starting charge=   -0.000198

[...]

     energy   old            =   -1629.9185515850 Ry
     energy   new            =   -1629.9240174708 Ry

     CASE: energy  _new < energy  _old

[...]

     Total force =     0.013883     Total SCF correction =     0.001429
     SCF correction compared to forces is large: reduce conv_thr to get better values

[...]

     Threshold (ethr) on eigenvalues was too large:
     Diagonalizing with lowered threshold

     Davidson diagonalization with overlap
     ethr =  6.33E-08,  avg # of iterations =  1.1

[...]

     Total force =     0.003369     Total SCF correction =     0.000254

[...]

     number of scf cycles    =  18
     number of bfgs steps    =  17

     energy   old            =   -1629.9554211756 Ry
     energy   new            =   -1629.9554680546 Ry

     CASE: energy  _new < energy  _old

     new trust radius        =       0.0063002266 bohr
     new conv_thr            =       0.0000001000 Ry

ATOMIC_POSITIONS (crystal)
In1      0.166666667   0.166666667   0.393650374    0   0   0
In1      0.666666667   0.166666667   0.393650374    0   0   0
In1      0.166666667   0.666666667   0.393650374    0   0   0
In1      0.666666667   0.666666667   0.393650374    0   0   0
In1      0.833333333   0.333333333   0.500000000    0   0   0
In1      0.333333333   0.333333333   0.500000000    0   0   0
In1      0.833333333   0.833333333   0.500000000    0   0   0
In1      0.333333333   0.833333333   0.500000000    0   0   0
In1      0.000000516   0.000000690   0.612636052
In1      0.511165323  -0.022330603   0.609613975
In1     -0.022330942   0.511165034   0.609613948
In1      0.511166039   0.511164965   0.609613986
C1       0.333333151   0.333333713   0.645537409
H1       0.333334498   0.333331820   0.688838330

     Writing output data file calc.save
     Check: negative starting charge=   -0.000203
     NEW-OLD atomic charge density approx. for the potential
     Check: negative starting charge=   -0.000203

[...]

     Self-consistent Calculation

[...]

     total energy              =   -1629.95547945 Ry
     Harris-Foulkes estimate   =   -1629.95547946 Ry
     estimated scf accuracy    <       0.00000064 Ry

     iteration #  6     ecut=    36.75 Ry     beta=0.30
     Davidson diagonalization with overlap
     ethr =  3.99E-10,  avg # of iterations =  2.0

[...]

     negative rho (up, down):  1.156E-03 0.000E+00

     Adding external electric field

     Computed dipole along edir(3) :
        Dipole                0.0372 Ry au,          0.0947 Debye
        Dipole field          0.0001 Ry au

        Potential amp.       -0.0067 Ry
        Total length         46.8051 bohr

     End of self-consistent calculation

[...]

          k = 0.0504-0.0582 0.0000 ( 24479 PWs)   bands (ev):

[...]

          k =-0.0756-0.0436 0.0000 ( 24448 PWs)   bands (ev):

   -14.4704 -14.3751 -14.3245 -14.3027 -14.2915 -14.2910 -14.2879 -14.2865
   -14.2628 -14.2523 -14.2498 -14.2349 -14.2232 -14.2176 -14.2158 -14.2101
   -14.2098 -14.2042 -14.1895 -14.1888 -14.1828 -14.1800 -14.1618 -14.1574
   -14.1564 -14.1495 -14.1437 -14.1310 -14.1283 -14.1241 -14.1230 -14.1123
   -14.1015 -14.0925 -14.0918 -14.0817 -14.0678 -14.0588 -14.0432 -14.0384
   -14.0334 -14.0297 -14.0293 -14.0223 -14.0188 -14.0065 -14.0002 -13.9979
   -13.9953 -13.9922 -13.9865 -13.9838 -13.9674 -13.9395 -13.9288 -13.9256
   -13.9222 -13.9118 -13.8838 -13.8666 -10.5712  -7.1913  -7.0082  -6.0731
    -5.7238  -4.7359  -4.7151  -4.1160  -4.0842  -3.8251  -3.6884  -2.1242
    -1.9548  -1.5176  -0.6610  -0.0969   0.0952   0.1746   0.4008   0.7847
     0.8025   1.3431   1.7300   1.8147   2.2997   2.5533   2.5954   2.6852
     2.7853   3.1703

     the Fermi energy is     0.8394 ev

!    total energy              =   -1629.95547946 Ry
     Harris-Foulkes estimate   =   -1629.95547943 Ry
     estimated scf accuracy    <       0.00000009 Ry

     The total energy is the sum of the following terms:

     one-electron contribution =   -9366.58393507 Ry
     hartree contribution      =    4765.32863648 Ry
     xc contribution           =    -474.02634298 Ry
     ewald contribution        =    3445.35804194 Ry
     electric field correction =       0.00000268 Ry
     smearing contrib. (-TS)   =      -0.03188251 Ry

     convergence has been achieved in   6 iterations

 BEEF-vdW xc energy contributions
           1 :   -415.152862888285
           2 :    379.462595616862
           3 :   -319.183247044751
           4 :    251.240692970073
           5 :   -191.108560509446
           6 :    147.204827323100
           7 :   -119.296234321058
           8 :    101.069123297371
           9 :   -84.9753677378076
          10 :    66.5216657383298
          11 :   -45.8828350703562
          12 :    26.5032057883208
          13 :   -12.1006578248822
          14 :    4.14179188812659
          15 :   -1.19588717620445
          16 :   0.182870672855927
          17 :    1.60741105449551
          18 :   -5.10916062618560
          19 :    9.42481192617799
          20 :   -12.8813238930278
          21 :    14.3179132563843
          22 :   -13.7611000014396
          23 :    12.1947372065995
          24 :   -10.7740615664864
          25 :    10.1160759669442
          26 :   -10.1084233823411
          27 :    10.2284309628034
          28 :   -10.0240143178739
          29 :    9.38457694861540
          30 :   -8.48012337558993
          31 :   -37.8261239531605
          32 :   -27.4852281922599

     Forces acting on atoms (Ry/au):

     negative rho (up, down):  1.156E-03 0.000E+00
     atom    1 type  1   force =     0.00168647    0.00097369   -0.01022977
     atom    2 type  1   force =    -0.00168644    0.00097369   -0.01022979
     atom    3 type  1   force =     0.00000002   -0.00194736   -0.01022978
     atom    4 type  1   force =    -0.00000001    0.00000000   -0.00854138
     atom    5 type  1   force =    -0.00000001   -0.00206451    0.00943800
     atom    6 type  1   force =    -0.00000000    0.00000000    0.00844285
     atom    7 type  1   force =     0.00178790    0.00103226    0.00943833
     atom    8 type  1   force =    -0.00178787    0.00103222    0.00943824
     atom    9 type  1   force =    -0.00000054   -0.00000080    0.00122923
     atom   10 type  1   force =     0.00000036   -0.00000557    0.00023023
     atom   11 type  1   force =    -0.00000399    0.00000336    0.00023067
     atom   12 type  1   force =     0.00000414    0.00000303    0.00023055
     atom   13 type  2   force =     0.00000019   -0.00000075    0.00026147
     atom   14 type  3   force =    -0.00000020    0.00000074    0.00029116

     Total force =     0.001350     Total SCF correction =     0.000321
     SCF correction compared to forces is large: reduce conv_thr to get better values

     entering subroutine stress ...

     negative rho (up, down):  1.156E-03 0.000E+00
          total   stress  (Ry/bohr**3)                   (kbar)     P=    7.27
   0.00006084   0.00000000  -0.00000000          8.95      0.00     -0.00
   0.00000000   0.00006084   0.00000000          0.00      8.95      0.00
  -0.00000000   0.00000000   0.00002653         -0.00      0.00      3.90

     bfgs converged in  19 scf cycles and  18 bfgs steps
     (criteria: energy <  1.0E+00, force <  1.9E-03)

     End of BFGS Geometry Optimization

     Final energy   =   -1629.9554794635 Ry
Begin final coordinates

ATOMIC_POSITIONS (crystal)
In1      0.166666667   0.166666667   0.393650374    0   0   0
In1      0.666666667   0.166666667   0.393650374    0   0   0
In1      0.166666667   0.666666667   0.393650374    0   0   0
In1      0.666666667   0.666666667   0.393650374    0   0   0
In1      0.833333333   0.333333333   0.500000000    0   0   0
In1      0.333333333   0.333333333   0.500000000    0   0   0
In1      0.833333333   0.833333333   0.500000000    0   0   0
In1      0.333333333   0.833333333   0.500000000    0   0   0
In1      0.000000516   0.000000690   0.612636052
In1      0.511165323  -0.022330603   0.609613975
In1     -0.022330942   0.511165034   0.609613948
In1      0.511166039   0.511164965   0.609613986
C1       0.333333151   0.333333713   0.645537409
H1       0.333334498   0.333331820   0.688838330
End final coordinates

     Writing output data file calc.save

     General routines

     Parallel routines

   This run was terminated on:  10:26:37  18Apr2018

   JOB DONE.
Job  /afs/slac/g/suncat/bin/suncat-tsmpirun -x LD_LIBRARY_PATH -wdir /scratch/qe225163_MibH1 pw.x -npool 4 -in pw.inp

TID   HOST_NAME   COMMAND_LINE            STATUS            TERMINATION_TIME
00000 suncat0089 pw.x -npool 4 -i  Done                     04/18/2018 10:26:37
00001 suncat0089 pw.x -npool 4 -i  Done                     04/18/2018 10:26:37
00002 suncat0089 pw.x -npool 4 -i  Done                     04/18/2018 10:26:37
00003 suncat0089 pw.x -npool 4 -i  Done                     04/18/2018 10:26:37
00004 suncat0089 pw.x -npool 4 -i  Done                     04/18/2018 10:26:37
00005 suncat0089 pw.x -npool 4 -i  Done                     04/18/2018 10:26:37
00006 suncat0089 pw.x -npool 4 -i  Done                     04/18/2018 10:26:37
00007 suncat0089 pw.x -npool 4 -i  Done                     04/18/2018 10:26:37
00008 suncat0088 pw.x -npool 4 -i  Done                     04/18/2018 10:26:37
00009 suncat0088 pw.x -npool 4 -i  Done                     04/18/2018 10:26:37
00010 suncat0088 pw.x -npool 4 -i  Done                     04/18/2018 10:26:37
00011 suncat0088 pw.x -npool 4 -i  Done                     04/18/2018 10:26:37
00012 suncat0088 pw.x -npool 4 -i  Done                     04/18/2018 10:26:37
00013 suncat0088 pw.x -npool 4 -i  Done                     04/18/2018 10:26:37
00014 suncat0088 pw.x -npool 4 -i  Done                     04/18/2018 10:26:37
00015 suncat0088 pw.x -npool 4 -i  Done                     04/18/2018 10:26:37
00016 suncat0039 pw.x -npool 4 -i  Done                     04/18/2018 10:26:37
00017 suncat0039 pw.x -npool 4 -i  Done                     04/18/2018 10:26:37
00018 suncat0039 pw.x -npool 4 -i  Done                     04/18/2018 10:26:37
00019 suncat0039 pw.x -npool 4 -i  Done                     04/18/2018 10:26:37
00020 suncat0039 pw.x -npool 4 -i  Done                     04/18/2018 10:26:37
00021 suncat0039 pw.x -npool 4 -i  Done                     04/18/2018 10:26:37
00022 suncat0039 pw.x -npool 4 -i  Done                     04/18/2018 10:26:37
00023 suncat0039 pw.x -npool 4 -i  Done                     04/18/2018 10:26:37
00024 suncat0189 pw.x -npool 4 -i  Done                     04/18/2018 10:26:37
00025 suncat0189 pw.x -npool 4 -i  Done                     04/18/2018 10:26:37
00026 suncat0189 pw.x -npool 4 -i  Done                     04/18/2018 10:26:37
00027 suncat0189 pw.x -npool 4 -i  Done                     04/18/2018 10:26:37
00028 suncat0189 pw.x -npool 4 -i  Done                     04/18/2018 10:26:37
00029 suncat0189 pw.x -npool 4 -i  Done                     04/18/2018 10:26:37
00030 suncat0189 pw.x -npool 4 -i  Done                     04/18/2018 10:26:37
00031 suncat0189 pw.x -npool 4 -i  Done                     04/18/2018 10:26:37