     Program PWSCF v.5.1rc2 (svn rev. ) starts on 18Apr2018 at  3:46:43

     Current dimensions of program PWSCF are:
     Max number of different atomic species (ntypx) = 10
     Max number of k-points (npk) =  40000
     Max angular momentum in pseudopotentials (lmaxx) =  3
     Presently stress not available with electric field

     IMPORTANT: XC functional enforced from input :
     Exchange-correlation      = BEEF-VDW ( 1  4 27 13 2)
     Any further DFT definition will be discarded
     Please, verify this is what you really want

     Subspace diagonalization in iterative solution of the eigenvalue problem:
     a serial algorithm will be used

     bravais-lattice index     =            0
     lattice parameter (alat)  =       1.8897  a.u.
     unit-cell volume          =    6024.3322 (a.u.)^3
     number of atoms/cell      =           15
     number of atomic types    =            3
     number of electrons       =       150.00
     number of Kohn-Sham states=           85
     kinetic-energy cutoff     =      36.7493  Ry
     charge density cutoff     =     367.4932  Ry
     convergence threshold     =      1.0E-05
     mixing beta               =       0.3000
     number of iterations used =           10  plain     mixing
     Exchange-correlation      = BEEF-VDW ( 1  4 27 13 2)
     nstep                     =           50

     celldm(1)=   1.889726  celldm(2)=   0.000000  celldm(3)=   0.000000
     celldm(4)=   0.000000  celldm(5)=   0.000000  celldm(6)=   0.000000

     crystal axes: (cart. coord. in units of alat)
               a(1) = (   6.393197   0.000000   0.000000 )
               a(2) = (   3.196599   5.536671   0.000000 )
               a(3) = (   0.000000   0.000000  25.220024 )

     reciprocal axes: (cart. coord. in units 2 pi/alat)
               b(1) = (  0.156416 -0.090307  0.000000 )
               b(2) = (  0.000000  0.180614  0.000000 )
               b(3) = (  0.000000  0.000000  0.039651 )

     PseudoPot. # 1 for Hf read from file:
     /home/mamunm/src/pseudo/gbrv1.5pbe/Hf.UPF
     MD5 check sum: 8ee9378dfe14276e333edf04c5e4aa26
     Pseudo is Ultrasoft + core correction, Zval = 12.0
     Generated by new atomic code, or converted to UPF format
     Using radial grid of  921 points,  8 beta functions with:
                l(1) =   0
                l(2) =   0
                l(3) =   0
                l(4) =   1
                l(5) =   1
                l(6) =   2
                l(7) =   2
                l(8) =   3
     Q(r) pseudized with  6 coefficients,  rinner =    1.200   1.200   1.200
                                                       1.200   1.200   1.200
                                                       1.200

     PseudoPot. # 2 for C  read from file:
     /home/mamunm/src/pseudo/gbrv1.5pbe/C.UPF
     MD5 check sum: d1aef80898a10debaa0f26306b886e00
     Pseudo is Ultrasoft + core correction, Zval =  4.0
     Generated by new atomic code, or converted to UPF format
     Using radial grid of  721 points,  4 beta functions with:
                l(1) =   0
                l(2) =   0
                l(3) =   1
                l(4) =   1
     Q(r) pseudized with  8 coefficients,  rinner =    1.100   1.100   1.100

     PseudoPot. # 3 for H  read from file:
     /home/mamunm/src/pseudo/gbrv1.5pbe/H.UPF
     MD5 check sum: 761ae9a214b05c3daf00ab9f6b793d6f
     Pseudo is Ultrasoft, Zval =  1.0
     Generated by new atomic code, or converted to UPF format
     Using radial grid of  615 points,  2 beta functions with:
                l(1) =   0
                l(2) =   0
     Q(r) pseudized with  8 coefficients,  rinner =    0.700

     vdW kernel table read from file vdW_kernel_table
     MD5 check sum: 095c7af220d748ca6e76c0b4c6cfb241

     atomic species   valence    mass     pseudopotential
        Hf1           12.00   178.49000     Hf( 1.00)
        C1             4.00    12.01100     C ( 1.00)
        H1             1.00     1.00800     H ( 1.00)

     No symmetry found

   Cartesian axes

     site n.     atom                  positions (alat units)
         1           Hf1 tau(   1) = (   1.5982993   0.9227785  10.0000000  )
         2           Hf1 tau(   2) = (   4.7948978   0.9227785  10.0000000  )
         3           Hf1 tau(   3) = (   3.1965986   3.6911141  10.0000000  )
         4           Hf1 tau(   4) = (   6.3931971   3.6911141  10.0000000  )
         5           Hf1 tau(   5) = (   6.3931971   1.8455570  12.6100118  )
         6           Hf1 tau(   6) = (   3.1965986   1.8455570  12.6100118  )
         7           Hf1 tau(   7) = (   7.9914964   4.6138926  12.6100118  )
         8           Hf1 tau(   8) = (   4.7948978   4.6138926  12.6100118  )
         9           Hf1 tau(   9) = (   0.0000000   0.0000000  15.2200236  )
        10           Hf1 tau(  10) = (   3.1965986   0.0000000  15.2200236  )
        11           Hf1 tau(  11) = (   1.5982993   2.7683356  15.2200236  )
        12           Hf1 tau(  12) = (   4.7948978   2.7683356  15.2200236  )
        13           C1  tau(  13) = (   1.5982993   0.0000000  17.1025236  )
        14           H1  tau(  14) = (   2.2282993   0.6300000  17.7325236  )
        15           H1  tau(  15) = (   4.1648978   4.9066711  17.7325236  )

     number of k points=    20  Fermi-Dirac smearing, width (Ry)=  0.0110
                       cart. coord. in units 2pi/alat
        k(    1) = (   0.0000000   0.0000000   0.0000000), wk =   0.0555556
        k(    2) = (   0.0000000   0.0301023   0.0000000), wk =   0.1111111
        k(    3) = (   0.0000000   0.0602046   0.0000000), wk =   0.1111111
        k(    4) = (   0.0000000  -0.0903070   0.0000000), wk =   0.0555556
        k(    5) = (   0.0260694  -0.0150512   0.0000000), wk =   0.1111111
        k(    6) = (   0.0260694   0.0150512   0.0000000), wk =   0.1111111
        k(    7) = (   0.0260694   0.0451535   0.0000000), wk =   0.1111111
        k(    8) = (   0.0260694  -0.1053581   0.0000000), wk =   0.1111111
        k(    9) = (   0.0260694  -0.0752558   0.0000000), wk =   0.1111111
        k(   10) = (   0.0260694  -0.0451535   0.0000000), wk =   0.1111111
        k(   11) = (   0.0521388  -0.0301023   0.0000000), wk =   0.1111111
        k(   12) = (   0.0521388   0.0000000   0.0000000), wk =   0.1111111
        k(   13) = (   0.0521388   0.0301023   0.0000000), wk =   0.1111111
        k(   14) = (   0.0521388  -0.1204093   0.0000000), wk =   0.1111111
        k(   15) = (   0.0521388  -0.0903070   0.0000000), wk =   0.1111111
        k(   16) = (   0.0521388  -0.0602046   0.0000000), wk =   0.1111111
        k(   17) = (  -0.0782081   0.0451535   0.0000000), wk =   0.0555556
        k(   18) = (  -0.0782081   0.0752558   0.0000000), wk =   0.1111111
        k(   19) = (  -0.0782081   0.1053581   0.0000000), wk =   0.1111111
        k(   20) = (  -0.0782081  -0.0451535   0.0000000), wk =   0.0555556

     Largest allocated arrays     est. size (Mb)     dimensions
     Largest temporary arrays     est. size (Mb)     dimensions

     Check: negative/imaginary core charge=   -0.000003    0.000000

     Initial potential from superposition of free atoms
     Check: negative starting charge=   -1.301364

     starting charge  125.99992, renormalised to  150.00000

     negative rho (up, down):  1.549E+00 0.000E+00

     *
     * You are using vdW-DF for exchange-correlation in this calculation.
     * Please cite the following three references that made this development
     * possible:
     *
     *   M. Dion, H. Rydberg, E. Schroder, D. C. Langreth, and
     *   B. I. Lundqvist, Phys. Rev. Lett. 92, 246401 (2004).
     *
     *   T. Thonhauser, V. R. Cooper, S. Li, A. Puzder, P. Hyldgaard, and
     *   D. C. Langreth, Phys. Rev. B 76, 125112 (2007).
     *
     *   G. Roman-Perez and J. M. Soler, Phys. Rev. Lett. 103, 096102 (2009).
     *
     *
     * If you are using vdW-DF2, please also cite:
     *
     *   K. Lee, E. D. Murray, L. Kong, B. I. Lundqvist, and
     *   D. C. Langreth, Phys. Rev. B 82, 081101(R) (2010).
     *
     *
     * If you are calculating the stress with vdW-DF, please also cite:
     *
     *   R. Sabatini, E. Kucukbenli, B. Kolb, T. Thonhauser, and
     *   S. de Gironcoli, J. Phys.: Condens. Matter 24, 424209 (2012).
     *

     Carrying out vdW-DF run using the following parameters:

     Nqs =      20    Nr_points =    1024   r_max =   100.000
     q_mesh =
               0.00001000     0.04494208     0.09755937     0.15916263
               0.23128650     0.31572767     0.41458969     0.53033537
               0.66584808     0.82450364     1.01025438     1.22772762
               1.48234092     1.78043706     2.12944203     2.53805004
               3.01644009     3.57652955     4.23227104     5.00000000

     Gradients computed in reciprocal space

     Adding external electric field

     Computed dipole along edir(3) :
        Dipole              -10.1554 Ry au,        -25.8124 Debye
        Dipole field         -0.0212 Ry au

        Potential amp.        1.9687 Ry
        Total length         46.4675 bohr

     Starting wfc are  162 randomized atomic wfcs

     Self-consistent Calculation

     iteration #  1     ecut=    36.75 Ry     beta=0.30
     Davidson diagonalization with overlap
     ethr =  1.00E-02,  avg # of iterations =  9.7

[...]

     total energy              =   -1276.68706192 Ry
     Harris-Foulkes estimate   =   -1930.29696998 Ry
     estimated scf accuracy    <    1403.50990992 Ry

[...]

     End of self-consistent calculation

          k = 0.0000 0.0000 0.0000 ( 22729 PWs)   bands (ev):

   -61.1838 -61.1649 -61.1226 -61.0911 -61.0893 -61.0831 -61.0200 -61.0038
   -60.7025 -60.6778 -60.6606 -60.6464 -29.8985 -29.8926 -29.8763 -29.8640
   -29.8625 -29.8459 -29.8374 -29.7770 -29.7455 -29.6927 -29.6812 -29.6548
   -29.5955 -29.5717 -29.4811 -29.4656 -29.4621 -29.4585 -29.4582 -29.4170
   -29.4063 -29.3890 -29.3804 -29.3336 -29.3320 -29.3303 -29.2715 -29.1681
   -29.1594 -29.1365 -29.1176 -29.0636 -29.0563 -29.0504 -28.9348 -28.9338
   -10.3771  -4.9995  -4.6063  -3.7702  -2.5458  -1.9322  -1.5706  -1.5098
    -1.4021  -1.2785  -1.2463  -1.1092  -0.9529  -0.8096  -0.4835  -0.2101
    -0.1888  -0.0928   0.2857   0.5413   0.7990   0.9610   1.5117   1.6611
     1.8319   1.9007   1.9289   1.9632   2.0359   2.2191   2.3552   2.4057
     2.5870   2.6782   2.7667   2.7853   2.8014

[...]

          k =-0.0782 0.0452 0.0000 ( 22668 PWs)   bands (ev):

[...]

     the Fermi energy is     1.5109 ev

!    total energy              =   -1940.63357607 Ry
     Harris-Foulkes estimate   =   -1940.63357852 Ry
     estimated scf accuracy    <       0.00000640 Ry

     The total energy is the sum of the following terms:

     one-electron contribution =   -8510.35776979 Ry
     hartree contribution      =    4240.53373042 Ry
     xc contribution           =    -932.86596381 Ry
     ewald contribution        =    3262.17168824 Ry
     electric field correction =       0.00000779 Ry
     smearing contrib. (-TS)   =      -0.11526892 Ry

     convergence has been achieved in  35 iterations

 BEEF-vdW xc energy contributions
           1 :   -843.312481584316
           2 :    783.622850002488
           3 :   -677.942034922625
           4 :    548.199742796342
           5 :   -416.988814263940
           6 :    301.252290347331
           7 :   -209.556513692643
           8 :    143.032746854832
           9 :   -98.4370975962338
          10 :    71.1297509661492
          11 :   -56.6275374161544
          12 :    50.6789894264728
          13 :   -48.8449761170817
          14 :    46.5762002079665
          15 :   -40.1323335522670
          16 :    27.8269453352102
          17 :   -10.7449819612095
          18 :   -7.67553833290503
          19 :    23.1019903699519
          20 :   -32.1140127067886
          21 :    33.4675300659701
          22 :   -28.2911386888209
          23 :    19.2908936890535
          24 :   -9.54753876432108
          25 :    1.55417664021024
          26 :    3.16377038805581
          27 :   -3.96216390987115
          28 :   0.876432360812373
          29 :    5.42169517972525
          30 :   -13.5405530174589
          31 :   -60.7971262134779
          32 :   -43.7060516086990

     Forces acting on atoms (Ry/au):

     negative rho (up, down):  1.380E+00 0.000E+00
     atom    1 type  1   force =    -0.00015518    0.00055048    0.02224136
     atom    2 type  1   force =     0.00009427    0.00155062    0.02335885
     atom    3 type  1   force =     0.00069868   -0.00143529    0.02262872
     atom    4 type  1   force =    -0.00093683   -0.00093594    0.02274678
     atom    5 type  1   force =    -0.00160320    0.00037261   -0.00151506
     atom    6 type  1   force =     0.00132962    0.00121635   -0.00340722
     atom    7 type  1   force =     0.00110839   -0.00082987   -0.00504617
     atom    8 type  1   force =     0.00067170   -0.00068497   -0.00266944
     atom    9 type  1   force =     0.02463855   -0.00533041    0.02531191
     atom   10 type  1   force =    -0.02678383   -0.00661593    0.02869638
     atom   11 type  1   force =    -0.00008389    0.00424494   -0.02221761
     atom   12 type  1   force =    -0.00046414    0.00613086   -0.01944670
     atom   13 type  2   force =     0.00137243    0.00079356   -0.10195023
     atom   14 type  3   force =     0.01431725   -0.00394701    0.00605468
     atom   15 type  3   force =    -0.01420383    0.00492000    0.00521376

     Total force =     0.121224     Total SCF correction =     0.005765

     entering subroutine stress ...

     negative rho (up, down):  1.380E+00 0.000E+00
          total   stress  (Ry/bohr**3)                   (kbar)     P=  -26.54
  -0.00016402   0.00000300   0.00000015        -24.13      0.44      0.02
   0.00000300  -0.00015735   0.00000165          0.44    -23.15      0.24
   0.00000015   0.00000165  -0.00021988          0.02      0.24    -32.34

     BFGS Geometry Optimization

     number of scf cycles    =   1
     number of bfgs steps    =   0

     energy   new            =   -1940.6335760688 Ry

     new trust radius        =       0.1019625567 bohr
     new conv_thr            =       0.0000099958 Ry

ATOMIC_POSITIONS (crystal)
Hf1      0.166666667   0.166666667   0.396510335    0   0   0
Hf1      0.666666667   0.166666667   0.396510335    0   0   0
Hf1      0.166666667   0.666666667   0.396510335    0   0   0
Hf1      0.666666667   0.666666667   0.396510335    0   0   0
Hf1      0.833333333   0.333333333   0.500000000    0   0   0
Hf1      0.333333333   0.333333333   0.500000000    0   0   0
Hf1      0.833333333   0.833333333   0.500000000    0   0   0
Hf1      0.333333333   0.833333333   0.500000000    0   0   0
Hf1      0.002294112  -0.000509464   0.604020770
Hf1      0.498099216  -0.000632329   0.604091785
Hf1     -0.000209803   0.500405718   0.603023486
Hf1      0.499668598   0.500585968   0.603081626
C1       0.250075675   0.000075846   0.675993573
H1       0.293022541   0.113409542   0.703239929
H1       0.206940350   0.886683454   0.703222284

     Writing output data file calc.save
     Check: negative starting charge=   -1.301364
     NEW-OLD atomic charge density approx. for the potential

     Check: negative/imaginary core charge=   -0.000003    0.000000
     Check: negative starting charge=   -1.300759

[...]

     energy   old            =   -1940.6335760688 Ry
     energy   new            =   -1940.6443104196 Ry

     CASE: energy  _new < energy  _old

[...]

     iteration #  1     ecut=    36.75 Ry     beta=0.30
     Davidson diagonalization with overlap
     c_bands:  1 eigenvalues not converged
     c_bands:  1 eigenvalues not converged
     ethr =  1.00E-06,  avg # of iterations = 16.8

[...]

     iteration #  1     ecut=    36.75 Ry     beta=0.30
     Davidson diagonalization with overlap
     c_bands:  1 eigenvalues not converged
     c_bands:  1 eigenvalues not converged
     ethr =  1.00E-06,  avg # of iterations = 14.7

[...]

     Total force =     0.010985     Total SCF correction =     0.001165
     SCF correction compared to forces is large: reduce conv_thr to get better values

[...]

     Threshold (ethr) on eigenvalues was too large:
     Diagonalizing with lowered threshold

     Davidson diagonalization with overlap
     ethr =  9.51E-08,  avg # of iterations =  1.9

[...]

     Total force =     0.004704     Total SCF correction =     0.000483
     SCF correction compared to forces is large: reduce conv_thr to get better values

[...]

     number of scf cycles    =  49
     number of bfgs steps    =  48

     energy   old            =   -1940.7133603073 Ry
     energy   new            =   -1940.7134591006 Ry

     CASE: energy  _new < energy  _old

     new trust radius        =       0.0300405402 bohr
     new conv_thr            =       0.0000001000 Ry

ATOMIC_POSITIONS (crystal)
Hf1      0.166666667   0.166666667   0.396510335    0   0   0
Hf1      0.666666667   0.166666667   0.396510335    0   0   0
Hf1      0.166666667   0.666666667   0.396510335    0   0   0
Hf1      0.666666667   0.666666667   0.396510335    0   0   0
Hf1      0.833333333   0.333333333   0.500000000    0   0   0
Hf1      0.333333333   0.333333333   0.500000000    0   0   0
Hf1      0.833333333   0.833333333   0.500000000    0   0   0
Hf1      0.333333333   0.833333333   0.500000000    0   0   0
Hf1      0.002764720  -0.006382248   0.599551364
Hf1      0.497716277  -0.001938457   0.599369182
Hf1     -0.000391783   0.503450778   0.597946290
Hf1      0.499967633   0.498823961   0.594461114
C1       0.183142098   0.142225852   0.653587178
H1       0.330357862   0.116708007   0.681131879
H1       0.033496019   1.174084697   0.680763203

     Writing output data file calc.save
     Check: negative starting charge=   -1.299214
     NEW-OLD atomic charge density approx. for the potential

     Check: negative/imaginary core charge=   -0.000003    0.000000
     Check: negative starting charge=   -1.299171

[...]

     Self-consistent Calculation

[...]

     total energy              =   -1940.71351079 Ry
     Harris-Foulkes estimate   =   -1940.71351086 Ry
     estimated scf accuracy    <       0.00000024 Ry

     iteration # 11     ecut=    36.75 Ry     beta=0.30
     Davidson diagonalization with overlap
     ethr =  1.62E-10,  avg # of iterations =  2.9

[...]

     negative rho (up, down):  1.377E+00 0.000E+00

     Adding external electric field

     Computed dipole along edir(3) :
        Dipole                0.1953 Ry au,          0.4964 Debye
        Dipole field          0.0004 Ry au

        Potential amp.       -0.0379 Ry
        Total length         46.4675 bohr

     End of self-consistent calculation

[...]

          k = 0.0521-0.0602 0.0000 ( 22643 PWs)   bands (ev):

[...]

          k =-0.0782-0.0452 0.0000 ( 22668 PWs)   bands (ev):

   -60.9717 -60.9710 -60.9546 -60.9539 -60.8066 -60.7718 -60.7629 -60.7233
   -60.4186 -60.4023 -60.4005 -60.3493 -29.6375 -29.6373 -29.5867 -29.5802
   -29.5310 -29.5274 -29.5243 -29.5048 -29.4838 -29.4746 -29.4615 -29.4472
   -29.4378 -29.4321 -29.4111 -29.3725 -29.3455 -29.3020 -29.2925 -29.2620
   -29.2605 -29.2515 -29.1275 -29.0583 -29.0516 -29.0275 -28.9309 -28.9190
   -28.9009 -28.8771 -28.8732 -28.8616 -28.8514 -28.8042 -28.7482 -28.7148
   -11.1886  -5.4843  -3.5425  -3.2541  -2.8887  -2.0937  -1.6474  -1.2347
    -0.9898  -0.9012  -0.6008  -0.4163  -0.3168  -0.2426   0.4555   0.5793
     0.6099   0.6595   0.7823   0.7991   1.0129   1.0531   1.1441   1.1813
     1.2340   1.2890   1.4450   1.4641   1.5365   1.6258   1.6563   1.8262
     1.9114   2.0595   2.0962   2.4861   2.6075

     the Fermi energy is     1.6421 ev

!    total energy              =   -1940.71351078 Ry
     Harris-Foulkes estimate   =   -1940.71351205 Ry
     estimated scf accuracy    <       0.00000004 Ry

     The total energy is the sum of the following terms:

     one-electron contribution =   -8792.78914081 Ry
     hartree contribution      =    4382.76017948 Ry
     xc contribution           =    -933.31584166 Ry
     ewald contribution        =    3402.74309510 Ry
     electric field correction =       0.00007957 Ry
     smearing contrib. (-TS)   =      -0.11188246 Ry

     convergence has been achieved in  11 iterations

 BEEF-vdW xc energy contributions
           1 :   -843.770467004128
           2 :    784.244047486341
           3 :   -678.711912155325
           4 :    548.924623063820
           5 :   -417.444174181081
           6 :    301.340560172501
           7 :   -209.363187097956
           8 :    142.754249515292
           9 :   -98.2449793926567
          10 :    71.0740314498934
          11 :   -56.6380685242406
          12 :    50.6463372726024
          13 :   -48.7141014730852
          14 :    46.3886761733377
          15 :   -39.9949106883059
          16 :    27.8342402779735
          17 :   -10.9097316319495
          18 :   -7.43882955834738
          19 :    22.9267255353644
          20 :   -32.0942464358483
          21 :    33.5927822621909
          22 :   -28.4518074782005
          23 :    19.3541416320676
          24 :   -9.45049692094301
          25 :    1.34555959661884
          26 :    3.36487991102217
          27 :   -4.05810824645403
          28 :   0.861920051737002
          29 :    5.46368295668174
          30 :   -13.5133121345868
          31 :   -60.8306754636228
          32 :   -43.7697919483766

     Forces acting on atoms (Ry/au):

     negative rho (up, down):  1.377E+00 0.000E+00
     atom    1 type  1   force =    -0.00023842    0.00000180    0.01663768
     atom    2 type  1   force =     0.00030223    0.00135203    0.01984920
     atom    3 type  1   force =     0.00131663   -0.00082894    0.02054378
     atom    4 type  1   force =    -0.00123415   -0.00100611    0.02035289
     atom    5 type  1   force =     0.00313260   -0.00347156   -0.01600625
     atom    6 type  1   force =    -0.00315308   -0.00305711   -0.02005094
     atom    7 type  1   force =    -0.00048479    0.00184013   -0.02153640
     atom    8 type  1   force =    -0.00043996    0.00467423   -0.02028862
     atom    9 type  1   force =     0.00085680    0.00076290   -0.00008363
     atom   10 type  1   force =     0.00088966   -0.00079998    0.00119935
     atom   11 type  1   force =     0.00006633    0.00087794    0.00111042
     atom   12 type  1   force =     0.00023377    0.00009014   -0.00067010
     atom   13 type  2   force =    -0.00060705   -0.00068505   -0.00076013
     atom   14 type  3   force =    -0.00097773    0.00016007   -0.00003501
     atom   15 type  3   force =     0.00033716    0.00008952   -0.00026226

     Total force =     0.003050     Total SCF correction =     0.000263

     entering subroutine stress ...

     negative rho (up, down):  1.377E+00 0.000E+00
          total   stress  (Ry/bohr**3)                   (kbar)     P=  -14.98
  -0.00011173   0.00000178  -0.00000028        -16.44      0.26     -0.04
   0.00000178  -0.00010605   0.00000054          0.26    -15.60      0.08
  -0.00000028   0.00000054  -0.00008767         -0.04      0.08    -12.90

     bfgs converged in  50 scf cycles and  49 bfgs steps
     (criteria: energy <  1.0E+00, force <  1.9E-03)

     End of BFGS Geometry Optimization

     Final energy   =   -1940.7135107782 Ry
Begin final coordinates

ATOMIC_POSITIONS (crystal)
Hf1      0.166666667   0.166666667   0.396510335    0   0   0
Hf1      0.666666667   0.166666667   0.396510335    0   0   0
Hf1      0.166666667   0.666666667   0.396510335    0   0   0
Hf1      0.666666667   0.666666667   0.396510335    0   0   0
Hf1      0.833333333   0.333333333   0.500000000    0   0   0
Hf1      0.333333333   0.333333333   0.500000000    0   0   0
Hf1      0.833333333   0.833333333   0.500000000    0   0   0
Hf1      0.333333333   0.833333333   0.500000000    0   0   0
Hf1      0.002764720  -0.006382248   0.599551364
Hf1      0.497716277  -0.001938457   0.599369182
Hf1     -0.000391783   0.503450778   0.597946290
Hf1      0.499967633   0.498823961   0.594461114
C1       0.183142098   0.142225852   0.653587178
H1       0.330357862   0.116708007   0.681131879
H1       0.033496019   1.174084697   0.680763203
End final coordinates

     Writing output data file calc.save

     General routines

     Parallel routines

   This run was terminated on:   8:37: 0  18Apr2018

   JOB DONE.