     Program PWSCF v.5.1rc2 (svn rev. 11289) starts on  3May2018 at  1:19:56

     Current dimensions of program PWSCF are:
     Max number of different atomic species (ntypx) = 10
     Max number of k-points (npk) =  40000
     Max angular momentum in pseudopotentials (lmaxx) =  3
     Presently stress not available with electric field

     IMPORTANT: XC functional enforced from input :
     Exchange-correlation      = BEEF-VDW ( 1  4 27 13 2)
     Any further DFT definition will be discarded
     Please, verify this is what you really want

     Subspace diagonalization in iterative solution of the eigenvalue problem:
     a serial algorithm will be used

     bravais-lattice index     =            0
     lattice parameter (alat)  =       1.8897  a.u.
     unit-cell volume          =    4704.3541 (a.u.)^3
     number of atoms/cell      =           13
     number of atomic types    =            2
     number of electrons       =       172.00
     number of Kohn-Sham states=           96
     kinetic-energy cutoff     =      36.7493  Ry
     charge density cutoff     =     367.4932  Ry
     convergence threshold     =      1.0E-05
     mixing beta               =       0.3000
     number of iterations used =           10  plain     mixing
     Exchange-correlation      = BEEF-VDW ( 1  4 27 13 2)
     nstep                     =           50

     celldm(1)=   1.889726  celldm(2)=   0.000000  celldm(3)=   0.000000
     celldm(4)=   0.000000  celldm(5)=   0.000000  celldm(6)=   0.000000

     crystal axes: (cart. coord. in units of alat)
               a(1) = (   5.712816   0.000000   0.000000 )
               a(2) = (   2.856408   4.947444   0.000000 )
               a(3) = (   0.000000   0.000000  24.664495 )

     reciprocal axes: (cart. coord. in units 2 pi/alat)
               b(1) = (  0.175045 -0.101062  0.000000 )
               b(2) = (  0.000000  0.202125  0.000000 )
               b(3) = (  0.000000  0.000000  0.040544 )

     PseudoPot. # 1 for W  read from file:
     /u/if/mamunm/psp/gbrv1.5pbe/W.UPF
     MD5 check sum: 9c083fa34c2a2ea0f02f1f893e16e1c8
     Pseudo is Ultrasoft + core correction, Zval = 14.0
     Generated by new atomic code, or converted to UPF format
     Using radial grid of  923 points,  8 beta functions with:
                l(1) =   0
                l(2) =   0
                l(3) =   0
                l(4) =   1
                l(5) =   1
                l(6) =   2
                l(7) =   2
                l(8) =   3
     Q(r) pseudized with  6 coefficients,  rinner =    1.350   1.350   1.350
                                                       1.350   1.350   1.350
                                                       1.350

     PseudoPot. # 2 for C  read from file:
     /u/if/mamunm/psp/gbrv1.5pbe/C.UPF
     MD5 check sum: d1aef80898a10debaa0f26306b886e00
     Pseudo is Ultrasoft + core correction, Zval =  4.0
     Generated by new atomic code, or converted to UPF format
     Using radial grid of  721 points,  4 beta functions with:
                l(1) =   0
                l(2) =   0
                l(3) =   1
                l(4) =   1
     Q(r) pseudized with  8 coefficients,  rinner =    1.100   1.100   1.100

     vdW kernel table read from file vdW_kernel_table
     MD5 check sum: 095c7af220d748ca6e76c0b4c6cfb241

     atomic species   valence    mass     pseudopotential
        W1            14.00   183.84000     W ( 1.00)
        C1             4.00    12.01100     C ( 1.00)

     No symmetry found

   Cartesian axes

     site n.     atom                  positions (alat units)
         1           W1  tau(   1) = (   1.4282041   0.8245740  10.0000000  )
         2           W1  tau(   2) = (   4.2846123   0.8245740  10.0000000  )
         3           W1  tau(   3) = (   2.8564082   3.2982961  10.0000000  )
         4           W1  tau(   4) = (   5.7128165   3.2982961  10.0000000  )
         5           W1  tau(   5) = (   5.7128165   1.6491481  12.3322476  )
         6           W1  tau(   6) = (   2.8564082   1.6491481  12.3322476  )
         7           W1  tau(   7) = (   7.1410206   4.1228701  12.3322476  )
         8           W1  tau(   8) = (   4.2846123   4.1228701  12.3322476  )
         9           W1  tau(   9) = (   0.0000000   0.0000000  14.6644951  )
        10           W1  tau(  10) = (   2.8564082   0.0000000  14.6644951  )
        11           W1  tau(  11) = (   1.4282041   2.4737221  14.6644951  )
        12           W1  tau(  12) = (   4.2846123   2.4737221  14.6644951  )
        13           C1  tau(  13) = (   0.0000000   0.0000000  16.6874951  )

     number of k points=    20  Fermi-Dirac smearing, width (Ry)=  0.0110
                       cart. coord. in units 2pi/alat
        k(    1) = (   0.0000000   0.0000000   0.0000000), wk =   0.0555556
        k(    2) = (   0.0000000   0.0336874   0.0000000), wk =   0.1111111
        k(    3) = (   0.0000000   0.0673749   0.0000000), wk =   0.1111111
        k(    4) = (   0.0000000  -0.1010623   0.0000000), wk =   0.0555556
        k(    5) = (   0.0291742  -0.0168437   0.0000000), wk =   0.1111111
        k(    6) = (   0.0291742   0.0168437   0.0000000), wk =   0.1111111
        k(    7) = (   0.0291742   0.0505311   0.0000000), wk =   0.1111111
        k(    8) = (   0.0291742  -0.1179060   0.0000000), wk =   0.1111111
        k(    9) = (   0.0291742  -0.0842186   0.0000000), wk =   0.1111111
        k(   10) = (   0.0291742  -0.0505311   0.0000000), wk =   0.1111111
        k(   11) = (   0.0583483  -0.0336874   0.0000000), wk =   0.1111111
        k(   12) = (   0.0583483  -0.0000000   0.0000000), wk =   0.1111111
        k(   13) = (   0.0583483   0.0336874   0.0000000), wk =   0.1111111
        k(   14) = (   0.0583483  -0.1347497   0.0000000), wk =   0.1111111
        k(   15) = (   0.0583483  -0.1010623   0.0000000), wk =   0.1111111
        k(   16) = (   0.0583483  -0.0673749   0.0000000), wk =   0.1111111
        k(   17) = (  -0.0875225   0.0505311   0.0000000), wk =   0.0555556
        k(   18) = (  -0.0875225   0.0842186   0.0000000), wk =   0.1111111
        k(   19) = (  -0.0875225   0.1179060   0.0000000), wk =   0.1111111
        k(   20) = (  -0.0875225  -0.0505311   0.0000000), wk =   0.0555556

     Largest allocated arrays     est. size (Mb)     dimensions
     Largest temporary arrays     est. size (Mb)     dimensions

     Initial potential from superposition of free atoms
     Check: negative starting charge=   -0.760335

     starting charge  170.79588, renormalised to  172.00000

     negative rho (up, down):  7.657E-01 0.000E+00

     *
     * You are using vdW-DF for exchange-correlation in this calculation.
     * Please cite the following three references that made this development
     * possible:
     *
     *   M. Dion, H. Rydberg, E. Schroder, D. C. Langreth, and
     *   B. I. Lundqvist, Phys. Rev. Lett. 92, 246401 (2004).
     *
     *   T. Thonhauser, V. R. Cooper, S. Li, A. Puzder, P. Hyldgaard, and
     *   D. C. Langreth, Phys. Rev. B 76, 125112 (2007).
     *
     *   G. Roman-Perez and J. M. Soler, Phys. Rev. Lett. 103, 096102 (2009).
     *
     *
     * If you are using vdW-DF2, please also cite:
     *
     *   K. Lee, E. D. Murray, L. Kong, B. I. Lundqvist, and
     *   D. C. Langreth, Phys. Rev. B 82, 081101(R) (2010).
     *
     *
     * If you are calculating the stress with vdW-DF, please also cite:
     *
     *   R. Sabatini, E. Kucukbenli, B. Kolb, T. Thonhauser, and
     *   S. de Gironcoli, J. Phys.: Condens. Matter 24, 424209 (2012).
     *

     Carrying out vdW-DF run using the following parameters:

     Nqs =      20    Nr_points =    1024   r_max =   100.000
     q_mesh =
               0.00001000     0.04494208     0.09755937     0.15916263
               0.23128650     0.31572767     0.41458969     0.53033537
               0.66584808     0.82450364     1.01025438     1.22772762
               1.48234092     1.78043706     2.12944203     2.53805004
               3.01644009     3.57652955     4.23227104     5.00000000

     Gradients computed in reciprocal space

     Adding external electric field

     Computed dipole along edir(3) :
        Dipole               -0.2318 Ry au,         -0.5891 Debye
        Dipole field         -0.0006 Ry au

        Potential amp.        0.0563 Ry
        Total length         45.4439 bohr

     Starting wfc are  160 randomized atomic wfcs

     Self-consistent Calculation

     iteration #  1     ecut=    36.75 Ry     beta=0.30
     Davidson diagonalization with overlap
     ethr =  1.00E-02,  avg # of iterations =  2.0

[...]

     total energy              =   -1935.02057543 Ry
     Harris-Foulkes estimate   =   -1936.42079242 Ry
     estimated scf accuracy    <       3.14308998 Ry

[...]

     End of self-consistent calculation

          k = 0.0000 0.0000 0.0000 ( 17753 PWs)   bands (ev):

   -72.1805 -72.1245 -72.1244 -72.0931 -72.0426 -72.0238 -72.0036 -72.0035
   -71.9834 -71.9816 -71.9815 -71.6960 -36.6913 -36.6913 -36.6833 -36.6460
   -36.5964 -36.5751 -36.5751 -36.4880 -36.4791 -36.4790 -36.3226 -36.2562
   -36.2562 -36.1316 -36.1234 -36.1233 -36.0350 -36.0116 -36.0039 -36.0038
   -35.9215 -35.9214 -35.9206 -35.9096 -35.8506 -35.8505 -35.8001 -35.7982
   -35.7982 -35.7596 -35.7596 -35.7439 -35.6282 -35.6282 -35.5925 -35.5925
    -6.7873  -5.8483  -4.1607  -3.4528  -2.9270  -2.9270  -2.9079  -2.6808
    -2.6808  -2.6345  -1.9072  -1.9028  -1.9028  -1.8740  -1.8740  -1.8476
    -0.5931  -0.5931  -0.4178   0.6005   0.6405   0.6405   0.7602   1.0244
     1.2155   1.4889   1.4889   1.5386   1.5386   1.8043   1.8043   1.8880
     1.8880   1.9223   1.9367   2.1196   2.1196   2.1424   2.1424   2.7064
     2.9312   3.2702   3.4226   3.4226   3.7415   3.8268   3.8268   4.0627

[...]

          k =-0.0875 0.0505 0.0000 ( 17668 PWs)   bands (ev):

[...]

     the Fermi energy is     2.1210 ev

!    total energy              =   -1936.07254048 Ry
     Harris-Foulkes estimate   =   -1936.07254168 Ry
     estimated scf accuracy    <       0.00000664 Ry

     The total energy is the sum of the following terms:

     one-electron contribution =  -14830.05328302 Ry
     hartree contribution      =    7398.10421999 Ry
     xc contribution           =    -513.65955838 Ry
     ewald contribution        =    6009.63185594 Ry
     electric field correction =       0.00023217 Ry
     smearing contrib. (-TS)   =      -0.09600718 Ry

     convergence has been achieved in  14 iterations

 BEEF-vdW xc energy contributions
           1 :   -451.873001179483
           2 :    418.032973241812
           3 :   -358.459322082586
           4 :    286.217098996101
           5 :   -214.874701614011
           6 :    154.589340489711
           7 :   -109.960570121185
           8 :    80.1387422047042
           9 :   -60.7621258085975
          10 :    46.6422541310444
          11 :   -33.9977070109665
          12 :    21.4474619738053
          13 :   -9.66656005106239
          14 :   0.205764012779866
          15 :    5.77338714480993
          16 :   -8.24459736993117
          17 :    8.30936442267034
          18 :   -7.58422461773142
          19 :    7.39135964171521
          20 :   -8.19898655123615
          21 :    9.57225569225591
          22 :   -10.6024433865538
          23 :    10.5324713730563
          24 :   -9.22280597215774
          25 :    7.22295758457426
          26 :   -5.44376331542560
          27 :    4.64088116903781
          28 :   -5.00978264167367
          29 :    6.10954018250675
          30 :   -7.13598367752638
          31 :   -40.9960123776559
          32 :   -30.7075069861443

     Forces acting on atoms (Ry/au):

     negative rho (up, down):  7.922E-01 0.000E+00
     atom    1 type  1   force =     0.00091142    0.00051226   -0.00312281
     atom    2 type  1   force =    -0.00091077    0.00052249   -0.00312781
     atom    3 type  1   force =     0.00000908   -0.00104222   -0.00311173
     atom    4 type  1   force =    -0.00000910    0.00000935   -0.00230356
     atom    5 type  1   force =    -0.00001032    0.00509351   -0.00465741
     atom    6 type  1   force =     0.00000889    0.00001301    0.01772452
     atom    7 type  1   force =    -0.00440036   -0.00254728   -0.00467408
     atom    8 type  1   force =     0.00440046   -0.00256100   -0.00466732
     atom    9 type  1   force =     0.00000380   -0.00001076    0.13103840
     atom   10 type  1   force =    -0.00000510    0.00200594   -0.00494633
     atom   11 type  1   force =     0.00175038   -0.00100174   -0.00492865
     atom   12 type  1   force =    -0.00174812   -0.00099386   -0.00494393
     atom   13 type  2   force =    -0.00000026    0.00000030   -0.10827928

     Total force =     0.170237     Total SCF correction =     0.003650

     entering subroutine stress ...

     negative rho (up, down):  7.922E-01 0.000E+00
          total   stress  (Ry/bohr**3)                   (kbar)     P=  -49.15
  -0.00042563   0.00000000  -0.00000000        -62.61      0.00     -0.00
   0.00000000  -0.00042563   0.00000000          0.00    -62.61      0.00
  -0.00000000   0.00000000  -0.00015115         -0.00      0.00    -22.23

     BFGS Geometry Optimization

     number of scf cycles    =   1
     number of bfgs steps    =   0

     energy   new            =   -1936.0725404797 Ry

     new trust radius        =       0.1310384014 bohr
     new conv_thr            =       0.0000099958 Ry

ATOMIC_POSITIONS (crystal)
W1       0.166666667   0.166666667   0.405441099    0   0   0
W1       0.666666667   0.166666667   0.405441099    0   0   0
W1       0.166666667   0.666666667   0.405441099    0   0   0
W1       0.666666667   0.666666667   0.405441099    0   0   0
W1       0.833333333   0.333333333   0.500000000    0   0   0
W1       0.333333333   0.333333333   0.500000000    0   0   0
W1       0.833333333   0.833333333   0.500000000    0   0   0
W1       0.333333333   0.833333333   0.500000000    0   0   0
W1       0.000000928  -0.000001151   0.597370332
W1       0.499892250   0.000214554   0.594452777
W1       0.000215710   0.499892854   0.594453157
W1       0.499891224   0.499893697   0.594452829
C1      -0.000000040   0.000000033   0.674256501

     Writing output data file calc.save
     Check: negative starting charge=   -0.760335
     NEW-OLD atomic charge density approx. for the potential
     Check: negative starting charge=   -0.761114

[...]

     Total force =     0.052251     Total SCF correction =     0.008759
     SCF correction compared to forces is large: reduce conv_thr to get better values

[...]

     energy   old            =   -1936.0725404797 Ry
     energy   new            =   -1936.0923413246 Ry

     CASE: energy  _new < energy  _old

[...]

     Total force =     0.009374     Total SCF correction =     0.000597

[...]

     number of scf cycles    =   7
     number of bfgs steps    =   6

     energy   old            =   -1936.0943473183 Ry
     energy   new            =   -1936.0944903137 Ry

     CASE: energy  _new < energy  _old

     new trust radius        =       0.0137701145 bohr
     new conv_thr            =       0.0000001000 Ry

ATOMIC_POSITIONS (crystal)
W1       0.166666667   0.166666667   0.405441099    0   0   0
W1       0.666666667   0.166666667   0.405441099    0   0   0
W1       0.166666667   0.666666667   0.405441099    0   0   0
W1       0.666666667   0.666666667   0.405441099    0   0   0
W1       0.833333333   0.333333333   0.500000000    0   0   0
W1       0.333333333   0.333333333   0.500000000    0   0   0
W1       0.833333333   0.833333333   0.500000000    0   0   0
W1       0.333333333   0.833333333   0.500000000    0   0   0
W1       0.000000276  -0.000000245   0.598025362
W1       0.499422038   0.001156209   0.593035486
W1       0.001156822   0.499421564   0.593035494
W1       0.499421849   0.499421731   0.593035432
C1      -0.000000202   0.000000158   0.673212436

     Writing output data file calc.save
     Check: negative starting charge=   -0.761133
     NEW-OLD atomic charge density approx. for the potential
     Check: negative starting charge=   -0.760009

[...]

     Self-consistent Calculation

[...]

     total energy              =   -1936.09453287 Ry
     Harris-Foulkes estimate   =   -1936.09453287 Ry
     estimated scf accuracy    <       0.00000011 Ry

     iteration # 10     ecut=    36.75 Ry     beta=0.30
     Davidson diagonalization with overlap
     ethr =  6.34E-11,  avg # of iterations =  3.5

[...]

     negative rho (up, down):  7.921E-01 0.000E+00

     Adding external electric field

     Computed dipole along edir(3) :
        Dipole               -0.2836 Ry au,         -0.7208 Debye
        Dipole field         -0.0008 Ry au

        Potential amp.        0.0689 Ry
        Total length         45.4439 bohr

     End of self-consistent calculation

[...]

          k = 0.0583-0.0674 0.0000 ( 17692 PWs)   bands (ev):

[...]

          k =-0.0875-0.0505 0.0000 ( 17668 PWs)   bands (ev):

   -72.1379 -72.1201 -72.1005 -72.0546 -72.0529 -72.0177 -72.0131 -72.0126
   -72.0125 -71.9898 -71.9880 -71.4713 -36.5574 -36.5540 -36.5475 -36.4900
   -36.4872 -36.4294 -36.3839 -36.3710 -36.3356 -36.3237 -36.2947 -36.2565
   -36.1884 -36.1421 -36.1336 -36.1090 -36.1090 -36.1001 -36.0420 -36.0343
   -36.0311 -36.0243 -36.0107 -36.0062 -35.9094 -35.9071 -35.8865 -35.8701
   -35.8559 -35.8444 -35.7954 -35.7244 -35.7158 -35.6972 -35.5974 -35.4839
    -6.6343  -4.1619  -4.0409  -2.6489  -2.4861  -1.9455  -1.9300  -1.7767
    -1.7527  -1.7460  -1.6934  -0.9554  -0.9053  -0.7038  -0.5993  -0.5465
    -0.4578  -0.3514  -0.2128  -0.1485   0.0433   0.2087   0.2175   0.3037
     0.4532   0.6650   0.8360   0.9475   1.0169   1.0173   1.0727   1.1826
     1.2587   1.3618   1.4059   1.6012   1.6744   1.7273   1.8258   2.0963
     2.3121   2.4195   2.8844   3.0103   3.1144   3.2513   3.2932   3.2973

     the Fermi energy is     2.1151 ev

!    total energy              =   -1936.09453286 Ry
     Harris-Foulkes estimate   =   -1936.09453206 Ry
     estimated scf accuracy    <       0.00000005 Ry

     The total energy is the sum of the following terms:

     one-electron contribution =  -14862.45546441 Ry
     hartree contribution      =    7414.45499419 Ry
     xc contribution           =    -513.82986313 Ry
     ewald contribution        =    6025.83165547 Ry
     electric field correction =       0.00021483 Ry
     smearing contrib. (-TS)   =      -0.09606981 Ry

     convergence has been achieved in  10 iterations

 BEEF-vdW xc energy contributions
           1 :   -452.039631996880
           2 :    418.222525411496
           3 :   -358.675257041470
           4 :    286.436091342515
           5 :   -215.054893981314
           6 :    154.689785931969
           7 :   -109.963140703473
           8 :    80.0604825944109
           9 :   -60.6500648475649
          10 :    46.5523726737514
          11 :   -33.9695979977273
          12 :    21.4885281133487
          13 :   -9.75290317502333
          14 :   0.296556703626379
          15 :    5.71719588715575
          16 :   -8.24547115898724
          17 :    8.36722230946498
          18 :   -7.68057170867519
          19 :    7.49972442457715
          20 :   -8.29628925760557
          21 :    9.64658148149158
          22 :   -10.6543888273699
          23 :    10.5706130487042
          24 :   -9.25646045644902
          25 :    7.25602583683587
          26 :   -5.47276927707185
          27 :    4.65858576292476
          28 :   -5.01223942023830
          29 :    6.10143441424634
          30 :   -7.13060740252615
          31 :   -41.0062406362881
          32 :   -30.7211797877818

     Forces acting on atoms (Ry/au):

     negative rho (up, down):  7.921E-01 0.000E+00
     atom    1 type  1   force =     0.00112008    0.00064668   -0.00123419
     atom    2 type  1   force =    -0.00112007    0.00064657   -0.00123435
     atom    3 type  1   force =    -0.00000009   -0.00129327   -0.00123430
     atom    4 type  1   force =     0.00000012    0.00000010   -0.00412831
     atom    5 type  1   force =     0.00000041   -0.00333077   -0.00022707
     atom    6 type  1   force =    -0.00000067   -0.00000019    0.00925018
     atom    7 type  1   force =     0.00288432    0.00166530   -0.00022667
     atom    8 type  1   force =    -0.00288431    0.00166577   -0.00022732
     atom    9 type  1   force =     0.00000005    0.00000017    0.00005738
     atom   10 type  1   force =     0.00000020   -0.00075917    0.00000769
     atom   11 type  1   force =    -0.00065748    0.00037944    0.00000771
     atom   12 type  1   force =     0.00065750    0.00037923    0.00000809
     atom   13 type  2   force =    -0.00000008    0.00000014   -0.00081885

     Total force =     0.001550     Total SCF correction =     0.000470
     SCF correction compared to forces is large: reduce conv_thr to get better values

     entering subroutine stress ...

     negative rho (up, down):  7.921E-01 0.000E+00
          total   stress  (Ry/bohr**3)                   (kbar)     P=  -42.85
  -0.00039887  -0.00000000   0.00000000        -58.68     -0.00      0.00
  -0.00000000  -0.00039887  -0.00000000         -0.00    -58.68     -0.00
   0.00000000  -0.00000000  -0.00007617          0.00     -0.00    -11.20

     bfgs converged in   8 scf cycles and   7 bfgs steps
     (criteria: energy <  1.0E+00, force <  1.9E-03)

     End of BFGS Geometry Optimization

     Final energy   =   -1936.0945328609 Ry
Begin final coordinates

ATOMIC_POSITIONS (crystal)
W1       0.166666667   0.166666667   0.405441099    0   0   0
W1       0.666666667   0.166666667   0.405441099    0   0   0
W1       0.166666667   0.666666667   0.405441099    0   0   0
W1       0.666666667   0.666666667   0.405441099    0   0   0
W1       0.833333333   0.333333333   0.500000000    0   0   0
W1       0.333333333   0.333333333   0.500000000    0   0   0
W1       0.833333333   0.833333333   0.500000000    0   0   0
W1       0.333333333   0.833333333   0.500000000    0   0   0
W1       0.000000276  -0.000000245   0.598025362
W1       0.499422038   0.001156209   0.593035486
W1       0.001156822   0.499421564   0.593035494
W1       0.499421849   0.499421731   0.593035432
C1      -0.000000202   0.000000158   0.673212436
End final coordinates

     Writing output data file calc.save

     General routines

     Parallel routines

   This run was terminated on:   2:27:29   3May2018

   JOB DONE.
Job  /afs/slac/g/suncat/bin/suncat-tsmpirun -x LD_LIBRARY_PATH -wdir /scratch/qe591023_NTe1e pw.x -npool 4 -in pw.inp

TID   HOST_NAME   COMMAND_LINE            STATUS            TERMINATION_TIME
00000 suncat0076 pw.x -npool 4 -i  Done                     05/03/2018 02:27:29
00001 suncat0076 pw.x -npool 4 -i  Done                     05/03/2018 02:27:29
00002 suncat0076 pw.x -npool 4 -i  Done                     05/03/2018 02:27:29
00003 suncat0076 pw.x -npool 4 -i  Done                     05/03/2018 02:27:29
00004 suncat0076 pw.x -npool 4 -i  Done                     05/03/2018 02:27:29
00005 suncat0076 pw.x -npool 4 -i  Done                     05/03/2018 02:27:29
00006 suncat0076 pw.x -npool 4 -i  Done                     05/03/2018 02:27:29
00007 suncat0076 pw.x -npool 4 -i  Done                     05/03/2018 02:27:29
00008 suncat0073 pw.x -npool 4 -i  Done                     05/03/2018 02:27:29
00009 suncat0073 pw.x -npool 4 -i  Done                     05/03/2018 02:27:29
00010 suncat0073 pw.x -npool 4 -i  Done                     05/03/2018 02:27:29
00011 suncat0073 pw.x -npool 4 -i  Done                     05/03/2018 02:27:29
00012 suncat0073 pw.x -npool 4 -i  Done                     05/03/2018 02:27:29
00013 suncat0073 pw.x -npool 4 -i  Done                     05/03/2018 02:27:29
00014 suncat0073 pw.x -npool 4 -i  Done                     05/03/2018 02:27:29
00015 suncat0073 pw.x -npool 4 -i  Done                     05/03/2018 02:27:29
00016 suncat0010 pw.x -npool 4 -i  Done                     05/03/2018 02:27:29
00017 suncat0010 pw.x -npool 4 -i  Done                     05/03/2018 02:27:29
00018 suncat0010 pw.x -npool 4 -i  Done                     05/03/2018 02:27:29
00019 suncat0010 pw.x -npool 4 -i  Done                     05/03/2018 02:27:29
00020 suncat0010 pw.x -npool 4 -i  Done                     05/03/2018 02:27:29
00021 suncat0010 pw.x -npool 4 -i  Done                     05/03/2018 02:27:29
00022 suncat0010 pw.x -npool 4 -i  Done                     05/03/2018 02:27:29
00023 suncat0010 pw.x -npool 4 -i  Done                     05/03/2018 02:27:29
00024 suncat0191 pw.x -npool 4 -i  Done                     05/03/2018 02:27:29
00025 suncat0191 pw.x -npool 4 -i  Done                     05/03/2018 02:27:29
00026 suncat0191 pw.x -npool 4 -i  Done                     05/03/2018 02:27:29
00027 suncat0191 pw.x -npool 4 -i  Done                     05/03/2018 02:27:29
00028 suncat0191 pw.x -npool 4 -i  Done                     05/03/2018 02:27:29
00029 suncat0191 pw.x -npool 4 -i  Done                     05/03/2018 02:27:29
00030 suncat0191 pw.x -npool 4 -i  Done                     05/03/2018 02:27:29
00031 suncat0191 pw.x -npool 4 -i  Done                     05/03/2018 02:27:29