     Program PWSCF v.5.1rc2 (svn rev. 11289) starts on 16Jan2019 at 23:16:45

     Current dimensions of program PWSCF are:
     Max number of different atomic species (ntypx) = 10
     Max number of k-points (npk) =  40000
     Max angular momentum in pseudopotentials (lmaxx) =  3

     IMPORTANT: XC functional enforced from input :
     Exchange-correlation      = BEEF-VDW ( 1  4 27 13 2)
     Any further DFT definition will be discarded
     Please, verify this is what you really want

     Subspace diagonalization in iterative solution of the eigenvalue problem:
     a serial algorithm will be used

     bravais-lattice index     =            0
     lattice parameter (alat)  =      11.5057  a.u.
     unit-cell volume          =    5409.9594 (a.u.)^3
     number of atoms/cell      =           13
     number of atomic types    =            2
     number of electrons       =       232.00
     number of Kohn-Sham states=          126
     kinetic-energy cutoff     =      36.7493  Ry
     charge density cutoff     =     367.4933  Ry
     convergence threshold     =      1.0E-04
     mixing beta               =       0.2000
     number of iterations used =            8  plain     mixing
     Exchange-correlation      = BEEF-VDW ( 1  4 27 13 2)
     nstep                     =           50

     celldm(1)=  11.505670  celldm(2)=   0.000000  celldm(3)=   0.000000
     celldm(4)=   0.000000  celldm(5)=   0.000000  celldm(6)=   0.000000

     crystal axes: (cart. coord. in units of alat)
               a(1) = (   1.000000   0.000000   0.000000 )
               a(2) = (   0.500000   0.866025   0.000000 )
               a(3) = (   0.000000   0.000000   4.101357 )

     reciprocal axes: (cart. coord. in units 2 pi/alat)
               b(1) = (  1.000000 -0.577350  0.000000 )
               b(2) = (  0.000000  1.154701  0.000000 )
               b(3) = (  0.000000  0.000000  0.243822 )

     PseudoPot. # 1 for Ga read from file:
     /nfs/slac/g/suncatfs/mamunm/src/decaf-espresso/gbrv15pbe/Ga.UPF
     MD5 check sum: ccd671392a58a050fbb373893b4fcd66
     Pseudo is Ultrasoft + core correction, Zval = 19.0
     Generated by new atomic code, or converted to UPF format
     Using radial grid of  871 points,  6 beta functions with:
                l(1) =   0
                l(2) =   0
                l(3) =   1
                l(4) =   1
                l(5) =   2
                l(6) =   2
     Q(r) pseudized with  8 coefficients,  rinner =    1.250   1.250   1.250
                                                       1.250   1.250

     PseudoPot. # 2 for C  read from file:
     /nfs/slac/g/suncatfs/mamunm/src/decaf-espresso/gbrv15pbe/C.UPF
     MD5 check sum: d1aef80898a10debaa0f26306b886e00
     Pseudo is Ultrasoft + core correction, Zval =  4.0
     Generated by new atomic code, or converted to UPF format
     Using radial grid of  721 points,  4 beta functions with:
                l(1) =   0
                l(2) =   0
                l(3) =   1
                l(4) =   1
     Q(r) pseudized with  8 coefficients,  rinner =    1.100   1.100   1.100

     vdW kernel table read from file vdW_kernel_table
     MD5 check sum: 095c7af220d748ca6e76c0b4c6cfb241

     atomic species   valence    mass     pseudopotential
        Ga            19.00    69.72300     Ga( 1.00)
        C              4.00    12.01100     C ( 1.00)

     No symmetry found

   Cartesian axes

     site n.     atom                  positions (alat units)
         1           Ga  tau(   1) = (   0.2500000   0.1443376   1.6424303  )
         2           Ga  tau(   2) = (   0.7500000   0.1443376   1.6424303  )
         3           Ga  tau(   3) = (   0.5000000   0.5773503   1.6424303  )
         4           Ga  tau(   4) = (   1.0000000   0.5773503   1.6424303  )
         5           Ga  tau(   5) = (   1.0000000   0.2886751   2.0506786  )
         6           Ga  tau(   6) = (   0.5000000   0.2886751   2.0506786  )
         7           Ga  tau(   7) = (   1.2500000   0.7216878   2.0506786  )
         8           Ga  tau(   8) = (   0.7500000   0.7216878   2.0506786  )
         9           Ga  tau(   9) = (  -0.0000162  -0.0000130   2.3715410  )
        10           Ga  tau(  10) = (   0.4999956   0.0014580   2.5423861  )
        11           Ga  tau(  11) = (   0.2512524   0.4322617   2.5424249  )
        12           Ga  tau(  12) = (   0.7487285   0.4322842   2.5424442  )
        13           C   tau(  13) = (   0.0000435   0.0000701   2.6835126  )

     number of k points=    20  Fermi-Dirac smearing, width (Ry)=  0.0110
                       cart. coord. in units 2pi/alat
        k(    1) = (   0.0000000   0.0000000   0.0000000), wk =   0.0555556
        k(    2) = (   0.0000000   0.1924501   0.0000000), wk =   0.1111111
        k(    3) = (   0.0000000   0.3849002   0.0000000), wk =   0.1111111
        k(    4) = (   0.0000000  -0.5773503   0.0000000), wk =   0.0555556
        k(    5) = (   0.1666667  -0.0962250   0.0000000), wk =   0.1111111
        k(    6) = (   0.1666667   0.0962250   0.0000000), wk =   0.1111111
        k(    7) = (   0.1666667   0.2886751   0.0000000), wk =   0.1111111
        k(    8) = (   0.1666667  -0.6735753   0.0000000), wk =   0.1111111
        k(    9) = (   0.1666667  -0.4811252   0.0000000), wk =   0.1111111
        k(   10) = (   0.1666667  -0.2886751   0.0000000), wk =   0.1111111
        k(   11) = (   0.3333333  -0.1924501   0.0000000), wk =   0.1111111
        k(   12) = (   0.3333333   0.0000000   0.0000000), wk =   0.1111111
        k(   13) = (   0.3333333   0.1924501   0.0000000), wk =   0.1111111
        k(   14) = (   0.3333333  -0.7698004   0.0000000), wk =   0.1111111
        k(   15) = (   0.3333333  -0.5773503   0.0000000), wk =   0.1111111
        k(   16) = (   0.3333333  -0.3849002   0.0000000), wk =   0.1111111
        k(   17) = (  -0.5000000   0.2886751   0.0000000), wk =   0.0555556
        k(   18) = (  -0.5000000   0.4811252   0.0000000), wk =   0.1111111
        k(   19) = (  -0.5000000   0.6735753   0.0000000), wk =   0.1111111
        k(   20) = (  -0.5000000  -0.2886751   0.0000000), wk =   0.0555556

     Largest allocated arrays     est. size (Mb)     dimensions
     Largest temporary arrays     est. size (Mb)     dimensions

     Initial potential from superposition of free atoms
     Check: negative starting charge=   -0.001208

     starting charge  219.99995, renormalised to  232.00000

     negative rho (up, down):  1.274E-03 0.000E+00

     *
     * You are using vdW-DF for exchange-correlation in this calculation.
     * Please cite the following three references that made this development
     * possible:
     *
     *   M. Dion, H. Rydberg, E. Schroder, D. C. Langreth, and
     *   B. I. Lundqvist, Phys. Rev. Lett. 92, 246401 (2004).
     *
     *   T. Thonhauser, V. R. Cooper, S. Li, A. Puzder, P. Hyldgaard, and
     *   D. C. Langreth, Phys. Rev. B 76, 125112 (2007).
     *
     *   G. Roman-Perez and J. M. Soler, Phys. Rev. Lett. 103, 096102 (2009).
     *
     *
     * If you are using vdW-DF2, please also cite:
     *
     *   K. Lee, E. D. Murray, L. Kong, B. I. Lundqvist, and
     *   D. C. Langreth, Phys. Rev. B 82, 081101(R) (2010).
     *
     *
     * If you are calculating the stress with vdW-DF, please also cite:
     *
     *   R. Sabatini, E. Kucukbenli, B. Kolb, T. Thonhauser, and
     *   S. de Gironcoli, J. Phys.: Condens. Matter 24, 424209 (2012).
     *

     Carrying out vdW-DF run using the following parameters:

     Nqs =      20    Nr_points =    1024   r_max =   100.000
     q_mesh =
               0.00001000     0.04494208     0.09755937     0.15916263
               0.23128650     0.31572767     0.41458969     0.53033537
               0.66584808     0.82450364     1.01025438     1.22772762
               1.48234092     1.78043706     2.12944203     2.53805004
               3.01644009     3.57652955     4.23227104     5.00000000

     Gradients computed in reciprocal space

     Adding external electric field

     Computed dipole along edir(3) :
        Dipole               -1.5542 Ry au,         -3.9504 Debye
        Dipole field         -0.0036 Ry au

        Potential amp.        0.3066 Ry
        Total length         42.4700 bohr

     Starting wfc are  148 randomized atomic wfcs

     Self-consistent Calculation

     iteration #  1     ecut=    36.75 Ry     beta=0.20
     Davidson diagonalization with overlap
     ethr =  1.00E-02,  avg # of iterations =  6.8

[...]

     total energy              =   -4917.14999169 Ry
     Harris-Foulkes estimate   =   -5032.59044303 Ry
     estimated scf accuracy    <     340.20941415 Ry

[...]

     End of self-consistent calculation

          k = 0.0000 0.0000 0.0000 ( 20347 PWs)   bands (ev):

   -95.0153 -95.0151 -95.0151 -94.9857 -94.9857 -94.9856 -94.9850 -94.9839
   -94.9825 -94.9824 -94.9644 -94.9644 -94.9555 -94.9553 -94.9553 -94.9507
   -94.9495 -94.9495 -94.9464 -94.9464 -94.9459 -94.9415 -94.9415 -94.9414
   -94.9409 -94.9398 -94.9398 -94.9339 -94.9339 -94.9301 -94.9294 -94.9291
   -94.9290 -94.6782 -94.6782 -94.6018 -15.4840 -15.4410 -15.4410 -15.4321
   -15.4062 -15.4000 -15.4000 -15.3968 -15.3968 -15.3902 -15.3824 -15.3824
   -15.3823 -15.3686 -15.3527 -15.3500 -15.3447 -15.3447 -15.3363 -15.3362
   -15.3354 -15.3354 -15.3300 -15.3242 -15.3242 -15.3075 -15.3075 -15.2972
   -15.2848 -15.2848 -15.2796 -15.2758 -15.2757 -15.2550 -15.2550 -15.2387
   -15.2387 -15.2331 -15.2330 -15.2269 -15.1974 -15.1974 -15.1920 -15.1863
   -15.1863 -15.1800 -15.1758 -15.1738 -15.1738 -15.1527 -15.1516 -15.1516
   -15.1450 -15.1450 -15.1391 -15.1369 -14.9938 -14.9937 -14.9329 -14.9329
   -10.4988  -9.7635  -7.8629  -6.5516  -5.0922  -5.0625  -5.0625  -4.8004
    -4.3106  -4.3105  -3.5527  -3.5209  -3.5206  -3.0186  -3.0185  -2.6024
    -1.9550  -1.6454  -1.6454  -1.6206  -1.4066  -1.2963  -1.2962   0.7607
     1.3877   1.3878   1.5093   2.5948   2.7325   2.7326

[...]

          k =-0.5000 0.2887 0.0000 ( 20384 PWs)   bands (ev):

[...]

     the Fermi energy is    -0.1903 ev

!    total energy              =   -5010.28554417 Ry
     Harris-Foulkes estimate   =   -5010.28553801 Ry
     estimated scf accuracy    <       0.00001163 Ry

     The total energy is the sum of the following terms:

     one-electron contribution =  -26548.05872884 Ry
     hartree contribution      =   13277.09960576 Ry
     xc contribution           =    -599.76621127 Ry
     ewald contribution        =    8860.47187271 Ry
     electric field correction =       0.00025412 Ry
     smearing contrib. (-TS)   =      -0.03233665 Ry

     convergence has been achieved in  15 iterations

     Forces acting on atoms (Ry/au):

     negative rho (up, down):  9.939E-04 0.000E+00
     atom    1 type  1   force =    -0.00287364   -0.00163100    0.00773753
     atom    2 type  1   force =     0.00288065   -0.00167757    0.00783831
     atom    3 type  1   force =    -0.00001323    0.00331244    0.00781003
     atom    4 type  1   force =     0.00001743    0.00000681    0.00815672
     atom    5 type  1   force =     0.00001791    0.01677320   -0.00311787
     atom    6 type  1   force =    -0.00002483    0.00000568    0.01110951
     atom    7 type  1   force =    -0.01452477   -0.00840810   -0.00313088
     atom    8 type  1   force =     0.01452371   -0.00838061   -0.00328511
     atom    9 type  1   force =    -0.00000687   -0.00000512   -0.00151074
     atom   10 type  1   force =    -0.00001369   -0.00003473   -0.00871663
     atom   11 type  1   force =    -0.00004821   -0.00001028   -0.00840679
     atom   12 type  1   force =     0.00003977    0.00001167   -0.00848124
     atom   13 type  2   force =     0.00002576    0.00003760   -0.00600285

     Total force =     0.016028     Total SCF correction =     0.016584
     SCF correction compared to forces is large: reduce conv_thr to get better values

     BFGS Geometry Optimization

     number of scf cycles    =   1
     number of bfgs steps    =   0

     energy   new            =   -5010.2855441730 Ry

     new trust radius        =       0.0087167124 bohr
     new conv_thr            =       0.0001000000 Ry

ATOMIC_POSITIONS (angstrom)
Ga       1.522134641   0.878804845  10.000000000    0   0   0
Ga       4.566403923   0.878804845  10.000000000    0   0   0
Ga       3.044269282   3.515219379  10.000000000    0   0   0
Ga       6.088538565   3.515219379  10.000000000    0   0   0
Ga       6.088538565   1.757609690  12.485635460    0   0   0
Ga       3.044269282   1.757609690  12.485635460    0   0   0
Ga       7.610673206   4.394024224  12.485635460    0   0   0
Ga       4.566403923   4.394024224  12.485635460    0   0   0
Ga      -0.000102489  -0.000082024  14.438419418
Ga       3.044235096   0.008858904  15.474803292
Ga       1.529734429   2.631836414  15.475203533
Ga       4.558683560   2.631985344  15.475281723
C        0.000278681   0.000446803  16.335493532

     Writing output data file calc.save
     Check: negative starting charge=   -0.001208
     NEW-OLD atomic charge density approx. for the potential
     Check: negative starting charge=   -0.001212

[...]

     energy   old            =   -5010.2855441730 Ry
     energy   new            =   -5010.2855484356 Ry

     CASE: energy  _new < energy  _old

[...]

     number of scf cycles    =   3
     number of bfgs steps    =   2

     energy   old            =   -5010.2855484356 Ry
     energy   new            =   -5010.2855601841 Ry

     CASE: energy  _new < energy  _old

     new trust radius        =       0.0025356517 bohr
     new conv_thr            =       0.0000010000 Ry

ATOMIC_POSITIONS (angstrom)
Ga       1.522134641   0.878804845  10.000000000    0   0   0
Ga       4.566403923   0.878804845  10.000000000    0   0   0
Ga       3.044269282   3.515219379  10.000000000    0   0   0
Ga       6.088538565   3.515219379  10.000000000    0   0   0
Ga       6.088538565   1.757609690  12.485635460    0   0   0
Ga       3.044269282   1.757609690  12.485635460    0   0   0
Ga       7.610673206   4.394024224  12.485635460    0   0   0
Ga       4.566403923   4.394024224  12.485635460    0   0   0
Ga      -0.000111486  -0.000098438  14.437252833
Ga       3.044219446   0.008412100  15.476982425
Ga       1.529332253   2.632031878  15.477376431
Ga       4.559073523   2.632198069  15.477457550
C        0.000309674   0.000491126  16.334374594

     Writing output data file calc.save
     Check: negative starting charge=   -0.001210
     NEW-OLD atomic charge density approx. for the potential
     Check: negative starting charge=   -0.001210

[...]

     Self-consistent Calculation

[...]

     Threshold (ethr) on eigenvalues was too large:
     Diagonalizing with lowered threshold

     Davidson diagonalization with overlap
     ethr =  3.50E-09,  avg # of iterations =  4.0

[...]

     total energy              =   -5010.28556664 Ry
     Harris-Foulkes estimate   =   -5010.28556677 Ry
     estimated scf accuracy    <       0.00000566 Ry

     iteration #  4     ecut=    36.75 Ry     beta=0.20
     Davidson diagonalization with overlap
     ethr =  2.44E-09,  avg # of iterations =  2.0

     negative rho (up, down):  9.946E-04 0.000E+00

     Adding external electric field

     Computed dipole along edir(3) :
        Dipole               -0.3427 Ry au,         -0.8710 Debye
        Dipole field         -0.0008 Ry au

        Potential amp.        0.0676 Ry
        Total length         42.4700 bohr

     End of self-consistent calculation

[...]

          k = 0.3333-0.3849 0.0000 ( 20377 PWs)   bands (ev):

[...]

          k =-0.5000-0.2887 0.0000 ( 20384 PWs)   bands (ev):

   -95.0239 -95.0239 -95.0238 -94.9947 -94.9946 -94.9943 -94.9941 -94.9927
   -94.9923 -94.9917 -94.9730 -94.9730 -94.9637 -94.9636 -94.9636 -94.9622
   -94.9618 -94.9614 -94.9584 -94.9583 -94.9580 -94.9499 -94.9495 -94.9494
   -94.9491 -94.9487 -94.9482 -94.9473 -94.9473 -94.9431 -94.9414 -94.9413
   -94.9412 -94.6918 -94.6918 -94.6164 -15.4488 -15.4174 -15.4130 -15.4000
   -15.3901 -15.3827 -15.3733 -15.3699 -15.3692 -15.3660 -15.3558 -15.3525
   -15.3498 -15.3480 -15.3438 -15.3421 -15.3397 -15.3367 -15.3326 -15.3320
   -15.3268 -15.3240 -15.3217 -15.3201 -15.3162 -15.3124 -15.3099 -15.3071
   -15.3057 -15.3030 -15.2978 -15.2928 -15.2926 -15.2809 -15.2769 -15.2729
   -15.2692 -15.2631 -15.2590 -15.2553 -15.2497 -15.2485 -15.2417 -15.2369
   -15.2339 -15.2316 -15.2296 -15.2256 -15.2248 -15.2119 -15.1997 -15.1941
   -15.1909 -15.1764 -15.1667 -15.1377 -15.0113 -15.0081 -14.9509 -14.9457
   -10.0527  -8.7629  -8.6673  -7.2581  -6.8796  -6.1173  -6.0326  -5.6623
    -5.2924  -4.6840  -4.1169  -3.2441  -2.8837  -1.4532  -1.0366  -0.7448
    -0.7315  -0.5209  -0.3386  -0.1099   0.1998   0.3373   0.6697   0.8642
     1.3392   1.7655   1.8878   2.0564   2.3855   2.4118

     the Fermi energy is    -0.2027 ev

!    total energy              =   -5010.28556685 Ry
     Harris-Foulkes estimate   =   -5010.28556681 Ry
     estimated scf accuracy    <       0.00000019 Ry

     The total energy is the sum of the following terms:

     one-electron contribution =  -26556.21207317 Ry
     hartree contribution      =   13281.16711466 Ry
     xc contribution           =    -599.76579253 Ry
     ewald contribution        =    8864.55721134 Ry
     electric field correction =       0.00027279 Ry
     smearing contrib. (-TS)   =      -0.03229994 Ry

     convergence has been achieved in   4 iterations

     Forces acting on atoms (Ry/au):

     negative rho (up, down):  9.946E-04 0.000E+00
     atom    1 type  1   force =    -0.00368770   -0.00212918    0.00143333
     atom    2 type  1   force =     0.00369155   -0.00212713    0.00143489
     atom    3 type  1   force =     0.00000251    0.00426390    0.00143410
     atom    4 type  1   force =     0.00000092    0.00000278    0.00167105
     atom    5 type  1   force =     0.00000302    0.01740747   -0.00513757
     atom    6 type  1   force =     0.00000040    0.00000254    0.01001482
     atom    7 type  1   force =    -0.01507488   -0.00870395   -0.00514519
     atom    8 type  1   force =     0.01507526   -0.00870016   -0.00513951
     atom    9 type  1   force =    -0.00000938   -0.00001596   -0.00141137
     atom   10 type  1   force =    -0.00001739   -0.00014107    0.00079823
     atom   11 type  1   force =    -0.00013896    0.00003416    0.00079250
     atom   12 type  1   force =     0.00011794    0.00005401    0.00079271
     atom   13 type  2   force =     0.00003672    0.00005259   -0.00153799

     Total force =     0.002513     Total SCF correction =     0.001900
     SCF correction compared to forces is large: reduce conv_thr to get better values

     bfgs converged in   4 scf cycles and   3 bfgs steps
     (criteria: energy <  1.0E+12, force <  1.9E-03)

     End of BFGS Geometry Optimization

     Final energy   =   -5010.2855668547 Ry
Begin final coordinates

ATOMIC_POSITIONS (angstrom)
Ga       1.522134641   0.878804845  10.000000000    0   0   0
Ga       4.566403923   0.878804845  10.000000000    0   0   0
Ga       3.044269282   3.515219379  10.000000000    0   0   0
Ga       6.088538565   3.515219379  10.000000000    0   0   0
Ga       6.088538565   1.757609690  12.485635460    0   0   0
Ga       3.044269282   1.757609690  12.485635460    0   0   0
Ga       7.610673206   4.394024224  12.485635460    0   0   0
Ga       4.566403923   4.394024224  12.485635460    0   0   0
Ga      -0.000111486  -0.000098438  14.437252833
Ga       3.044219446   0.008412100  15.476982425
Ga       1.529332253   2.632031878  15.477376431
Ga       4.559073523   2.632198069  15.477457550
C        0.000309674   0.000491126  16.334374594
End final coordinates

     Writing output data file calc.save

     General routines

     Parallel routines

   This run was terminated on:  23:31:17  16Jan2019

   JOB DONE.
Job  /afs/slac/g/suncat/bin/suncat-tsmpirun -x LD_LIBRARY_PATH -wdir /tmp/qe_3785195y0dxxl9_scratch pw.x -npool 3 -in pw.pwi

TID   HOST_NAME   COMMAND_LINE            STATUS            TERMINATION_TIME
00000 suncat1062 pw.x -npool 3 -i  Done                     01/16/2019 23:31:17
00001 suncat1062 pw.x -npool 3 -i  Done                     01/16/2019 23:31:17
00002 suncat1062 pw.x -npool 3 -i  Done                     01/16/2019 23:31:17
00003 suncat1062 pw.x -npool 3 -i  Done                     01/16/2019 23:31:17
00004 suncat1062 pw.x -npool 3 -i  Done                     01/16/2019 23:31:17
00005 suncat1062 pw.x -npool 3 -i  Done                     01/16/2019 23:31:17
00006 suncat1062 pw.x -npool 3 -i  Done                     01/16/2019 23:31:17
00007 suncat1062 pw.x -npool 3 -i  Done                     01/16/2019 23:31:17
00008 suncat1062 pw.x -npool 3 -i  Done                     01/16/2019 23:31:17
00009 suncat1062 pw.x -npool 3 -i  Done                     01/16/2019 23:31:17
00010 suncat1062 pw.x -npool 3 -i  Done                     01/16/2019 23:31:17
00011 suncat1062 pw.x -npool 3 -i  Done                     01/16/2019 23:31:17
00012 suncat1004 pw.x -npool 3 -i  Done                     01/16/2019 23:31:17
00013 suncat1004 pw.x -npool 3 -i  Done                     01/16/2019 23:31:17
00014 suncat1004 pw.x -npool 3 -i  Done                     01/16/2019 23:31:17
00015 suncat1004 pw.x -npool 3 -i  Done                     01/16/2019 23:31:17
00016 suncat1004 pw.x -npool 3 -i  Done                     01/16/2019 23:31:17
00017 suncat1004 pw.x -npool 3 -i  Done                     01/16/2019 23:31:17
00018 suncat1004 pw.x -npool 3 -i  Done                     01/16/2019 23:31:17
00019 suncat1004 pw.x -npool 3 -i  Done                     01/16/2019 23:31:17
00020 suncat1004 pw.x -npool 3 -i  Done                     01/16/2019 23:31:17
00021 suncat1004 pw.x -npool 3 -i  Done                     01/16/2019 23:31:17
00022 suncat1004 pw.x -npool 3 -i  Done                     01/16/2019 23:31:17
00023 suncat1004 pw.x -npool 3 -i  Done                     01/16/2019 23:31:17
00024 suncat1001 pw.x -npool 3 -i  Done                     01/16/2019 23:31:17
00025 suncat1001 pw.x -npool 3 -i  Done                     01/16/2019 23:31:17
00026 suncat1001 pw.x -npool 3 -i  Done                     01/16/2019 23:31:17
00027 suncat1001 pw.x -npool 3 -i  Done                     01/16/2019 23:31:17
00028 suncat1001 pw.x -npool 3 -i  Done                     01/16/2019 23:31:17
00029 suncat1001 pw.x -npool 3 -i  Done                     01/16/2019 23:31:17
00030 suncat1001 pw.x -npool 3 -i  Done                     01/16/2019 23:31:17
00031 suncat1001 pw.x -npool 3 -i  Done                     01/16/2019 23:31:17
00032 suncat1001 pw.x -npool 3 -i  Done                     01/16/2019 23:31:17
00033 suncat1001 pw.x -npool 3 -i  Done                     01/16/2019 23:31:17
00034 suncat1001 pw.x -npool 3 -i  Done                     01/16/2019 23:31:17
00035 suncat1001 pw.x -npool 3 -i  Done                     01/16/2019 23:31:17