     Program PWSCF v.5.1rc2 (svn rev. 11289) starts on 14Jan2018 at  5:36:42

     Current dimensions of program PWSCF are:
     Max number of different atomic species (ntypx) = 10
     Max number of k-points (npk) =  40000
     Max angular momentum in pseudopotentials (lmaxx) =  3
     Presently stress not available with electric field

     IMPORTANT: XC functional enforced from input :
     Exchange-correlation      = BEEF-VDW ( 1  4 27 13 2)
     Any further DFT definition will be discarded
     Please, verify this is what you really want

     Subspace diagonalization in iterative solution of the eigenvalue problem:
     a serial algorithm will be used

     bravais-lattice index     =            0
     lattice parameter (alat)  =       1.8897  a.u.
     unit-cell volume          =    4552.2840 (a.u.)^3
     number of atoms/cell      =           13
     number of atomic types    =            2
     number of electrons       =       174.00
     number of Kohn-Sham states=           97
     kinetic-energy cutoff     =      36.7493  Ry
     charge density cutoff     =     367.4932  Ry
     convergence threshold     =      1.0E-05
     mixing beta               =       0.3000
     number of iterations used =           10  plain     mixing
     Exchange-correlation      = BEEF-VDW ( 1  4 27 13 2)
     nstep                     =           50

     celldm(1)=   1.889726  celldm(2)=   0.000000  celldm(3)=   0.000000
     celldm(4)=   0.000000  celldm(5)=   0.000000  celldm(6)=   0.000000

     crystal axes: (cart. coord. in units of alat)
               a(1) = (   5.627661   0.000000   0.000000 )
               a(2) = (   2.813831   4.873698   0.000000 )
               a(3) = (   0.000000   0.000000  24.594966 )

     reciprocal axes: (cart. coord. in units 2 pi/alat)
               b(1) = (  0.177694 -0.102592  0.000000 )
               b(2) = (  0.000000  0.205183  0.000000 )
               b(3) = (  0.000000  0.000000  0.040659 )

     PseudoPot. # 1 for Mo read from file:
     /afs/slac.stanford.edu/u/if/mamunm/psp/gbrv1.5pbe/Mo.UPF
     MD5 check sum: 30c4dcd161f5d35cd49bb5239c51a633
     Pseudo is Ultrasoft + core correction, Zval = 14.0
     Generated by new atomic code, or converted to UPF format
     Using radial grid of  889 points,  6 beta functions with:
                l(1) =   0
                l(2) =   0
                l(3) =   1
                l(4) =   1
                l(5) =   2
                l(6) =   2
     Q(r) pseudized with  6 coefficients,  rinner =    1.000   1.000   1.000
                                                       1.000   1.000

     PseudoPot. # 2 for O  read from file:
     /afs/slac.stanford.edu/u/if/mamunm/psp/gbrv1.5pbe/O.UPF
     MD5 check sum: 734c27235a0248c51dbae37a1fbe46ec
     Pseudo is Ultrasoft + core correction, Zval =  6.0
     Generated by new atomic code, or converted to UPF format
     Using radial grid of  737 points,  5 beta functions with:
                l(1) =   0
                l(2) =   0
                l(3) =   1
                l(4) =   1
                l(5) =   2
     Q(r) pseudized with  8 coefficients,  rinner =    0.900   0.900   0.900
                                                       0.900   0.900

     vdW kernel table read from file vdW_kernel_table
     MD5 check sum: 095c7af220d748ca6e76c0b4c6cfb241

     atomic species   valence    mass     pseudopotential
        Mo1           14.00    95.95000     Mo( 1.00)
        O1             6.00    15.99900     O ( 1.00)

     No symmetry found

   Cartesian axes

     site n.     atom                  positions (alat units)
         1           Mo1 tau(   1) = (   1.4069153   0.8122829  10.0000000  )
         2           Mo1 tau(   2) = (   4.2207459   0.8122829  10.0000000  )
         3           Mo1 tau(   3) = (   2.8138306   3.2491317  10.0000000  )
         4           Mo1 tau(   4) = (   5.6276612   3.2491317  10.0000000  )
         5           Mo1 tau(   5) = (   5.6276612   1.6245658  12.2974831  )
         6           Mo1 tau(   6) = (   2.8138306   1.6245658  12.2974831  )
         7           Mo1 tau(   7) = (   7.0345765   4.0614146  12.2974831  )
         8           Mo1 tau(   8) = (   4.2207459   4.0614146  12.2974831  )
         9           Mo1 tau(   9) = (   0.0000000   0.0000000  14.5949661  )
        10           Mo1 tau(  10) = (   2.8138306   0.0000000  14.5949661  )
        11           Mo1 tau(  11) = (   1.4069153   2.4368488  14.5949661  )
        12           Mo1 tau(  12) = (   4.2207459   2.4368488  14.5949661  )
        13           O1  tau(  13) = (   0.0000000   0.0000000  16.7949661  )

     number of k points=    20  Fermi-Dirac smearing, width (Ry)=  0.0110
                       cart. coord. in units 2pi/alat
        k(    1) = (   0.0000000   0.0000000   0.0000000), wk =   0.0555556
        k(    2) = (   0.0000000   0.0341972   0.0000000), wk =   0.1111111
        k(    3) = (   0.0000000   0.0683943   0.0000000), wk =   0.1111111
        k(    4) = (   0.0000000  -0.1025915   0.0000000), wk =   0.0555556
        k(    5) = (   0.0296156  -0.0170986   0.0000000), wk =   0.1111111
        k(    6) = (   0.0296156   0.0170986   0.0000000), wk =   0.1111111
        k(    7) = (   0.0296156   0.0512958   0.0000000), wk =   0.1111111
        k(    8) = (   0.0296156  -0.1196901   0.0000000), wk =   0.1111111
        k(    9) = (   0.0296156  -0.0854929   0.0000000), wk =   0.1111111
        k(   10) = (   0.0296156  -0.0512958   0.0000000), wk =   0.1111111
        k(   11) = (   0.0592312  -0.0341972   0.0000000), wk =   0.1111111
        k(   12) = (   0.0592312   0.0000000   0.0000000), wk =   0.1111111
        k(   13) = (   0.0592312   0.0341972   0.0000000), wk =   0.1111111
        k(   14) = (   0.0592312  -0.1367887   0.0000000), wk =   0.1111111
        k(   15) = (   0.0592312  -0.1025915   0.0000000), wk =   0.1111111
        k(   16) = (   0.0592312  -0.0683943   0.0000000), wk =   0.1111111
        k(   17) = (  -0.0888469   0.0512958   0.0000000), wk =   0.0555556
        k(   18) = (  -0.0888469   0.0854929   0.0000000), wk =   0.1111111
        k(   19) = (  -0.0888469   0.1196901   0.0000000), wk =   0.1111111
        k(   20) = (  -0.0888469  -0.0512958   0.0000000), wk =   0.0555556

     Largest allocated arrays     est. size (Mb)     dimensions
     Largest temporary arrays     est. size (Mb)     dimensions

     Initial potential from superposition of free atoms
     Check: negative starting charge=   -0.005011

     starting charge  173.98724, renormalised to  174.00000

     negative rho (up, down):  5.011E-03 0.000E+00

     *
     * You are using vdW-DF for exchange-correlation in this calculation.
     * Please cite the following three references that made this development
     * possible:
     *
     *   M. Dion, H. Rydberg, E. Schroder, D. C. Langreth, and
     *   B. I. Lundqvist, Phys. Rev. Lett. 92, 246401 (2004).
     *
     *   T. Thonhauser, V. R. Cooper, S. Li, A. Puzder, P. Hyldgaard, and
     *   D. C. Langreth, Phys. Rev. B 76, 125112 (2007).
     *
     *   G. Roman-Perez and J. M. Soler, Phys. Rev. Lett. 103, 096102 (2009).
     *
     *
     * If you are using vdW-DF2, please also cite:
     *
     *   K. Lee, E. D. Murray, L. Kong, B. I. Lundqvist, and
     *   D. C. Langreth, Phys. Rev. B 82, 081101(R) (2010).
     *
     *
     * If you are calculating the stress with vdW-DF, please also cite:
     *
     *   R. Sabatini, E. Kucukbenli, B. Kolb, T. Thonhauser, and
     *   S. de Gironcoli, J. Phys.: Condens. Matter 24, 424209 (2012).
     *

     Carrying out vdW-DF run using the following parameters:

     Nqs =      20    Nr_points =    1024   r_max =   100.000
     q_mesh =
               0.00001000     0.04494208     0.09755937     0.15916263
               0.23128650     0.31572767     0.41458969     0.53033537
               0.66584808     0.82450364     1.01025438     1.22772762
               1.48234092     1.78043706     2.12944203     2.53805004
               3.01644009     3.57652955     4.23227104     5.00000000

     Gradients computed in reciprocal space

     Adding external electric field

     Computed dipole along edir(3) :
        Dipole               -0.0037 Ry au,         -0.0095 Debye
        Dipole field         -0.0000 Ry au

        Potential amp.        0.0009 Ry
        Total length         45.3158 bohr

     Starting wfc are  160 randomized atomic wfcs

     Self-consistent Calculation

     iteration #  1     ecut=    36.75 Ry     beta=0.30
     Davidson diagonalization with overlap
     ethr =  1.00E-02,  avg # of iterations =  2.0

[...]

     total energy              =   -1709.10979482 Ry
     Harris-Foulkes estimate   =   -1712.28622243 Ry
     estimated scf accuracy    <       6.70552080 Ry

[...]

     End of self-consistent calculation

          k = 0.0000 0.0000 0.0000 ( 17111 PWs)   bands (ev):

   -59.5292 -59.3710 -59.3118 -59.2363 -59.2282 -59.2280 -59.1810 -59.1573
   -59.1568 -59.1407 -59.1158 -59.1157 -33.9798 -33.9798 -33.9426 -33.8862
   -33.8860 -33.8850 -33.8577 -33.7761 -33.7758 -33.7581 -33.5073 -33.3902
   -33.3074 -33.3074 -33.2489 -33.2376 -33.2373 -33.1652 -33.1651 -33.1237
   -33.0403 -33.0402 -33.0339 -33.0140 -32.9893 -32.9893 -32.9216 -32.9098
   -32.9097 -32.8934 -32.8598 -32.8597 -32.7828 -32.7828 -32.7015 -32.7015
   -14.2938  -4.3321  -3.0115  -2.8706  -2.8706  -2.8471  -2.8286  -2.4358
    -2.4074  -2.4074  -2.2161  -2.2122  -2.2122  -1.9718  -1.9717  -1.9564
    -0.9390  -0.9389  -0.7651  -0.5879   0.0765   0.0765   0.2669   0.4886
     0.7001   0.7001   0.7407   0.9215   0.9215   1.1735   1.1735   1.3134
     1.3233   1.3233   1.3668   1.3668   1.6322   1.6324   1.6922   2.2623
     2.7272   2.8394   2.8394   2.8978   3.0308   3.0309   3.2307   3.4510
     3.4510

[...]

          k =-0.0888 0.0513 0.0000 ( 17160 PWs)   bands (ev):

[...]

     the Fermi energy is     1.6386 ev

!    total energy              =   -1711.70263869 Ry
     Harris-Foulkes estimate   =   -1711.70259783 Ry
     estimated scf accuracy    <       0.00000577 Ry

     The total energy is the sum of the following terms:

     one-electron contribution =  -15499.21974295 Ry
     hartree contribution      =    7743.66970768 Ry
     xc contribution           =    -247.44641175 Ry
     ewald contribution        =    6291.39723015 Ry
     electric field correction =       0.00101911 Ry
     smearing contrib. (-TS)   =      -0.10444094 Ry

     convergence has been achieved in  19 iterations

 BEEF-vdW xc energy contributions
           1 :   -212.428450821086
           2 :    193.695746093403
           3 :   -161.794440854393
           4 :    125.304215730808
           5 :   -92.5810543305578
           6 :    69.1795529462643
           7 :   -56.6985712885001
           8 :    53.1398803528934
           9 :   -54.4136605364966
          10 :    56.2405446592405
          11 :   -55.7107327384851
          12 :    51.9724833510101
          13 :   -45.9796787695127
          14 :    39.5914627901295
          15 :   -34.5143343856109
          16 :    31.5230470354036
          17 :   -30.2496723457966
          18 :    29.5427116791109
[...]

[...]

     Total force =     0.084348     Total SCF correction =     0.012778
     SCF correction compared to forces is large: reduce conv_thr to get better values

[...]

     Program PWSCF v.5.1rc2 (svn rev. 11289) starts on 14Jan2018 at  6:47: 5

[...]

     Total force =     0.123380     Total SCF correction =     0.008871

[...]

   This run was terminated on:   7: 0:26  14Jan2018

[...]

   This run was terminated on:   8: 1: 8  14Jan2018

[...]

     Program PWSCF v.5.1rc2 (svn rev. 11289) starts on 14Jan2018 at  8: 1:14

[...]

     Program PWSCF v.5.1rc2 (svn rev. 11289) starts on 14Jan2018 at  8:14:47

     Current dimensions of program PWSCF are:
     Max number of different atomic species (ntypx) = 10
     Max number of k-points (npk) =  40000
     Max angular momentum in pseudopotentials (lmaxx) =  3
     Presently stress not available with electric field

     IMPORTANT: XC functional enforced from input :
     Exchange-correlation      = BEEF-VDW ( 1  4 27 13 2)
     Any further DFT definition will be discarded
     Please, verify this is what you really want

     Subspace diagonalization in iterative solution of the eigenvalue problem:
     a serial algorithm will be used

     bravais-lattice index     =            0
     lattice parameter (alat)  =       1.8897  a.u.
     unit-cell volume          =    4552.2840 (a.u.)^3
     number of atoms/cell      =           13
     number of atomic types    =            2
     number of electrons       =       174.00
     number of Kohn-Sham states=           97
     kinetic-energy cutoff     =      36.7493  Ry
     charge density cutoff     =     367.4932  Ry
     convergence threshold     =      1.0E-05
     mixing beta               =       0.3000
     number of iterations used =           10  plain     mixing
     Exchange-correlation      = BEEF-VDW ( 1  4 27 13 2)
     nstep                     =           50

     celldm(1)=   1.889726  celldm(2)=   0.000000  celldm(3)=   0.000000
     celldm(4)=   0.000000  celldm(5)=   0.000000  celldm(6)=   0.000000

     crystal axes: (cart. coord. in units of alat)
               a(1) = (   5.627661   0.000000   0.000000 )
               a(2) = (   2.813831   4.873698   0.000000 )
               a(3) = (   0.000000   0.000000  24.594966 )

     reciprocal axes: (cart. coord. in units 2 pi/alat)
               b(1) = (  0.177694 -0.102592  0.000000 )
               b(2) = (  0.000000  0.205183  0.000000 )
               b(3) = (  0.000000  0.000000  0.040659 )

     PseudoPot. # 1 for Mo read from file:
     /afs/slac.stanford.edu/u/if/mamunm/psp/gbrv1.5pbe/Mo.UPF
     MD5 check sum: 30c4dcd161f5d35cd49bb5239c51a633
     Pseudo is Ultrasoft + core correction, Zval = 14.0
     Generated by new atomic code, or converted to UPF format
     Using radial grid of  889 points,  6 beta functions with:
                l(1) =   0
                l(2) =   0
                l(3) =   1
                l(4) =   1
                l(5) =   2
                l(6) =   2
     Q(r) pseudized with  6 coefficients,  rinner =    1.000   1.000   1.000
                                                       1.000   1.000

     PseudoPot. # 2 for O  read from file:
     /afs/slac.stanford.edu/u/if/mamunm/psp/gbrv1.5pbe/O.UPF
     MD5 check sum: 734c27235a0248c51dbae37a1fbe46ec
     Pseudo is Ultrasoft + core correction, Zval =  6.0
     Generated by new atomic code, or converted to UPF format
     Using radial grid of  737 points,  5 beta functions with:
                l(1) =   0
                l(2) =   0
                l(3) =   1
                l(4) =   1
                l(5) =   2
     Q(r) pseudized with  8 coefficients,  rinner =    0.900   0.900   0.900
                                                       0.900   0.900

     vdW kernel table read from file vdW_kernel_table
     MD5 check sum: 095c7af220d748ca6e76c0b4c6cfb241

     atomic species   valence    mass     pseudopotential
        Mo1           14.00    95.95000     Mo( 1.00)
        O1             6.00    15.99900     O ( 1.00)

     No symmetry found

   Cartesian axes

     site n.     atom                  positions (alat units)
         1           Mo1 tau(   1) = (   1.4069153   0.8122829  10.0000000  )
         2           Mo1 tau(   2) = (   4.2207459   0.8122829  10.0000000  )
         3           Mo1 tau(   3) = (   2.8138306   3.2491317  10.0000000  )
         4           Mo1 tau(   4) = (   5.6276612   3.2491317  10.0000000  )
         5           Mo1 tau(   5) = (   5.6276612   1.6245658  12.2974831  )
         6           Mo1 tau(   6) = (   2.8138306   1.6245658  12.2974831  )
         7           Mo1 tau(   7) = (   7.0345765   4.0614146  12.2974831  )
         8           Mo1 tau(   8) = (   4.2207459   4.0614146  12.2974831  )
         9           Mo1 tau(   9) = (   8.4414615   4.8736907  15.1481539  )
        10           Mo1 tau(  10) = (   5.6276358   4.8466189  14.4563965  )
        11           Mo1 tau(  11) = (   7.0111391   2.4503383  14.4564065  )
        12           Mo1 tau(  12) = (   4.2440869   2.4503240  14.4563509  )
        13           O1  tau(  13) = (   5.6276589   0.0000125  16.8476605  )

     number of k points=    20  Fermi-Dirac smearing, width (Ry)=  0.0110
                       cart. coord. in units 2pi/alat
        k(    1) = (   0.0000000   0.0000000   0.0000000), wk =   0.0555556
        k(    2) = (   0.0000000   0.0341972   0.0000000), wk =   0.1111111
        k(    3) = (   0.0000000   0.0683943   0.0000000), wk =   0.1111111
        k(    4) = (   0.0000000  -0.1025915   0.0000000), wk =   0.0555556
        k(    5) = (   0.0296156  -0.0170986   0.0000000), wk =   0.1111111
        k(    6) = (   0.0296156   0.0170986   0.0000000), wk =   0.1111111
        k(    7) = (   0.0296156   0.0512958   0.0000000), wk =   0.1111111
        k(    8) = (   0.0296156  -0.1196901   0.0000000), wk =   0.1111111
        k(    9) = (   0.0296156  -0.0854929   0.0000000), wk =   0.1111111
        k(   10) = (   0.0296156  -0.0512958   0.0000000), wk =   0.1111111
        k(   11) = (   0.0592312  -0.0341972   0.0000000), wk =   0.1111111
        k(   12) = (   0.0592312   0.0000000   0.0000000), wk =   0.1111111
        k(   13) = (   0.0592312   0.0341972   0.0000000), wk =   0.1111111
        k(   14) = (   0.0592312  -0.1367887   0.0000000), wk =   0.1111111
        k(   15) = (   0.0592312  -0.1025915   0.0000000), wk =   0.1111111
        k(   16) = (   0.0592312  -0.0683943   0.0000000), wk =   0.1111111
        k(   17) = (  -0.0888469   0.0512958   0.0000000), wk =   0.0555556
        k(   18) = (  -0.0888469   0.0854929   0.0000000), wk =   0.1111111
        k(   19) = (  -0.0888469   0.1196901   0.0000000), wk =   0.1111111
        k(   20) = (  -0.0888469  -0.0512958   0.0000000), wk =   0.0555556

     Largest allocated arrays     est. size (Mb)     dimensions
     Largest temporary arrays     est. size (Mb)     dimensions

     Initial potential from superposition of free atoms
     Check: negative starting charge=   -0.004740

     starting charge  173.98724, renormalised to  174.00000

[...]

     *
     * You are using vdW-DF for exchange-correlation in this calculation.
     * Please cite the following three references that made this development
     * possible:
     *
     *   M. Dion, H. Rydberg, E. Schroder, D. C. Langreth, and
     *   B. I. Lundqvist, Phys. Rev. Lett. 92, 246401 (2004).
     *
     *   T. Thonhauser, V. R. Cooper, S. Li, A. Puzder, P. Hyldgaard, and
     *   D. C. Langreth, Phys. Rev. B 76, 125112 (2007).
     *
     *   G. Roman-Perez and J. M. Soler, Phys. Rev. Lett. 103, 096102 (2009).
     *
     *
     * If you are using vdW-DF2, please also cite:
     *
     *   K. Lee, E. D. Murray, L. Kong, B. I. Lundqvist, and
     *   D. C. Langreth, Phys. Rev. B 82, 081101(R) (2010).
     *
     *
     * If you are calculating the stress with vdW-DF, please also cite:
     *
     *   R. Sabatini, E. Kucukbenli, B. Kolb, T. Thonhauser, and
     *   S. de Gironcoli, J. Phys.: Condens. Matter 24, 424209 (2012).
     *

     Carrying out vdW-DF run using the following parameters:

     Nqs =      20    Nr_points =    1024   r_max =   100.000
     q_mesh =
               0.00001000     0.04494208     0.09755937     0.15916263
               0.23128650     0.31572767     0.41458969     0.53033537
               0.66584808     0.82450364     1.01025438     1.22772762
               1.48234092     1.78043706     2.12944203     2.53805004
               3.01644009     3.57652955     4.23227104     5.00000000

     Gradients computed in reciprocal space

[...]

     Starting wfc are  160 randomized atomic wfcs

     Self-consistent Calculation

[...]

     total energy              =   -1711.88739176 Ry
     Harris-Foulkes estimate   =   -1711.88739488 Ry
     estimated scf accuracy    <       0.00001857 Ry

     iteration # 15     ecut=    36.75 Ry     beta=0.30
     Davidson diagonalization with overlap
     ethr =  1.07E-08,  avg # of iterations =  3.0

[...]

     negative rho (up, down):  4.871E-03 0.000E+00

     Adding external electric field

     Computed dipole along edir(3) :
        Dipole               -0.3864 Ry au,         -0.9822 Debye
        Dipole field         -0.0011 Ry au

        Potential amp.        0.0967 Ry
        Total length         45.3158 bohr

     End of self-consistent calculation

[...]

          k = 0.0592-0.0684 0.0000 ( 17122 PWs)   bands (ev):

[...]

          k =-0.0888-0.0513 0.0000 ( 17160 PWs)   bands (ev):

   -59.3735 -59.0635 -59.0485 -58.9826 -58.9656 -58.9492 -58.9418 -58.9083
   -58.9026 -58.8675 -58.8368 -58.8164 -34.0941 -33.5458 -33.5203 -33.4994
   -33.4619 -33.4423 -33.4254 -33.3436 -33.3104 -33.2916 -33.2582 -33.2434
   -33.2075 -33.1497 -33.0229 -33.0110 -32.9999 -32.9897 -32.9554 -32.9433
   -32.9378 -32.9180 -32.8917 -32.8361 -32.7796 -32.7789 -32.7666 -32.7363
   -32.6903 -32.6702 -32.6189 -32.6007 -32.5895 -32.5683 -32.5487 -32.4836
   -15.6661  -2.6928  -2.4873  -2.2589  -2.2187  -2.2000  -1.7932  -1.6271
    -1.5091  -1.5088  -1.3587  -1.1959  -1.1040  -1.0357  -0.8297  -0.8106
    -0.6777  -0.6245  -0.4959  -0.2941  -0.1122  -0.0650   0.0288   0.1185
     0.2628   0.3150   0.6421   0.7303   0.7991   0.8767   1.0494   1.0833
     1.1074   1.1683   1.2064   1.2345   1.3455   1.4712   1.4797   1.6360
     1.8557   1.8591   2.4205   2.5625   2.6645   2.7080   2.8610   2.9990
     3.0522

     the Fermi energy is     1.8898 ev

!    total energy              =   -1711.88739017 Ry
     Harris-Foulkes estimate   =   -1711.88742665 Ry
     estimated scf accuracy    <       0.00000354 Ry

     The total energy is the sum of the following terms:

     one-electron contribution =  -15405.02440842 Ry
     hartree contribution      =    7697.63384936 Ry
     xc contribution           =    -247.71419537 Ry
     ewald contribution        =    6243.30769214 Ry
     electric field correction =       0.00041221 Ry
     smearing contrib. (-TS)   =      -0.09074009 Ry

     convergence has been achieved in  15 iterations

 BEEF-vdW xc energy contributions
           1 :   -212.701546089101
           2 :    194.021027000746
           3 :   -162.185952448952
           4 :    125.712847202949
           5 :   -92.9169580030552
           6 :    69.3609019664361
           7 :   -56.6769040772276
           8 :    52.8998941289742
           9 :   -53.9708976475280
          10 :    55.6490445005302
          11 :   -55.0650542529185
          12 :    51.3824131325834
          13 :   -45.5281992135841
          14 :    39.3022031390234
          15 :   -34.3401759213872
          16 :    31.3667673659420
          17 :   -30.0147930091101
          18 :    29.1883320438833
          19 :   -27.7164789043739
          20 :    24.9431182979273
          21 :   -20.9907422194191
          22 :    16.6114431315702
          23 :   -12.7489776535792
          24 :    10.0551951797232
          25 :   -8.60444107786412
          26 :    7.91266154323429
          27 :   -7.22023517378966
          28 :    5.87615956095834
          29 :   -3.63469818476540
          30 :   0.734171317313383
          31 :   -24.2495073890310
          32 :   -18.5184386624941

     Forces acting on atoms (Ry/au):

     negative rho (up, down):  4.871E-03 0.000E+00
     atom    1 type  1   force =     0.00224734    0.00130054   -0.00000597
     atom    2 type  1   force =    -0.00224432    0.00130036   -0.00001570
     atom    3 type  1   force =     0.00000271   -0.00259260   -0.00002293
     atom    4 type  1   force =    -0.00000091    0.00000096   -0.01333852
     atom    5 type  1   force =     0.00000060   -0.02691293    0.01188828
     atom    6 type  1   force =    -0.00000042    0.00000395   -0.02132201
     atom    7 type  1   force =     0.02330244    0.01345705    0.01189927
     atom    8 type  1   force =    -0.02330266    0.01345878    0.01189079
     atom    9 type  1   force =     0.00000440   -0.00000011    0.00058856
     atom   10 type  1   force =    -0.00000739    0.00001666    0.00008169
     atom   11 type  1   force =     0.00002296   -0.00002036    0.00009778
     atom   12 type  1   force =    -0.00002351   -0.00001216    0.00009349
     atom   13 type  2   force =    -0.00000125   -0.00000014   -0.00183473

     Total force =     0.057038     Total SCF correction =     0.014988
     SCF correction compared to forces is large: reduce conv_thr to get better values

     entering subroutine stress ...

     negative rho (up, down):  4.871E-03 0.000E+00
          total   stress  (Ry/bohr**3)                   (kbar)     P=  -12.73
  -0.00013554   0.00000001  -0.00000000        -19.94      0.00     -0.00
   0.00000001  -0.00013554  -0.00000002          0.00    -19.94     -0.00
  -0.00000000  -0.00000002   0.00001150         -0.00     -0.00      1.69

 !ASE

     Writing output data file calc.save

     General routines

     Parallel routines

   This run was terminated on:   8:27:32  14Jan2018

   JOB DONE.
Job  /afs/slac/g/suncat/bin/suncat-tsmpirun -x LD_LIBRARY_PATH -wdir /scratch/qe842458_EDmRg pw.x -in pw.inp

TID   HOST_NAME   COMMAND_LINE            STATUS            TERMINATION_TIME
00000 suncat1058 pw.x -in pw.inp   Done                     01/14/2018 08:27:32
00001 suncat1058 pw.x -in pw.inp   Done                     01/14/2018 08:27:32
00002 suncat1058 pw.x -in pw.inp   Done                     01/14/2018 08:27:32
00003 suncat1058 pw.x -in pw.inp   Done                     01/14/2018 08:27:32
00004 suncat1058 pw.x -in pw.inp   Done                     01/14/2018 08:27:32
00005 suncat1058 pw.x -in pw.inp   Done                     01/14/2018 08:27:32
00006 suncat1058 pw.x -in pw.inp   Done                     01/14/2018 08:27:32
00007 suncat1058 pw.x -in pw.inp   Done                     01/14/2018 08:27:32
00008 suncat1037 pw.x -in pw.inp   Done                     01/14/2018 08:27:32
00009 suncat1037 pw.x -in pw.inp   Done                     01/14/2018 08:27:32
00010 suncat1037 pw.x -in pw.inp   Done                     01/14/2018 08:27:32
00011 suncat1037 pw.x -in pw.inp   Done                     01/14/2018 08:27:32
00012 suncat1037 pw.x -in pw.inp   Done                     01/14/2018 08:27:32
00013 suncat1037 pw.x -in pw.inp   Done                     01/14/2018 08:27:32
00014 suncat1037 pw.x -in pw.inp   Done                     01/14/2018 08:27:32
00015 suncat1037 pw.x -in pw.inp   Done                     01/14/2018 08:27:32
00016 suncat1037 pw.x -in pw.inp   Done                     01/14/2018 08:27:32
00017 suncat1037 pw.x -in pw.inp   Done                     01/14/2018 08:27:32
00018 suncat1037 pw.x -in pw.inp   Done                     01/14/2018 08:27:32
00019 suncat1037 pw.x -in pw.inp   Done                     01/14/2018 08:27:32
00020 suncat1036 pw.x -in pw.inp   Done                     01/14/2018 08:27:32
00021 suncat1036 pw.x -in pw.inp   Done                     01/14/2018 08:27:32
00022 suncat1036 pw.x -in pw.inp   Done                     01/14/2018 08:27:32
00023 suncat1036 pw.x -in pw.inp   Done                     01/14/2018 08:27:32
00024 suncat1036 pw.x -in pw.inp   Done                     01/14/2018 08:27:32
00025 suncat1036 pw.x -in pw.inp   Done                     01/14/2018 08:27:32
00026 suncat1036 pw.x -in pw.inp   Done                     01/14/2018 08:27:32
00027 suncat1036 pw.x -in pw.inp   Done                     01/14/2018 08:27:32
00028 suncat1036 pw.x -in pw.inp   Done                     01/14/2018 08:27:32
00029 suncat1036 pw.x -in pw.inp   Done                     01/14/2018 08:27:32
00030 suncat1036 pw.x -in pw.inp   Done                     01/14/2018 08:27:32
00031 suncat1036 pw.x -in pw.inp   Done                     01/14/2018 08:27:32