     Program PWSCF v.5.1rc2 (svn rev. 11289) starts on  2May2018 at 18:29:52

     Current dimensions of program PWSCF are:
     Max number of different atomic species (ntypx) = 10
     Max number of k-points (npk) =  40000
     Max angular momentum in pseudopotentials (lmaxx) =  3
     Presently stress not available with electric field

     IMPORTANT: XC functional enforced from input :
     Exchange-correlation      = BEEF-VDW ( 1  4 27 13 2)
     Any further DFT definition will be discarded
     Please, verify this is what you really want

     Subspace diagonalization in iterative solution of the eigenvalue problem:
     a serial algorithm will be used

     bravais-lattice index     =            0
     lattice parameter (alat)  =       1.8897  a.u.
     unit-cell volume          =    6082.7792 (a.u.)^3
     number of atoms/cell      =           13
     number of atomic types    =            2
     number of electrons       =       145.00
     number of Kohn-Sham states=           82
     kinetic-energy cutoff     =      36.7493  Ry
     charge density cutoff     =     367.4932  Ry
     convergence threshold     =      1.0E-05
     mixing beta               =       0.3000
     number of iterations used =           10  plain     mixing
     Exchange-correlation      = BEEF-VDW ( 1  4 27 13 2)
     nstep                     =           50

     celldm(1)=   1.889726  celldm(2)=   0.000000  celldm(3)=   0.000000
     celldm(4)=   0.000000  celldm(5)=   0.000000  celldm(6)=   0.000000

     crystal axes: (cart. coord. in units of alat)
               a(1) = (   6.421223   0.000000   0.000000 )
               a(2) = (   3.210611   5.560942   0.000000 )
               a(3) = (   0.000000   0.000000  25.242906 )

     reciprocal axes: (cart. coord. in units 2 pi/alat)
               b(1) = (  0.155734 -0.089913  0.000000 )
               b(2) = (  0.000000  0.179826  0.000000 )
               b(3) = (  0.000000  0.000000  0.039615 )

     PseudoPot. # 1 for Zr read from file:
     /u/if/mamunm/psp/gbrv1.5pbe/Zr.UPF
     MD5 check sum: 5db81b1e868ab7776c4564c113de050b
     Pseudo is Ultrasoft + core correction, Zval = 12.0
     Generated by new atomic code, or converted to UPF format
     Using radial grid of  887 points,  6 beta functions with:
                l(1) =   0
                l(2) =   0
                l(3) =   1
                l(4) =   1
                l(5) =   2
                l(6) =   2
     Q(r) pseudized with  6 coefficients,  rinner =    1.200   1.200   1.200
                                                       1.200   1.200

     PseudoPot. # 2 for H  read from file:
     /u/if/mamunm/psp/gbrv1.5pbe/H.UPF
     MD5 check sum: 761ae9a214b05c3daf00ab9f6b793d6f
     Pseudo is Ultrasoft, Zval =  1.0
     Generated by new atomic code, or converted to UPF format
     Using radial grid of  615 points,  2 beta functions with:
                l(1) =   0
                l(2) =   0
     Q(r) pseudized with  8 coefficients,  rinner =    0.700

     vdW kernel table read from file vdW_kernel_table
     MD5 check sum: 095c7af220d748ca6e76c0b4c6cfb241

     atomic species   valence    mass     pseudopotential
        Zr1           12.00    91.22400     Zr( 1.00)
        H1             1.00     1.00800     H ( 1.00)

     No symmetry found

   Cartesian axes

     site n.     atom                  positions (alat units)
         1           Zr1 tau(   1) = (   1.6053057   0.9268237  10.0000000  )
         2           Zr1 tau(   2) = (   4.8159170   0.9268237  10.0000000  )
         3           Zr1 tau(   3) = (   3.2106113   3.7072946  10.0000000  )
         4           Zr1 tau(   4) = (   6.4212227   3.7072946  10.0000000  )
         5           Zr1 tau(   5) = (   6.4212227   1.8536473  12.6214532  )
         6           Zr1 tau(   6) = (   3.2106113   1.8536473  12.6214532  )
         7           Zr1 tau(   7) = (   8.0265283   4.6341183  12.6214532  )
         8           Zr1 tau(   8) = (   4.8159170   4.6341183  12.6214532  )
         9           Zr1 tau(   9) = (   0.0000000   0.0000000  15.2429064  )
        10           Zr1 tau(  10) = (   3.2106113   0.0000000  15.2429064  )
        11           Zr1 tau(  11) = (   1.6053057   2.7804710  15.2429064  )
        12           Zr1 tau(  12) = (   4.8159170   2.7804710  15.2429064  )
        13           H1  tau(  13) = (   3.2106113   1.8536473  16.5819064  )

     number of k points=    20  Fermi-Dirac smearing, width (Ry)=  0.0110
                       cart. coord. in units 2pi/alat
        k(    1) = (   0.0000000   0.0000000   0.0000000), wk =   0.0555556
        k(    2) = (   0.0000000   0.0299709   0.0000000), wk =   0.1111111
        k(    3) = (   0.0000000   0.0599419   0.0000000), wk =   0.1111111
        k(    4) = (   0.0000000  -0.0899128   0.0000000), wk =   0.0555556
        k(    5) = (   0.0259556  -0.0149855   0.0000000), wk =   0.1111111
        k(    6) = (   0.0259556   0.0149855   0.0000000), wk =   0.1111111
        k(    7) = (   0.0259556   0.0449564   0.0000000), wk =   0.1111111
        k(    8) = (   0.0259556  -0.1048983   0.0000000), wk =   0.1111111
        k(    9) = (   0.0259556  -0.0749274   0.0000000), wk =   0.1111111
        k(   10) = (   0.0259556  -0.0449564   0.0000000), wk =   0.1111111
        k(   11) = (   0.0519112  -0.0299709   0.0000000), wk =   0.1111111
        k(   12) = (   0.0519112   0.0000000   0.0000000), wk =   0.1111111
        k(   13) = (   0.0519112   0.0299709   0.0000000), wk =   0.1111111
        k(   14) = (   0.0519112  -0.1198838   0.0000000), wk =   0.1111111
        k(   15) = (   0.0519112  -0.0899128   0.0000000), wk =   0.1111111
        k(   16) = (   0.0519112  -0.0599419   0.0000000), wk =   0.1111111
        k(   17) = (  -0.0778668   0.0449564   0.0000000), wk =   0.0555556
        k(   18) = (  -0.0778668   0.0749274   0.0000000), wk =   0.1111111
        k(   19) = (  -0.0778668   0.1048983   0.0000000), wk =   0.1111111
        k(   20) = (  -0.0778668  -0.0449564   0.0000000), wk =   0.0555556

     Largest allocated arrays     est. size (Mb)     dimensions
     Largest temporary arrays     est. size (Mb)     dimensions

     Initial potential from superposition of free atoms
     Check: negative starting charge=   -0.729136

     starting charge  144.97420, renormalised to  145.00000

     negative rho (up, down):  7.293E-01 0.000E+00

     *
     * You are using vdW-DF for exchange-correlation in this calculation.
     * Please cite the following three references that made this development
     * possible:
     *
     *   M. Dion, H. Rydberg, E. Schroder, D. C. Langreth, and
     *   B. I. Lundqvist, Phys. Rev. Lett. 92, 246401 (2004).
     *
     *   T. Thonhauser, V. R. Cooper, S. Li, A. Puzder, P. Hyldgaard, and
     *   D. C. Langreth, Phys. Rev. B 76, 125112 (2007).
     *
     *   G. Roman-Perez and J. M. Soler, Phys. Rev. Lett. 103, 096102 (2009).
     *
     *
     * If you are using vdW-DF2, please also cite:
     *
     *   K. Lee, E. D. Murray, L. Kong, B. I. Lundqvist, and
     *   D. C. Langreth, Phys. Rev. B 82, 081101(R) (2010).
     *
     *
     * If you are calculating the stress with vdW-DF, please also cite:
     *
     *   R. Sabatini, E. Kucukbenli, B. Kolb, T. Thonhauser, and
     *   S. de Gironcoli, J. Phys.: Condens. Matter 24, 424209 (2012).
     *

     Carrying out vdW-DF run using the following parameters:

     Nqs =      20    Nr_points =    1024   r_max =   100.000
     q_mesh =
               0.00001000     0.04494208     0.09755937     0.15916263
               0.23128650     0.31572767     0.41458969     0.53033537
               0.66584808     0.82450364     1.01025438     1.22772762
               1.48234092     1.78043706     2.12944203     2.53805004
               3.01644009     3.57652955     4.23227104     5.00000000

     Gradients computed in reciprocal space

     Adding external electric field

     Computed dipole along edir(3) :
        Dipole               -0.0013 Ry au,         -0.0032 Debye
        Dipole field         -0.0000 Ry au

        Potential amp.        0.0002 Ry
        Total length         46.5096 bohr

     Starting wfc are  157 randomized atomic wfcs

     Self-consistent Calculation

     iteration #  1     ecut=    36.75 Ry     beta=0.30
     Davidson diagonalization with overlap
     ethr =  1.00E-02,  avg # of iterations =  2.0

[...]

     total energy              =   -1195.23646847 Ry
     Harris-Foulkes estimate   =   -1198.68657998 Ry
     estimated scf accuracy    <       7.24072167 Ry

[...]

     End of self-consistent calculation

          k = 0.0000 0.0000 0.0000 ( 22923 PWs)   bands (ev):

   -47.8718 -47.8632 -47.7905 -47.7759 -47.7752 -47.7731 -47.7722 -47.7717
   -47.5512 -47.4745 -47.4667 -47.4663 -26.1616 -26.1613 -26.1590 -26.1140
   -26.1137 -26.1112 -26.0722 -25.9877 -25.9847 -25.9844 -25.8850 -25.7888
   -25.7763 -25.7757 -25.6424 -25.6421 -25.6409 -25.6070 -25.6067 -25.6045
   -25.5910 -25.5907 -25.5867 -25.4355 -25.4355 -25.4293 -25.4293 -25.3884
   -25.3795 -25.3792 -25.3627 -25.2884 -25.2871 -25.2870 -25.1374 -25.1374
    -3.7819  -3.0360  -2.0163  -1.4585  -1.1487  -1.1487  -1.0530  -1.0288
    -1.0288  -0.8886  -0.6026  -0.6025  -0.4041  -0.3957  -0.3957  -0.1950
     0.4454   0.4456   0.7281   1.3124   1.5095   1.5857   1.5857   1.9543
     1.9910   2.1000   2.1003   2.1103   2.3116   2.3116   2.4281   2.5636
     2.5637   2.6315

[...]

          k =-0.0779 0.0450 0.0000 ( 22880 PWs)   bands (ev):

[...]

     the Fermi energy is     1.4132 ev

!    total energy              =   -1198.11448463 Ry
     Harris-Foulkes estimate   =   -1198.11449228 Ry
     estimated scf accuracy    <       0.00000972 Ry

     The total energy is the sum of the following terms:

     one-electron contribution =   -8234.01651143 Ry
     hartree contribution      =    4107.65111564 Ry
     xc contribution           =    -221.18894873 Ry
     ewald contribution        =    3149.55816203 Ry
     electric field correction =       0.00000033 Ry
     smearing contrib. (-TS)   =      -0.11830247 Ry

     convergence has been achieved in  17 iterations

 BEEF-vdW xc energy contributions
           1 :   -189.471635521354
           2 :    171.509897217671
           3 :   -141.214224688548
           4 :    107.120169090826
           5 :   -76.9707868242644
           6 :    54.9679403738468
           7 :   -41.0878165668276
           8 :    32.4054525238166
           9 :   -25.3846108020729
          10 :    17.8150382388199
          11 :   -9.53467543044138
          12 :    1.87255307726855
          13 :    3.59032438787818
          14 :   -6.12414694704819
          15 :    6.23790742223161
          16 :   -5.26589406586413
          17 :    4.52590621361026
          18 :   -4.61106559965589
          19 :    5.22296376110307
          20 :   -5.57440492561489
          21 :    5.03503291831382
          22 :   -3.58057220269200
          23 :    1.78318485932240
          24 :  -0.406753775915746
          25 :  -8.265578458383516E-002
          26 :  -0.233091817044908
          27 :   0.843117499603125
          28 :   -1.17680365954197
          29 :   0.964305804797107
          30 :  -0.365315998420272
          31 :   -21.9349849147146
          32 :   -16.3508193154402

     Forces acting on atoms (Ry/au):

     negative rho (up, down):  7.487E-01 0.000E+00
     atom    1 type  1   force =     0.00050688    0.00027276    0.01439577
     atom    2 type  1   force =    -0.00050462    0.00031626    0.01432938
     atom    3 type  1   force =     0.00003669   -0.00058406    0.01435870
     atom    4 type  1   force =    -0.00004089    0.00000096    0.01470237
     atom    5 type  1   force =     0.00003423    0.00318498   -0.00198507
     atom    6 type  1   force =    -0.00003304   -0.00000664   -0.00261567
     atom    7 type  1   force =    -0.00276374   -0.00160896   -0.00195363
     atom    8 type  1   force =     0.00276496   -0.00157234   -0.00199886
     atom    9 type  1   force =     0.00003556    0.00000130   -0.02157153
     atom   10 type  1   force =    -0.00004328    0.01757164   -0.00053649
     atom   11 type  1   force =     0.01522254   -0.00881369   -0.00051876
     atom   12 type  1   force =    -0.01521729   -0.00876281   -0.00055960
     atom   13 type  2   force =     0.00000201    0.00000060   -0.02604660

     Total force =     0.045510     Total SCF correction =     0.003588

     entering subroutine stress ...

     negative rho (up, down):  7.487E-01 0.000E+00
          total   stress  (Ry/bohr**3)                   (kbar)     P=  -13.52
  -0.00008738   0.00000000  -0.00000000        -12.85      0.00     -0.00
   0.00000000  -0.00008737   0.00000000          0.00    -12.85      0.00
  -0.00000000   0.00000000  -0.00010099         -0.00      0.00    -14.86

     BFGS Geometry Optimization

     number of scf cycles    =   1
     number of bfgs steps    =   0

     energy   new            =   -1198.1144846302 Ry

     new trust radius        =       0.0260465960 bohr
     new conv_thr            =       0.0000099958 Ry

ATOMIC_POSITIONS (crystal)
Zr1      0.166666667   0.166666667   0.396150897    0   0   0
Zr1      0.666666667   0.166666667   0.396150897    0   0   0
Zr1      0.166666667   0.666666667   0.396150897    0   0   0
Zr1      0.666666667   0.666666667   0.396150897    0   0   0
Zr1      0.833333333   0.333333333   0.500000000    0   0   0
Zr1      0.333333333   0.333333333   0.500000000    0   0   0
Zr1      0.833333333   0.833333333   0.500000000    0   0   0
Zr1      0.333333333   0.833333333   0.500000000    0   0   0
Zr1      0.000002869   0.000000124   0.603396890
Zr1      0.499160378   0.001672111   0.603837856
Zr1      0.001673854   0.499161292   0.603838228
Zr1      0.499162866   0.499166134   0.603837372
H1       0.333333470   0.333333391   0.656347683

     Writing output data file calc.save
     Check: negative starting charge=   -0.729136
     NEW-OLD atomic charge density approx. for the potential
     Check: negative starting charge=   -0.729502

[...]

     Total force =     0.042358     Total SCF correction =     0.008121
     SCF correction compared to forces is large: reduce conv_thr to get better values

[...]

     energy   old            =   -1198.1144846302 Ry
     energy   new            =   -1198.1164927746 Ry

     CASE: energy  _new < energy  _old

     WARNING: bfgs curvature condition failed, Theta= 0.861
     new trust radius        =       0.0390698941 bohr
     new conv_thr            =       0.0000001000 Ry

[...]

     WARNING: bfgs curvature condition failed, Theta= 0.880
     new trust radius        =       0.0285311253 bohr
     new conv_thr            =       0.0000001000 Ry

[...]

     Threshold (ethr) on eigenvalues was too large:
     Diagonalizing with lowered threshold

     Davidson diagonalization with overlap
     ethr =  5.75E-08,  avg # of iterations =  2.3

[...]

     Threshold (ethr) on eigenvalues was too large:
     Diagonalizing with lowered threshold

     Davidson diagonalization with overlap
     ethr =  7.97E-08,  avg # of iterations =  4.2

[...]

     Total force =     0.003308     Total SCF correction =     0.000221

[...]

     number of scf cycles    =  14
     number of bfgs steps    =  13

     energy   old            =   -1198.1289322222 Ry
     energy   new            =   -1198.1290619245 Ry

     CASE: energy  _new < energy  _old

     new trust radius        =       0.0232686031 bohr
     new conv_thr            =       0.0000001000 Ry

ATOMIC_POSITIONS (crystal)
Zr1      0.166666667   0.166666667   0.396150897    0   0   0
Zr1      0.666666667   0.166666667   0.396150897    0   0   0
Zr1      0.166666667   0.666666667   0.396150897    0   0   0
Zr1      0.666666667   0.666666667   0.396150897    0   0   0
Zr1      0.833333333   0.333333333   0.500000000    0   0   0
Zr1      0.333333333   0.333333333   0.500000000    0   0   0
Zr1      0.833333333   0.833333333   0.500000000    0   0   0
Zr1      0.333333333   0.833333333   0.500000000    0   0   0
Zr1      0.000000887   0.000000023   0.597005941
Zr1      0.496113289   0.007772248   0.600481146
Zr1      0.007771211   0.496113683   0.600481375
Zr1      0.496113147   0.496112764   0.600480819
H1       0.333335935   0.333332909   0.644888437

     Writing output data file calc.save
     Check: negative starting charge=   -0.729718
     NEW-OLD atomic charge density approx. for the potential
     Check: negative starting charge=   -0.729573

[...]

     Self-consistent Calculation

[...]

     total energy              =   -1198.12910923 Ry
     Harris-Foulkes estimate   =   -1198.12910921 Ry
     estimated scf accuracy    <       0.00000011 Ry

     iteration # 10     ecut=    36.75 Ry     beta=0.30
     Davidson diagonalization with overlap
     ethr =  7.92E-11,  avg # of iterations =  4.8

[...]

     negative rho (up, down):  7.492E-01 0.000E+00

     Adding external electric field

     Computed dipole along edir(3) :
        Dipole                0.0208 Ry au,          0.0530 Debye
        Dipole field          0.0000 Ry au

        Potential amp.       -0.0040 Ry
        Total length         46.5096 bohr

     End of self-consistent calculation

[...]

          k = 0.0519-0.0599 0.0000 ( 22856 PWs)   bands (ev):

[...]

          k =-0.0779-0.0450 0.0000 ( 22880 PWs)   bands (ev):

   -47.7878 -47.7874 -47.7650 -47.7427 -47.7423 -47.7403 -47.7125 -47.6629
   -47.4228 -47.4213 -47.3823 -47.3819 -26.0144 -25.9935 -25.9648 -25.9501
   -25.9411 -25.9376 -25.8642 -25.8624 -25.8378 -25.8339 -25.7957 -25.7920
   -25.7733 -25.7539 -25.7500 -25.7025 -25.6971 -25.6915 -25.6849 -25.6492
   -25.4915 -25.4854 -25.4849 -25.4655 -25.4592 -25.4329 -25.3645 -25.3552
   -25.3332 -25.3268 -25.2725 -25.2685 -25.2553 -25.2408 -25.1322 -25.1232
    -3.4857  -2.0875  -1.9725  -1.1454  -0.9159  -0.4715  -0.4592  -0.3744
    -0.3653  -0.3117  -0.1659   0.3571   0.3672   0.4078   0.4300   0.4717
     0.5755   0.8347   0.8402   0.8995   0.9193   1.0021   1.0499   1.2580
     1.2585   1.2779   1.4585   1.4870   1.4939   1.5539   1.7077   1.7699
     1.9189   2.1229

     the Fermi energy is     1.4377 ev

!    total energy              =   -1198.12910921 Ry
     Harris-Foulkes estimate   =   -1198.12910927 Ry
     estimated scf accuracy    <       0.00000004 Ry

     The total energy is the sum of the following terms:

     one-electron contribution =   -8370.42880373 Ry
     hartree contribution      =    4176.19468881 Ry
     xc contribution           =    -221.39705011 Ry
     ewald contribution        =    3217.61622807 Ry
     electric field correction =       0.00000090 Ry
     smearing contrib. (-TS)   =      -0.11417314 Ry

     convergence has been achieved in  10 iterations

 BEEF-vdW xc energy contributions
           1 :   -189.680178160194
           2 :    171.779254216575
           3 :   -141.541874218408
           4 :    107.431175836520
           5 :   -77.1655886909624
           6 :    54.9898248155303
           7 :   -40.9638717214395
           8 :    32.2336306672755
           9 :   -25.2761417607066
          10 :    17.8295035947339
          11 :   -9.64777636796020
          12 :    1.99539051271819
          13 :    3.55289485272820
          14 :   -6.21198630504415
          15 :    6.40960834290914
          16 :   -5.42573642945331
          17 :    4.58721625435751
          18 :   -4.55449488307403
          19 :    5.10988232717335
          20 :   -5.50546952642861
          21 :    5.08188701600295
          22 :   -3.73741049848755
          23 :    1.97098020780183
          24 :  -0.526054567933841
          25 :  -8.694239182557340E-002
          26 :  -0.128423089478758
          27 :   0.721926132200451
          28 :   -1.12783650592792
          29 :    1.02451869360448
          30 :  -0.498605669096236
          31 :   -21.9509437210585
          32 :   -16.3782583572690

     Forces acting on atoms (Ry/au):

     negative rho (up, down):  7.492E-01 0.000E+00
     atom    1 type  1   force =    -0.00000112   -0.00000076    0.01249092
     atom    2 type  1   force =     0.00000107   -0.00000077    0.01249131
     atom    3 type  1   force =    -0.00000003    0.00000139    0.01249122
     atom    4 type  1   force =     0.00000002    0.00000016    0.01162277
     atom    5 type  1   force =    -0.00000022    0.00769940   -0.01150179
     atom    6 type  1   force =    -0.00000050    0.00000002   -0.01573108
     atom    7 type  1   force =    -0.00666772   -0.00384958   -0.01150060
     atom    8 type  1   force =     0.00666798   -0.00385001   -0.01150218
     atom    9 type  1   force =    -0.00000112   -0.00000030    0.00039852
     atom   10 type  1   force =     0.00000043    0.00033054    0.00032121
     atom   11 type  1   force =     0.00028845   -0.00016588    0.00032100
     atom   12 type  1   force =    -0.00028497   -0.00016436    0.00032208
     atom   13 type  2   force =    -0.00000226    0.00000015   -0.00022337

     Total force =     0.000920     Total SCF correction =     0.000237
     SCF correction compared to forces is large: reduce conv_thr to get better values

     entering subroutine stress ...

     negative rho (up, down):  7.492E-01 0.000E+00
          total   stress  (Ry/bohr**3)                   (kbar)     P=   -7.64
  -0.00005819  -0.00000000  -0.00000000         -8.56     -0.00     -0.00
  -0.00000000  -0.00005819   0.00000000         -0.00     -8.56      0.00
  -0.00000000   0.00000000  -0.00003935         -0.00      0.00     -5.79

     bfgs converged in  15 scf cycles and  14 bfgs steps
     (criteria: energy <  1.0E+00, force <  1.9E-03)

     End of BFGS Geometry Optimization

     Final energy   =   -1198.1291092132 Ry
Begin final coordinates

ATOMIC_POSITIONS (crystal)
Zr1      0.166666667   0.166666667   0.396150897    0   0   0
Zr1      0.666666667   0.166666667   0.396150897    0   0   0
Zr1      0.166666667   0.666666667   0.396150897    0   0   0
Zr1      0.666666667   0.666666667   0.396150897    0   0   0
Zr1      0.833333333   0.333333333   0.500000000    0   0   0
Zr1      0.333333333   0.333333333   0.500000000    0   0   0
Zr1      0.833333333   0.833333333   0.500000000    0   0   0
Zr1      0.333333333   0.833333333   0.500000000    0   0   0
Zr1      0.000000887   0.000000023   0.597005941
Zr1      0.496113289   0.007772248   0.600481146
Zr1      0.007771211   0.496113683   0.600481375
Zr1      0.496113147   0.496112764   0.600480819
H1       0.333335935   0.333332909   0.644888437
End final coordinates

     Writing output data file calc.save

     General routines

     Parallel routines

   This run was terminated on:  20:18:23   2May2018

   JOB DONE.
Job  /afs/slac/g/suncat/bin/suncat-tsmpirun -x LD_LIBRARY_PATH -wdir /scratch/qe857116_HP1PD pw.x -npool 4 -in pw.inp

TID   HOST_NAME   COMMAND_LINE            STATUS            TERMINATION_TIME
00000 suncat0182 pw.x -npool 4 -i  Done                     05/02/2018 20:18:23
00001 suncat0182 pw.x -npool 4 -i  Done                     05/02/2018 20:18:23
00002 suncat0182 pw.x -npool 4 -i  Done                     05/02/2018 20:18:23
00003 suncat0182 pw.x -npool 4 -i  Done                     05/02/2018 20:18:23
00004 suncat0182 pw.x -npool 4 -i  Done                     05/02/2018 20:18:23
00005 suncat0182 pw.x -npool 4 -i  Done                     05/02/2018 20:18:23
00006 suncat0182 pw.x -npool 4 -i  Done                     05/02/2018 20:18:23
00007 suncat0182 pw.x -npool 4 -i  Done                     05/02/2018 20:18:23
00008 suncat0173 pw.x -npool 4 -i  Done                     05/02/2018 20:18:23
00009 suncat0173 pw.x -npool 4 -i  Done                     05/02/2018 20:18:23
00010 suncat0173 pw.x -npool 4 -i  Done                     05/02/2018 20:18:23
00011 suncat0173 pw.x -npool 4 -i  Done                     05/02/2018 20:18:23
00012 suncat0173 pw.x -npool 4 -i  Done                     05/02/2018 20:18:23
00013 suncat0173 pw.x -npool 4 -i  Done                     05/02/2018 20:18:23
00014 suncat0173 pw.x -npool 4 -i  Done                     05/02/2018 20:18:23
00015 suncat0173 pw.x -npool 4 -i  Done                     05/02/2018 20:18:23
00016 suncat0244 pw.x -npool 4 -i  Done                     05/02/2018 20:18:23
00017 suncat0244 pw.x -npool 4 -i  Done                     05/02/2018 20:18:23
00018 suncat0244 pw.x -npool 4 -i  Done                     05/02/2018 20:18:23
00019 suncat0244 pw.x -npool 4 -i  Done                     05/02/2018 20:18:23
00020 suncat0244 pw.x -npool 4 -i  Done                     05/02/2018 20:18:23
00021 suncat0244 pw.x -npool 4 -i  Done                     05/02/2018 20:18:23
00022 suncat0244 pw.x -npool 4 -i  Done                     05/02/2018 20:18:23
00023 suncat0244 pw.x -npool 4 -i  Done                     05/02/2018 20:18:23
00024 suncat0243 pw.x -npool 4 -i  Done                     05/02/2018 20:18:23
00025 suncat0243 pw.x -npool 4 -i  Done                     05/02/2018 20:18:23
00026 suncat0243 pw.x -npool 4 -i  Done                     05/02/2018 20:18:23
00027 suncat0243 pw.x -npool 4 -i  Done                     05/02/2018 20:18:23
00028 suncat0243 pw.x -npool 4 -i  Done                     05/02/2018 20:18:23
00029 suncat0243 pw.x -npool 4 -i  Done                     05/02/2018 20:18:23
00030 suncat0243 pw.x -npool 4 -i  Done                     05/02/2018 20:18:23
00031 suncat0243 pw.x -npool 4 -i  Done                     05/02/2018 20:18:23