     Program PWSCF v.5.1rc2 (svn rev. 11289) starts on 16Apr2018 at 23:25:11

     Current dimensions of program PWSCF are:
     Max number of different atomic species (ntypx) = 10
     Max number of k-points (npk) =  40000
     Max angular momentum in pseudopotentials (lmaxx) =  3
     Presently stress not available with electric field

     IMPORTANT: XC functional enforced from input :
     Exchange-correlation      = BEEF-VDW ( 1  4 27 13 2)
     Any further DFT definition will be discarded
     Please, verify this is what you really want

     Subspace diagonalization in iterative solution of the eigenvalue problem:
     a serial algorithm will be used

     bravais-lattice index     =            0
     lattice parameter (alat)  =       1.8897  a.u.
     unit-cell volume          =    3724.3394 (a.u.)^3
     number of atoms/cell      =           14
     number of atomic types    =            3
     number of electrons       =       174.00
     number of Kohn-Sham states=           97
     kinetic-energy cutoff     =      36.7493  Ry
     charge density cutoff     =     367.4932  Ry
     convergence threshold     =      1.0E-05
     mixing beta               =       0.3000
     number of iterations used =           10  plain     mixing
     Exchange-correlation      = BEEF-VDW ( 1  4 27 13 2)
     nstep                     =           50

     celldm(1)=   1.889726  celldm(2)=   0.000000  celldm(3)=   0.000000
     celldm(4)=   0.000000  celldm(5)=   0.000000  celldm(6)=   0.000000

     crystal axes: (cart. coord. in units of alat)
               a(1) = (   5.132588   0.000000   0.000000 )
               a(2) = (   2.566294   4.444952   0.000000 )
               a(3) = (   0.000000   0.000000  24.190741 )

     reciprocal axes: (cart. coord. in units 2 pi/alat)
               b(1) = (  0.194833 -0.112487  0.000000 )
               b(2) = (  0.000000  0.224974  0.000000 )
               b(3) = (  0.000000  0.000000  0.041338 )

     PseudoPot. # 1 for Cr read from file:
     /u/if/mamunm/psp/gbrv1.5pbe/Cr.UPF
     MD5 check sum: 0d52af634a40206e4dee301ad30da4bf
     Pseudo is Ultrasoft + core correction, Zval = 14.0
     Generated by new atomic code, or converted to UPF format
     Using radial grid of  857 points,  6 beta functions with:
                l(1) =   0
                l(2) =   0
                l(3) =   1
                l(4) =   1
                l(5) =   2
                l(6) =   2
     Q(r) pseudized with  8 coefficients,  rinner =    0.950   0.950   0.950
                                                       0.950   0.950

     PseudoPot. # 2 for N  read from file:
     /u/if/mamunm/psp/gbrv1.5pbe/N.UPF
     MD5 check sum: 95339753478d7afb44899504a8723017
     Pseudo is Ultrasoft + core correction, Zval =  5.0
     Generated by new atomic code, or converted to UPF format
     Using radial grid of  729 points,  4 beta functions with:
                l(1) =   0
                l(2) =   0
                l(3) =   1
                l(4) =   1
     Q(r) pseudized with  8 coefficients,  rinner =    0.900   0.900   0.900

     PseudoPot. # 3 for H  read from file:
     /u/if/mamunm/psp/gbrv1.5pbe/H.UPF
     MD5 check sum: 761ae9a214b05c3daf00ab9f6b793d6f
     Pseudo is Ultrasoft, Zval =  1.0
     Generated by new atomic code, or converted to UPF format
     Using radial grid of  615 points,  2 beta functions with:
                l(1) =   0
                l(2) =   0
     Q(r) pseudized with  8 coefficients,  rinner =    0.700

     vdW kernel table read from file vdW_kernel_table
     MD5 check sum: 095c7af220d748ca6e76c0b4c6cfb241

     atomic species   valence    mass     pseudopotential
        Cr1           14.00    51.99610     Cr( 1.00)
        N1             5.00    14.00700     N ( 1.00)
        H1             1.00     1.00800     H ( 1.00)

     No symmetry found

   Cartesian axes

     site n.     atom                  positions (alat units)
         1           Cr1 tau(   1) = (   1.2831471   0.7408253  10.0000000  )
         2           Cr1 tau(   2) = (   3.8494412   0.7408253  10.0000000  )
         3           Cr1 tau(   3) = (   2.5662941   2.9633012  10.0000000  )
         4           Cr1 tau(   4) = (   5.1325882   2.9633012  10.0000000  )
         5           Cr1 tau(   5) = (   5.1325882   1.4816506  12.0953704  )
         6           Cr1 tau(   6) = (   2.5662941   1.4816506  12.0953704  )
         7           Cr1 tau(   7) = (   6.4157353   3.7041265  12.0953704  )
         8           Cr1 tau(   8) = (   3.8494412   3.7041265  12.0953704  )
         9           Cr1 tau(   9) = (   0.0000000   0.0000000  14.1907408  )
        10           Cr1 tau(  10) = (   2.5662941   0.0000000  14.1907408  )
        11           Cr1 tau(  11) = (   1.2831471   2.2224759  14.1907408  )
        12           Cr1 tau(  12) = (   3.8494412   2.2224759  14.1907408  )
        13           N1  tau(  13) = (   2.5662941   1.4816506  15.5557408  )
        14           H1  tau(  14) = (   2.5662941   1.4816506  16.6057408  )

     number of k points=    20  Fermi-Dirac smearing, width (Ry)=  0.0110
                       cart. coord. in units 2pi/alat
        k(    1) = (   0.0000000   0.0000000   0.0000000), wk =   0.0555556
        k(    2) = (   0.0000000   0.0374957   0.0000000), wk =   0.1111111
        k(    3) = (   0.0000000   0.0749914   0.0000000), wk =   0.1111111
        k(    4) = (   0.0000000  -0.1124872   0.0000000), wk =   0.0555556
        k(    5) = (   0.0324722  -0.0187479   0.0000000), wk =   0.1111111
        k(    6) = (   0.0324722   0.0187479   0.0000000), wk =   0.1111111
        k(    7) = (   0.0324722   0.0562436   0.0000000), wk =   0.1111111
        k(    8) = (   0.0324722  -0.1312350   0.0000000), wk =   0.1111111
        k(    9) = (   0.0324722  -0.0937393   0.0000000), wk =   0.1111111
        k(   10) = (   0.0324722  -0.0562436   0.0000000), wk =   0.1111111
        k(   11) = (   0.0649445  -0.0374957   0.0000000), wk =   0.1111111
        k(   12) = (   0.0649445   0.0000000   0.0000000), wk =   0.1111111
        k(   13) = (   0.0649445   0.0374957   0.0000000), wk =   0.1111111
        k(   14) = (   0.0649445  -0.1499829   0.0000000), wk =   0.1111111
        k(   15) = (   0.0649445  -0.1124872   0.0000000), wk =   0.1111111
        k(   16) = (   0.0649445  -0.0749914   0.0000000), wk =   0.1111111
        k(   17) = (  -0.0974167   0.0562436   0.0000000), wk =   0.0555556
        k(   18) = (  -0.0974167   0.0937393   0.0000000), wk =   0.1111111
        k(   19) = (  -0.0974167   0.1312350   0.0000000), wk =   0.1111111
        k(   20) = (  -0.0974167  -0.0562436   0.0000000), wk =   0.0555556

     Largest allocated arrays     est. size (Mb)     dimensions
     Largest temporary arrays     est. size (Mb)     dimensions

     Check: negative/imaginary core charge=   -0.000004    0.000000

     Initial potential from superposition of free atoms
     Check: negative starting charge=   -0.014853

     starting charge  161.99980, renormalised to  174.00000

     negative rho (up, down):  1.595E-02 0.000E+00

     *
     * You are using vdW-DF for exchange-correlation in this calculation.
     * Please cite the following three references that made this development
     * possible:
     *
     *   M. Dion, H. Rydberg, E. Schroder, D. C. Langreth, and
     *   B. I. Lundqvist, Phys. Rev. Lett. 92, 246401 (2004).
     *
     *   T. Thonhauser, V. R. Cooper, S. Li, A. Puzder, P. Hyldgaard, and
     *   D. C. Langreth, Phys. Rev. B 76, 125112 (2007).
     *
     *   G. Roman-Perez and J. M. Soler, Phys. Rev. Lett. 103, 096102 (2009).
     *
     *
     * If you are using vdW-DF2, please also cite:
     *
     *   K. Lee, E. D. Murray, L. Kong, B. I. Lundqvist, and
     *   D. C. Langreth, Phys. Rev. B 82, 081101(R) (2010).
     *
     *
     * If you are calculating the stress with vdW-DF, please also cite:
     *
     *   R. Sabatini, E. Kucukbenli, B. Kolb, T. Thonhauser, and
     *   S. de Gironcoli, J. Phys.: Condens. Matter 24, 424209 (2012).
     *

     Carrying out vdW-DF run using the following parameters:

     Nqs =      20    Nr_points =    1024   r_max =   100.000
     q_mesh =
               0.00001000     0.04494208     0.09755937     0.15916263
               0.23128650     0.31572767     0.41458969     0.53033537
               0.66584808     0.82450364     1.01025438     1.22772762
               1.48234092     1.78043706     2.12944203     2.53805004
               3.01644009     3.57652955     4.23227104     5.00000000

     Gradients computed in reciprocal space

     Adding external electric field

     Computed dipole along edir(3) :
        Dipole               -3.0532 Ry au,         -7.7604 Debye
        Dipole field         -0.0103 Ry au

        Potential amp.        0.9183 Ry
        Total length         44.5710 bohr

     Starting wfc are  125 randomized atomic wfcs

     Self-consistent Calculation

     iteration #  1     ecut=    36.75 Ry     beta=0.30
     Davidson diagonalization with overlap
     ethr =  1.00E-02,  avg # of iterations =  8.2

[...]

     total energy              =   -1919.84327793 Ry
     Harris-Foulkes estimate   =   -2138.88998248 Ry
     estimated scf accuracy    <     455.65693691 Ry

[...]

     End of self-consistent calculation

          k = 0.0000 0.0000 0.0000 ( 14081 PWs)   bands (ev):

   -70.0512 -69.9735 -69.9267 -69.9258 -69.8795 -69.8761 -69.8753 -69.8713
   -69.8351 -69.7769 -69.7766 -69.7759 -41.6706 -41.6202 -41.6199 -41.5922
   -41.5684 -41.5652 -41.5649 -41.4471 -41.4415 -41.4412 -41.3041 -41.2519
   -41.2511 -41.1947 -41.1697 -41.1694 -41.1688 -41.1248 -41.1244 -41.1243
   -41.0560 -41.0555 -41.0383 -41.0361 -41.0307 -41.0302 -40.9909 -40.9512
   -40.9511 -40.9231 -40.9200 -40.9197 -40.8998 -40.8996 -40.7877 -40.7877
   -13.7177  -5.7735  -4.7501  -3.0011  -2.3587  -2.3586  -2.1689  -1.9556
    -1.9554  -1.8350  -1.5367  -1.4172  -1.4170  -1.2178  -1.1603  -1.1602
    -0.8617  -0.8461  -0.8460  -0.0480  -0.0479   0.0321   0.6929   0.8116
     0.8117   0.9804   1.0278   1.2737   1.2737   1.4242   1.4242   1.5227
     1.5230   1.5245   1.5275   1.6012   1.6013   1.6637   1.8432   1.8435
     2.3587   2.3590   2.3602   2.5901   2.7453   2.7455   2.9252   2.9254
     2.9722

[...]

          k =-0.0974 0.0562 0.0000 ( 14010 PWs)   bands (ev):

[...]

     the Fermi energy is     1.6991 ev

!    total energy              =   -2136.55009224 Ry
     Harris-Foulkes estimate   =   -2136.55011719 Ry
     estimated scf accuracy    <       0.00000999 Ry

     The total energy is the sum of the following terms:

     one-electron contribution =  -20079.17299748 Ry
     hartree contribution      =   10035.46597265 Ry
     xc contribution           =    -285.44178418 Ry
     ewald contribution        =    8192.73359949 Ry
     electric field correction =       0.00023838 Ry
     smearing contrib. (-TS)   =      -0.13512111 Ry

     convergence has been achieved in  58 iterations

 BEEF-vdW xc energy contributions
           1 :   -247.031222169143
           2 :    222.356980488796
           3 :   -181.157877951402
           4 :    135.805857050623
           5 :   -97.5374821603521
           6 :    72.3865028280614
           7 :   -60.0579416941595
           8 :    55.7752471553510
           9 :   -53.6973615365469
          10 :    49.9438734204234
          11 :   -43.8339149452677
          12 :    37.1268582512890
          13 :   -32.1469911642940
          14 :    30.0716034255453
          15 :   -30.3056097771570
          16 :    31.0833927383728
          17 :   -30.7187116428248
          18 :    28.6302789304277
          19 :   -25.5415437689729
          20 :    22.8363716967701
          21 :   -21.5757186723035
          22 :    21.8328456905674
          23 :   -22.7364882963479
          24 :    23.1198631552759
          25 :   -22.2983443364898
          26 :    20.4617124457409
          27 :   -18.4679973297070
          28 :    17.2263571795469
          29 :   -17.1009475299818
          30 :    17.7152132468218
          31 :   -24.5420274012428
          32 :   -17.6373541313462

     Forces acting on atoms (Ry/au):

     negative rho (up, down):  1.476E-02 0.000E+00
     atom    1 type  1   force =    -0.00192076   -0.00110104    0.00041019
     atom    2 type  1   force =     0.00192169   -0.00110388    0.00037055
     atom    3 type  1   force =    -0.00001171    0.00220730    0.00037256
     atom    4 type  1   force =     0.00000569   -0.00000910    0.00143614
     atom    5 type  1   force =    -0.00000887   -0.00135990   -0.00625222
     atom    6 type  1   force =     0.00000294   -0.00001807    0.00998595
     atom    7 type  1   force =     0.00117274    0.00068410   -0.00622182
     atom    8 type  1   force =    -0.00116418    0.00067842   -0.00622775
     atom    9 type  1   force =    -0.00000086    0.00000643   -0.02895288
     atom   10 type  1   force =    -0.00000822   -0.01521501    0.04308929
     atom   11 type  1   force =    -0.01317447    0.00759721    0.04305908
     atom   12 type  1   force =     0.01318137    0.00760688    0.04307598
     atom   13 type  2   force =     0.00000289    0.00002824   -0.04645692
     atom   14 type  3   force =     0.00000175   -0.00000160   -0.04768813

     Total force =     0.107384     Total SCF correction =     0.012819
     SCF correction compared to forces is large: reduce conv_thr to get better values

     entering subroutine stress ...

     negative rho (up, down):  1.476E-02 0.000E+00
          total   stress  (Ry/bohr**3)                   (kbar)     P=  -30.90
  -0.00025819   0.00000004  -0.00000003        -37.98      0.01     -0.00
   0.00000004  -0.00025828  -0.00000009          0.01    -37.99     -0.01
  -0.00000003  -0.00000009  -0.00011360         -0.00     -0.01    -16.71

     BFGS Geometry Optimization

     number of scf cycles    =   1
     number of bfgs steps    =   0

     energy   new            =   -2136.5500922407 Ry

     new trust radius        =       0.0476881306 bohr
     new conv_thr            =       0.0000099958 Ry

ATOMIC_POSITIONS (crystal)
Cr1      0.166666667   0.166666667   0.413381306    0   0   0
Cr1      0.666666667   0.166666667   0.413381306    0   0   0
Cr1      0.166666667   0.666666667   0.413381306    0   0   0
Cr1      0.666666667   0.666666667   0.413381306    0   0   0
Cr1      0.833333333   0.333333333   0.500000000    0   0   0
Cr1      0.333333333   0.333333333   0.500000000    0   0   0
Cr1      0.833333333   0.833333333   0.500000000    0   0   0
Cr1      0.333333333   0.833333333   0.500000000    0   0   0
Cr1     -0.000000472   0.000000766   0.585985344
Cr1      0.500904835  -0.001811366   0.587561281
Cr1     -0.001810535   0.500904457   0.587560620
Cr1      0.500906213   0.500905609   0.587560990
N1       0.333331950   0.333336696   0.642028988
H1       0.333333609   0.333333143   0.685407092

     Writing output data file calc.save
     Check: negative starting charge=   -0.014853
     NEW-OLD atomic charge density approx. for the potential

     Check: negative/imaginary core charge=   -0.000004    0.000000
     Check: negative starting charge=   -0.014412

[...]

     energy   old            =   -2136.5500922407 Ry
     energy   new            =   -2136.5604258971 Ry

     CASE: energy  _new < energy  _old

[...]

     iteration #  1     ecut=    36.75 Ry     beta=0.30
     Davidson diagonalization with overlap
     c_bands:  1 eigenvalues not converged
     c_bands:  1 eigenvalues not converged
     ethr =  1.00E-06,  avg # of iterations = 16.2

[...]

     Total force =     0.059108     Total SCF correction =     0.000219

[...]

     iteration #  1     ecut=    36.75 Ry     beta=0.30
     Davidson diagonalization with overlap
     c_bands:  1 eigenvalues not converged
     ethr =  1.00E-06,  avg # of iterations = 14.8

[...]

     Total force =     0.015831     Total SCF correction =     0.000276

[...]

     number of scf cycles    =  10
     number of bfgs steps    =   9

     energy   old            =   -2136.5905933457 Ry
     energy   new            =   -2136.5908000027 Ry

     CASE: energy  _new < energy  _old

     new trust radius        =       0.0083577782 bohr
     new conv_thr            =       0.0000001000 Ry

ATOMIC_POSITIONS (crystal)
Cr1      0.166666667   0.166666667   0.413381306    0   0   0
Cr1      0.666666667   0.166666667   0.413381306    0   0   0
Cr1      0.166666667   0.666666667   0.413381306    0   0   0
Cr1      0.666666667   0.666666667   0.413381306    0   0   0
Cr1      0.833333333   0.333333333   0.500000000    0   0   0
Cr1      0.333333333   0.333333333   0.500000000    0   0   0
Cr1      0.833333333   0.833333333   0.500000000    0   0   0
Cr1      0.333333333   0.833333333   0.500000000    0   0   0
Cr1     -0.000002994   0.000003388   0.570463029
Cr1      0.506290831  -0.012582261   0.590249839
Cr1     -0.012585125   0.506292724   0.590249055
Cr1      0.506292799   0.506293677   0.590249054
N1       0.333331081   0.333338010   0.638476390
H1       0.333331947   0.333333120   0.680802405

     Writing output data file calc.save
     Check: negative starting charge=   -0.014733
     NEW-OLD atomic charge density approx. for the potential

     Check: negative/imaginary core charge=   -0.000004    0.000000
     Check: negative starting charge=   -0.014924

[...]

     Self-consistent Calculation

[...]

     total energy              =   -2136.59086131 Ry
     Harris-Foulkes estimate   =   -2136.59086139 Ry
     estimated scf accuracy    <       0.00000054 Ry

     iteration # 18     ecut=    36.75 Ry     beta=0.30
     Davidson diagonalization with overlap
     ethr =  3.11E-10,  avg # of iterations =  3.9

[...]

     negative rho (up, down):  1.498E-02 0.000E+00

     Adding external electric field

     Computed dipole along edir(3) :
        Dipole                0.3021 Ry au,          0.7679 Debye
        Dipole field          0.0010 Ry au

        Potential amp.       -0.0909 Ry
        Total length         44.5710 bohr

     End of self-consistent calculation

[...]

          k = 0.0649-0.0750 0.0000 ( 13990 PWs)   bands (ev):

[...]

          k =-0.0974-0.0562 0.0000 ( 14010 PWs)   bands (ev):

   -69.9970 -69.9855 -69.9515 -69.9128 -69.8990 -69.8766 -69.8419 -69.8000
   -69.7867 -69.7647 -69.7379 -69.7335 -41.6947 -41.5667 -41.5556 -41.5047
   -41.4861 -41.4454 -41.4109 -41.3446 -41.3380 -41.3014 -41.2996 -41.2828
   -41.2777 -41.2276 -41.1917 -41.1688 -41.1679 -41.1661 -41.1226 -41.1223
   -41.1089 -41.0706 -41.0597 -41.0564 -41.0264 -41.0240 -41.0202 -41.0159
   -40.9804 -40.9751 -40.9601 -40.8796 -40.8540 -40.8133 -40.8074 -40.7754
   -14.2138  -5.7875  -3.4116  -3.0448  -2.6175  -2.4753  -1.7212  -1.4817
    -1.1982  -1.1360  -1.1239  -1.1220  -0.9760  -0.7120  -0.5811  -0.5328
    -0.3708  -0.3370  -0.1346  -0.0569   0.0083   0.2284   0.3082   0.3249
     0.3277   0.4396   0.5524   0.6072   0.7975   0.8066   1.0028   1.0041
     1.0679   1.1207   1.2638   1.3384   1.4036   1.4192   1.5129   1.5258
     1.7572   1.9535   2.0311   2.1778   2.2797   2.2815   2.3634   2.5923
     2.6307

     the Fermi energy is     1.7547 ev

!    total energy              =   -2136.59086132 Ry
     Harris-Foulkes estimate   =   -2136.59086050 Ry
     estimated scf accuracy    <       0.00000003 Ry

     The total energy is the sum of the following terms:

     one-electron contribution =  -20189.81669829 Ry
     hartree contribution      =   10090.84612231 Ry
     xc contribution           =    -285.65808570 Ry
     ewald contribution        =    8248.16124293 Ry
     electric field correction =       0.00030795 Ry
     smearing contrib. (-TS)   =      -0.12375052 Ry

     convergence has been achieved in  18 iterations

 BEEF-vdW xc energy contributions
           1 :   -247.251388158720
           2 :    222.623268811397
           3 :   -181.463087787025
           4 :    136.080870784199
           5 :   -97.6867067011294
           6 :    72.3395871427600
           7 :   -59.8101430630550
           8 :    55.3952613635275
           9 :   -53.2989062589656
          10 :    49.6330192769938
          11 :   -43.6558956675630
          12 :    37.0406572879467
          13 :   -32.0471602856315
          14 :    29.8519945191607
          15 :   -29.9305651988343
          16 :    30.6189559075022
          17 :   -30.2976251622965
          18 :    28.3696026018527
          19 :   -25.4666096293772
          20 :    22.8625935409600
          21 :   -21.5610129239139
          22 :    21.6652752329302
          23 :   -22.4008134003899
          24 :    22.7034422876148
          25 :   -21.9357573622254
          26 :    20.2530233420385
          27 :   -18.4195034142398
          28 :    17.2486734884242
          29 :   -17.0655718915256
          30 :    17.5363342506019
          31 :   -24.5549492167663
          32 :   -17.6558452591734

     Forces acting on atoms (Ry/au):

     negative rho (up, down):  1.498E-02 0.000E+00
     atom    1 type  1   force =    -0.00132897   -0.00076490   -0.00040718
     atom    2 type  1   force =     0.00133016   -0.00076556   -0.00041171
     atom    3 type  1   force =     0.00000057    0.00153332   -0.00040720
     atom    4 type  1   force =     0.00000040   -0.00000095    0.00682443
     atom    5 type  1   force =     0.00000170    0.02121407   -0.01652927
     atom    6 type  1   force =    -0.00000053   -0.00000195    0.04290109
     atom    7 type  1   force =    -0.01836688   -0.01060429   -0.01652977
     atom    8 type  1   force =     0.01836710   -0.01060424   -0.01652705
     atom    9 type  1   force =     0.00000092   -0.00000132    0.00026785
     atom   10 type  1   force =    -0.00000120    0.00034988    0.00009476
     atom   11 type  1   force =     0.00030592   -0.00017486    0.00010545
     atom   12 type  1   force =    -0.00030970   -0.00017607    0.00010939
     atom   13 type  2   force =     0.00000008   -0.00000516    0.00047926
     atom   14 type  3   force =     0.00000044    0.00000202    0.00002995

     Total force =     0.000841     Total SCF correction =     0.000178
     SCF correction compared to forces is large: reduce conv_thr to get better values

     entering subroutine stress ...

     negative rho (up, down):  1.498E-02 0.000E+00
          total   stress  (Ry/bohr**3)                   (kbar)     P=  -16.99
  -0.00016588  -0.00000000   0.00000000        -24.40     -0.00      0.00
  -0.00000000  -0.00016586   0.00000001         -0.00    -24.40      0.00
   0.00000000   0.00000001  -0.00001472          0.00      0.00     -2.17

     bfgs converged in  11 scf cycles and  10 bfgs steps
     (criteria: energy <  1.0E+00, force <  1.9E-03)

     End of BFGS Geometry Optimization

     Final energy   =   -2136.5908613158 Ry
Begin final coordinates

ATOMIC_POSITIONS (crystal)
Cr1      0.166666667   0.166666667   0.413381306    0   0   0
Cr1      0.666666667   0.166666667   0.413381306    0   0   0
Cr1      0.166666667   0.666666667   0.413381306    0   0   0
Cr1      0.666666667   0.666666667   0.413381306    0   0   0
Cr1      0.833333333   0.333333333   0.500000000    0   0   0
Cr1      0.333333333   0.333333333   0.500000000    0   0   0
Cr1      0.833333333   0.833333333   0.500000000    0   0   0
Cr1      0.333333333   0.833333333   0.500000000    0   0   0
Cr1     -0.000002994   0.000003388   0.570463029
Cr1      0.506290831  -0.012582261   0.590249839
Cr1     -0.012585125   0.506292724   0.590249055
Cr1      0.506292799   0.506293677   0.590249054
N1       0.333331081   0.333338010   0.638476390
H1       0.333331947   0.333333120   0.680802405
End final coordinates

     Writing output data file calc.save

     General routines

     Parallel routines

   This run was terminated on:   1:13:16  17Apr2018

   JOB DONE.
Job  /afs/slac/g/suncat/bin/suncat-tsmpirun -x LD_LIBRARY_PATH -wdir /scratch/qe157813_HFPUe pw.x -npool 4 -in pw.inp

TID   HOST_NAME   COMMAND_LINE            STATUS            TERMINATION_TIME
00000 suncat0161 pw.x -npool 4 -i  Done                     04/17/2018 01:13:16
00001 suncat0161 pw.x -npool 4 -i  Done                     04/17/2018 01:13:16
00002 suncat0161 pw.x -npool 4 -i  Done                     04/17/2018 01:13:16
00003 suncat0161 pw.x -npool 4 -i  Done                     04/17/2018 01:13:16
00004 suncat0161 pw.x -npool 4 -i  Done                     04/17/2018 01:13:16
00005 suncat0161 pw.x -npool 4 -i  Done                     04/17/2018 01:13:16
00006 suncat0161 pw.x -npool 4 -i  Done                     04/17/2018 01:13:16
00007 suncat0161 pw.x -npool 4 -i  Done                     04/17/2018 01:13:16
00008 suncat0160 pw.x -npool 4 -i  Done                     04/17/2018 01:13:16
00009 suncat0160 pw.x -npool 4 -i  Done                     04/17/2018 01:13:16
00010 suncat0160 pw.x -npool 4 -i  Done                     04/17/2018 01:13:16
00011 suncat0160 pw.x -npool 4 -i  Done                     04/17/2018 01:13:16
00012 suncat0160 pw.x -npool 4 -i  Done                     04/17/2018 01:13:16
00013 suncat0160 pw.x -npool 4 -i  Done                     04/17/2018 01:13:16
00014 suncat0160 pw.x -npool 4 -i  Done                     04/17/2018 01:13:16
00015 suncat0160 pw.x -npool 4 -i  Done                     04/17/2018 01:13:16
00016 suncat0156 pw.x -npool 4 -i  Done                     04/17/2018 01:13:16
00017 suncat0156 pw.x -npool 4 -i  Done                     04/17/2018 01:13:16
00018 suncat0156 pw.x -npool 4 -i  Done                     04/17/2018 01:13:16
00019 suncat0156 pw.x -npool 4 -i  Done                     04/17/2018 01:13:16
00020 suncat0156 pw.x -npool 4 -i  Done                     04/17/2018 01:13:16
00021 suncat0156 pw.x -npool 4 -i  Done                     04/17/2018 01:13:16
00022 suncat0156 pw.x -npool 4 -i  Done                     04/17/2018 01:13:16
00023 suncat0156 pw.x -npool 4 -i  Done                     04/17/2018 01:13:16
00024 suncat0153 pw.x -npool 4 -i  Done                     04/17/2018 01:13:16
00025 suncat0153 pw.x -npool 4 -i  Done                     04/17/2018 01:13:16
00026 suncat0153 pw.x -npool 4 -i  Done                     04/17/2018 01:13:16
00027 suncat0153 pw.x -npool 4 -i  Done                     04/17/2018 01:13:16
00028 suncat0153 pw.x -npool 4 -i  Done                     04/17/2018 01:13:16
00029 suncat0153 pw.x -npool 4 -i  Done                     04/17/2018 01:13:16
00030 suncat0153 pw.x -npool 4 -i  Done                     04/17/2018 01:13:16
00031 suncat0153 pw.x -npool 4 -i  Done                     04/17/2018 01:13:16