     Program PWSCF v.5.1rc2 (svn rev. 11289) starts on 12Jan2019 at  7: 7:21

     Current dimensions of program PWSCF are:
     Max number of different atomic species (ntypx) = 10
     Max number of k-points (npk) =  40000
     Max angular momentum in pseudopotentials (lmaxx) =  3

     IMPORTANT: XC functional enforced from input :
     Exchange-correlation      = BEEF-VDW ( 1  4 27 13 2)
     Any further DFT definition will be discarded
     Please, verify this is what you really want

     Subspace diagonalization in iterative solution of the eigenvalue problem:
     a serial algorithm will be used

     Generating pointlists ...
     new r_m :   0.1719 (alat units)  1.6822 (a.u.) for type    1
     new r_m :   0.1719 (alat units)  1.6822 (a.u.) for type    2

     bravais-lattice index     =            0
     lattice parameter (alat)  =       9.7861  a.u.
     unit-cell volume          =    3797.2498 (a.u.)^3
     number of atoms/cell      =           13
     number of atomic types    =            2
     number of electrons       =       198.00
     number of Kohn-Sham states=          109
     kinetic-energy cutoff     =      36.7493  Ry
     charge density cutoff     =     367.4933  Ry
     convergence threshold     =      1.0E-04
     mixing beta               =       0.1000
     number of iterations used =            8  plain     mixing
     Exchange-correlation      = BEEF-VDW ( 1  4 27 13 2)
     nstep                     =           50

     celldm(1)=   9.786074  celldm(2)=   0.000000  celldm(3)=   0.000000
     celldm(4)=   0.000000  celldm(5)=   0.000000  celldm(6)=   0.000000

     crystal axes: (cart. coord. in units of alat)
               a(1) = (   1.000000   0.000000   0.000000 )
               a(2) = (   0.500000   0.866025   0.000000 )
               a(3) = (   0.000000   0.000000   4.678568 )

     reciprocal axes: (cart. coord. in units 2 pi/alat)
               b(1) = (  1.000000 -0.577350  0.000000 )
               b(2) = (  0.000000  1.154701  0.000000 )
               b(3) = (  0.000000  0.000000  0.213741 )

     PseudoPot. # 1 for Fe read from file:
     /u/if/jboes/code/decaf-espresso/gbrv15pbe/Fe.UPF
     MD5 check sum: a130daea23fe5165f5d574ae7f82ed95
     Pseudo is Ultrasoft + core correction, Zval = 16.0
     Generated by new atomic code, or converted to UPF format
     Using radial grid of  861 points,  6 beta functions with:
                l(1) =   0
                l(2) =   0
                l(3) =   1
                l(4) =   1
                l(5) =   2
                l(6) =   2
     Q(r) pseudized with  8 coefficients,  rinner =    1.000   1.000   1.000
                                                       1.000   1.000

     PseudoPot. # 2 for S  read from file:
     /u/if/jboes/code/decaf-espresso/gbrv15pbe/S.UPF
     MD5 check sum: 88d86576ff6df21479756cfb9bdac1df
     Pseudo is Ultrasoft + core correction, Zval =  6.0
     Generated by new atomic code, or converted to UPF format
     Using radial grid of  907 points,  6 beta functions with:
                l(1) =   0
                l(2) =   0
                l(3) =   1
                l(4) =   1
                l(5) =   2
                l(6) =   2
     Q(r) pseudized with  8 coefficients,  rinner =    1.300   1.300   1.300
                                                       1.300   1.300

     vdW kernel table read from file vdW_kernel_table
     MD5 check sum: 095c7af220d748ca6e76c0b4c6cfb241

     atomic species   valence    mass     pseudopotential
        Fe            16.00    55.84500     Fe( 1.00)
        S              6.00    32.06000     S ( 1.00)

     Starting magnetic structure
     atomic species   magnetization
        Fe           0.188
        S            0.000

     No symmetry found

   Cartesian axes

     site n.     atom                  positions (alat units)
         1           Fe  tau(   1) = (   0.2500000   0.1443376   1.9310359  )
         2           Fe  tau(   2) = (   0.7500000   0.1443376   1.9310359  )
         3           Fe  tau(   3) = (   0.5000000   0.5773503   1.9310359  )
         4           Fe  tau(   4) = (   1.0000000   0.5773503   1.9310359  )
         5           Fe  tau(   5) = (   1.0000000   0.2886751   2.3392842  )
         6           Fe  tau(   6) = (   0.5000000   0.2886751   2.3392842  )
         7           Fe  tau(   7) = (   1.2500000   0.7216878   2.3392842  )
         8           Fe  tau(   8) = (   0.7500000   0.7216878   2.3392842  )
         9           Fe  tau(   9) = (  -0.0085527   0.0029149   2.7285256  )
        10           Fe  tau(  10) = (   0.5085547   0.0028901   2.7285685  )
        11           Fe  tau(  11) = (   0.2499834   0.4252565   2.7416902  )
        12           Fe  tau(  12) = (   0.7500205   0.4343247   2.7367028  )
        13           S   tau(  13) = (   0.2499878   0.0010495   3.0553586  )

     number of k points=    40  Fermi-Dirac smearing, width (Ry)=  0.0110
                       cart. coord. in units 2pi/alat
        k(    1) = (   0.0000000   0.0000000   0.0000000), wk =   0.0277778
        k(    2) = (   0.0000000   0.1924501   0.0000000), wk =   0.0555556
        k(    3) = (   0.0000000   0.3849002   0.0000000), wk =   0.0555556
        k(    4) = (   0.0000000  -0.5773503   0.0000000), wk =   0.0277778
        k(    5) = (   0.1666667  -0.0962250   0.0000000), wk =   0.0555556
        k(    6) = (   0.1666667   0.0962250   0.0000000), wk =   0.0555556
        k(    7) = (   0.1666667   0.2886751   0.0000000), wk =   0.0555556
        k(    8) = (   0.1666667  -0.6735753   0.0000000), wk =   0.0555556
        k(    9) = (   0.1666667  -0.4811252   0.0000000), wk =   0.0555556
        k(   10) = (   0.1666667  -0.2886751   0.0000000), wk =   0.0555556
        k(   11) = (   0.3333333  -0.1924501   0.0000000), wk =   0.0555556
        k(   12) = (   0.3333333   0.0000000   0.0000000), wk =   0.0555556
        k(   13) = (   0.3333333   0.1924501   0.0000000), wk =   0.0555556
        k(   14) = (   0.3333333  -0.7698004   0.0000000), wk =   0.0555556
        k(   15) = (   0.3333333  -0.5773503   0.0000000), wk =   0.0555556
        k(   16) = (   0.3333333  -0.3849002   0.0000000), wk =   0.0555556
        k(   17) = (  -0.5000000   0.2886751   0.0000000), wk =   0.0277778
        k(   18) = (  -0.5000000   0.4811252   0.0000000), wk =   0.0555556
        k(   19) = (  -0.5000000   0.6735753   0.0000000), wk =   0.0555556
        k(   20) = (  -0.5000000  -0.2886751   0.0000000), wk =   0.0277778
        k(   21) = (   0.0000000   0.0000000   0.0000000), wk =   0.0277778
        k(   22) = (   0.0000000   0.1924501   0.0000000), wk =   0.0555556
        k(   23) = (   0.0000000   0.3849002   0.0000000), wk =   0.0555556
        k(   24) = (   0.0000000  -0.5773503   0.0000000), wk =   0.0277778
        k(   25) = (   0.1666667  -0.0962250   0.0000000), wk =   0.0555556
        k(   26) = (   0.1666667   0.0962250   0.0000000), wk =   0.0555556
        k(   27) = (   0.1666667   0.2886751   0.0000000), wk =   0.0555556
        k(   28) = (   0.1666667  -0.6735753   0.0000000), wk =   0.0555556
        k(   29) = (   0.1666667  -0.4811252   0.0000000), wk =   0.0555556
        k(   30) = (   0.1666667  -0.2886751   0.0000000), wk =   0.0555556
        k(   31) = (   0.3333333  -0.1924501   0.0000000), wk =   0.0555556
        k(   32) = (   0.3333333   0.0000000   0.0000000), wk =   0.0555556
        k(   33) = (   0.3333333   0.1924501   0.0000000), wk =   0.0555556
        k(   34) = (   0.3333333  -0.7698004   0.0000000), wk =   0.0555556
        k(   35) = (   0.3333333  -0.5773503   0.0000000), wk =   0.0555556
        k(   36) = (   0.3333333  -0.3849002   0.0000000), wk =   0.0555556
        k(   37) = (  -0.5000000   0.2886751   0.0000000), wk =   0.0277778
        k(   38) = (  -0.5000000   0.4811252   0.0000000), wk =   0.0555556
        k(   39) = (  -0.5000000   0.6735753   0.0000000), wk =   0.0555556
        k(   40) = (  -0.5000000  -0.2886751   0.0000000), wk =   0.0277778

     Largest allocated arrays     est. size (Mb)     dimensions
     Largest temporary arrays     est. size (Mb)     dimensions

     Check: negative/imaginary core charge=   -0.000008    0.000000

     Initial potential from superposition of free atoms
     Check: negative starting charge=(component1):   -0.000107

     starting charge  185.99989, renormalised to  198.00000

     negative rho (up, down):  1.142E-04 7.714E-05

     *
     * You are using vdW-DF for exchange-correlation in this calculation.
     * Please cite the following three references that made this development
     * possible:
     *
     *   M. Dion, H. Rydberg, E. Schroder, D. C. Langreth, and
     *   B. I. Lundqvist, Phys. Rev. Lett. 92, 246401 (2004).
     *
     *   T. Thonhauser, V. R. Cooper, S. Li, A. Puzder, P. Hyldgaard, and
     *   D. C. Langreth, Phys. Rev. B 76, 125112 (2007).
     *
     *   G. Roman-Perez and J. M. Soler, Phys. Rev. Lett. 103, 096102 (2009).
     *
     *
     * If you are using vdW-DF2, please also cite:
     *
     *   K. Lee, E. D. Murray, L. Kong, B. I. Lundqvist, and
     *   D. C. Langreth, Phys. Rev. B 82, 081101(R) (2010).
     *
     *
     * If you are calculating the stress with vdW-DF, please also cite:
     *
     *   R. Sabatini, E. Kucukbenli, B. Kolb, T. Thonhauser, and
     *   S. de Gironcoli, J. Phys.: Condens. Matter 24, 424209 (2012).
     *

     Carrying out vdW-DF run using the following parameters:

     Nqs =      20    Nr_points =    1024   r_max =   100.000
     q_mesh =
               0.00001000     0.04494208     0.09755937     0.15916263
               0.23128650     0.31572767     0.41458969     0.53033537
               0.66584808     0.82450364     1.01025438     1.22772762
               1.48234092     1.78043706     2.12944203     2.53805004
               3.01644009     3.57652955     4.23227104     5.00000000

     Gradients computed in reciprocal space

     Adding external electric field

     Computed dipole along edir(3) :
        Dipole               -2.7296 Ry au,         -6.9380 Debye
        Dipole field         -0.0090 Ry au

        Potential amp.        0.7444 Ry
        Total length         41.2063 bohr

[...]

     Starting wfc are  160 randomized atomic wfcs

     Self-consistent Calculation

     iteration #  1     ecut=    36.75 Ry     beta=0.10
     Davidson diagonalization with overlap
     ethr =  1.00E-02,  avg # of iterations =  5.7

[...]

     Magnetic moment per site:
     atom:    1    charge:   13.9925    magn:    2.4380    constr:    0.0000
     atom:    2    charge:   13.9921    magn:    2.4386    constr:    0.0000
     atom:    3    charge:   13.9926    magn:    2.4379    constr:    0.0000
     atom:    4    charge:   13.9926    magn:    2.4379    constr:    0.0000
     atom:    5    charge:   13.8620    magn:    2.5260    constr:    0.0000
     atom:    6    charge:   13.8620    magn:    2.5260    constr:    0.0000
     atom:    7    charge:   13.8660    magn:    2.5237    constr:    0.0000
     atom:    8    charge:   13.8627    magn:    2.5222    constr:    0.0000
[...]
     atom:   11    charge:   13.3996    magn:    2.3910    constr:    0.0000
     atom:   12    charge:   13.4075    magn:    2.3964    constr:    0.0000
     atom:   13    charge:    3.4405    magn:    0.0130    constr:    0.0000

     total energy              =   -2962.68879862 Ry
     Harris-Foulkes estimate   =   -3049.93345129 Ry
     estimated scf accuracy    <     472.07739755 Ry

     total magnetization       =    13.43 Bohr mag/cell
     absolute magnetization    =    15.67 Bohr mag/cell

[...]

     iteration # 39     ecut=    36.75 Ry     beta=0.10
     Davidson diagonalization with overlap
     c_bands:  1 eigenvalues not converged
     c_bands:  1 eigenvalues not converged
     ethr =  6.60E-06,  avg # of iterations =  3.8

[...]

     End of self-consistent calculation

 ------ SPIN UP ------------

          k = 0.0000 0.0000 0.0000 ( 14285 PWs)   bands (ev):

   -87.6266 -87.5993 -87.5704 -87.5404 -87.5321 -87.5301 -87.4262 -87.4069
   -87.3702 -87.2427 -85.1115 -85.0906 -53.7267 -53.7090 -53.6931 -53.6850
   -53.6817 -53.6790 -53.6677 -53.6494 -53.6385 -53.6281 -53.6206 -53.6184
   -53.5084 -53.5021 -53.5003 -53.4800 -53.4506 -53.4439 -53.4404 -53.4008
   -53.3958 -53.3911 -53.3863 -53.3836 -53.3629 -53.3380 -53.2735 -53.2387
   -53.2333 -53.2001 -51.3217 -51.2606 -51.1965 -51.1802 -51.1542 -51.0064
   -12.0985  -6.4884  -4.8033  -3.8422  -3.6413  -3.6107  -3.5225  -3.5090
    -3.4700  -3.3791  -3.1436  -3.0919  -3.0870  -2.9966  -2.9786  -2.9668
    -2.3932  -2.3445  -2.2886  -2.2529  -1.9909  -1.7495  -1.7017  -1.6933
    -1.4970  -1.4363  -1.4070  -1.4066  -1.3580  -1.3270  -1.2747  -1.2562
    -1.2294  -1.1789  -1.0756  -1.0501  -0.8036  -0.7817  -0.6545  -0.6302
    -0.5786  -0.4500  -0.4169  -0.3013  -0.2512  -0.1308  -0.1280  -0.0505
     0.0994   0.1254   0.1702   0.2703   0.4280   0.4310   0.4379   0.5187
     0.5668   0.5955   0.7797   0.9659   1.1624

[...]

          k =-0.5000 0.2887 0.0000 ( 14254 PWs)   bands (ev):

[...]

 ------ SPIN DOWN ----------

[...]

     the Fermi energy is     1.0610 ev

!    total energy              =   -3040.43009981 Ry
     Harris-Foulkes estimate   =   -3040.43007778 Ry
     estimated scf accuracy    <       0.00006557 Ry

     The total energy is the sum of the following terms:

     one-electron contribution =  -26328.89456255 Ry
     hartree contribution      =   13165.62930259 Ry
     xc contribution           =    -372.11257670 Ry
     ewald contribution        =   10495.02868034 Ry
     electric field correction =       0.00004924 Ry
     smearing contrib. (-TS)   =      -0.08099273 Ry

[...]

     convergence has been achieved in 126 iterations

     Forces acting on atoms (Ry/au):

     negative rho (up, down):  6.176E-04 7.235E-04
     atom    1 type  1   force =    -0.00004819    0.00010945    0.00329710
     atom    2 type  1   force =     0.00001203   -0.00198762    0.00378290
     atom    3 type  1   force =    -0.00015521   -0.00022223   -0.00041917
     atom    4 type  1   force =     0.00013254   -0.00022648   -0.00029656
     atom    5 type  1   force =     0.00109175   -0.00035536    0.00362048
     atom    6 type  1   force =    -0.00110874   -0.00004669    0.00337903
     atom    7 type  1   force =     0.00014496   -0.00055649    0.00229176
     atom    8 type  1   force =    -0.00019188   -0.00002107    0.00156352
     atom    9 type  1   force =    -0.01981830   -0.00483624   -0.01293171
     atom   10 type  1   force =     0.02000041   -0.00519248   -0.01289871
     atom   11 type  1   force =    -0.00011982   -0.00103441   -0.00720458
     atom   12 type  1   force =     0.00005251    0.01061277   -0.00643171
     atom   13 type  2   force =     0.00000796    0.00375684    0.02224764

     Total force =     0.043506     Total SCF correction =     0.006717
     SCF correction compared to forces is large: reduce conv_thr to get better values

     BFGS Geometry Optimization

     number of scf cycles    =   1
     number of bfgs steps    =   0

     energy   new            =   -3040.4300998067 Ry

     new trust radius        =       0.0243588750 bohr
     new conv_thr            =       0.0001000000 Ry

ATOMIC_POSITIONS (angstrom)
Fe       1.294641895   0.747461846  10.000000000    0   0   0
Fe       3.883925684   0.747461846  10.000000000    0   0   0
Fe       2.589283790   2.989847386  10.000000000    0   0   0
Fe       5.178567579   2.989847386  10.000000000    0   0   0
Fe       5.178567579   1.494923693  12.114141361    0   0   0
Fe       2.589283790   1.494923693  12.114141361    0   0   0
Fe       6.473209474   3.737309232  12.114141361    0   0   0
Fe       3.883925684   3.737309232  12.114141361    0   0   0
Fe      -0.054778044   0.012535700  14.123011146
Fe       2.644168623   0.012219075  14.123250808
Fe       1.294492373   2.201672387  14.194215669
Fe       3.884059546   2.254795660  14.168796992
S        1.294582986   0.007423071  15.834153936

     Writing output data file calc.save
     Check: negative starting charge=(component1):   -0.000180
     NEW-OLD atomic charge density approx. for the potential

     Check: negative/imaginary core charge=   -0.000008    0.000000
     Check: negative starting charge=(component1):   -0.000181

[...]

     energy   old            =   -3040.4300998068 Ry
     energy   new            =   -3040.4315483328 Ry

     CASE: energy  _new < energy  _old

[...]

     WARNING: bfgs curvature condition failed, Theta= 0.888
     new trust radius        =       0.0215657734 bohr
     new conv_thr            =       0.0000010000 Ry

[...]

     Total force =     0.027448     Total SCF correction =     0.002726

[...]

     WARNING: bfgs curvature condition failed, Theta= 0.894
     new trust radius        =       0.0187562562 bohr
     new conv_thr            =       0.0000010000 Ry

[...]

     iteration #  1     ecut=    36.75 Ry     beta=0.10
     Davidson diagonalization with overlap
     c_bands:  1 eigenvalues not converged
     ethr =  1.00E-06,  avg # of iterations =  6.2

[...]

     Total force =     0.012358     Total SCF correction =     0.001019

[...]

     number of scf cycles    =  31
     number of bfgs steps    =  30

     energy   old            =   -3040.4588889082 Ry
     energy   new            =   -3040.4590123052 Ry

     CASE: energy  _new < energy  _old

     new trust radius        =       0.0144738249 bohr
     new conv_thr            =       0.0000010000 Ry

ATOMIC_POSITIONS (angstrom)
Fe       1.294641895   0.747461846  10.000000000    0   0   0
Fe       3.883925684   0.747461846  10.000000000    0   0   0
Fe       2.589283790   2.989847386  10.000000000    0   0   0
Fe       5.178567579   2.989847386  10.000000000    0   0   0
Fe       5.178567579   1.494923693  12.114141361    0   0   0
Fe       2.589283789   1.494923693  12.114141361    0   0   0
Fe       6.473209474   3.737309232  12.114141361    0   0   0
Fe       3.883925684   3.737309232  12.114141361    0   0   0
Fe       0.005799216  -0.029592436  14.209455882
Fe       2.583590776  -0.030036813  14.207822513
Fe       1.294420229   2.266389602  14.134408529
Fe       3.883099078   2.222857903  14.009565077
S        1.296252566   0.865791344  15.825482728

     Writing output data file calc.save
     Check: negative starting charge=(component1):   -0.000178
     NEW-OLD atomic charge density approx. for the potential

     Check: negative/imaginary core charge=   -0.000008    0.000000
     Check: negative starting charge=(component1):   -0.000178

[...]

     Self-consistent Calculation

[...]

     total energy              =   -3040.45908370 Ry
     Harris-Foulkes estimate   =   -3040.45908293 Ry
     estimated scf accuracy    <       0.00000191 Ry

[...]

     iteration # 16     ecut=    36.75 Ry     beta=0.10
     Davidson diagonalization with overlap
     ethr =  9.65E-10,  avg # of iterations =  2.7

     negative rho (up, down):  6.484E-04 8.033E-04

[...]

     Adding external electric field

     Computed dipole along edir(3) :
        Dipole               -0.1267 Ry au,         -0.3220 Debye
        Dipole field         -0.0004 Ry au

        Potential amp.        0.0345 Ry
        Total length         41.2063 bohr

     Magnetic moment per site:
     atom:    1    charge:   13.6569    magn:    2.6551    constr:    0.0000
     atom:    2    charge:   13.6577    magn:    2.6406    constr:    0.0000
     atom:    3    charge:   13.6579    magn:    2.6410    constr:    0.0000
     atom:    4    charge:   13.6579    magn:    2.6410    constr:    0.0000
     atom:    5    charge:   13.6847    magn:    2.3514    constr:    0.0000
     atom:    6    charge:   13.6849    magn:    2.3503    constr:    0.0000
     atom:    7    charge:   13.6793    magn:    2.2494    constr:    0.0000
     atom:    8    charge:   13.6845    magn:    2.2192    constr:    0.0000
     atom:    9    charge:   13.6232    magn:   -2.4975    constr:    0.0000
     atom:   10    charge:   13.6234    magn:   -2.4971    constr:    0.0000
     atom:   11    charge:   13.6881    magn:    1.8228    constr:    0.0000
     atom:   12    charge:   13.5554    magn:    2.2246    constr:    0.0000
     atom:   13    charge:    1.9318    magn:   -0.0057    constr:    0.0000

     End of self-consistent calculation

 ------ SPIN UP ------------

[...]

 ------ SPIN DOWN ----------

[...]

          k = 0.3333-0.3849 0.0000 ( 14261 PWs)   bands (ev):

[...]

          k =-0.5000-0.2887 0.0000 ( 14254 PWs)   bands (ev):

   -88.1993 -88.1976 -84.9632 -84.6504 -84.6014 -84.5551 -84.4503 -84.4491
   -84.2248 -84.2234 -84.2051 -84.2020 -54.3486 -54.3464 -54.2445 -54.2428
   -54.0261 -54.0161 -51.2077 -50.9877 -50.9729 -50.8818 -50.7789 -50.7555
   -50.7461 -50.7241 -50.6980 -50.6754 -50.6433 -50.6217 -50.5902 -50.5696
   -50.5083 -50.4864 -50.4633 -50.4581 -50.4071 -50.4031 -50.3324 -50.3312
   -50.3117 -50.3097 -50.3023 -50.3018 -50.2883 -50.2859 -50.2314 -50.2275
   -12.1667  -4.9082  -4.7646  -3.7437  -3.6711  -3.3919  -3.0378  -2.8117
    -2.7843  -2.4823  -2.4072  -2.3231  -2.2544  -2.1048  -2.0257  -1.8744
    -1.6882  -1.6197  -1.4362  -1.3794  -1.0307  -0.7433  -0.7112  -0.6523
    -0.5593  -0.3944  -0.3292  -0.2185  -0.0802  -0.0029   0.0223   0.0844
     0.1847   0.2760   0.3905   0.4048   0.4483   0.5137   0.5336   0.7444
     0.8610   0.8994   1.0204   1.0446   1.1520   1.1905   1.5631   1.5724
     1.6867   1.7051   1.8139   1.8982   1.9550   2.0677   2.0843   2.1258
     2.2153   2.3191   2.3608   2.4007   2.4118

     the Fermi energy is     1.0122 ev

!    total energy              =   -3040.45908864 Ry
     Harris-Foulkes estimate   =   -3040.45908484 Ry
     estimated scf accuracy    <       0.00000076 Ry

     The total energy is the sum of the following terms:

     one-electron contribution =  -26382.33655235 Ry
     hartree contribution      =   13192.06402291 Ry
     xc contribution           =    -372.16320841 Ry
     ewald contribution        =   10522.05737298 Ry
     electric field correction =       0.00005310 Ry
     smearing contrib. (-TS)   =      -0.08077687 Ry

     total magnetization       =    18.93 Bohr mag/cell
     absolute magnetization    =    31.17 Bohr mag/cell

     convergence has been achieved in  16 iterations

     Forces acting on atoms (Ry/au):

     negative rho (up, down):  6.484E-04 8.033E-04
     atom    1 type  1   force =    -0.00000013   -0.00058422    0.00579932
     atom    2 type  1   force =     0.00000809   -0.00193992    0.00456353
     atom    3 type  1   force =     0.00013687   -0.00030644   -0.00035934
     atom    4 type  1   force =    -0.00012382   -0.00031570   -0.00034635
     atom    5 type  1   force =     0.00476797   -0.00573725   -0.00802794
     atom    6 type  1   force =    -0.00477762   -0.00579723   -0.00810282
     atom    7 type  1   force =     0.00000570    0.00774870    0.00582076
     atom    8 type  1   force =     0.00003510    0.00345627    0.00072024
     atom    9 type  1   force =    -0.00003178    0.00178454    0.00059926
     atom   10 type  1   force =     0.00000141    0.00176578    0.00076429
     atom   11 type  1   force =    -0.00004201   -0.00070860   -0.00159764
     atom   12 type  1   force =     0.00009917    0.00052929   -0.00107626
     atom   13 type  2   force =    -0.00007895    0.00010478    0.00124295

     Total force =     0.003649     Total SCF correction =     0.003649
     SCF correction compared to forces is large: reduce conv_thr to get better values

     bfgs converged in  32 scf cycles and  31 bfgs steps
     (criteria: energy <  1.0E+12, force <  1.9E-03)

     End of BFGS Geometry Optimization

     Final energy   =   -3040.4590886415 Ry
Begin final coordinates

ATOMIC_POSITIONS (angstrom)
Fe       1.294641895   0.747461846  10.000000000    0   0   0
Fe       3.883925684   0.747461846  10.000000000    0   0   0
Fe       2.589283790   2.989847386  10.000000000    0   0   0
Fe       5.178567579   2.989847386  10.000000000    0   0   0
Fe       5.178567579   1.494923693  12.114141361    0   0   0
Fe       2.589283789   1.494923693  12.114141361    0   0   0
Fe       6.473209474   3.737309232  12.114141361    0   0   0
Fe       3.883925684   3.737309232  12.114141361    0   0   0
Fe       0.005799216  -0.029592436  14.209455882
Fe       2.583590776  -0.030036813  14.207822513
Fe       1.294420229   2.266389602  14.134408529
Fe       3.883099078   2.222857903  14.009565077
S        1.296252566   0.865791344  15.825482728
End final coordinates

     Writing output data file calc.save

     General routines

     Parallel routines

   This run was terminated on:  13:39:58  12Jan2019

   JOB DONE.
Job  /afs/slac/g/suncat/bin/suncat-tsmpirun -x LD_LIBRARY_PATH -wdir /tmp/qe_822012piyl8_vb_scratch pw.x -npool 3 -in pw.pwi

TID   HOST_NAME   COMMAND_LINE            STATUS            TERMINATION_TIME
00000 suncat1050 pw.x -npool 3 -i  Done                     01/12/2019 13:39:58
00001 suncat1050 pw.x -npool 3 -i  Done                     01/12/2019 13:39:58
00002 suncat1050 pw.x -npool 3 -i  Done                     01/12/2019 13:39:58
00003 suncat1050 pw.x -npool 3 -i  Done                     01/12/2019 13:39:58
00004 suncat1050 pw.x -npool 3 -i  Done                     01/12/2019 13:39:58
00005 suncat1050 pw.x -npool 3 -i  Done                     01/12/2019 13:39:58
00006 suncat1050 pw.x -npool 3 -i  Done                     01/12/2019 13:39:58
00007 suncat1050 pw.x -npool 3 -i  Done                     01/12/2019 13:39:58
00008 suncat1050 pw.x -npool 3 -i  Done                     01/12/2019 13:39:58
00009 suncat1050 pw.x -npool 3 -i  Done                     01/12/2019 13:39:58
00010 suncat1050 pw.x -npool 3 -i  Done                     01/12/2019 13:39:58
00011 suncat1050 pw.x -npool 3 -i  Done                     01/12/2019 13:39:58
00012 suncat1048 pw.x -npool 3 -i  Done                     01/12/2019 13:39:58
00013 suncat1048 pw.x -npool 3 -i  Done                     01/12/2019 13:39:58
00014 suncat1048 pw.x -npool 3 -i  Done                     01/12/2019 13:39:58
00015 suncat1048 pw.x -npool 3 -i  Done                     01/12/2019 13:39:58
00016 suncat1048 pw.x -npool 3 -i  Done                     01/12/2019 13:39:58
00017 suncat1048 pw.x -npool 3 -i  Done                     01/12/2019 13:39:58
00018 suncat1048 pw.x -npool 3 -i  Done                     01/12/2019 13:39:58
00019 suncat1048 pw.x -npool 3 -i  Done                     01/12/2019 13:39:58
00020 suncat1048 pw.x -npool 3 -i  Done                     01/12/2019 13:39:58
00021 suncat1048 pw.x -npool 3 -i  Done                     01/12/2019 13:39:58
00022 suncat1048 pw.x -npool 3 -i  Done                     01/12/2019 13:39:58
00023 suncat1048 pw.x -npool 3 -i  Done                     01/12/2019 13:39:58
00024 suncat1047 pw.x -npool 3 -i  Done                     01/12/2019 13:39:58
00025 suncat1047 pw.x -npool 3 -i  Done                     01/12/2019 13:39:58
00026 suncat1047 pw.x -npool 3 -i  Done                     01/12/2019 13:39:58
00027 suncat1047 pw.x -npool 3 -i  Done                     01/12/2019 13:39:58
00028 suncat1047 pw.x -npool 3 -i  Done                     01/12/2019 13:39:58
00029 suncat1047 pw.x -npool 3 -i  Done                     01/12/2019 13:39:58
00030 suncat1047 pw.x -npool 3 -i  Done                     01/12/2019 13:39:58
00031 suncat1047 pw.x -npool 3 -i  Done                     01/12/2019 13:39:58
00032 suncat1047 pw.x -npool 3 -i  Done                     01/12/2019 13:39:58
00033 suncat1047 pw.x -npool 3 -i  Done                     01/12/2019 13:39:58
00034 suncat1047 pw.x -npool 3 -i  Done                     01/12/2019 13:39:58
00035 suncat1047 pw.x -npool 3 -i  Done                     01/12/2019 13:39:58