     Program PWSCF v.5.1rc2 (svn rev. 11289) starts on  3May2018 at  5:13:19

     Current dimensions of program PWSCF are:
     Max number of different atomic species (ntypx) = 10
     Max number of k-points (npk) =  40000
     Max angular momentum in pseudopotentials (lmaxx) =  3
     Presently stress not available with electric field

     IMPORTANT: XC functional enforced from input :
     Exchange-correlation      = BEEF-VDW ( 1  4 27 13 2)
     Any further DFT definition will be discarded
     Please, verify this is what you really want

     Subspace diagonalization in iterative solution of the eigenvalue problem:
     a serial algorithm will be used

     bravais-lattice index     =            0
     lattice parameter (alat)  =       1.8897  a.u.
     unit-cell volume          =    4704.3541 (a.u.)^3
     number of atoms/cell      =           13
     number of atomic types    =            2
     number of electrons       =       174.00
     number of Kohn-Sham states=           97
     kinetic-energy cutoff     =      36.7493  Ry
     charge density cutoff     =     367.4932  Ry
     convergence threshold     =      1.0E-05
     mixing beta               =       0.3000
     number of iterations used =           10  plain     mixing
     Exchange-correlation      = BEEF-VDW ( 1  4 27 13 2)
     nstep                     =           50

     celldm(1)=   1.889726  celldm(2)=   0.000000  celldm(3)=   0.000000
     celldm(4)=   0.000000  celldm(5)=   0.000000  celldm(6)=   0.000000

     crystal axes: (cart. coord. in units of alat)
               a(1) = (   5.712816   0.000000   0.000000 )
               a(2) = (   2.856408   4.947444   0.000000 )
               a(3) = (   0.000000   0.000000  24.664495 )

     reciprocal axes: (cart. coord. in units 2 pi/alat)
               b(1) = (  0.175045 -0.101062  0.000000 )
               b(2) = (  0.000000  0.202125  0.000000 )
               b(3) = (  0.000000  0.000000  0.040544 )

     PseudoPot. # 1 for W  read from file:
     /u/if/mamunm/psp/gbrv1.5pbe/W.UPF
     MD5 check sum: 9c083fa34c2a2ea0f02f1f893e16e1c8
     Pseudo is Ultrasoft + core correction, Zval = 14.0
     Generated by new atomic code, or converted to UPF format
     Using radial grid of  923 points,  8 beta functions with:
                l(1) =   0
                l(2) =   0
                l(3) =   0
                l(4) =   1
                l(5) =   1
                l(6) =   2
                l(7) =   2
                l(8) =   3
     Q(r) pseudized with  6 coefficients,  rinner =    1.350   1.350   1.350
                                                       1.350   1.350   1.350
                                                       1.350

     PseudoPot. # 2 for O  read from file:
     /u/if/mamunm/psp/gbrv1.5pbe/O.UPF
     MD5 check sum: 734c27235a0248c51dbae37a1fbe46ec
     Pseudo is Ultrasoft + core correction, Zval =  6.0
     Generated by new atomic code, or converted to UPF format
     Using radial grid of  737 points,  5 beta functions with:
                l(1) =   0
                l(2) =   0
                l(3) =   1
                l(4) =   1
                l(5) =   2
     Q(r) pseudized with  8 coefficients,  rinner =    0.900   0.900   0.900
                                                       0.900   0.900

     vdW kernel table read from file vdW_kernel_table
     MD5 check sum: 095c7af220d748ca6e76c0b4c6cfb241

     atomic species   valence    mass     pseudopotential
        W1            14.00   183.84000     W ( 1.00)
        O1             6.00    15.99900     O ( 1.00)

     No symmetry found

   Cartesian axes

     site n.     atom                  positions (alat units)
         1           W1  tau(   1) = (   1.4282041   0.8245740  10.0000000  )
         2           W1  tau(   2) = (   4.2846123   0.8245740  10.0000000  )
         3           W1  tau(   3) = (   2.8564082   3.2982961  10.0000000  )
         4           W1  tau(   4) = (   5.7128165   3.2982961  10.0000000  )
         5           W1  tau(   5) = (   5.7128165   1.6491481  12.3322476  )
         6           W1  tau(   6) = (   2.8564082   1.6491481  12.3322476  )
         7           W1  tau(   7) = (   7.1410206   4.1228701  12.3322476  )
         8           W1  tau(   8) = (   4.2846123   4.1228701  12.3322476  )
         9           W1  tau(   9) = (   0.0000000   0.0000000  14.6644951  )
        10           W1  tau(  10) = (   2.8564082   0.0000000  14.6644951  )
        11           W1  tau(  11) = (   1.4282041   2.4737221  14.6644951  )
        12           W1  tau(  12) = (   4.2846123   2.4737221  14.6644951  )
        13           O1  tau(  13) = (   1.4282041   0.8245740  16.1464951  )

     number of k points=    20  Fermi-Dirac smearing, width (Ry)=  0.0110
                       cart. coord. in units 2pi/alat
        k(    1) = (   0.0000000   0.0000000   0.0000000), wk =   0.0555556
        k(    2) = (   0.0000000   0.0336874   0.0000000), wk =   0.1111111
        k(    3) = (   0.0000000   0.0673749   0.0000000), wk =   0.1111111
        k(    4) = (   0.0000000  -0.1010623   0.0000000), wk =   0.0555556
        k(    5) = (   0.0291742  -0.0168437   0.0000000), wk =   0.1111111
        k(    6) = (   0.0291742   0.0168437   0.0000000), wk =   0.1111111
        k(    7) = (   0.0291742   0.0505311   0.0000000), wk =   0.1111111
        k(    8) = (   0.0291742  -0.1179060   0.0000000), wk =   0.1111111
        k(    9) = (   0.0291742  -0.0842186   0.0000000), wk =   0.1111111
        k(   10) = (   0.0291742  -0.0505311   0.0000000), wk =   0.1111111
        k(   11) = (   0.0583483  -0.0336874   0.0000000), wk =   0.1111111
        k(   12) = (   0.0583483  -0.0000000   0.0000000), wk =   0.1111111
        k(   13) = (   0.0583483   0.0336874   0.0000000), wk =   0.1111111
        k(   14) = (   0.0583483  -0.1347497   0.0000000), wk =   0.1111111
        k(   15) = (   0.0583483  -0.1010623   0.0000000), wk =   0.1111111
        k(   16) = (   0.0583483  -0.0673749   0.0000000), wk =   0.1111111
        k(   17) = (  -0.0875225   0.0505311   0.0000000), wk =   0.0555556
        k(   18) = (  -0.0875225   0.0842186   0.0000000), wk =   0.1111111
        k(   19) = (  -0.0875225   0.1179060   0.0000000), wk =   0.1111111
        k(   20) = (  -0.0875225  -0.0505311   0.0000000), wk =   0.0555556

     Largest allocated arrays     est. size (Mb)     dimensions
     Largest temporary arrays     est. size (Mb)     dimensions

     Initial potential from superposition of free atoms
     Check: negative starting charge=   -0.760538

     starting charge  172.79592, renormalised to  174.00000

     negative rho (up, down):  7.658E-01 0.000E+00

     *
     * You are using vdW-DF for exchange-correlation in this calculation.
     * Please cite the following three references that made this development
     * possible:
     *
     *   M. Dion, H. Rydberg, E. Schroder, D. C. Langreth, and
     *   B. I. Lundqvist, Phys. Rev. Lett. 92, 246401 (2004).
     *
     *   T. Thonhauser, V. R. Cooper, S. Li, A. Puzder, P. Hyldgaard, and
     *   D. C. Langreth, Phys. Rev. B 76, 125112 (2007).
     *
     *   G. Roman-Perez and J. M. Soler, Phys. Rev. Lett. 103, 096102 (2009).
     *
     *
     * If you are using vdW-DF2, please also cite:
     *
     *   K. Lee, E. D. Murray, L. Kong, B. I. Lundqvist, and
     *   D. C. Langreth, Phys. Rev. B 82, 081101(R) (2010).
     *
     *
     * If you are calculating the stress with vdW-DF, please also cite:
     *
     *   R. Sabatini, E. Kucukbenli, B. Kolb, T. Thonhauser, and
     *   S. de Gironcoli, J. Phys.: Condens. Matter 24, 424209 (2012).
     *

     Carrying out vdW-DF run using the following parameters:

     Nqs =      20    Nr_points =    1024   r_max =   100.000
     q_mesh =
               0.00001000     0.04494208     0.09755937     0.15916263
               0.23128650     0.31572767     0.41458969     0.53033537
               0.66584808     0.82450364     1.01025438     1.22772762
               1.48234092     1.78043706     2.12944203     2.53805004
               3.01644009     3.57652955     4.23227104     5.00000000

     Gradients computed in reciprocal space

     Adding external electric field

     Computed dipole along edir(3) :
        Dipole               -0.3013 Ry au,         -0.7659 Debye
        Dipole field         -0.0008 Ry au

        Potential amp.        0.0732 Ry
        Total length         45.4439 bohr

     Starting wfc are  160 randomized atomic wfcs

     Self-consistent Calculation

     iteration #  1     ecut=    36.75 Ry     beta=0.30
     Davidson diagonalization with overlap
     ethr =  1.00E-02,  avg # of iterations =  2.0

[...]

     total energy              =   -1954.55889635 Ry
     Harris-Foulkes estimate   =   -1957.79958239 Ry
     estimated scf accuracy    <       6.91105068 Ry

[...]

     End of self-consistent calculation

          k = 0.0000 0.0000 0.0000 ( 17753 PWs)   bands (ev):

   -72.1238 -72.0680 -72.0678 -71.9361 -71.8883 -71.8720 -71.8618 -71.8533
   -71.8530 -71.8148 -71.8143 -71.8071 -36.6786 -36.5586 -36.5586 -36.5326
   -36.4917 -36.4916 -36.4903 -36.3409 -36.3328 -36.3325 -36.1786 -36.1442
   -36.1440 -36.0286 -35.9612 -35.9609 -35.9579 -35.9287 -35.9285 -35.9199
   -35.7992 -35.7992 -35.7801 -35.7772 -35.7700 -35.7698 -35.7033 -35.6665
   -35.6664 -35.6358 -35.6357 -35.6346 -35.5838 -35.5838 -35.4579 -35.4579
   -15.9895  -5.8926  -4.1729  -3.3975  -2.9747  -2.9747  -2.8958  -2.7384
    -2.7384  -2.7378  -2.2072  -2.0620  -2.0619  -1.7714  -1.7714  -1.7192
    -1.2209  -1.2209  -0.7647  -0.0457  -0.0457   0.5959   0.9349   0.9545
     0.9546   0.9626   1.3362   1.6686   1.6686   1.7954   1.7955   1.7980
     2.0234   2.0235   2.0948   2.1575   2.1765   2.1766   2.3008   2.3008
     3.0525   3.1756   3.1757   3.7464   3.8944   3.9540   3.9541   4.3699
     4.3699

[...]

          k =-0.0875 0.0505 0.0000 ( 17668 PWs)   bands (ev):

[...]

     the Fermi energy is     2.2918 ev

!    total energy              =   -1957.40996435 Ry
     Harris-Foulkes estimate   =   -1957.40997547 Ry
     estimated scf accuracy    <       0.00000503 Ry

     The total energy is the sum of the following terms:

     one-electron contribution =  -15144.58409312 Ry
     hartree contribution      =    7557.46500267 Ry
     xc contribution           =    -517.80854436 Ry
     ewald contribution        =    6147.61286009 Ry
     electric field correction =       0.00003374 Ry
     smearing contrib. (-TS)   =      -0.09522338 Ry

     convergence has been achieved in  16 iterations

 BEEF-vdW xc energy contributions
           1 :   -455.455345414136
           2 :    421.132167620370
           3 :   -360.762122775350
           4 :    287.660956972741
           5 :   -215.617685876720
           6 :    154.906885123107
           7 :   -110.125065371675
           8 :    80.3263808526684
           9 :   -61.0240320437880
          10 :    46.9413351509400
          11 :   -34.2773056497696
          12 :    21.6794384093681
          13 :   -9.85253595029707
          14 :   0.350656878486575
          15 :    5.68374247938419
          16 :   -8.24322408533874
          17 :    8.42162823487217
          18 :   -7.79636892415988
          19 :    7.64270379200309
          20 :   -8.40758273101397
          21 :    9.67715836940636
          22 :   -10.5931521406317
          23 :    10.4477636354544
          24 :   -9.12505776468026
          25 :    7.16501304755514
          26 :   -5.44565736448249
          27 :    4.68817572543009
          28 :   -5.07037613732655
          29 :    6.15375033101321
          30 :   -7.14954536696200
          31 :   -41.3241626834969
          32 :   -30.9025787201408

     Forces acting on atoms (Ry/au):

     negative rho (up, down):  7.927E-01 0.000E+00
     atom    1 type  1   force =     0.00002458   -0.00001397   -0.00210193
     atom    2 type  1   force =    -0.00001956   -0.00020522   -0.00571413
     atom    3 type  1   force =    -0.00019031    0.00009175   -0.00570241
     atom    4 type  1   force =     0.00019275    0.00013299   -0.00571819
     atom    5 type  1   force =     0.00356662   -0.00211034    0.00450339
     atom    6 type  1   force =    -0.00354481   -0.00209153    0.00449957
     atom    7 type  1   force =     0.00000935    0.00006012   -0.00375474
     atom    8 type  1   force =    -0.00001128    0.00414690    0.00452761
     atom    9 type  1   force =    -0.00284980   -0.00164540    0.06323179
     atom   10 type  1   force =     0.00284253   -0.00162273    0.06320460
     atom   11 type  1   force =     0.00001899    0.00326804    0.06325418
     atom   12 type  1   force =    -0.00002639   -0.00001413   -0.04956092
     atom   13 type  2   force =    -0.00001267    0.00000352   -0.13066882

     Total force =     0.177643     Total SCF correction =     0.009686

     entering subroutine stress ...

     negative rho (up, down):  7.927E-01 0.000E+00
          total   stress  (Ry/bohr**3)                   (kbar)     P=  -51.10
  -0.00045391   0.00000000   0.00000001        -66.77      0.00      0.00
   0.00000000  -0.00045388  -0.00000000          0.00    -66.77     -0.00
   0.00000001  -0.00000000  -0.00013439          0.00     -0.00    -19.77

     BFGS Geometry Optimization

     number of scf cycles    =   1
     number of bfgs steps    =   0

     energy   new            =   -1957.4099643495 Ry

     new trust radius        =       0.1306688214 bohr
     new conv_thr            =       0.0000099958 Ry

ATOMIC_POSITIONS (crystal)
W1       0.166666667   0.166666667   0.405441099    0   0   0
W1       0.666666667   0.166666667   0.405441099    0   0   0
W1       0.166666667   0.666666667   0.405441099    0   0   0
W1       0.666666667   0.666666667   0.405441099    0   0   0
W1       0.833333333   0.333333333   0.500000000    0   0   0
W1       0.333333333   0.333333333   0.500000000    0   0   0
W1       0.833333333   0.833333333   0.500000000    0   0   0
W1       0.333333333   0.833333333   0.500000000    0   0   0
W1      -0.000175981  -0.000175992   0.595915540
W1       0.500350086  -0.000173566   0.595914957
W1      -0.000173015   0.500349548   0.595916021
W1       0.499998311   0.499998488   0.593495571
O1       0.166665305   0.166667043   0.651841770

     Writing output data file calc.save
     Check: negative starting charge=   -0.760538
     NEW-OLD atomic charge density approx. for the potential
     Check: negative starting charge=   -0.761282

[...]

     energy   old            =   -1957.4099643495 Ry
     energy   new            =   -1957.4370349106 Ry

     CASE: energy  _new < energy  _old

[...]

     iteration #  1     ecut=    36.75 Ry     beta=0.30
     Davidson diagonalization with overlap
     c_bands:  2 eigenvalues not converged
     ethr =  1.00E-06,  avg # of iterations = 13.2

[...]

     Total force =     0.014433     Total SCF correction =     0.000391

[...]

     Total force =     0.004355     Total SCF correction =     0.000579
     SCF correction compared to forces is large: reduce conv_thr to get better values

[...]

     Threshold (ethr) on eigenvalues was too large:
     Diagonalizing with lowered threshold

     Davidson diagonalization with overlap
     ethr =  5.76E-09,  avg # of iterations =  5.2

[...]

     number of scf cycles    =  10
     number of bfgs steps    =   9

     energy   old            =   -1957.4706378337 Ry
     energy   new            =   -1957.4706561266 Ry

     CASE: energy  _new < energy  _old

     new trust radius        =       0.0056019866 bohr
     new conv_thr            =       0.0000001000 Ry

ATOMIC_POSITIONS (crystal)
W1       0.166666667   0.166666667   0.405441099    0   0   0
W1       0.666666667   0.166666667   0.405441099    0   0   0
W1       0.166666667   0.666666667   0.405441099    0   0   0
W1       0.666666667   0.666666667   0.405441099    0   0   0
W1       0.833333333   0.333333333   0.500000000    0   0   0
W1       0.333333333   0.333333333   0.500000000    0   0   0
W1       0.833333333   0.833333333   0.500000000    0   0   0
W1       0.333333333   0.833333333   0.500000000    0   0   0
W1      -0.004587438  -0.004586709   0.597237561
W1       0.509173303  -0.004587900   0.597237768
W1      -0.004588582   0.509174597   0.597237920
W1       0.499997856   0.499997360   0.583463908
O1       0.166665647   0.166665653   0.644704230

     Writing output data file calc.save
     Check: negative starting charge=   -0.758517
     NEW-OLD atomic charge density approx. for the potential
     Check: negative starting charge=   -0.758464

[...]

     Self-consistent Calculation

[...]

     Threshold (ethr) on eigenvalues was too large:
     Diagonalizing with lowered threshold

     Davidson diagonalization with overlap
     ethr =  1.38E-08,  avg # of iterations =  3.9

[...]

     total energy              =   -1957.47066928 Ry
     Harris-Foulkes estimate   =   -1957.47066926 Ry
     estimated scf accuracy    <       0.00000015 Ry

     iteration #  7     ecut=    36.75 Ry     beta=0.30
     Davidson diagonalization with overlap
     ethr =  8.83E-11,  avg # of iterations =  4.0

[...]

     negative rho (up, down):  7.915E-01 0.000E+00

     Adding external electric field

     Computed dipole along edir(3) :
        Dipole                0.0522 Ry au,          0.1327 Debye
        Dipole field          0.0001 Ry au

        Potential amp.       -0.0127 Ry
        Total length         45.4439 bohr

     End of self-consistent calculation

[...]

          k = 0.0583-0.0674 0.0000 ( 17692 PWs)   bands (ev):

[...]

          k =-0.0875-0.0505 0.0000 ( 17668 PWs)   bands (ev):

   -71.9810 -71.9575 -71.9416 -71.7550 -71.6410 -71.6241 -71.6059 -71.5976
   -71.5950 -71.5770 -71.5761 -71.5027 -36.4535 -36.2697 -36.2506 -36.2157
   -36.1977 -36.1634 -36.1000 -36.0492 -36.0444 -36.0150 -35.9933 -35.9838
   -35.9514 -35.9307 -35.9276 -35.8137 -35.7790 -35.7653 -35.7178 -35.7011
   -35.6840 -35.6748 -35.6525 -35.6288 -35.6246 -35.5870 -35.5720 -35.5484
   -35.5314 -35.4997 -35.4665 -35.3702 -35.3488 -35.3233 -35.2879 -35.2632
   -17.1956  -4.3123  -3.8060  -3.5298  -3.3529  -3.1794  -2.1876  -1.8826
    -1.5354  -1.5173  -1.4072  -1.3969  -1.3238  -0.9322  -0.6668  -0.4888
    -0.3420  -0.2543  -0.1920  -0.0138   0.1998   0.3131   0.3766   0.3954
     0.6015   0.6491   0.8506   1.0307   1.1745   1.3061   1.4078   1.4283
     1.4907   1.6075   1.6343   2.0124   2.0593   2.0709   2.2761   2.4800
     2.4968   2.6546   3.0943   3.2970   3.4574   3.5281   3.5622   3.7351
     3.9154

     the Fermi energy is     2.5274 ev

!    total energy              =   -1957.47066928 Ry
     Harris-Foulkes estimate   =   -1957.47066957 Ry
     estimated scf accuracy    <       0.00000007 Ry

     The total energy is the sum of the following terms:

     one-electron contribution =  -15255.53744435 Ry
     hartree contribution      =    7613.81904794 Ry
     xc contribution           =    -518.07609634 Ry
     ewald contribution        =    6202.41453314 Ry
     electric field correction =       0.00000728 Ry
     smearing contrib. (-TS)   =      -0.09071695 Ry

     convergence has been achieved in   7 iterations

 BEEF-vdW xc energy contributions
           1 :   -455.727045289936
           2 :    421.470085170339
           3 :   -361.164506952698
           4 :    288.055833191240
           5 :   -215.905891757156
           6 :    155.008976682617
           7 :   -110.014644600945
           8 :    80.0421002307962
           9 :   -60.6575233718794
          10 :    46.6041759790511
          11 :   -34.0580377435826
          12 :    21.6094202332324
          13 :   -9.89606602423436
          14 :   0.423125985843456
          15 :    5.67564757019744
          16 :   -8.35552847846833
          17 :    8.64536626476655
          18 :   -8.06446059948581
          19 :    7.86744850546035
          20 :   -8.52732834774298
          21 :    9.68694599363164
          22 :   -10.5444120316450
          23 :    10.4184580332106
          24 :   -9.17639912036594
          25 :    7.30878514437728
          26 :   -5.63980274335819
          27 :    4.86079352840386
          28 :   -5.15846436475050
          29 :    6.13688833035570
          30 :   -7.06149123444897
          31 :   -41.3396160744048
          32 :   -30.9292351241335

     Forces acting on atoms (Ry/au):

     negative rho (up, down):  7.915E-01 0.000E+00
     atom    1 type  1   force =    -0.00000010   -0.00000023    0.00786002
     atom    2 type  1   force =     0.00000045    0.00110369   -0.00595503
     atom    3 type  1   force =     0.00095614   -0.00055138   -0.00595474
     atom    4 type  1   force =    -0.00095552   -0.00055151   -0.00595434
     atom    5 type  1   force =     0.02496699   -0.01441271   -0.00284682
     atom    6 type  1   force =    -0.02496706   -0.01441427   -0.00284881
     atom    7 type  1   force =    -0.00000050   -0.00000078    0.02174319
     atom    8 type  1   force =     0.00000130    0.02882821   -0.00284704
     atom    9 type  1   force =    -0.00092676   -0.00053519   -0.00101055
     atom   10 type  1   force =     0.00092553   -0.00053484   -0.00101098
     atom   11 type  1   force =    -0.00000049    0.00106850   -0.00101152
     atom   12 type  1   force =     0.00000017    0.00000048    0.00060062
     atom   13 type  2   force =    -0.00000015    0.00000001   -0.00076398

     Total force =     0.002728     Total SCF correction =     0.000524
     SCF correction compared to forces is large: reduce conv_thr to get better values

     entering subroutine stress ...

     negative rho (up, down):  7.915E-01 0.000E+00
          total   stress  (Ry/bohr**3)                   (kbar)     P=  -38.96
  -0.00035883   0.00000000  -0.00000000        -52.79      0.00     -0.00
   0.00000000  -0.00035883  -0.00000000          0.00    -52.79     -0.00
  -0.00000000  -0.00000000  -0.00007695         -0.00     -0.00    -11.32

     bfgs converged in  11 scf cycles and  10 bfgs steps
     (criteria: energy <  1.0E+00, force <  1.9E-03)

     End of BFGS Geometry Optimization

     Final energy   =   -1957.4706692794 Ry
Begin final coordinates

ATOMIC_POSITIONS (crystal)
W1       0.166666667   0.166666667   0.405441099    0   0   0
W1       0.666666667   0.166666667   0.405441099    0   0   0
W1       0.166666667   0.666666667   0.405441099    0   0   0
W1       0.666666667   0.666666667   0.405441099    0   0   0
W1       0.833333333   0.333333333   0.500000000    0   0   0
W1       0.333333333   0.333333333   0.500000000    0   0   0
W1       0.833333333   0.833333333   0.500000000    0   0   0
W1       0.333333333   0.833333333   0.500000000    0   0   0
W1      -0.004587438  -0.004586709   0.597237561
W1       0.509173303  -0.004587900   0.597237768
W1      -0.004588582   0.509174597   0.597237920
W1       0.499997856   0.499997360   0.583463908
O1       0.166665647   0.166665653   0.644704230
End final coordinates

     Writing output data file calc.save

     General routines

     Parallel routines

   This run was terminated on:   6:49: 0   3May2018

   JOB DONE.
Job  /afs/slac/g/suncat/bin/suncat-tsmpirun -x LD_LIBRARY_PATH -wdir /scratch/qe625351_L6LQ7 pw.x -npool 4 -in pw.inp

TID   HOST_NAME   COMMAND_LINE            STATUS            TERMINATION_TIME
00000 suncat0251 pw.x -npool 4 -i  Done                     05/03/2018 06:49:00
00001 suncat0251 pw.x -npool 4 -i  Done                     05/03/2018 06:49:00
00002 suncat0251 pw.x -npool 4 -i  Done                     05/03/2018 06:49:00
00003 suncat0251 pw.x -npool 4 -i  Done                     05/03/2018 06:49:00
00004 suncat0251 pw.x -npool 4 -i  Done                     05/03/2018 06:49:00
00005 suncat0251 pw.x -npool 4 -i  Done                     05/03/2018 06:49:00
00006 suncat0251 pw.x -npool 4 -i  Done                     05/03/2018 06:49:00
00007 suncat0251 pw.x -npool 4 -i  Done                     05/03/2018 06:49:00
00008 suncat0244 pw.x -npool 4 -i  Done                     05/03/2018 06:49:00
00009 suncat0244 pw.x -npool 4 -i  Done                     05/03/2018 06:49:00
00010 suncat0244 pw.x -npool 4 -i  Done                     05/03/2018 06:49:00
00011 suncat0244 pw.x -npool 4 -i  Done                     05/03/2018 06:49:00
00012 suncat0244 pw.x -npool 4 -i  Done                     05/03/2018 06:49:00
00013 suncat0244 pw.x -npool 4 -i  Done                     05/03/2018 06:49:00
00014 suncat0244 pw.x -npool 4 -i  Done                     05/03/2018 06:49:00
00015 suncat0244 pw.x -npool 4 -i  Done                     05/03/2018 06:49:00
00016 suncat0243 pw.x -npool 4 -i  Done                     05/03/2018 06:49:00
00017 suncat0243 pw.x -npool 4 -i  Done                     05/03/2018 06:49:00
00018 suncat0243 pw.x -npool 4 -i  Done                     05/03/2018 06:49:00
00019 suncat0243 pw.x -npool 4 -i  Done                     05/03/2018 06:49:00
00020 suncat0243 pw.x -npool 4 -i  Done                     05/03/2018 06:49:00
00021 suncat0243 pw.x -npool 4 -i  Done                     05/03/2018 06:49:00
00022 suncat0243 pw.x -npool 4 -i  Done                     05/03/2018 06:49:00
00023 suncat0243 pw.x -npool 4 -i  Done                     05/03/2018 06:49:00
00024 suncat0211 pw.x -npool 4 -i  Done                     05/03/2018 06:49:00
00025 suncat0211 pw.x -npool 4 -i  Done                     05/03/2018 06:49:00
00026 suncat0211 pw.x -npool 4 -i  Done                     05/03/2018 06:49:00
00027 suncat0211 pw.x -npool 4 -i  Done                     05/03/2018 06:49:00
00028 suncat0211 pw.x -npool 4 -i  Done                     05/03/2018 06:49:00
00029 suncat0211 pw.x -npool 4 -i  Done                     05/03/2018 06:49:00
00030 suncat0211 pw.x -npool 4 -i  Done                     05/03/2018 06:49:00
00031 suncat0211 pw.x -npool 4 -i  Done                     05/03/2018 06:49:00