     Program PWSCF v.5.1rc2 (svn rev. 11289) starts on 16Jan2019 at 15:55: 2

     Current dimensions of program PWSCF are:
     Max number of different atomic species (ntypx) = 10
     Max number of k-points (npk) =  40000
     Max angular momentum in pseudopotentials (lmaxx) =  3

     IMPORTANT: XC functional enforced from input :
     Exchange-correlation      = BEEF-VDW ( 1  4 27 13 2)
     Any further DFT definition will be discarded
     Please, verify this is what you really want

     Subspace diagonalization in iterative solution of the eigenvalue problem:
     a serial algorithm will be used

     Generating pointlists ...
     new r_m :   0.1369 (alat units)  1.2963 (a.u.) for type    1
     new r_m :   0.1369 (alat units)  1.2963 (a.u.) for type    2

     bravais-lattice index     =            0
     lattice parameter (alat)  =       9.4723  a.u.
     unit-cell volume          =    3537.7769 (a.u.)^3
     number of atoms/cell      =           13
     number of atomic types    =            2
     number of electrons       =       205.00
     number of Kohn-Sham states=          112
     kinetic-energy cutoff     =      36.7493  Ry
     charge density cutoff     =     367.4933  Ry
     convergence threshold     =      1.0E-04
     mixing beta               =       0.1000
     number of iterations used =            8  plain     mixing
     Exchange-correlation      = BEEF-VDW ( 1  4 27 13 2)
     nstep                     =           50

     celldm(1)=   9.472344  celldm(2)=   0.000000  celldm(3)=   0.000000
     celldm(4)=   0.000000  celldm(5)=   0.000000  celldm(6)=   0.000000

     crystal axes: (cart. coord. in units of alat)
               a(1) = (   1.000000   0.000000   0.000000 )
               a(2) = (   0.500000   0.866025   0.000000 )
               a(3) = (   0.000000   0.000000   4.806483 )

     reciprocal axes: (cart. coord. in units 2 pi/alat)
               b(1) = (  1.000000 -0.577350  0.000000 )
               b(2) = (  0.000000  1.154701  0.000000 )
               b(3) = (  0.000000  0.000000  0.208052 )

     PseudoPot. # 1 for Co read from file:
     /nfs/slac/g/suncatfs/mamunm/src/decaf-espresso/gbrv15pbe/Co.UPF
     MD5 check sum: 5f91765df6ddd3222702df6e7b74a16d
     Pseudo is Ultrasoft + core correction, Zval = 17.0
     Generated by new atomic code, or converted to UPF format
     Using radial grid of  863 points,  6 beta functions with:
                l(1) =   0
                l(2) =   0
                l(3) =   1
                l(4) =   1
                l(5) =   2
                l(6) =   2
     Q(r) pseudized with  8 coefficients,  rinner =    1.200   1.200   1.200
                                                       1.200   1.200

     PseudoPot. # 2 for H  read from file:
     /nfs/slac/g/suncatfs/mamunm/src/decaf-espresso/gbrv15pbe/H.UPF
     MD5 check sum: 761ae9a214b05c3daf00ab9f6b793d6f
     Pseudo is Ultrasoft, Zval =  1.0
     Generated by new atomic code, or converted to UPF format
     Using radial grid of  615 points,  2 beta functions with:
                l(1) =   0
                l(2) =   0
     Q(r) pseudized with  8 coefficients,  rinner =    0.700

     vdW kernel table read from file vdW_kernel_table
     MD5 check sum: 095c7af220d748ca6e76c0b4c6cfb241

     atomic species   valence    mass     pseudopotential
        Co            17.00    58.93319     Co( 1.00)
        H              1.00     1.00800     H ( 1.00)

     Starting magnetic structure
     atomic species   magnetization
        Co           0.118
        H            0.000

     No symmetry found

   Cartesian axes

     site n.     atom                  positions (alat units)
         1           Co  tau(   1) = (   0.2500000   0.1443376   1.9949931  )
         2           Co  tau(   2) = (   0.7500000   0.1443376   1.9949931  )
         3           Co  tau(   3) = (   0.5000000   0.5773503   1.9949931  )
         4           Co  tau(   4) = (   1.0000000   0.5773503   1.9949931  )
         5           Co  tau(   5) = (   1.0000000   0.2886751   2.4032414  )
         6           Co  tau(   6) = (   0.5000000   0.2886751   2.4032414  )
         7           Co  tau(   7) = (   1.2500000   0.7216878   2.4032414  )
         8           Co  tau(   8) = (   0.7500000   0.7216878   2.4032414  )
         9           Co  tau(   9) = (  -0.0038546   0.0000341   2.8050235  )
        10           Co  tau(  10) = (   0.5038567   0.0000393   2.8050072  )
        11           Co  tau(  11) = (   0.2500053   0.4332558   2.8003598  )
        12           Co  tau(  12) = (   0.7499979   0.4327518   2.8005188  )
        13           H   tau(  13) = (   0.2500026   0.0011362   3.0186277  )

     number of k points=    40  Fermi-Dirac smearing, width (Ry)=  0.0110
                       cart. coord. in units 2pi/alat
        k(    1) = (   0.0000000   0.0000000   0.0000000), wk =   0.0277778
        k(    2) = (   0.0000000   0.1924501   0.0000000), wk =   0.0555556
        k(    3) = (   0.0000000   0.3849002   0.0000000), wk =   0.0555556
        k(    4) = (   0.0000000  -0.5773503   0.0000000), wk =   0.0277778
        k(    5) = (   0.1666667  -0.0962250   0.0000000), wk =   0.0555556
        k(    6) = (   0.1666667   0.0962250   0.0000000), wk =   0.0555556
        k(    7) = (   0.1666667   0.2886751   0.0000000), wk =   0.0555556
        k(    8) = (   0.1666667  -0.6735753   0.0000000), wk =   0.0555556
        k(    9) = (   0.1666667  -0.4811252   0.0000000), wk =   0.0555556
        k(   10) = (   0.1666667  -0.2886751   0.0000000), wk =   0.0555556
        k(   11) = (   0.3333333  -0.1924501   0.0000000), wk =   0.0555556
        k(   12) = (   0.3333333  -0.0000000   0.0000000), wk =   0.0555556
        k(   13) = (   0.3333333   0.1924501   0.0000000), wk =   0.0555556
        k(   14) = (   0.3333333  -0.7698004   0.0000000), wk =   0.0555556
        k(   15) = (   0.3333333  -0.5773503   0.0000000), wk =   0.0555556
        k(   16) = (   0.3333333  -0.3849002   0.0000000), wk =   0.0555556
        k(   17) = (  -0.5000000   0.2886751   0.0000000), wk =   0.0277778
        k(   18) = (  -0.5000000   0.4811252   0.0000000), wk =   0.0555556
        k(   19) = (  -0.5000000   0.6735753   0.0000000), wk =   0.0555556
        k(   20) = (  -0.5000000  -0.2886751   0.0000000), wk =   0.0277778
        k(   21) = (   0.0000000   0.0000000   0.0000000), wk =   0.0277778
        k(   22) = (   0.0000000   0.1924501   0.0000000), wk =   0.0555556
        k(   23) = (   0.0000000   0.3849002   0.0000000), wk =   0.0555556
        k(   24) = (   0.0000000  -0.5773503   0.0000000), wk =   0.0277778
        k(   25) = (   0.1666667  -0.0962250   0.0000000), wk =   0.0555556
        k(   26) = (   0.1666667   0.0962250   0.0000000), wk =   0.0555556
        k(   27) = (   0.1666667   0.2886751   0.0000000), wk =   0.0555556
        k(   28) = (   0.1666667  -0.6735753   0.0000000), wk =   0.0555556
        k(   29) = (   0.1666667  -0.4811252   0.0000000), wk =   0.0555556
        k(   30) = (   0.1666667  -0.2886751   0.0000000), wk =   0.0555556
        k(   31) = (   0.3333333  -0.1924501   0.0000000), wk =   0.0555556
        k(   32) = (   0.3333333  -0.0000000   0.0000000), wk =   0.0555556
        k(   33) = (   0.3333333   0.1924501   0.0000000), wk =   0.0555556
        k(   34) = (   0.3333333  -0.7698004   0.0000000), wk =   0.0555556
        k(   35) = (   0.3333333  -0.5773503   0.0000000), wk =   0.0555556
        k(   36) = (   0.3333333  -0.3849002   0.0000000), wk =   0.0555556
        k(   37) = (  -0.5000000   0.2886751   0.0000000), wk =   0.0277778
        k(   38) = (  -0.5000000   0.4811252   0.0000000), wk =   0.0555556
        k(   39) = (  -0.5000000   0.6735753   0.0000000), wk =   0.0555556
        k(   40) = (  -0.5000000  -0.2886751   0.0000000), wk =   0.0277778

     Largest allocated arrays     est. size (Mb)     dimensions
     Largest temporary arrays     est. size (Mb)     dimensions

     Check: negative/imaginary core charge=   -0.000007    0.000000

     Initial potential from superposition of free atoms
     Check: negative starting charge=(component1):   -0.000202
     Check: negative starting charge=(component2):   -0.000158

     starting charge  192.99991, renormalised to  205.00000

     negative rho (up, down):  2.146E-04 1.683E-04

     *
     * You are using vdW-DF for exchange-correlation in this calculation.
     * Please cite the following three references that made this development
     * possible:
     *
     *   M. Dion, H. Rydberg, E. Schroder, D. C. Langreth, and
     *   B. I. Lundqvist, Phys. Rev. Lett. 92, 246401 (2004).
     *
     *   T. Thonhauser, V. R. Cooper, S. Li, A. Puzder, P. Hyldgaard, and
     *   D. C. Langreth, Phys. Rev. B 76, 125112 (2007).
     *
     *   G. Roman-Perez and J. M. Soler, Phys. Rev. Lett. 103, 096102 (2009).
     *
     *
     * If you are using vdW-DF2, please also cite:
     *
     *   K. Lee, E. D. Murray, L. Kong, B. I. Lundqvist, and
     *   D. C. Langreth, Phys. Rev. B 82, 081101(R) (2010).
     *
     *
     * If you are calculating the stress with vdW-DF, please also cite:
     *
     *   R. Sabatini, E. Kucukbenli, B. Kolb, T. Thonhauser, and
     *   S. de Gironcoli, J. Phys.: Condens. Matter 24, 424209 (2012).
     *

     Carrying out vdW-DF run using the following parameters:

     Nqs =      20    Nr_points =    1024   r_max =   100.000
     q_mesh =
               0.00001000     0.04494208     0.09755937     0.15916263
               0.23128650     0.31572767     0.41458969     0.53033537
               0.66584808     0.82450364     1.01025438     1.22772762
               1.48234092     1.78043706     2.12944203     2.53805004
               3.01644009     3.57652955     4.23227104     5.00000000

     Gradients computed in reciprocal space

     Adding external electric field

     Computed dipole along edir(3) :
        Dipole               -0.3641 Ry au,         -0.9255 Debye
        Dipole field         -0.0013 Ry au

        Potential amp.        0.1060 Ry
        Total length         40.9758 bohr

[...]

     Starting wfc are  157 randomized atomic wfcs

     Self-consistent Calculation

     iteration #  1     ecut=    36.75 Ry     beta=0.10
     Davidson diagonalization with overlap
     ethr =  1.00E-02,  avg # of iterations =  7.9

[...]

     Magnetic moment per site:
     atom:    1    charge:   13.6665    magn:    1.5548    constr:    0.0000
     atom:    2    charge:   13.6671    magn:    1.5552    constr:    0.0000
     atom:    3    charge:   13.6667    magn:    1.5549    constr:    0.0000
     atom:    4    charge:   13.6665    magn:    1.5549    constr:    0.0000
     atom:    5    charge:   13.6658    magn:    1.5522    constr:    0.0000
     atom:    6    charge:   13.6657    magn:    1.5521    constr:    0.0000
     atom:    7    charge:   13.6654    magn:    1.5514    constr:    0.0000
     atom:    8    charge:   13.6641    magn:    1.5521    constr:    0.0000
     atom:    9    charge:   13.6273    magn:    1.5387    constr:    0.0000
     atom:   10    charge:   13.6272    magn:    1.5386    constr:    0.0000
     atom:   11    charge:   13.6151    magn:    1.5418    constr:    0.0000
     atom:   12    charge:   13.6148    magn:    1.5442    constr:    0.0000
     atom:   13    charge:    0.7439    magn:    0.0162    constr:    0.0000

     total energy              =   -3533.58137433 Ry
     Harris-Foulkes estimate   =   -3621.26786082 Ry
     estimated scf accuracy    <     493.60297844 Ry

     total magnetization       =     8.98 Bohr mag/cell
     absolute magnetization    =    11.18 Bohr mag/cell

[...]

     End of self-consistent calculation

 ------ SPIN UP ------------

          k = 0.0000 0.0000 0.0000 ( 13257 PWs)   bands (ev):

   -95.6250 -95.5999 -95.5937 -95.5467 -95.4197 -95.3930 -95.3713 -95.3460
   -95.3370 -95.3313 -95.2435 -95.2287 -58.9851 -58.9695 -58.9650 -58.9245
   -58.8805 -58.8773 -58.8421 -58.8106 -58.7974 -58.7901 -58.7370 -58.7343
   -58.7303 -58.7121 -58.7028 -58.6948 -58.6839 -58.6743 -58.6739 -58.6714
   -58.6637 -58.6597 -58.6449 -58.6415 -58.5715 -58.5514 -58.5270 -58.5221
   -58.5190 -58.5092 -58.4831 -58.4702 -58.4689 -58.4338 -58.4211 -58.4091
    -7.3359  -5.8123  -4.5724  -4.1192  -4.0631  -4.0613  -3.9609  -3.8754
    -3.8619  -3.6778  -3.4900  -3.4880  -3.4156  -3.3191  -3.3139  -2.9657
    -2.6379  -2.6356  -2.3421  -2.1340  -2.1278  -2.0629  -1.9952  -1.9562
    -1.9550  -1.8469  -1.7786  -1.7569  -1.7453  -1.7143  -1.6421  -1.5450
    -1.5298  -1.4661  -1.4152  -1.3560  -0.9244  -0.9202  -0.8853  -0.8824
    -0.8765  -0.8110  -0.7998  -0.6522  -0.5780  -0.5567  -0.3064  -0.3032
    -0.2956  -0.2791  -0.2761  -0.2511  -0.2025  -0.1849  -0.0814  -0.0687
    -0.0637   0.1618   0.1879   0.1936   0.2109   0.2118   0.2375   0.5599

[...]

          k =-0.5000 0.2887 0.0000 ( 13378 PWs)   bands (ev):

[...]

 ------ SPIN DOWN ----------

[...]

     the Fermi energy is     0.9027 ev

!    total energy              =   -3595.49025856 Ry
     Harris-Foulkes estimate   =   -3595.49018493 Ry
     estimated scf accuracy    <       0.00009300 Ry

     The total energy is the sum of the following terms:

     one-electron contribution =  -31449.30832892 Ry
     hartree contribution      =   15730.96076298 Ry
     xc contribution           =    -406.00562033 Ry
     ewald contribution        =   12528.93784644 Ry
     electric field correction =       0.00000016 Ry
     smearing contrib. (-TS)   =      -0.07491889 Ry

[...]

     convergence has been achieved in  31 iterations

     Forces acting on atoms (Ry/au):

     negative rho (up, down):  6.621E-04 3.212E-04
     atom    1 type  1   force =     0.00000123    0.00073656    0.00867775
     atom    2 type  1   force =     0.00001252   -0.00027889    0.00887431
     atom    3 type  1   force =    -0.00071928    0.00010936    0.00846018
     atom    4 type  1   force =     0.00071796    0.00009843    0.00849221
     atom    5 type  1   force =    -0.00121007    0.00002109   -0.00606394
     atom    6 type  1   force =     0.00121605    0.00000287   -0.00608023
     atom    7 type  1   force =    -0.00001343   -0.00203674   -0.00480289
     atom    8 type  1   force =     0.00001923    0.00071850   -0.00686868
     atom    9 type  1   force =     0.00419172    0.00011658   -0.00240547
     atom   10 type  1   force =    -0.00421123    0.00010576   -0.00236795
     atom   11 type  1   force =    -0.00001700   -0.00304169   -0.00142416
     atom   12 type  1   force =     0.00000735    0.00284633   -0.00259979
     atom   13 type  2   force =     0.00000495    0.00060183   -0.00189136

     Total force =     0.008764     Total SCF correction =     0.014050
     SCF correction compared to forces is large: reduce conv_thr to get better values

     BFGS Geometry Optimization

     number of scf cycles    =   1
     number of bfgs steps    =   0

     energy   new            =   -3595.4902585567 Ry

     new trust radius        =       0.0048342930 bohr
     new conv_thr            =       0.0001000000 Ry

ATOMIC_POSITIONS (angstrom)
Co       1.253137179   0.723499087  10.000000000    0   0   0
Co       3.759411536   0.723499087  10.000000000    0   0   0
Co       2.506274357   2.893996350  10.000000000    0   0   0
Co       5.012548715   2.893996350  10.000000000    0   0   0
Co       5.012548715   1.446998175  12.046364444    0   0   0
Co       2.506274357   1.446998175  12.046364444    0   0   0
Co       6.265685894   3.617495438  12.046364444    0   0   0
Co       3.759411536   3.617495438  12.046364444    0   0   0
Co      -0.017103058   0.000232647  14.059044002
Co       2.523377638   0.000252901  14.058982305
Co       1.253154819   2.170105992  14.036186140
Co       3.759404724   2.170695932  14.036361224
H        1.253152840   0.006013654  15.130017482

     Writing output data file calc.save
     Check: negative starting charge=(component1):   -0.000360
     NEW-OLD atomic charge density approx. for the potential

     Check: negative/imaginary core charge=   -0.000007    0.000000
     Check: negative starting charge=(component1):   -0.000360

[...]

     energy   old            =   -3595.4902585567 Ry
     energy   new            =   -3595.4903454159 Ry

     CASE: energy  _new < energy  _old

[...]

     new trust radius        =       0.0031833070 bohr
     new conv_thr            =       0.0000010000 Ry

[...]

     number of scf cycles    =   4
     number of bfgs steps    =   3

     energy   old            =   -3595.4903801424 Ry
     energy   new            =   -3595.4903977600 Ry

     CASE: energy  _new < energy  _old

     WARNING: bfgs curvature condition failed, Theta= 0.829
     new trust radius        =       0.0035016377 bohr
     new conv_thr            =       0.0000010000 Ry

ATOMIC_POSITIONS (angstrom)
Co       1.253137179   0.723499087  10.000000000    0   0   0
Co       3.759411536   0.723499087  10.000000000    0   0   0
Co       2.506274357   2.893996350  10.000000000    0   0   0
Co       5.012548715   2.893996350  10.000000000    0   0   0
Co       5.012548715   1.446998175  12.046364444    0   0   0
Co       2.506274358   1.446998175  12.046364444    0   0   0
Co       6.265685894   3.617495437  12.046364444    0   0   0
Co       3.759411536   3.617495437  12.046364444    0   0   0
Co      -0.019698294   0.000270313  14.055487635
Co       2.525968534   0.000287983  14.055450613
Co       1.253152110   2.169298891  14.038138187
Co       3.759404239   2.171751266  14.038656434
H        1.253155408   0.007201082  15.128622324

     Writing output data file calc.save
     Check: negative starting charge=(component1):   -0.000360
     NEW-OLD atomic charge density approx. for the potential

     Check: negative/imaginary core charge=   -0.000007    0.000000
     Check: negative starting charge=(component1):   -0.000360

[...]

     Self-consistent Calculation

[...]

     total energy              =   -3595.49041332 Ry
     Harris-Foulkes estimate   =   -3595.49041341 Ry
     estimated scf accuracy    <       0.00000261 Ry

[...]

     iteration #  7     ecut=    36.75 Ry     beta=0.10
     Davidson diagonalization with overlap
     ethr =  1.27E-09,  avg # of iterations =  2.5

     negative rho (up, down):  6.624E-04 3.201E-04

[...]

     Adding external electric field

     Computed dipole along edir(3) :
        Dipole                0.0001 Ry au,          0.0002 Debye
        Dipole field          0.0000 Ry au

        Potential amp.       -0.0000 Ry
        Total length         40.9758 bohr

     Magnetic moment per site:
     atom:    1    charge:   13.3412    magn:    1.5690    constr:    0.0000
     atom:    2    charge:   13.3415    magn:    1.5676    constr:    0.0000
     atom:    3    charge:   13.3406    magn:    1.5755    constr:    0.0000
     atom:    4    charge:   13.3406    magn:    1.5755    constr:    0.0000
     atom:    5    charge:   13.3364    magn:    1.5856    constr:    0.0000
     atom:    6    charge:   13.3364    magn:    1.5856    constr:    0.0000
     atom:    7    charge:   13.3356    magn:    1.5133    constr:    0.0000
     atom:    8    charge:   13.3368    magn:    1.5818    constr:    0.0000
     atom:    9    charge:   13.3427    magn:    1.3543    constr:    0.0000
     atom:   10    charge:   13.3427    magn:    1.3543    constr:    0.0000
     atom:   11    charge:   13.3452    magn:    1.5608    constr:    0.0000
     atom:   12    charge:   13.3453    magn:    1.5801    constr:    0.0000
     atom:   13    charge:    0.8621    magn:   -0.0249    constr:    0.0000

     End of self-consistent calculation

 ------ SPIN UP ------------

[...]

 ------ SPIN DOWN ----------

[...]

          k = 0.3333-0.3849 0.0000 ( 13313 PWs)   bands (ev):

[...]

          k =-0.5000-0.2887 0.0000 ( 13378 PWs)   bands (ev):

   -93.2870 -93.2496 -93.2398 -93.2297 -93.2184 -93.2142 -93.0798 -93.0729
   -93.0438 -93.0433 -93.0265 -93.0262 -56.7391 -56.7096 -56.6890 -56.6848
   -56.6410 -56.6391 -56.6355 -56.6266 -56.6169 -56.6092 -56.6022 -56.5969
   -56.5524 -56.5484 -56.5311 -56.5104 -56.4732 -56.4700 -56.4652 -56.4490
   -56.4386 -56.4294 -56.4102 -56.4094 -56.4010 -56.3945 -56.3926 -56.3907
   -56.3825 -56.3766 -56.3443 -56.3412 -56.3375 -56.3368 -56.3176 -56.3158
    -5.6963  -5.4185  -4.6580  -3.6374  -3.1446  -2.8106  -2.7736  -2.3106
    -2.2832  -2.2691  -2.0662  -1.7137  -1.7103  -1.5730  -1.5480  -1.3590
    -1.2887  -1.0682  -1.0618  -1.0212  -1.0110  -0.9867  -0.9489  -0.6394
    -0.5862  -0.5648  -0.4452  -0.4425  -0.4262  -0.3748  -0.3133  -0.2267
    -0.1264  -0.0959   0.0101   0.0139   0.0425   0.0834   0.2397   0.2721
     0.6012   0.6634   0.6662   0.6860   0.7963   0.8143   0.9692   0.9973
     1.0073   1.0246   1.1153   1.1348   1.1937   1.2837   1.3457   1.3534
     1.4143   1.4226   1.6930   1.7430   1.8589   1.8761   1.9644   1.9916

     the Fermi energy is     0.8736 ev

!    total energy              =   -3595.49041335 Ry
     Harris-Foulkes estimate   =   -3595.49041343 Ry
     estimated scf accuracy    <       0.00000058 Ry

     The total energy is the sum of the following terms:

     one-electron contribution =  -31457.39410710 Ry
     hartree contribution      =   15735.02738687 Ry
     xc contribution           =    -406.00711840 Ry
     ewald contribution        =   12532.95823453 Ry
     electric field correction =       0.00000000 Ry
     smearing contrib. (-TS)   =      -0.07480925 Ry

     total magnetization       =    18.91 Bohr mag/cell
     absolute magnetization    =    21.81 Bohr mag/cell

     convergence has been achieved in   7 iterations

     Forces acting on atoms (Ry/au):

     negative rho (up, down):  6.624E-04 3.201E-04
     atom    1 type  1   force =    -0.00000029    0.00070178    0.00964935
     atom    2 type  1   force =     0.00000002   -0.00059332    0.01033882
     atom    3 type  1   force =    -0.00093753    0.00016922    0.00973903
     atom    4 type  1   force =     0.00093740    0.00016947    0.00973953
     atom    5 type  1   force =    -0.00139677    0.00029289   -0.00906396
     atom    6 type  1   force =     0.00139694    0.00029128   -0.00906407
     atom    7 type  1   force =    -0.00000166   -0.00239624   -0.00868982
     atom    8 type  1   force =     0.00000119    0.00054161   -0.00930717
     atom    9 type  1   force =     0.00182002    0.00005916   -0.00108904
     atom   10 type  1   force =    -0.00181603    0.00005404   -0.00108230
     atom   11 type  1   force =    -0.00000429   -0.00167473    0.00005912
     atom   12 type  1   force =     0.00000219    0.00174165   -0.00003345
     atom   13 type  2   force =    -0.00000119    0.00064319   -0.00119603

     Total force =     0.004082     Total SCF correction =     0.002144
     SCF correction compared to forces is large: reduce conv_thr to get better values

     bfgs converged in   5 scf cycles and   4 bfgs steps
     (criteria: energy <  1.0E+12, force <  1.9E-03)

     End of BFGS Geometry Optimization

     Final energy   =   -3595.4904133530 Ry
Begin final coordinates

ATOMIC_POSITIONS (angstrom)
Co       1.253137179   0.723499087  10.000000000    0   0   0
Co       3.759411536   0.723499087  10.000000000    0   0   0
Co       2.506274357   2.893996350  10.000000000    0   0   0
Co       5.012548715   2.893996350  10.000000000    0   0   0
Co       5.012548715   1.446998175  12.046364444    0   0   0
Co       2.506274358   1.446998175  12.046364444    0   0   0
Co       6.265685894   3.617495437  12.046364444    0   0   0
Co       3.759411536   3.617495437  12.046364444    0   0   0
Co      -0.019698294   0.000270313  14.055487635
Co       2.525968534   0.000287983  14.055450613
Co       1.253152110   2.169298891  14.038138187
Co       3.759404239   2.171751266  14.038656434
H        1.253155408   0.007201082  15.128622324
End final coordinates

     Writing output data file calc.save

     General routines

     Parallel routines

   This run was terminated on:  16:27:37  16Jan2019

   JOB DONE.
Job  /afs/slac/g/suncat/bin/suncat-tsmpirun -x LD_LIBRARY_PATH -wdir /tmp/qe_3785505qvczxlb_scratch pw.x -npool 4 -in pw.pwi

TID   HOST_NAME   COMMAND_LINE            STATUS            TERMINATION_TIME
00000 suncat0037 pw.x -npool 4 -i  Done                     01/16/2019 16:27:37
00001 suncat0037 pw.x -npool 4 -i  Done                     01/16/2019 16:27:37
00002 suncat0037 pw.x -npool 4 -i  Done                     01/16/2019 16:27:37
00003 suncat0037 pw.x -npool 4 -i  Done                     01/16/2019 16:27:37
00004 suncat0037 pw.x -npool 4 -i  Done                     01/16/2019 16:27:37
00005 suncat0037 pw.x -npool 4 -i  Done                     01/16/2019 16:27:37
00006 suncat0037 pw.x -npool 4 -i  Done                     01/16/2019 16:27:37
00007 suncat0037 pw.x -npool 4 -i  Done                     01/16/2019 16:27:37
00008 suncat0199 pw.x -npool 4 -i  Done                     01/16/2019 16:27:37
00009 suncat0199 pw.x -npool 4 -i  Done                     01/16/2019 16:27:37
00010 suncat0199 pw.x -npool 4 -i  Done                     01/16/2019 16:27:37
00011 suncat0199 pw.x -npool 4 -i  Done                     01/16/2019 16:27:37
00012 suncat0199 pw.x -npool 4 -i  Done                     01/16/2019 16:27:37
00013 suncat0199 pw.x -npool 4 -i  Done                     01/16/2019 16:27:37
00014 suncat0199 pw.x -npool 4 -i  Done                     01/16/2019 16:27:37
00015 suncat0199 pw.x -npool 4 -i  Done                     01/16/2019 16:27:37
00016 suncat0163 pw.x -npool 4 -i  Done                     01/16/2019 16:27:37
00017 suncat0163 pw.x -npool 4 -i  Done                     01/16/2019 16:27:37
00018 suncat0163 pw.x -npool 4 -i  Done                     01/16/2019 16:27:37
00019 suncat0163 pw.x -npool 4 -i  Done                     01/16/2019 16:27:37
00020 suncat0163 pw.x -npool 4 -i  Done                     01/16/2019 16:27:37
00021 suncat0163 pw.x -npool 4 -i  Done                     01/16/2019 16:27:37
00022 suncat0163 pw.x -npool 4 -i  Done                     01/16/2019 16:27:37
00023 suncat0163 pw.x -npool 4 -i  Done                     01/16/2019 16:27:37
00024 suncat0162 pw.x -npool 4 -i  Done                     01/16/2019 16:27:37
00025 suncat0162 pw.x -npool 4 -i  Done                     01/16/2019 16:27:37
00026 suncat0162 pw.x -npool 4 -i  Done                     01/16/2019 16:27:37
00027 suncat0162 pw.x -npool 4 -i  Done                     01/16/2019 16:27:37
00028 suncat0162 pw.x -npool 4 -i  Done                     01/16/2019 16:27:37
00029 suncat0162 pw.x -npool 4 -i  Done                     01/16/2019 16:27:37
00030 suncat0162 pw.x -npool 4 -i  Done                     01/16/2019 16:27:37
00031 suncat0162 pw.x -npool 4 -i  Done                     01/16/2019 16:27:37