     Program PWSCF v.5.1rc2 (svn rev. ) starts on 17Apr2018 at  8:41:10

     Current dimensions of program PWSCF are:
     Max number of different atomic species (ntypx) = 10
     Max number of k-points (npk) =  40000
     Max angular momentum in pseudopotentials (lmaxx) =  3
     Presently stress not available with electric field

     IMPORTANT: XC functional enforced from input :
     Exchange-correlation      = BEEF-VDW ( 1  4 27 13 2)
     Any further DFT definition will be discarded
     Please, verify this is what you really want

     Subspace diagonalization in iterative solution of the eigenvalue problem:
     a serial algorithm will be used

     bravais-lattice index     =            0
     lattice parameter (alat)  =       1.8897  a.u.
     unit-cell volume          =    3807.2308 (a.u.)^3
     number of atoms/cell      =           15
     number of atomic types    =            3
     number of electrons       =       234.00
     number of Kohn-Sham states=          127
     kinetic-energy cutoff     =      36.7493  Ry
     charge density cutoff     =     367.4932  Ry
     convergence threshold     =      1.0E-05
     mixing beta               =       0.3000
     number of iterations used =           10  plain     mixing
     Exchange-correlation      = BEEF-VDW ( 1  4 27 13 2)
     nstep                     =           50

     celldm(1)=   1.889726  celldm(2)=   0.000000  celldm(3)=   0.000000
     celldm(4)=   0.000000  celldm(5)=   0.000000  celldm(6)=   0.000000

     crystal axes: (cart. coord. in units of alat)
               a(1) = (   5.184823   0.000000   0.000000 )
               a(2) = (   2.592411   4.490188   0.000000 )
               a(3) = (   0.000000   0.000000  24.233390 )

     reciprocal axes: (cart. coord. in units 2 pi/alat)
               b(1) = (  0.192871 -0.111354  0.000000 )
               b(2) = (  0.000000  0.222708  0.000000 )
               b(3) = (  0.000000  0.000000  0.041265 )

     PseudoPot. # 1 for Cu read from file:
     /home/mamunm/src/pseudo/gbrv1.5pbe/Cu.UPF
     MD5 check sum: 6e991ff952a84172a2a52a1c1e996048
     Pseudo is Ultrasoft + core correction, Zval = 19.0
     Generated by new atomic code, or converted to UPF format
     Using radial grid of  867 points,  6 beta functions with:
                l(1) =   0
                l(2) =   0
                l(3) =   1
                l(4) =   1
                l(5) =   2
                l(6) =   2
     Q(r) pseudized with  8 coefficients,  rinner =    1.150   1.150   1.150
                                                       1.150   1.150

     PseudoPot. # 2 for C  read from file:
     /home/mamunm/src/pseudo/gbrv1.5pbe/C.UPF
     MD5 check sum: d1aef80898a10debaa0f26306b886e00
     Pseudo is Ultrasoft + core correction, Zval =  4.0
     Generated by new atomic code, or converted to UPF format
     Using radial grid of  721 points,  4 beta functions with:
                l(1) =   0
                l(2) =   0
                l(3) =   1
                l(4) =   1
     Q(r) pseudized with  8 coefficients,  rinner =    1.100   1.100   1.100

     PseudoPot. # 3 for H  read from file:
     /home/mamunm/src/pseudo/gbrv1.5pbe/H.UPF
     MD5 check sum: 761ae9a214b05c3daf00ab9f6b793d6f
     Pseudo is Ultrasoft, Zval =  1.0
     Generated by new atomic code, or converted to UPF format
     Using radial grid of  615 points,  2 beta functions with:
                l(1) =   0
                l(2) =   0
     Q(r) pseudized with  8 coefficients,  rinner =    0.700

     vdW kernel table read from file vdW_kernel_table
     MD5 check sum: 095c7af220d748ca6e76c0b4c6cfb241

     atomic species   valence    mass     pseudopotential
        Cu1           19.00    63.54600     Cu( 1.00)
        C1             4.00    12.01100     C ( 1.00)
        H1             1.00     1.00800     H ( 1.00)

     No symmetry found

   Cartesian axes

     site n.     atom                  positions (alat units)
         1           Cu1 tau(   1) = (   1.2962057   0.7483647  10.0000000  )
         2           Cu1 tau(   2) = (   3.8886170   0.7483647  10.0000000  )
         3           Cu1 tau(   3) = (   2.5924113   2.9934587  10.0000000  )
         4           Cu1 tau(   4) = (   5.1848226   2.9934587  10.0000000  )
         5           Cu1 tau(   5) = (   5.1848226   1.4967294  12.1166950  )
         6           Cu1 tau(   6) = (   2.5924113   1.4967294  12.1166950  )
         7           Cu1 tau(   7) = (   6.4810283   3.7418234  12.1166950  )
         8           Cu1 tau(   8) = (   3.8886170   3.7418234  12.1166950  )
         9           Cu1 tau(   9) = (   0.0000000   0.0000000  14.2333899  )
        10           Cu1 tau(  10) = (   2.5924113   0.0000000  14.2333899  )
        11           Cu1 tau(  11) = (   1.2962057   2.2450940  14.2333899  )
        12           Cu1 tau(  12) = (   3.8886170   2.2450940  14.2333899  )
        13           C1  tau(  13) = (   0.0000000   0.0000000  16.0013899  )
        14           H1  tau(  14) = (   0.6300000   0.6300000  16.6313899  )
        15           H1  tau(  15) = (   7.1472339   3.8601881  16.6313899  )

     number of k points=    20  Fermi-Dirac smearing, width (Ry)=  0.0110
                       cart. coord. in units 2pi/alat
        k(    1) = (   0.0000000   0.0000000   0.0000000), wk =   0.0555556
        k(    2) = (   0.0000000   0.0371180   0.0000000), wk =   0.1111111
        k(    3) = (   0.0000000   0.0742359   0.0000000), wk =   0.1111111
        k(    4) = (   0.0000000  -0.1113539   0.0000000), wk =   0.0555556
        k(    5) = (   0.0321451  -0.0185590   0.0000000), wk =   0.1111111
        k(    6) = (   0.0321451   0.0185590   0.0000000), wk =   0.1111111
        k(    7) = (   0.0321451   0.0556770   0.0000000), wk =   0.1111111
        k(    8) = (   0.0321451  -0.1299129   0.0000000), wk =   0.1111111
        k(    9) = (   0.0321451  -0.0927949   0.0000000), wk =   0.1111111
        k(   10) = (   0.0321451  -0.0556770   0.0000000), wk =   0.1111111
        k(   11) = (   0.0642902  -0.0371180   0.0000000), wk =   0.1111111
        k(   12) = (   0.0642902  -0.0000000   0.0000000), wk =   0.1111111
        k(   13) = (   0.0642902   0.0371180   0.0000000), wk =   0.1111111
        k(   14) = (   0.0642902  -0.1484719   0.0000000), wk =   0.1111111
        k(   15) = (   0.0642902  -0.1113539   0.0000000), wk =   0.1111111
        k(   16) = (   0.0642902  -0.0742359   0.0000000), wk =   0.1111111
        k(   17) = (  -0.0964353   0.0556770   0.0000000), wk =   0.0555556
        k(   18) = (  -0.0964353   0.0927949   0.0000000), wk =   0.1111111
        k(   19) = (  -0.0964353   0.1299129   0.0000000), wk =   0.1111111
        k(   20) = (  -0.0964353  -0.0556770   0.0000000), wk =   0.0555556

     Largest allocated arrays     est. size (Mb)     dimensions
     Largest temporary arrays     est. size (Mb)     dimensions

     Initial potential from superposition of free atoms
     Check: negative starting charge=   -0.000137

     starting charge  221.99992, renormalised to  234.00000

     negative rho (up, down):  1.446E-04 0.000E+00

     *
     * You are using vdW-DF for exchange-correlation in this calculation.
     * Please cite the following three references that made this development
     * possible:
     *
     *   M. Dion, H. Rydberg, E. Schroder, D. C. Langreth, and
     *   B. I. Lundqvist, Phys. Rev. Lett. 92, 246401 (2004).
     *
     *   T. Thonhauser, V. R. Cooper, S. Li, A. Puzder, P. Hyldgaard, and
     *   D. C. Langreth, Phys. Rev. B 76, 125112 (2007).
     *
     *   G. Roman-Perez and J. M. Soler, Phys. Rev. Lett. 103, 096102 (2009).
     *
     *
     * If you are using vdW-DF2, please also cite:
     *
     *   K. Lee, E. D. Murray, L. Kong, B. I. Lundqvist, and
     *   D. C. Langreth, Phys. Rev. B 82, 081101(R) (2010).
     *
     *
     * If you are calculating the stress with vdW-DF, please also cite:
     *
     *   R. Sabatini, E. Kucukbenli, B. Kolb, T. Thonhauser, and
     *   S. de Gironcoli, J. Phys.: Condens. Matter 24, 424209 (2012).
     *

     Carrying out vdW-DF run using the following parameters:

     Nqs =      20    Nr_points =    1024   r_max =   100.000
     q_mesh =
               0.00001000     0.04494208     0.09755937     0.15916263
               0.23128650     0.31572767     0.41458969     0.53033537
               0.66584808     0.82450364     1.01025438     1.22772762
               1.48234092     1.78043706     2.12944203     2.53805004
               3.01644009     3.57652955     4.23227104     5.00000000

     Gradients computed in reciprocal space

     Adding external electric field

     Computed dipole along edir(3) :
        Dipole               -2.5091 Ry au,         -6.3775 Debye
        Dipole field         -0.0083 Ry au

        Potential amp.        0.7396 Ry
        Total length         44.6496 bohr

     Starting wfc are  162 randomized atomic wfcs

     Self-consistent Calculation

     iteration #  1     ecut=    36.75 Ry     beta=0.30
     Davidson diagonalization with overlap
     ethr =  1.00E-02,  avg # of iterations =  8.1

[...]

     total energy              =   -4557.58625154 Ry
     Harris-Foulkes estimate   =   -4872.55066437 Ry
     estimated scf accuracy    <     662.08994165 Ry

     iteration #  2     ecut=    36.75 Ry     beta=0.30
     Davidson diagonalization with overlap
     c_bands:  2 eigenvalues not converged
     c_bands:  1 eigenvalues not converged
     c_bands:  1 eigenvalues not converged
     c_bands:  3 eigenvalues not converged
     c_bands:  1 eigenvalues not converged
     ethr =  1.00E-02,  avg # of iterations = 19.0

[...]

     End of self-consistent calculation

          k = 0.0000 0.0000 0.0000 ( 14321 PWs)   bands (ev):

  -112.6294-111.8829-111.8763-111.8749-111.8744-111.6400-111.6142-111.6099
  -111.6047-111.6032-111.5432-111.4868 -70.1968 -69.9487 -69.8602 -69.3162
   -69.3109 -69.3090 -69.2817 -69.2745 -69.2718 -69.2701 -69.2595 -69.2556
   -69.2550 -69.2413 -69.2386 -69.0810 -69.0782 -69.0717 -69.0635 -69.0259
   -69.0245 -69.0184 -69.0034 -69.0020 -69.0015 -68.9988 -68.9879 -68.9688
   -68.9637 -68.9565 -68.9533 -68.9384 -68.9107 -68.9093 -68.8866 -68.8692
   -11.3873  -7.5578  -5.7138  -5.3118  -4.4906  -4.2703  -3.8929  -3.8289
    -3.7506  -3.7185  -3.6977  -3.5500  -3.4203  -3.3708  -3.3075  -3.2642
    -3.2595  -3.1880  -3.0195  -2.6957  -2.5665  -2.3760  -2.3498  -2.2744
    -2.2213  -2.1888  -2.1868  -2.1177  -2.0948  -2.0393  -2.0353  -2.0269
    -1.9768  -1.9232  -1.9205  -1.8021  -1.7504  -1.6724  -1.6153  -1.4967
    -1.4281  -1.4112  -1.3845  -1.3422  -1.3245  -1.3161  -1.1594  -1.1585
    -1.0322  -1.0288  -0.9751  -0.9579  -0.9407  -0.9335  -0.9303  -0.9032
    -0.8948  -0.8849  -0.8843  -0.8472  -0.8128  -0.6849  -0.6828  -0.6753
    -0.6248   0.0225   0.1624   0.8247   0.8960   1.2059   1.7946   1.8823
     1.9480   2.1427   2.2827   2.3724   3.0902   4.1735   4.7612

[...]

          k =-0.0964 0.0557 0.0000 ( 14294 PWs)   bands (ev):

[...]

     the Fermi energy is     0.7134 ev

!    total energy              =   -4873.10313977 Ry
     Harris-Foulkes estimate   =   -4873.10313476 Ry
     estimated scf accuracy    <       0.00000305 Ry

     The total energy is the sum of the following terms:

     one-electron contribution =  -37662.23516340 Ry
     hartree contribution      =   18849.13049456 Ry
     xc contribution           =    -485.21151836 Ry
     ewald contribution        =   14425.24136549 Ry
     electric field correction =       0.00004054 Ry
     smearing contrib. (-TS)   =      -0.02835861 Ry

     convergence has been achieved in  38 iterations

 BEEF-vdW xc energy contributions
           1 :   -429.831918892511
           2 :    389.562192541221
           3 :   -321.408917594010
           4 :    244.166568590720
           5 :   -174.873760774396
           6 :    122.748943557388
           7 :   -87.7855701440982
           8 :    63.9141249021453
           9 :   -44.2823846666604
          10 :    25.4048116927553
          11 :   -8.11324416057249
          12 :   -4.54114107709461
          13 :    10.4610057810636
          14 :   -10.4541235983130
          15 :    7.83162618303049
          16 :   -6.25028736831575
          17 :    7.48608222111295
          18 :   -10.6665063998802
          19 :    13.3274088730469
          20 :   -13.3987067263239
          21 :    10.6881597042402
          22 :   -6.90813244756316
          23 :    4.36294229392070
          24 :   -4.31961613981048
          25 :    6.21283347009955
          26 :   -8.17363773742636
          27 :    8.42456841988070
          28 :   -6.52128158636901
          29 :    3.58862034494416
          30 :   -1.44468791827262
          31 :   -34.4459442944334
          32 :   -23.5347714968273

     Forces acting on atoms (Ry/au):

     negative rho (up, down):  1.009E-03 0.000E+00
     atom    1 type  1   force =    -0.00105067   -0.00066237    0.00244939
     atom    2 type  1   force =     0.00101905   -0.00006570    0.00311989
     atom    3 type  1   force =     0.00053939    0.00104935    0.00262880
     atom    4 type  1   force =    -0.00049318   -0.00023408    0.00402696
     atom    5 type  1   force =     0.00045047   -0.00046067   -0.00150937
     atom    6 type  1   force =    -0.00058274   -0.00008707    0.00112304
     atom    7 type  1   force =     0.00010325   -0.00017258   -0.00176781
     atom    8 type  1   force =    -0.00063229    0.00066567   -0.00030753
     atom    9 type  1   force =     0.00075065    0.00015229   -0.05613440
     atom   10 type  1   force =    -0.00043356   -0.00011502   -0.00434747
     atom   11 type  1   force =    -0.00016544   -0.00025589   -0.01565799
     atom   12 type  1   force =     0.00018013    0.00024728    0.00526536
     atom   13 type  2   force =     0.00026391   -0.00008772    0.06129970
     atom   14 type  3   force =     0.00246532    0.00206628   -0.00011358
     atom   15 type  3   force =    -0.00241430   -0.00203979   -0.00007497

     Total force =     0.084982     Total SCF correction =     0.002229

     entering subroutine stress ...

     negative rho (up, down):  1.009E-03 0.000E+00
          total   stress  (Ry/bohr**3)                   (kbar)     P=  -23.54
  -0.00019673   0.00000930   0.00000099        -28.94      1.37      0.15
   0.00000930  -0.00019683  -0.00000009          1.37    -28.96     -0.01
   0.00000099  -0.00000009  -0.00008655          0.15     -0.01    -12.73

     BFGS Geometry Optimization

     number of scf cycles    =   1
     number of bfgs steps    =   0

     energy   new            =   -4873.1031397728 Ry

     new trust radius        =       0.0613003281 bohr
     new conv_thr            =       0.0000099958 Ry

ATOMIC_POSITIONS (crystal)
Cu1      0.166666667   0.166666667   0.412653782    0   0   0
Cu1      0.666666667   0.166666667   0.412653782    0   0   0
Cu1      0.166666667   0.666666667   0.412653782    0   0   0
Cu1      0.666666667   0.666666667   0.412653782    0   0   0
Cu1      0.833333333   0.333333333   0.500000000    0   0   0
Cu1      0.333333333   0.333333333   0.500000000    0   0   0
Cu1      0.833333333   0.833333333   0.500000000    0   0   0
Cu1      0.333333333   0.833333333   0.500000000    0   0   0
Cu1      0.000067639   0.000017948   0.586120428
Cu1      0.499962527  -0.000013555   0.587251284
Cu1     -0.000001807   0.499969843   0.587004299
Cu1      0.500003814   0.500029142   0.587461196
C1       0.000032104  -0.000010338   0.661641990
H1       0.051485393   0.140549442   0.686298115
H1       0.948518253   0.859453681   0.686298958

     Writing output data file calc.save
     Check: negative starting charge=   -0.000137
     NEW-OLD atomic charge density approx. for the potential
     Check: negative starting charge=   -0.000134

[...]

     Total force =     0.041609     Total SCF correction =     0.013298
     SCF correction compared to forces is large: reduce conv_thr to get better values

[...]

     energy   old            =   -4873.1031397728 Ry
     energy   new            =   -4873.1067801286 Ry

     CASE: energy  _new < energy  _old

[...]

     Total force =     0.016011     Total SCF correction =     0.001998
     SCF correction compared to forces is large: reduce conv_thr to get better values

[...]

     number of scf cycles    =   8
     number of bfgs steps    =   7

     energy   old            =   -4873.1093315760 Ry
     energy   new            =   -4873.1093867307 Ry

     CASE: energy  _new < energy  _old

     new trust radius        =       0.0074436794 bohr
     new conv_thr            =       0.0000001000 Ry

ATOMIC_POSITIONS (crystal)
Cu1      0.166666667   0.166666667   0.412653782    0   0   0
Cu1      0.666666667   0.166666667   0.412653782    0   0   0
Cu1      0.166666667   0.666666667   0.412653782    0   0   0
Cu1      0.666666667   0.666666667   0.412653782    0   0   0
Cu1      0.833333333   0.333333333   0.500000000    0   0   0
Cu1      0.333333333   0.333333333   0.500000000    0   0   0
Cu1      0.833333333   0.833333333   0.500000000    0   0   0
Cu1      0.333333333   0.833333333   0.500000000    0   0   0
Cu1      0.000637947   0.000060698   0.586008386
Cu1      0.499887465  -0.000178624   0.586109710
Cu1     -0.000091411   0.499948802   0.583257729
Cu1      0.500019281   0.500260460   0.589138206
C1       0.000470641  -0.000191549   0.662286805
H1       0.052673622   0.141834351   0.687517502
H1       0.947507247   0.858274854   0.687497443

     Writing output data file calc.save
     Check: negative starting charge=   -0.000135
     NEW-OLD atomic charge density approx. for the potential
     Check: negative starting charge=   -0.000135

[...]

     Self-consistent Calculation

[...]

     total energy              =   -4873.10940366 Ry
     Harris-Foulkes estimate   =   -4873.10940372 Ry
     estimated scf accuracy    <       0.00000012 Ry

     iteration #  9     ecut=    36.75 Ry     beta=0.30
     Davidson diagonalization with overlap
     ethr =  5.28E-11,  avg # of iterations =  2.0

[...]

     negative rho (up, down):  1.018E-03 0.000E+00

     Adding external electric field

     Computed dipole along edir(3) :
        Dipole                0.0888 Ry au,          0.2258 Debye
        Dipole field          0.0003 Ry au

        Potential amp.       -0.0262 Ry
        Total length         44.6496 bohr

     End of self-consistent calculation

[...]

          k = 0.0643-0.0742 0.0000 ( 14299 PWs)   bands (ev):

[...]

          k =-0.0964-0.0557 0.0000 ( 14294 PWs)   bands (ev):

  -112.4935-111.9307-111.9229-111.9208-111.9108-111.6735-111.6443-111.6408
  -111.6405-111.5911-111.5826-111.5771 -70.0141 -69.8313 -69.7534 -69.3468
   -69.3425 -69.3350 -69.3294 -69.3207 -69.3170 -69.3148 -69.3134 -69.3098
   -69.3026 -69.2976 -69.2863 -69.1036 -69.0885 -69.0846 -69.0665 -69.0630
   -69.0586 -69.0524 -69.0498 -69.0412 -69.0370 -69.0370 -68.9976 -68.9975
   -68.9960 -68.9938 -68.9848 -68.9804 -68.9680 -68.9649 -68.9502 -68.9404
   -11.2157  -5.9113  -5.8617  -5.4324  -4.4672  -4.1602  -3.9060  -3.6551
    -3.5240  -3.3660  -3.3452  -3.3070  -3.2852  -3.0845  -2.9541  -2.9451
    -2.8828  -2.8266  -2.8216  -2.7051  -2.6307  -2.6021  -2.5964  -2.5029
    -2.4798  -2.4189  -2.3787  -2.2928  -2.2420  -2.1615  -2.1277  -2.0908
    -2.0545  -2.0327  -1.9875  -1.9591  -1.9378  -1.9318  -1.9238  -1.8950
    -1.8945  -1.8438  -1.7906  -1.6915  -1.6768  -1.5755  -1.5415  -1.5268
    -1.4777  -1.4685  -1.4031  -1.3718  -1.3673  -1.3266  -1.3233  -1.2543
    -1.2291  -1.1792  -1.1638  -1.0071  -0.9993  -0.9529  -0.9331  -0.9113
    -0.8966  -0.8376  -0.0642   0.2780   0.5766   0.8797   1.1373   1.5424
     2.3425   2.3518   3.7484   3.8926   4.6625   5.2634   5.3427

     the Fermi energy is     0.6782 ev

!    total energy              =   -4873.10940367 Ry
     Harris-Foulkes estimate   =   -4873.10940375 Ry
     estimated scf accuracy    <       0.00000002 Ry

     The total energy is the sum of the following terms:

     one-electron contribution =  -37774.42155066 Ry
     hartree contribution      =   18905.11947212 Ry
     xc contribution           =    -485.20160226 Ry
     ewald contribution        =   14481.42298551 Ry
     electric field correction =       0.00002604 Ry
     smearing contrib. (-TS)   =      -0.02873442 Ry

     convergence has been achieved in   9 iterations

 BEEF-vdW xc energy contributions
           1 :   -429.822147603720
           2 :    389.552390643515
           3 :   -321.400173288492
           4 :    244.158125471248
           5 :   -174.862439051853
           6 :    122.734741127089
           7 :   -87.7758171204317
           8 :    63.9190152489429
           9 :   -44.3050517446619
          10 :    25.4351267792519
          11 :   -8.13178822906673
          12 :   -4.55009985946043
          13 :    10.4959872622674
          14 :   -10.4938418161427
          15 :    7.84773980343397
          16 :   -6.22742402080286
          17 :    7.43466625806383
          18 :   -10.6178633249318
          19 :    13.3130195247651
          20 :   -13.4277111143054
          21 :    10.7393130126589
          22 :   -6.94329087152607
          23 :    4.35411872390631
          24 :   -4.27028747795396
          25 :    6.15705908356148
          26 :   -8.15275794118162
          27 :    8.45778985970895
          28 :   -6.59089326815774
          29 :    3.65071736019723
          30 :   -1.45882153588781
          31 :   -34.4454250265668
          32 :   -23.5341405841361

     Forces acting on atoms (Ry/au):

     negative rho (up, down):  1.018E-03 0.000E+00
     atom    1 type  1   force =    -0.00098917   -0.00096402    0.00175313
     atom    2 type  1   force =     0.00091852    0.00009610    0.00300900
     atom    3 type  1   force =     0.00088558    0.00101981    0.00242010
     atom    4 type  1   force =    -0.00089249   -0.00009995    0.00329144
     atom    5 type  1   force =    -0.00355944   -0.00143603   -0.00508970
     atom    6 type  1   force =     0.00344941   -0.00035564   -0.00276150
     atom    7 type  1   force =     0.00075852    0.00283356   -0.00848736
     atom    8 type  1   force =    -0.00108543   -0.00108451   -0.00096382
     atom    9 type  1   force =    -0.00005774    0.00000868    0.00065605
     atom   10 type  1   force =     0.00022352    0.00009187   -0.00000723
     atom   11 type  1   force =     0.00010584    0.00004417    0.00138487
     atom   12 type  1   force =     0.00001249   -0.00012471    0.00107549
     atom   13 type  2   force =     0.00011153    0.00001870    0.00099814
     atom   14 type  3   force =     0.00091015    0.00052207    0.00136204
     atom   15 type  3   force =    -0.00079130   -0.00057011    0.00135934

     Total force =     0.003219     Total SCF correction =     0.000303

     entering subroutine stress ...

     negative rho (up, down):  1.018E-03 0.000E+00
          total   stress  (Ry/bohr**3)                   (kbar)     P=  -20.36
  -0.00016302   0.00000930   0.00000086        -23.98      1.37      0.13
   0.00000930  -0.00016443  -0.00000011          1.37    -24.19     -0.02
   0.00000086  -0.00000011  -0.00008773          0.13     -0.02    -12.91

     bfgs converged in   9 scf cycles and   8 bfgs steps
     (criteria: energy <  1.0E+00, force <  1.9E-03)

     End of BFGS Geometry Optimization

     Final energy   =   -4873.1094036697 Ry
Begin final coordinates

ATOMIC_POSITIONS (crystal)
Cu1      0.166666667   0.166666667   0.412653782    0   0   0
Cu1      0.666666667   0.166666667   0.412653782    0   0   0
Cu1      0.166666667   0.666666667   0.412653782    0   0   0
Cu1      0.666666667   0.666666667   0.412653782    0   0   0
Cu1      0.833333333   0.333333333   0.500000000    0   0   0
Cu1      0.333333333   0.333333333   0.500000000    0   0   0
Cu1      0.833333333   0.833333333   0.500000000    0   0   0
Cu1      0.333333333   0.833333333   0.500000000    0   0   0
Cu1      0.000637947   0.000060698   0.586008386
Cu1      0.499887465  -0.000178624   0.586109710
Cu1     -0.000091411   0.499948802   0.583257729
Cu1      0.500019281   0.500260460   0.589138206
C1       0.000470641  -0.000191549   0.662286805
H1       0.052673622   0.141834351   0.687517502
H1       0.947507247   0.858274854   0.687497443
End final coordinates

     Writing output data file calc.save

     General routines

     Parallel routines

   This run was terminated on:   9:14: 9  17Apr2018

   JOB DONE.