     Program PWSCF v.5.1rc2 (svn rev. 11289) starts on 21Jan2018 at  1:53:27

     Current dimensions of program PWSCF are:
     Max number of different atomic species (ntypx) = 10
     Max number of k-points (npk) =  40000
     Max angular momentum in pseudopotentials (lmaxx) =  3
     Presently stress not available with electric field

     IMPORTANT: XC functional enforced from input :
     Exchange-correlation      = BEEF-VDW ( 1  4 27 13 2)
     Any further DFT definition will be discarded
     Please, verify this is what you really want

     Subspace diagonalization in iterative solution of the eigenvalue problem:
     a serial algorithm will be used

     bravais-lattice index     =            0
     lattice parameter (alat)  =       1.8897  a.u.
     unit-cell volume          =    4198.3539 (a.u.)^3
     number of atoms/cell      =           13
     number of atomic types    =            2
     number of electrons       =       198.00
     number of Kohn-Sham states=          109
     kinetic-energy cutoff     =      36.7493  Ry
     charge density cutoff     =     367.4932  Ry
     convergence threshold     =      1.0E-05
     mixing beta               =       0.3000
     number of iterations used =           10  plain     mixing
     Exchange-correlation      = BEEF-VDW ( 1  4 27 13 2)
     nstep                     =           50

     celldm(1)=   1.889726  celldm(2)=   0.000000  celldm(3)=   0.000000
     celldm(4)=   0.000000  celldm(5)=   0.000000  celldm(6)=   0.000000

     crystal axes: (cart. coord. in units of alat)
               a(1) = (   5.422927   0.000000   0.000000 )
               a(2) = (   2.711463   4.696392   0.000000 )
               a(3) = (   0.000000   0.000000  24.427801 )

     reciprocal axes: (cart. coord. in units 2 pi/alat)
               b(1) = (  0.184402 -0.106465  0.000000 )
               b(2) = (  0.000000  0.212929  0.000000 )
               b(3) = (  0.000000  0.000000  0.040937 )

     PseudoPot. # 1 for Ru read from file:
     /afs/slac.stanford.edu/u/if/mamunm/psp/gbrv1.5pbe/Ru.UPF
     MD5 check sum: 7158a806dd851261a58e6920c40ebe78
     Pseudo is Ultrasoft + core correction, Zval = 16.0
     Generated by new atomic code, or converted to UPF format
     Using radial grid of  967 points,  6 beta functions with:
                l(1) =   0
                l(2) =   0
                l(3) =   1
                l(4) =   1
                l(5) =   2
                l(6) =   2
     Q(r) pseudized with  8 coefficients,  rinner =    1.300   1.300   1.300
                                                       1.300   1.300

     PseudoPot. # 2 for S  read from file:
     /afs/slac.stanford.edu/u/if/mamunm/psp/gbrv1.5pbe/S.UPF
     MD5 check sum: 88d86576ff6df21479756cfb9bdac1df
     Pseudo is Ultrasoft + core correction, Zval =  6.0
     Generated by new atomic code, or converted to UPF format
     Using radial grid of  907 points,  6 beta functions with:
                l(1) =   0
                l(2) =   0
                l(3) =   1
                l(4) =   1
                l(5) =   2
                l(6) =   2
     Q(r) pseudized with  8 coefficients,  rinner =    1.300   1.300   1.300
                                                       1.300   1.300

     vdW kernel table read from file vdW_kernel_table
     MD5 check sum: 095c7af220d748ca6e76c0b4c6cfb241

     atomic species   valence    mass     pseudopotential
        Ru1           16.00   101.07000     Ru( 1.00)
        S1             6.00    32.06000     S ( 1.00)

     No symmetry found

   Cartesian axes

     site n.     atom                  positions (alat units)
         1           Ru1 tau(   1) = (   1.3557316   0.7827320  10.0000000  )
         2           Ru1 tau(   2) = (   4.0671949   0.7827320  10.0000000  )
         3           Ru1 tau(   3) = (   2.7114633   3.1309281  10.0000000  )
         4           Ru1 tau(   4) = (   5.4229265   3.1309281  10.0000000  )
         5           Ru1 tau(   5) = (   5.4229265   1.5654640  12.2139005  )
         6           Ru1 tau(   6) = (   2.7114633   1.5654640  12.2139005  )
         7           Ru1 tau(   7) = (   6.7786581   3.9136601  12.2139005  )
         8           Ru1 tau(   8) = (   4.0671949   3.9136601  12.2139005  )
         9           Ru1 tau(   9) = (   0.0000000   0.0000000  14.4278010  )
        10           Ru1 tau(  10) = (   2.7114633   0.0000000  14.4278010  )
        11           Ru1 tau(  11) = (   1.3557316   2.3481961  14.4278010  )
        12           Ru1 tau(  12) = (   4.0671949   2.3481961  14.4278010  )
        13           S1  tau(  13) = (   0.0000000   0.0000000  16.9378010  )

     number of k points=    20  Fermi-Dirac smearing, width (Ry)=  0.0110
                       cart. coord. in units 2pi/alat
        k(    1) = (   0.0000000   0.0000000   0.0000000), wk =   0.0555556
        k(    2) = (   0.0000000   0.0354882   0.0000000), wk =   0.1111111
        k(    3) = (   0.0000000   0.0709765   0.0000000), wk =   0.1111111
        k(    4) = (   0.0000000  -0.1064647   0.0000000), wk =   0.0555556
        k(    5) = (   0.0307337  -0.0177441   0.0000000), wk =   0.1111111
        k(    6) = (   0.0307337   0.0177441   0.0000000), wk =   0.1111111
        k(    7) = (   0.0307337   0.0532324   0.0000000), wk =   0.1111111
        k(    8) = (   0.0307337  -0.1242088   0.0000000), wk =   0.1111111
        k(    9) = (   0.0307337  -0.0887206   0.0000000), wk =   0.1111111
        k(   10) = (   0.0307337  -0.0532324   0.0000000), wk =   0.1111111
        k(   11) = (   0.0614674  -0.0354882   0.0000000), wk =   0.1111111
        k(   12) = (   0.0614674   0.0000000   0.0000000), wk =   0.1111111
        k(   13) = (   0.0614674   0.0354882   0.0000000), wk =   0.1111111
        k(   14) = (   0.0614674  -0.1419529   0.0000000), wk =   0.1111111
        k(   15) = (   0.0614674  -0.1064647   0.0000000), wk =   0.1111111
        k(   16) = (   0.0614674  -0.0709765   0.0000000), wk =   0.1111111
        k(   17) = (  -0.0922011   0.0532324   0.0000000), wk =   0.0555556
        k(   18) = (  -0.0922011   0.0887206   0.0000000), wk =   0.1111111
        k(   19) = (  -0.0922011   0.1242088   0.0000000), wk =   0.1111111
        k(   20) = (  -0.0922011  -0.0532324   0.0000000), wk =   0.0555556

     Largest allocated arrays     est. size (Mb)     dimensions
     Largest temporary arrays     est. size (Mb)     dimensions

     Initial potential from superposition of free atoms
     Check: negative starting charge=   -0.873577

     starting charge  185.99978, renormalised to  198.00000

     negative rho (up, down):  9.299E-01 0.000E+00

     *
     * You are using vdW-DF for exchange-correlation in this calculation.
     * Please cite the following three references that made this development
     * possible:
     *
     *   M. Dion, H. Rydberg, E. Schroder, D. C. Langreth, and
     *   B. I. Lundqvist, Phys. Rev. Lett. 92, 246401 (2004).
     *
     *   T. Thonhauser, V. R. Cooper, S. Li, A. Puzder, P. Hyldgaard, and
     *   D. C. Langreth, Phys. Rev. B 76, 125112 (2007).
     *
     *   G. Roman-Perez and J. M. Soler, Phys. Rev. Lett. 103, 096102 (2009).
     *
     *
     * If you are using vdW-DF2, please also cite:
     *
     *   K. Lee, E. D. Murray, L. Kong, B. I. Lundqvist, and
     *   D. C. Langreth, Phys. Rev. B 82, 081101(R) (2010).
     *
     *
     * If you are calculating the stress with vdW-DF, please also cite:
     *
     *   R. Sabatini, E. Kucukbenli, B. Kolb, T. Thonhauser, and
     *   S. de Gironcoli, J. Phys.: Condens. Matter 24, 424209 (2012).
     *

     Carrying out vdW-DF run using the following parameters:

     Nqs =      20    Nr_points =    1024   r_max =   100.000
     q_mesh =
               0.00001000     0.04494208     0.09755937     0.15916263
               0.23128650     0.31572767     0.41458969     0.53033537
               0.66584808     0.82450364     1.01025438     1.22772762
               1.48234092     1.78043706     2.12944203     2.53805004
               3.01644009     3.57652955     4.23227104     5.00000000

     Gradients computed in reciprocal space

     Adding external electric field

     Computed dipole along edir(3) :
        Dipole               -3.4553 Ry au,         -8.7825 Debye
        Dipole field         -0.0103 Ry au

        Potential amp.        0.9310 Ry
        Total length         45.0078 bohr

     Starting wfc are  160 randomized atomic wfcs

     Self-consistent Calculation

     iteration #  1     ecut=    36.75 Ry     beta=0.30
     Davidson diagonalization with overlap
     ethr =  1.00E-02,  avg # of iterations =  6.2

[...]

     total energy              =   -2110.75407975 Ry
     Harris-Foulkes estimate   =   -2361.35413680 Ry
     estimated scf accuracy    <     525.65164376 Ry

[...]

     End of self-consistent calculation

          k = 0.0000 0.0000 0.0000 ( 15761 PWs)   bands (ev):

   -71.1324 -71.0332 -71.0231 -71.0229 -70.8336 -70.6341 -70.6167 -70.5526
   -70.5518 -70.5432 -70.5327 -70.5317 -41.4074 -41.4073 -41.3883 -41.2463
   -41.1501 -41.1499 -41.1356 -40.9539 -40.9537 -40.9050 -40.8510 -40.8398
   -40.8397 -40.7863 -40.7800 -40.7797 -40.7364 -40.6661 -40.6660 -40.5545
   -40.4807 -40.4805 -40.4557 -40.4557 -40.4469 -40.4202 -40.4198 -40.4156
   -40.3759 -40.3581 -40.3577 -40.3518 -40.2467 -40.2465 -40.1932 -40.1931
    -9.0050  -4.5677  -3.3574  -3.3574  -3.3443  -3.2525  -3.1068  -2.9911
    -2.9815  -2.9814  -2.7439  -2.7439  -2.7192  -2.3710  -2.3710  -2.3575
    -1.3078  -1.3078  -1.2002  -0.7356  -0.6410  -0.6410  -0.5102  -0.2818
    -0.2314  -0.2313   0.1635   0.1635   0.1962   0.1962   0.2153   0.3675
     0.4317   0.4318   0.9160   0.9162   1.1573   1.1573   1.3404   1.8246
     1.8247   1.8456   1.9654   1.9721   1.9721   2.3229   2.3229   2.4751
     2.5677   2.5677   3.1393   3.1394   3.2056   3.2056   3.2137   3.2184
     3.3736   3.3736   3.7209   3.7210   3.7279

[...]

          k =-0.0922 0.0532 0.0000 ( 15808 PWs)   bands (ev):

[...]

     the Fermi energy is     2.1633 ev

!    total energy              =   -2365.62821085 Ry
     Harris-Foulkes estimate   =   -2365.62821818 Ry
     estimated scf accuracy    <       0.00000342 Ry

     The total energy is the sum of the following terms:

     one-electron contribution =  -22075.10890363 Ry
     hartree contribution      =   11038.60215551 Ry
     xc contribution           =    -330.31933335 Ry
     ewald contribution        =    9001.29482176 Ry
     electric field correction =       0.00029994 Ry
     smearing contrib. (-TS)   =      -0.09725107 Ry

     convergence has been achieved in  26 iterations

 BEEF-vdW xc energy contributions
           1 :   -286.274397534142
           2 :    262.389790831607
           3 :   -221.131262132654
           4 :    172.794620125764
           5 :   -127.757187207409
           6 :    93.3624621593740
           7 :   -72.2820832809078
           8 :    62.6917471220393
           9 :   -59.9278296917986
          10 :    58.7978457292037
          11 :   -55.5896757521505
          12 :    49.0826054098423
          13 :   -40.3636054736705
          14 :    31.7546561739051
[...]

[...]

   This run was terminated on:   3:39: 6  21Jan2018

[...]

   This run was terminated on:   4: 0:43  21Jan2018

[...]

     Program PWSCF v.5.1rc2 (svn rev. 11289) starts on 21Jan2018 at  4: 0:49

[...]

   This run was terminated on:   4:21: 8  21Jan2018

[...]

     Program PWSCF v.5.1rc2 (svn rev. 11289) starts on 21Jan2018 at  4:40:36

[...]

   This run was terminated on:   5: 0:42  21Jan2018

[...]

     Program PWSCF v.5.1rc2 (svn rev. 11289) starts on 21Jan2018 at  5: 0:48

     Current dimensions of program PWSCF are:
     Max number of different atomic species (ntypx) = 10
     Max number of k-points (npk) =  40000
     Max angular momentum in pseudopotentials (lmaxx) =  3
     Presently stress not available with electric field

     IMPORTANT: XC functional enforced from input :
     Exchange-correlation      = BEEF-VDW ( 1  4 27 13 2)
     Any further DFT definition will be discarded
     Please, verify this is what you really want

     Subspace diagonalization in iterative solution of the eigenvalue problem:
     a serial algorithm will be used

     bravais-lattice index     =            0
     lattice parameter (alat)  =       1.8897  a.u.
     unit-cell volume          =    4198.3539 (a.u.)^3
     number of atoms/cell      =           13
     number of atomic types    =            2
     number of electrons       =       198.00
     number of Kohn-Sham states=          109
     kinetic-energy cutoff     =      36.7493  Ry
     charge density cutoff     =     367.4932  Ry
     convergence threshold     =      1.0E-05
     mixing beta               =       0.3000
     number of iterations used =           10  plain     mixing
     Exchange-correlation      = BEEF-VDW ( 1  4 27 13 2)
     nstep                     =           50

     celldm(1)=   1.889726  celldm(2)=   0.000000  celldm(3)=   0.000000
     celldm(4)=   0.000000  celldm(5)=   0.000000  celldm(6)=   0.000000

     crystal axes: (cart. coord. in units of alat)
               a(1) = (   5.422927   0.000000   0.000000 )
               a(2) = (   2.711463   4.696392   0.000000 )
               a(3) = (   0.000000   0.000000  24.427801 )

     reciprocal axes: (cart. coord. in units 2 pi/alat)
               b(1) = (  0.184402 -0.106465  0.000000 )
               b(2) = (  0.000000  0.212929  0.000000 )
               b(3) = (  0.000000  0.000000  0.040937 )

     PseudoPot. # 1 for Ru read from file:
     /afs/slac.stanford.edu/u/if/mamunm/psp/gbrv1.5pbe/Ru.UPF
     MD5 check sum: 7158a806dd851261a58e6920c40ebe78
     Pseudo is Ultrasoft + core correction, Zval = 16.0
     Generated by new atomic code, or converted to UPF format
     Using radial grid of  967 points,  6 beta functions with:
                l(1) =   0
                l(2) =   0
                l(3) =   1
                l(4) =   1
                l(5) =   2
                l(6) =   2
     Q(r) pseudized with  8 coefficients,  rinner =    1.300   1.300   1.300
                                                       1.300   1.300

     PseudoPot. # 2 for S  read from file:
     /afs/slac.stanford.edu/u/if/mamunm/psp/gbrv1.5pbe/S.UPF
     MD5 check sum: 88d86576ff6df21479756cfb9bdac1df
     Pseudo is Ultrasoft + core correction, Zval =  6.0
     Generated by new atomic code, or converted to UPF format
     Using radial grid of  907 points,  6 beta functions with:
                l(1) =   0
                l(2) =   0
                l(3) =   1
                l(4) =   1
                l(5) =   2
                l(6) =   2
     Q(r) pseudized with  8 coefficients,  rinner =    1.300   1.300   1.300
                                                       1.300   1.300

     vdW kernel table read from file vdW_kernel_table
     MD5 check sum: 095c7af220d748ca6e76c0b4c6cfb241

     atomic species   valence    mass     pseudopotential
        Ru1           16.00   101.07000     Ru( 1.00)
        S1             6.00    32.06000     S ( 1.00)

     No symmetry found

   Cartesian axes

     site n.     atom                  positions (alat units)
         1           Ru1 tau(   1) = (   1.3557316   0.7827320  10.0000000  )
         2           Ru1 tau(   2) = (   4.0671949   0.7827320  10.0000000  )
         3           Ru1 tau(   3) = (   2.7114633   3.1309281  10.0000000  )
         4           Ru1 tau(   4) = (   5.4229265   3.1309281  10.0000000  )
         5           Ru1 tau(   5) = (   5.4229265   1.5654640  12.2139005  )
         6           Ru1 tau(   6) = (   2.7114633   1.5654640  12.2139005  )
         7           Ru1 tau(   7) = (   6.7786581   3.9136601  12.2139005  )
         8           Ru1 tau(   8) = (   4.0671949   3.9136601  12.2139005  )
         9           Ru1 tau(   9) = (   0.0000886   0.0001155  14.3261646  )
        10           Ru1 tau(  10) = (   5.4229309   4.6792605  14.3135386  )
        11           Ru1 tau(  11) = (   6.7637784   2.3566124  14.3138614  )
        12           Ru1 tau(  12) = (   4.0820996   2.3566162  14.3139333  )
        13           S1  tau(  13) = (   5.4228451   0.0000520  16.4799287  )

     number of k points=    20  Fermi-Dirac smearing, width (Ry)=  0.0110
                       cart. coord. in units 2pi/alat
        k(    1) = (   0.0000000   0.0000000   0.0000000), wk =   0.0555556
        k(    2) = (   0.0000000   0.0354882   0.0000000), wk =   0.1111111
        k(    3) = (   0.0000000   0.0709765   0.0000000), wk =   0.1111111
        k(    4) = (   0.0000000  -0.1064647   0.0000000), wk =   0.0555556
        k(    5) = (   0.0307337  -0.0177441   0.0000000), wk =   0.1111111
        k(    6) = (   0.0307337   0.0177441   0.0000000), wk =   0.1111111
        k(    7) = (   0.0307337   0.0532324   0.0000000), wk =   0.1111111
        k(    8) = (   0.0307337  -0.1242088   0.0000000), wk =   0.1111111
        k(    9) = (   0.0307337  -0.0887206   0.0000000), wk =   0.1111111
        k(   10) = (   0.0307337  -0.0532324   0.0000000), wk =   0.1111111
        k(   11) = (   0.0614674  -0.0354882   0.0000000), wk =   0.1111111
        k(   12) = (   0.0614674   0.0000000   0.0000000), wk =   0.1111111
        k(   13) = (   0.0614674   0.0354882   0.0000000), wk =   0.1111111
        k(   14) = (   0.0614674  -0.1419529   0.0000000), wk =   0.1111111
        k(   15) = (   0.0614674  -0.1064647   0.0000000), wk =   0.1111111
        k(   16) = (   0.0614674  -0.0709765   0.0000000), wk =   0.1111111
        k(   17) = (  -0.0922011   0.0532324   0.0000000), wk =   0.0555556
        k(   18) = (  -0.0922011   0.0887206   0.0000000), wk =   0.1111111
        k(   19) = (  -0.0922011   0.1242088   0.0000000), wk =   0.1111111
        k(   20) = (  -0.0922011  -0.0532324   0.0000000), wk =   0.0555556

     Largest allocated arrays     est. size (Mb)     dimensions
     Largest temporary arrays     est. size (Mb)     dimensions

     Initial potential from superposition of free atoms
     Check: negative starting charge=   -0.877994

     starting charge  185.99978, renormalised to  198.00000

[...]

     *
     * You are using vdW-DF for exchange-correlation in this calculation.
     * Please cite the following three references that made this development
     * possible:
     *
     *   M. Dion, H. Rydberg, E. Schroder, D. C. Langreth, and
     *   B. I. Lundqvist, Phys. Rev. Lett. 92, 246401 (2004).
     *
     *   T. Thonhauser, V. R. Cooper, S. Li, A. Puzder, P. Hyldgaard, and
     *   D. C. Langreth, Phys. Rev. B 76, 125112 (2007).
     *
     *   G. Roman-Perez and J. M. Soler, Phys. Rev. Lett. 103, 096102 (2009).
     *
     *
     * If you are using vdW-DF2, please also cite:
     *
     *   K. Lee, E. D. Murray, L. Kong, B. I. Lundqvist, and
     *   D. C. Langreth, Phys. Rev. B 82, 081101(R) (2010).
     *
     *
     * If you are calculating the stress with vdW-DF, please also cite:
     *
     *   R. Sabatini, E. Kucukbenli, B. Kolb, T. Thonhauser, and
     *   S. de Gironcoli, J. Phys.: Condens. Matter 24, 424209 (2012).
     *

     Carrying out vdW-DF run using the following parameters:

     Nqs =      20    Nr_points =    1024   r_max =   100.000
     q_mesh =
               0.00001000     0.04494208     0.09755937     0.15916263
               0.23128650     0.31572767     0.41458969     0.53033537
               0.66584808     0.82450364     1.01025438     1.22772762
               1.48234092     1.78043706     2.12944203     2.53805004
               3.01644009     3.57652955     4.23227104     5.00000000

     Gradients computed in reciprocal space

[...]

     Starting wfc are  160 randomized atomic wfcs

     Self-consistent Calculation

[...]

     total energy              =   -2365.69603557 Ry
     Harris-Foulkes estimate   =   -2365.69604158 Ry
     estimated scf accuracy    <       0.00007327 Ry

     iteration # 25     ecut=    36.75 Ry     beta=0.30
     Davidson diagonalization with overlap
     ethr =  1.93E-08,  avg # of iterations =  1.9

[...]

     negative rho (up, down):  9.147E-01 0.000E+00

     Adding external electric field

     Computed dipole along edir(3) :
        Dipole               -0.1346 Ry au,         -0.3421 Debye
        Dipole field         -0.0004 Ry au

        Potential amp.        0.0363 Ry
        Total length         45.0078 bohr

     End of self-consistent calculation

[...]

          k = 0.0615-0.0710 0.0000 ( 15803 PWs)   bands (ev):

[...]

          k =-0.0922-0.0532 0.0000 ( 15808 PWs)   bands (ev):

   -70.8878 -70.8797 -70.8302 -70.8220 -70.7947 -70.4017 -70.3748 -70.3528
   -70.3138 -70.3039 -70.2622 -70.2549 -41.1643 -41.0952 -41.0654 -41.0137
   -40.9853 -40.9371 -40.8952 -40.8672 -40.8328 -40.8324 -40.6900 -40.6895
   -40.6355 -40.5710 -40.5489 -40.5450 -40.4484 -40.4336 -40.3720 -40.3299
   -40.3132 -40.2902 -40.2810 -40.2543 -40.2516 -40.2415 -40.2112 -40.2089
   -40.1952 -40.1648 -40.1562 -40.1555 -40.1478 -40.1057 -40.0044 -39.9966
    -9.7542  -2.9603  -2.9234  -2.4054  -2.3821  -2.3692  -2.3283  -2.1703
    -2.0533  -2.0007  -1.8884  -1.7978  -1.7568  -1.4849  -1.3621  -1.3583
    -1.3010  -1.1409  -1.0867  -0.9117  -0.8446  -0.7494  -0.6877  -0.4756
    -0.3775  -0.2259   0.0044   0.0251   0.1901   0.2704   0.3834   0.4514
     0.5166   0.5214   0.5951   0.5973   0.6848   0.7942   0.8135   0.8459
     0.8617   0.9795   1.3165   1.3767   1.4799   1.5803   1.7001   1.8764
     1.8835   2.0611   2.1157   2.1181   2.1987   2.2445   2.3634   2.3808
     2.7387   2.8011   2.8506   3.0593   3.2510

     the Fermi energy is     2.4182 ev

!    total energy              =   -2365.69603569 Ry
     Harris-Foulkes estimate   =   -2365.69604621 Ry
     estimated scf accuracy    <       0.00000310 Ry

     The total energy is the sum of the following terms:

     one-electron contribution =  -22578.76514536 Ry
     hartree contribution      =   11291.42450195 Ry
     xc contribution           =    -330.75205689 Ry
     ewald contribution        =    9252.48502714 Ry
     electric field correction =       0.00005422 Ry
     smearing contrib. (-TS)   =      -0.08841675 Ry

     convergence has been achieved in  25 iterations

 BEEF-vdW xc energy contributions
           1 :   -286.723194766021
           2 :    263.027480047761
           3 :   -222.008944754287
           4 :    173.788246835601
           5 :   -128.637288806805
           6 :    93.9135251966799
           7 :   -72.4088163005176
           8 :    62.4653677579416
           9 :   -59.5537253360492
          10 :    58.5219692041380
          11 :   -55.5872113227788
          12 :    49.3791287051893
          13 :   -40.8258734012541
          14 :    32.1577203280800
          15 :   -25.5919165984481
          16 :    22.2810533468735
          17 :   -21.9117215867446
          18 :    23.0233666010323
          19 :   -23.8066303753264
          20 :    22.9635567763572
          21 :   -20.2306916575501
          22 :    16.3628999649259
          23 :   -12.6460745590118
          24 :    10.2159737038737
          25 :   -9.52248714306091
          26 :    10.1781588145404
          27 :   -11.2250055200711
          28 :    11.6504253485026
          29 :   -10.8790772824319
          30 :    9.00586428288671
          31 :   -29.8856452394700
          32 :   -22.6262692786036

     Forces acting on atoms (Ry/au):

     negative rho (up, down):  9.147E-01 0.000E+00
     atom    1 type  1   force =     0.00272328    0.00161479    0.02133946
     atom    2 type  1   force =    -0.00271659    0.00157755    0.02146583
     atom    3 type  1   force =    -0.00003310   -0.00316337    0.02135516
     atom    4 type  1   force =     0.00003144   -0.00002032    0.01534145
     atom    5 type  1   force =     0.00007388    0.00156673   -0.01851050
     atom    6 type  1   force =    -0.00007307    0.00002806   -0.02613056
     atom    7 type  1   force =    -0.00132818   -0.00086379   -0.01845735
     atom    8 type  1   force =     0.00132694   -0.00078528   -0.01854520
     atom    9 type  1   force =    -0.00006316   -0.00004917    0.00062323
     atom   10 type  1   force =     0.00004799   -0.00045504    0.00050206
     atom   11 type  1   force =    -0.00036702    0.00028830    0.00034335
     atom   12 type  1   force =     0.00038304    0.00025665    0.00032003
     atom   13 type  2   force =    -0.00000545    0.00000489    0.00035304

     Total force =     0.057935     Total SCF correction =     0.012592
     SCF correction compared to forces is large: reduce conv_thr to get better values

     entering subroutine stress ...

     negative rho (up, down):  9.147E-01 0.000E+00
          total   stress  (Ry/bohr**3)                   (kbar)     P=  -18.63
  -0.00015041   0.00000004   0.00000001        -22.13      0.01      0.00
   0.00000004  -0.00015039   0.00000002          0.01    -22.12      0.00
   0.00000001   0.00000002  -0.00007911          0.00      0.00    -11.64

 !ASE

     Writing output data file calc.save

     General routines

     Parallel routines

   This run was terminated on:   5:21:21  21Jan2018

   JOB DONE.
Job  /afs/slac/g/suncat/bin/suncat-tsmpirun -x LD_LIBRARY_PATH -wdir /scratch/qe869931_br5v8 pw.x -in pw.inp

TID   HOST_NAME   COMMAND_LINE            STATUS            TERMINATION_TIME
00000 suncat0096 pw.x -in pw.inp   Done                     01/21/2018 05:21:21
00001 suncat0096 pw.x -in pw.inp   Done                     01/21/2018 05:21:21
00002 suncat0096 pw.x -in pw.inp   Done                     01/21/2018 05:21:21
00003 suncat0096 pw.x -in pw.inp   Done                     01/21/2018 05:21:21
00004 suncat0096 pw.x -in pw.inp   Done                     01/21/2018 05:21:21
00005 suncat0096 pw.x -in pw.inp   Done                     01/21/2018 05:21:21
00006 suncat0096 pw.x -in pw.inp   Done                     01/21/2018 05:21:21
00007 suncat0096 pw.x -in pw.inp   Done                     01/21/2018 05:21:21
00008 suncat0283 pw.x -in pw.inp   Done                     01/21/2018 05:21:21
00009 suncat0283 pw.x -in pw.inp   Done                     01/21/2018 05:21:21
00010 suncat0283 pw.x -in pw.inp   Done                     01/21/2018 05:21:21
00011 suncat0283 pw.x -in pw.inp   Done                     01/21/2018 05:21:21
00012 suncat0283 pw.x -in pw.inp   Done                     01/21/2018 05:21:21
00013 suncat0283 pw.x -in pw.inp   Done                     01/21/2018 05:21:21
00014 suncat0283 pw.x -in pw.inp   Done                     01/21/2018 05:21:21
00015 suncat0283 pw.x -in pw.inp   Done                     01/21/2018 05:21:21
00016 suncat0282 pw.x -in pw.inp   Done                     01/21/2018 05:21:21
00017 suncat0282 pw.x -in pw.inp   Done                     01/21/2018 05:21:21
00018 suncat0282 pw.x -in pw.inp   Done                     01/21/2018 05:21:21
00019 suncat0282 pw.x -in pw.inp   Done                     01/21/2018 05:21:21
00020 suncat0282 pw.x -in pw.inp   Done                     01/21/2018 05:21:21
00021 suncat0282 pw.x -in pw.inp   Done                     01/21/2018 05:21:21
00022 suncat0282 pw.x -in pw.inp   Done                     01/21/2018 05:21:21
00023 suncat0282 pw.x -in pw.inp   Done                     01/21/2018 05:21:21
00024 suncat0272 pw.x -in pw.inp   Done                     01/21/2018 05:21:21
00025 suncat0272 pw.x -in pw.inp   Done                     01/21/2018 05:21:21
00026 suncat0272 pw.x -in pw.inp   Done                     01/21/2018 05:21:21
00027 suncat0272 pw.x -in pw.inp   Done                     01/21/2018 05:21:21
00028 suncat0272 pw.x -in pw.inp   Done                     01/21/2018 05:21:21
00029 suncat0272 pw.x -in pw.inp   Done                     01/21/2018 05:21:21
00030 suncat0272 pw.x -in pw.inp   Done                     01/21/2018 05:21:21
00031 suncat0272 pw.x -in pw.inp   Done                     01/21/2018 05:21:21