     Program PWSCF v.5.1rc2 (svn rev. 11289) starts on 16Apr2018 at 13:37:14

     Current dimensions of program PWSCF are:
     Max number of different atomic species (ntypx) = 10
     Max number of k-points (npk) =  40000
     Max angular momentum in pseudopotentials (lmaxx) =  3
     Presently stress not available with electric field

     IMPORTANT: XC functional enforced from input :
     Exchange-correlation      = BEEF-VDW ( 1  4 27 13 2)
     Any further DFT definition will be discarded
     Please, verify this is what you really want

     Subspace diagonalization in iterative solution of the eigenvalue problem:
     a serial algorithm will be used

     bravais-lattice index     =            0
     lattice parameter (alat)  =       1.8897  a.u.
     unit-cell volume          =    5739.2980 (a.u.)^3
     number of atoms/cell      =           14
     number of atomic types    =            3
     number of electrons       =       150.00
     number of Kohn-Sham states=           85
     kinetic-energy cutoff     =      36.7493  Ry
     charge density cutoff     =     367.4932  Ry
     convergence threshold     =      1.0E-05
     mixing beta               =       0.3000
     number of iterations used =           10  plain     mixing
     Exchange-correlation      = BEEF-VDW ( 1  4 27 13 2)
     nstep                     =           50

     celldm(1)=   1.889726  celldm(2)=   0.000000  celldm(3)=   0.000000
     celldm(4)=   0.000000  celldm(5)=   0.000000  celldm(6)=   0.000000

     crystal axes: (cart. coord. in units of alat)
               a(1) = (   6.254208   0.000000   0.000000 )
               a(2) = (   3.127104   5.416303   0.000000 )
               a(3) = (   0.000000   0.000000  25.106540 )

     reciprocal axes: (cart. coord. in units 2 pi/alat)
               b(1) = (  0.159892 -0.092314  0.000000 )
               b(2) = (  0.000000  0.184628  0.000000 )
               b(3) = (  0.000000  0.000000  0.039830 )

     PseudoPot. # 1 for Cd read from file:
     /u/if/mamunm/psp/gbrv1.5pbe/Cd.UPF
     MD5 check sum: 17164a7926edb8e0dc231208abae86a6
     Pseudo is Ultrasoft + core correction, Zval = 12.0
     Generated by new atomic code, or converted to UPF format
     Using radial grid of  889 points,  6 beta functions with:
                l(1) =   0
                l(2) =   0
                l(3) =   1
                l(4) =   1
                l(5) =   2
                l(6) =   2
     Q(r) pseudized with  6 coefficients,  rinner =    1.000   1.000   1.000
                                                       1.000   1.000

     PseudoPot. # 2 for N  read from file:
     /u/if/mamunm/psp/gbrv1.5pbe/N.UPF
     MD5 check sum: 95339753478d7afb44899504a8723017
     Pseudo is Ultrasoft + core correction, Zval =  5.0
     Generated by new atomic code, or converted to UPF format
     Using radial grid of  729 points,  4 beta functions with:
                l(1) =   0
                l(2) =   0
                l(3) =   1
                l(4) =   1
     Q(r) pseudized with  8 coefficients,  rinner =    0.900   0.900   0.900

     PseudoPot. # 3 for H  read from file:
     /u/if/mamunm/psp/gbrv1.5pbe/H.UPF
     MD5 check sum: 761ae9a214b05c3daf00ab9f6b793d6f
     Pseudo is Ultrasoft, Zval =  1.0
     Generated by new atomic code, or converted to UPF format
     Using radial grid of  615 points,  2 beta functions with:
                l(1) =   0
                l(2) =   0
     Q(r) pseudized with  8 coefficients,  rinner =    0.700

     vdW kernel table read from file vdW_kernel_table
     MD5 check sum: 095c7af220d748ca6e76c0b4c6cfb241

     atomic species   valence    mass     pseudopotential
        Cd1           12.00   112.41400     Cd( 1.00)
        N1             5.00    14.00700     N ( 1.00)
        H1             1.00     1.00800     H ( 1.00)

     No symmetry found

   Cartesian axes

     site n.     atom                  positions (alat units)
         1           Cd1 tau(   1) = (   1.5635521   0.9027172  10.0000000  )
         2           Cd1 tau(   2) = (   4.6906562   0.9027172  10.0000000  )
         3           Cd1 tau(   3) = (   3.1271041   3.6108688  10.0000000  )
         4           Cd1 tau(   4) = (   6.2542083   3.6108688  10.0000000  )
         5           Cd1 tau(   5) = (   6.2542083   1.8054344  12.5532698  )
         6           Cd1 tau(   6) = (   3.1271041   1.8054344  12.5532698  )
         7           Cd1 tau(   7) = (   7.8177603   4.5135860  12.5532698  )
         8           Cd1 tau(   8) = (   4.6906562   4.5135860  12.5532698  )
         9           Cd1 tau(   9) = (   0.0000000   0.0000000  15.1065397  )
        10           Cd1 tau(  10) = (   3.1271041   0.0000000  15.1065397  )
        11           Cd1 tau(  11) = (   1.5635521   2.7081516  15.1065397  )
        12           Cd1 tau(  12) = (   4.6906562   2.7081516  15.1065397  )
        13           N1  tau(  13) = (   3.1271041   1.8054344  16.5040397  )
        14           H1  tau(  14) = (   3.1271041   1.8054344  17.5540397  )

     number of k points=    20  Fermi-Dirac smearing, width (Ry)=  0.0110
                       cart. coord. in units 2pi/alat
        k(    1) = (   0.0000000   0.0000000   0.0000000), wk =   0.0555556
        k(    2) = (   0.0000000   0.0307713   0.0000000), wk =   0.1111111
        k(    3) = (   0.0000000   0.0615426   0.0000000), wk =   0.1111111
        k(    4) = (   0.0000000  -0.0923139   0.0000000), wk =   0.0555556
        k(    5) = (   0.0266487  -0.0153856   0.0000000), wk =   0.1111111
        k(    6) = (   0.0266487   0.0153856   0.0000000), wk =   0.1111111
        k(    7) = (   0.0266487   0.0461569   0.0000000), wk =   0.1111111
        k(    8) = (   0.0266487  -0.1076995   0.0000000), wk =   0.1111111
        k(    9) = (   0.0266487  -0.0769282   0.0000000), wk =   0.1111111
        k(   10) = (   0.0266487  -0.0461569   0.0000000), wk =   0.1111111
        k(   11) = (   0.0532974  -0.0307713   0.0000000), wk =   0.1111111
        k(   12) = (   0.0532974   0.0000000   0.0000000), wk =   0.1111111
        k(   13) = (   0.0532974   0.0307713   0.0000000), wk =   0.1111111
        k(   14) = (   0.0532974  -0.1230852   0.0000000), wk =   0.1111111
        k(   15) = (   0.0532974  -0.0923139   0.0000000), wk =   0.1111111
        k(   16) = (   0.0532974  -0.0615426   0.0000000), wk =   0.1111111
        k(   17) = (  -0.0799462   0.0461569   0.0000000), wk =   0.0555556
        k(   18) = (  -0.0799462   0.0769282   0.0000000), wk =   0.1111111
        k(   19) = (  -0.0799462   0.1076995   0.0000000), wk =   0.1111111
        k(   20) = (  -0.0799462  -0.0461569   0.0000000), wk =   0.0555556

     Largest allocated arrays     est. size (Mb)     dimensions
     Largest temporary arrays     est. size (Mb)     dimensions

     Initial potential from superposition of free atoms
     Check: negative starting charge=   -0.257814

     starting charge  143.99949, renormalised to  150.00000

     negative rho (up, down):  2.686E-01 0.000E+00

     *
     * You are using vdW-DF for exchange-correlation in this calculation.
     * Please cite the following three references that made this development
     * possible:
     *
     *   M. Dion, H. Rydberg, E. Schroder, D. C. Langreth, and
     *   B. I. Lundqvist, Phys. Rev. Lett. 92, 246401 (2004).
     *
     *   T. Thonhauser, V. R. Cooper, S. Li, A. Puzder, P. Hyldgaard, and
     *   D. C. Langreth, Phys. Rev. B 76, 125112 (2007).
     *
     *   G. Roman-Perez and J. M. Soler, Phys. Rev. Lett. 103, 096102 (2009).
     *
     *
     * If you are using vdW-DF2, please also cite:
     *
     *   K. Lee, E. D. Murray, L. Kong, B. I. Lundqvist, and
     *   D. C. Langreth, Phys. Rev. B 82, 081101(R) (2010).
     *
     *
     * If you are calculating the stress with vdW-DF, please also cite:
     *
     *   R. Sabatini, E. Kucukbenli, B. Kolb, T. Thonhauser, and
     *   S. de Gironcoli, J. Phys.: Condens. Matter 24, 424209 (2012).
     *

     Carrying out vdW-DF run using the following parameters:

     Nqs =      20    Nr_points =    1024   r_max =   100.000
     q_mesh =
               0.00001000     0.04494208     0.09755937     0.15916263
               0.23128650     0.31572767     0.41458969     0.53033537
               0.66584808     0.82450364     1.01025438     1.22772762
               1.48234092     1.78043706     2.12944203     2.53805004
               3.01644009     3.57652955     4.23227104     5.00000000

     Gradients computed in reciprocal space

     Adding external electric field

     Computed dipole along edir(3) :
        Dipole               -1.9492 Ry au,         -4.9543 Debye
        Dipole field         -0.0043 Ry au

        Potential amp.        0.3948 Ry
        Total length         46.2584 bohr

     Starting wfc are  113 randomized atomic wfcs

     Self-consistent Calculation

     iteration #  1     ecut=    36.75 Ry     beta=0.30
     Davidson diagonalization with overlap
     ethr =  1.00E-02,  avg # of iterations =  5.5

[...]

     total energy              =   -1410.58654299 Ry
     Harris-Foulkes estimate   =   -1415.08212626 Ry
     estimated scf accuracy    <       9.38947298 Ry

[...]

     End of self-consistent calculation

          k = 0.0000 0.0000 0.0000 ( 21643 PWs)   bands (ev):

   -13.9131  -9.2908  -9.2841  -9.2841  -9.1450  -9.1450  -9.1414  -9.1286
    -9.0333  -9.0313  -9.0310  -8.9643  -8.9317  -8.9316  -8.8222  -8.7563
    -8.7563  -8.7273  -8.7121  -8.7120  -8.7012  -8.6280  -8.6279  -8.6073
    -8.6072  -8.6068  -8.5910  -8.5910  -8.5417  -8.4706  -8.4706  -8.2796
    -8.2796  -8.1854  -8.1851  -8.1591  -8.1362  -8.1201  -8.1195  -8.0745
    -8.0744  -8.0514  -8.0512  -8.0295  -8.0021  -8.0021  -7.9903  -7.9446
    -7.9445  -7.9115  -7.8891  -7.8891  -7.8753  -7.8295  -7.8294  -7.7952
    -7.7925  -7.7920  -7.6803  -7.6803  -7.6285  -7.6267  -5.9711  -4.3374
    -2.6816  -1.9524  -1.9524  -1.5900  -1.3402  -1.3401  -1.1309  -1.1308
    -1.1051  -0.3906  -0.3413  -0.3413   0.5079   0.8822   0.9981   0.9982
     2.0824   2.4594   2.4595   2.9365   3.3200

[...]

          k =-0.0799 0.0462 0.0000 ( 21576 PWs)   bands (ev):

[...]

     the Fermi energy is     0.6375 ev

!    total energy              =   -1414.47924912 Ry
     Harris-Foulkes estimate   =   -1414.47925626 Ry
     estimated scf accuracy    <       0.00000724 Ry

     The total energy is the sum of the following terms:

     one-electron contribution =   -9081.41366441 Ry
     hartree contribution      =    4636.14911529 Ry
     xc contribution           =    -496.02402958 Ry
     ewald contribution        =    3526.83871213 Ry
     electric field correction =       0.00000066 Ry
     smearing contrib. (-TS)   =      -0.02938320 Ry

     convergence has been achieved in  15 iterations

 BEEF-vdW xc energy contributions
           1 :   -434.494154298862
           2 :    397.340917154775
           3 :   -334.678524986962
           4 :    264.311290763833
           5 :   -202.637938194672
           6 :    158.831292220094
           7 :   -133.122753116840
           8 :    119.317063757548
           9 :   -109.588291363658
          10 :    98.7510265121714
          11 :   -85.9660132517957
          12 :    73.5874289593247
          13 :   -64.4964069973020
          14 :    59.8381709340624
          15 :   -58.4231100021223
          16 :    57.7822576983898
          17 :   -55.8696259372629
          18 :    52.2010442937998
          19 :   -47.8075325306073
          20 :    44.2491098985432
          21 :   -42.4830061432997
          22 :    42.3227877884285
          23 :   -42.7196448490060
          24 :    42.5370580330946
          25 :   -41.2460481655112
          26 :    39.1276317496182
          27 :   -36.9527073240299
          28 :    35.4323660719382
          29 :   -34.8101513410911
          30 :    34.8048967618212
          31 :   -39.2975116097604
          32 :   -28.6773008762732

     Forces acting on atoms (Ry/au):

     negative rho (up, down):  2.669E-01 0.000E+00
     atom    1 type  1   force =    -0.00002692   -0.00006904   -0.01712267
     atom    2 type  1   force =     0.00002707   -0.00002288   -0.01728027
     atom    3 type  1   force =    -0.00016661    0.00005365   -0.01717370
     atom    4 type  1   force =     0.00003985    0.00005200   -0.01669979
     atom    5 type  1   force =     0.00003299    0.00125174    0.00275027
     atom    6 type  1   force =    -0.00000772   -0.00003000    0.00595891
     atom    7 type  1   force =    -0.00110603   -0.00061549    0.00276676
     atom    8 type  1   force =     0.00112389   -0.00060378    0.00279256
     atom    9 type  1   force =    -0.00001032    0.00000337    0.01252829
     atom   10 type  1   force =     0.00003519   -0.01727393    0.02887025
     atom   11 type  1   force =    -0.01493645    0.00863339    0.02888595
     atom   12 type  1   force =     0.01496599    0.00862230    0.02884117
     atom   13 type  2   force =     0.00001463   -0.00000058   -0.00610896
     atom   14 type  3   force =     0.00001445   -0.00000075   -0.03900876

     Total force =     0.071484     Total SCF correction =     0.003517

     entering subroutine stress ...

     negative rho (up, down):  2.669E-01 0.000E+00
          total   stress  (Ry/bohr**3)                   (kbar)     P=    3.95
   0.00001621  -0.00000000  -0.00000000          2.38     -0.00     -0.00
  -0.00000000   0.00001621   0.00000000         -0.00      2.38      0.00
  -0.00000000   0.00000000   0.00004823         -0.00      0.00      7.10

     BFGS Geometry Optimization

     number of scf cycles    =   1
     number of bfgs steps    =   0

     energy   new            =   -1414.4792491228 Ry

     new trust radius        =       0.0390087620 bohr
     new conv_thr            =       0.0000099958 Ry

ATOMIC_POSITIONS (crystal)
Cd1      0.166666667   0.166666667   0.398302599    0   0   0
Cd1      0.666666667   0.166666667   0.398302599    0   0   0
Cd1      0.166666667   0.666666667   0.398302599    0   0   0
Cd1      0.666666667   0.666666667   0.398302599    0   0   0
Cd1      0.833333333   0.333333333   0.500000000    0   0   0
Cd1      0.333333333   0.333333333   0.500000000    0   0   0
Cd1      0.833333333   0.833333333   0.500000000    0   0   0
Cd1      0.333333333   0.833333333   0.500000000    0   0   0
Cd1     -0.000001038   0.000000329   0.601961463
Cd1      0.500846816  -0.001687677   0.602305907
Cd1     -0.001685538   0.500843489   0.602306238
Cd1      0.500845090   0.500842406   0.602305294
N1       0.333334599   0.333333277   0.657231429
H1       0.333334593   0.333333260   0.698359764

     Writing output data file calc.save
     Check: negative starting charge=   -0.257814
     NEW-OLD atomic charge density approx. for the potential
     Check: negative starting charge=   -0.258182

[...]

     energy   old            =   -1414.4792491227 Ry
     energy   new            =   -1414.4838463116 Ry

     CASE: energy  _new < energy  _old

     WARNING: bfgs curvature condition failed, Theta= 0.999
     new trust radius        =       0.0429096382 bohr
     new conv_thr            =       0.0000001000 Ry

[...]

     CASE: energy  _new > energy  _old

[...]

     Total force =     0.005672     Total SCF correction =     0.000555

[...]

     number of scf cycles    =  20
     number of bfgs steps    =  18

     energy   old            =   -1414.5251135950 Ry
     energy   new            =   -1414.5253711233 Ry

     CASE: energy  _new < energy  _old

     new trust radius        =       0.0555815829 bohr
     new conv_thr            =       0.0000001000 Ry

ATOMIC_POSITIONS (crystal)
Cd1      0.166666667   0.166666667   0.398302599    0   0   0
Cd1      0.666666667   0.166666667   0.398302599    0   0   0
Cd1      0.166666667   0.666666667   0.398302599    0   0   0
Cd1      0.666666667   0.666666667   0.398302599    0   0   0
Cd1      0.833333333   0.333333333   0.500000000    0   0   0
Cd1      0.333333333   0.333333333   0.500000000    0   0   0
Cd1      0.833333333   0.833333333   0.500000000    0   0   0
Cd1      0.333333333   0.833333333   0.500000000    0   0   0
Cd1      0.000079579  -0.000028391   0.604924845
Cd1      0.515379542  -0.030829668   0.621320412
Cd1     -0.030842326   0.515401874   0.621320908
Cd1      0.515390160   0.515433606   0.621311305
N1       0.333345090   0.333337907   0.658425664
H1       0.333403596   0.333334301   0.699256895

     Writing output data file calc.save
     Check: negative starting charge=   -0.258683
     NEW-OLD atomic charge density approx. for the potential
     Check: negative starting charge=   -0.258578

[...]

     Self-consistent Calculation

[...]

     total energy              =   -1414.52539313 Ry
     Harris-Foulkes estimate   =   -1414.52539306 Ry
     estimated scf accuracy    <       0.00000013 Ry

     iteration #  9     ecut=    36.75 Ry     beta=0.30
     Davidson diagonalization with overlap
     ethr =  8.78E-11,  avg # of iterations =  3.4

[...]

     negative rho (up, down):  2.675E-01 0.000E+00

     Adding external electric field

     Computed dipole along edir(3) :
        Dipole                0.1300 Ry au,          0.3305 Debye
        Dipole field          0.0003 Ry au

        Potential amp.       -0.0263 Ry
        Total length         46.2584 bohr

     End of self-consistent calculation

[...]

          k = 0.0533-0.0615 0.0000 ( 21571 PWs)   bands (ev):

[...]

          k =-0.0799-0.0462 0.0000 ( 21576 PWs)   bands (ev):

   -14.5182  -8.7999  -8.7822  -8.7148  -8.7076  -8.6709  -8.6543  -8.6450
    -8.6128  -8.6027  -8.5896  -8.5850  -8.5064  -8.4838  -8.4782  -8.4509
    -8.4431  -8.4343  -8.4268  -8.3588  -8.3468  -8.3239  -8.3202  -8.3019
    -8.2768  -8.2629  -8.2305  -8.2219  -8.2049  -8.1852  -8.1778  -8.1697
    -8.1108  -8.1075  -8.0905  -8.0663  -8.0613  -8.0574  -8.0547  -8.0198
    -8.0178  -8.0040  -7.9878  -7.9829  -7.9620  -7.9599  -7.9351  -7.9192
    -7.8769  -7.8658  -7.8414  -7.8371  -7.8170  -7.7633  -7.7517  -7.7295
    -7.7001  -7.6717  -7.6582  -7.6098  -7.4900  -5.6779  -5.6226  -4.8388
    -4.4076  -3.1948  -2.7730  -2.4563  -2.3591  -2.1360  -1.6875  -0.7656
    -0.1645   0.0670   1.0972   1.5141   1.6323   2.2567   3.1499   3.1568
     3.5126   3.5159   3.7592   3.9834   4.2543

     the Fermi energy is     0.8635 ev

!    total energy              =   -1414.52539316 Ry
     Harris-Foulkes estimate   =   -1414.52539303 Ry
     estimated scf accuracy    <       0.00000002 Ry

     The total energy is the sum of the following terms:

     one-electron contribution =   -8627.33368244 Ry
     hartree contribution      =    4410.11730162 Ry
     xc contribution           =    -495.97728739 Ry
     ewald contribution        =    3298.69146079 Ry
     electric field correction =       0.00003703 Ry
     smearing contrib. (-TS)   =      -0.02322278 Ry

     convergence has been achieved in   9 iterations

 BEEF-vdW xc energy contributions
           1 :   -434.435738170665
           2 :    397.172836440771
           3 :   -334.370541957166
           4 :    263.944551167507
           5 :   -202.346176440139
           6 :    158.693032958112
           7 :   -133.100185616912
           8 :    119.291806231850
           9 :   -109.461923390540
          10 :    98.5258029921438
          11 :   -85.7393472519351
          12 :    73.4677348026848
          13 :   -64.5120851348380
          14 :    59.9154790541943
          15 :   -58.4517062669444
          16 :    57.7120034250767
          17 :   -55.7540948537738
          18 :    52.1500948891795
          19 :   -47.8890196199104
          20 :    44.4220902553790
          21 :   -42.6206414465322
          22 :    42.3103776759823
          23 :   -42.5496314233433
          24 :    42.3224186435971
          25 :   -41.1374710833283
          26 :    39.1976529270914
          27 :   -37.1380886038509
          28 :    35.5802873507562
          29 :   -34.7937896443077
          30 :    34.6202010011979
          31 :   -39.2885245219359
          32 :   -28.6369707487530

     Forces acting on atoms (Ry/au):

     negative rho (up, down):  2.675E-01 0.000E+00
     atom    1 type  1   force =     0.00001429    0.00000855   -0.01908769
     atom    2 type  1   force =    -0.00001445    0.00000854   -0.01908746
     atom    3 type  1   force =    -0.00000013   -0.00001688   -0.01908730
     atom    4 type  1   force =     0.00000021   -0.00000015   -0.01744197
     atom    5 type  1   force =    -0.00000180    0.00369668    0.01831980
     atom    6 type  1   force =     0.00000058   -0.00000034    0.02083099
     atom    7 type  1   force =    -0.00320073   -0.00184602    0.01832448
     atom    8 type  1   force =     0.00320613   -0.00185123    0.01830605
     atom    9 type  1   force =    -0.00006203    0.00001660   -0.00034194
     atom   10 type  1   force =     0.00004935   -0.00007688   -0.00013523
     atom   11 type  1   force =    -0.00005123    0.00004890   -0.00012107
     atom   12 type  1   force =     0.00008166    0.00000937   -0.00014548
     atom   13 type  2   force =    -0.00000448   -0.00000070   -0.00060537
     atom   14 type  3   force =    -0.00001737    0.00000357    0.00027218

     Total force =     0.000798     Total SCF correction =     0.000350
     SCF correction compared to forces is large: reduce conv_thr to get better values

     entering subroutine stress ...

     negative rho (up, down):  2.675E-01 0.000E+00
          total   stress  (Ry/bohr**3)                   (kbar)     P=    2.03
   0.00000423   0.00000001  -0.00000001          0.62      0.00     -0.00
   0.00000001   0.00000423   0.00000000          0.00      0.62      0.00
  -0.00000001   0.00000000   0.00003300         -0.00      0.00      4.85

     bfgs converged in  21 scf cycles and  19 bfgs steps
     (criteria: energy <  1.0E+00, force <  1.9E-03)

     End of BFGS Geometry Optimization

     Final energy   =   -1414.5253931646 Ry
Begin final coordinates

ATOMIC_POSITIONS (crystal)
Cd1      0.166666667   0.166666667   0.398302599    0   0   0
Cd1      0.666666667   0.166666667   0.398302599    0   0   0
Cd1      0.166666667   0.666666667   0.398302599    0   0   0
Cd1      0.666666667   0.666666667   0.398302599    0   0   0
Cd1      0.833333333   0.333333333   0.500000000    0   0   0
Cd1      0.333333333   0.333333333   0.500000000    0   0   0
Cd1      0.833333333   0.833333333   0.500000000    0   0   0
Cd1      0.333333333   0.833333333   0.500000000    0   0   0
Cd1      0.000079579  -0.000028391   0.604924845
Cd1      0.515379542  -0.030829668   0.621320412
Cd1     -0.030842326   0.515401874   0.621320908
Cd1      0.515390160   0.515433606   0.621311305
N1       0.333345090   0.333337907   0.658425664
H1       0.333403596   0.333334301   0.699256895
End final coordinates

     Writing output data file calc.save

     General routines

     Parallel routines

   This run was terminated on:  15:45:26  16Apr2018

   JOB DONE.
Job  /afs/slac/g/suncat/bin/suncat-tsmpirun -x LD_LIBRARY_PATH -wdir /scratch/qe132019_PmTV6 pw.x -npool 4 -in pw.inp

TID   HOST_NAME   COMMAND_LINE            STATUS            TERMINATION_TIME
00000 suncat0087 pw.x -npool 4 -i  Done                     04/16/2018 15:45:26
00001 suncat0087 pw.x -npool 4 -i  Done                     04/16/2018 15:45:26
00002 suncat0087 pw.x -npool 4 -i  Done                     04/16/2018 15:45:26
00003 suncat0087 pw.x -npool 4 -i  Done                     04/16/2018 15:45:26
00004 suncat0087 pw.x -npool 4 -i  Done                     04/16/2018 15:45:26
00005 suncat0087 pw.x -npool 4 -i  Done                     04/16/2018 15:45:26
00006 suncat0087 pw.x -npool 4 -i  Done                     04/16/2018 15:45:26
00007 suncat0087 pw.x -npool 4 -i  Done                     04/16/2018 15:45:26
00008 suncat0086 pw.x -npool 4 -i  Done                     04/16/2018 15:45:26
00009 suncat0086 pw.x -npool 4 -i  Done                     04/16/2018 15:45:26
00010 suncat0086 pw.x -npool 4 -i  Done                     04/16/2018 15:45:26
00011 suncat0086 pw.x -npool 4 -i  Done                     04/16/2018 15:45:26
00012 suncat0086 pw.x -npool 4 -i  Done                     04/16/2018 15:45:26
00013 suncat0086 pw.x -npool 4 -i  Done                     04/16/2018 15:45:26
00014 suncat0086 pw.x -npool 4 -i  Done                     04/16/2018 15:45:26
00015 suncat0086 pw.x -npool 4 -i  Done                     04/16/2018 15:45:26
00016 suncat0046 pw.x -npool 4 -i  Done                     04/16/2018 15:45:26
00017 suncat0046 pw.x -npool 4 -i  Done                     04/16/2018 15:45:26
00018 suncat0046 pw.x -npool 4 -i  Done                     04/16/2018 15:45:26
00019 suncat0046 pw.x -npool 4 -i  Done                     04/16/2018 15:45:26
00020 suncat0046 pw.x -npool 4 -i  Done                     04/16/2018 15:45:26
00021 suncat0046 pw.x -npool 4 -i  Done                     04/16/2018 15:45:26
00022 suncat0046 pw.x -npool 4 -i  Done                     04/16/2018 15:45:26
00023 suncat0046 pw.x -npool 4 -i  Done                     04/16/2018 15:45:26
00024 suncat0036 pw.x -npool 4 -i  Done                     04/16/2018 15:45:26
00025 suncat0036 pw.x -npool 4 -i  Done                     04/16/2018 15:45:26
00026 suncat0036 pw.x -npool 4 -i  Done                     04/16/2018 15:45:26
00027 suncat0036 pw.x -npool 4 -i  Done                     04/16/2018 15:45:26
00028 suncat0036 pw.x -npool 4 -i  Done                     04/16/2018 15:45:26
00029 suncat0036 pw.x -npool 4 -i  Done                     04/16/2018 15:45:26
00030 suncat0036 pw.x -npool 4 -i  Done                     04/16/2018 15:45:26
00031 suncat0036 pw.x -npool 4 -i  Done                     04/16/2018 15:45:26