     Program PWSCF v.5.1rc2 (svn rev. 11289) starts on  2May2018 at 14:18:58

     Current dimensions of program PWSCF are:
     Max number of different atomic species (ntypx) = 10
     Max number of k-points (npk) =  40000
     Max angular momentum in pseudopotentials (lmaxx) =  3
     Presently stress not available with electric field

     IMPORTANT: XC functional enforced from input :
     Exchange-correlation      = BEEF-VDW ( 1  4 27 13 2)
     Any further DFT definition will be discarded
     Please, verify this is what you really want

     Subspace diagonalization in iterative solution of the eigenvalue problem:
     a serial algorithm will be used

     bravais-lattice index     =            0
     lattice parameter (alat)  =       1.8897  a.u.
     unit-cell volume          =    6116.8020 (a.u.)^3
     number of atoms/cell      =           13
     number of atomic types    =            2
     number of electrons       =       136.00
     number of Kohn-Sham states=           78
     kinetic-energy cutoff     =      36.7493  Ry
     charge density cutoff     =     367.4932  Ry
     convergence threshold     =      1.0E-05
     mixing beta               =       0.3000
     number of iterations used =           10  plain     mixing
     Exchange-correlation      = BEEF-VDW ( 1  4 27 13 2)
     nstep                     =           50

     celldm(1)=   1.889726  celldm(2)=   0.000000  celldm(3)=   0.000000
     celldm(4)=   0.000000  celldm(5)=   0.000000  celldm(6)=   0.000000

     crystal axes: (cart. coord. in units of alat)
               a(1) = (   6.437465   0.000000   0.000000 )
               a(2) = (   3.218732   5.575008   0.000000 )
               a(3) = (   0.000000   0.000000  25.256168 )

     reciprocal axes: (cart. coord. in units 2 pi/alat)
               b(1) = (  0.155341 -0.089686  0.000000 )
               b(2) = (  0.000000  0.179372  0.000000 )
               b(3) = (  0.000000  0.000000  0.039594 )

     PseudoPot. # 1 for Sc read from file:
     /u/if/mamunm/psp/gbrv1.5pbe/Sc.UPF
     MD5 check sum: db30a2753ba66ef00f23801d899b7e7f
     Pseudo is Ultrasoft + core correction, Zval = 11.0
     Generated by new atomic code, or converted to UPF format
     Using radial grid of  849 points,  6 beta functions with:
                l(1) =   0
                l(2) =   0
                l(3) =   1
                l(4) =   1
                l(5) =   2
                l(6) =   2
     Q(r) pseudized with  6 coefficients,  rinner =    1.200   1.200   1.200
                                                       1.200   1.200

     PseudoPot. # 2 for C  read from file:
     /u/if/mamunm/psp/gbrv1.5pbe/C.UPF
     MD5 check sum: d1aef80898a10debaa0f26306b886e00
     Pseudo is Ultrasoft + core correction, Zval =  4.0
     Generated by new atomic code, or converted to UPF format
     Using radial grid of  721 points,  4 beta functions with:
                l(1) =   0
                l(2) =   0
                l(3) =   1
                l(4) =   1
     Q(r) pseudized with  8 coefficients,  rinner =    1.100   1.100   1.100

     vdW kernel table read from file vdW_kernel_table
     MD5 check sum: 095c7af220d748ca6e76c0b4c6cfb241

     atomic species   valence    mass     pseudopotential
        Sc1           11.00    44.95591     Sc( 1.00)
        C1             4.00    12.01100     C ( 1.00)

     No symmetry found

   Cartesian axes

     site n.     atom                  positions (alat units)
         1           Sc1 tau(   1) = (   1.6093662   0.9291680  10.0000000  )
         2           Sc1 tau(   2) = (   4.8280986   0.9291680  10.0000000  )
         3           Sc1 tau(   3) = (   3.2187324   3.7166720  10.0000000  )
         4           Sc1 tau(   4) = (   6.4374648   3.7166720  10.0000000  )
         5           Sc1 tau(   5) = (   6.4374648   1.8583360  12.6280840  )
         6           Sc1 tau(   6) = (   3.2187324   1.8583360  12.6280840  )
         7           Sc1 tau(   7) = (   8.0468310   4.6458400  12.6280840  )
         8           Sc1 tau(   8) = (   4.8280986   4.6458400  12.6280840  )
         9           Sc1 tau(   9) = (   0.0000000   0.0000000  15.2561680  )
        10           Sc1 tau(  10) = (   3.2187324   0.0000000  15.2561680  )
        11           Sc1 tau(  11) = (   1.6093662   2.7875040  15.2561680  )
        12           Sc1 tau(  12) = (   4.8280986   2.7875040  15.2561680  )
        13           C1  tau(  13) = (   0.0000000   0.0000000  17.3471680  )

     number of k points=    20  Fermi-Dirac smearing, width (Ry)=  0.0110
                       cart. coord. in units 2pi/alat
        k(    1) = (   0.0000000   0.0000000   0.0000000), wk =   0.0555556
        k(    2) = (   0.0000000   0.0298953   0.0000000), wk =   0.1111111
        k(    3) = (   0.0000000   0.0597906   0.0000000), wk =   0.1111111
        k(    4) = (   0.0000000  -0.0896860   0.0000000), wk =   0.0555556
        k(    5) = (   0.0258901  -0.0149477   0.0000000), wk =   0.1111111
        k(    6) = (   0.0258901   0.0149477   0.0000000), wk =   0.1111111
        k(    7) = (   0.0258901   0.0448430   0.0000000), wk =   0.1111111
        k(    8) = (   0.0258901  -0.1046336   0.0000000), wk =   0.1111111
        k(    9) = (   0.0258901  -0.0747383   0.0000000), wk =   0.1111111
        k(   10) = (   0.0258901  -0.0448430   0.0000000), wk =   0.1111111
        k(   11) = (   0.0517802  -0.0298953   0.0000000), wk =   0.1111111
        k(   12) = (   0.0517802   0.0000000   0.0000000), wk =   0.1111111
        k(   13) = (   0.0517802   0.0298953   0.0000000), wk =   0.1111111
        k(   14) = (   0.0517802  -0.1195813   0.0000000), wk =   0.1111111
        k(   15) = (   0.0517802  -0.0896860   0.0000000), wk =   0.1111111
        k(   16) = (   0.0517802  -0.0597906   0.0000000), wk =   0.1111111
        k(   17) = (  -0.0776703   0.0448430   0.0000000), wk =   0.0555556
        k(   18) = (  -0.0776703   0.0747383   0.0000000), wk =   0.1111111
        k(   19) = (  -0.0776703   0.1046336   0.0000000), wk =   0.1111111
        k(   20) = (  -0.0776703  -0.0448430   0.0000000), wk =   0.0555556

     Largest allocated arrays     est. size (Mb)     dimensions
     Largest temporary arrays     est. size (Mb)     dimensions

     Initial potential from superposition of free atoms
     Check: negative starting charge=   -0.000273

     starting charge  135.97113, renormalised to  136.00000

     negative rho (up, down):  2.728E-04 0.000E+00

     *
     * You are using vdW-DF for exchange-correlation in this calculation.
     * Please cite the following three references that made this development
     * possible:
     *
     *   M. Dion, H. Rydberg, E. Schroder, D. C. Langreth, and
     *   B. I. Lundqvist, Phys. Rev. Lett. 92, 246401 (2004).
     *
     *   T. Thonhauser, V. R. Cooper, S. Li, A. Puzder, P. Hyldgaard, and
     *   D. C. Langreth, Phys. Rev. B 76, 125112 (2007).
     *
     *   G. Roman-Perez and J. M. Soler, Phys. Rev. Lett. 103, 096102 (2009).
     *
     *
     * If you are using vdW-DF2, please also cite:
     *
     *   K. Lee, E. D. Murray, L. Kong, B. I. Lundqvist, and
     *   D. C. Langreth, Phys. Rev. B 82, 081101(R) (2010).
     *
     *
     * If you are calculating the stress with vdW-DF, please also cite:
     *
     *   R. Sabatini, E. Kucukbenli, B. Kolb, T. Thonhauser, and
     *   S. de Gironcoli, J. Phys.: Condens. Matter 24, 424209 (2012).
     *

     Carrying out vdW-DF run using the following parameters:

     Nqs =      20    Nr_points =    1024   r_max =   100.000
     q_mesh =
               0.00001000     0.04494208     0.09755937     0.15916263
               0.23128650     0.31572767     0.41458969     0.53033537
               0.66584808     0.82450364     1.01025438     1.22772762
               1.48234092     1.78043706     2.12944203     2.53805004
               3.01644009     3.57652955     4.23227104     5.00000000

     Gradients computed in reciprocal space

     Adding external electric field

     Computed dipole along edir(3) :
        Dipole               -0.0072 Ry au,         -0.0183 Debye
        Dipole field         -0.0000 Ry au

        Potential amp.        0.0014 Ry
        Total length         46.5341 bohr

     Starting wfc are  160 randomized atomic wfcs

     Self-consistent Calculation

     iteration #  1     ecut=    36.75 Ry     beta=0.30
     Davidson diagonalization with overlap
     ethr =  1.00E-02,  avg # of iterations =  2.0

[...]

     total energy              =   -1145.42553937 Ry
     Harris-Foulkes estimate   =   -1149.30935032 Ry
     estimated scf accuracy    <       8.35205968 Ry

[...]

     End of self-consistent calculation

          k = 0.0000 0.0000 0.0000 ( 23031 PWs)   bands (ev):

   -50.0724 -50.0384 -50.0373 -49.9950 -49.9505 -49.9502 -49.9463 -49.5499
   -49.5099 -49.5091 -49.4851 -48.8654 -28.7739 -28.7655 -28.7298 -28.7288
   -28.7090 -28.7088 -28.7062 -28.6897 -28.6890 -28.6712 -28.6170 -28.6167
   -28.6123 -28.5247 -28.4626 -28.4618 -28.4499 -28.4469 -28.4468 -28.3693
   -28.3693 -28.2981 -28.2649 -28.2646 -28.1218 -28.0950 -28.0943 -28.0744
   -28.0334 -28.0329 -28.0313 -27.9513 -27.9512 -27.5554 -27.5553 -27.3697
    -7.9492  -4.7414  -3.5901  -2.3006  -1.5362  -1.5303  -1.5302  -1.4147
    -1.3991  -1.3990  -1.1411  -1.0833  -1.0832  -0.6534  -0.6533  -0.6246
    -0.5482  -0.5481  -0.3428  -0.0772  -0.0771  -0.0293   0.0652   0.4781
     0.5826   0.5844   0.5845   0.7921   1.0690   1.0875

[...]

          k =-0.0777 0.0448 0.0000 ( 23032 PWs)   bands (ev):

[...]

     the Fermi energy is    -0.0411 ev

!    total energy              =   -1148.90825705 Ry
     Harris-Foulkes estimate   =   -1148.90823300 Ry
     estimated scf accuracy    <       0.00000476 Ry

     The total energy is the sum of the following terms:

     one-electron contribution =   -7241.16864872 Ry
     hartree contribution      =    3602.22407156 Ry
     xc contribution           =    -169.74794078 Ry
     ewald contribution        =    2659.92461275 Ry
     electric field correction =       0.00080001 Ry
     smearing contrib. (-TS)   =      -0.14115188 Ry

     convergence has been achieved in  22 iterations

 BEEF-vdW xc energy contributions
           1 :   -143.824133484678
           2 :    126.551867995379
           3 :   -99.6570686137335
           4 :    73.5478991958620
           5 :   -55.5057620230579
           6 :    46.7763764920485
           7 :   -43.8508372038023
           8 :    42.1375655524016
           9 :   -39.0865715361106
          10 :    34.9384435364121
          11 :   -31.3285921822480
          12 :    29.3477022469988
          13 :   -28.6291210412038
          14 :    27.9133837694989
          15 :   -26.3087729766884
          16 :    24.0353376444255
          17 :   -22.0671071825626
          18 :    21.1355427601758
          19 :   -21.0708068125653
          20 :    21.0285547577483
          21 :   -20.2947461392107
          22 :    18.8899047717055
          23 :   -17.4659382876419
          24 :    16.6640414917952
          25 :   -16.5524280730001
          26 :    16.6261121973525
          27 :   -16.3118655607455
          28 :    15.4807158688958
          29 :   -14.5118370324410
          30 :    13.8953544169751
          31 :   -17.0245341882165
          32 :   -12.2019491303289

     Forces acting on atoms (Ry/au):

     negative rho (up, down):  1.540E-04 0.000E+00
     atom    1 type  1   force =    -0.00062069   -0.00040800    0.00299768
     atom    2 type  1   force =     0.00062063   -0.00034699    0.00291541
     atom    3 type  1   force =     0.00005183    0.00073512    0.00298711
     atom    4 type  1   force =    -0.00005175    0.00002036    0.00236453
     atom    5 type  1   force =    -0.00003039    0.00209141    0.00070570
     atom    6 type  1   force =     0.00002803   -0.00005498    0.00559574
     atom    7 type  1   force =    -0.00186310   -0.00100043    0.00074570
     atom    8 type  1   force =     0.00186454   -0.00103471    0.00078598
     atom    9 type  1   force =     0.00005886   -0.00001222    0.00127151
     atom   10 type  1   force =    -0.00005680    0.00114223    0.01515104
     atom   11 type  1   force =     0.00099332   -0.00059841    0.01513321
     atom   12 type  1   force =    -0.00099551   -0.00053293    0.01511754
     atom   13 type  2   force =     0.00000103   -0.00000044   -0.06577115

     Total force =     0.070841     Total SCF correction =     0.007546
     SCF correction compared to forces is large: reduce conv_thr to get better values

     entering subroutine stress ...

     negative rho (up, down):  1.540E-04 0.000E+00
          total   stress  (Ry/bohr**3)                   (kbar)     P=   -3.01
   0.00000659   0.00000000   0.00000000          0.97      0.00      0.00
   0.00000000   0.00000660  -0.00000000          0.00      0.97     -0.00
   0.00000000  -0.00000000  -0.00007456          0.00     -0.00    -10.97

     BFGS Geometry Optimization

     number of scf cycles    =   1
     number of bfgs steps    =   0

     energy   new            =   -1148.9082570502 Ry

     new trust radius        =       0.0657711499 bohr
     new conv_thr            =       0.0000099958 Ry

ATOMIC_POSITIONS (crystal)
Sc1      0.166666667   0.166666667   0.395942884    0   0   0
Sc1      0.666666667   0.166666667   0.395942884    0   0   0
Sc1      0.166666667   0.666666667   0.395942884    0   0   0
Sc1      0.666666667   0.666666667   0.395942884    0   0   0
Sc1      0.833333333   0.333333333   0.500000000    0   0   0
Sc1      0.333333333   0.333333333   0.500000000    0   0   0
Sc1      0.833333333   0.833333333   0.500000000    0   0   0
Sc1      0.333333333   0.833333333   0.500000000    0   0   0
Sc1      0.000005419  -0.000001160   0.604083757
Sc1      0.499941121   0.000108420   0.604374566
Sc1      0.000110054   0.499943199   0.604374193
Sc1      0.499943459   0.499949415   0.604373864
C1       0.000000106  -0.000000042   0.685470710

     Writing output data file calc.save
     Check: negative starting charge=   -0.000273
     NEW-OLD atomic charge density approx. for the potential
     Check: negative starting charge=   -0.000270

[...]

     Total force =     0.062892     Total SCF correction =     0.001912

[...]

     energy   old            =   -1148.9082570502 Ry
     energy   new            =   -1148.9130142068 Ry

     CASE: energy  _new < energy  _old

     WARNING: bfgs curvature condition failed, Theta= 0.912
     new trust radius        =       0.0723482649 bohr
     new conv_thr            =       0.0000001000 Ry

[...]

     iteration #  1     ecut=    36.75 Ry     beta=0.30
     Davidson diagonalization with overlap
     c_bands:  1 eigenvalues not converged
     ethr =  1.00E-06,  avg # of iterations = 16.2

[...]

     iteration #  1     ecut=    36.75 Ry     beta=0.30
     Davidson diagonalization with overlap
     c_bands:  1 eigenvalues not converged
     c_bands:  1 eigenvalues not converged
     ethr =  1.00E-06,  avg # of iterations = 16.7

[...]

     Total force =     0.004188     Total SCF correction =     0.000521
     SCF correction compared to forces is large: reduce conv_thr to get better values

[...]

     number of scf cycles    =  10
     number of bfgs steps    =   9

     energy   old            =   -1148.9589909814 Ry
     energy   new            =   -1148.9591792737 Ry

     CASE: energy  _new < energy  _old

     new trust radius        =       0.0054629873 bohr
     new conv_thr            =       0.0000001000 Ry

ATOMIC_POSITIONS (crystal)
Sc1      0.166666667   0.166666667   0.395942884    0   0   0
Sc1      0.666666667   0.166666667   0.395942884    0   0   0
Sc1      0.166666667   0.666666667   0.395942884    0   0   0
Sc1      0.666666667   0.666666667   0.395942884    0   0   0
Sc1      0.833333333   0.333333333   0.500000000    0   0   0
Sc1      0.333333333   0.333333333   0.500000000    0   0   0
Sc1      0.833333333   0.833333333   0.500000000    0   0   0
Sc1      0.333333333   0.833333333   0.500000000    0   0   0
Sc1      0.000020429  -0.000007023   0.587777712
Sc1      0.499813944   0.000294479   0.612591231
Sc1      0.000303886   0.499834804   0.612586219
Sc1      0.499829776   0.499882435   0.612582422
C1       0.000035273  -0.000007755   0.664411601

     Writing output data file calc.save
     Check: negative starting charge=   -0.000289
     NEW-OLD atomic charge density approx. for the potential
     Check: negative starting charge=   -0.000289

[...]

     Self-consistent Calculation

[...]

     Threshold (ethr) on eigenvalues was too large:
     Diagonalizing with lowered threshold

     Davidson diagonalization with overlap
     ethr =  2.68E-08,  avg # of iterations =  5.3

[...]

     total energy              =   -1148.95919982 Ry
     Harris-Foulkes estimate   =   -1148.95919986 Ry
     estimated scf accuracy    <       0.00000013 Ry

     iteration #  9     ecut=    36.75 Ry     beta=0.30
     Davidson diagonalization with overlap
     ethr =  9.79E-11,  avg # of iterations =  6.3

[...]

     negative rho (up, down):  1.590E-04 0.000E+00

     Adding external electric field

     Computed dipole along edir(3) :
        Dipole               -0.2711 Ry au,         -0.6891 Debye
        Dipole field         -0.0006 Ry au

        Potential amp.        0.0518 Ry
        Total length         46.5341 bohr

     End of self-consistent calculation

[...]

          k = 0.0518-0.0598 0.0000 ( 23012 PWs)   bands (ev):

[...]

          k =-0.0777-0.0448 0.0000 ( 23032 PWs)   bands (ev):

   -49.9414 -49.9304 -49.9192 -49.6330 -49.6270 -49.6079 -49.6039 -49.3158
   -49.2180 -49.2051 -49.1944 -48.1464 -28.6274 -28.6142 -28.6017 -28.5572
   -28.4947 -28.4673 -28.4656 -28.4105 -28.3085 -28.3076 -28.3025 -28.3014
   -28.2957 -28.2701 -28.2667 -28.2039 -28.2003 -28.1741 -28.1739 -28.0725
   -28.0639 -27.9595 -27.9476 -27.8942 -27.8923 -27.8484 -27.8168 -27.8128
   -27.7987 -27.7820 -27.7749 -27.7186 -27.6941 -26.8447 -26.8385 -26.8180
    -7.7088  -3.1236  -3.0461  -2.2634  -1.9347  -1.3102  -1.2241  -1.2028
    -0.9944  -0.8138  -0.6168  -0.5695  -0.4019  -0.2006   0.0658   0.0782
     0.0958   0.1834   0.2488   0.3108   0.3380   0.3892   0.4481   0.4789
     0.5408   0.6871   0.7158   0.7984   0.8544   0.8624

     the Fermi energy is     0.2915 ev

!    total energy              =   -1148.95919980 Ry
     Harris-Foulkes estimate   =   -1148.95919948 Ry
     estimated scf accuracy    <       0.00000006 Ry

     The total energy is the sum of the following terms:

     one-electron contribution =   -7245.11165083 Ry
     hartree contribution      =    3605.53086538 Ry
     xc contribution           =    -169.83716401 Ry
     ewald contribution        =    2660.59228771 Ry
     electric field correction =       0.00015099 Ry
     smearing contrib. (-TS)   =      -0.13368904 Ry

     convergence has been achieved in   9 iterations

 BEEF-vdW xc energy contributions
           1 :   -143.910553718555
           2 :    126.654603626497
           3 :   -99.7837075386766
           4 :    73.6908502956438
           5 :   -55.6254440833263
           6 :    46.8071204234238
           7 :   -43.7507735281346
           8 :    41.9339494478988
           9 :   -38.8664487492085
          10 :    34.7895688121661
          11 :   -31.2766385269950
          12 :    29.3377310378338
          13 :   -28.5698567252666
          14 :    27.7538621760540
          15 :   -26.0795124425893
          16 :    23.8121485688363
          17 :   -21.8953182611934
          18 :    20.9919807469834
          19 :   -20.8955090284765
          20 :    20.7888969599198
          21 :   -20.0190949056741
          22 :    18.6401637814942
          23 :   -17.2759366107059
          24 :    16.5020272548888
          25 :   -16.3460156987083
          26 :    16.3302723750478
          27 :   -15.9545988024072
          28 :    15.1391791515217
          29 :   -14.2417088869823
          30 :    13.6828846120941
          31 :   -17.0306458579416
          32 :   -12.2127682834147

     Forces acting on atoms (Ry/au):

     negative rho (up, down):  1.590E-04 0.000E+00
     atom    1 type  1   force =     0.00077751    0.00046061    0.00370858
     atom    2 type  1   force =    -0.00077820    0.00046820    0.00371181
     atom    3 type  1   force =     0.00000614   -0.00091400    0.00370889
     atom    4 type  1   force =    -0.00000627   -0.00001399    0.00528183
     atom    5 type  1   force =    -0.00000012    0.01348912   -0.01445738
     atom    6 type  1   force =    -0.00000197    0.00000187    0.02208474
     atom    7 type  1   force =    -0.01168041   -0.00674595   -0.01445002
     atom    8 type  1   force =     0.01168159   -0.00674624   -0.01445832
     atom    9 type  1   force =    -0.00004720    0.00000914    0.00148339
     atom   10 type  1   force =     0.00001533   -0.00177553    0.00116878
     atom   11 type  1   force =    -0.00155024    0.00090112    0.00115675
     atom   12 type  1   force =     0.00154236    0.00087869    0.00114453
     atom   13 type  2   force =     0.00004146   -0.00001303   -0.00008357

     Total force =     0.003968     Total SCF correction =     0.000389

     entering subroutine stress ...

     negative rho (up, down):  1.590E-04 0.000E+00
          total   stress  (Ry/bohr**3)                   (kbar)     P=   -2.76
  -0.00002189  -0.00000001   0.00000003         -3.22     -0.00      0.00
  -0.00000001  -0.00002186  -0.00000001         -0.00     -3.22     -0.00
   0.00000003  -0.00000001  -0.00001252          0.00     -0.00     -1.84

     bfgs converged in  11 scf cycles and  10 bfgs steps
     (criteria: energy <  1.0E+00, force <  1.9E-03)

     End of BFGS Geometry Optimization

     Final energy   =   -1148.9591998026 Ry
Begin final coordinates

ATOMIC_POSITIONS (crystal)
Sc1      0.166666667   0.166666667   0.395942884    0   0   0
Sc1      0.666666667   0.166666667   0.395942884    0   0   0
Sc1      0.166666667   0.666666667   0.395942884    0   0   0
Sc1      0.666666667   0.666666667   0.395942884    0   0   0
Sc1      0.833333333   0.333333333   0.500000000    0   0   0
Sc1      0.333333333   0.333333333   0.500000000    0   0   0
Sc1      0.833333333   0.833333333   0.500000000    0   0   0
Sc1      0.333333333   0.833333333   0.500000000    0   0   0
Sc1      0.000020429  -0.000007023   0.587777712
Sc1      0.499813944   0.000294479   0.612591231
Sc1      0.000303886   0.499834804   0.612586219
Sc1      0.499829776   0.499882435   0.612582422
C1       0.000035273  -0.000007755   0.664411601
End final coordinates

     Writing output data file calc.save

     General routines

     Parallel routines

   This run was terminated on:  15:58:49   2May2018

   JOB DONE.
Job  /afs/slac/g/suncat/bin/suncat-tsmpirun -x LD_LIBRARY_PATH -wdir /scratch/qe750772_sISsW pw.x -npool 4 -in pw.inp

TID   HOST_NAME   COMMAND_LINE            STATUS            TERMINATION_TIME
00000 suncat0169 pw.x -npool 4 -i  Done                     05/02/2018 15:58:49
00001 suncat0169 pw.x -npool 4 -i  Done                     05/02/2018 15:58:49
00002 suncat0169 pw.x -npool 4 -i  Done                     05/02/2018 15:58:49
00003 suncat0169 pw.x -npool 4 -i  Done                     05/02/2018 15:58:49
00004 suncat0169 pw.x -npool 4 -i  Done                     05/02/2018 15:58:49
00005 suncat0169 pw.x -npool 4 -i  Done                     05/02/2018 15:58:49
00006 suncat0169 pw.x -npool 4 -i  Done                     05/02/2018 15:58:49
00007 suncat0169 pw.x -npool 4 -i  Done                     05/02/2018 15:58:49
00008 suncat0167 pw.x -npool 4 -i  Done                     05/02/2018 15:58:49
00009 suncat0167 pw.x -npool 4 -i  Done                     05/02/2018 15:58:49
00010 suncat0167 pw.x -npool 4 -i  Done                     05/02/2018 15:58:49
00011 suncat0167 pw.x -npool 4 -i  Done                     05/02/2018 15:58:49
00012 suncat0167 pw.x -npool 4 -i  Done                     05/02/2018 15:58:49
00013 suncat0167 pw.x -npool 4 -i  Done                     05/02/2018 15:58:49
00014 suncat0167 pw.x -npool 4 -i  Done                     05/02/2018 15:58:49
00015 suncat0167 pw.x -npool 4 -i  Done                     05/02/2018 15:58:49
00016 suncat0124 pw.x -npool 4 -i  Done                     05/02/2018 15:58:49
00017 suncat0124 pw.x -npool 4 -i  Done                     05/02/2018 15:58:49
00018 suncat0124 pw.x -npool 4 -i  Done                     05/02/2018 15:58:49
00019 suncat0124 pw.x -npool 4 -i  Done                     05/02/2018 15:58:49
00020 suncat0124 pw.x -npool 4 -i  Done                     05/02/2018 15:58:49
00021 suncat0124 pw.x -npool 4 -i  Done                     05/02/2018 15:58:49
00022 suncat0124 pw.x -npool 4 -i  Done                     05/02/2018 15:58:49
00023 suncat0124 pw.x -npool 4 -i  Done                     05/02/2018 15:58:49
00024 suncat0123 pw.x -npool 4 -i  Done                     05/02/2018 15:58:49
00025 suncat0123 pw.x -npool 4 -i  Done                     05/02/2018 15:58:49
00026 suncat0123 pw.x -npool 4 -i  Done                     05/02/2018 15:58:49
00027 suncat0123 pw.x -npool 4 -i  Done                     05/02/2018 15:58:49
00028 suncat0123 pw.x -npool 4 -i  Done                     05/02/2018 15:58:49
00029 suncat0123 pw.x -npool 4 -i  Done                     05/02/2018 15:58:49
00030 suncat0123 pw.x -npool 4 -i  Done                     05/02/2018 15:58:49
00031 suncat0123 pw.x -npool 4 -i  Done                     05/02/2018 15:58:49