     Program PWSCF v.5.1rc2 (svn rev. 11289) starts on 16Apr2018 at 10:18:16

     Current dimensions of program PWSCF are:
     Max number of different atomic species (ntypx) = 10
     Max number of k-points (npk) =  40000
     Max angular momentum in pseudopotentials (lmaxx) =  3
     Presently stress not available with electric field

     IMPORTANT: XC functional enforced from input :
     Exchange-correlation      = BEEF-VDW ( 1  4 27 13 2)
     Any further DFT definition will be discarded
     Please, verify this is what you really want

     Subspace diagonalization in iterative solution of the eigenvalue problem:
     a serial algorithm will be used

     bravais-lattice index     =            0
     lattice parameter (alat)  =       1.8897  a.u.
     unit-cell volume          =    5174.6160 (a.u.)^3
     number of atoms/cell      =           16
     number of atomic types    =            3
     number of electrons       =       235.00
     number of Kohn-Sham states=          127
     kinetic-energy cutoff     =      36.7493  Ry
     charge density cutoff     =     367.4932  Ry
     convergence threshold     =      1.0E-05
     mixing beta               =       0.3000
     number of iterations used =           10  plain     mixing
     Exchange-correlation      = BEEF-VDW ( 1  4 27 13 2)
     nstep                     =           50

     celldm(1)=   1.889726  celldm(2)=   0.000000  celldm(3)=   0.000000
     celldm(4)=   0.000000  celldm(5)=   0.000000  celldm(6)=   0.000000

     crystal axes: (cart. coord. in units of alat)
               a(1) = (   5.966546   0.000000   0.000000 )
               a(2) = (   2.983273   5.167181   0.000000 )
               a(3) = (   0.000000   0.000000  24.871665 )

     reciprocal axes: (cart. coord. in units 2 pi/alat)
               b(1) = (  0.167601 -0.096765  0.000000 )
               b(2) = (  0.000000  0.193529  0.000000 )
               b(3) = (  0.000000  0.000000  0.040206 )

     PseudoPot. # 1 for Ag read from file:
     /u/if/mamunm/psp/gbrv1.5pbe/Ag.UPF
     MD5 check sum: d66d668201baa78d5eb5b04ef7011058
     Pseudo is Ultrasoft + core correction, Zval = 19.0
     Generated by new atomic code, or converted to UPF format
     Using radial grid of  887 points,  6 beta functions with:
                l(1) =   0
                l(2) =   0
                l(3) =   1
                l(4) =   1
                l(5) =   2
                l(6) =   2
     Q(r) pseudized with  6 coefficients,  rinner =    1.300   1.300   1.300
                                                       1.300   1.300

     PseudoPot. # 2 for C  read from file:
     /u/if/mamunm/psp/gbrv1.5pbe/C.UPF
     MD5 check sum: d1aef80898a10debaa0f26306b886e00
     Pseudo is Ultrasoft + core correction, Zval =  4.0
     Generated by new atomic code, or converted to UPF format
     Using radial grid of  721 points,  4 beta functions with:
                l(1) =   0
                l(2) =   0
                l(3) =   1
                l(4) =   1
     Q(r) pseudized with  8 coefficients,  rinner =    1.100   1.100   1.100

     PseudoPot. # 3 for H  read from file:
     /u/if/mamunm/psp/gbrv1.5pbe/H.UPF
     MD5 check sum: 761ae9a214b05c3daf00ab9f6b793d6f
     Pseudo is Ultrasoft, Zval =  1.0
     Generated by new atomic code, or converted to UPF format
     Using radial grid of  615 points,  2 beta functions with:
                l(1) =   0
                l(2) =   0
     Q(r) pseudized with  8 coefficients,  rinner =    0.700

     vdW kernel table read from file vdW_kernel_table
     MD5 check sum: 095c7af220d748ca6e76c0b4c6cfb241

     atomic species   valence    mass     pseudopotential
        Ag1           19.00   107.86820     Ag( 1.00)
        C1             4.00    12.01100     C ( 1.00)
        H1             1.00     1.00800     H ( 1.00)

     No symmetry found

   Cartesian axes

     site n.     atom                  positions (alat units)
         1           Ag1 tau(   1) = (   1.4916366   0.8611968  10.0000000  )
         2           Ag1 tau(   2) = (   4.4749098   0.8611968  10.0000000  )
         3           Ag1 tau(   3) = (   2.9832732   3.4447871  10.0000000  )
         4           Ag1 tau(   4) = (   5.9665464   3.4447871  10.0000000  )
         5           Ag1 tau(   5) = (   5.9665464   1.7223936  12.4358324  )
         6           Ag1 tau(   6) = (   2.9832732   1.7223936  12.4358324  )
         7           Ag1 tau(   7) = (   7.4581830   4.3059839  12.4358324  )
         8           Ag1 tau(   8) = (   4.4749098   4.3059839  12.4358324  )
         9           Ag1 tau(   9) = (   0.0000000   0.0000000  14.8716647  )
        10           Ag1 tau(  10) = (   2.9832732   0.0000000  14.8716647  )
        11           Ag1 tau(  11) = (   1.4916366   2.5835904  14.8716647  )
        12           Ag1 tau(  12) = (   4.4749098   2.5835904  14.8716647  )
        13           C1  tau(  13) = (   1.4916366   0.8611968  16.3081647  )
        14           H1  tau(  14) = (   2.5816366   0.8611968  16.9381647  )
        15           H1  tau(  15) = (   1.0416366   1.7506968  16.9381647  )
        16           H1  tau(  16) = (   4.0249098   5.1388775  16.9381647  )

     number of k points=    20  Fermi-Dirac smearing, width (Ry)=  0.0110
                       cart. coord. in units 2pi/alat
        k(    1) = (   0.0000000   0.0000000   0.0000000), wk =   0.0555556
        k(    2) = (   0.0000000   0.0322549   0.0000000), wk =   0.1111111
        k(    3) = (   0.0000000   0.0645097   0.0000000), wk =   0.1111111
        k(    4) = (   0.0000000  -0.0967646   0.0000000), wk =   0.0555556
        k(    5) = (   0.0279335  -0.0161274   0.0000000), wk =   0.1111111
        k(    6) = (   0.0279335   0.0161274   0.0000000), wk =   0.1111111
        k(    7) = (   0.0279335   0.0483823   0.0000000), wk =   0.1111111
        k(    8) = (   0.0279335  -0.1128920   0.0000000), wk =   0.1111111
        k(    9) = (   0.0279335  -0.0806371   0.0000000), wk =   0.1111111
        k(   10) = (   0.0279335  -0.0483823   0.0000000), wk =   0.1111111
        k(   11) = (   0.0558670  -0.0322549   0.0000000), wk =   0.1111111
        k(   12) = (   0.0558670   0.0000000   0.0000000), wk =   0.1111111
        k(   13) = (   0.0558670   0.0322549   0.0000000), wk =   0.1111111
        k(   14) = (   0.0558670  -0.1290194   0.0000000), wk =   0.1111111
        k(   15) = (   0.0558670  -0.0967646   0.0000000), wk =   0.1111111
        k(   16) = (   0.0558670  -0.0645097   0.0000000), wk =   0.1111111
        k(   17) = (  -0.0838006   0.0483823   0.0000000), wk =   0.0555556
        k(   18) = (  -0.0838006   0.0806371   0.0000000), wk =   0.1111111
        k(   19) = (  -0.0838006   0.1128920   0.0000000), wk =   0.1111111
        k(   20) = (  -0.0838006  -0.0483823   0.0000000), wk =   0.0555556

     Largest allocated arrays     est. size (Mb)     dimensions
     Largest temporary arrays     est. size (Mb)     dimensions

     Initial potential from superposition of free atoms
     Check: negative starting charge=   -0.002010

     starting charge  228.99936, renormalised to  235.00000

     negative rho (up, down):  2.063E-03 0.000E+00

     *
     * You are using vdW-DF for exchange-correlation in this calculation.
     * Please cite the following three references that made this development
     * possible:
     *
     *   M. Dion, H. Rydberg, E. Schroder, D. C. Langreth, and
     *   B. I. Lundqvist, Phys. Rev. Lett. 92, 246401 (2004).
     *
     *   T. Thonhauser, V. R. Cooper, S. Li, A. Puzder, P. Hyldgaard, and
     *   D. C. Langreth, Phys. Rev. B 76, 125112 (2007).
     *
     *   G. Roman-Perez and J. M. Soler, Phys. Rev. Lett. 103, 096102 (2009).
     *
     *
     * If you are using vdW-DF2, please also cite:
     *
     *   K. Lee, E. D. Murray, L. Kong, B. I. Lundqvist, and
     *   D. C. Langreth, Phys. Rev. B 82, 081101(R) (2010).
     *
     *
     * If you are calculating the stress with vdW-DF, please also cite:
     *
     *   R. Sabatini, E. Kucukbenli, B. Kolb, T. Thonhauser, and
     *   S. de Gironcoli, J. Phys.: Condens. Matter 24, 424209 (2012).
     *

     Carrying out vdW-DF run using the following parameters:

     Nqs =      20    Nr_points =    1024   r_max =   100.000
     q_mesh =
               0.00001000     0.04494208     0.09755937     0.15916263
               0.23128650     0.31572767     0.41458969     0.53033537
               0.66584808     0.82450364     1.01025438     1.22772762
               1.48234092     1.78043706     2.12944203     2.53805004
               3.01644009     3.57652955     4.23227104     5.00000000

     Gradients computed in reciprocal space

     Adding external electric field

     Computed dipole along edir(3) :
        Dipole               -1.4353 Ry au,         -3.6481 Debye
        Dipole field         -0.0035 Ry au

        Potential amp.        0.3195 Ry
        Total length         45.8256 bohr

     Starting wfc are  163 randomized atomic wfcs

     Self-consistent Calculation

     iteration #  1     ecut=    36.75 Ry     beta=0.30
     Davidson diagonalization with overlap
     ethr =  1.00E-02,  avg # of iterations =  5.3

[...]

     total energy              =   -3559.95587607 Ry
     Harris-Foulkes estimate   =   -3578.03962845 Ry
     estimated scf accuracy    <      38.86429603 Ry

[...]

     End of self-consistent calculation

          k = 0.0000 0.0000 0.0000 ( 19435 PWs)   bands (ev):

   -90.4346 -90.4282 -90.4256 -90.3765 -90.3153 -90.3104 -90.3094 -90.2079
   -90.1231 -90.1180 -90.1170 -90.0863 -53.9827 -53.9583 -53.9562 -53.9292
   -53.9273 -53.9253 -53.9148 -53.8976 -53.8942 -53.8842 -53.8832 -53.8580
   -53.8544 -53.8127 -53.8106 -53.8105 -53.8052 -53.8041 -53.7892 -53.7769
   -53.7766 -53.7068 -53.7065 -53.6968 -53.6674 -53.6553 -53.6547 -53.6027
   -53.6019 -53.6003 -53.5995 -53.5961 -53.5950 -53.5715 -53.5712 -53.5545
   -11.5882  -5.1369  -5.0063  -4.8688  -4.6672  -4.1296  -4.1062  -4.1017
    -4.0866  -3.9597  -3.9569  -3.9560  -3.9357  -3.8471  -3.8274  -3.7403
    -3.6959  -3.6819  -3.3174  -3.1428  -3.1269  -3.0230  -3.0224  -3.0213
    -2.9561  -2.9268  -2.9250  -2.8531  -2.8472  -2.7654  -2.7063  -2.6982
    -2.6527  -2.6518  -2.2755  -2.2423  -2.2395  -2.1892  -2.1833  -2.1350
    -2.1331  -2.0205  -1.9972  -1.9820  -1.9129  -1.9107  -1.7243  -1.7091
    -1.6336  -1.6085  -1.6065  -1.5532  -1.5531  -1.5500  -1.5263  -1.4818
    -1.4788  -1.4227  -1.4154  -1.3935  -1.3257  -1.2648  -1.2170  -1.2057
    -1.2039  -0.3743   0.7774   2.1603   2.1692   2.2195   2.4247   2.8644
     2.8872   3.2005   3.3309   3.3441   3.8949   4.7439   5.2221

[...]

          k =-0.0838 0.0484 0.0000 ( 19500 PWs)   bands (ev):

[...]

     the Fermi energy is     1.7048 ev

!    total energy              =   -3574.92369701 Ry
     Harris-Foulkes estimate   =   -3574.92371841 Ry
     estimated scf accuracy    <       0.00000450 Ry

     The total energy is the sum of the following terms:

     one-electron contribution =  -26301.48588895 Ry
     hartree contribution      =   13146.72679639 Ry
     xc contribution           =    -366.97074213 Ry
     ewald contribution        =    9946.82721743 Ry
     electric field correction =       0.00012740 Ry
     smearing contrib. (-TS)   =      -0.02120715 Ry

     convergence has been achieved in  15 iterations

 BEEF-vdW xc energy contributions
           1 :   -317.823018209685
           2 :    287.660874607978
           3 :   -237.375993591932
           4 :    182.159340704171
           5 :   -135.777281287861
           6 :    105.638251934069
           7 :   -91.4199204434874
           8 :    87.2520851359050
           9 :   -85.8220724504964
          10 :    82.0730321197279
          11 :   -74.7928181205264
          12 :    65.7922234144520
          13 :   -57.7304528975981
          14 :    52.1536653840902
          15 :   -48.8260481770831
          16 :    46.3972693394608
          17 :   -43.6305379550640
          18 :    40.2316121332044
          19 :   -36.8008715391632
          20 :    34.1285553497153
          21 :   -32.4761498230953
          22 :    31.3782707887033
          23 :   -30.0442499191129
          24 :    27.9896522675153
          25 :   -25.4066751124601
          26 :    23.0152828870870
          27 :   -21.5339923857771
          28 :    21.1691641988225
          29 :   -21.4855755490097
          30 :    21.7258580817390
          31 :   -31.8892747028448
          32 :   -23.1962537745725

     Forces acting on atoms (Ry/au):

     negative rho (up, down):  2.050E-03 0.000E+00
     atom    1 type  1   force =    -0.00001265    0.00000431    0.00158955
     atom    2 type  1   force =     0.00004120    0.00027022   -0.00064203
     atom    3 type  1   force =     0.00021738   -0.00013816   -0.00057527
     atom    4 type  1   force =    -0.00024633   -0.00013435   -0.00060957
     atom    5 type  1   force =    -0.00053227   -0.00009451   -0.00311763
     atom    6 type  1   force =     0.00020980    0.00035499   -0.00310773
     atom    7 type  1   force =    -0.00005329    0.00007770    0.01129297
     atom    8 type  1   force =     0.00036535   -0.00035140   -0.00296062
     atom    9 type  1   force =    -0.02639370   -0.01637833   -0.02946159
     atom   10 type  1   force =     0.02866970   -0.01375946   -0.02838019
     atom   11 type  1   force =    -0.00210610    0.03238556   -0.03153331
     atom   12 type  1   force =     0.00029972    0.00004967   -0.01275533
     atom   13 type  2   force =     0.04479445   -0.00219420    0.23924965
     atom   14 type  3   force =    -0.08221392   -0.00354015   -0.05939294
     atom   15 type  3   force =     0.02138795   -0.04711888   -0.03932781
     atom   16 type  3   force =     0.01557271    0.05056698   -0.04026814

     Total force =     0.289925     Total SCF correction =     0.012080

     entering subroutine stress ...

     negative rho (up, down):  2.050E-03 0.000E+00
          total   stress  (Ry/bohr**3)                   (kbar)     P=   -5.27
  -0.00005871  -0.00000015  -0.00001061         -8.64     -0.02     -1.56
  -0.00000015  -0.00005199  -0.00000121         -0.02     -7.65     -0.18
  -0.00001061  -0.00000121   0.00000322         -1.56     -0.18      0.47

     BFGS Geometry Optimization

     number of scf cycles    =   1
     number of bfgs steps    =   0

     energy   new            =   -3574.9236970094 Ry

     new trust radius        =       0.2434168239 bohr
     new conv_thr            =       0.0000099958 Ry

ATOMIC_POSITIONS (crystal)
Ag1      0.166666667   0.166666667   0.402063960    0   0   0
Ag1      0.666666667   0.166666667   0.402063960    0   0   0
Ag1      0.166666667   0.666666667   0.402063960    0   0   0
Ag1      0.666666667   0.666666667   0.402063960    0   0   0
Ag1      0.833333333   0.333333333   0.500000000    0   0   0
Ag1      0.333333333   0.333333333   0.500000000    0   0   0
Ag1      0.833333333   0.833333333   0.500000000    0   0   0
Ag1      0.333333333   0.833333333   0.500000000    0   0   0
Ag1     -0.001502214  -0.001677324   0.597309206
Ag1      0.503247298  -0.001409123   0.597332214
Ag1     -0.001845114   0.503316644   0.597265128
Ag1      0.500024039   0.500005087   0.597664654
C1       0.170751873   0.166441956   0.660782877
H1       0.342241579   0.166304116   0.679758895
H1       0.009483734   0.333985328   0.680185807
H1       0.176110075   0.999701130   0.680165800

     Writing output data file calc.save
     Check: negative starting charge=   -0.002010
     NEW-OLD atomic charge density approx. for the potential
     Check: negative starting charge=   -0.002008

[...]

     energy   old            =   -3574.9236970094 Ry
     energy   new            =   -3574.9793674926 Ry

     CASE: energy  _new < energy  _old

[...]

     Total force =     0.009421     Total SCF correction =     0.001167
     SCF correction compared to forces is large: reduce conv_thr to get better values

[...]

     Total force =     0.004649     Total SCF correction =     0.000450

[...]

     Threshold (ethr) on eigenvalues was too large:
     Diagonalizing with lowered threshold

     Davidson diagonalization with overlap
     ethr =  8.65E-08,  avg # of iterations =  1.0

[...]

     number of scf cycles    =  19
     number of bfgs steps    =  18

     energy   old            =   -3575.0071744556 Ry
     energy   new            =   -3575.0072056425 Ry

     CASE: energy  _new < energy  _old

     new trust radius        =       0.0134074040 bohr
     new conv_thr            =       0.0000001000 Ry

ATOMIC_POSITIONS (crystal)
Ag1      0.166666667   0.166666667   0.402063960    0   0   0
Ag1      0.666666667   0.166666667   0.402063960    0   0   0
Ag1      0.166666667   0.666666667   0.402063960    0   0   0
Ag1      0.666666667   0.666666667   0.402063960    0   0   0
Ag1      0.833333333   0.333333333   0.500000000    0   0   0
Ag1      0.333333333   0.333333333   0.500000000    0   0   0
Ag1      0.833333333   0.833333333   0.500000000    0   0   0
Ag1      0.333333333   0.833333333   0.500000000    0   0   0
Ag1      0.001655433  -0.000518592   0.597574442
Ag1      0.497006362   0.002541036   0.598285320
Ag1      0.001171538   0.498011269   0.597904139
Ag1      0.501255319   0.499969502   0.594084769
C1       0.175089249   0.166326356   0.679260548
H1       0.351807499   0.154597240   0.694721478
H1       0.008140818   0.344313920   0.693718285
H1       0.161226655   1.001157246   0.693798704

     Writing output data file calc.save
     Check: negative starting charge=   -0.001931
     NEW-OLD atomic charge density approx. for the potential
     Check: negative starting charge=   -0.001931

[...]

     Self-consistent Calculation

[...]

     Threshold (ethr) on eigenvalues was too large:
     Diagonalizing with lowered threshold

     Davidson diagonalization with overlap
     ethr =  5.24E-09,  avg # of iterations =  1.6

[...]

     total energy              =   -3575.00724617 Ry
     Harris-Foulkes estimate   =   -3575.00724615 Ry
     estimated scf accuracy    <       0.00000031 Ry

     iteration #  6     ecut=    36.75 Ry     beta=0.30
     Davidson diagonalization with overlap
     ethr =  1.30E-10,  avg # of iterations =  2.0

[...]

     negative rho (up, down):  1.979E-03 0.000E+00

     Adding external electric field

     Computed dipole along edir(3) :
        Dipole                0.0598 Ry au,          0.1519 Debye
        Dipole field          0.0001 Ry au

        Potential amp.       -0.0133 Ry
        Total length         45.8256 bohr

     End of self-consistent calculation

[...]

          k = 0.0559-0.0645 0.0000 ( 19479 PWs)   bands (ev):

[...]

          k =-0.0838-0.0484 0.0000 ( 19500 PWs)   bands (ev):

   -90.5711 -90.5475 -90.5420 -90.5390 -90.3910 -90.3856 -90.3816 -90.3786
   -90.3500 -90.3475 -90.3464 -90.2941 -54.0853 -54.0733 -54.0698 -54.0600
   -54.0494 -54.0446 -54.0415 -54.0407 -54.0384 -54.0379 -54.0187 -54.0149
   -53.9197 -53.9136 -53.8939 -53.8920 -53.8901 -53.8816 -53.8796 -53.8766
   -53.8680 -53.8657 -53.8608 -53.8590 -53.8534 -53.8505 -53.8501 -53.8468
   -53.8406 -53.8308 -53.8283 -53.8277 -53.8236 -53.8004 -53.7873 -53.7649
   -11.1602  -4.6159  -4.5362  -4.0643  -4.0219  -3.9114  -3.8810  -3.8633
    -3.8390  -3.7704  -3.7492  -3.6593  -3.6262  -3.6152  -3.5903  -3.5441
    -3.5143  -3.4309  -3.4194  -3.2563  -3.2170  -3.1812  -3.1756  -3.1619
    -3.1478  -3.0824  -3.0401  -2.9247  -2.8559  -2.8459  -2.8041  -2.7785
    -2.7570  -2.7527  -2.7362  -2.6223  -2.5863  -2.5426  -2.5272  -2.5208
    -2.5073  -2.5011  -2.4875  -2.3764  -2.3725  -2.3314  -2.2987  -2.2834
    -2.2381  -2.2322  -2.2194  -2.1993  -2.1931  -2.1695  -2.1495  -2.0397
    -2.0197  -2.0102  -1.9279  -1.7193  -1.7027  -1.6919  -1.6511  -1.5665
    -1.5567  -1.0093  -0.6763   0.6132   1.2312   1.3155   1.8534   2.2063
     2.6140   3.1658   4.3393   4.4359   4.9032   5.3601   5.7278

     the Fermi energy is     1.4703 ev

!    total energy              =   -3575.00724621 Ry
     Harris-Foulkes estimate   =   -3575.00724620 Ry
     estimated scf accuracy    <       0.00000003 Ry

     The total energy is the sum of the following terms:

     one-electron contribution =  -26172.91161238 Ry
     hartree contribution      =   13081.47078336 Ry
     xc contribution           =    -367.03175601 Ry
     ewald contribution        =    9883.48721793 Ry
     electric field correction =       0.00000867 Ry
     smearing contrib. (-TS)   =      -0.02188778 Ry

     convergence has been achieved in   6 iterations

 BEEF-vdW xc energy contributions
           1 :   -317.834388606951
           2 :    287.516622956645
           3 :   -237.076010803116
           4 :    181.840441016893
           5 :   -135.590111163913
           6 :    105.651229248226
           7 :   -91.5951239904991
           8 :    87.4877737506002
           9 :   -86.0251915403786
          10 :    82.2108824420816
          11 :   -74.8945730650244
          12 :    65.9069868759102
          13 :   -57.8773807271288
          14 :    52.3009412445146
          15 :   -48.9120852404254
          16 :    46.3781978847242
          17 :   -43.5163857833678
          18 :    40.0825804525648
          19 :   -36.6892938208813
          20 :    34.0954768265798
          21 :   -32.5111707571242
          22 :    31.4338916869584
          23 :   -30.0716217573614
          24 :    27.9690676715566
          25 :   -25.3535832196512
          26 :    22.9621424052062
          27 :   -21.5052060717921
          28 :    21.1683077246738
          29 :   -21.5004020360208
          30 :    21.7421490610897
          31 :   -31.8866854818075
          32 :   -23.1603375003100

     Forces acting on atoms (Ry/au):

     negative rho (up, down):  1.979E-03 0.000E+00
     atom    1 type  1   force =     0.00014146   -0.00000867    0.00110838
     atom    2 type  1   force =    -0.00014500    0.00033578    0.00014396
     atom    3 type  1   force =     0.00028948   -0.00025729    0.00016224
     atom    4 type  1   force =    -0.00030919   -0.00006907    0.00010962
     atom    5 type  1   force =     0.00260291   -0.00146373   -0.00476244
     atom    6 type  1   force =    -0.00246521   -0.00147161   -0.00467865
     atom    7 type  1   force =    -0.00055497    0.00000195    0.01023206
     atom    8 type  1   force =     0.00052475    0.00292153   -0.00474953
     atom    9 type  1   force =    -0.00009416    0.00011383    0.00009310
     atom   10 type  1   force =    -0.00065866    0.00024946    0.00059275
     atom   11 type  1   force =    -0.00006869   -0.00029736    0.00031866
     atom   12 type  1   force =    -0.00018843   -0.00000825    0.00183588
     atom   13 type  2   force =     0.00006437    0.00009835   -0.00066305
     atom   14 type  3   force =    -0.00034202   -0.00060840    0.00057545
     atom   15 type  3   force =     0.00122876    0.00030051   -0.00018559
     atom   16 type  3   force =    -0.00002541    0.00016297   -0.00013283

     Total force =     0.002726     Total SCF correction =     0.000554
     SCF correction compared to forces is large: reduce conv_thr to get better values

     entering subroutine stress ...

     negative rho (up, down):  1.979E-03 0.000E+00
          total   stress  (Ry/bohr**3)                   (kbar)     P=   -6.71
  -0.00005812   0.00000073   0.00000071         -8.55      0.11      0.10
   0.00000073  -0.00005771  -0.00000004          0.11     -8.49     -0.01
   0.00000071  -0.00000004  -0.00002101          0.10     -0.01     -3.09

     bfgs converged in  20 scf cycles and  19 bfgs steps
     (criteria: energy <  1.0E+00, force <  1.9E-03)

     End of BFGS Geometry Optimization

     Final energy   =   -3575.0072462106 Ry
Begin final coordinates

ATOMIC_POSITIONS (crystal)
Ag1      0.166666667   0.166666667   0.402063960    0   0   0
Ag1      0.666666667   0.166666667   0.402063960    0   0   0
Ag1      0.166666667   0.666666667   0.402063960    0   0   0
Ag1      0.666666667   0.666666667   0.402063960    0   0   0
Ag1      0.833333333   0.333333333   0.500000000    0   0   0
Ag1      0.333333333   0.333333333   0.500000000    0   0   0
Ag1      0.833333333   0.833333333   0.500000000    0   0   0
Ag1      0.333333333   0.833333333   0.500000000    0   0   0
Ag1      0.001655433  -0.000518592   0.597574442
Ag1      0.497006362   0.002541036   0.598285320
Ag1      0.001171538   0.498011269   0.597904139
Ag1      0.501255319   0.499969502   0.594084769
C1       0.175089249   0.166326356   0.679260548
H1       0.351807499   0.154597240   0.694721478
H1       0.008140818   0.344313920   0.693718285
H1       0.161226655   1.001157246   0.693798704
End final coordinates

     Writing output data file calc.save

     General routines

     Parallel routines

   This run was terminated on:  12:20: 6  16Apr2018

   JOB DONE.
Job  /afs/slac/g/suncat/bin/suncat-tsmpirun -x LD_LIBRARY_PATH -wdir /scratch/qe104771_GTGEj pw.x -npool 4 -in pw.inp

TID   HOST_NAME   COMMAND_LINE            STATUS            TERMINATION_TIME
00000 suncat0147 pw.x -npool 4 -i  Done                     04/16/2018 12:20:06
00001 suncat0147 pw.x -npool 4 -i  Done                     04/16/2018 12:20:06
00002 suncat0147 pw.x -npool 4 -i  Done                     04/16/2018 12:20:06
00003 suncat0147 pw.x -npool 4 -i  Done                     04/16/2018 12:20:06
00004 suncat0147 pw.x -npool 4 -i  Done                     04/16/2018 12:20:06
00005 suncat0147 pw.x -npool 4 -i  Done                     04/16/2018 12:20:06
00006 suncat0147 pw.x -npool 4 -i  Done                     04/16/2018 12:20:06
00007 suncat0147 pw.x -npool 4 -i  Done                     04/16/2018 12:20:06
00008 suncat0146 pw.x -npool 4 -i  Done                     04/16/2018 12:20:06
00009 suncat0146 pw.x -npool 4 -i  Done                     04/16/2018 12:20:06
00010 suncat0146 pw.x -npool 4 -i  Done                     04/16/2018 12:20:06
00011 suncat0146 pw.x -npool 4 -i  Done                     04/16/2018 12:20:06
00012 suncat0146 pw.x -npool 4 -i  Done                     04/16/2018 12:20:06
00013 suncat0146 pw.x -npool 4 -i  Done                     04/16/2018 12:20:06
00014 suncat0146 pw.x -npool 4 -i  Done                     04/16/2018 12:20:06
00015 suncat0146 pw.x -npool 4 -i  Done                     04/16/2018 12:20:06
00016 suncat0239 pw.x -npool 4 -i  Done                     04/16/2018 12:20:06
00017 suncat0239 pw.x -npool 4 -i  Done                     04/16/2018 12:20:06
00018 suncat0239 pw.x -npool 4 -i  Done                     04/16/2018 12:20:06
00019 suncat0239 pw.x -npool 4 -i  Done                     04/16/2018 12:20:06
00020 suncat0239 pw.x -npool 4 -i  Done                     04/16/2018 12:20:06
00021 suncat0239 pw.x -npool 4 -i  Done                     04/16/2018 12:20:06
00022 suncat0239 pw.x -npool 4 -i  Done                     04/16/2018 12:20:06
00023 suncat0239 pw.x -npool 4 -i  Done                     04/16/2018 12:20:06
00024 suncat0235 pw.x -npool 4 -i  Done                     04/16/2018 12:20:06
00025 suncat0235 pw.x -npool 4 -i  Done                     04/16/2018 12:20:06
00026 suncat0235 pw.x -npool 4 -i  Done                     04/16/2018 12:20:06
00027 suncat0235 pw.x -npool 4 -i  Done                     04/16/2018 12:20:06
00028 suncat0235 pw.x -npool 4 -i  Done                     04/16/2018 12:20:06
00029 suncat0235 pw.x -npool 4 -i  Done                     04/16/2018 12:20:06
00030 suncat0235 pw.x -npool 4 -i  Done                     04/16/2018 12:20:06
00031 suncat0235 pw.x -npool 4 -i  Done                     04/16/2018 12:20:06