     Program PWSCF v.5.1rc2 (svn rev. 11289) starts on  3May2018 at 14:10:18

     Current dimensions of program PWSCF are:
     Max number of different atomic species (ntypx) = 10
     Max number of k-points (npk) =  40000
     Max angular momentum in pseudopotentials (lmaxx) =  3
     Presently stress not available with electric field

     IMPORTANT: XC functional enforced from input :
     Exchange-correlation      = BEEF-VDW ( 1  4 27 13 2)
     Any further DFT definition will be discarded
     Please, verify this is what you really want

     Subspace diagonalization in iterative solution of the eigenvalue problem:
     a serial algorithm will be used

     bravais-lattice index     =            0
     lattice parameter (alat)  =       1.8897  a.u.
     unit-cell volume          =    6024.3322 (a.u.)^3
     number of atoms/cell      =           13
     number of atomic types    =            2
     number of electrons       =       145.00
     number of Kohn-Sham states=           82
     kinetic-energy cutoff     =      36.7493  Ry
     charge density cutoff     =     367.4932  Ry
     convergence threshold     =      1.0E-05
     mixing beta               =       0.3000
     number of iterations used =           10  plain     mixing
     Exchange-correlation      = BEEF-VDW ( 1  4 27 13 2)
     nstep                     =           50

     celldm(1)=   1.889726  celldm(2)=   0.000000  celldm(3)=   0.000000
     celldm(4)=   0.000000  celldm(5)=   0.000000  celldm(6)=   0.000000

     crystal axes: (cart. coord. in units of alat)
               a(1) = (   6.393197   0.000000   0.000000 )
               a(2) = (   3.196599   5.536671   0.000000 )
               a(3) = (   0.000000   0.000000  25.220024 )

     reciprocal axes: (cart. coord. in units 2 pi/alat)
               b(1) = (  0.156416 -0.090307  0.000000 )
               b(2) = (  0.000000  0.180614  0.000000 )
               b(3) = (  0.000000  0.000000  0.039651 )

     PseudoPot. # 1 for Hf read from file:
     /u/if/mamunm/psp/gbrv1.5pbe/Hf.UPF
     MD5 check sum: 8ee9378dfe14276e333edf04c5e4aa26
     Pseudo is Ultrasoft + core correction, Zval = 12.0
     Generated by new atomic code, or converted to UPF format
     Using radial grid of  921 points,  8 beta functions with:
                l(1) =   0
                l(2) =   0
                l(3) =   0
                l(4) =   1
                l(5) =   1
                l(6) =   2
                l(7) =   2
                l(8) =   3
     Q(r) pseudized with  6 coefficients,  rinner =    1.200   1.200   1.200
                                                       1.200   1.200   1.200
                                                       1.200

     PseudoPot. # 2 for H  read from file:
     /u/if/mamunm/psp/gbrv1.5pbe/H.UPF
     MD5 check sum: 761ae9a214b05c3daf00ab9f6b793d6f
     Pseudo is Ultrasoft, Zval =  1.0
     Generated by new atomic code, or converted to UPF format
     Using radial grid of  615 points,  2 beta functions with:
                l(1) =   0
                l(2) =   0
     Q(r) pseudized with  8 coefficients,  rinner =    0.700

     vdW kernel table read from file vdW_kernel_table
     MD5 check sum: 095c7af220d748ca6e76c0b4c6cfb241

     atomic species   valence    mass     pseudopotential
        Hf1           12.00   178.49000     Hf( 1.00)
        H1             1.00     1.00800     H ( 1.00)

     No symmetry found

   Cartesian axes

     site n.     atom                  positions (alat units)
         1           Hf1 tau(   1) = (   1.5982993   0.9227785  10.0000000  )
         2           Hf1 tau(   2) = (   4.7948978   0.9227785  10.0000000  )
         3           Hf1 tau(   3) = (   3.1965986   3.6911141  10.0000000  )
         4           Hf1 tau(   4) = (   6.3931971   3.6911141  10.0000000  )
         5           Hf1 tau(   5) = (   6.3931971   1.8455570  12.6100118  )
         6           Hf1 tau(   6) = (   3.1965986   1.8455570  12.6100118  )
         7           Hf1 tau(   7) = (   7.9914964   4.6138926  12.6100118  )
         8           Hf1 tau(   8) = (   4.7948978   4.6138926  12.6100118  )
         9           Hf1 tau(   9) = (   0.0000000   0.0000000  15.2200236  )
        10           Hf1 tau(  10) = (   3.1965986   0.0000000  15.2200236  )
        11           Hf1 tau(  11) = (   1.5982993   2.7683356  15.2200236  )
        12           Hf1 tau(  12) = (   4.7948978   2.7683356  15.2200236  )
        13           H1  tau(  13) = (   1.5982993   0.0000000  16.7650236  )

     number of k points=    20  Fermi-Dirac smearing, width (Ry)=  0.0110
                       cart. coord. in units 2pi/alat
        k(    1) = (   0.0000000   0.0000000   0.0000000), wk =   0.0555556
        k(    2) = (   0.0000000   0.0301023   0.0000000), wk =   0.1111111
        k(    3) = (   0.0000000   0.0602046   0.0000000), wk =   0.1111111
        k(    4) = (   0.0000000  -0.0903070   0.0000000), wk =   0.0555556
        k(    5) = (   0.0260694  -0.0150512   0.0000000), wk =   0.1111111
        k(    6) = (   0.0260694   0.0150512   0.0000000), wk =   0.1111111
        k(    7) = (   0.0260694   0.0451535   0.0000000), wk =   0.1111111
        k(    8) = (   0.0260694  -0.1053581   0.0000000), wk =   0.1111111
        k(    9) = (   0.0260694  -0.0752558   0.0000000), wk =   0.1111111
        k(   10) = (   0.0260694  -0.0451535   0.0000000), wk =   0.1111111
        k(   11) = (   0.0521388  -0.0301023   0.0000000), wk =   0.1111111
        k(   12) = (   0.0521388   0.0000000   0.0000000), wk =   0.1111111
        k(   13) = (   0.0521388   0.0301023   0.0000000), wk =   0.1111111
        k(   14) = (   0.0521388  -0.1204093   0.0000000), wk =   0.1111111
        k(   15) = (   0.0521388  -0.0903070   0.0000000), wk =   0.1111111
        k(   16) = (   0.0521388  -0.0602046   0.0000000), wk =   0.1111111
        k(   17) = (  -0.0782081   0.0451535   0.0000000), wk =   0.0555556
        k(   18) = (  -0.0782081   0.0752558   0.0000000), wk =   0.1111111
        k(   19) = (  -0.0782081   0.1053581   0.0000000), wk =   0.1111111
        k(   20) = (  -0.0782081  -0.0451535   0.0000000), wk =   0.0555556

     Largest allocated arrays     est. size (Mb)     dimensions
     Largest temporary arrays     est. size (Mb)     dimensions

     Check: negative/imaginary core charge=   -0.000003    0.000000

     Initial potential from superposition of free atoms
     Check: negative starting charge=   -1.301396

     starting charge  120.99997, renormalised to  145.00000

     negative rho (up, down):  1.560E+00 0.000E+00

     *
     * You are using vdW-DF for exchange-correlation in this calculation.
     * Please cite the following three references that made this development
     * possible:
     *
     *   M. Dion, H. Rydberg, E. Schroder, D. C. Langreth, and
     *   B. I. Lundqvist, Phys. Rev. Lett. 92, 246401 (2004).
     *
     *   T. Thonhauser, V. R. Cooper, S. Li, A. Puzder, P. Hyldgaard, and
     *   D. C. Langreth, Phys. Rev. B 76, 125112 (2007).
     *
     *   G. Roman-Perez and J. M. Soler, Phys. Rev. Lett. 103, 096102 (2009).
     *
     *
     * If you are using vdW-DF2, please also cite:
     *
     *   K. Lee, E. D. Murray, L. Kong, B. I. Lundqvist, and
     *   D. C. Langreth, Phys. Rev. B 82, 081101(R) (2010).
     *
     *
     * If you are calculating the stress with vdW-DF, please also cite:
     *
     *   R. Sabatini, E. Kucukbenli, B. Kolb, T. Thonhauser, and
     *   S. de Gironcoli, J. Phys.: Condens. Matter 24, 424209 (2012).
     *

     Carrying out vdW-DF run using the following parameters:

     Nqs =      20    Nr_points =    1024   r_max =   100.000
     q_mesh =
               0.00001000     0.04494208     0.09755937     0.15916263
               0.23128650     0.31572767     0.41458969     0.53033537
               0.66584808     0.82450364     1.01025438     1.22772762
               1.48234092     1.78043706     2.12944203     2.53805004
               3.01644009     3.57652955     4.23227104     5.00000000

     Gradients computed in reciprocal space

     Adding external electric field

     Computed dipole along edir(3) :
        Dipole               -1.5573 Ry au,         -3.9583 Debye
        Dipole field         -0.0032 Ry au

        Potential amp.        0.3019 Ry
        Total length         46.4675 bohr

     Starting wfc are  157 randomized atomic wfcs

     Self-consistent Calculation

     iteration #  1     ecut=    36.75 Ry     beta=0.30
     Davidson diagonalization with overlap
     ethr =  1.00E-02,  avg # of iterations =  7.7

[...]

     total energy              =   -1783.15140869 Ry
     Harris-Foulkes estimate   =   -1939.18017556 Ry
     estimated scf accuracy    <     333.97856063 Ry

[...]

     iteration # 19     ecut=    36.75 Ry     beta=0.30
     Davidson diagonalization with overlap
     c_bands:  1 eigenvalues not converged
     ethr =  3.78E-06,  avg # of iterations =  7.0

[...]

     End of self-consistent calculation

          k = 0.0000 0.0000 0.0000 ( 22729 PWs)   bands (ev):

   -61.3731 -61.3502 -61.3268 -61.2960 -61.2930 -61.2862 -61.2563 -61.2417
   -60.9205 -60.8901 -60.8899 -60.8757 -30.0992 -30.0991 -30.0859 -30.0676
   -30.0674 -30.0563 -30.0325 -29.9578 -29.9407 -29.9051 -29.8957 -29.8556
   -29.8205 -29.8015 -29.6931 -29.6717 -29.6670 -29.6649 -29.6625 -29.6349
   -29.6195 -29.6124 -29.6056 -29.5392 -29.5368 -29.5365 -29.5149 -29.3747
   -29.3690 -29.3681 -29.3457 -29.2821 -29.2775 -29.2764 -29.1576 -29.1564
    -5.2684  -4.1306  -2.8648  -2.1159  -1.7332  -1.7330  -1.6135  -1.4703
    -1.4640  -1.3197  -1.0649  -1.0643  -0.7423  -0.4019  -0.4011  -0.3266
     0.3455   0.3510   0.5482   1.3081   1.4299   1.6416   1.6485   1.6617
     1.7494   1.7731   1.7761   2.1653   2.1925   2.3968   2.3973   2.5361
     2.5872   2.6669

[...]

          k =-0.0782 0.0452 0.0000 ( 22668 PWs)   bands (ev):

[...]

     the Fermi energy is     1.3043 ev

!    total energy              =   -1927.83574077 Ry
     Harris-Foulkes estimate   =   -1927.83574385 Ry
     estimated scf accuracy    <       0.00000582 Ry

     The total energy is the sum of the following terms:

     one-electron contribution =   -8335.94335036 Ry
     hartree contribution      =    4150.61758415 Ry
     xc contribution           =    -928.36563953 Ry
     ewald contribution        =    3185.97465132 Ry
     electric field correction =       0.00000290 Ry
     smearing contrib. (-TS)   =      -0.11898926 Ry

     convergence has been achieved in  25 iterations

 BEEF-vdW xc energy contributions
           1 :   -839.587288669420
           2 :    780.397923450532
           3 :   -675.466928868329
           4 :    546.461489996575
           5 :   -415.853332160031
           6 :    300.571261582774
           7 :   -209.201217083770
           8 :    142.894141162888
           9 :   -98.4236584167027
          10 :    71.1688752981302
          11 :   -56.6689592634723
          12 :    50.6944486882562
          13 :   -48.8228517233622
          14 :    46.5131760036861
          15 :   -40.0277258257929
          16 :    27.6821311737748
          17 :   -10.5672844633009
          18 :   -7.86960977311151
          19 :    23.2881809786518
          20 :   -32.2670579357709
          21 :    33.5699575600165
          22 :   -28.3397186485868
          23 :    19.2969588737213
          24 :   -9.53083497393084
          25 :    1.53321529285654
          26 :    3.17865402823884
          27 :   -3.96932887400317
          28 :   0.878001775454322
          29 :    5.42553276674153
          30 :   -13.5541539807359
          31 :   -60.2471517320598
          32 :   -43.3123286519880

     Forces acting on atoms (Ry/au):

     negative rho (up, down):  1.379E+00 0.000E+00
     atom    1 type  1   force =    -0.00001332   -0.00062572    0.02436143
     atom    2 type  1   force =     0.00001048    0.00041756    0.02488674
     atom    3 type  1   force =     0.00060652   -0.00011938    0.02508244
     atom    4 type  1   force =    -0.00060884   -0.00013462    0.02500043
     atom    5 type  1   force =    -0.00152397   -0.00034725   -0.00130904
     atom    6 type  1   force =     0.00151244   -0.00030565   -0.00132120
     atom    7 type  1   force =     0.00004396   -0.00069488   -0.00415457
     atom    8 type  1   force =    -0.00004032   -0.00056553    0.00174831
     atom    9 type  1   force =     0.01398501   -0.00315490   -0.00532164
     atom   10 type  1   force =    -0.01397987   -0.00315674   -0.00534951
     atom   11 type  1   force =    -0.00000789    0.00934633   -0.02371284
     atom   12 type  1   force =     0.00001411   -0.00073745   -0.02361961
     atom   13 type  2   force =     0.00000171    0.00007824   -0.03629094

     Total force =     0.054708     Total SCF correction =     0.001136

     entering subroutine stress ...

     negative rho (up, down):  1.379E+00 0.000E+00
          total   stress  (Ry/bohr**3)                   (kbar)     P=  -26.10
  -0.00016925   0.00000001  -0.00000000        -24.90      0.00     -0.00
   0.00000001  -0.00016689   0.00000236          0.00    -24.55      0.35
  -0.00000000   0.00000236  -0.00019607         -0.00      0.35    -28.84

     BFGS Geometry Optimization

     number of scf cycles    =   1
     number of bfgs steps    =   0

     energy   new            =   -1927.8357407672 Ry

     new trust radius        =       0.0362910226 bohr
     new conv_thr            =       0.0000099958 Ry

ATOMIC_POSITIONS (crystal)
Hf1      0.166666667   0.166666667   0.396510335    0   0   0
Hf1      0.666666667   0.166666667   0.396510335    0   0   0
Hf1      0.166666667   0.666666667   0.396510335    0   0   0
Hf1      0.666666667   0.666666667   0.396510335    0   0   0
Hf1      0.833333333   0.333333333   0.500000000    0   0   0
Hf1      0.333333333   0.333333333   0.500000000    0   0   0
Hf1      0.833333333   0.833333333   0.500000000    0   0   0
Hf1      0.333333333   0.833333333   0.500000000    0   0   0
Hf1      0.001308333  -0.000301535   0.603378004
Hf1      0.498993715  -0.000301711   0.603377419
Hf1     -0.000447299   0.500893292   0.602992112
Hf1      0.500036409   0.499929517   0.602994069
H1       0.249996402   0.000007478   0.663989040

     Writing output data file calc.save
     Check: negative starting charge=   -1.301396
     NEW-OLD atomic charge density approx. for the potential

     Check: negative/imaginary core charge=   -0.000003    0.000000
     Check: negative starting charge=   -1.300881

[...]

     energy   old            =   -1927.8357407672 Ry
     energy   new            =   -1927.8385981442 Ry

     CASE: energy  _new < energy  _old

     WARNING: bfgs curvature condition failed, Theta= 0.863
     new trust radius        =       0.0544365339 bohr
     new conv_thr            =       0.0000001000 Ry

[...]

     iteration #  1     ecut=    36.75 Ry     beta=0.30
     Davidson diagonalization with overlap
     c_bands:  1 eigenvalues not converged
     ethr =  1.00E-06,  avg # of iterations = 16.1

[...]

     Total force =     0.006272     Total SCF correction =     0.000185

[...]

     number of scf cycles    =  13
     number of bfgs steps    =  12

     energy   old            =   -1927.8626409519 Ry
     energy   new            =   -1927.8628768264 Ry

     CASE: energy  _new < energy  _old

     new trust radius        =       0.0468481022 bohr
     new conv_thr            =       0.0000001000 Ry

ATOMIC_POSITIONS (crystal)
Hf1      0.166666667   0.166666667   0.396510335    0   0   0
Hf1      0.666666667   0.166666667   0.396510335    0   0   0
Hf1      0.166666667   0.666666667   0.396510335    0   0   0
Hf1      0.666666667   0.666666667   0.396510335    0   0   0
Hf1      0.833333333   0.333333333   0.500000000    0   0   0
Hf1      0.333333333   0.333333333   0.500000000    0   0   0
Hf1      0.833333333   0.833333333   0.500000000    0   0   0
Hf1      0.333333333   0.833333333   0.500000000    0   0   0
Hf1      0.001993299  -0.001332549   0.597034011
Hf1      0.499269657  -0.001320443   0.597025429
Hf1     -0.005225535   0.510517334   0.596827349
Hf1      0.499797304   0.500502778   0.596651132
H1       0.251624748  -0.003199636   0.647438607

     Writing output data file calc.save
     Check: negative starting charge=   -1.300747
     NEW-OLD atomic charge density approx. for the potential

     Check: negative/imaginary core charge=   -0.000003    0.000000
     Check: negative starting charge=   -1.300929

[...]

     Self-consistent Calculation

[...]

     total energy              =   -1927.86299913 Ry
     Harris-Foulkes estimate   =   -1927.86299914 Ry
     estimated scf accuracy    <       0.00000021 Ry

     iteration # 10     ecut=    36.75 Ry     beta=0.30
     Davidson diagonalization with overlap
     ethr =  1.44E-10,  avg # of iterations =  3.2

[...]

     negative rho (up, down):  1.377E+00 0.000E+00

     Adding external electric field

     Computed dipole along edir(3) :
        Dipole                0.0094 Ry au,          0.0239 Debye
        Dipole field          0.0000 Ry au

        Potential amp.       -0.0018 Ry
        Total length         46.4675 bohr

     End of self-consistent calculation

[...]

          k = 0.0521-0.0602 0.0000 ( 22643 PWs)   bands (ev):

[...]

          k =-0.0782-0.0452 0.0000 ( 22668 PWs)   bands (ev):

   -61.2845 -61.2788 -61.2666 -61.2606 -61.2064 -61.1983 -61.0631 -61.0613
   -60.7489 -60.7476 -60.7209 -60.6969 -29.9538 -29.9481 -29.9140 -29.9044
   -29.8812 -29.8665 -29.8487 -29.8423 -29.8326 -29.8292 -29.7823 -29.7813
   -29.7513 -29.7458 -29.7261 -29.7154 -29.7094 -29.7018 -29.5995 -29.5817
   -29.5758 -29.5688 -29.4554 -29.4516 -29.3775 -29.3668 -29.2633 -29.2588
   -29.2264 -29.2229 -29.2063 -29.1978 -29.1756 -29.1503 -29.0721 -29.0590
    -3.9591  -3.6166  -3.1787  -2.3670  -1.9342  -1.3639  -1.3439  -1.0516
    -0.8486  -0.7606  -0.6531   0.1103   0.1518   0.2539   0.3021   0.4428
     0.4640   0.5823   0.6414   0.7891   0.8257   0.8608   0.9420   1.0640
     1.1126   1.1947   1.2756   1.3111   1.4005   1.5139   1.6941   1.7022
     1.9903   2.2313

     the Fermi energy is     1.3289 ev

!    total energy              =   -1927.86299911 Ry
     Harris-Foulkes estimate   =   -1927.86299914 Ry
     estimated scf accuracy    <       0.00000007 Ry

     The total energy is the sum of the following terms:

     one-electron contribution =   -8548.92614287 Ry
     hartree contribution      =    4257.59580139 Ry
     xc contribution           =    -928.72169169 Ry
     ewald contribution        =    3292.30378581 Ry
     electric field correction =       0.00000018 Ry
     smearing contrib. (-TS)   =      -0.11475192 Ry

     convergence has been achieved in  10 iterations

 BEEF-vdW xc energy contributions
           1 :   -839.942759226807
           2 :    780.850608250242
           3 :   -675.999845930080
           4 :    546.932435735121
           5 :   -416.092650617914
           6 :    300.508964815690
           7 :   -208.924601084090
           8 :    142.593320668696
           9 :   -98.2681753256436
          10 :    71.2049801341921
          11 :   -56.8058187391832
          12 :    50.7829266410154
          13 :   -48.7667779523604
          14 :    46.3352609392729
          15 :   -39.8468737585899
          16 :    27.6218434032326
          17 :   -10.6610565456847
          18 :   -7.70811717255322
          19 :    23.2060983442730
          20 :   -32.3640648657699
          21 :    33.8199668830567
          22 :   -28.6031857368241
          23 :    19.4183067402216
          24 :   -9.44958366439459
          25 :    1.32573047566075
          26 :    3.35809697662239
          27 :   -4.00345548893335
          28 :   0.770049428778407
          29 :    5.56197150242701
          30 :   -13.5890932885377
          31 :   -60.2730816708258
          32 :   -43.3526516015522

     Forces acting on atoms (Ry/au):

     negative rho (up, down):  1.377E+00 0.000E+00
     atom    1 type  1   force =     0.00000665    0.00006267    0.01742225
     atom    2 type  1   force =     0.00000194    0.00064297    0.01843349
     atom    3 type  1   force =     0.00031357   -0.00073452    0.01869370
     atom    4 type  1   force =    -0.00029858   -0.00072481    0.01864011
     atom    5 type  1   force =     0.00033349   -0.00038572   -0.01433758
     atom    6 type  1   force =    -0.00027949   -0.00036745   -0.01434925
     atom    7 type  1   force =    -0.00002260    0.00194881   -0.02575846
     atom    8 type  1   force =    -0.00001258   -0.00095839   -0.01769150
     atom    9 type  1   force =     0.00052833   -0.00068355    0.00067147
     atom   10 type  1   force =    -0.00045901   -0.00071053    0.00063985
     atom   11 type  1   force =    -0.00000116    0.00115147   -0.00088993
     atom   12 type  1   force =    -0.00005977    0.00105599   -0.00074684
     atom   13 type  2   force =    -0.00005078   -0.00029695   -0.00072732

     Total force =     0.002595     Total SCF correction =     0.000351
     SCF correction compared to forces is large: reduce conv_thr to get better values

     entering subroutine stress ...

     negative rho (up, down):  1.377E+00 0.000E+00
          total   stress  (Ry/bohr**3)                   (kbar)     P=  -16.60
  -0.00012276  -0.00000002  -0.00000003        -18.06     -0.00     -0.00
  -0.00000002  -0.00013067   0.00000085         -0.00    -19.22      0.13
  -0.00000003   0.00000085  -0.00008502         -0.00      0.13    -12.51

     bfgs converged in  14 scf cycles and  13 bfgs steps
     (criteria: energy <  1.0E+00, force <  1.9E-03)

     End of BFGS Geometry Optimization

     Final energy   =   -1927.8629991083 Ry
Begin final coordinates

ATOMIC_POSITIONS (crystal)
Hf1      0.166666667   0.166666667   0.396510335    0   0   0
Hf1      0.666666667   0.166666667   0.396510335    0   0   0
Hf1      0.166666667   0.666666667   0.396510335    0   0   0
Hf1      0.666666667   0.666666667   0.396510335    0   0   0
Hf1      0.833333333   0.333333333   0.500000000    0   0   0
Hf1      0.333333333   0.333333333   0.500000000    0   0   0
Hf1      0.833333333   0.833333333   0.500000000    0   0   0
Hf1      0.333333333   0.833333333   0.500000000    0   0   0
Hf1      0.001993299  -0.001332549   0.597034011
Hf1      0.499269657  -0.001320443   0.597025429
Hf1     -0.005225535   0.510517334   0.596827349
Hf1      0.499797304   0.500502778   0.596651132
H1       0.251624748  -0.003199636   0.647438607
End final coordinates

     Writing output data file calc.save

     General routines

     Parallel routines

   This run was terminated on:  17:50:47   3May2018

   JOB DONE.
Job  /afs/slac/g/suncat/bin/suncat-tsmpirun -x LD_LIBRARY_PATH -wdir /scratch/qe768750_7Ox3k pw.x -npool 4 -in pw.inp

TID   HOST_NAME   COMMAND_LINE            STATUS            TERMINATION_TIME
00000 suncat0145 pw.x -npool 4 -i  Done                     05/03/2018 17:50:47
00001 suncat0145 pw.x -npool 4 -i  Done                     05/03/2018 17:50:47
00002 suncat0145 pw.x -npool 4 -i  Done                     05/03/2018 17:50:47
00003 suncat0145 pw.x -npool 4 -i  Done                     05/03/2018 17:50:47
00004 suncat0145 pw.x -npool 4 -i  Done                     05/03/2018 17:50:47
00005 suncat0145 pw.x -npool 4 -i  Done                     05/03/2018 17:50:47
00006 suncat0145 pw.x -npool 4 -i  Done                     05/03/2018 17:50:47
00007 suncat0145 pw.x -npool 4 -i  Done                     05/03/2018 17:50:47
00008 suncat0143 pw.x -npool 4 -i  Done                     05/03/2018 17:50:47
00009 suncat0143 pw.x -npool 4 -i  Done                     05/03/2018 17:50:47
00010 suncat0143 pw.x -npool 4 -i  Done                     05/03/2018 17:50:47
00011 suncat0143 pw.x -npool 4 -i  Done                     05/03/2018 17:50:47
00012 suncat0143 pw.x -npool 4 -i  Done                     05/03/2018 17:50:47
00013 suncat0143 pw.x -npool 4 -i  Done                     05/03/2018 17:50:47
00014 suncat0143 pw.x -npool 4 -i  Done                     05/03/2018 17:50:47
00015 suncat0143 pw.x -npool 4 -i  Done                     05/03/2018 17:50:47
00016 suncat0276 pw.x -npool 4 -i  Done                     05/03/2018 17:50:47
00017 suncat0276 pw.x -npool 4 -i  Done                     05/03/2018 17:50:47
00018 suncat0276 pw.x -npool 4 -i  Done                     05/03/2018 17:50:47
00019 suncat0276 pw.x -npool 4 -i  Done                     05/03/2018 17:50:47
00020 suncat0276 pw.x -npool 4 -i  Done                     05/03/2018 17:50:47
00021 suncat0276 pw.x -npool 4 -i  Done                     05/03/2018 17:50:47
00022 suncat0276 pw.x -npool 4 -i  Done                     05/03/2018 17:50:47
00023 suncat0276 pw.x -npool 4 -i  Done                     05/03/2018 17:50:47
00024 suncat0270 pw.x -npool 4 -i  Done                     05/03/2018 17:50:47
00025 suncat0270 pw.x -npool 4 -i  Done                     05/03/2018 17:50:47
00026 suncat0270 pw.x -npool 4 -i  Done                     05/03/2018 17:50:47
00027 suncat0270 pw.x -npool 4 -i  Done                     05/03/2018 17:50:47
00028 suncat0270 pw.x -npool 4 -i  Done                     05/03/2018 17:50:47
00029 suncat0270 pw.x -npool 4 -i  Done                     05/03/2018 17:50:47
00030 suncat0270 pw.x -npool 4 -i  Done                     05/03/2018 17:50:47
00031 suncat0270 pw.x -npool 4 -i  Done                     05/03/2018 17:50:47