     Program PWSCF v.5.1rc2 (svn rev. 11289) starts on 18Jan2018 at  2: 9:31

     Current dimensions of program PWSCF are:
     Max number of different atomic species (ntypx) = 10
     Max number of k-points (npk) =  40000
     Max angular momentum in pseudopotentials (lmaxx) =  3
     Presently stress not available with electric field

     IMPORTANT: XC functional enforced from input :
     Exchange-correlation      = BEEF-VDW ( 1  4 27 13 2)
     Any further DFT definition will be discarded
     Please, verify this is what you really want

     Subspace diagonalization in iterative solution of the eigenvalue problem:
     a serial algorithm will be used

     bravais-lattice index     =            0
     lattice parameter (alat)  =       1.8897  a.u.
     unit-cell volume          =    4228.3700 (a.u.)^3
     number of atoms/cell      =           13
     number of atomic types    =            2
     number of electrons       =       196.00
     number of Kohn-Sham states=          108
     kinetic-energy cutoff     =      36.7493  Ry
     charge density cutoff     =     367.4932  Ry
     convergence threshold     =      1.0E-05
     mixing beta               =       0.3000
     number of iterations used =           10  plain     mixing
     Exchange-correlation      = BEEF-VDW ( 1  4 27 13 2)
     nstep                     =           50

     celldm(1)=   1.889726  celldm(2)=   0.000000  celldm(3)=   0.000000
     celldm(4)=   0.000000  celldm(5)=   0.000000  celldm(6)=   0.000000

     crystal axes: (cart. coord. in units of alat)
               a(1) = (   5.440665   0.000000   0.000000 )
               a(2) = (   2.720332   4.711754   0.000000 )
               a(3) = (   0.000000   0.000000  24.442284 )

     reciprocal axes: (cart. coord. in units 2 pi/alat)
               b(1) = (  0.183801 -0.106118  0.000000 )
               b(2) = (  0.000000  0.212235  0.000000 )
               b(3) = (  0.000000  0.000000  0.040913 )

     PseudoPot. # 1 for Os read from file:
     /afs/slac.stanford.edu/u/if/mamunm/psp/gbrv1.5pbe/Os.UPF
     MD5 check sum: a3fb40a04f0c37c25c34bbc47164c9a8
     Pseudo is Ultrasoft + core correction, Zval = 16.0
     Generated by new atomic code, or converted to UPF format
     Using radial grid of  983 points,  8 beta functions with:
                l(1) =   0
                l(2) =   0
                l(3) =   1
                l(4) =   1
                l(5) =   2
                l(6) =   2
                l(7) =   3
                l(8) =   3
     Q(r) pseudized with  8 coefficients,  rinner =    1.150   1.150   1.150
                                                       1.150   1.150   1.150
                                                       1.150

     PseudoPot. # 2 for C  read from file:
     /afs/slac.stanford.edu/u/if/mamunm/psp/gbrv1.5pbe/C.UPF
     MD5 check sum: d1aef80898a10debaa0f26306b886e00
     Pseudo is Ultrasoft + core correction, Zval =  4.0
     Generated by new atomic code, or converted to UPF format
     Using radial grid of  721 points,  4 beta functions with:
                l(1) =   0
                l(2) =   0
                l(3) =   1
                l(4) =   1
     Q(r) pseudized with  8 coefficients,  rinner =    1.100   1.100   1.100

     vdW kernel table read from file vdW_kernel_table
     MD5 check sum: 095c7af220d748ca6e76c0b4c6cfb241

     atomic species   valence    mass     pseudopotential
        Os1           16.00   190.23000     Os( 1.00)
        C1             4.00    12.01100     C ( 1.00)

     No symmetry found

   Cartesian axes

     site n.     atom                  positions (alat units)
         1           Os1 tau(   1) = (   1.3601662   0.7852923  10.0000000  )
         2           Os1 tau(   2) = (   4.0804987   0.7852923  10.0000000  )
         3           Os1 tau(   3) = (   2.7203325   3.1411694  10.0000000  )
         4           Os1 tau(   4) = (   5.4406649   3.1411694  10.0000000  )
         5           Os1 tau(   5) = (   5.4406649   1.5705847  12.2211422  )
         6           Os1 tau(   6) = (   2.7203325   1.5705847  12.2211422  )
         7           Os1 tau(   7) = (   6.8008312   3.9264617  12.2211422  )
         8           Os1 tau(   8) = (   4.0804987   3.9264617  12.2211422  )
         9           Os1 tau(   9) = (   0.0000000   0.0000000  14.4422843  )
        10           Os1 tau(  10) = (   2.7203325   0.0000000  14.4422843  )
        11           Os1 tau(  11) = (   1.3601662   2.3558770  14.4422843  )
        12           Os1 tau(  12) = (   4.0804987   2.3558770  14.4422843  )
        13           C1  tau(  13) = (   0.0000000   0.0000000  16.6422843  )

     number of k points=    20  Fermi-Dirac smearing, width (Ry)=  0.0110
                       cart. coord. in units 2pi/alat
        k(    1) = (   0.0000000   0.0000000   0.0000000), wk =   0.0555556
        k(    2) = (   0.0000000   0.0353725   0.0000000), wk =   0.1111111
        k(    3) = (   0.0000000   0.0707451   0.0000000), wk =   0.1111111
        k(    4) = (   0.0000000  -0.1061176   0.0000000), wk =   0.0555556
        k(    5) = (   0.0306335  -0.0176863   0.0000000), wk =   0.1111111
        k(    6) = (   0.0306335   0.0176863   0.0000000), wk =   0.1111111
        k(    7) = (   0.0306335   0.0530588   0.0000000), wk =   0.1111111
        k(    8) = (   0.0306335  -0.1238039   0.0000000), wk =   0.1111111
        k(    9) = (   0.0306335  -0.0884313   0.0000000), wk =   0.1111111
        k(   10) = (   0.0306335  -0.0530588   0.0000000), wk =   0.1111111
        k(   11) = (   0.0612670  -0.0353725   0.0000000), wk =   0.1111111
        k(   12) = (   0.0612670   0.0000000   0.0000000), wk =   0.1111111
        k(   13) = (   0.0612670   0.0353725   0.0000000), wk =   0.1111111
        k(   14) = (   0.0612670  -0.1414901   0.0000000), wk =   0.1111111
        k(   15) = (   0.0612670  -0.1061176   0.0000000), wk =   0.1111111
        k(   16) = (   0.0612670  -0.0707451   0.0000000), wk =   0.1111111
        k(   17) = (  -0.0919005   0.0530588   0.0000000), wk =   0.0555556
        k(   18) = (  -0.0919005   0.0884313   0.0000000), wk =   0.1111111
        k(   19) = (  -0.0919005   0.1238039   0.0000000), wk =   0.1111111
        k(   20) = (  -0.0919005  -0.0530588   0.0000000), wk =   0.0555556

     Largest allocated arrays     est. size (Mb)     dimensions
     Largest temporary arrays     est. size (Mb)     dimensions

     Initial potential from superposition of free atoms
     Check: negative starting charge=   -1.495723

     starting charge  189.99952, renormalised to  196.00000

     negative rho (up, down):  1.543E+00 0.000E+00

     *
     * You are using vdW-DF for exchange-correlation in this calculation.
     * Please cite the following three references that made this development
     * possible:
     *
     *   M. Dion, H. Rydberg, E. Schroder, D. C. Langreth, and
     *   B. I. Lundqvist, Phys. Rev. Lett. 92, 246401 (2004).
     *
     *   T. Thonhauser, V. R. Cooper, S. Li, A. Puzder, P. Hyldgaard, and
     *   D. C. Langreth, Phys. Rev. B 76, 125112 (2007).
     *
     *   G. Roman-Perez and J. M. Soler, Phys. Rev. Lett. 103, 096102 (2009).
     *
     *
     * If you are using vdW-DF2, please also cite:
     *
     *   K. Lee, E. D. Murray, L. Kong, B. I. Lundqvist, and
     *   D. C. Langreth, Phys. Rev. B 82, 081101(R) (2010).
     *
     *
     * If you are calculating the stress with vdW-DF, please also cite:
     *
     *   R. Sabatini, E. Kucukbenli, B. Kolb, T. Thonhauser, and
     *   S. de Gironcoli, J. Phys.: Condens. Matter 24, 424209 (2012).
     *

     Carrying out vdW-DF run using the following parameters:

     Nqs =      20    Nr_points =    1024   r_max =   100.000
     q_mesh =
               0.00001000     0.04494208     0.09755937     0.15916263
               0.23128650     0.31572767     0.41458969     0.53033537
               0.66584808     0.82450364     1.01025438     1.22772762
               1.48234092     1.78043706     2.12944203     2.53805004
               3.01644009     3.57652955     4.23227104     5.00000000

     Gradients computed in reciprocal space

     Adding external electric field

     Computed dipole along edir(3) :
        Dipole               -1.0551 Ry au,         -2.6817 Debye
        Dipole field         -0.0031 Ry au

        Potential amp.        0.2824 Ry
        Total length         45.0345 bohr

     Starting wfc are  160 randomized atomic wfcs

     Self-consistent Calculation

     iteration #  1     ecut=    36.75 Ry     beta=0.30
     Davidson diagonalization with overlap
     ethr =  1.00E-02,  avg # of iterations =  2.0

[...]

     total energy              =   -2394.22300947 Ry
     Harris-Foulkes estimate   =   -2409.08724015 Ry
     estimated scf accuracy    <      30.89532872 Ry

[...]

     End of self-consistent calculation

          k = 0.0000 0.0000 0.0000 ( 15845 PWs)   bands (ev):

   -84.2346 -84.1621 -84.1271 -84.1270 -83.9076 -83.7646 -83.7111 -83.7088
   -83.6815 -83.6804 -83.6704 -83.6701 -43.8937 -43.8937 -43.8451 -43.7165
   -43.6104 -43.5982 -43.5981 -43.4007 -43.4004 -43.3545 -43.2834 -43.2834
   -43.2737 -43.2197 -43.2123 -43.2121 -43.1407 -43.0788 -43.0788 -43.0038
   -42.9517 -42.9354 -42.9347 -42.8672 -42.8667 -42.8554 -42.8540 -42.8540
   -42.7942 -42.7938 -42.7854 -42.7685 -42.6359 -42.6359 -42.6105 -42.6105
    -6.9530  -6.0637  -4.7179  -4.3891  -4.0664  -4.0664  -4.0366  -3.7380
    -3.7380  -3.6746  -3.1530  -3.1529  -3.1329  -2.8698  -2.8697  -2.8419
    -1.3928  -1.3926  -1.2905  -0.5316  -0.5315  -0.5159  -0.2588  -0.0963
    -0.0131  -0.0131   0.4872   0.4872   0.4972   0.4972   0.5310   0.5986
     0.8150   0.8150   0.8577   0.8580   1.8506   1.8507   1.8868   2.3548
     2.5152   2.5153   2.5678   2.7305   2.8352   2.8353   3.3641   3.3642
     3.4943   3.6235   3.6236   4.0890   4.0893   4.2537   4.4360   4.4360
     4.4869   4.6766   4.6767   5.0545

[...]

          k =-0.0919 0.0531 0.0000 ( 15968 PWs)   bands (ev):

[...]

     the Fermi energy is     2.8570 ev

!    total energy              =   -2408.56644672 Ry
     Harris-Foulkes estimate   =   -2408.56645107 Ry
     estimated scf accuracy    <       0.00000302 Ry

     The total energy is the sum of the following terms:

     one-electron contribution =  -21686.64473055 Ry
     hartree contribution      =   10826.14451839 Ry
     xc contribution           =    -467.55504302 Ry
     ewald contribution        =    8919.56184265 Ry
     electric field correction =       0.00013452 Ry
     smearing contrib. (-TS)   =      -0.07316872 Ry

     convergence has been achieved in  21 iterations

 BEEF-vdW xc energy contributions
           1 :   -409.538531621824
           2 :    379.461612555865
           3 :   -326.375256001495
           4 :    261.833488328644
           5 :   -198.252739688231
           6 :    145.549979513334
           7 :   -108.952233493677
           8 :    88.4625746982822
           9 :   -79.9759286395312
          10 :    77.4626654423478
          11 :   -75.3373572837958
          12 :    70.1649385122049
          13 :   -61.2438479440205
          14 :    50.0943376285933
[...]

[...]

     Total force =     0.123276     Total SCF correction =     0.013718
     SCF correction compared to forces is large: reduce conv_thr to get better values

[...]

   This run was terminated on:   2:44: 0  18Jan2018

[...]

     Program PWSCF v.5.1rc2 (svn rev. 11289) starts on 18Jan2018 at  2:44: 5

[...]

     Total force =     0.105421     Total SCF correction =     0.012206
     SCF correction compared to forces is large: reduce conv_thr to get better values

[...]

     Program PWSCF v.5.1rc2 (svn rev. 11289) starts on 18Jan2018 at  2:49:41

     Current dimensions of program PWSCF are:
     Max number of different atomic species (ntypx) = 10
     Max number of k-points (npk) =  40000
     Max angular momentum in pseudopotentials (lmaxx) =  3
     Presently stress not available with electric field

     IMPORTANT: XC functional enforced from input :
     Exchange-correlation      = BEEF-VDW ( 1  4 27 13 2)
     Any further DFT definition will be discarded
     Please, verify this is what you really want

     Subspace diagonalization in iterative solution of the eigenvalue problem:
     a serial algorithm will be used

     bravais-lattice index     =            0
     lattice parameter (alat)  =       1.8897  a.u.
     unit-cell volume          =    4228.3700 (a.u.)^3
     number of atoms/cell      =           13
     number of atomic types    =            2
     number of electrons       =       196.00
     number of Kohn-Sham states=          108
     kinetic-energy cutoff     =      36.7493  Ry
     charge density cutoff     =     367.4932  Ry
     convergence threshold     =      1.0E-05
     mixing beta               =       0.3000
     number of iterations used =           10  plain     mixing
     Exchange-correlation      = BEEF-VDW ( 1  4 27 13 2)
     nstep                     =           50

     celldm(1)=   1.889726  celldm(2)=   0.000000  celldm(3)=   0.000000
     celldm(4)=   0.000000  celldm(5)=   0.000000  celldm(6)=   0.000000

     crystal axes: (cart. coord. in units of alat)
               a(1) = (   5.440665   0.000000   0.000000 )
               a(2) = (   2.720332   4.711754   0.000000 )
               a(3) = (   0.000000   0.000000  24.442284 )

     reciprocal axes: (cart. coord. in units 2 pi/alat)
               b(1) = (  0.183801 -0.106118  0.000000 )
               b(2) = (  0.000000  0.212235  0.000000 )
               b(3) = (  0.000000  0.000000  0.040913 )

     PseudoPot. # 1 for Os read from file:
     /afs/slac.stanford.edu/u/if/mamunm/psp/gbrv1.5pbe/Os.UPF
     MD5 check sum: a3fb40a04f0c37c25c34bbc47164c9a8
     Pseudo is Ultrasoft + core correction, Zval = 16.0
     Generated by new atomic code, or converted to UPF format
     Using radial grid of  983 points,  8 beta functions with:
                l(1) =   0
                l(2) =   0
                l(3) =   1
                l(4) =   1
                l(5) =   2
                l(6) =   2
                l(7) =   3
                l(8) =   3
     Q(r) pseudized with  8 coefficients,  rinner =    1.150   1.150   1.150
                                                       1.150   1.150   1.150
                                                       1.150

     PseudoPot. # 2 for C  read from file:
     /afs/slac.stanford.edu/u/if/mamunm/psp/gbrv1.5pbe/C.UPF
     MD5 check sum: d1aef80898a10debaa0f26306b886e00
     Pseudo is Ultrasoft + core correction, Zval =  4.0
     Generated by new atomic code, or converted to UPF format
     Using radial grid of  721 points,  4 beta functions with:
                l(1) =   0
                l(2) =   0
                l(3) =   1
                l(4) =   1
     Q(r) pseudized with  8 coefficients,  rinner =    1.100   1.100   1.100

     vdW kernel table read from file vdW_kernel_table
     MD5 check sum: 095c7af220d748ca6e76c0b4c6cfb241

     atomic species   valence    mass     pseudopotential
        Os1           16.00   190.23000     Os( 1.00)
        C1             4.00    12.01100     C ( 1.00)

     No symmetry found

   Cartesian axes

     site n.     atom                  positions (alat units)
         1           Os1 tau(   1) = (   1.3601662   0.7852923  10.0000000  )
         2           Os1 tau(   2) = (   4.0804987   0.7852923  10.0000000  )
         3           Os1 tau(   3) = (   2.7203325   3.1411694  10.0000000  )
         4           Os1 tau(   4) = (   5.4406649   3.1411694  10.0000000  )
         5           Os1 tau(   5) = (   5.4406649   1.5705847  12.2211422  )
         6           Os1 tau(   6) = (   2.7203325   1.5705847  12.2211422  )
         7           Os1 tau(   7) = (   6.8008312   3.9264617  12.2211422  )
         8           Os1 tau(   8) = (   4.0804987   3.9264617  12.2211422  )
         9           Os1 tau(   9) = (   8.1604782   4.7115438  14.7700665  )
        10           Os1 tau(  10) = (   2.7207483   0.0051039  14.3517138  )
        11           Os1 tau(  11) = (   1.3648758   2.3537538  14.3513285  )
        12           Os1 tau(  12) = (   4.0758130   2.3531796  14.3524244  )
        13           C1  tau(  13) = (   5.4406667   0.0000043  16.5088929  )

     number of k points=    20  Fermi-Dirac smearing, width (Ry)=  0.0110
                       cart. coord. in units 2pi/alat
        k(    1) = (   0.0000000   0.0000000   0.0000000), wk =   0.0555556
        k(    2) = (   0.0000000   0.0353725   0.0000000), wk =   0.1111111
        k(    3) = (   0.0000000   0.0707451   0.0000000), wk =   0.1111111
        k(    4) = (   0.0000000  -0.1061176   0.0000000), wk =   0.0555556
        k(    5) = (   0.0306335  -0.0176863   0.0000000), wk =   0.1111111
        k(    6) = (   0.0306335   0.0176863   0.0000000), wk =   0.1111111
        k(    7) = (   0.0306335   0.0530588   0.0000000), wk =   0.1111111
        k(    8) = (   0.0306335  -0.1238039   0.0000000), wk =   0.1111111
        k(    9) = (   0.0306335  -0.0884313   0.0000000), wk =   0.1111111
        k(   10) = (   0.0306335  -0.0530588   0.0000000), wk =   0.1111111
        k(   11) = (   0.0612670  -0.0353725   0.0000000), wk =   0.1111111
        k(   12) = (   0.0612670   0.0000000   0.0000000), wk =   0.1111111
        k(   13) = (   0.0612670   0.0353725   0.0000000), wk =   0.1111111
        k(   14) = (   0.0612670  -0.1414901   0.0000000), wk =   0.1111111
        k(   15) = (   0.0612670  -0.1061176   0.0000000), wk =   0.1111111
        k(   16) = (   0.0612670  -0.0707451   0.0000000), wk =   0.1111111
        k(   17) = (  -0.0919005   0.0530588   0.0000000), wk =   0.0555556
        k(   18) = (  -0.0919005   0.0884313   0.0000000), wk =   0.1111111
        k(   19) = (  -0.0919005   0.1238039   0.0000000), wk =   0.1111111
        k(   20) = (  -0.0919005  -0.0530588   0.0000000), wk =   0.0555556

     Largest allocated arrays     est. size (Mb)     dimensions
     Largest temporary arrays     est. size (Mb)     dimensions

     Initial potential from superposition of free atoms
     Check: negative starting charge=   -1.498160

     starting charge  189.99952, renormalised to  196.00000

[...]

     *
     * You are using vdW-DF for exchange-correlation in this calculation.
     * Please cite the following three references that made this development
     * possible:
     *
     *   M. Dion, H. Rydberg, E. Schroder, D. C. Langreth, and
     *   B. I. Lundqvist, Phys. Rev. Lett. 92, 246401 (2004).
     *
     *   T. Thonhauser, V. R. Cooper, S. Li, A. Puzder, P. Hyldgaard, and
     *   D. C. Langreth, Phys. Rev. B 76, 125112 (2007).
     *
     *   G. Roman-Perez and J. M. Soler, Phys. Rev. Lett. 103, 096102 (2009).
     *
     *
     * If you are using vdW-DF2, please also cite:
     *
     *   K. Lee, E. D. Murray, L. Kong, B. I. Lundqvist, and
     *   D. C. Langreth, Phys. Rev. B 82, 081101(R) (2010).
     *
     *
     * If you are calculating the stress with vdW-DF, please also cite:
     *
     *   R. Sabatini, E. Kucukbenli, B. Kolb, T. Thonhauser, and
     *   S. de Gironcoli, J. Phys.: Condens. Matter 24, 424209 (2012).
     *

     Carrying out vdW-DF run using the following parameters:

     Nqs =      20    Nr_points =    1024   r_max =   100.000
     q_mesh =
               0.00001000     0.04494208     0.09755937     0.15916263
               0.23128650     0.31572767     0.41458969     0.53033537
               0.66584808     0.82450364     1.01025438     1.22772762
               1.48234092     1.78043706     2.12944203     2.53805004
               3.01644009     3.57652955     4.23227104     5.00000000

     Gradients computed in reciprocal space

[...]

     Starting wfc are  160 randomized atomic wfcs

     Self-consistent Calculation

[...]

     total energy              =   -2408.70650323 Ry
     Harris-Foulkes estimate   =   -2408.70650718 Ry
     estimated scf accuracy    <       0.00001043 Ry

     iteration # 19     ecut=    36.75 Ry     beta=0.30
     Davidson diagonalization with overlap
     ethr =  5.32E-09,  avg # of iterations =  4.2

[...]

     negative rho (up, down):  1.517E+00 0.000E+00

     Adding external electric field

     Computed dipole along edir(3) :
        Dipole               -0.2997 Ry au,         -0.7617 Debye
        Dipole field         -0.0009 Ry au

        Potential amp.        0.0802 Ry
        Total length         45.0345 bohr

     End of self-consistent calculation

[...]

          k = 0.0613-0.0707 0.0000 ( 15922 PWs)   bands (ev):

[...]

          k =-0.0919-0.0531 0.0000 ( 15968 PWs)   bands (ev):

   -84.3844 -84.2513 -84.2344 -84.2201 -83.9255 -83.8249 -83.8137 -83.7968
   -83.7958 -83.7813 -83.7679 -83.7674 -43.9142 -43.8278 -43.8164 -43.7146
   -43.6944 -43.6778 -43.6319 -43.6040 -43.5458 -43.5060 -43.3417 -43.3269
   -43.3256 -43.2810 -43.2313 -43.2208 -43.2190 -43.1639 -43.1388 -43.1061
   -43.0970 -43.0757 -43.0606 -43.0516 -43.0384 -43.0331 -43.0217 -42.9931
   -42.9861 -42.9618 -42.9528 -42.9323 -42.8209 -42.8170 -42.8067 -42.7820
    -6.7080  -5.0048  -4.7932  -3.4738  -3.2454  -3.0208  -2.9987  -2.9825
    -2.8830  -2.8100  -2.7684  -2.3237  -2.2026  -1.9591  -1.8770  -1.8068
    -1.5607  -1.4430  -1.4340  -1.4063  -1.0450  -0.9063  -0.8535  -0.7063
    -0.3431  -0.3351  -0.1759  -0.1286  -0.0394   0.0896   0.1216   0.2397
     0.3023   0.3551   0.4304   0.4601   0.5163   0.6843   0.6958   0.7613
     0.7690   1.4387   1.5376   1.6649   1.7068   1.9195   1.9635   2.0654
     2.2808   2.4266   2.6422   2.6809   2.7961   2.8285   3.0878   3.1286
     3.2173   3.4349   3.5552   3.6806

     the Fermi energy is     2.7790 ev

!    total energy              =   -2408.70650176 Ry
     Harris-Foulkes estimate   =   -2408.70651125 Ry
     estimated scf accuracy    <       0.00000544 Ry

     The total energy is the sum of the following terms:

     one-electron contribution =  -21671.37818558 Ry
     hartree contribution      =   10817.98536708 Ry
     xc contribution           =    -467.92752530 Ry
     ewald contribution        =    8912.68220762 Ry
     electric field correction =       0.00026691 Ry
     smearing contrib. (-TS)   =      -0.06863250 Ry

     convergence has been achieved in  19 iterations

 BEEF-vdW xc energy contributions
           1 :   -409.896728579908
           2 :    379.845305622334
           3 :   -326.800693477423
           4 :    262.287458528600
           5 :   -198.682536964470
           6 :    145.878536851121
           7 :   -109.109646907729
           8 :    88.4200068498772
           9 :   -79.7646571603783
          10 :    77.1673204570087
          11 :   -75.0661944099850
          12 :    70.0092672777408
          13 :   -61.2428695696000
          14 :    50.2210046508631
          15 :   -39.4446281114226
          16 :    31.1703424870133
          17 :   -26.4873870200768
          18 :    25.0450080189677
          19 :   -25.4225267572866
          20 :    25.8751292000037
          21 :   -25.0906575419506
          22 :    22.6426897402791
          23 :   -19.0029058163038
          24 :    15.1735734954852
          25 :   -12.1525599570768
          26 :    10.4825534224521
          27 :   -10.0705418242508
          28 :    10.3177063521614
          29 :   -10.4620119719765
          30 :    9.95011559258518
          31 :   -38.9467584405560
          32 :   -29.7340050775138

     Forces acting on atoms (Ry/au):

     negative rho (up, down):  1.517E+00 0.000E+00
     atom    1 type  1   force =    -0.00336124   -0.00192200    0.02203870
     atom    2 type  1   force =     0.00338291   -0.00190569    0.02199221
     atom    3 type  1   force =     0.00002179    0.00386104    0.02198267
     atom    4 type  1   force =    -0.00001718   -0.00002073    0.06728591
     atom    5 type  1   force =    -0.00010921    0.01054678   -0.03568639
     atom    6 type  1   force =     0.00011001   -0.00009479   -0.02502797
     atom    7 type  1   force =    -0.00921059   -0.00515794   -0.03574405
     atom    8 type  1   force =     0.00920536   -0.00528964   -0.03557078
     atom    9 type  1   force =     0.00026151    0.00017487   -0.00071361
     atom   10 type  1   force =    -0.00024766   -0.00019047   -0.00069666
     atom   11 type  1   force =    -0.00035186   -0.00015778   -0.00052247
     atom   12 type  1   force =     0.00033062    0.00015775   -0.00118213
     atom   13 type  2   force =    -0.00001447   -0.00000138    0.00184458

     Total force =     0.103970     Total SCF correction =     0.007784

     entering subroutine stress ...

     negative rho (up, down):  1.517E+00 0.000E+00
          total   stress  (Ry/bohr**3)                   (kbar)     P=  -26.19
  -0.00019527  -0.00000008   0.00000002        -28.73     -0.01      0.00
  -0.00000008  -0.00019520   0.00000001         -0.01    -28.72      0.00
   0.00000002   0.00000001  -0.00014353          0.00      0.00    -21.11

 !ASE

     Writing output data file calc.save

     General routines

     Parallel routines

   This run was terminated on:   2:55:26  18Jan2018

   JOB DONE.
Job  /afs/slac/g/suncat/bin/suncat-tsmpirun -x LD_LIBRARY_PATH -wdir /scratch/qe842464_rCXg4 pw.x -in pw.inp

TID   HOST_NAME   COMMAND_LINE            STATUS            TERMINATION_TIME
00000 suncat2041 pw.x -in pw.inp   Done                     01/18/2018 02:55:26
00001 suncat2041 pw.x -in pw.inp   Done                     01/18/2018 02:55:26
00002 suncat2041 pw.x -in pw.inp   Done                     01/18/2018 02:55:26
00003 suncat2041 pw.x -in pw.inp   Done                     01/18/2018 02:55:26
00004 suncat2041 pw.x -in pw.inp   Done                     01/18/2018 02:55:26
00005 suncat2041 pw.x -in pw.inp   Done                     01/18/2018 02:55:26
00006 suncat2041 pw.x -in pw.inp   Done                     01/18/2018 02:55:26
00007 suncat2041 pw.x -in pw.inp   Done                     01/18/2018 02:55:26
00008 suncat2041 pw.x -in pw.inp   Done                     01/18/2018 02:55:26
00009 suncat2041 pw.x -in pw.inp   Done                     01/18/2018 02:55:26
00010 suncat2041 pw.x -in pw.inp   Done                     01/18/2018 02:55:26
00011 suncat2041 pw.x -in pw.inp   Done                     01/18/2018 02:55:26
00012 suncat2041 pw.x -in pw.inp   Done                     01/18/2018 02:55:26
00013 suncat2041 pw.x -in pw.inp   Done                     01/18/2018 02:55:26
00014 suncat2041 pw.x -in pw.inp   Done                     01/18/2018 02:55:26
00015 suncat2041 pw.x -in pw.inp   Done                     01/18/2018 02:55:26
00016 suncat2040 pw.x -in pw.inp   Done                     01/18/2018 02:55:26
00017 suncat2040 pw.x -in pw.inp   Done                     01/18/2018 02:55:26
00018 suncat2040 pw.x -in pw.inp   Done                     01/18/2018 02:55:26
00019 suncat2040 pw.x -in pw.inp   Done                     01/18/2018 02:55:26
00020 suncat2040 pw.x -in pw.inp   Done                     01/18/2018 02:55:26
00021 suncat2040 pw.x -in pw.inp   Done                     01/18/2018 02:55:26
00022 suncat2040 pw.x -in pw.inp   Done                     01/18/2018 02:55:26
00023 suncat2040 pw.x -in pw.inp   Done                     01/18/2018 02:55:26
00024 suncat2040 pw.x -in pw.inp   Done                     01/18/2018 02:55:26
00025 suncat2040 pw.x -in pw.inp   Done                     01/18/2018 02:55:26
00026 suncat2040 pw.x -in pw.inp   Done                     01/18/2018 02:55:26
00027 suncat2040 pw.x -in pw.inp   Done                     01/18/2018 02:55:26
00028 suncat2040 pw.x -in pw.inp   Done                     01/18/2018 02:55:26
00029 suncat2040 pw.x -in pw.inp   Done                     01/18/2018 02:55:26
00030 suncat2040 pw.x -in pw.inp   Done                     01/18/2018 02:55:26
00031 suncat2040 pw.x -in pw.inp   Done                     01/18/2018 02:55:26