     Program PWSCF v.5.1rc2 (svn rev. 11289) starts on 30Apr2018 at 14:29:11

     Current dimensions of program PWSCF are:
     Max number of different atomic species (ntypx) = 10
     Max number of k-points (npk) =  40000
     Max angular momentum in pseudopotentials (lmaxx) =  3
     Presently stress not available with electric field

     IMPORTANT: XC functional enforced from input :
     Exchange-correlation      = BEEF-VDW ( 1  4 27 13 2)
     Any further DFT definition will be discarded
     Please, verify this is what you really want

     Subspace diagonalization in iterative solution of the eigenvalue problem:
     a serial algorithm will be used

     bravais-lattice index     =            0
     lattice parameter (alat)  =       1.8897  a.u.
     unit-cell volume          =    7276.7660 (a.u.)^3
     number of atoms/cell      =           14
     number of atomic types    =            3
     number of electrons       =       187.00
     number of Kohn-Sham states=          103
     kinetic-energy cutoff     =      36.7493  Ry
     charge density cutoff     =     367.4932  Ry
     convergence threshold     =      1.0E-05
     mixing beta               =       0.3000
     number of iterations used =           10  plain     mixing
     Exchange-correlation      = BEEF-VDW ( 1  4 27 13 2)
     nstep                     =           50

     celldm(1)=   1.889726  celldm(2)=   0.000000  celldm(3)=   0.000000
     celldm(4)=   0.000000  celldm(5)=   0.000000  celldm(6)=   0.000000

     crystal axes: (cart. coord. in units of alat)
               a(1) = (   6.962526   0.000000   0.000000 )
               a(2) = (   3.481263   6.029724   0.000000 )
               a(3) = (   0.000000   0.000000  25.684879 )

     reciprocal axes: (cart. coord. in units 2 pi/alat)
               b(1) = (  0.143626 -0.082923  0.000000 )
               b(2) = (  0.000000  0.165845  0.000000 )
               b(3) = (  0.000000  0.000000  0.038933 )

     PseudoPot. # 1 for Bi read from file:
     /u/if/mamunm/psp/gbrv1.5pbe/Bi.UPF
     MD5 check sum: 81103212dc04adf40945787f699eab19
     Pseudo is Ultrasoft + core correction, Zval = 15.0
     Generated by new atomic code, or converted to UPF format
     Using radial grid of  899 points,  6 beta functions with:
                l(1) =   0
                l(2) =   0
                l(3) =   1
                l(4) =   1
                l(5) =   2
                l(6) =   2
     Q(r) pseudized with  6 coefficients,  rinner =    1.000   1.000   1.000
                                                       1.000   1.000

     PseudoPot. # 2 for S  read from file:
     /u/if/mamunm/psp/gbrv1.5pbe/S.UPF
     MD5 check sum: 88d86576ff6df21479756cfb9bdac1df
     Pseudo is Ultrasoft + core correction, Zval =  6.0
     Generated by new atomic code, or converted to UPF format
     Using radial grid of  907 points,  6 beta functions with:
                l(1) =   0
                l(2) =   0
                l(3) =   1
                l(4) =   1
                l(5) =   2
                l(6) =   2
     Q(r) pseudized with  8 coefficients,  rinner =    1.300   1.300   1.300
                                                       1.300   1.300

     PseudoPot. # 3 for H  read from file:
     /u/if/mamunm/psp/gbrv1.5pbe/H.UPF
     MD5 check sum: 761ae9a214b05c3daf00ab9f6b793d6f
     Pseudo is Ultrasoft, Zval =  1.0
     Generated by new atomic code, or converted to UPF format
     Using radial grid of  615 points,  2 beta functions with:
                l(1) =   0
                l(2) =   0
     Q(r) pseudized with  8 coefficients,  rinner =    0.700

     vdW kernel table read from file vdW_kernel_table
     MD5 check sum: 095c7af220d748ca6e76c0b4c6cfb241

     atomic species   valence    mass     pseudopotential
        Bi1           15.00   208.98040     Bi( 1.00)
        S1             6.00    32.06000     S ( 1.00)
        H1             1.00     1.00800     H ( 1.00)

     No symmetry found

   Cartesian axes

     site n.     atom                  positions (alat units)
         1           Bi1 tau(   1) = (   1.7406315   1.0049541  10.0000000  )
         2           Bi1 tau(   2) = (   5.2218945   1.0049541  10.0000000  )
         3           Bi1 tau(   3) = (   3.4812630   4.0198163  10.0000000  )
         4           Bi1 tau(   4) = (   6.9625260   4.0198163  10.0000000  )
         5           Bi1 tau(   5) = (   6.9625260   2.0099081  12.8424393  )
         6           Bi1 tau(   6) = (   3.4812630   2.0099081  12.8424393  )
         7           Bi1 tau(   7) = (   8.7031575   5.0247703  12.8424393  )
         8           Bi1 tau(   8) = (   5.2218945   5.0247703  12.8424393  )
         9           Bi1 tau(   9) = (   0.0000000   0.0000000  15.6848787  )
        10           Bi1 tau(  10) = (   3.4812630   0.0000000  15.6848787  )
        11           Bi1 tau(  11) = (   1.7406315   3.0148622  15.6848787  )
        12           Bi1 tau(  12) = (   5.2218945   3.0148622  15.6848787  )
        13           S1  tau(  13) = (   3.4812630   2.0099081  17.3293787  )
        14           H1  tau(  14) = (   3.4812630   2.0099081  18.5793787  )

     number of k points=    20  Fermi-Dirac smearing, width (Ry)=  0.0110
                       cart. coord. in units 2pi/alat
        k(    1) = (   0.0000000   0.0000000   0.0000000), wk =   0.0555556
        k(    2) = (   0.0000000   0.0276408   0.0000000), wk =   0.1111111
        k(    3) = (   0.0000000   0.0552817   0.0000000), wk =   0.1111111
        k(    4) = (   0.0000000  -0.0829225   0.0000000), wk =   0.0555556
        k(    5) = (   0.0239377  -0.0138204   0.0000000), wk =   0.1111111
        k(    6) = (   0.0239377   0.0138204   0.0000000), wk =   0.1111111
        k(    7) = (   0.0239377   0.0414613   0.0000000), wk =   0.1111111
        k(    8) = (   0.0239377  -0.0967430   0.0000000), wk =   0.1111111
        k(    9) = (   0.0239377  -0.0691021   0.0000000), wk =   0.1111111
        k(   10) = (   0.0239377  -0.0414613   0.0000000), wk =   0.1111111
        k(   11) = (   0.0478753  -0.0276408   0.0000000), wk =   0.1111111
        k(   12) = (   0.0478753   0.0000000   0.0000000), wk =   0.1111111
        k(   13) = (   0.0478753   0.0276408   0.0000000), wk =   0.1111111
        k(   14) = (   0.0478753  -0.1105634   0.0000000), wk =   0.1111111
        k(   15) = (   0.0478753  -0.0829225   0.0000000), wk =   0.1111111
        k(   16) = (   0.0478753  -0.0552817   0.0000000), wk =   0.1111111
        k(   17) = (  -0.0718130   0.0414613   0.0000000), wk =   0.0555556
        k(   18) = (  -0.0718130   0.0691021   0.0000000), wk =   0.1111111
        k(   19) = (  -0.0718130   0.0967430   0.0000000), wk =   0.1111111
        k(   20) = (  -0.0718130  -0.0414613   0.0000000), wk =   0.0555556

     Largest allocated arrays     est. size (Mb)     dimensions
     Largest temporary arrays     est. size (Mb)     dimensions

     Check: negative/imaginary core charge=   -0.000001    0.000000

     Initial potential from superposition of free atoms
     Check: negative starting charge=   -0.502766

     starting charge  174.99945, renormalised to  187.00000

     negative rho (up, down):  5.372E-01 0.000E+00

     *
     * You are using vdW-DF for exchange-correlation in this calculation.
     * Please cite the following three references that made this development
     * possible:
     *
     *   M. Dion, H. Rydberg, E. Schroder, D. C. Langreth, and
     *   B. I. Lundqvist, Phys. Rev. Lett. 92, 246401 (2004).
     *
     *   T. Thonhauser, V. R. Cooper, S. Li, A. Puzder, P. Hyldgaard, and
     *   D. C. Langreth, Phys. Rev. B 76, 125112 (2007).
     *
     *   G. Roman-Perez and J. M. Soler, Phys. Rev. Lett. 103, 096102 (2009).
     *
     *
     * If you are using vdW-DF2, please also cite:
     *
     *   K. Lee, E. D. Murray, L. Kong, B. I. Lundqvist, and
     *   D. C. Langreth, Phys. Rev. B 82, 081101(R) (2010).
     *
     *
     * If you are calculating the stress with vdW-DF, please also cite:
     *
     *   R. Sabatini, E. Kucukbenli, B. Kolb, T. Thonhauser, and
     *   S. de Gironcoli, J. Phys.: Condens. Matter 24, 424209 (2012).
     *

     Carrying out vdW-DF run using the following parameters:

     Nqs =      20    Nr_points =    1024   r_max =   100.000
     q_mesh =
               0.00001000     0.04494208     0.09755937     0.15916263
               0.23128650     0.31572767     0.41458969     0.53033537
               0.66584808     0.82450364     1.01025438     1.22772762
               1.48234092     1.78043706     2.12944203     2.53805004
               3.01644009     3.57652955     4.23227104     5.00000000

     Gradients computed in reciprocal space

     Adding external electric field

     Computed dipole along edir(3) :
        Dipole               -4.2317 Ry au,        -10.7559 Debye
        Dipole field         -0.0073 Ry au

        Potential amp.        0.6917 Ry
        Total length         47.3240 bohr

     Starting wfc are  113 randomized atomic wfcs

     Self-consistent Calculation

     iteration #  1     ecut=    36.75 Ry     beta=0.30
     Davidson diagonalization with overlap
     ethr =  1.00E-02,  avg # of iterations =  8.1

[...]

     total energy              =   -2209.20412311 Ry
     Harris-Foulkes estimate   =   -2273.52339581 Ry
     estimated scf accuracy    <     135.98240979 Ry

[...]

     End of self-consistent calculation

          k = 0.0000 0.0000 0.0000 ( 27441 PWs)   bands (ev):

   -22.0066 -21.9550 -21.9511 -21.9511 -21.9316 -21.9316 -21.9153 -21.9120
   -21.9120 -21.9027 -21.9027 -21.8560 -21.8404 -21.8404 -21.8339 -21.8189
   -21.8189 -21.8031 -21.7951 -21.7804 -21.7804 -21.7503 -21.7502 -21.7460
   -21.7459 -21.7420 -21.7276 -21.7213 -21.7213 -21.7182 -21.7181 -21.7063
   -21.7062 -21.6828 -21.6796 -21.6796 -21.6795 -21.6715 -21.6354 -21.6341
   -21.6341 -21.6116 -21.6116 -21.5859 -21.5562 -21.5561 -21.5398 -21.5354
   -21.5319 -21.5319 -21.5092 -21.5092 -21.4979 -21.4979 -21.4913 -21.4912
   -21.4901 -21.4860 -21.4860 -21.4726 -13.9489 -11.6954 -10.6407  -9.6032
    -9.0404  -9.0404  -8.9512  -8.6285  -8.6285  -8.4129  -8.0570  -8.0570
    -8.0141  -6.0174  -3.2461  -3.2461  -3.1577  -3.1577  -3.0107  -2.5861
    -2.2277  -2.1308  -2.1308  -1.3582  -1.3582  -1.1935   0.3138   1.3837
     1.3837   1.4584   1.9084   1.9084   2.0593   2.5719   2.6052   2.6052
     3.1110   3.5505   3.5723   3.5723   3.6662   4.2217   4.2217

[...]

          k =-0.0718 0.0415 0.0000 ( 27378 PWs)   bands (ev):

[...]

     the Fermi energy is     1.8450 ev

!    total energy              =   -2271.34032081 Ry
     Harris-Foulkes estimate   =   -2271.34029754 Ry
     estimated scf accuracy    <       0.00000634 Ry

     The total energy is the sum of the following terms:

     one-electron contribution =  -11008.21443978 Ry
     hartree contribution      =    5562.63832419 Ry
     xc contribution           =    -808.77980407 Ry
     ewald contribution        =    3983.06960276 Ry
     electric field correction =       0.00014324 Ry
     smearing contrib. (-TS)   =      -0.05414715 Ry

     convergence has been achieved in  17 iterations

 BEEF-vdW xc energy contributions
           1 :   -720.793024507476
           2 :    669.691220463211
           3 :   -579.533076858511
           4 :    469.888440950236
           5 :   -361.331438303091
           6 :    269.496930428990
           7 :   -201.548448915150
           8 :    155.965885210749
           9 :   -125.358598662867
          10 :    100.854577762976
          11 :   -76.1205971851509
          12 :    49.4242296399842
          13 :   -23.2041553474182
          14 :    1.77641048727628
          15 :    11.4585417574899
          16 :   -15.9254278997663
          17 :    14.1131267989015
          18 :   -10.2435893119440
          19 :    8.20218230320165
          20 :   -9.82962807254239
          21 :    14.3831269982087
          22 :   -19.3220748180432
          23 :    21.8977184342166
          24 :   -20.6754619992239
          25 :    16.2285024470484
          26 :   -10.7276250150685
          27 :    6.72821413829865
          28 :   -5.83862331492310
          29 :    7.96154613672786
          30 :   -11.4605281894610
          31 :   -57.8148908320702
          32 :   -42.5397128518657

     Forces acting on atoms (Ry/au):

     negative rho (up, down):  5.268E-01 0.000E+00
     atom    1 type  1   force =     0.00410241    0.00237087   -0.00805521
     atom    2 type  1   force =    -0.00409420    0.00237376   -0.00804440
     atom    3 type  1   force =    -0.00000895   -0.00473069   -0.00805782
     atom    4 type  1   force =     0.00001238   -0.00002022    0.00142368
     atom    5 type  1   force =    -0.00002254   -0.00103861   -0.00499077
     atom    6 type  1   force =     0.00002193   -0.00001354   -0.01160718
     atom    7 type  1   force =     0.00089672    0.00053557   -0.00498554
     atom    8 type  1   force =    -0.00088620    0.00051462   -0.00497298
     atom    9 type  1   force =    -0.00000812    0.00001200    0.00309665
     atom   10 type  1   force =     0.00000244   -0.06080859   -0.03162736
     atom   11 type  1   force =    -0.05267584    0.03040319   -0.03164477
     atom   12 type  1   force =     0.05267028    0.03039971   -0.03164174
     atom   13 type  2   force =    -0.00000671    0.00000128   -0.00447634
     atom   14 type  3   force =    -0.00000361    0.00000066    0.14558379

     Total force =     0.187942     Total SCF correction =     0.001339

     entering subroutine stress ...

     negative rho (up, down):  5.268E-01 0.000E+00
          total   stress  (Ry/bohr**3)                   (kbar)     P=   15.09
   0.00008385  -0.00000000  -0.00000000         12.33     -0.00     -0.00
  -0.00000000   0.00008385   0.00000000         -0.00     12.33      0.00
  -0.00000000   0.00000000   0.00014008         -0.00      0.00     20.61

     BFGS Geometry Optimization

     number of scf cycles    =   1
     number of bfgs steps    =   0

     energy   new            =   -2271.3403208106 Ry

     new trust radius        =       0.1455837853 bohr
     new conv_thr            =       0.0000099958 Ry

ATOMIC_POSITIONS (crystal)
Bi1      0.166666667   0.166666667   0.389334134    0   0   0
Bi1      0.666666667   0.166666667   0.389334134    0   0   0
Bi1      0.166666667   0.666666667   0.389334134    0   0   0
Bi1      0.666666667   0.666666667   0.389334134    0   0   0
Bi1      0.833333333   0.333333333   0.500000000    0   0   0
Bi1      0.333333333   0.333333333   0.500000000    0   0   0
Bi1      0.833333333   0.833333333   0.500000000    0   0   0
Bi1      0.333333333   0.833333333   0.500000000    0   0   0
Bi1     -0.000001143   0.000001053   0.610729665
Bi1      0.502668510  -0.005336649   0.610014258
Bi1     -0.005337668   0.502668227   0.610013899
Bi1      0.502669171   0.502667922   0.610013961
S1       0.333332767   0.333333445   0.674599639
H1       0.333333030   0.333333391   0.726358046

     Writing output data file calc.save
     Check: negative starting charge=   -0.502766
     NEW-OLD atomic charge density approx. for the potential

     Check: negative/imaginary core charge=   -0.000001    0.000000
     Check: negative starting charge=   -0.501554

[...]

     energy   old            =   -2271.3403208106 Ry
     energy   new            =   -2271.3661268755 Ry

     CASE: energy  _new < energy  _old

[...]

     iteration #  1     ecut=    36.75 Ry     beta=0.30
     Davidson diagonalization with overlap
     c_bands:  1 eigenvalues not converged
     ethr =  1.00E-06,  avg # of iterations = 15.1

[...]

     Total force =     0.010023     Total SCF correction =     0.001445
     SCF correction compared to forces is large: reduce conv_thr to get better values

[...]

     Total force =     0.003670     Total SCF correction =     0.000115

[...]

     number of scf cycles    =  19
     number of bfgs steps    =  18

     energy   old            =   -2271.4472566624 Ry
     energy   new            =   -2271.4474945327 Ry

     CASE: energy  _new < energy  _old

     new trust radius        =       0.0246081143 bohr
     new conv_thr            =       0.0000001000 Ry

ATOMIC_POSITIONS (crystal)
Bi1      0.166666667   0.166666667   0.389334134    0   0   0
Bi1      0.666666667   0.166666667   0.389334134    0   0   0
Bi1      0.166666667   0.666666667   0.389334134    0   0   0
Bi1      0.666666667   0.666666667   0.389334134    0   0   0
Bi1      0.833333333   0.333333333   0.500000000    0   0   0
Bi1      0.333333333   0.333333333   0.500000000    0   0   0
Bi1      0.833333333   0.833333333   0.500000000    0   0   0
Bi1      0.333333333   0.833333333   0.500000000    0   0   0
Bi1     -0.000008400   0.000007225   0.614420699
Bi1      0.507736268  -0.015476420   0.622132054
Bi1     -0.015480494   0.507739842   0.622127237
Bi1      0.507734659   0.507742839   0.622128687
S1       0.333331601   0.333332086   0.709495944
H1       0.333335349   0.333329411   0.762379991

     Writing output data file calc.save
     Check: negative starting charge=   -0.501853
     NEW-OLD atomic charge density approx. for the potential

     Check: negative/imaginary core charge=   -0.000001    0.000000
     Check: negative starting charge=   -0.501232

[...]

     Self-consistent Calculation

[...]

     total energy              =   -2271.44751631 Ry
     Harris-Foulkes estimate   =   -2271.44751661 Ry
     estimated scf accuracy    <       0.00000060 Ry

     iteration #  7     ecut=    36.75 Ry     beta=0.30
     Davidson diagonalization with overlap
     ethr =  3.23E-10,  avg # of iterations =  3.0

[...]

     negative rho (up, down):  5.247E-01 0.000E+00

     Adding external electric field

     Computed dipole along edir(3) :
        Dipole               -0.1769 Ry au,         -0.4497 Debye
        Dipole field         -0.0003 Ry au

        Potential amp.        0.0289 Ry
        Total length         47.3240 bohr

     End of self-consistent calculation

[...]

          k = 0.0479-0.0553 0.0000 ( 27352 PWs)   bands (ev):

[...]

          k =-0.0718-0.0415 0.0000 ( 27378 PWs)   bands (ev):

   -22.2640 -22.2531 -22.2195 -22.2112 -22.2060 -22.1968 -22.1902 -22.1872
   -22.1855 -22.1852 -22.1813 -22.1780 -22.1712 -22.1691 -22.1673 -22.1626
   -22.1605 -22.1575 -22.1470 -22.1327 -22.1312 -22.1268 -22.1195 -22.1152
   -22.1057 -22.0960 -22.0858 -22.0818 -22.0816 -22.0690 -22.0684 -22.0613
   -22.0523 -22.0506 -22.0485 -22.0221 -22.0169 -22.0096 -21.9908 -21.9879
   -21.9838 -21.9815 -21.9806 -21.9765 -21.9745 -21.9723 -21.9718 -21.9679
   -21.9609 -21.9592 -21.9525 -21.9509 -21.9395 -21.9261 -21.9202 -21.9158
   -21.9144 -21.9111 -21.9037 -21.8960 -11.7809 -11.0289 -10.9492 -10.2467
    -9.9580  -9.3963  -9.3933  -9.3278  -9.2258  -8.7830  -8.7117  -8.3605
    -8.3224  -4.2677  -2.1809  -2.0159  -2.0156  -1.9115  -1.8951  -1.7520
    -1.3999  -1.2612  -1.1151  -0.6815  -0.5328  -0.3629  -0.2164  -0.1468
     0.4311   0.7305   0.7381   0.8959   0.9334   1.0219   1.0509   1.2759
     1.3279   1.3753   1.7688   1.9084   2.3432   2.5099   3.3870

     the Fermi energy is     1.4568 ev

!    total energy              =   -2271.44751640 Ry
     Harris-Foulkes estimate   =   -2271.44751712 Ry
     estimated scf accuracy    <       0.00000008 Ry

     The total energy is the sum of the following terms:

     one-electron contribution =  -10450.02859026 Ry
     hartree contribution      =    5281.94671795 Ry
     xc contribution           =    -808.28676744 Ry
     ewald contribution        =    3704.97965844 Ry
     electric field correction =       0.00005405 Ry
     smearing contrib. (-TS)   =      -0.05858915 Ry

     convergence has been achieved in   7 iterations

 BEEF-vdW xc energy contributions
           1 :   -720.281694377671
           2 :    668.937594657971
           3 :   -578.495038514043
           4 :    468.758458293728
           5 :   -360.427269533875
           6 :    269.089687553297
           7 :   -201.711326980869
           8 :    156.524504516695
           9 :   -125.969091771492
          10 :    101.172265886083
          11 :   -75.9722161562682
          12 :    48.8916378632700
          13 :   -22.5743671798341
          14 :    1.38400673231149
          15 :    11.4115364690429
          16 :   -15.4753925857726
          17 :    13.5114674729490
          18 :   -9.81898932712625
          19 :    8.18310948811950
          20 :   -10.2215747107387
          21 :    14.9655799776885
          22 :   -19.7669198005701
          23 :    21.9457343747806
          24 :   -20.2763098370883
          25 :    15.5702031937426
          26 :   -10.1398116275836
          27 :    6.51012922705809
          28 :   -6.10272965235129
          29 :    8.57472244221071
          30 :   -12.1139598985226
          31 :   -57.7738644986621
          32 :   -42.4368637591242

     Forces acting on atoms (Ry/au):

     negative rho (up, down):  5.247E-01 0.000E+00
     atom    1 type  1   force =     0.00085895    0.00049536   -0.00605761
     atom    2 type  1   force =    -0.00085875    0.00049558   -0.00605799
     atom    3 type  1   force =     0.00000005   -0.00099214   -0.00605697
     atom    4 type  1   force =     0.00000036   -0.00000096   -0.00635243
     atom    5 type  1   force =    -0.00000011    0.00137312    0.00776379
     atom    6 type  1   force =     0.00000029   -0.00000064    0.00187716
     atom    7 type  1   force =    -0.00119037   -0.00068612    0.00776333
     atom    8 type  1   force =     0.00119069   -0.00068674    0.00776342
     atom    9 type  1   force =    -0.00000062   -0.00000001   -0.00145694
     atom   10 type  1   force =    -0.00000031    0.00017429    0.00005439
     atom   11 type  1   force =     0.00015216   -0.00008656    0.00005357
     atom   12 type  1   force =    -0.00015249   -0.00008574    0.00005476
     atom   13 type  2   force =    -0.00000051    0.00000320   -0.00048993
     atom   14 type  3   force =     0.00000067   -0.00000264    0.00114146

     Total force =     0.001941     Total SCF correction =     0.000641
     SCF correction compared to forces is large: reduce conv_thr to get better values

     entering subroutine stress ...

     negative rho (up, down):  5.247E-01 0.000E+00
          total   stress  (Ry/bohr**3)                   (kbar)     P=    2.52
   0.00002304  -0.00000000  -0.00000000          3.39     -0.00     -0.00
  -0.00000000   0.00002304   0.00000000         -0.00      3.39      0.00
  -0.00000000   0.00000000   0.00000540         -0.00      0.00      0.79

     bfgs converged in  20 scf cycles and  19 bfgs steps
     (criteria: energy <  1.0E+00, force <  1.9E-03)

     End of BFGS Geometry Optimization

     Final energy   =   -2271.4475163976 Ry
Begin final coordinates

ATOMIC_POSITIONS (crystal)
Bi1      0.166666667   0.166666667   0.389334134    0   0   0
Bi1      0.666666667   0.166666667   0.389334134    0   0   0
Bi1      0.166666667   0.666666667   0.389334134    0   0   0
Bi1      0.666666667   0.666666667   0.389334134    0   0   0
Bi1      0.833333333   0.333333333   0.500000000    0   0   0
Bi1      0.333333333   0.333333333   0.500000000    0   0   0
Bi1      0.833333333   0.833333333   0.500000000    0   0   0
Bi1      0.333333333   0.833333333   0.500000000    0   0   0
Bi1     -0.000008400   0.000007225   0.614420699
Bi1      0.507736268  -0.015476420   0.622132054
Bi1     -0.015480494   0.507739842   0.622127237
Bi1      0.507734659   0.507742839   0.622128687
S1       0.333331601   0.333332086   0.709495944
H1       0.333335349   0.333329411   0.762379991
End final coordinates

     Writing output data file calc.save

     General routines

     Parallel routines

   This run was terminated on:  17:51:59  30Apr2018

   JOB DONE.
Job  /afs/slac/g/suncat/bin/suncat-tsmpirun -x LD_LIBRARY_PATH -wdir /scratch/qe458636_9UknJ pw.x -npool 4 -in pw.inp

TID   HOST_NAME   COMMAND_LINE            STATUS            TERMINATION_TIME
00000 suncat0043 pw.x -npool 4 -i  Done                     04/30/2018 17:51:59
00001 suncat0043 pw.x -npool 4 -i  Done                     04/30/2018 17:51:59
00002 suncat0043 pw.x -npool 4 -i  Done                     04/30/2018 17:51:59
00003 suncat0043 pw.x -npool 4 -i  Done                     04/30/2018 17:51:59
00004 suncat0043 pw.x -npool 4 -i  Done                     04/30/2018 17:51:59
00005 suncat0043 pw.x -npool 4 -i  Done                     04/30/2018 17:51:59
00006 suncat0043 pw.x -npool 4 -i  Done                     04/30/2018 17:51:59
00007 suncat0043 pw.x -npool 4 -i  Done                     04/30/2018 17:51:59
00008 suncat0038 pw.x -npool 4 -i  Done                     04/30/2018 17:51:59
00009 suncat0038 pw.x -npool 4 -i  Done                     04/30/2018 17:51:59
00010 suncat0038 pw.x -npool 4 -i  Done                     04/30/2018 17:51:59
00011 suncat0038 pw.x -npool 4 -i  Done                     04/30/2018 17:51:59
00012 suncat0038 pw.x -npool 4 -i  Done                     04/30/2018 17:51:59
00013 suncat0038 pw.x -npool 4 -i  Done                     04/30/2018 17:51:59
00014 suncat0038 pw.x -npool 4 -i  Done                     04/30/2018 17:51:59
00015 suncat0038 pw.x -npool 4 -i  Done                     04/30/2018 17:51:59
00016 suncat0027 pw.x -npool 4 -i  Done                     04/30/2018 17:51:59
00017 suncat0027 pw.x -npool 4 -i  Done                     04/30/2018 17:51:59
00018 suncat0027 pw.x -npool 4 -i  Done                     04/30/2018 17:51:59
00019 suncat0027 pw.x -npool 4 -i  Done                     04/30/2018 17:51:59
00020 suncat0027 pw.x -npool 4 -i  Done                     04/30/2018 17:51:59
00021 suncat0027 pw.x -npool 4 -i  Done                     04/30/2018 17:51:59
00022 suncat0027 pw.x -npool 4 -i  Done                     04/30/2018 17:51:59
00023 suncat0027 pw.x -npool 4 -i  Done                     04/30/2018 17:51:59
00024 suncat0153 pw.x -npool 4 -i  Done                     04/30/2018 17:51:59
00025 suncat0153 pw.x -npool 4 -i  Done                     04/30/2018 17:51:59
00026 suncat0153 pw.x -npool 4 -i  Done                     04/30/2018 17:51:59
00027 suncat0153 pw.x -npool 4 -i  Done                     04/30/2018 17:51:59
00028 suncat0153 pw.x -npool 4 -i  Done                     04/30/2018 17:51:59
00029 suncat0153 pw.x -npool 4 -i  Done                     04/30/2018 17:51:59
00030 suncat0153 pw.x -npool 4 -i  Done                     04/30/2018 17:51:59
00031 suncat0153 pw.x -npool 4 -i  Done                     04/30/2018 17:51:59