     Program PWSCF v.5.1rc2 (svn rev. 11289) starts on  2May2018 at 11:50:53

     Current dimensions of program PWSCF are:
     Max number of different atomic species (ntypx) = 10
     Max number of k-points (npk) =  40000
     Max angular momentum in pseudopotentials (lmaxx) =  3
     Presently stress not available with electric field

     IMPORTANT: XC functional enforced from input :
     Exchange-correlation      = BEEF-VDW ( 1  4 27 13 2)
     Any further DFT definition will be discarded
     Please, verify this is what you really want

     Subspace diagonalization in iterative solution of the eigenvalue problem:
     a serial algorithm will be used

     bravais-lattice index     =            0
     lattice parameter (alat)  =       1.8897  a.u.
     unit-cell volume          =    3807.2308 (a.u.)^3
     number of atoms/cell      =           13
     number of atomic types    =            2
     number of electrons       =       234.00
     number of Kohn-Sham states=          127
     kinetic-energy cutoff     =      36.7493  Ry
     charge density cutoff     =     367.4932  Ry
     convergence threshold     =      1.0E-05
     mixing beta               =       0.3000
     number of iterations used =           10  plain     mixing
     Exchange-correlation      = BEEF-VDW ( 1  4 27 13 2)
     nstep                     =           50

     celldm(1)=   1.889726  celldm(2)=   0.000000  celldm(3)=   0.000000
     celldm(4)=   0.000000  celldm(5)=   0.000000  celldm(6)=   0.000000

     crystal axes: (cart. coord. in units of alat)
               a(1) = (   5.184823   0.000000   0.000000 )
               a(2) = (   2.592411   4.490188   0.000000 )
               a(3) = (   0.000000   0.000000  24.233390 )

     reciprocal axes: (cart. coord. in units 2 pi/alat)
               b(1) = (  0.192871 -0.111354  0.000000 )
               b(2) = (  0.000000  0.222708  0.000000 )
               b(3) = (  0.000000  0.000000  0.041265 )

     PseudoPot. # 1 for Cu read from file:
     /u/if/mamunm/psp/gbrv1.5pbe/Cu.UPF
     MD5 check sum: 6e991ff952a84172a2a52a1c1e996048
     Pseudo is Ultrasoft + core correction, Zval = 19.0
     Generated by new atomic code, or converted to UPF format
     Using radial grid of  867 points,  6 beta functions with:
                l(1) =   0
                l(2) =   0
                l(3) =   1
                l(4) =   1
                l(5) =   2
                l(6) =   2
     Q(r) pseudized with  8 coefficients,  rinner =    1.150   1.150   1.150
                                                       1.150   1.150

     PseudoPot. # 2 for O  read from file:
     /u/if/mamunm/psp/gbrv1.5pbe/O.UPF
     MD5 check sum: 734c27235a0248c51dbae37a1fbe46ec
     Pseudo is Ultrasoft + core correction, Zval =  6.0
     Generated by new atomic code, or converted to UPF format
     Using radial grid of  737 points,  5 beta functions with:
                l(1) =   0
                l(2) =   0
                l(3) =   1
                l(4) =   1
                l(5) =   2
     Q(r) pseudized with  8 coefficients,  rinner =    0.900   0.900   0.900
                                                       0.900   0.900

     vdW kernel table read from file vdW_kernel_table
     MD5 check sum: 095c7af220d748ca6e76c0b4c6cfb241

     atomic species   valence    mass     pseudopotential
        Cu1           19.00    63.54600     Cu( 1.00)
        O1             6.00    15.99900     O ( 1.00)

     No symmetry found

   Cartesian axes

     site n.     atom                  positions (alat units)
         1           Cu1 tau(   1) = (   1.2962057   0.7483647  10.0000000  )
         2           Cu1 tau(   2) = (   3.8886170   0.7483647  10.0000000  )
         3           Cu1 tau(   3) = (   2.5924113   2.9934587  10.0000000  )
         4           Cu1 tau(   4) = (   5.1848226   2.9934587  10.0000000  )
         5           Cu1 tau(   5) = (   5.1848226   1.4967294  12.1166950  )
         6           Cu1 tau(   6) = (   2.5924113   1.4967294  12.1166950  )
         7           Cu1 tau(   7) = (   6.4810283   3.7418234  12.1166950  )
         8           Cu1 tau(   8) = (   3.8886170   3.7418234  12.1166950  )
         9           Cu1 tau(   9) = (   0.0000000   0.0000000  14.2333899  )
        10           Cu1 tau(  10) = (   2.5924113   0.0000000  14.2333899  )
        11           Cu1 tau(  11) = (   1.2962057   2.2450940  14.2333899  )
        12           Cu1 tau(  12) = (   3.8886170   2.2450940  14.2333899  )
        13           O1  tau(  13) = (   0.0000000   0.0000000  15.9163899  )

     number of k points=    20  Fermi-Dirac smearing, width (Ry)=  0.0110
                       cart. coord. in units 2pi/alat
        k(    1) = (   0.0000000   0.0000000   0.0000000), wk =   0.0555556
        k(    2) = (   0.0000000   0.0371180   0.0000000), wk =   0.1111111
        k(    3) = (   0.0000000   0.0742359   0.0000000), wk =   0.1111111
        k(    4) = (   0.0000000  -0.1113539   0.0000000), wk =   0.0555556
        k(    5) = (   0.0321451  -0.0185590   0.0000000), wk =   0.1111111
        k(    6) = (   0.0321451   0.0185590   0.0000000), wk =   0.1111111
        k(    7) = (   0.0321451   0.0556770   0.0000000), wk =   0.1111111
        k(    8) = (   0.0321451  -0.1299129   0.0000000), wk =   0.1111111
        k(    9) = (   0.0321451  -0.0927949   0.0000000), wk =   0.1111111
        k(   10) = (   0.0321451  -0.0556770   0.0000000), wk =   0.1111111
        k(   11) = (   0.0642902  -0.0371180   0.0000000), wk =   0.1111111
        k(   12) = (   0.0642902  -0.0000000   0.0000000), wk =   0.1111111
        k(   13) = (   0.0642902   0.0371180   0.0000000), wk =   0.1111111
        k(   14) = (   0.0642902  -0.1484719   0.0000000), wk =   0.1111111
        k(   15) = (   0.0642902  -0.1113539   0.0000000), wk =   0.1111111
        k(   16) = (   0.0642902  -0.0742359   0.0000000), wk =   0.1111111
        k(   17) = (  -0.0964353   0.0556770   0.0000000), wk =   0.0555556
        k(   18) = (  -0.0964353   0.0927949   0.0000000), wk =   0.1111111
        k(   19) = (  -0.0964353   0.1299129   0.0000000), wk =   0.1111111
        k(   20) = (  -0.0964353  -0.0556770   0.0000000), wk =   0.0555556

     Largest allocated arrays     est. size (Mb)     dimensions
     Largest temporary arrays     est. size (Mb)     dimensions

     Initial potential from superposition of free atoms
     Check: negative starting charge=   -0.000297

     starting charge  221.99997, renormalised to  234.00000

     negative rho (up, down):  3.126E-04 0.000E+00

     *
     * You are using vdW-DF for exchange-correlation in this calculation.
     * Please cite the following three references that made this development
     * possible:
     *
     *   M. Dion, H. Rydberg, E. Schroder, D. C. Langreth, and
     *   B. I. Lundqvist, Phys. Rev. Lett. 92, 246401 (2004).
     *
     *   T. Thonhauser, V. R. Cooper, S. Li, A. Puzder, P. Hyldgaard, and
     *   D. C. Langreth, Phys. Rev. B 76, 125112 (2007).
     *
     *   G. Roman-Perez and J. M. Soler, Phys. Rev. Lett. 103, 096102 (2009).
     *
     *
     * If you are using vdW-DF2, please also cite:
     *
     *   K. Lee, E. D. Murray, L. Kong, B. I. Lundqvist, and
     *   D. C. Langreth, Phys. Rev. B 82, 081101(R) (2010).
     *
     *
     * If you are calculating the stress with vdW-DF, please also cite:
     *
     *   R. Sabatini, E. Kucukbenli, B. Kolb, T. Thonhauser, and
     *   S. de Gironcoli, J. Phys.: Condens. Matter 24, 424209 (2012).
     *

     Carrying out vdW-DF run using the following parameters:

     Nqs =      20    Nr_points =    1024   r_max =   100.000
     q_mesh =
               0.00001000     0.04494208     0.09755937     0.15916263
               0.23128650     0.31572767     0.41458969     0.53033537
               0.66584808     0.82450364     1.01025438     1.22772762
               1.48234092     1.78043706     2.12944203     2.53805004
               3.01644009     3.57652955     4.23227104     5.00000000

     Gradients computed in reciprocal space

     Adding external electric field

     Computed dipole along edir(3) :
        Dipole               -2.3288 Ry au,         -5.9191 Debye
        Dipole field         -0.0077 Ry au

        Potential amp.        0.6864 Ry
        Total length         44.6496 bohr

     Starting wfc are  160 randomized atomic wfcs

     Self-consistent Calculation

     iteration #  1     ecut=    36.75 Ry     beta=0.30
     Davidson diagonalization with overlap
     ethr =  1.00E-02,  avg # of iterations =  8.2

[...]

     total energy              =   -4548.87372662 Ry
     Harris-Foulkes estimate   =   -4889.05527740 Ry
     estimated scf accuracy    <     716.30438093 Ry

     iteration #  2     ecut=    36.75 Ry     beta=0.30
     Davidson diagonalization with overlap
     c_bands:  3 eigenvalues not converged
     ethr =  1.00E-02,  avg # of iterations = 21.3

[...]

     End of self-consistent calculation

          k = 0.0000 0.0000 0.0000 ( 14321 PWs)   bands (ev):

  -113.6382-113.0059-112.9999-112.9998-112.9810-112.7533-112.7466-112.7437
  -112.7431-112.6019-112.5963-112.5962 -71.2123 -70.9099 -70.9099 -70.4416
   -70.4299 -70.4298 -70.3967 -70.3918 -70.3917 -70.3840 -70.3838 -70.3791
   -70.3790 -70.3565 -70.3565 -70.2046 -70.2043 -70.2009 -70.1532 -70.1523
   -70.1522 -70.1348 -70.1347 -70.1108 -70.0999 -70.0962 -70.0957 -70.0951
   -70.0470 -70.0470 -69.9949 -69.9949 -69.9791 -69.9638 -69.9583 -69.9583
   -17.2176  -8.6528  -6.7137  -5.3900  -5.0225  -5.0025  -5.0025  -4.7997
    -4.7997  -4.7849  -4.5899  -4.5234  -4.5234  -4.4111  -4.4111  -4.3134
    -4.2506  -4.1808  -4.1807  -3.6557  -3.4912  -3.4911  -3.3676  -3.3226
    -3.3061  -3.3061  -3.2120  -3.2119  -3.1334  -3.1334  -3.0929  -3.0913
    -3.0378  -3.0378  -2.9636  -2.9635  -2.7852  -2.7851  -2.5323  -2.5323
    -2.5118  -2.4715  -2.4715  -2.4154  -2.3930  -2.2566  -2.2564  -2.1461
    -2.1460  -2.0816  -2.0437  -2.0436  -2.0254  -2.0254  -1.9982  -1.9981
    -1.9968  -1.9000  -1.9000  -1.8121  -1.8120  -1.8104  -1.7658  -1.6971
    -1.5077  -1.5077  -0.8176  -0.2367  -0.0183  -0.0182   0.7764   0.8028
     0.9860   0.9860   1.1964   1.6994   1.6994   3.6226   3.9892

[...]

          k =-0.0964 0.0557 0.0000 ( 14294 PWs)   bands (ev):

[...]

     the Fermi energy is    -0.3923 ev

!    total energy              =   -4891.62806914 Ry
     Harris-Foulkes estimate   =   -4891.62803868 Ry
     estimated scf accuracy    <       0.00000343 Ry

     The total energy is the sum of the following terms:

     one-electron contribution =  -37819.07392046 Ry
     hartree contribution      =   18920.64846406 Ry
     xc contribution           =    -487.48277216 Ry
     ewald contribution        =   14494.31184898 Ry
     electric field correction =       0.00095261 Ry
     smearing contrib. (-TS)   =      -0.03264217 Ry

     convergence has been achieved in  31 iterations

 BEEF-vdW xc energy contributions
           1 :   -431.848620850537
           2 :    391.266560151129
           3 :   -322.643219489125
           4 :    244.958781728506
           5 :   -175.351477791715
           6 :    123.027728837182
           7 :   -87.9244046802760
           8 :    63.9454354849153
           9 :   -44.2552223547270
          10 :    25.3907497390830
          11 :   -8.17414582858567
          12 :   -4.39418233074099
          13 :    10.2813332126239
          14 :   -10.3254731709333
          15 :    7.81083496994881
          16 :   -6.33683526365598
          17 :    7.63544186205536
          18 :   -10.8243984075546
          19 :    13.4565227081882
          20 :   -13.4863928936850
          21 :    10.7402151082405
          22 :   -6.93951909945656
          23 :    4.39100824165632
          24 :   -4.35812206628816
          25 :    6.26341781933047
          26 :   -8.22137011775595
          27 :    8.44891758641893
          28 :   -6.51595680135483
          29 :    3.57006041869511
          30 :   -1.43923364728050
          31 :   -34.5495608587344
          32 :   -23.5666181035501

     Forces acting on atoms (Ry/au):

     negative rho (up, down):  1.203E-03 0.000E+00
     atom    1 type  1   force =    -0.00032110   -0.00016301    0.00004917
     atom    2 type  1   force =     0.00027741   -0.00017673    0.00210949
     atom    3 type  1   force =     0.00000376    0.00031439    0.00190337
     atom    4 type  1   force =     0.00000877   -0.00000476   -0.00020359
     atom    5 type  1   force =    -0.00004453   -0.00032079    0.00072304
     atom    6 type  1   force =     0.00003444   -0.00000242    0.00261032
     atom    7 type  1   force =     0.00029090    0.00019667    0.00060489
     atom    8 type  1   force =    -0.00029038    0.00014223    0.00075341
     atom    9 type  1   force =    -0.00002941    0.00001011   -0.05758318
     atom   10 type  1   force =     0.00001647   -0.00057316   -0.00173362
     atom   11 type  1   force =    -0.00046555    0.00028152   -0.00173935
     atom   12 type  1   force =     0.00051444    0.00029171   -0.00172303
     atom   13 type  2   force =     0.00000479    0.00000424    0.05422907

     Total force =     0.079162     Total SCF correction =     0.006249

     entering subroutine stress ...

     negative rho (up, down):  1.203E-03 0.000E+00
          total   stress  (Ry/bohr**3)                   (kbar)     P=  -17.08
  -0.00014897  -0.00000001   0.00000001        -21.91     -0.00      0.00
  -0.00000001  -0.00014898  -0.00000000         -0.00    -21.92     -0.00
   0.00000001  -0.00000000  -0.00005027          0.00     -0.00     -7.40

     BFGS Geometry Optimization

     number of scf cycles    =   1
     number of bfgs steps    =   0

     energy   new            =   -4891.6280691394 Ry

     new trust radius        =       0.0575831882 bohr
     new conv_thr            =       0.0000099958 Ry

ATOMIC_POSITIONS (crystal)
Cu1      0.166666667   0.166666667   0.412653782    0   0   0
Cu1      0.666666667   0.166666667   0.412653782    0   0   0
Cu1      0.166666667   0.666666667   0.412653782    0   0   0
Cu1      0.666666667   0.666666667   0.412653782    0   0   0
Cu1      0.833333333   0.333333333   0.500000000    0   0   0
Cu1      0.333333333   0.333333333   0.500000000    0   0   0
Cu1      0.833333333   0.833333333   0.500000000    0   0   0
Cu1      0.333333333   0.833333333   0.500000000    0   0   0
Cu1     -0.000003597   0.000001191   0.586088792
Cu1      0.500035455  -0.000067548   0.587308362
Cu1     -0.000064104   0.500033178   0.587308237
Cu1      0.500035316   0.500034379   0.587308593
O1       0.000000239   0.000000499   0.657980033

     Writing output data file calc.save
     Check: negative starting charge=   -0.000297
     NEW-OLD atomic charge density approx. for the potential
     Check: negative starting charge=   -0.000303

[...]

     Total force =     0.007990     Total SCF correction =     0.001757
     SCF correction compared to forces is large: reduce conv_thr to get better values

[...]

     energy   old            =   -4891.6280691394 Ry
     energy   new            =   -4891.6312375049 Ry

     CASE: energy  _new < energy  _old

[...]

     WARNING: bfgs curvature condition failed, Theta= 0.913
     new trust radius        =       0.0083708214 bohr
     new conv_thr            =       0.0000001000 Ry

[...]

     Total force =     0.006892     Total SCF correction =     0.000674

[...]

     number of scf cycles    =   8
     number of bfgs steps    =   7

     energy   old            =   -4891.6317739287 Ry
     energy   new            =   -4891.6318929113 Ry

     CASE: energy  _new < energy  _old

     new trust radius        =       0.0094455050 bohr
     new conv_thr            =       0.0000001000 Ry

ATOMIC_POSITIONS (crystal)
Cu1      0.166666667   0.166666667   0.412653782    0   0   0
Cu1      0.666666667   0.166666667   0.412653782    0   0   0
Cu1      0.166666667   0.666666667   0.412653782    0   0   0
Cu1      0.666666667   0.666666667   0.412653782    0   0   0
Cu1      0.833333333   0.333333333   0.500000000    0   0   0
Cu1      0.333333333   0.333333333   0.500000000    0   0   0
Cu1      0.833333333   0.833333333   0.500000000    0   0   0
Cu1      0.333333333   0.833333333   0.500000000    0   0   0
Cu1      0.000004336   0.000003106   0.583390297
Cu1      0.500360227  -0.000720179   0.587264349
Cu1     -0.000719758   0.500361636   0.587267038
Cu1      0.500358802   0.500363457   0.587266497
O1       0.000002613   0.000000339   0.655449250

     Writing output data file calc.save
     Check: negative starting charge=   -0.000300
     NEW-OLD atomic charge density approx. for the potential
     Check: negative starting charge=   -0.000301

[...]

     Self-consistent Calculation

[...]

     total energy              =   -4891.63189781 Ry
     Harris-Foulkes estimate   =   -4891.63189807 Ry
     estimated scf accuracy    <       0.00000025 Ry

     iteration #  8     ecut=    36.75 Ry     beta=0.30
     Davidson diagonalization with overlap
     ethr =  1.05E-10,  avg # of iterations =  1.4

[...]

     negative rho (up, down):  1.177E-03 0.000E+00

     Adding external electric field

     Computed dipole along edir(3) :
        Dipole               -0.5360 Ry au,         -1.3623 Debye
        Dipole field         -0.0018 Ry au

        Potential amp.        0.1580 Ry
        Total length         44.6496 bohr

     End of self-consistent calculation

[...]

          k = 0.0643-0.0742 0.0000 ( 14299 PWs)   bands (ev):

[...]

          k =-0.0964-0.0557 0.0000 ( 14294 PWs)   bands (ev):

  -113.5138-113.0292-113.0274-113.0254-112.9962-112.7666-112.7611-112.7588
  -112.7574-112.6130-112.6111-112.6092 -71.0436 -70.8100 -70.8094 -70.4538
   -70.4354 -70.4343 -70.4273 -70.4262 -70.4180 -70.4159 -70.4147 -70.4005
   -70.4004 -70.3909 -70.3780 -70.2070 -70.2033 -70.1854 -70.1833 -70.1795
   -70.1783 -70.1599 -70.1562 -70.1250 -70.1127 -70.1107 -70.1092 -70.0928
   -70.0733 -70.0565 -70.0129 -70.0059 -69.9975 -69.9754 -69.9735 -69.9717
   -16.9670  -6.9262  -6.9009  -5.3042  -5.2898  -4.8349  -4.7501  -4.5948
    -4.4669  -4.4525  -4.4059  -4.3173  -4.1764  -4.1727  -4.0496  -4.0134
    -3.9863  -3.8843  -3.8596  -3.7755  -3.6743  -3.6739  -3.6362  -3.5565
    -3.5281  -3.4656  -3.3596  -3.2845  -3.2070  -3.2023  -3.1653  -3.1193
    -3.0947  -3.0790  -3.0401  -3.0164  -3.0118  -2.9987  -2.9976  -2.9691
    -2.9460  -2.8871  -2.7859  -2.7658  -2.6608  -2.5957  -2.5773  -2.5584
    -2.5435  -2.4909  -2.4657  -2.4624  -2.4257  -2.4249  -2.3296  -2.2881
    -2.2608  -2.2515  -2.1607  -2.0786  -2.0419  -2.0310  -2.0088  -1.9685
    -1.9369  -1.2485  -1.0265  -0.9970  -0.4868  -0.3066   0.3399   0.4690
     1.0767   1.2214   2.8838   2.9632   3.5873   4.1819   5.4131

     the Fermi energy is    -0.4077 ev

!    total energy              =   -4891.63189781 Ry
     Harris-Foulkes estimate   =   -4891.63189653 Ry
     estimated scf accuracy    <       0.00000007 Ry

     The total energy is the sum of the following terms:

     one-electron contribution =  -37948.82564762 Ry
     hartree contribution      =   18985.46727675 Ry
     xc contribution           =    -487.48341071 Ry
     ewald contribution        =   14559.24158442 Ry
     electric field correction =       0.00094816 Ry
     smearing contrib. (-TS)   =      -0.03264881 Ry

     convergence has been achieved in   8 iterations

 BEEF-vdW xc energy contributions
           1 :   -431.848587957320
           2 :    391.269446297355
           3 :   -322.648757209630
           4 :    244.964669875797
           5 :   -175.355323410766
           6 :    123.028536069356
           7 :   -87.9244496993070
           8 :    63.9508539595769
           9 :   -44.2720543522748
          10 :    25.4180980695176
          11 :   -8.20094214850462
          12 :   -4.38335161854440
          13 :    10.2945508840670
          14 :   -10.3557790835601
          15 :    7.83976030777723
          16 :   -6.34757362995020
          17 :    7.62620728263670
          18 :   -10.8110414615891
          19 :    13.4606942249155
          20 :   -13.5171237509855
          21 :    10.7838683196068
          22 :   -6.96724866331573
          23 :    4.37883244229431
          24 :   -4.30523581931101
          25 :    6.19590858047826
          26 :   -8.17729967824602
          27 :    8.45381816829155
          28 :   -6.56548989288876
          29 :    3.63195111699730
          30 :   -1.47397450524448
          31 :   -34.5500159817378
          32 :   -23.5679167846494

     Forces acting on atoms (Ry/au):

     negative rho (up, down):  1.177E-03 0.000E+00
     atom    1 type  1   force =    -0.00064085   -0.00036995    0.00214139
     atom    2 type  1   force =     0.00064086   -0.00036989    0.00214143
     atom    3 type  1   force =     0.00000001    0.00073999    0.00214161
     atom    4 type  1   force =    -0.00000004    0.00000001    0.00286106
     atom    5 type  1   force =     0.00000058    0.00297998   -0.00376201
     atom    6 type  1   force =    -0.00000045    0.00000183    0.00210525
     atom    7 type  1   force =    -0.00257782   -0.00149038   -0.00376246
     atom    8 type  1   force =     0.00257942   -0.00149042   -0.00376665
     atom    9 type  1   force =    -0.00000674   -0.00000023    0.00091145
     atom   10 type  1   force =     0.00000439    0.00055110    0.00001457
     atom   11 type  1   force =     0.00047630   -0.00027318    0.00000744
     atom   12 type  1   force =    -0.00047530   -0.00027812    0.00000915
     atom   13 type  2   force =    -0.00000035   -0.00000075   -0.00104224

     Total force =     0.001681     Total SCF correction =     0.001251
     SCF correction compared to forces is large: reduce conv_thr to get better values

     entering subroutine stress ...

     negative rho (up, down):  1.177E-03 0.000E+00
          total   stress  (Ry/bohr**3)                   (kbar)     P=  -21.97
  -0.00017193  -0.00000000  -0.00000000        -25.29     -0.00     -0.00
  -0.00000000  -0.00017193  -0.00000000         -0.00    -25.29     -0.00
  -0.00000000  -0.00000000  -0.00010409         -0.00     -0.00    -15.31

     bfgs converged in   9 scf cycles and   8 bfgs steps
     (criteria: energy <  1.0E+00, force <  1.9E-03)

     End of BFGS Geometry Optimization

     Final energy   =   -4891.6318978065 Ry
Begin final coordinates

ATOMIC_POSITIONS (crystal)
Cu1      0.166666667   0.166666667   0.412653782    0   0   0
Cu1      0.666666667   0.166666667   0.412653782    0   0   0
Cu1      0.166666667   0.666666667   0.412653782    0   0   0
Cu1      0.666666667   0.666666667   0.412653782    0   0   0
Cu1      0.833333333   0.333333333   0.500000000    0   0   0
Cu1      0.333333333   0.333333333   0.500000000    0   0   0
Cu1      0.833333333   0.833333333   0.500000000    0   0   0
Cu1      0.333333333   0.833333333   0.500000000    0   0   0
Cu1      0.000004336   0.000003106   0.583390297
Cu1      0.500360227  -0.000720179   0.587264349
Cu1     -0.000719758   0.500361636   0.587267038
Cu1      0.500358802   0.500363457   0.587266497
O1       0.000002613   0.000000339   0.655449250
End final coordinates

     Writing output data file calc.save

     General routines

     Parallel routines

   This run was terminated on:  12:36:59   2May2018

   JOB DONE.
Job  /afs/slac/g/suncat/bin/suncat-tsmpirun -x LD_LIBRARY_PATH -wdir /scratch/qe596078_JmF4C pw.x -npool 4 -in pw.inp

TID   HOST_NAME   COMMAND_LINE            STATUS            TERMINATION_TIME
00000 suncat0074 pw.x -npool 4 -i  Done                     05/02/2018 12:36:59
00001 suncat0074 pw.x -npool 4 -i  Done                     05/02/2018 12:36:59
00002 suncat0074 pw.x -npool 4 -i  Done                     05/02/2018 12:36:59
00003 suncat0074 pw.x -npool 4 -i  Done                     05/02/2018 12:36:59
00004 suncat0074 pw.x -npool 4 -i  Done                     05/02/2018 12:36:59
00005 suncat0074 pw.x -npool 4 -i  Done                     05/02/2018 12:36:59
00006 suncat0074 pw.x -npool 4 -i  Done                     05/02/2018 12:36:59
00007 suncat0074 pw.x -npool 4 -i  Done                     05/02/2018 12:36:59
00008 suncat0064 pw.x -npool 4 -i  Done                     05/02/2018 12:36:59
00009 suncat0064 pw.x -npool 4 -i  Done                     05/02/2018 12:36:59
00010 suncat0064 pw.x -npool 4 -i  Done                     05/02/2018 12:36:59
00011 suncat0064 pw.x -npool 4 -i  Done                     05/02/2018 12:36:59
00012 suncat0064 pw.x -npool 4 -i  Done                     05/02/2018 12:36:59
00013 suncat0064 pw.x -npool 4 -i  Done                     05/02/2018 12:36:59
00014 suncat0064 pw.x -npool 4 -i  Done                     05/02/2018 12:36:59
00015 suncat0064 pw.x -npool 4 -i  Done                     05/02/2018 12:36:59
00016 suncat0169 pw.x -npool 4 -i  Done                     05/02/2018 12:36:59
00017 suncat0169 pw.x -npool 4 -i  Done                     05/02/2018 12:36:59
00018 suncat0169 pw.x -npool 4 -i  Done                     05/02/2018 12:36:59
00019 suncat0169 pw.x -npool 4 -i  Done                     05/02/2018 12:36:59
00020 suncat0169 pw.x -npool 4 -i  Done                     05/02/2018 12:36:59
00021 suncat0169 pw.x -npool 4 -i  Done                     05/02/2018 12:36:59
00022 suncat0169 pw.x -npool 4 -i  Done                     05/02/2018 12:36:59
00023 suncat0169 pw.x -npool 4 -i  Done                     05/02/2018 12:36:59
00024 suncat0167 pw.x -npool 4 -i  Done                     05/02/2018 12:36:59
00025 suncat0167 pw.x -npool 4 -i  Done                     05/02/2018 12:36:59
00026 suncat0167 pw.x -npool 4 -i  Done                     05/02/2018 12:36:59
00027 suncat0167 pw.x -npool 4 -i  Done                     05/02/2018 12:36:59
00028 suncat0167 pw.x -npool 4 -i  Done                     05/02/2018 12:36:59
00029 suncat0167 pw.x -npool 4 -i  Done                     05/02/2018 12:36:59
00030 suncat0167 pw.x -npool 4 -i  Done                     05/02/2018 12:36:59
00031 suncat0167 pw.x -npool 4 -i  Done                     05/02/2018 12:36:59