     Program PWSCF v.5.1rc2 (svn rev. 11289) starts on 23Apr2018 at 14:52:24

     Current dimensions of program PWSCF are:
     Max number of different atomic species (ntypx) = 10
     Max number of k-points (npk) =  40000
     Max angular momentum in pseudopotentials (lmaxx) =  3
     Presently stress not available with electric field

     IMPORTANT: XC functional enforced from input :
     Exchange-correlation      = BEEF-VDW ( 1  4 27 13 2)
     Any further DFT definition will be discarded
     Please, verify this is what you really want

     Subspace diagonalization in iterative solution of the eigenvalue problem:
     a serial algorithm will be used

     bravais-lattice index     =            0
     lattice parameter (alat)  =       1.8897  a.u.
     unit-cell volume          =    4301.6107 (a.u.)^3
     number of atoms/cell      =           16
     number of atomic types    =            3
     number of electrons       =       187.00
     number of Kohn-Sham states=          103
     kinetic-energy cutoff     =      36.7493  Ry
     charge density cutoff     =     367.4932  Ry
     convergence threshold     =      1.0E-05
     mixing beta               =       0.3000
     number of iterations used =           10  plain     mixing
     Exchange-correlation      = BEEF-VDW ( 1  4 27 13 2)
     nstep                     =           50

     celldm(1)=   1.889726  celldm(2)=   0.000000  celldm(3)=   0.000000
     celldm(4)=   0.000000  celldm(5)=   0.000000  celldm(6)=   0.000000

     crystal axes: (cart. coord. in units of alat)
               a(1) = (   5.483647   0.000000   0.000000 )
               a(2) = (   2.741823   4.748977   0.000000 )
               a(3) = (   0.000000   0.000000  24.477379 )

     reciprocal axes: (cart. coord. in units 2 pi/alat)
               b(1) = (  0.182360 -0.105286  0.000000 )
               b(2) = (  0.000000  0.210572  0.000000 )
               b(3) = (  0.000000  0.000000  0.040854 )

     PseudoPot. # 1 for Tc read from file:
     /u/if/mamunm/psp/gbrv1.5pbe/Tc.UPF
     MD5 check sum: 9eb49e5b028550b2339a02317eb7b844
     Pseudo is Ultrasoft + core correction, Zval = 15.0
     Generated by new atomic code, or converted to UPF format
     Using radial grid of  965 points,  6 beta functions with:
                l(1) =   0
                l(2) =   0
                l(3) =   1
                l(4) =   1
                l(5) =   2
                l(6) =   2
     Q(r) pseudized with  8 coefficients,  rinner =    1.300   1.300   1.300
                                                       1.300   1.300

     PseudoPot. # 2 for C  read from file:
     /u/if/mamunm/psp/gbrv1.5pbe/C.UPF
     MD5 check sum: d1aef80898a10debaa0f26306b886e00
     Pseudo is Ultrasoft + core correction, Zval =  4.0
     Generated by new atomic code, or converted to UPF format
     Using radial grid of  721 points,  4 beta functions with:
                l(1) =   0
                l(2) =   0
                l(3) =   1
                l(4) =   1
     Q(r) pseudized with  8 coefficients,  rinner =    1.100   1.100   1.100

     PseudoPot. # 3 for H  read from file:
     /u/if/mamunm/psp/gbrv1.5pbe/H.UPF
     MD5 check sum: 761ae9a214b05c3daf00ab9f6b793d6f
     Pseudo is Ultrasoft, Zval =  1.0
     Generated by new atomic code, or converted to UPF format
     Using radial grid of  615 points,  2 beta functions with:
                l(1) =   0
                l(2) =   0
     Q(r) pseudized with  8 coefficients,  rinner =    0.700

     vdW kernel table read from file vdW_kernel_table
     MD5 check sum: 095c7af220d748ca6e76c0b4c6cfb241

     atomic species   valence    mass     pseudopotential
        Tc1           15.00    97.90721     Tc( 1.00)
        C1             4.00    12.01100     C ( 1.00)
        H1             1.00     1.00800     H ( 1.00)

     No symmetry found

   Cartesian axes

     site n.     atom                  positions (alat units)
         1           Tc1 tau(   1) = (   1.3709117   0.7914962  10.0000000  )
         2           Tc1 tau(   2) = (   4.1127351   0.7914962  10.0000000  )
         3           Tc1 tau(   3) = (   2.7418234   3.1659850  10.0000000  )
         4           Tc1 tau(   4) = (   5.4836469   3.1659850  10.0000000  )
         5           Tc1 tau(   5) = (   5.4836469   1.5829925  12.2386895  )
         6           Tc1 tau(   6) = (   2.7418234   1.5829925  12.2386895  )
         7           Tc1 tau(   7) = (   6.8545586   3.9574812  12.2386895  )
         8           Tc1 tau(   8) = (   4.1127351   3.9574812  12.2386895  )
         9           Tc1 tau(   9) = (   0.0000000   0.0000000  14.4773789  )
        10           Tc1 tau(  10) = (   2.7418234   0.0000000  14.4773789  )
        11           Tc1 tau(  11) = (   1.3709117   2.3744887  14.4773789  )
        12           Tc1 tau(  12) = (   4.1127351   2.3744887  14.4773789  )
        13           C1  tau(  13) = (   1.3709117   0.7914962  15.9268789  )
        14           H1  tau(  14) = (   2.4609117   0.7914962  16.5568789  )
        15           H1  tau(  15) = (   6.4045586   1.6809962  16.5568789  )
        16           H1  tau(  16) = (   3.6627351   4.6509737  16.5568789  )

     number of k points=    20  Fermi-Dirac smearing, width (Ry)=  0.0110
                       cart. coord. in units 2pi/alat
        k(    1) = (   0.0000000   0.0000000   0.0000000), wk =   0.0555556
        k(    2) = (   0.0000000   0.0350953   0.0000000), wk =   0.1111111
        k(    3) = (   0.0000000   0.0701905   0.0000000), wk =   0.1111111
        k(    4) = (   0.0000000  -0.1052858   0.0000000), wk =   0.0555556
        k(    5) = (   0.0303934  -0.0175476   0.0000000), wk =   0.1111111
        k(    6) = (   0.0303934   0.0175476   0.0000000), wk =   0.1111111
        k(    7) = (   0.0303934   0.0526429   0.0000000), wk =   0.1111111
        k(    8) = (   0.0303934  -0.1228335   0.0000000), wk =   0.1111111
        k(    9) = (   0.0303934  -0.0877382   0.0000000), wk =   0.1111111
        k(   10) = (   0.0303934  -0.0526429   0.0000000), wk =   0.1111111
        k(   11) = (   0.0607868  -0.0350953   0.0000000), wk =   0.1111111
        k(   12) = (   0.0607868   0.0000000   0.0000000), wk =   0.1111111
        k(   13) = (   0.0607868   0.0350953   0.0000000), wk =   0.1111111
        k(   14) = (   0.0607868  -0.1403811   0.0000000), wk =   0.1111111
        k(   15) = (   0.0607868  -0.1052858   0.0000000), wk =   0.1111111
        k(   16) = (   0.0607868  -0.0701905   0.0000000), wk =   0.1111111
        k(   17) = (  -0.0911802   0.0526429   0.0000000), wk =   0.0555556
        k(   18) = (  -0.0911802   0.0877382   0.0000000), wk =   0.1111111
        k(   19) = (  -0.0911802   0.1228335   0.0000000), wk =   0.1111111
        k(   20) = (  -0.0911802  -0.0526429   0.0000000), wk =   0.0555556

     Largest allocated arrays     est. size (Mb)     dimensions
     Largest temporary arrays     est. size (Mb)     dimensions

     Check: negative/imaginary core charge=   -0.000022    0.000000

     Initial potential from superposition of free atoms
     Check: negative starting charge=   -1.504624

     starting charge  174.99960, renormalised to  187.00000

     negative rho (up, down):  1.608E+00 0.000E+00

     *
     * You are using vdW-DF for exchange-correlation in this calculation.
     * Please cite the following three references that made this development
     * possible:
     *
     *   M. Dion, H. Rydberg, E. Schroder, D. C. Langreth, and
     *   B. I. Lundqvist, Phys. Rev. Lett. 92, 246401 (2004).
     *
     *   T. Thonhauser, V. R. Cooper, S. Li, A. Puzder, P. Hyldgaard, and
     *   D. C. Langreth, Phys. Rev. B 76, 125112 (2007).
     *
     *   G. Roman-Perez and J. M. Soler, Phys. Rev. Lett. 103, 096102 (2009).
     *
     *
     * If you are using vdW-DF2, please also cite:
     *
     *   K. Lee, E. D. Murray, L. Kong, B. I. Lundqvist, and
     *   D. C. Langreth, Phys. Rev. B 82, 081101(R) (2010).
     *
     *
     * If you are calculating the stress with vdW-DF, please also cite:
     *
     *   R. Sabatini, E. Kucukbenli, B. Kolb, T. Thonhauser, and
     *   S. de Gironcoli, J. Phys.: Condens. Matter 24, 424209 (2012).
     *

     Carrying out vdW-DF run using the following parameters:

     Nqs =      20    Nr_points =    1024   r_max =   100.000
     q_mesh =
               0.00001000     0.04494208     0.09755937     0.15916263
               0.23128650     0.31572767     0.41458969     0.53033537
               0.66584808     0.82450364     1.01025438     1.22772762
               1.48234092     1.78043706     2.12944203     2.53805004
               3.01644009     3.57652955     4.23227104     5.00000000

     Gradients computed in reciprocal space

     Adding external electric field

     Computed dipole along edir(3) :
        Dipole               -3.5899 Ry au,         -9.1247 Debye
        Dipole field         -0.0105 Ry au

        Potential amp.        0.9459 Ry
        Total length         45.0992 bohr

     Starting wfc are  163 randomized atomic wfcs

     Self-consistent Calculation

     iteration #  1     ecut=    36.75 Ry     beta=0.30
     Davidson diagonalization with overlap
     ethr =  1.00E-02,  avg # of iterations =  8.2

[...]

     total energy              =   -1851.48643425 Ry
     Harris-Foulkes estimate   =   -2113.84648129 Ry
     estimated scf accuracy    <     552.06325506 Ry

     iteration #  2     ecut=    36.75 Ry     beta=0.30
     Davidson diagonalization with overlap
     c_bands:  1 eigenvalues not converged
     ethr =  1.00E-02,  avg # of iterations = 19.1

[...]

     End of self-consistent calculation

          k = 0.0000 0.0000 0.0000 ( 16073 PWs)   bands (ev):

   -64.1474 -64.0003 -63.9986 -63.9880 -63.9624 -63.8821 -63.8777 -63.8760
   -63.7626 -63.7509 -63.7486 -63.7441 -36.5858 -36.5715 -36.5710 -36.5342
   -36.4602 -36.4125 -36.4110 -36.2870 -36.2771 -36.2754 -35.9913 -35.9758
   -35.9711 -35.9088 -35.8756 -35.8724 -35.8515 -35.8440 -35.8434 -35.8045
   -35.7018 -35.6998 -35.6748 -35.6569 -35.6544 -35.6474 -35.6159 -35.6079
   -35.6071 -35.5457 -35.5442 -35.5435 -35.4282 -35.4268 -35.3475 -35.3469
   -10.7900  -4.0289  -3.7183  -3.6488  -3.1434  -2.0793  -2.0306  -2.0184
    -1.9551  -1.8927  -1.6010  -1.5446  -1.5321  -1.4435  -1.4390  -1.2123
    -1.0702  -1.0552  -0.4324   0.1415   0.1681   0.8333   0.8437   0.8594
     1.1325   1.2898   1.4490   1.4497   1.6245   1.6946   1.6991   1.8346
     1.8439   1.8449   1.9794   1.9808   2.4402   2.4468   2.4692   3.0506
     3.3706   3.3845   3.4320   3.6108   3.6371   3.8262   3.8278   4.0862
     4.2546   4.2604   4.3506   4.9080   4.9456   5.0761   5.1185

[...]

          k =-0.0912 0.0526 0.0000 ( 16164 PWs)   bands (ev):

[...]

     the Fermi energy is     3.1461 ev

!    total energy              =   -2118.53976047 Ry
     Harris-Foulkes estimate   =   -2118.53975977 Ry
     estimated scf accuracy    <       0.00000364 Ry

     The total energy is the sum of the following terms:

     one-electron contribution =  -19199.61538051 Ry
     hartree contribution      =    9604.86781561 Ry
     xc contribution           =    -403.04254134 Ry
     ewald contribution        =    7879.34293392 Ry
     electric field correction =       0.00039352 Ry
     smearing contrib. (-TS)   =      -0.09298167 Ry

     convergence has been achieved in  33 iterations

 BEEF-vdW xc energy contributions
           1 :   -352.958277396274
           2 :    324.477314126152
           3 :   -273.852292283820
           4 :    211.262862761974
           5 :   -147.538843500576
           6 :    91.2016219177875
           7 :   -46.8156350133215
           8 :    14.8542397806910
           9 :    7.05853593330539
          10 :   -22.2837487070656
          11 :    33.4537789732054
          12 :   -41.5838311536824
          13 :    46.1464401755486
          14 :   -45.9077581309924
          15 :    40.0010923360554
          16 :   -28.7527998093958
          17 :    13.9087051442024
          18 :    1.77102916296599
          19 :   -15.3460831422680
          20 :    24.5693798528574
          21 :   -28.4594096359640
          22 :    27.3652295130639
          23 :   -22.5729633029021
          24 :    15.6749061732350
          25 :   -8.01046521216676
          26 :   0.394465024500619
          27 :    6.81080626441832
          28 :   -13.4047097569120
          29 :    19.0455354782366
          30 :   -23.1240779443306
          31 :   -33.7816059442691
          32 :   -24.8133384410182

     Forces acting on atoms (Ry/au):

     negative rho (up, down):  1.589E+00 0.000E+00
     atom    1 type  1   force =    -0.00007991    0.00006515    0.02922887
     atom    2 type  1   force =    -0.00014150   -0.00389713    0.02782234
     atom    3 type  1   force =    -0.00328863    0.00215990    0.02797216
     atom    4 type  1   force =     0.00368612    0.00176896    0.02815540
     atom    5 type  1   force =    -0.00543396    0.00222335    0.00533799
     atom    6 type  1   force =     0.00482966    0.00399766    0.00552231
     atom    7 type  1   force =     0.00002199   -0.00027655   -0.04127522
     atom    8 type  1   force =     0.00017778   -0.00623563    0.00473533
     atom    9 type  1   force =    -0.01091842   -0.02282534   -0.04094205
     atom   10 type  1   force =     0.02661295    0.00380436   -0.03412233
     atom   11 type  1   force =    -0.01311748    0.02178747   -0.04254512
     atom   12 type  1   force =    -0.00031676   -0.00001384   -0.05104743
     atom   13 type  2   force =     0.03202979   -0.00248814    0.21161125
     atom   14 type  3   force =    -0.05370181   -0.01793522   -0.05836913
     atom   15 type  3   force =     0.02442663   -0.02120443   -0.03592725
     atom   16 type  3   force =    -0.00478645    0.03906942   -0.03615713

     Total force =     0.258619     Total SCF correction =     0.005866

     entering subroutine stress ...

     negative rho (up, down):  1.589E+00 0.000E+00
          total   stress  (Ry/bohr**3)                   (kbar)     P=  -28.70
  -0.00019857  -0.00000074  -0.00001070        -29.21     -0.11     -1.57
  -0.00000074  -0.00019466  -0.00000157         -0.11    -28.64     -0.23
  -0.00001070  -0.00000157  -0.00019210         -1.57     -0.23    -28.26

     BFGS Geometry Optimization

     number of scf cycles    =   1
     number of bfgs steps    =   0

     energy   new            =   -2118.5397604661 Ry

     new trust radius        =       0.2140360251 bohr
     new conv_thr            =       0.0000099958 Ry

ATOMIC_POSITIONS (crystal)
Tc1      0.166666667   0.166666667   0.408540475    0   0   0
Tc1      0.666666667   0.166666667   0.408540475    0   0   0
Tc1      0.166666667   0.666666667   0.408540475    0   0   0
Tc1      0.666666667   0.666666667   0.408540475    0   0   0
Tc1      0.833333333   0.333333333   0.500000000    0   0   0
Tc1      0.333333333   0.333333333   0.500000000    0   0   0
Tc1      0.833333333   0.833333333   0.500000000    0   0   0
Tc1      0.333333333   0.833333333   0.500000000    0   0   0
Tc1      0.000218072  -0.002543421   0.590574398
Tc1      0.502356216   0.000423919   0.590721833
Tc1     -0.002479736   0.502427772   0.590539741
Tc1      0.499970203   0.499998457   0.590355929
C1       0.169896199   0.166389414   0.655252297
H1       0.361256477   0.164668151   0.675153633
H1       0.994491346   0.351607341   0.675638805
H1       0.175617584   0.983716683   0.675633835

     Writing output data file calc.save
     Check: negative starting charge=   -1.504624
     NEW-OLD atomic charge density approx. for the potential

     Check: negative/imaginary core charge=   -0.000022    0.000000
     Check: negative starting charge=   -1.509524

[...]

     energy   old            =   -2118.5397604661 Ry
     energy   new            =   -2118.5870602795 Ry

     CASE: energy  _new < energy  _old

[...]

     iteration #  1     ecut=    36.75 Ry     beta=0.30
     Davidson diagonalization with overlap
     c_bands:  1 eigenvalues not converged
     ethr =  1.00E-06,  avg # of iterations =  7.1

[...]

     Total force =     0.007368     Total SCF correction =     0.000816
     SCF correction compared to forces is large: reduce conv_thr to get better values

[...]

     Total force =     0.008226     Total SCF correction =     0.001225
     SCF correction compared to forces is large: reduce conv_thr to get better values

[...]

     number of scf cycles    =  24
     number of bfgs steps    =  23

     energy   old            =   -2118.6271097460 Ry
     energy   new            =   -2118.6271777266 Ry

     CASE: energy  _new < energy  _old

     new trust radius        =       0.0134505389 bohr
     new conv_thr            =       0.0000001000 Ry

ATOMIC_POSITIONS (crystal)
Tc1      0.166666667   0.166666667   0.408540475    0   0   0
Tc1      0.666666667   0.166666667   0.408540475    0   0   0
Tc1      0.166666667   0.666666667   0.408540475    0   0   0
Tc1      0.666666667   0.666666667   0.408540475    0   0   0
Tc1      0.833333333   0.333333333   0.500000000    0   0   0
Tc1      0.333333333   0.333333333   0.500000000    0   0   0
Tc1      0.833333333   0.833333333   0.500000000    0   0   0
Tc1      0.333333333   0.833333333   0.500000000    0   0   0
Tc1      0.000196298   0.002840421   0.588510560
Tc1      0.497339286  -0.000279024   0.588425511
Tc1      0.002915216   0.497147875   0.588544353
Tc1      0.500138096   0.499784163   0.584669154
C1       0.168107825   0.166429338   0.661234434
H1       0.383191013   0.055414978   0.678883840
H1       1.064771966   0.381329187   0.678953162
H1       0.057616698   1.062998331   0.679317827

     Writing output data file calc.save
     Check: negative starting charge=   -1.504259
     NEW-OLD atomic charge density approx. for the potential

     Check: negative/imaginary core charge=   -0.000022    0.000000
     Check: negative starting charge=   -1.504501

[...]

     Self-consistent Calculation

[...]

     total energy              =   -2118.62724094 Ry
     Harris-Foulkes estimate   =   -2118.62724090 Ry
     estimated scf accuracy    <       0.00000016 Ry

     iteration # 14     ecut=    36.75 Ry     beta=0.30
     Davidson diagonalization with overlap
     ethr =  7.23E-11,  avg # of iterations =  3.7

[...]

     negative rho (up, down):  1.589E+00 0.000E+00

     Adding external electric field

     Computed dipole along edir(3) :
        Dipole                0.3189 Ry au,          0.8105 Debye
        Dipole field          0.0009 Ry au

        Potential amp.       -0.0840 Ry
        Total length         45.0992 bohr

     End of self-consistent calculation

[...]

          k = 0.0608-0.0702 0.0000 ( 16203 PWs)   bands (ev):

[...]

          k =-0.0912-0.0526 0.0000 ( 16164 PWs)   bands (ev):

   -64.1876 -64.1665 -64.1029 -64.0626 -63.9996 -63.9748 -63.9418 -63.9345
   -63.9166 -63.8677 -63.8611 -63.8558 -36.5746 -36.5224 -36.5089 -36.4925
   -36.4497 -36.4402 -36.3066 -36.2950 -36.2633 -36.2321 -36.1992 -36.1966
   -36.0316 -35.9756 -35.9511 -35.9438 -35.9398 -35.9388 -35.9310 -35.9071
   -35.8847 -35.8828 -35.8666 -35.8581 -35.8408 -35.8373 -35.8207 -35.8077
   -35.7322 -35.7106 -35.6769 -35.6434 -35.6424 -35.5818 -35.5540 -35.5414
   -10.6137  -3.9422  -3.8067  -2.0820  -1.9111  -1.7702  -1.3416  -1.2786
    -1.2553  -1.1701  -0.9933  -0.8542  -0.7071  -0.6501  -0.5759  -0.4975
    -0.3167  -0.2663  -0.2039  -0.1713   0.2042   0.2853   0.4720   0.4799
     0.5787   0.7223   1.0421   1.1888   1.2966   1.3376   1.4736   1.5535
     1.6191   1.6472   1.7389   1.7654   1.7912   1.8267   1.9390   1.9663
     1.9925   2.0393   2.0585   2.7482   2.8086   2.8630   3.0031   3.0505
     3.1562   3.4846   3.4869   3.5422   3.5894   3.6426   3.7326

     the Fermi energy is     3.0585 ev

!    total energy              =   -2118.62724094 Ry
     Harris-Foulkes estimate   =   -2118.62724185 Ry
     estimated scf accuracy    <          6.7E-09 Ry

     The total energy is the sum of the following terms:

     one-electron contribution =  -19364.64271608 Ry
     hartree contribution      =    9686.82958502 Ry
     xc contribution           =    -403.25848413 Ry
     ewald contribution        =    7962.53500841 Ry
     electric field correction =       0.00029703 Ry
     smearing contrib. (-TS)   =      -0.09093119 Ry

     convergence has been achieved in  14 iterations

 BEEF-vdW xc energy contributions
           1 :   -353.147440214710
           2 :    324.635216713197
           3 :   -273.989437829865
           4 :    211.406580341819
           5 :   -147.688266799952
           6 :    91.3255728557497
           7 :   -46.8835887721689
           8 :    14.8668878686312
           9 :    7.05785572036416
          10 :   -22.2229202258350
          11 :    33.2659639247566
          12 :   -41.2453107823387
          13 :    45.7002544446246
          14 :   -45.4547517021834
          15 :    39.6603279998731
          16 :   -28.6087844051557
          17 :    13.9715222776506
          18 :    1.57081577672517
          19 :   -15.1243921695187
          20 :    24.4332286526081
          21 :   -28.4553463464168
          22 :    27.4595301481250
          23 :   -22.6731613971052
          24 :    15.6805793259495
          25 :   -7.86870342423003
          26 :   0.131217433946347
          27 :    7.10014264570265
          28 :   -13.6004808489804
          29 :    19.0605505981260
          30 :   -22.9456722062058
          31 :   -33.7933006030880
          32 :   -24.8180489458625

     Forces acting on atoms (Ry/au):

     negative rho (up, down):  1.589E+00 0.000E+00
     atom    1 type  1   force =    -0.00000138   -0.00005828    0.01809936
     atom    2 type  1   force =     0.00008075   -0.00464886    0.01777276
     atom    3 type  1   force =    -0.00403698    0.00223076    0.01786485
     atom    4 type  1   force =     0.00401124    0.00238096    0.01780833
     atom    5 type  1   force =     0.00164346   -0.00058474   -0.00672546
     atom    6 type  1   force =    -0.00130374   -0.00103592   -0.00684998
     atom    7 type  1   force =     0.00018055   -0.00007452   -0.04920118
     atom    8 type  1   force =    -0.00037314    0.00160424   -0.00689930
     atom    9 type  1   force =     0.00166313    0.00006855    0.00070765
     atom   10 type  1   force =    -0.00063174    0.00141341    0.00090998
     atom   11 type  1   force =    -0.00067431   -0.00141258    0.00012142
     atom   12 type  1   force =     0.00003977    0.00006422    0.00099314
     atom   13 type  2   force =    -0.00030993   -0.00002004   -0.00172711
     atom   14 type  3   force =     0.00183069   -0.00040746   -0.00093197
     atom   15 type  3   force =    -0.00021776    0.00183643   -0.00079867
     atom   16 type  3   force =    -0.00190061   -0.00135616   -0.00114382

     Total force =     0.005314     Total SCF correction =     0.000224

     entering subroutine stress ...

     negative rho (up, down):  1.589E+00 0.000E+00
          total   stress  (Ry/bohr**3)                   (kbar)     P=  -20.97
  -0.00016758  -0.00000003  -0.00000079        -24.65     -0.00     -0.12
  -0.00000003  -0.00016783   0.00000033         -0.00    -24.69      0.05
  -0.00000079   0.00000033  -0.00009232         -0.12      0.05    -13.58

     bfgs converged in  25 scf cycles and  24 bfgs steps
     (criteria: energy <  1.0E+00, force <  1.9E-03)

     End of BFGS Geometry Optimization

     Final energy   =   -2118.6272409410 Ry
Begin final coordinates

ATOMIC_POSITIONS (crystal)
Tc1      0.166666667   0.166666667   0.408540475    0   0   0
Tc1      0.666666667   0.166666667   0.408540475    0   0   0
Tc1      0.166666667   0.666666667   0.408540475    0   0   0
Tc1      0.666666667   0.666666667   0.408540475    0   0   0
Tc1      0.833333333   0.333333333   0.500000000    0   0   0
Tc1      0.333333333   0.333333333   0.500000000    0   0   0
Tc1      0.833333333   0.833333333   0.500000000    0   0   0
Tc1      0.333333333   0.833333333   0.500000000    0   0   0
Tc1      0.000196298   0.002840421   0.588510560
Tc1      0.497339286  -0.000279024   0.588425511
Tc1      0.002915216   0.497147875   0.588544353
Tc1      0.500138096   0.499784163   0.584669154
C1       0.168107825   0.166429338   0.661234434
H1       0.383191013   0.055414978   0.678883840
H1       1.064771966   0.381329187   0.678953162
H1       0.057616698   1.062998331   0.679317827
End final coordinates

     Writing output data file calc.save

     General routines

     Parallel routines

   This run was terminated on:  16:38:49  23Apr2018

   JOB DONE.
Job  /afs/slac/g/suncat/bin/suncat-tsmpirun -x LD_LIBRARY_PATH -wdir /scratch/qe23727_ErZIl pw.x -npool 3 -in pw.inp

TID   HOST_NAME   COMMAND_LINE            STATUS            TERMINATION_TIME
00000 suncat2065 pw.x -npool 3 -i  Done                     04/23/2018 16:38:49
00001 suncat2065 pw.x -npool 3 -i  Done                     04/23/2018 16:38:49
00002 suncat2065 pw.x -npool 3 -i  Done                     04/23/2018 16:38:49
00003 suncat2065 pw.x -npool 3 -i  Done                     04/23/2018 16:38:49
00004 suncat2066 pw.x -npool 3 -i  Done                     04/23/2018 16:38:49
00005 suncat2066 pw.x -npool 3 -i  Done                     04/23/2018 16:38:49
00006 suncat2066 pw.x -npool 3 -i  Done                     04/23/2018 16:38:49
00007 suncat2066 pw.x -npool 3 -i  Done                     04/23/2018 16:38:49
00008 suncat2066 pw.x -npool 3 -i  Done                     04/23/2018 16:38:49
00009 suncat2066 pw.x -npool 3 -i  Done                     04/23/2018 16:38:49
00010 suncat2066 pw.x -npool 3 -i  Done                     04/23/2018 16:38:49
00011 suncat2066 pw.x -npool 3 -i  Done                     04/23/2018 16:38:49
00012 suncat2066 pw.x -npool 3 -i  Done                     04/23/2018 16:38:49
00013 suncat2066 pw.x -npool 3 -i  Done                     04/23/2018 16:38:49
00014 suncat2066 pw.x -npool 3 -i  Done                     04/23/2018 16:38:49
00015 suncat2066 pw.x -npool 3 -i  Done                     04/23/2018 16:38:49
00016 suncat2066 pw.x -npool 3 -i  Done                     04/23/2018 16:38:49
00017 suncat2066 pw.x -npool 3 -i  Done                     04/23/2018 16:38:49
00018 suncat2066 pw.x -npool 3 -i  Done                     04/23/2018 16:38:49
00019 suncat2066 pw.x -npool 3 -i  Done                     04/23/2018 16:38:49
00020 suncat2002 pw.x -npool 3 -i  Done                     04/23/2018 16:38:49
00021 suncat2002 pw.x -npool 3 -i  Done                     04/23/2018 16:38:49
00022 suncat2002 pw.x -npool 3 -i  Done                     04/23/2018 16:38:49
00023 suncat2002 pw.x -npool 3 -i  Done                     04/23/2018 16:38:49
00024 suncat2002 pw.x -npool 3 -i  Done                     04/23/2018 16:38:49
00025 suncat2002 pw.x -npool 3 -i  Done                     04/23/2018 16:38:49
00026 suncat2002 pw.x -npool 3 -i  Done                     04/23/2018 16:38:49
00027 suncat2002 pw.x -npool 3 -i  Done                     04/23/2018 16:38:49
00028 suncat2002 pw.x -npool 3 -i  Done                     04/23/2018 16:38:49
00029 suncat2002 pw.x -npool 3 -i  Done                     04/23/2018 16:38:49
00030 suncat2002 pw.x -npool 3 -i  Done                     04/23/2018 16:38:49
00031 suncat2002 pw.x -npool 3 -i  Done                     04/23/2018 16:38:49
00032 suncat2002 pw.x -npool 3 -i  Done                     04/23/2018 16:38:49
00033 suncat2002 pw.x -npool 3 -i  Done                     04/23/2018 16:38:49
00034 suncat2002 pw.x -npool 3 -i  Done                     04/23/2018 16:38:49
00035 suncat2002 pw.x -npool 3 -i  Done                     04/23/2018 16:38:49