     Program PWSCF v.5.1rc2 (svn rev. 11289) starts on 17Jan2019 at 13: 6:33

     Current dimensions of program PWSCF are:
     Max number of different atomic species (ntypx) = 10
     Max number of k-points (npk) =  40000
     Max angular momentum in pseudopotentials (lmaxx) =  3

     IMPORTANT: XC functional enforced from input :
     Exchange-correlation      = BEEF-VDW ( 1  4 27 13 2)
     Any further DFT definition will be discarded
     Please, verify this is what you really want

     Subspace diagonalization in iterative solution of the eigenvalue problem:
     a serial algorithm will be used

     Generating pointlists ...
     new r_m :   0.1653 (alat units)  1.6081 (a.u.) for type    1
     new r_m :   0.0945 (alat units)  0.9192 (a.u.) for type    2
     new r_m :   0.0945 (alat units)  0.9192 (a.u.) for type    3

     bravais-lattice index     =            0
     lattice parameter (alat)  =       9.7265  a.u.
     unit-cell volume          =    3747.1846 (a.u.)^3
     number of atoms/cell      =           16
     number of atomic types    =            3
     number of electrons       =       187.00
     number of Kohn-Sham states=          103
     kinetic-energy cutoff     =      36.7493  Ry
     charge density cutoff     =     367.4933  Ry
     convergence threshold     =      1.0E-04
     mixing beta               =       0.1000
     number of iterations used =            8  plain     mixing
     Exchange-correlation      = BEEF-VDW ( 1  4 27 13 2)
     nstep                     =           50

     celldm(1)=   9.726515  celldm(2)=   0.000000  celldm(3)=   0.000000
     celldm(4)=   0.000000  celldm(5)=   0.000000  celldm(6)=   0.000000

     crystal axes: (cart. coord. in units of alat)
               a(1) = (   1.000000   0.000000   0.000000 )
               a(2) = (   0.500000   0.866025   0.000000 )
               a(3) = (   0.000000   0.000000   4.702218 )

     reciprocal axes: (cart. coord. in units 2 pi/alat)
               b(1) = (  1.000000 -0.577350  0.000000 )
               b(2) = (  0.000000  1.154701  0.000000 )
               b(3) = (  0.000000  0.000000  0.212666 )

     PseudoPot. # 1 for Mn read from file:
     /nfs/slac/g/suncatfs/mamunm/src/decaf-espresso/gbrv15pbe/Mn.UPF
     MD5 check sum: 82ef2b46521d7a7d9e736dc3972e4928
     Pseudo is Ultrasoft + core correction, Zval = 15.0
     Generated by new atomic code, or converted to UPF format
     Using radial grid of  859 points,  6 beta functions with:
                l(1) =   0
                l(2) =   0
                l(3) =   1
                l(4) =   1
                l(5) =   2
                l(6) =   2
     Q(r) pseudized with  8 coefficients,  rinner =    0.950   0.950   0.950
                                                       0.950   0.950

     PseudoPot. # 2 for C  read from file:
     /nfs/slac/g/suncatfs/mamunm/src/decaf-espresso/gbrv15pbe/C.UPF
     MD5 check sum: d1aef80898a10debaa0f26306b886e00
     Pseudo is Ultrasoft + core correction, Zval =  4.0
     Generated by new atomic code, or converted to UPF format
     Using radial grid of  721 points,  4 beta functions with:
                l(1) =   0
                l(2) =   0
                l(3) =   1
                l(4) =   1
     Q(r) pseudized with  8 coefficients,  rinner =    1.100   1.100   1.100

     PseudoPot. # 3 for H  read from file:
     /nfs/slac/g/suncatfs/mamunm/src/decaf-espresso/gbrv15pbe/H.UPF
     MD5 check sum: 761ae9a214b05c3daf00ab9f6b793d6f
     Pseudo is Ultrasoft, Zval =  1.0
     Generated by new atomic code, or converted to UPF format
     Using radial grid of  615 points,  2 beta functions with:
                l(1) =   0
                l(2) =   0
     Q(r) pseudized with  8 coefficients,  rinner =    0.700

     vdW kernel table read from file vdW_kernel_table
     MD5 check sum: 095c7af220d748ca6e76c0b4c6cfb241

     atomic species   valence    mass     pseudopotential
        Mn            15.00    54.93804     Mn( 1.00)
        C              4.00    12.01100     C ( 1.00)
        H              1.00     1.00800     H ( 1.00)

     Starting magnetic structure
     atomic species   magnetization
        Mn           0.200
        C            0.000
        H            0.000

     No symmetry found

   Cartesian axes

     site n.     atom                  positions (alat units)
         1           Mn  tau(   1) = (   0.2500000   0.1443376   1.9428605  )
         2           Mn  tau(   2) = (   0.7500000   0.1443376   1.9428605  )
         3           Mn  tau(   3) = (   0.5000000   0.5773503   1.9428605  )
         4           Mn  tau(   4) = (   1.0000000   0.5773503   1.9428605  )
         5           Mn  tau(   5) = (   1.0000000   0.2886751   2.3511088  )
         6           Mn  tau(   6) = (   0.5000000   0.2886751   2.3511088  )
         7           Mn  tau(   7) = (   1.2500000   0.7216878   2.3511088  )
         8           Mn  tau(   8) = (   0.7500000   0.7216878   2.3511088  )
         9           Mn  tau(   9) = (   0.0000000   0.0000000   2.7593571  )
        10           Mn  tau(  10) = (   0.5000000   0.0000000   2.7593571  )
        11           Mn  tau(  11) = (   0.2500000   0.4330127   2.7593571  )
        12           Mn  tau(  12) = (   0.7500000   0.4330127   2.7593571  )
        13           C   tau(  13) = (   0.2500000   0.0000000   3.0726434  )
        14           H   tau(  14) = (   0.4617718   0.0000000   3.1950436  )
        15           H   tau(  15) = (   0.1625713   0.1728174   3.1950436  )
        16           H   tau(  16) = (   0.6625713   0.6932080   3.1950436  )

     number of k points=    40  Fermi-Dirac smearing, width (Ry)=  0.0110
                       cart. coord. in units 2pi/alat
        k(    1) = (   0.0000000   0.0000000   0.0000000), wk =   0.0277778
        k(    2) = (   0.0000000   0.1924501   0.0000000), wk =   0.0555556
        k(    3) = (   0.0000000   0.3849002   0.0000000), wk =   0.0555556
        k(    4) = (   0.0000000  -0.5773503   0.0000000), wk =   0.0277778
        k(    5) = (   0.1666667  -0.0962250   0.0000000), wk =   0.0555556
        k(    6) = (   0.1666667   0.0962250   0.0000000), wk =   0.0555556
        k(    7) = (   0.1666667   0.2886751   0.0000000), wk =   0.0555556
        k(    8) = (   0.1666667  -0.6735753   0.0000000), wk =   0.0555556
        k(    9) = (   0.1666667  -0.4811252   0.0000000), wk =   0.0555556
        k(   10) = (   0.1666667  -0.2886751   0.0000000), wk =   0.0555556
        k(   11) = (   0.3333333  -0.1924501   0.0000000), wk =   0.0555556
        k(   12) = (   0.3333333   0.0000000   0.0000000), wk =   0.0555556
        k(   13) = (   0.3333333   0.1924501   0.0000000), wk =   0.0555556
        k(   14) = (   0.3333333  -0.7698004   0.0000000), wk =   0.0555556
        k(   15) = (   0.3333333  -0.5773503   0.0000000), wk =   0.0555556
        k(   16) = (   0.3333333  -0.3849002   0.0000000), wk =   0.0555556
        k(   17) = (  -0.5000000   0.2886751   0.0000000), wk =   0.0277778
        k(   18) = (  -0.5000000   0.4811252   0.0000000), wk =   0.0555556
        k(   19) = (  -0.5000000   0.6735753   0.0000000), wk =   0.0555556
        k(   20) = (  -0.5000000  -0.2886751   0.0000000), wk =   0.0277778
        k(   21) = (   0.0000000   0.0000000   0.0000000), wk =   0.0277778
        k(   22) = (   0.0000000   0.1924501   0.0000000), wk =   0.0555556
        k(   23) = (   0.0000000   0.3849002   0.0000000), wk =   0.0555556
        k(   24) = (   0.0000000  -0.5773503   0.0000000), wk =   0.0277778
        k(   25) = (   0.1666667  -0.0962250   0.0000000), wk =   0.0555556
        k(   26) = (   0.1666667   0.0962250   0.0000000), wk =   0.0555556
        k(   27) = (   0.1666667   0.2886751   0.0000000), wk =   0.0555556
        k(   28) = (   0.1666667  -0.6735753   0.0000000), wk =   0.0555556
        k(   29) = (   0.1666667  -0.4811252   0.0000000), wk =   0.0555556
        k(   30) = (   0.1666667  -0.2886751   0.0000000), wk =   0.0555556
        k(   31) = (   0.3333333  -0.1924501   0.0000000), wk =   0.0555556
        k(   32) = (   0.3333333   0.0000000   0.0000000), wk =   0.0555556
        k(   33) = (   0.3333333   0.1924501   0.0000000), wk =   0.0555556
        k(   34) = (   0.3333333  -0.7698004   0.0000000), wk =   0.0555556
        k(   35) = (   0.3333333  -0.5773503   0.0000000), wk =   0.0555556
        k(   36) = (   0.3333333  -0.3849002   0.0000000), wk =   0.0555556
        k(   37) = (  -0.5000000   0.2886751   0.0000000), wk =   0.0277778
        k(   38) = (  -0.5000000   0.4811252   0.0000000), wk =   0.0555556
        k(   39) = (  -0.5000000   0.6735753   0.0000000), wk =   0.0555556
        k(   40) = (  -0.5000000  -0.2886751   0.0000000), wk =   0.0277778

     Largest allocated arrays     est. size (Mb)     dimensions
     Largest temporary arrays     est. size (Mb)     dimensions

     Check: negative/imaginary core charge=   -0.000010    0.000000

     Initial potential from superposition of free atoms
     Check: negative starting charge=(component1):   -0.001508
     Check: negative starting charge=(component2):   -0.000990

     starting charge  180.99891, renormalised to  187.00000

     negative rho (up, down):  1.558E-03 1.022E-03

     *
     * You are using vdW-DF for exchange-correlation in this calculation.
     * Please cite the following three references that made this development
     * possible:
     *
     *   M. Dion, H. Rydberg, E. Schroder, D. C. Langreth, and
     *   B. I. Lundqvist, Phys. Rev. Lett. 92, 246401 (2004).
     *
     *   T. Thonhauser, V. R. Cooper, S. Li, A. Puzder, P. Hyldgaard, and
     *   D. C. Langreth, Phys. Rev. B 76, 125112 (2007).
     *
     *   G. Roman-Perez and J. M. Soler, Phys. Rev. Lett. 103, 096102 (2009).
     *
     *
     * If you are using vdW-DF2, please also cite:
     *
     *   K. Lee, E. D. Murray, L. Kong, B. I. Lundqvist, and
     *   D. C. Langreth, Phys. Rev. B 82, 081101(R) (2010).
     *
     *
     * If you are calculating the stress with vdW-DF, please also cite:
     *
     *   R. Sabatini, E. Kucukbenli, B. Kolb, T. Thonhauser, and
     *   S. de Gironcoli, J. Phys.: Condens. Matter 24, 424209 (2012).
     *

     Carrying out vdW-DF run using the following parameters:

     Nqs =      20    Nr_points =    1024   r_max =   100.000
     q_mesh =
               0.00001000     0.04494208     0.09755937     0.15916263
               0.23128650     0.31572767     0.41458969     0.53033537
               0.66584808     0.82450364     1.01025438     1.22772762
               1.48234092     1.78043706     2.12944203     2.53805004
               3.01644009     3.57652955     4.23227104     5.00000000

     Gradients computed in reciprocal space

     Adding external electric field

     Computed dipole along edir(3) :
        Dipole               -1.7467 Ry au,         -4.4396 Debye
        Dipole field         -0.0059 Ry au

        Potential amp.        0.4822 Ry
        Total length         41.1626 bohr

[...]

     Starting wfc are  163 randomized atomic wfcs

     Self-consistent Calculation

     iteration #  1     ecut=    36.75 Ry     beta=0.10
[...]
     absolute magnetization    =    18.31 Bohr mag/cell

[...]

     iteration # 25     ecut=    36.75 Ry     beta=0.10
     Davidson diagonalization with overlap
     c_bands:  1 eigenvalues not converged
     ethr =  1.53E-05,  avg # of iterations =  7.8

[...]

     End of self-consistent calculation

 ------ SPIN UP ------------

          k = 0.0000 0.0000 0.0000 ( 14177 PWs)   bands (ev):

   -78.8062 -78.7718 -78.5134 -78.4480 -78.3984 -78.3857 -78.3359 -76.4436
   -76.1945 -76.1549 -76.0341 -75.8935 -47.7184 -47.6883 -47.5533 -47.4844
   -47.4690 -47.4061 -47.3123 -47.2667 -47.2513 -47.2484 -47.2440 -47.2307
   -47.2217 -47.1863 -47.1410 -47.0126 -46.9570 -46.9365 -46.9308 -46.8454
   -46.8430 -45.3530 -45.3228 -45.1587 -45.0693 -44.9562 -44.9445 -44.8762
   -44.8443 -44.8314 -44.7419 -44.7321 -44.7265 -44.7207 -44.6506 -44.5584
   -11.4826  -5.3403  -4.4079  -4.0852  -4.0716  -3.0194  -2.3732  -2.0324
    -1.9669  -1.9283  -1.9007  -1.8522  -1.8086  -1.7574  -1.5878  -1.4064
    -1.1833  -1.1184  -1.1001  -0.9644  -0.9443  -0.5380  -0.2957   0.2004
     0.2432   0.3698   0.3763   0.4157   0.4343   0.4780   0.5084   0.5149
     0.5847   0.6986   0.7867   0.8828   0.9627   0.9900   1.0005   1.1763
     1.3092   1.3183   1.4912   1.7296   1.8863   2.0756   2.1199   2.1684
     2.2822   2.3113   2.4900   2.5087   2.5330   2.5519   2.5586

[...]

          k =-0.5000 0.2887 0.0000 ( 14098 PWs)   bands (ev):

[...]

 ------ SPIN DOWN ----------

[...]

     the Fermi energy is     1.9764 ev

!    total energy              =   -2560.46384993 Ry
     Harris-Foulkes estimate   =   -2560.46382747 Ry
     estimated scf accuracy    <       0.00007746 Ry

     The total energy is the sum of the following terms:

     one-electron contribution =  -23033.68234601 Ry
     hartree contribution      =   11519.50964911 Ry
     xc contribution           =    -336.60298976 Ry
     ewald contribution        =    9290.41712015 Ry
     electric field correction =       0.00022504 Ry
     smearing contrib. (-TS)   =      -0.10550846 Ry

[...]

     convergence has been achieved in 141 iterations

     Forces acting on atoms (Ry/au):

     negative rho (up, down):  1.828E-03 1.659E-03
     atom    1 type  1   force =     0.00045552    0.00012337    0.01432881
     atom    2 type  1   force =     0.00002088   -0.00225663    0.01560908
     atom    3 type  1   force =    -0.00173510    0.00042589    0.01945229
     atom    4 type  1   force =     0.00221252    0.00135611    0.01502881
     atom    5 type  1   force =    -0.00338396   -0.00187961   -0.00183585
     atom    6 type  1   force =     0.00031896    0.00137133   -0.01399576
     atom    7 type  1   force =    -0.00323792    0.00236479   -0.01332123
     atom    8 type  1   force =     0.00097333    0.00227500   -0.01481753
     atom    9 type  1   force =    -0.00905947   -0.00245578   -0.02404011
     atom   10 type  1   force =     0.01977138   -0.00441600   -0.00127959
     atom   11 type  1   force =    -0.00257040    0.00114227   -0.01783373
     atom   12 type  1   force =    -0.00188206   -0.00107528   -0.01758816
     atom   13 type  2   force =     0.03761440    0.00252409    0.20007663
     atom   14 type  3   force =    -0.07289889    0.00061782   -0.07258686
     atom   15 type  3   force =     0.01682296   -0.03879523   -0.04334047
     atom   16 type  3   force =     0.01657786    0.03867787   -0.04385633

     Total force =     0.247213     Total SCF correction =     0.012528

     BFGS Geometry Optimization

     number of scf cycles    =   1
     number of bfgs steps    =   0

     energy   new            =   -2560.4638499288 Ry

     new trust radius        =       0.2035973239 bohr
     new conv_thr            =       0.0001000000 Ry

ATOMIC_POSITIONS (angstrom)
Mn       1.286762465   0.742912655  10.000000000    0   0   0
Mn       3.860287394   0.742912655  10.000000000    0   0   0
Mn       2.573524929   2.971650622  10.000000000    0   0   0
Mn       5.147049859   2.971650622  10.000000000    0   0   0
Mn       5.147049859   1.485825311  12.101274306    0   0   0
Mn       2.573524929   1.485825311  12.101274306    0   0   0
Mn       6.433812323   3.714563277  12.101274306    0   0   0
Mn       3.860287394   3.714563277  12.101274306    0   0   0
Mn      -0.004794066  -0.001299543  14.189827135
Mn       2.583987492  -0.002336846  14.201871484
Mn       1.285402268   2.229342428  14.193111410
Mn       3.859291449   2.228168950  14.193241358
C        1.306667146   0.001335690  15.920924602
H        2.338186031   0.000326934  16.406637299
H        0.845664790   0.868970450  16.422113823
H        3.419060022   3.588443379  16.421840839

     Writing output data file calc.save
     Check: negative starting charge=(component1):   -0.002496
     NEW-OLD atomic charge density approx. for the potential

     Check: negative/imaginary core charge=   -0.000010    0.000000
     Check: negative starting charge=(component1):   -0.002502

[...]

     Total force =     0.076695     Total SCF correction =     0.016584
     SCF correction compared to forces is large: reduce conv_thr to get better values

[...]

     energy   old            =   -2560.4638499288 Ry
     energy   new            =   -2560.5041134071 Ry

     CASE: energy  _new < energy  _old

[...]

     Total force =     0.008698     Total SCF correction =     0.000765

[...]

     iteration # 10     ecut=    36.75 Ry     beta=0.10
     Davidson diagonalization with overlap
     c_bands:  1 eigenvalues not converged
     ethr =  1.37E-08,  avg # of iterations =  5.5

[...]

     number of scf cycles    =  22
     number of bfgs steps    =  21

     energy   old            =   -2560.5157697377 Ry
     energy   new            =   -2560.5157981606 Ry

     CASE: energy  _new < energy  _old

     new trust radius        =       0.0105617424 bohr
     new conv_thr            =       0.0000010000 Ry

ATOMIC_POSITIONS (angstrom)
Mn       1.286762465   0.742912655  10.000000000    0   0   0
Mn       3.860287394   0.742912655  10.000000000    0   0   0
Mn       2.573524929   2.971650621  10.000000000    0   0   0
Mn       5.147049859   2.971650621  10.000000000    0   0   0
Mn       5.147049859   1.485825311  12.101274306    0   0   0
Mn       2.573524929   1.485825311  12.101274306    0   0   0
Mn       6.433812323   3.714563277  12.101274306    0   0   0
Mn       3.860287394   3.714563277  12.101274306    0   0   0
Mn       0.093836984  -0.042524677  14.233390330
Mn       2.591415314  -0.057324308  14.313620778
Mn       1.285262684   2.233830261  14.103860461
Mn       3.868284511   2.129381971  14.079437144
C        1.281948854   0.040548226  16.103936839
H        2.330263589   0.018134907  16.459898499
H        0.839891526   0.930285551  16.569090520
H        3.380269350   3.616514222  16.555734253

     Writing output data file calc.save
     Check: negative starting charge=(component1):   -0.002478
     NEW-OLD atomic charge density approx. for the potential

     Check: negative/imaginary core charge=   -0.000010    0.000000
     Check: negative starting charge=(component1):   -0.002477

[...]

     Self-consistent Calculation

[...]

     Threshold (ethr) on eigenvalues was too large:
     Diagonalizing with lowered threshold

     Davidson diagonalization with overlap
     ethr =  6.68E-08,  avg # of iterations =  1.4

[...]

     total energy              =   -2560.51581987 Ry
     Harris-Foulkes estimate   =   -2560.51581960 Ry
     estimated scf accuracy    <       0.00000108 Ry

[...]

     iteration # 11     ecut=    36.75 Ry     beta=0.10
     Davidson diagonalization with overlap
     ethr =  5.78E-10,  avg # of iterations =  5.3

     negative rho (up, down):  1.822E-03 1.685E-03

[...]

     Adding external electric field

     Computed dipole along edir(3) :
        Dipole                0.1778 Ry au,          0.4518 Debye
        Dipole field          0.0006 Ry au

        Potential amp.       -0.0491 Ry
        Total length         41.1626 bohr

     Magnetic moment per site:
     atom:    1    charge:   12.3415    magn:    2.1864    constr:    0.0000
     atom:    2    charge:   12.3417    magn:    2.1834    constr:    0.0000
     atom:    3    charge:   12.3405    magn:    2.1438    constr:    0.0000
     atom:    4    charge:   12.3414    magn:    2.2005    constr:    0.0000
     atom:    5    charge:   12.3426    magn:   -1.8114    constr:    0.0000
     atom:    6    charge:   12.3422    magn:   -1.6278    constr:    0.0000
     atom:    7    charge:   12.3335    magn:   -1.5823    constr:    0.0000
     atom:    8    charge:   12.3359    magn:   -1.6872    constr:    0.0000
     atom:    9    charge:   12.2917    magn:    2.2608    constr:    0.0000
     atom:   10    charge:   12.2644    magn:   -2.5124    constr:    0.0000
     atom:   11    charge:   12.2919    magn:    2.3788    constr:    0.0000
     atom:   12    charge:   12.2253    magn:    2.3323    constr:    0.0000
     atom:   13    charge:    0.8860    magn:    0.0049    constr:    0.0000
     atom:   14    charge:    0.5399    magn:    0.0009    constr:    0.0000
     atom:   15    charge:    0.6256    magn:    0.0044    constr:    0.0000
     atom:   16    charge:    0.5733    magn:    0.0038    constr:    0.0000

     End of self-consistent calculation

 ------ SPIN UP ------------

[...]

 ------ SPIN DOWN ----------

[...]

          k = 0.3333-0.3849 0.0000 ( 14076 PWs)   bands (ev):

[...]

          k =-0.5000-0.2887 0.0000 ( 14098 PWs)   bands (ev):

   -79.1833 -78.6247 -78.4922 -78.4826 -78.4128 -75.9382 -75.8869 -75.8810
   -75.8476 -75.8384 -75.8127 -75.8032 -47.9163 -47.8884 -47.8555 -47.4620
   -47.3540 -47.3212 -47.3102 -47.2756 -47.2489 -47.1927 -47.1379 -47.1325
   -47.0655 -47.0633 -46.9739 -44.8477 -44.7965 -44.7883 -44.7501 -44.7083
   -44.7012 -44.6705 -44.6610 -44.6534 -44.6519 -44.6388 -44.6287 -44.6261
   -44.6184 -44.5450 -44.5177 -44.5127 -44.5077 -44.4992 -44.4891 -44.4830
   -11.5374  -4.9283  -4.5302  -3.7238  -3.5874  -2.5726  -2.1242  -1.9061
    -1.8060  -1.6400  -1.5293  -1.4725  -1.3918  -1.3258  -1.1666  -1.0912
    -0.8915  -0.7197  -0.5972  -0.5326  -0.4461  -0.3820  -0.2573  -0.1460
    -0.1296  -0.0234   0.1584   0.3390   0.6100   0.6951   0.8189   0.8329
     0.9400   1.0267   1.1568   1.2350   1.3234   1.3448   1.4303   1.4675
     1.6070   1.6507   1.6978   1.7293   1.7559   1.9185   2.1948   2.2909
     2.5053   2.5611   2.6249   2.7216   2.7556   2.8135   2.9372

     the Fermi energy is     1.8082 ev

!    total energy              =   -2560.51582197 Ry
     Harris-Foulkes estimate   =   -2560.51581889 Ry
     estimated scf accuracy    <       0.00000058 Ry

     The total energy is the sum of the following terms:

     one-electron contribution =  -22991.45590990 Ry
     hartree contribution      =   11497.50415382 Ry
     xc contribution           =    -336.73879105 Ry
     ewald contribution        =    9270.27950754 Ry
     electric field correction =       0.00010597 Ry
     smearing contrib. (-TS)   =      -0.10488834 Ry

     total magnetization       =     7.68 Bohr mag/cell
     absolute magnetization    =    29.03 Bohr mag/cell

     convergence has been achieved in  11 iterations

     Forces acting on atoms (Ry/au):

     negative rho (up, down):  1.822E-03 1.685E-03
     atom    1 type  1   force =    -0.00016267   -0.00054491    0.01376702
     atom    2 type  1   force =     0.00045226   -0.00071627    0.01367255
     atom    3 type  1   force =    -0.00097254    0.00032667    0.01625730
     atom    4 type  1   force =     0.00157360    0.00016232    0.01328658
     atom    5 type  1   force =    -0.00016430   -0.00602251   -0.01396940
     atom    6 type  1   force =    -0.00276195   -0.00603005   -0.01869965
     atom    7 type  1   force =    -0.00175411    0.00780378   -0.00840017
     atom    8 type  1   force =     0.00424105    0.00361844   -0.01421926
     atom    9 type  1   force =     0.00117813   -0.00024583    0.00114694
     atom   10 type  1   force =    -0.00142021   -0.00001847   -0.00085458
     atom   11 type  1   force =    -0.00033293   -0.00101810   -0.00041138
     atom   12 type  1   force =    -0.00013649    0.00052875   -0.00044761
     atom   13 type  2   force =     0.00106947    0.00050177    0.00021801
     atom   14 type  3   force =    -0.00044475   -0.00018182    0.00005995
     atom   15 type  3   force =     0.00035661    0.00118264   -0.00083272
     atom   16 type  3   force =    -0.00072118    0.00065359   -0.00057358

     Total force =     0.003535     Total SCF correction =     0.002654
     SCF correction compared to forces is large: reduce conv_thr to get better values

     bfgs converged in  23 scf cycles and  22 bfgs steps
     (criteria: energy <  1.0E+12, force <  1.9E-03)

     End of BFGS Geometry Optimization

     Final energy   =   -2560.5158219706 Ry
Begin final coordinates

ATOMIC_POSITIONS (angstrom)
Mn       1.286762465   0.742912655  10.000000000    0   0   0
Mn       3.860287394   0.742912655  10.000000000    0   0   0
Mn       2.573524929   2.971650621  10.000000000    0   0   0
Mn       5.147049859   2.971650621  10.000000000    0   0   0
Mn       5.147049859   1.485825311  12.101274306    0   0   0
Mn       2.573524929   1.485825311  12.101274306    0   0   0
Mn       6.433812323   3.714563277  12.101274306    0   0   0
Mn       3.860287394   3.714563277  12.101274306    0   0   0
Mn       0.093836984  -0.042524677  14.233390330
Mn       2.591415314  -0.057324308  14.313620778
Mn       1.285262684   2.233830261  14.103860461
Mn       3.868284511   2.129381971  14.079437144
C        1.281948854   0.040548226  16.103936839
H        2.330263589   0.018134907  16.459898499
H        0.839891526   0.930285551  16.569090520
H        3.380269350   3.616514222  16.555734253
End final coordinates

     Writing output data file calc.save

     General routines

     Parallel routines

   This run was terminated on:  15:54:50  17Jan2019

   JOB DONE.
Job  /afs/slac/g/suncat/bin/suncat-tsmpirun -x LD_LIBRARY_PATH -wdir /tmp/qe_693783dyhhr1gl_scratch pw.x -npool 2 -in pw.pwi

TID   HOST_NAME   COMMAND_LINE            STATUS            TERMINATION_TIME
00000 suncat2028 pw.x -npool 2 -i  Done                     01/17/2019 15:54:50
00001 suncat2028 pw.x -npool 2 -i  Done                     01/17/2019 15:54:50
00002 suncat2028 pw.x -npool 2 -i  Done                     01/17/2019 15:54:50
00003 suncat2028 pw.x -npool 2 -i  Done                     01/17/2019 15:54:50
00004 suncat2028 pw.x -npool 2 -i  Done                     01/17/2019 15:54:50
00005 suncat2028 pw.x -npool 2 -i  Done                     01/17/2019 15:54:50
00006 suncat2028 pw.x -npool 2 -i  Done                     01/17/2019 15:54:50
00007 suncat2028 pw.x -npool 2 -i  Done                     01/17/2019 15:54:50
00008 suncat2028 pw.x -npool 2 -i  Done                     01/17/2019 15:54:50
00009 suncat2028 pw.x -npool 2 -i  Done                     01/17/2019 15:54:50
00010 suncat2028 pw.x -npool 2 -i  Done                     01/17/2019 15:54:50
00011 suncat2028 pw.x -npool 2 -i  Done                     01/17/2019 15:54:50
00012 suncat2028 pw.x -npool 2 -i  Done                     01/17/2019 15:54:50
00013 suncat2028 pw.x -npool 2 -i  Done                     01/17/2019 15:54:50
00014 suncat2028 pw.x -npool 2 -i  Done                     01/17/2019 15:54:50
00015 suncat2028 pw.x -npool 2 -i  Done                     01/17/2019 15:54:50
00016 suncat2002 pw.x -npool 2 -i  Done                     01/17/2019 15:54:50
00017 suncat2002 pw.x -npool 2 -i  Done                     01/17/2019 15:54:50
00018 suncat2002 pw.x -npool 2 -i  Done                     01/17/2019 15:54:50
00019 suncat2002 pw.x -npool 2 -i  Done                     01/17/2019 15:54:50
00020 suncat2002 pw.x -npool 2 -i  Done                     01/17/2019 15:54:50
00021 suncat2002 pw.x -npool 2 -i  Done                     01/17/2019 15:54:50
00022 suncat2002 pw.x -npool 2 -i  Done                     01/17/2019 15:54:50
00023 suncat2002 pw.x -npool 2 -i  Done                     01/17/2019 15:54:50
00024 suncat2002 pw.x -npool 2 -i  Done                     01/17/2019 15:54:50
00025 suncat2002 pw.x -npool 2 -i  Done                     01/17/2019 15:54:50
00026 suncat2002 pw.x -npool 2 -i  Done                     01/17/2019 15:54:50
00027 suncat2002 pw.x -npool 2 -i  Done                     01/17/2019 15:54:50
00028 suncat2002 pw.x -npool 2 -i  Done                     01/17/2019 15:54:50
00029 suncat2002 pw.x -npool 2 -i  Done                     01/17/2019 15:54:50
00030 suncat2002 pw.x -npool 2 -i  Done                     01/17/2019 15:54:50
00031 suncat2002 pw.x -npool 2 -i  Done                     01/17/2019 15:54:50