     Program PWSCF v.5.1rc2 (svn rev. 11289) starts on  3May2018 at  5: 8: 9

     Current dimensions of program PWSCF are:
     Max number of different atomic species (ntypx) = 10
     Max number of k-points (npk) =  40000
     Max angular momentum in pseudopotentials (lmaxx) =  3
     Presently stress not available with electric field

     IMPORTANT: XC functional enforced from input :
     Exchange-correlation      = BEEF-VDW ( 1  4 27 13 2)
     Any further DFT definition will be discarded
     Please, verify this is what you really want

     Subspace diagonalization in iterative solution of the eigenvalue problem:
     a serial algorithm will be used

     bravais-lattice index     =            0
     lattice parameter (alat)  =       1.8897  a.u.
     unit-cell volume          =    4704.3541 (a.u.)^3
     number of atoms/cell      =           13
     number of atomic types    =            2
     number of electrons       =       174.00
     number of Kohn-Sham states=           97
     kinetic-energy cutoff     =      36.7493  Ry
     charge density cutoff     =     367.4932  Ry
     convergence threshold     =      1.0E-05
     mixing beta               =       0.3000
     number of iterations used =           10  plain     mixing
     Exchange-correlation      = BEEF-VDW ( 1  4 27 13 2)
     nstep                     =           50

     celldm(1)=   1.889726  celldm(2)=   0.000000  celldm(3)=   0.000000
     celldm(4)=   0.000000  celldm(5)=   0.000000  celldm(6)=   0.000000

     crystal axes: (cart. coord. in units of alat)
               a(1) = (   5.712816   0.000000   0.000000 )
               a(2) = (   2.856408   4.947444   0.000000 )
               a(3) = (   0.000000   0.000000  24.664495 )

     reciprocal axes: (cart. coord. in units 2 pi/alat)
               b(1) = (  0.175045 -0.101062  0.000000 )
               b(2) = (  0.000000  0.202125  0.000000 )
               b(3) = (  0.000000  0.000000  0.040544 )

     PseudoPot. # 1 for W  read from file:
     /u/if/mamunm/psp/gbrv1.5pbe/W.UPF
     MD5 check sum: 9c083fa34c2a2ea0f02f1f893e16e1c8
     Pseudo is Ultrasoft + core correction, Zval = 14.0
     Generated by new atomic code, or converted to UPF format
     Using radial grid of  923 points,  8 beta functions with:
                l(1) =   0
                l(2) =   0
                l(3) =   0
                l(4) =   1
                l(5) =   1
                l(6) =   2
                l(7) =   2
                l(8) =   3
     Q(r) pseudized with  6 coefficients,  rinner =    1.350   1.350   1.350
                                                       1.350   1.350   1.350
                                                       1.350

     PseudoPot. # 2 for O  read from file:
     /u/if/mamunm/psp/gbrv1.5pbe/O.UPF
     MD5 check sum: 734c27235a0248c51dbae37a1fbe46ec
     Pseudo is Ultrasoft + core correction, Zval =  6.0
     Generated by new atomic code, or converted to UPF format
     Using radial grid of  737 points,  5 beta functions with:
                l(1) =   0
                l(2) =   0
                l(3) =   1
                l(4) =   1
                l(5) =   2
     Q(r) pseudized with  8 coefficients,  rinner =    0.900   0.900   0.900
                                                       0.900   0.900

     vdW kernel table read from file vdW_kernel_table
     MD5 check sum: 095c7af220d748ca6e76c0b4c6cfb241

     atomic species   valence    mass     pseudopotential
        W1            14.00   183.84000     W ( 1.00)
        O1             6.00    15.99900     O ( 1.00)

     No symmetry found

   Cartesian axes

     site n.     atom                  positions (alat units)
         1           W1  tau(   1) = (   1.4282041   0.8245740  10.0000000  )
         2           W1  tau(   2) = (   4.2846123   0.8245740  10.0000000  )
         3           W1  tau(   3) = (   2.8564082   3.2982961  10.0000000  )
         4           W1  tau(   4) = (   5.7128165   3.2982961  10.0000000  )
         5           W1  tau(   5) = (   5.7128165   1.6491481  12.3322476  )
         6           W1  tau(   6) = (   2.8564082   1.6491481  12.3322476  )
         7           W1  tau(   7) = (   7.1410206   4.1228701  12.3322476  )
         8           W1  tau(   8) = (   4.2846123   4.1228701  12.3322476  )
         9           W1  tau(   9) = (   0.0000000   0.0000000  14.6644951  )
        10           W1  tau(  10) = (   2.8564082   0.0000000  14.6644951  )
        11           W1  tau(  11) = (   1.4282041   2.4737221  14.6644951  )
        12           W1  tau(  12) = (   4.2846123   2.4737221  14.6644951  )
        13           O1  tau(  13) = (   1.4282041   0.0000000  16.3744951  )

     number of k points=    20  Fermi-Dirac smearing, width (Ry)=  0.0110
                       cart. coord. in units 2pi/alat
        k(    1) = (   0.0000000   0.0000000   0.0000000), wk =   0.0555556
        k(    2) = (   0.0000000   0.0336874   0.0000000), wk =   0.1111111
        k(    3) = (   0.0000000   0.0673749   0.0000000), wk =   0.1111111
        k(    4) = (   0.0000000  -0.1010623   0.0000000), wk =   0.0555556
        k(    5) = (   0.0291742  -0.0168437   0.0000000), wk =   0.1111111
        k(    6) = (   0.0291742   0.0168437   0.0000000), wk =   0.1111111
        k(    7) = (   0.0291742   0.0505311   0.0000000), wk =   0.1111111
        k(    8) = (   0.0291742  -0.1179060   0.0000000), wk =   0.1111111
        k(    9) = (   0.0291742  -0.0842186   0.0000000), wk =   0.1111111
        k(   10) = (   0.0291742  -0.0505311   0.0000000), wk =   0.1111111
        k(   11) = (   0.0583483  -0.0336874   0.0000000), wk =   0.1111111
        k(   12) = (   0.0583483  -0.0000000   0.0000000), wk =   0.1111111
        k(   13) = (   0.0583483   0.0336874   0.0000000), wk =   0.1111111
        k(   14) = (   0.0583483  -0.1347497   0.0000000), wk =   0.1111111
        k(   15) = (   0.0583483  -0.1010623   0.0000000), wk =   0.1111111
        k(   16) = (   0.0583483  -0.0673749   0.0000000), wk =   0.1111111
        k(   17) = (  -0.0875225   0.0505311   0.0000000), wk =   0.0555556
        k(   18) = (  -0.0875225   0.0842186   0.0000000), wk =   0.1111111
        k(   19) = (  -0.0875225   0.1179060   0.0000000), wk =   0.1111111
        k(   20) = (  -0.0875225  -0.0505311   0.0000000), wk =   0.0555556

     Largest allocated arrays     est. size (Mb)     dimensions
     Largest temporary arrays     est. size (Mb)     dimensions

     Initial potential from superposition of free atoms
     Check: negative starting charge=   -0.760560

     starting charge  172.79592, renormalised to  174.00000

     negative rho (up, down):  7.659E-01 0.000E+00

     *
     * You are using vdW-DF for exchange-correlation in this calculation.
     * Please cite the following three references that made this development
     * possible:
     *
     *   M. Dion, H. Rydberg, E. Schroder, D. C. Langreth, and
     *   B. I. Lundqvist, Phys. Rev. Lett. 92, 246401 (2004).
     *
     *   T. Thonhauser, V. R. Cooper, S. Li, A. Puzder, P. Hyldgaard, and
     *   D. C. Langreth, Phys. Rev. B 76, 125112 (2007).
     *
     *   G. Roman-Perez and J. M. Soler, Phys. Rev. Lett. 103, 096102 (2009).
     *
     *
     * If you are using vdW-DF2, please also cite:
     *
     *   K. Lee, E. D. Murray, L. Kong, B. I. Lundqvist, and
     *   D. C. Langreth, Phys. Rev. B 82, 081101(R) (2010).
     *
     *
     * If you are calculating the stress with vdW-DF, please also cite:
     *
     *   R. Sabatini, E. Kucukbenli, B. Kolb, T. Thonhauser, and
     *   S. de Gironcoli, J. Phys.: Condens. Matter 24, 424209 (2012).
     *

     Carrying out vdW-DF run using the following parameters:

     Nqs =      20    Nr_points =    1024   r_max =   100.000
     q_mesh =
               0.00001000     0.04494208     0.09755937     0.15916263
               0.23128650     0.31572767     0.41458969     0.53033537
               0.66584808     0.82450364     1.01025438     1.22772762
               1.48234092     1.78043706     2.12944203     2.53805004
               3.01644009     3.57652955     4.23227104     5.00000000

     Gradients computed in reciprocal space

     Adding external electric field

     Computed dipole along edir(3) :
        Dipole               -0.3194 Ry au,         -0.8117 Debye
        Dipole field         -0.0009 Ry au

        Potential amp.        0.0775 Ry
        Total length         45.4439 bohr

     Starting wfc are  160 randomized atomic wfcs

     Self-consistent Calculation

     iteration #  1     ecut=    36.75 Ry     beta=0.30
     Davidson diagonalization with overlap
     ethr =  1.00E-02,  avg # of iterations =  2.0

[...]

     total energy              =   -1954.71378146 Ry
     Harris-Foulkes estimate   =   -1957.74811485 Ry
     estimated scf accuracy    <       6.48327867 Ry

[...]

     End of self-consistent calculation

          k = 0.0000 0.0000 0.0000 ( 17753 PWs)   bands (ev):

   -72.2916 -72.2503 -72.1213 -72.0808 -72.0545 -72.0020 -71.9813 -71.9812
   -71.9697 -71.9519 -71.9500 -71.9470 -36.7912 -36.7147 -36.6758 -36.6600
   -36.6374 -36.6249 -36.6202 -36.4753 -36.4691 -36.4688 -36.3248 -36.3046
   -36.2441 -36.2000 -36.0963 -36.0947 -36.0882 -36.0828 -36.0553 -36.0432
   -35.9261 -35.9121 -35.9108 -35.9029 -35.8973 -35.8900 -35.8429 -35.8364
   -35.7904 -35.7699 -35.7696 -35.7653 -35.7074 -35.7065 -35.5958 -35.5921
   -15.3665  -6.0326  -4.3025  -3.4777  -2.9499  -2.9285  -2.8903  -2.8213
    -2.7752  -2.7633  -2.2032  -2.0963  -1.9542  -1.9056  -1.8715  -1.8442
    -1.1666  -1.0207  -0.9260  -0.3885   0.0475   0.2853   0.7593   0.8121
     0.8479   1.1178   1.1605   1.5456   1.5637   1.6592   1.6847   1.8090
     1.8679   1.8786   1.9571   1.9630   2.0499   2.0866   2.1188   2.1529
     2.8855   2.9115   3.2136   3.4919   3.7484   3.7875   3.8203   4.0275
     4.2315

[...]

          k =-0.0875 0.0505 0.0000 ( 17668 PWs)   bands (ev):

[...]

     the Fermi energy is     2.1535 ev

!    total energy              =   -1957.34257136 Ry
     Harris-Foulkes estimate   =   -1957.34256947 Ry
     estimated scf accuracy    <       0.00000080 Ry

     The total energy is the sum of the following terms:

     one-electron contribution =  -15072.07168439 Ry
     hartree contribution      =    7520.53733088 Ry
     xc contribution           =    -517.70532909 Ry
     ewald contribution        =    6111.99184898 Ry
     electric field correction =       0.00015480 Ry
     smearing contrib. (-TS)   =      -0.09489252 Ry

     convergence has been achieved in  17 iterations

 BEEF-vdW xc energy contributions
           1 :   -455.346989309246
           2 :    420.978967625271
           3 :   -360.568437673835
           4 :    287.474437431719
           5 :   -215.488144652497
           6 :    154.852267745249
           7 :   -110.124993366068
           8 :    80.3415935541311
           9 :   -61.0230390514593
          10 :    46.9148642720311
          11 :   -34.2341787683789
          12 :    21.6311773447907
          13 :   -9.80126747200978
          14 :   0.290651717982769
          15 :    5.75498833375525
          16 :   -8.31688031788298
          17 :    8.47961977368243
          18 :   -7.82173082445871
          19 :    7.63085308678592
          20 :   -8.37102836473076
          21 :    9.64031888949467
          22 :   -10.5799848589127
          23 :    10.4694963394455
          24 :   -9.17512701951330
          25 :    7.22304586373411
          26 :   -5.48756877007622
          27 :    4.69754838942720
          28 :   -5.04577101498751
          29 :    6.10873305392380
          30 :   -7.10598177970877
          31 :   -41.3170352608519
          32 :   -30.8862523597460

     Forces acting on atoms (Ry/au):

     negative rho (up, down):  7.925E-01 0.000E+00
     atom    1 type  1   force =    -0.00000346    0.00244599   -0.00142684
     atom    2 type  1   force =     0.00000499    0.00011113   -0.00472707
     atom    3 type  1   force =    -0.00141593   -0.00036894   -0.00489890
     atom    4 type  1   force =     0.00141359   -0.00036938   -0.00489876
     atom    5 type  1   force =     0.00210283   -0.00253151    0.00353271
     atom    6 type  1   force =    -0.00210398   -0.00253214    0.00353141
     atom    7 type  1   force =    -0.00000092   -0.00646478   -0.01155226
     atom    8 type  1   force =     0.00000119    0.00584901    0.01471773
     atom    9 type  1   force =     0.00001129    0.01123123    0.09586171
     atom   10 type  1   force =    -0.00001059    0.01123211    0.09586233
     atom   11 type  1   force =    -0.00000182    0.02400450   -0.00165656
     atom   12 type  1   force =     0.00000238   -0.03886923   -0.01311278
     atom   13 type  2   force =     0.00000043   -0.00373799   -0.17123272

     Total force =     0.224115     Total SCF correction =     0.004545

     entering subroutine stress ...

     negative rho (up, down):  7.925E-01 0.000E+00
          total   stress  (Ry/bohr**3)                   (kbar)     P=  -53.43
  -0.00046078   0.00000000  -0.00000000        -67.78      0.00     -0.00
   0.00000000  -0.00044694  -0.00000066          0.00    -65.75     -0.10
  -0.00000000  -0.00000066  -0.00018198         -0.00     -0.10    -26.77

     BFGS Geometry Optimization

     number of scf cycles    =   1
     number of bfgs steps    =   0

     energy   new            =   -1957.3425713553 Ry

     new trust radius        =       0.1712735103 bohr
     new conv_thr            =       0.0000099958 Ry

ATOMIC_POSITIONS (crystal)
W1       0.166666667   0.166666667   0.405441099    0   0   0
W1       0.666666667   0.166666667   0.405441099    0   0   0
W1       0.166666667   0.666666667   0.405441099    0   0   0
W1       0.666666667   0.666666667   0.405441099    0   0   0
W1       0.833333333   0.333333333   0.500000000    0   0   0
W1       0.333333333   0.333333333   0.500000000    0   0   0
W1       0.833333333   0.833333333   0.500000000    0   0   0
W1       0.333333333   0.833333333   0.500000000    0   0   0
W1      -0.000599599   0.001201289   0.596615616
W1       0.499398328   0.001201383   0.596615629
W1      -0.001283926   0.502567514   0.594523360
W1       0.502078941   0.495842559   0.594277566
O1       0.250199947  -0.000399814   0.660215528

     Writing output data file calc.save
     Check: negative starting charge=   -0.760560
     NEW-OLD atomic charge density approx. for the potential
     Check: negative starting charge=   -0.760218

[...]

     energy   old            =   -1957.3425713553 Ry
     energy   new            =   -1957.3876931777 Ry

     CASE: energy  _new < energy  _old

[...]

     Threshold (ethr) on eigenvalues was too large:
     Diagonalizing with lowered threshold

     Davidson diagonalization with overlap
     ethr =  6.95E-08,  avg # of iterations =  1.6

[...]

     Total force =     0.007227     Total SCF correction =     0.000801
     SCF correction compared to forces is large: reduce conv_thr to get better values

[...]

     Total force =     0.004384     Total SCF correction =     0.000374

[...]

     number of scf cycles    =  13
     number of bfgs steps    =  12

     energy   old            =   -1957.4527885497 Ry
     energy   new            =   -1957.4528314090 Ry

     CASE: energy  _new < energy  _old

     new trust radius        =       0.0088355720 bohr
     new conv_thr            =       0.0000001000 Ry

ATOMIC_POSITIONS (crystal)
W1       0.166666667   0.166666667   0.405441099    0   0   0
W1       0.666666667   0.166666667   0.405441099    0   0   0
W1       0.166666667   0.666666667   0.405441099    0   0   0
W1       0.666666667   0.666666667   0.405441099    0   0   0
W1       0.833333333   0.333333333   0.500000000    0   0   0
W1       0.333333333   0.333333333   0.500000000    0   0   0
W1       0.833333333   0.833333333   0.500000000    0   0   0
W1       0.333333333   0.833333333   0.500000000    0   0   0
W1      -0.001881304   0.003693477   0.597941457
W1       0.498188078   0.003693350   0.597941464
W1      -0.030255414   0.560510895   0.589957968
W1       0.524105737   0.451788847   0.588885185
O1       0.250606596  -0.001213026   0.650941954

     Writing output data file calc.save
     Check: negative starting charge=   -0.759605
     NEW-OLD atomic charge density approx. for the potential
     Check: negative starting charge=   -0.759505

[...]

     Self-consistent Calculation

[...]

     Threshold (ethr) on eigenvalues was too large:
     Diagonalizing with lowered threshold

     Davidson diagonalization with overlap
     ethr =  3.47E-08,  avg # of iterations =  2.9

[...]

     total energy              =   -1957.45285555 Ry
     Harris-Foulkes estimate   =   -1957.45285555 Ry
     estimated scf accuracy    <       0.00000019 Ry

     iteration #  8     ecut=    36.75 Ry     beta=0.30
     Davidson diagonalization with overlap
     ethr =  1.10E-10,  avg # of iterations =  2.6

[...]

     negative rho (up, down):  7.916E-01 0.000E+00

     Adding external electric field

     Computed dipole along edir(3) :
        Dipole               -0.0082 Ry au,         -0.0208 Debye
        Dipole field         -0.0000 Ry au

        Potential amp.        0.0020 Ry
        Total length         45.4439 bohr

     End of self-consistent calculation

[...]

          k = 0.0583-0.0674 0.0000 ( 17692 PWs)   bands (ev):

[...]

          k =-0.0875-0.0505 0.0000 ( 17668 PWs)   bands (ev):

   -72.0074 -72.0037 -71.7917 -71.7303 -71.7003 -71.6895 -71.6813 -71.6767
   -71.6585 -71.6559 -71.6187 -71.6053 -36.4834 -36.4313 -36.3569 -36.2887
   -36.2398 -36.2301 -36.1980 -36.1393 -36.0963 -36.0711 -36.0473 -36.0377
   -36.0007 -35.9633 -35.8790 -35.8632 -35.8018 -35.7720 -35.7497 -35.7348
   -35.7126 -35.6997 -35.6839 -35.6647 -35.6606 -35.6242 -35.5976 -35.5725
   -35.5400 -35.5211 -35.4500 -35.4307 -35.4276 -35.4062 -35.3870 -35.3693
   -16.8304  -4.2999  -3.8097  -3.3093  -3.0143  -2.9097  -2.1776  -2.1113
    -1.6442  -1.5802  -1.5043  -1.4523  -1.3426  -1.2114  -0.7058  -0.5879
    -0.5693  -0.3805  -0.1796  -0.0940   0.0993   0.2030   0.2222   0.3220
     0.4392   0.6416   0.8466   0.9171   1.0189   1.1045   1.2799   1.3689
     1.3997   1.5137   1.6251   1.7039   1.9128   1.9630   1.9968   2.0941
     2.7682   2.8221   3.0545   3.2533   3.3107   3.5576   3.6396   3.7107
     3.9107

     the Fermi energy is     2.4563 ev

!    total energy              =   -1957.45285555 Ry
     Harris-Foulkes estimate   =   -1957.45285556 Ry
     estimated scf accuracy    <       0.00000005 Ry

     The total energy is the sum of the following terms:

     one-electron contribution =  -15221.25504536 Ry
     hartree contribution      =    7596.48512878 Ry
     xc contribution           =    -518.17609735 Ry
     ewald contribution        =    6185.57395425 Ry
     electric field correction =       0.00000018 Ry
     smearing contrib. (-TS)   =      -0.08079605 Ry

     convergence has been achieved in   8 iterations

 BEEF-vdW xc energy contributions
           1 :   -455.822232563514
           2 :    421.552123675366
           3 :   -361.236933117848
           4 :    288.121466234467
           5 :   -215.941805497706
           6 :    154.966426566446
           7 :   -109.844955466652
           8 :    79.7303329112120
           9 :   -60.2411037094257
          10 :    46.1631999127141
          11 :   -33.6807505388899
          12 :    21.3495354792349
          13 :   -9.74551790406122
          14 :   0.317478598768844
          15 :    5.82229642004154
          16 :   -8.60569937060882
          17 :    9.00496786875840
          18 :   -8.47722800555482
          19 :    8.24137219773337
          20 :   -8.78133488768515
          21 :    9.79448877833636
          22 :   -10.5502277585007
          23 :    10.4175575122069
          24 :   -9.26453324345391
          25 :    7.52919535707355
          26 :   -5.95551910245484
          27 :    5.17044701766758
          28 :   -5.34857798416937
          29 :    6.14265920672824
          30 :   -6.90302999619985
          31 :   -41.3440038481951
          32 :   -30.9272886322092

     Forces acting on atoms (Ry/au):

     negative rho (up, down):  7.916E-01 0.000E+00
     atom    1 type  1   force =     0.00000001   -0.00395110    0.00377181
     atom    2 type  1   force =    -0.00000001    0.00158691   -0.00287992
     atom    3 type  1   force =    -0.00091956    0.00045267   -0.00845132
     atom    4 type  1   force =     0.00091955    0.00045268   -0.00845134
     atom    5 type  1   force =     0.00843144   -0.01191966   -0.00639584
     atom    6 type  1   force =    -0.00843142   -0.01191972   -0.00639571
     atom    7 type  1   force =     0.00000002   -0.00028881   -0.01284167
     atom    8 type  1   force =    -0.00000003    0.02466027    0.04187774
     atom    9 type  1   force =     0.00063484   -0.00100486    0.00026090
     atom   10 type  1   force =    -0.00063487   -0.00100451    0.00026086
     atom   11 type  1   force =     0.00000016    0.00035790   -0.00041377
     atom   12 type  1   force =    -0.00000011    0.00138281   -0.00007040
     atom   13 type  2   force =    -0.00000000    0.00119541   -0.00027134

     Total force =     0.002585     Total SCF correction =     0.000334
     SCF correction compared to forces is large: reduce conv_thr to get better values

     entering subroutine stress ...

     negative rho (up, down):  7.916E-01 0.000E+00
          total   stress  (Ry/bohr**3)                   (kbar)     P=  -32.86
  -0.00024170   0.00000000   0.00000000        -35.56      0.00      0.00
   0.00000000  -0.00035982   0.00000267          0.00    -52.93      0.39
   0.00000000   0.00000267  -0.00006855          0.00      0.39    -10.08

     bfgs converged in  14 scf cycles and  13 bfgs steps
     (criteria: energy <  1.0E+00, force <  1.9E-03)

     End of BFGS Geometry Optimization

     Final energy   =   -1957.4528555459 Ry
Begin final coordinates

ATOMIC_POSITIONS (crystal)
W1       0.166666667   0.166666667   0.405441099    0   0   0
W1       0.666666667   0.166666667   0.405441099    0   0   0
W1       0.166666667   0.666666667   0.405441099    0   0   0
W1       0.666666667   0.666666667   0.405441099    0   0   0
W1       0.833333333   0.333333333   0.500000000    0   0   0
W1       0.333333333   0.333333333   0.500000000    0   0   0
W1       0.833333333   0.833333333   0.500000000    0   0   0
W1       0.333333333   0.833333333   0.500000000    0   0   0
W1      -0.001881304   0.003693477   0.597941457
W1       0.498188078   0.003693350   0.597941464
W1      -0.030255414   0.560510895   0.589957968
W1       0.524105737   0.451788847   0.588885185
O1       0.250606596  -0.001213026   0.650941954
End final coordinates

     Writing output data file calc.save

     General routines

     Parallel routines

   This run was terminated on:   7:23:50   3May2018

   JOB DONE.
Job  /afs/slac/g/suncat/bin/suncat-tsmpirun -x LD_LIBRARY_PATH -wdir /scratch/qe624556_6bJvd pw.x -npool 4 -in pw.inp

TID   HOST_NAME   COMMAND_LINE            STATUS            TERMINATION_TIME
00000 suncat0105 pw.x -npool 4 -i  Done                     05/03/2018 07:23:50
00001 suncat0105 pw.x -npool 4 -i  Done                     05/03/2018 07:23:50
00002 suncat0105 pw.x -npool 4 -i  Done                     05/03/2018 07:23:50
00003 suncat0105 pw.x -npool 4 -i  Done                     05/03/2018 07:23:50
00004 suncat0105 pw.x -npool 4 -i  Done                     05/03/2018 07:23:50
00005 suncat0105 pw.x -npool 4 -i  Done                     05/03/2018 07:23:50
00006 suncat0105 pw.x -npool 4 -i  Done                     05/03/2018 07:23:50
00007 suncat0105 pw.x -npool 4 -i  Done                     05/03/2018 07:23:50
00008 suncat0100 pw.x -npool 4 -i  Done                     05/03/2018 07:23:50
00009 suncat0100 pw.x -npool 4 -i  Done                     05/03/2018 07:23:50
00010 suncat0100 pw.x -npool 4 -i  Done                     05/03/2018 07:23:50
00011 suncat0100 pw.x -npool 4 -i  Done                     05/03/2018 07:23:50
00012 suncat0100 pw.x -npool 4 -i  Done                     05/03/2018 07:23:50
00013 suncat0100 pw.x -npool 4 -i  Done                     05/03/2018 07:23:50
00014 suncat0100 pw.x -npool 4 -i  Done                     05/03/2018 07:23:50
00015 suncat0100 pw.x -npool 4 -i  Done                     05/03/2018 07:23:50
00016 suncat0267 pw.x -npool 4 -i  Done                     05/03/2018 07:23:50
00017 suncat0267 pw.x -npool 4 -i  Done                     05/03/2018 07:23:50
00018 suncat0267 pw.x -npool 4 -i  Done                     05/03/2018 07:23:50
00019 suncat0267 pw.x -npool 4 -i  Done                     05/03/2018 07:23:50
00020 suncat0267 pw.x -npool 4 -i  Done                     05/03/2018 07:23:50
00021 suncat0267 pw.x -npool 4 -i  Done                     05/03/2018 07:23:50
00022 suncat0267 pw.x -npool 4 -i  Done                     05/03/2018 07:23:50
00023 suncat0267 pw.x -npool 4 -i  Done                     05/03/2018 07:23:50
00024 suncat0266 pw.x -npool 4 -i  Done                     05/03/2018 07:23:50
00025 suncat0266 pw.x -npool 4 -i  Done                     05/03/2018 07:23:50
00026 suncat0266 pw.x -npool 4 -i  Done                     05/03/2018 07:23:50
00027 suncat0266 pw.x -npool 4 -i  Done                     05/03/2018 07:23:50
00028 suncat0266 pw.x -npool 4 -i  Done                     05/03/2018 07:23:50
00029 suncat0266 pw.x -npool 4 -i  Done                     05/03/2018 07:23:50
00030 suncat0266 pw.x -npool 4 -i  Done                     05/03/2018 07:23:50
00031 suncat0266 pw.x -npool 4 -i  Done                     05/03/2018 07:23:50