     Program PWSCF v.5.1rc2 (svn rev. 11289) starts on 25Apr2018 at  1:56:36

     Current dimensions of program PWSCF are:
     Max number of different atomic species (ntypx) = 10
     Max number of k-points (npk) =  40000
     Max angular momentum in pseudopotentials (lmaxx) =  3
     Presently stress not available with electric field

     IMPORTANT: XC functional enforced from input :
     Exchange-correlation      = BEEF-VDW ( 1  4 27 13 2)
     Any further DFT definition will be discarded
     Please, verify this is what you really want

     Subspace diagonalization in iterative solution of the eigenvalue problem:
     a serial algorithm will be used

     bravais-lattice index     =            0
     lattice parameter (alat)  =       1.8897  a.u.
     unit-cell volume          =    7725.1200 (a.u.)^3
     number of atoms/cell      =           16
     number of atomic types    =            3
     number of electrons       =       139.00
     number of Kohn-Sham states=           79
     kinetic-energy cutoff     =      36.7493  Ry
     charge density cutoff     =     367.4932  Ry
     convergence threshold     =      1.0E-05
     mixing beta               =       0.3000
     number of iterations used =           10  plain     mixing
     Exchange-correlation      = BEEF-VDW ( 1  4 27 13 2)
     nstep                     =           50

     celldm(1)=   1.889726  celldm(2)=   0.000000  celldm(3)=   0.000000
     celldm(4)=   0.000000  celldm(5)=   0.000000  celldm(6)=   0.000000

     crystal axes: (cart. coord. in units of alat)
               a(1) = (   7.152277   0.000000   0.000000 )
               a(2) = (   3.576139   6.194054   0.000000 )
               a(3) = (   0.000000   0.000000  25.839810 )

     reciprocal axes: (cart. coord. in units 2 pi/alat)
               b(1) = (  0.139816 -0.080723  0.000000 )
               b(2) = (  0.000000  0.161445  0.000000 )
               b(3) = (  0.000000  0.000000  0.038700 )

     PseudoPot. # 1 for Y  read from file:
     /u/if/mamunm/psp/gbrv1.5pbe/Y.UPF
     MD5 check sum: d034151ed7554c50b6e82763ed42c788
     Pseudo is Ultrasoft + core correction, Zval = 11.0
     Generated by new atomic code, or converted to UPF format
     Using radial grid of  885 points,  6 beta functions with:
                l(1) =   0
                l(2) =   0
                l(3) =   1
                l(4) =   1
                l(5) =   2
                l(6) =   2
     Q(r) pseudized with  8 coefficients,  rinner =    1.200   1.200   1.200
                                                       1.200   1.200

     PseudoPot. # 2 for C  read from file:
     /u/if/mamunm/psp/gbrv1.5pbe/C.UPF
     MD5 check sum: d1aef80898a10debaa0f26306b886e00
     Pseudo is Ultrasoft + core correction, Zval =  4.0
     Generated by new atomic code, or converted to UPF format
     Using radial grid of  721 points,  4 beta functions with:
                l(1) =   0
                l(2) =   0
                l(3) =   1
                l(4) =   1
     Q(r) pseudized with  8 coefficients,  rinner =    1.100   1.100   1.100

     PseudoPot. # 3 for H  read from file:
     /u/if/mamunm/psp/gbrv1.5pbe/H.UPF
     MD5 check sum: 761ae9a214b05c3daf00ab9f6b793d6f
     Pseudo is Ultrasoft, Zval =  1.0
     Generated by new atomic code, or converted to UPF format
     Using radial grid of  615 points,  2 beta functions with:
                l(1) =   0
                l(2) =   0
     Q(r) pseudized with  8 coefficients,  rinner =    0.700

     vdW kernel table read from file vdW_kernel_table
     MD5 check sum: 095c7af220d748ca6e76c0b4c6cfb241

     atomic species   valence    mass     pseudopotential
        Y1            11.00    88.90584     Y ( 1.00)
        C1             4.00    12.01100     C ( 1.00)
        H1             1.00     1.00800     H ( 1.00)

     No symmetry found

   Cartesian axes

     site n.     atom                  positions (alat units)
         1           Y1  tau(   1) = (   1.7880693   1.0323423  10.0000000  )
         2           Y1  tau(   2) = (   5.3642080   1.0323423  10.0000000  )
         3           Y1  tau(   3) = (   3.5761386   4.1293692  10.0000000  )
         4           Y1  tau(   4) = (   7.1522773   4.1293692  10.0000000  )
         5           Y1  tau(   5) = (   7.1522773   2.0646846  12.9199050  )
         6           Y1  tau(   6) = (   3.5761386   2.0646846  12.9199050  )
         7           Y1  tau(   7) = (   8.9403466   5.1617115  12.9199050  )
         8           Y1  tau(   8) = (   5.3642080   5.1617115  12.9199050  )
         9           Y1  tau(   9) = (   0.0000000   0.0000000  15.8398100  )
        10           Y1  tau(  10) = (   3.5761386   0.0000000  15.8398100  )
        11           Y1  tau(  11) = (   1.7880693   3.0970269  15.8398100  )
        12           Y1  tau(  12) = (   5.3642080   3.0970269  15.8398100  )
        13           C1  tau(  13) = (   1.7880693   1.0323423  17.5688100  )
        14           H1  tau(  14) = (   2.8780693   1.0323423  18.1988100  )
        15           H1  tau(  15) = (   1.3380693   1.9218423  18.1988100  )
        16           H1  tau(  16) = (   1.3380693   0.1428423  18.1988100  )

     number of k points=    20  Fermi-Dirac smearing, width (Ry)=  0.0110
                       cart. coord. in units 2pi/alat
        k(    1) = (   0.0000000   0.0000000   0.0000000), wk =   0.0555556
        k(    2) = (   0.0000000   0.0269075   0.0000000), wk =   0.1111111
        k(    3) = (   0.0000000   0.0538151   0.0000000), wk =   0.1111111
        k(    4) = (   0.0000000  -0.0807226   0.0000000), wk =   0.0555556
        k(    5) = (   0.0233026  -0.0134538   0.0000000), wk =   0.1111111
        k(    6) = (   0.0233026   0.0134538   0.0000000), wk =   0.1111111
        k(    7) = (   0.0233026   0.0403613   0.0000000), wk =   0.1111111
        k(    8) = (   0.0233026  -0.0941763   0.0000000), wk =   0.1111111
        k(    9) = (   0.0233026  -0.0672688   0.0000000), wk =   0.1111111
        k(   10) = (   0.0233026  -0.0403613   0.0000000), wk =   0.1111111
        k(   11) = (   0.0466052  -0.0269075   0.0000000), wk =   0.1111111
        k(   12) = (   0.0466052   0.0000000   0.0000000), wk =   0.1111111
        k(   13) = (   0.0466052   0.0269075   0.0000000), wk =   0.1111111
        k(   14) = (   0.0466052  -0.1076301   0.0000000), wk =   0.1111111
        k(   15) = (   0.0466052  -0.0807226   0.0000000), wk =   0.1111111
        k(   16) = (   0.0466052  -0.0538151   0.0000000), wk =   0.1111111
        k(   17) = (  -0.0699078   0.0403613   0.0000000), wk =   0.0555556
        k(   18) = (  -0.0699078   0.0672688   0.0000000), wk =   0.1111111
        k(   19) = (  -0.0699078   0.0941763   0.0000000), wk =   0.1111111
        k(   20) = (  -0.0699078  -0.0403613   0.0000000), wk =   0.0555556

     Largest allocated arrays     est. size (Mb)     dimensions
     Largest temporary arrays     est. size (Mb)     dimensions

     Initial potential from superposition of free atoms
     Check: negative starting charge=   -0.000519

     starting charge  138.94630, renormalised to  139.00000

     negative rho (up, down):  5.195E-04 0.000E+00

     *
     * You are using vdW-DF for exchange-correlation in this calculation.
     * Please cite the following three references that made this development
     * possible:
     *
     *   M. Dion, H. Rydberg, E. Schroder, D. C. Langreth, and
     *   B. I. Lundqvist, Phys. Rev. Lett. 92, 246401 (2004).
     *
     *   T. Thonhauser, V. R. Cooper, S. Li, A. Puzder, P. Hyldgaard, and
     *   D. C. Langreth, Phys. Rev. B 76, 125112 (2007).
     *
     *   G. Roman-Perez and J. M. Soler, Phys. Rev. Lett. 103, 096102 (2009).
     *
     *
     * If you are using vdW-DF2, please also cite:
     *
     *   K. Lee, E. D. Murray, L. Kong, B. I. Lundqvist, and
     *   D. C. Langreth, Phys. Rev. B 82, 081101(R) (2010).
     *
     *
     * If you are calculating the stress with vdW-DF, please also cite:
     *
     *   R. Sabatini, E. Kucukbenli, B. Kolb, T. Thonhauser, and
     *   S. de Gironcoli, J. Phys.: Condens. Matter 24, 424209 (2012).
     *

     Carrying out vdW-DF run using the following parameters:

     Nqs =      20    Nr_points =    1024   r_max =   100.000
     q_mesh =
               0.00001000     0.04494208     0.09755937     0.15916263
               0.23128650     0.31572767     0.41458969     0.53033537
               0.66584808     0.82450364     1.01025438     1.22772762
               1.48234092     1.78043706     2.12944203     2.53805004
               3.01644009     3.57652955     4.23227104     5.00000000

     Gradients computed in reciprocal space

     Adding external electric field

     Computed dipole along edir(3) :
        Dipole               -0.0245 Ry au,         -0.0623 Debye
        Dipole field         -0.0000 Ry au

        Potential amp.        0.0038 Ry
        Total length         47.6094 bohr

     Starting wfc are  163 randomized atomic wfcs

     Self-consistent Calculation

     iteration #  1     ecut=    36.75 Ry     beta=0.30
     Davidson diagonalization with overlap
     ethr =  1.00E-02,  avg # of iterations =  2.0

[...]

     total energy              =   -1137.63692737 Ry
     Harris-Foulkes estimate   =   -1140.09958909 Ry
     estimated scf accuracy    <       5.34385122 Ry

[...]

     End of self-consistent calculation

          k = 0.0000 0.0000 0.0000 ( 28997 PWs)   bands (ev):

   -42.1142 -42.0998 -42.0721 -42.0719 -42.0702 -42.0634 -42.0498 -42.0436
   -41.5528 -41.5155 -41.5152 -41.4863 -22.2236 -22.2201 -22.2198 -22.2016
   -22.1971 -22.1945 -22.1749 -22.1252 -22.1005 -22.0889 -22.0856 -22.0642
   -22.0562 -22.0507 -21.8956 -21.8955 -21.8936 -21.8737 -21.8710 -21.8667
   -21.7957 -21.7956 -21.7703 -21.7699 -21.6765 -21.6660 -21.6658 -21.4614
   -21.4373 -21.4368 -21.4060 -21.3774 -21.3678 -21.3676 -21.2722 -21.2721
   -12.2902  -5.3717  -4.9466  -3.3065  -2.7907  -1.8921  -1.0200  -0.3741
    -0.3726  -0.2957  -0.2410  -0.2281  -0.2253   0.0718   0.0768   0.2135
     0.5532   0.5537   0.6512   0.9765   0.9840   1.2281   1.4068   1.5404
     1.8112   1.8373   1.8525   1.9429   1.9515   1.9532   2.3448

[...]

          k =-0.0699 0.0404 0.0000 ( 29048 PWs)   bands (ev):

[...]

     the Fermi energy is     1.2312 ev

!    total energy              =   -1139.52874512 Ry
     Harris-Foulkes estimate   =   -1139.52873490 Ry
     estimated scf accuracy    <       0.00000939 Ry

     The total energy is the sum of the following terms:

     one-electron contribution =   -5565.53228893 Ry
     hartree contribution      =    2777.58759434 Ry
     xc contribution           =    -344.75372870 Ry
     ewald contribution        =    1993.30115679 Ry
     electric field correction =       0.00004321 Ry
     smearing contrib. (-TS)   =      -0.13152183 Ry

     convergence has been achieved in  15 iterations

 BEEF-vdW xc energy contributions
           1 :   -300.498555231729
           2 :    269.726451539948
           3 :   -216.823085112095
           4 :    154.859461987470
           5 :   -95.9280462697454
           6 :    47.5740004632922
           7 :   -12.2938772015841
           8 :   -10.6668757201903
           9 :    23.0205247152226
          10 :   -26.1780814115161
          11 :    21.4001549725128
          12 :   -10.6653230374702
          13 :   -2.80885571200582
          14 :    15.0308605382246
          15 :   -22.5137382985362
          16 :    23.5627082562089
          17 :   -18.7554084773400
          18 :    10.3564724171750
          19 :   -1.11160092530059
          20 :   -6.81447519098185
          21 :    12.2433822995763
          22 :   -14.7839516505272
          23 :    14.4624499308075
          24 :   -11.5687504015656
          25 :    6.75755215087321
          26 :   -1.14922551775021
          27 :   -3.83907079883653
          28 :    6.95490048438649
          29 :   -7.61570470302070
          30 :    6.12729667088763
          31 :   -28.9549348110003
          32 :   -19.8103558109153

     Forces acting on atoms (Ry/au):

     negative rho (up, down):  1.344E-04 0.000E+00
     atom    1 type  1   force =     0.00000928   -0.00000246    0.00350174
     atom    2 type  1   force =    -0.00003394   -0.00049475    0.00389469
     atom    3 type  1   force =    -0.00042848    0.00027794    0.00386954
     atom    4 type  1   force =     0.00042389    0.00022386    0.00386668
     atom    5 type  1   force =    -0.00084147    0.00090948    0.00114400
     atom    6 type  1   force =     0.00112738    0.00043301    0.00121822
     atom    7 type  1   force =     0.00008385   -0.00010635   -0.00825229
     atom    8 type  1   force =    -0.00044313   -0.00123809    0.00113111
     atom    9 type  1   force =     0.01188402    0.00560334    0.00167951
     atom   10 type  1   force =    -0.01173833    0.00831632    0.00345497
     atom   11 type  1   force =    -0.00097811   -0.01435848    0.00215128
     atom   12 type  1   force =     0.00034473   -0.00018133   -0.01564859
     atom   13 type  2   force =     0.04724779    0.00072255    0.14713002
     atom   14 type  3   force =    -0.07655971   -0.00152523   -0.06385933
     atom   15 type  3   force =     0.01654889   -0.04186421   -0.04218016
     atom   16 type  3   force =     0.01335334    0.04328440   -0.04310138

     Total force =     0.205884     Total SCF correction =     0.003127

     entering subroutine stress ...

     negative rho (up, down):  1.344E-04 0.000E+00
          total   stress  (Ry/bohr**3)                   (kbar)     P=   -6.39
  -0.00004176   0.00000048  -0.00000690         -6.14      0.07     -1.01
   0.00000048  -0.00003697   0.00000025          0.07     -5.44      0.04
  -0.00000690   0.00000025  -0.00005168         -1.01      0.04     -7.60

     BFGS Geometry Optimization

     number of scf cycles    =   1
     number of bfgs steps    =   0

     energy   new            =   -1139.5287451202 Ry

     new trust radius        =       0.1545319313 bohr
     new conv_thr            =       0.0000099958 Ry

ATOMIC_POSITIONS (crystal)
Y1       0.166666667   0.166666667   0.386999750    0   0   0
Y1       0.666666667   0.166666667   0.386999750    0   0   0
Y1       0.166666667   0.666666667   0.386999750    0   0   0
Y1       0.666666667   0.666666667   0.386999750    0   0   0
Y1       0.833333333   0.333333333   0.500000000    0   0   0
Y1       0.333333333   0.333333333   0.500000000    0   0   0
Y1       0.833333333   0.833333333   0.500000000    0   0   0
Y1       0.333333333   0.833333333   0.500000000    0   0   0
Y1       0.000639911   0.000478710   0.613034645
Y1       0.498776269   0.000710489   0.613071004
Y1       0.000540977   0.498773311   0.613044306
Y1       0.500033251   0.499984509   0.612679780
C1       0.170131535   0.166728396   0.682925603
H1       0.313466391   0.166536362   0.702985706
H1       0.034959610   0.306695546   0.703429677
H1       0.174691394   0.026759119   0.703410811

     Writing output data file calc.save
     Check: negative starting charge=   -0.000519
     NEW-OLD atomic charge density approx. for the potential
     Check: negative starting charge=   -0.000518

[...]

     Total force =     0.072419     Total SCF correction =     0.008381
     SCF correction compared to forces is large: reduce conv_thr to get better values

[...]

     energy   old            =   -1139.5287451202 Ry
     energy   new            =   -1139.5577068893 Ry

     CASE: energy  _new < energy  _old

[...]

     Threshold (ethr) on eigenvalues was too large:
     Diagonalizing with lowered threshold

     Davidson diagonalization with overlap
     ethr =  6.37E-08,  avg # of iterations =  7.5

[...]

     Total force =     0.005385     Total SCF correction =     0.000538

[...]

     number of scf cycles    =  12
     number of bfgs steps    =  11

     energy   old            =   -1139.5658673035 Ry
     energy   new            =   -1139.5659249979 Ry

     CASE: energy  _new < energy  _old

     new trust radius        =       0.0062097645 bohr
     new conv_thr            =       0.0000001000 Ry

ATOMIC_POSITIONS (crystal)
Y1       0.166666667   0.166666667   0.386999750    0   0   0
Y1       0.666666667   0.166666667   0.386999750    0   0   0
Y1       0.166666667   0.666666667   0.386999750    0   0   0
Y1       0.666666667   0.666666667   0.386999750    0   0   0
Y1       0.833333333   0.333333333   0.500000000    0   0   0
Y1       0.333333333   0.333333333   0.500000000    0   0   0
Y1       0.833333333   0.833333333   0.500000000    0   0   0
Y1       0.333333333   0.833333333   0.500000000    0   0   0
Y1       0.006452081   0.004689788   0.613336540
Y1       0.490803294   0.005378548   0.613020021
Y1       0.005168928   0.489781327   0.613153289
Y1       0.500840199   0.499823910   0.605354686
C1       0.171347911   0.167000387   0.683960221
H1       0.312994631   0.164777359   0.701865312
H1       0.034257829   0.307412029   0.702783894
H1       0.170875209   0.027950715   0.702507975

     Writing output data file calc.save
     Check: negative starting charge=   -0.000515
     NEW-OLD atomic charge density approx. for the potential
     Check: negative starting charge=   -0.000515

[...]

     Self-consistent Calculation

[...]

     Threshold (ethr) on eigenvalues was too large:
     Diagonalizing with lowered threshold

     Davidson diagonalization with overlap
     ethr =  6.91E-08,  avg # of iterations =  5.5

[...]

     total energy              =   -1139.56595314 Ry
     Harris-Foulkes estimate   =   -1139.56595312 Ry
     estimated scf accuracy    <       0.00000033 Ry

     iteration #  8     ecut=    36.75 Ry     beta=0.30
     Davidson diagonalization with overlap
     ethr =  2.40E-10,  avg # of iterations =  4.0

[...]

     negative rho (up, down):  1.497E-04 0.000E+00

     Adding external electric field

     Computed dipole along edir(3) :
        Dipole                0.1288 Ry au,          0.3274 Debye
        Dipole field          0.0002 Ry au

        Potential amp.       -0.0200 Ry
        Total length         47.6094 bohr

     End of self-consistent calculation

[...]

          k = 0.0466-0.0538 0.0000 ( 29098 PWs)   bands (ev):

[...]

          k =-0.0699-0.0404 0.0000 ( 29048 PWs)   bands (ev):

   -42.1109 -42.1057 -42.0993 -42.0984 -42.0817 -42.0796 -42.0778 -41.9101
   -41.5440 -41.4921 -41.4787 -41.4710 -22.1774 -22.1537 -22.1511 -22.1444
   -22.1355 -22.1194 -22.1105 -22.1053 -22.0920 -22.0829 -22.0762 -22.0563
   -22.0244 -22.0170 -21.9925 -21.9838 -21.9761 -21.9711 -21.9682 -21.8555
   -21.8520 -21.8457 -21.8376 -21.7489 -21.5972 -21.5561 -21.4905 -21.4627
   -21.4475 -21.4205 -21.4186 -21.4027 -21.3925 -21.3922 -21.3150 -21.2857
   -12.8631  -5.8793  -5.8648  -2.6464  -1.8393  -1.7518  -0.9849  -0.8147
    -0.1710  -0.1531   0.0036   0.0849   0.2670   0.2888   0.9123   0.9573
     0.9659   0.9805   1.0595   1.0876   1.2071   1.2212   1.2982   1.3314
     1.3347   1.4080   1.4212   1.5766   1.6313   1.7177   1.7606

     the Fermi energy is     1.2293 ev

!    total energy              =   -1139.56595314 Ry
     Harris-Foulkes estimate   =   -1139.56595243 Ry
     estimated scf accuracy    <       0.00000006 Ry

     The total energy is the sum of the following terms:

     one-electron contribution =   -5595.03056862 Ry
     hartree contribution      =    2792.40501077 Ry
     xc contribution           =    -344.97379765 Ry
     ewald contribution        =    2008.16270774 Ry
     electric field correction =       0.00002699 Ry
     smearing contrib. (-TS)   =      -0.12933238 Ry

     convergence has been achieved in   8 iterations

 BEEF-vdW xc energy contributions
           1 :   -300.697634771431
           2 :    269.917446715477
           3 :   -217.003098018979
           4 :    155.021448127799
           5 :   -96.0563132189492
           6 :    47.6587618777731
           7 :   -12.3452423177416
           8 :   -10.6257960267217
           9 :    22.9733396138939
          10 :   -26.1269979673114
          11 :    21.3608599135068
          12 :   -10.6512549720895
          13 :   -2.79998560405136
          14 :    15.0182599287526
          15 :   -22.5208899310733
          16 :    23.5997568574127
          17 :   -18.8092834547491
          18 :    10.3962854586911
          19 :   -1.10870421680681
          20 :   -6.86418663488359
          21 :    12.3142037486256
          22 :   -14.8391012772875
          23 :    14.4818976331633
          24 :   -11.5627247006377
          25 :    6.75555467597076
          26 :   -1.17607808056493
          27 :   -3.77967852552842
          28 :    6.87870218107116
          29 :   -7.54253954682838
          30 :    6.06517684012204
          31 :   -28.9682029090713
          32 :   -19.8225497045874

     Forces acting on atoms (Ry/au):

     negative rho (up, down):  1.497E-04 0.000E+00
     atom    1 type  1   force =    -0.00002334   -0.00000274    0.00392582
     atom    2 type  1   force =    -0.00001219   -0.00152713    0.00453660
     atom    3 type  1   force =    -0.00131207    0.00079143    0.00456533
     atom    4 type  1   force =     0.00132311    0.00074555    0.00450068
     atom    5 type  1   force =     0.00157171   -0.00076160   -0.00392941
     atom    6 type  1   force =    -0.00116447   -0.00090510   -0.00411144
     atom    7 type  1   force =     0.00029584    0.00003188   -0.00348958
     atom    8 type  1   force =    -0.00016923    0.00155664   -0.00396942
     atom    9 type  1   force =    -0.00012660   -0.00011385   -0.00044950
     atom   10 type  1   force =     0.00028537   -0.00004601   -0.00045797
     atom   11 type  1   force =     0.00028663    0.00017954   -0.00043726
     atom   12 type  1   force =     0.00008667    0.00006611    0.00010989
     atom   13 type  2   force =     0.00051428   -0.00003026    0.00110587
     atom   14 type  3   force =     0.00048920   -0.00035286   -0.00088286
     atom   15 type  3   force =    -0.00067193    0.00062290   -0.00048360
     atom   16 type  3   force =    -0.00137298   -0.00025448   -0.00053314

     Total force =     0.002606     Total SCF correction =     0.000517
     SCF correction compared to forces is large: reduce conv_thr to get better values

     entering subroutine stress ...

     negative rho (up, down):  1.497E-04 0.000E+00
          total   stress  (Ry/bohr**3)                   (kbar)     P=   -2.31
  -0.00001546  -0.00000014  -0.00000100         -2.27     -0.02     -0.15
  -0.00000014  -0.00001565   0.00000003         -0.02     -2.30      0.01
  -0.00000100   0.00000003  -0.00001590         -0.15      0.01     -2.34

     bfgs converged in  13 scf cycles and  12 bfgs steps
     (criteria: energy <  1.0E+00, force <  1.9E-03)

     End of BFGS Geometry Optimization

     Final energy   =   -1139.5659531433 Ry
Begin final coordinates

ATOMIC_POSITIONS (crystal)
Y1       0.166666667   0.166666667   0.386999750    0   0   0
Y1       0.666666667   0.166666667   0.386999750    0   0   0
Y1       0.166666667   0.666666667   0.386999750    0   0   0
Y1       0.666666667   0.666666667   0.386999750    0   0   0
Y1       0.833333333   0.333333333   0.500000000    0   0   0
Y1       0.333333333   0.333333333   0.500000000    0   0   0
Y1       0.833333333   0.833333333   0.500000000    0   0   0
Y1       0.333333333   0.833333333   0.500000000    0   0   0
Y1       0.006452081   0.004689788   0.613336540
Y1       0.490803294   0.005378548   0.613020021
Y1       0.005168928   0.489781327   0.613153289
Y1       0.500840199   0.499823910   0.605354686
C1       0.171347911   0.167000387   0.683960221
H1       0.312994631   0.164777359   0.701865312
H1       0.034257829   0.307412029   0.702783894
H1       0.170875209   0.027950715   0.702507975
End final coordinates

     Writing output data file calc.save

     General routines

     Parallel routines

   This run was terminated on:   4:14:36  25Apr2018

   JOB DONE.
Job  /afs/slac/g/suncat/bin/suncat-tsmpirun -x LD_LIBRARY_PATH -wdir /scratch/qe265838_z83ao pw.x -npool 4 -in pw.inp

TID   HOST_NAME   COMMAND_LINE            STATUS            TERMINATION_TIME
00000 suncat0072 pw.x -npool 4 -i  Done                     04/25/2018 04:14:36
00001 suncat0072 pw.x -npool 4 -i  Done                     04/25/2018 04:14:36
00002 suncat0072 pw.x -npool 4 -i  Done                     04/25/2018 04:14:36
00003 suncat0072 pw.x -npool 4 -i  Done                     04/25/2018 04:14:36
00004 suncat0072 pw.x -npool 4 -i  Done                     04/25/2018 04:14:36
00005 suncat0072 pw.x -npool 4 -i  Done                     04/25/2018 04:14:36
00006 suncat0072 pw.x -npool 4 -i  Done                     04/25/2018 04:14:36
00007 suncat0072 pw.x -npool 4 -i  Done                     04/25/2018 04:14:36
00008 suncat0070 pw.x -npool 4 -i  Done                     04/25/2018 04:14:36
00009 suncat0070 pw.x -npool 4 -i  Done                     04/25/2018 04:14:36
00010 suncat0070 pw.x -npool 4 -i  Done                     04/25/2018 04:14:36
00011 suncat0070 pw.x -npool 4 -i  Done                     04/25/2018 04:14:36
00012 suncat0070 pw.x -npool 4 -i  Done                     04/25/2018 04:14:36
00013 suncat0070 pw.x -npool 4 -i  Done                     04/25/2018 04:14:36
00014 suncat0070 pw.x -npool 4 -i  Done                     04/25/2018 04:14:36
00015 suncat0070 pw.x -npool 4 -i  Done                     04/25/2018 04:14:36
00016 suncat0068 pw.x -npool 4 -i  Done                     04/25/2018 04:14:36
00017 suncat0068 pw.x -npool 4 -i  Done                     04/25/2018 04:14:36
00018 suncat0068 pw.x -npool 4 -i  Done                     04/25/2018 04:14:36
00019 suncat0068 pw.x -npool 4 -i  Done                     04/25/2018 04:14:36
00020 suncat0068 pw.x -npool 4 -i  Done                     04/25/2018 04:14:36
00021 suncat0068 pw.x -npool 4 -i  Done                     04/25/2018 04:14:36
00022 suncat0068 pw.x -npool 4 -i  Done                     04/25/2018 04:14:36
00023 suncat0068 pw.x -npool 4 -i  Done                     04/25/2018 04:14:36
00024 suncat0066 pw.x -npool 4 -i  Done                     04/25/2018 04:14:36
00025 suncat0066 pw.x -npool 4 -i  Done                     04/25/2018 04:14:36
00026 suncat0066 pw.x -npool 4 -i  Done                     04/25/2018 04:14:36
00027 suncat0066 pw.x -npool 4 -i  Done                     04/25/2018 04:14:36
00028 suncat0066 pw.x -npool 4 -i  Done                     04/25/2018 04:14:36
00029 suncat0066 pw.x -npool 4 -i  Done                     04/25/2018 04:14:36
00030 suncat0066 pw.x -npool 4 -i  Done                     04/25/2018 04:14:36
00031 suncat0066 pw.x -npool 4 -i  Done                     04/25/2018 04:14:36