     Program PWSCF v.5.1rc2 (svn rev. 11289) starts on 24Apr2018 at  4:40: 7

     Current dimensions of program PWSCF are:
     Max number of different atomic species (ntypx) = 10
     Max number of k-points (npk) =  40000
     Max angular momentum in pseudopotentials (lmaxx) =  3
     Presently stress not available with electric field

     IMPORTANT: XC functional enforced from input :
     Exchange-correlation      = BEEF-VDW ( 1  4 27 13 2)
     Any further DFT definition will be discarded
     Please, verify this is what you really want

     Subspace diagonalization in iterative solution of the eigenvalue problem:
     a serial algorithm will be used

     bravais-lattice index     =            0
     lattice parameter (alat)  =       1.8897  a.u.
     unit-cell volume          =    6655.4371 (a.u.)^3
     number of atoms/cell      =           14
     number of atomic types    =            3
     number of electrons       =       161.00
     number of Kohn-Sham states=           90
     kinetic-energy cutoff     =      36.7493  Ry
     charge density cutoff     =     367.4932  Ry
     convergence threshold     =      1.0E-05
     mixing beta               =       0.3000
     number of iterations used =           10  plain     mixing
     Exchange-correlation      = BEEF-VDW ( 1  4 27 13 2)
     nstep                     =           50

     celldm(1)=   1.889726  celldm(2)=   0.000000  celldm(3)=   0.000000
     celldm(4)=   0.000000  celldm(5)=   0.000000  celldm(6)=   0.000000

     crystal axes: (cart. coord. in units of alat)
               a(1) = (   6.687903   0.000000   0.000000 )
               a(2) = (   3.343951   5.791894   0.000000 )
               a(3) = (   0.000000   0.000000  25.460650 )

     reciprocal axes: (cart. coord. in units 2 pi/alat)
               b(1) = (  0.149524 -0.086328  0.000000 )
               b(2) = (  0.000000  0.172655  0.000000 )
               b(3) = (  0.000000  0.000000  0.039276 )

     PseudoPot. # 1 for Tl read from file:
     /u/if/mamunm/psp/gbrv1.5pbe/Tl.UPF
     MD5 check sum: b76cf1f7e72655a2b2c53cf6385d7059
     Pseudo is Ultrasoft + core correction, Zval = 13.0
     Generated by new atomic code, or converted to UPF format
     Using radial grid of  899 points,  6 beta functions with:
                l(1) =   0
                l(2) =   0
                l(3) =   1
                l(4) =   1
                l(5) =   2
                l(6) =   2
     Q(r) pseudized with  6 coefficients,  rinner =    1.100   1.100   1.100
                                                       1.100   1.100

     PseudoPot. # 2 for C  read from file:
     /u/if/mamunm/psp/gbrv1.5pbe/C.UPF
     MD5 check sum: d1aef80898a10debaa0f26306b886e00
     Pseudo is Ultrasoft + core correction, Zval =  4.0
     Generated by new atomic code, or converted to UPF format
     Using radial grid of  721 points,  4 beta functions with:
                l(1) =   0
                l(2) =   0
                l(3) =   1
                l(4) =   1
     Q(r) pseudized with  8 coefficients,  rinner =    1.100   1.100   1.100

     PseudoPot. # 3 for H  read from file:
     /u/if/mamunm/psp/gbrv1.5pbe/H.UPF
     MD5 check sum: 761ae9a214b05c3daf00ab9f6b793d6f
     Pseudo is Ultrasoft, Zval =  1.0
     Generated by new atomic code, or converted to UPF format
     Using radial grid of  615 points,  2 beta functions with:
                l(1) =   0
                l(2) =   0
     Q(r) pseudized with  8 coefficients,  rinner =    0.700

     vdW kernel table read from file vdW_kernel_table
     MD5 check sum: 095c7af220d748ca6e76c0b4c6cfb241

     atomic species   valence    mass     pseudopotential
        Tl1           13.00   204.38000     Tl( 1.00)
        C1             4.00    12.01100     C ( 1.00)
        H1             1.00     1.00800     H ( 1.00)

     No symmetry found

   Cartesian axes

     site n.     atom                  positions (alat units)
         1           Tl1 tau(   1) = (   1.6719756   0.9653156  10.0000000  )
         2           Tl1 tau(   2) = (   5.0159269   0.9653156  10.0000000  )
         3           Tl1 tau(   3) = (   3.3439513   3.8612623  10.0000000  )
         4           Tl1 tau(   4) = (   6.6879026   3.8612623  10.0000000  )
         5           Tl1 tau(   5) = (   6.6879026   1.9306312  12.7303248  )
         6           Tl1 tau(   6) = (   3.3439513   1.9306312  12.7303248  )
         7           Tl1 tau(   7) = (   8.3598782   4.8265779  12.7303248  )
         8           Tl1 tau(   8) = (   5.0159269   4.8265779  12.7303248  )
         9           Tl1 tau(   9) = (   0.0000000   0.0000000  15.4606496  )
        10           Tl1 tau(  10) = (   3.3439513   0.0000000  15.4606496  )
        11           Tl1 tau(  11) = (   1.6719756   2.8959468  15.4606496  )
        12           Tl1 tau(  12) = (   5.0159269   2.8959468  15.4606496  )
        13           C1  tau(  13) = (   1.6719756   0.9653156  16.8971496  )
        14           H1  tau(  14) = (   1.6719756   0.9653156  17.9971496  )

     number of k points=    20  Fermi-Dirac smearing, width (Ry)=  0.0110
                       cart. coord. in units 2pi/alat
        k(    1) = (   0.0000000   0.0000000   0.0000000), wk =   0.0555556
        k(    2) = (   0.0000000   0.0287759   0.0000000), wk =   0.1111111
        k(    3) = (   0.0000000   0.0575517   0.0000000), wk =   0.1111111
        k(    4) = (   0.0000000  -0.0863276   0.0000000), wk =   0.0555556
        k(    5) = (   0.0249206  -0.0143879   0.0000000), wk =   0.1111111
        k(    6) = (   0.0249206   0.0143879   0.0000000), wk =   0.1111111
        k(    7) = (   0.0249206   0.0431638   0.0000000), wk =   0.1111111
        k(    8) = (   0.0249206  -0.1007155   0.0000000), wk =   0.1111111
        k(    9) = (   0.0249206  -0.0719396   0.0000000), wk =   0.1111111
        k(   10) = (   0.0249206  -0.0431638   0.0000000), wk =   0.1111111
        k(   11) = (   0.0498412  -0.0287759   0.0000000), wk =   0.1111111
        k(   12) = (   0.0498412  -0.0000000   0.0000000), wk =   0.1111111
        k(   13) = (   0.0498412   0.0287759   0.0000000), wk =   0.1111111
        k(   14) = (   0.0498412  -0.1151034   0.0000000), wk =   0.1111111
        k(   15) = (   0.0498412  -0.0863276   0.0000000), wk =   0.1111111
        k(   16) = (   0.0498412  -0.0575517   0.0000000), wk =   0.1111111
        k(   17) = (  -0.0747619   0.0431638   0.0000000), wk =   0.0555556
        k(   18) = (  -0.0747619   0.0719396   0.0000000), wk =   0.1111111
        k(   19) = (  -0.0747619   0.1007155   0.0000000), wk =   0.1111111
        k(   20) = (  -0.0747619  -0.0431638   0.0000000), wk =   0.0555556

     Largest allocated arrays     est. size (Mb)     dimensions
     Largest temporary arrays     est. size (Mb)     dimensions

     Check: negative/imaginary core charge=   -0.000001    0.000000

     Initial potential from superposition of free atoms
     Check: negative starting charge=   -0.604352

     starting charge  160.94156, renormalised to  161.00000

     negative rho (up, down):  6.046E-01 0.000E+00

     *
     * You are using vdW-DF for exchange-correlation in this calculation.
     * Please cite the following three references that made this development
     * possible:
     *
     *   M. Dion, H. Rydberg, E. Schroder, D. C. Langreth, and
     *   B. I. Lundqvist, Phys. Rev. Lett. 92, 246401 (2004).
     *
     *   T. Thonhauser, V. R. Cooper, S. Li, A. Puzder, P. Hyldgaard, and
     *   D. C. Langreth, Phys. Rev. B 76, 125112 (2007).
     *
     *   G. Roman-Perez and J. M. Soler, Phys. Rev. Lett. 103, 096102 (2009).
     *
     *
     * If you are using vdW-DF2, please also cite:
     *
     *   K. Lee, E. D. Murray, L. Kong, B. I. Lundqvist, and
     *   D. C. Langreth, Phys. Rev. B 82, 081101(R) (2010).
     *
     *
     * If you are calculating the stress with vdW-DF, please also cite:
     *
     *   R. Sabatini, E. Kucukbenli, B. Kolb, T. Thonhauser, and
     *   S. de Gironcoli, J. Phys.: Condens. Matter 24, 424209 (2012).
     *

     Carrying out vdW-DF run using the following parameters:

     Nqs =      20    Nr_points =    1024   r_max =   100.000
     q_mesh =
               0.00001000     0.04494208     0.09755937     0.15916263
               0.23128650     0.31572767     0.41458969     0.53033537
               0.66584808     0.82450364     1.01025438     1.22772762
               1.48234092     1.78043706     2.12944203     2.53805004
               3.01644009     3.57652955     4.23227104     5.00000000

     Gradients computed in reciprocal space

     Adding external electric field

     Computed dipole along edir(3) :
        Dipole               -0.0146 Ry au,         -0.0372 Debye
        Dipole field         -0.0000 Ry au

        Potential amp.        0.0026 Ry
        Total length         46.9108 bohr

     Starting wfc are  113 randomized atomic wfcs

     Self-consistent Calculation

     iteration #  1     ecut=    36.75 Ry     beta=0.30
     Davidson diagonalization with overlap
     ethr =  1.00E-02,  avg # of iterations =  2.0

[...]

     total energy              =   -1772.95217851 Ry
     Harris-Foulkes estimate   =   -1774.27783301 Ry
     estimated scf accuracy    <       2.89957406 Ry

[...]

     End of self-consistent calculation

          k = 0.0000 0.0000 0.0000 ( 24957 PWs)   bands (ev):

   -11.4428 -11.2529 -11.2528 -11.2329 -11.1215 -11.1215 -11.1202 -11.1113
   -11.1028 -11.1028 -11.1016 -11.0472 -11.0472 -10.9899 -10.9362 -10.8974
   -10.8970 -10.8970 -10.8859 -10.8859 -10.8612 -10.8612 -10.8312 -10.8312
   -10.8090 -10.7970 -10.7890 -10.7890 -10.7385 -10.7385 -10.5806 -10.5806
   -10.5526 -10.5526 -10.5347 -10.5192 -10.4936 -10.4936 -10.4660 -10.4660
   -10.4563 -10.3715 -10.3715 -10.3564 -10.3564 -10.3227 -10.3212 -10.3102
   -10.3066 -10.3066 -10.2991 -10.2991 -10.2745 -10.2745 -10.2637 -10.2401
   -10.2401 -10.1493 -10.1493 -10.1016  -9.4948  -8.7901  -7.3457  -5.4499
    -4.2242  -4.2242  -4.1762  -3.9406  -3.8937  -3.8937  -3.2958  -2.9495
    -2.9495  -2.1346  -1.4907  -1.4907  -1.0965  -0.6283  -0.2473  -0.2473
     0.1067   0.1146   0.1146   1.7872   1.7872   1.7898   2.8608   3.9481
     4.1204   4.1204

[...]

          k =-0.0748 0.0432 0.0000 ( 25090 PWs)   bands (ev):

[...]

     the Fermi energy is     1.1868 ev

!    total energy              =   -1774.08902739 Ry
     Harris-Foulkes estimate   =   -1774.08901423 Ry
     estimated scf accuracy    <       0.00000821 Ry

     The total energy is the sum of the following terms:

     one-electron contribution =   -8904.26432621 Ry
     hartree contribution      =    4537.04283607 Ry
     xc contribution           =    -772.87736232 Ry
     ewald contribution        =    3366.04850863 Ry
     electric field correction =       0.00008604 Ry
     smearing contrib. (-TS)   =      -0.03876961 Ry

     convergence has been achieved in  11 iterations

 BEEF-vdW xc energy contributions
           1 :   -688.531469397468
           2 :    639.346487519879
           3 :   -552.786676412407
           4 :    447.719697203556
           5 :   -343.433693117321
           6 :    253.919164890351
           7 :   -185.051265359070
           8 :    135.191972426755
           9 :   -98.4063002151179
          10 :    68.4714861221132
          11 :   -41.8184918067006
          12 :    18.2915036198947
          13 :   0.123515474698593
          14 :   -11.4950504158053
          15 :    15.6789651548042
          16 :   -14.7193709448679
          17 :    11.8983595284955
          18 :   -10.1598986213389
          19 :    10.8445225571743
          20 :   -13.3925987654104
          21 :    16.0649908734460
          22 :   -17.1827837697356
          23 :    16.1413842350630
          24 :   -13.6625886876599
          25 :    11.2223685212624
          26 :   -10.0789688015029
          27 :    10.5128780014165
          28 :   -11.7193067816762
          29 :    12.3682997998994
          30 :   -11.4593453794965
          31 :   -55.4501358126261
          32 :   -40.6048642737126

     Forces acting on atoms (Ry/au):

     negative rho (up, down):  6.333E-01 0.000E+00
     atom    1 type  1   force =     0.00001206   -0.00001700   -0.01654569
     atom    2 type  1   force =    -0.00001001    0.00164848   -0.02182065
     atom    3 type  1   force =     0.00139419   -0.00080385   -0.02186357
     atom    4 type  1   force =    -0.00138857   -0.00082421   -0.02186450
     atom    5 type  1   force =     0.00146047   -0.00086742   -0.00045489
     atom    6 type  1   force =    -0.00148014   -0.00085901   -0.00043045
     atom    7 type  1   force =     0.00000677   -0.00000868   -0.00127572
     atom    8 type  1   force =    -0.00000088    0.00172418   -0.00043602
     atom    9 type  1   force =    -0.00763912   -0.00441667    0.03302692
     atom   10 type  1   force =     0.00764657   -0.00440787    0.03303778
     atom   11 type  1   force =    -0.00001320    0.00880473    0.03302946
     atom   12 type  1   force =     0.00000685    0.00001761    0.02260284
     atom   13 type  2   force =     0.00000429    0.00000805   -0.03751071
     atom   14 type  3   force =     0.00000071    0.00000166    0.00050519

     Total force =     0.073653     Total SCF correction =     0.001899

     entering subroutine stress ...

     negative rho (up, down):  6.333E-01 0.000E+00
          total   stress  (Ry/bohr**3)                   (kbar)     P=   15.51
   0.00012590   0.00000001  -0.00000000         18.52      0.00     -0.00
   0.00000001   0.00012589  -0.00000000          0.00     18.52     -0.00
  -0.00000000  -0.00000000   0.00006457         -0.00     -0.00      9.50

     BFGS Geometry Optimization

     number of scf cycles    =   1
     number of bfgs steps    =   0

     energy   new            =   -1774.0890273920 Ry

     new trust radius        =       0.0375107117 bohr
     new conv_thr            =       0.0000099958 Ry

ATOMIC_POSITIONS (crystal)
Tl1      0.166666667   0.166666667   0.392762956    0   0   0
Tl1      0.666666667   0.166666667   0.392762956    0   0   0
Tl1      0.166666667   0.666666667   0.392762956    0   0   0
Tl1      0.666666667   0.666666667   0.392762956    0   0   0
Tl1      0.833333333   0.333333333   0.500000000    0   0   0
Tl1      0.333333333   0.333333333   0.500000000    0   0   0
Tl1      0.833333333   0.833333333   0.500000000    0   0   0
Tl1      0.333333333   0.833333333   0.500000000    0   0   0
Tl1     -0.000402677  -0.000403530   0.607923479
Tl1      0.500806394  -0.000402725   0.607923705
Tl1     -0.000403267   0.500804445   0.607923532
Tl1      0.499999738   0.500001609   0.607706824
C1       0.166666639   0.166667402   0.662877815
H1       0.166666647   0.166666818   0.706871867

     Writing output data file calc.save
     Check: negative starting charge=   -0.604352
     NEW-OLD atomic charge density approx. for the potential

     Check: negative/imaginary core charge=   -0.000001    0.000000
     Check: negative starting charge=   -0.604917

[...]

     Total force =     0.059313     Total SCF correction =     0.006899
     SCF correction compared to forces is large: reduce conv_thr to get better values

[...]

     energy   old            =   -1774.0890273920 Ry
     energy   new            =   -1774.0934742953 Ry

     CASE: energy  _new < energy  _old

[...]

     Threshold (ethr) on eigenvalues was too large:
     Diagonalizing with lowered threshold

     Davidson diagonalization with overlap
     ethr =  3.65E-08,  avg # of iterations =  2.0

[...]

     Total force =     0.012438     Total SCF correction =     0.000395

[...]

     Threshold (ethr) on eigenvalues was too large:
     Diagonalizing with lowered threshold

     Davidson diagonalization with overlap
     ethr =  3.73E-08,  avg # of iterations =  2.0

[...]

     number of scf cycles    =  16
     number of bfgs steps    =  15

     energy   old            =   -1774.1209752023 Ry
     energy   new            =   -1774.1210715344 Ry

     CASE: energy  _new < energy  _old

     new trust radius        =       0.0321054714 bohr
     new conv_thr            =       0.0000001000 Ry

ATOMIC_POSITIONS (crystal)
Tl1      0.166666667   0.166666667   0.392762956    0   0   0
Tl1      0.666666667   0.166666667   0.392762956    0   0   0
Tl1      0.166666667   0.666666667   0.392762956    0   0   0
Tl1      0.666666667   0.666666667   0.392762956    0   0   0
Tl1      0.833333333   0.333333333   0.500000000    0   0   0
Tl1      0.333333333   0.333333333   0.500000000    0   0   0
Tl1      0.833333333   0.833333333   0.500000000    0   0   0
Tl1      0.333333333   0.833333333   0.500000000    0   0   0
Tl1     -0.008125271  -0.008134319   0.619065152
Tl1      0.516265922  -0.008123537   0.619066986
Tl1     -0.008131868   0.516271058   0.619065474
Tl1      0.500002800   0.499992076   0.620916756
C1       0.166663301   0.166668976   0.662763137
H1       0.166662921   0.166666676   0.706002052

     Writing output data file calc.save
     Check: negative starting charge=   -0.601570
     NEW-OLD atomic charge density approx. for the potential

     Check: negative/imaginary core charge=   -0.000001    0.000000
     Check: negative starting charge=   -0.601440

[...]

     Self-consistent Calculation

[...]

     total energy              =   -1774.12110954 Ry
     Harris-Foulkes estimate   =   -1774.12110941 Ry
     estimated scf accuracy    <       0.00000017 Ry

     iteration #  8     ecut=    36.75 Ry     beta=0.30
     Davidson diagonalization with overlap
     ethr =  1.04E-10,  avg # of iterations =  3.5

[...]

     negative rho (up, down):  6.299E-01 0.000E+00

     Adding external electric field

     Computed dipole along edir(3) :
        Dipole               -0.0424 Ry au,         -0.1078 Debye
        Dipole field         -0.0001 Ry au

        Potential amp.        0.0075 Ry
        Total length         46.9108 bohr

     End of self-consistent calculation

[...]

          k = 0.0498-0.0576 0.0000 ( 25036 PWs)   bands (ev):

[...]

          k =-0.0748-0.0432 0.0000 ( 25090 PWs)   bands (ev):

   -11.4790 -10.9346 -10.9114 -10.8798 -10.8311 -10.8267 -10.8105 -10.8093
   -10.8037 -10.7917 -10.7573 -10.7537 -10.7269 -10.7229 -10.6977 -10.6925
   -10.6903 -10.6773 -10.6699 -10.6540 -10.6288 -10.6210 -10.6181 -10.5997
   -10.5931 -10.5762 -10.5625 -10.5610 -10.5408 -10.5202 -10.5064 -10.4884
   -10.4681 -10.4612 -10.4439 -10.4405 -10.4315 -10.4161 -10.4071 -10.4025
   -10.3989 -10.3802 -10.3771 -10.3649 -10.3548 -10.3525 -10.3356 -10.3312
   -10.3297 -10.3156 -10.3073 -10.2749 -10.2511 -10.2379 -10.2184 -10.2149
   -10.1878 -10.1443 -10.1436 -10.0531  -9.1612  -7.3183  -7.2130  -6.2891
    -5.8412  -4.7960  -4.7746  -4.6331  -4.5348  -4.1000  -4.0090  -2.7871
    -2.7791  -1.0145  -0.0674   0.6211   0.7072   0.9547   1.1178   1.3506
     1.4770   1.6929   2.1826   2.5504   2.6971   2.7453   3.0983   3.6367
     3.8667   3.9407

     the Fermi energy is     1.3542 ev

!    total energy              =   -1774.12110946 Ry
     Harris-Foulkes estimate   =   -1774.12110957 Ry
     estimated scf accuracy    <       0.00000002 Ry

     The total energy is the sum of the following terms:

     one-electron contribution =   -8541.78052822 Ry
     hartree contribution      =    4356.45019809 Ry
     xc contribution           =    -772.80454182 Ry
     ewald contribution        =    3184.05229290 Ry
     electric field correction =       0.00000340 Ry
     smearing contrib. (-TS)   =      -0.03853381 Ry

     convergence has been achieved in   8 iterations

 BEEF-vdW xc energy contributions
           1 :   -688.445459793906
           2 :    639.160270422387
           3 :   -552.482407958421
           4 :    447.395186588541
           5 :   -343.244237870580
           6 :    253.961914647925
           7 :   -185.284063856895
           8 :    135.449645732637
           9 :   -98.5044629523089
          10 :    68.3296218680915
          11 :   -41.5167655509211
          12 :    18.0205081395724
          13 :   0.188154771216773
          14 :   -11.3092373933409
          15 :    15.3592382903050
          16 :   -14.4669645508533
          17 :    11.8678376434027
          18 :   -10.3573620301748
          19 :    11.1223280452105
          20 :   -13.5447735920699
          21 :    15.9609850804733
          22 :   -16.8538486153814
          23 :    15.7643242014655
          24 :   -13.4499008251090
          25 :    11.2887369870540
          26 :   -10.3697382565304
          27 :    10.8390928193520
          28 :   -11.8761161805083
          29 :    12.2616983228994
          30 :   -11.1617178528298
          31 :   -55.4403345814661
          32 :   -40.5692235413585

     Forces acting on atoms (Ry/au):

     negative rho (up, down):  6.299E-01 0.000E+00
     atom    1 type  1   force =     0.00000016    0.00000051   -0.01829241
     atom    2 type  1   force =     0.00000020    0.00037523   -0.02158109
     atom    3 type  1   force =     0.00032509   -0.00018790   -0.02158118
     atom    4 type  1   force =    -0.00032523   -0.00018810   -0.02158160
     atom    5 type  1   force =     0.00090929   -0.00052482    0.02202254
     atom    6 type  1   force =    -0.00090954   -0.00052591    0.02202243
     atom    7 type  1   force =    -0.00000032    0.00000077    0.01691764
     atom    8 type  1   force =     0.00000091    0.00105014    0.02202256
     atom    9 type  1   force =    -0.00034472   -0.00019989   -0.00011244
     atom   10 type  1   force =     0.00033983   -0.00020366   -0.00010945
     atom   11 type  1   force =    -0.00000481    0.00039257   -0.00010736
     atom   12 type  1   force =     0.00000610    0.00000678   -0.00053898
     atom   13 type  2   force =     0.00000333    0.00000361    0.00052408
     atom   14 type  3   force =    -0.00000030    0.00000069    0.00039525

     Total force =     0.001108     Total SCF correction =     0.000444
     SCF correction compared to forces is large: reduce conv_thr to get better values

     entering subroutine stress ...

     negative rho (up, down):  6.299E-01 0.000E+00
          total   stress  (Ry/bohr**3)                   (kbar)     P=   11.92
   0.00011238   0.00000000   0.00000000         16.53      0.00      0.00
   0.00000000   0.00011238   0.00000000          0.00     16.53      0.00
   0.00000000   0.00000000   0.00001841          0.00      0.00      2.71

     bfgs converged in  17 scf cycles and  16 bfgs steps
     (criteria: energy <  1.0E+00, force <  1.9E-03)

     End of BFGS Geometry Optimization

     Final energy   =   -1774.1211094569 Ry
Begin final coordinates

ATOMIC_POSITIONS (crystal)
Tl1      0.166666667   0.166666667   0.392762956    0   0   0
Tl1      0.666666667   0.166666667   0.392762956    0   0   0
Tl1      0.166666667   0.666666667   0.392762956    0   0   0
Tl1      0.666666667   0.666666667   0.392762956    0   0   0
Tl1      0.833333333   0.333333333   0.500000000    0   0   0
Tl1      0.333333333   0.333333333   0.500000000    0   0   0
Tl1      0.833333333   0.833333333   0.500000000    0   0   0
Tl1      0.333333333   0.833333333   0.500000000    0   0   0
Tl1     -0.008125271  -0.008134319   0.619065152
Tl1      0.516265922  -0.008123537   0.619066986
Tl1     -0.008131868   0.516271058   0.619065474
Tl1      0.500002800   0.499992076   0.620916756
C1       0.166663301   0.166668976   0.662763137
H1       0.166662921   0.166666676   0.706002052
End final coordinates

     Writing output data file calc.save

     General routines

     Parallel routines

   This run was terminated on:   6:41:24  24Apr2018

   JOB DONE.
Job  /afs/slac/g/suncat/bin/suncat-tsmpirun -x LD_LIBRARY_PATH -wdir /scratch/qe589483_giFcT pw.x -npool 4 -in pw.inp

TID   HOST_NAME   COMMAND_LINE            STATUS            TERMINATION_TIME
00000 suncat0121 pw.x -npool 4 -i  Done                     04/24/2018 06:41:24
00001 suncat0121 pw.x -npool 4 -i  Done                     04/24/2018 06:41:24
00002 suncat0121 pw.x -npool 4 -i  Done                     04/24/2018 06:41:24
00003 suncat0121 pw.x -npool 4 -i  Done                     04/24/2018 06:41:24
00004 suncat0121 pw.x -npool 4 -i  Done                     04/24/2018 06:41:24
00005 suncat0121 pw.x -npool 4 -i  Done                     04/24/2018 06:41:24
00006 suncat0121 pw.x -npool 4 -i  Done                     04/24/2018 06:41:24
00007 suncat0121 pw.x -npool 4 -i  Done                     04/24/2018 06:41:24
00008 suncat0115 pw.x -npool 4 -i  Done                     04/24/2018 06:41:24
00009 suncat0115 pw.x -npool 4 -i  Done                     04/24/2018 06:41:24
00010 suncat0115 pw.x -npool 4 -i  Done                     04/24/2018 06:41:24
00011 suncat0115 pw.x -npool 4 -i  Done                     04/24/2018 06:41:24
00012 suncat0115 pw.x -npool 4 -i  Done                     04/24/2018 06:41:24
00013 suncat0115 pw.x -npool 4 -i  Done                     04/24/2018 06:41:24
00014 suncat0115 pw.x -npool 4 -i  Done                     04/24/2018 06:41:24
00015 suncat0115 pw.x -npool 4 -i  Done                     04/24/2018 06:41:24
00016 suncat0249 pw.x -npool 4 -i  Done                     04/24/2018 06:41:24
00017 suncat0249 pw.x -npool 4 -i  Done                     04/24/2018 06:41:24
00018 suncat0249 pw.x -npool 4 -i  Done                     04/24/2018 06:41:24
00019 suncat0249 pw.x -npool 4 -i  Done                     04/24/2018 06:41:24
00020 suncat0249 pw.x -npool 4 -i  Done                     04/24/2018 06:41:24
00021 suncat0249 pw.x -npool 4 -i  Done                     04/24/2018 06:41:24
00022 suncat0249 pw.x -npool 4 -i  Done                     04/24/2018 06:41:24
00023 suncat0249 pw.x -npool 4 -i  Done                     04/24/2018 06:41:24
00024 suncat0240 pw.x -npool 4 -i  Done                     04/24/2018 06:41:24
00025 suncat0240 pw.x -npool 4 -i  Done                     04/24/2018 06:41:24
00026 suncat0240 pw.x -npool 4 -i  Done                     04/24/2018 06:41:24
00027 suncat0240 pw.x -npool 4 -i  Done                     04/24/2018 06:41:24
00028 suncat0240 pw.x -npool 4 -i  Done                     04/24/2018 06:41:24
00029 suncat0240 pw.x -npool 4 -i  Done                     04/24/2018 06:41:24
00030 suncat0240 pw.x -npool 4 -i  Done                     04/24/2018 06:41:24
00031 suncat0240 pw.x -npool 4 -i  Done                     04/24/2018 06:41:24