     Program PWSCF v.5.1rc2 (svn rev. 11289) starts on 19Jan2018 at 12:48:34

     Current dimensions of program PWSCF are:
     Max number of different atomic species (ntypx) = 10
     Max number of k-points (npk) =  40000
     Max angular momentum in pseudopotentials (lmaxx) =  3
     Presently stress not available with electric field

     IMPORTANT: XC functional enforced from input :
     Exchange-correlation      = BEEF-VDW ( 1  4 27 13 2)
     Any further DFT definition will be discarded
     Please, verify this is what you really want

     Subspace diagonalization in iterative solution of the eigenvalue problem:
     a serial algorithm will be used

     bravais-lattice index     =            0
     lattice parameter (alat)  =       1.8897  a.u.
     unit-cell volume          =    6501.5726 (a.u.)^3
     number of atoms/cell      =           13
     number of atomic types    =            2
     number of electrons       =       162.00
     number of Kohn-Sham states=           91
     kinetic-energy cutoff     =      36.7493  Ry
     charge density cutoff     =     367.4932  Ry
     convergence threshold     =      1.0E-05
     mixing beta               =       0.3000
     number of iterations used =           10  plain     mixing
     Exchange-correlation      = BEEF-VDW ( 1  4 27 13 2)
     nstep                     =           50

     celldm(1)=   1.889726  celldm(2)=   0.000000  celldm(3)=   0.000000
     celldm(4)=   0.000000  celldm(5)=   0.000000  celldm(6)=   0.000000

     crystal axes: (cart. coord. in units of alat)
               a(1) = (   6.617606   0.000000   0.000000 )
               a(2) = (   3.308803   5.731015   0.000000 )
               a(3) = (   0.000000   0.000000  25.403253 )

     reciprocal axes: (cart. coord. in units 2 pi/alat)
               b(1) = (  0.151112 -0.087245  0.000000 )
               b(2) = (  0.000000  0.174489  0.000000 )
               b(3) = (  0.000000  0.000000  0.039365 )

     PseudoPot. # 1 for In read from file:
     /afs/slac.stanford.edu/u/if/mamunm/psp/gbrv1.5pbe/In.UPF
     MD5 check sum: 90777abd96fbb83f2e67db2a40c566b9
     Pseudo is Ultrasoft + core correction, Zval = 13.0
     Generated by new atomic code, or converted to UPF format
     Using radial grid of  889 points,  6 beta functions with:
                l(1) =   0
                l(2) =   0
                l(3) =   1
                l(4) =   1
                l(5) =   2
                l(6) =   2
     Q(r) pseudized with  6 coefficients,  rinner =    1.400   1.400   1.400
                                                       1.400   1.400

     PseudoPot. # 2 for S  read from file:
     /afs/slac.stanford.edu/u/if/mamunm/psp/gbrv1.5pbe/S.UPF
     MD5 check sum: 88d86576ff6df21479756cfb9bdac1df
     Pseudo is Ultrasoft + core correction, Zval =  6.0
     Generated by new atomic code, or converted to UPF format
     Using radial grid of  907 points,  6 beta functions with:
                l(1) =   0
                l(2) =   0
                l(3) =   1
                l(4) =   1
                l(5) =   2
                l(6) =   2
     Q(r) pseudized with  8 coefficients,  rinner =    1.300   1.300   1.300
                                                       1.300   1.300

     vdW kernel table read from file vdW_kernel_table
     MD5 check sum: 095c7af220d748ca6e76c0b4c6cfb241

     atomic species   valence    mass     pseudopotential
        In1           13.00   114.81800     In( 1.00)
        S1             6.00    32.06000     S ( 1.00)

     No symmetry found

   Cartesian axes

     site n.     atom                  positions (alat units)
         1           In1 tau(   1) = (   1.6544016   0.9551692  10.0000000  )
         2           In1 tau(   2) = (   4.9632047   0.9551692  10.0000000  )
         3           In1 tau(   3) = (   3.3088031   3.8206768  10.0000000  )
         4           In1 tau(   4) = (   6.6176063   3.8206768  10.0000000  )
         5           In1 tau(   5) = (   6.6176063   1.9103384  12.7016265  )
         6           In1 tau(   6) = (   3.3088031   1.9103384  12.7016265  )
         7           In1 tau(   7) = (   8.2720078   4.7758460  12.7016265  )
         8           In1 tau(   8) = (   4.9632047   4.7758460  12.7016265  )
         9           In1 tau(   9) = (   9.9263912   5.7310058  15.0107682  )
        10           In1 tau(  10) = (   6.6175873   5.7287074  16.1426383  )
        11           In1 tau(  11) = (   8.2699554   2.8666794  16.1428256  )
        12           In1 tau(  12) = (   4.9652057   2.8667006  16.1429562  )
        13           S1  tau(  13) = (   9.9263397   5.7310100  17.4379311  )

     number of k points=    20  Fermi-Dirac smearing, width (Ry)=  0.0110
                       cart. coord. in units 2pi/alat
        k(    1) = (   0.0000000   0.0000000   0.0000000), wk =   0.0555556
        k(    2) = (   0.0000000   0.0290815   0.0000000), wk =   0.1111111
        k(    3) = (   0.0000000   0.0581631   0.0000000), wk =   0.1111111
        k(    4) = (   0.0000000  -0.0872446   0.0000000), wk =   0.0555556
        k(    5) = (   0.0251853  -0.0145408   0.0000000), wk =   0.1111111
        k(    6) = (   0.0251853   0.0145408   0.0000000), wk =   0.1111111
        k(    7) = (   0.0251853   0.0436223   0.0000000), wk =   0.1111111
        k(    8) = (   0.0251853  -0.1017853   0.0000000), wk =   0.1111111
        k(    9) = (   0.0251853  -0.0727038   0.0000000), wk =   0.1111111
        k(   10) = (   0.0251853  -0.0436223   0.0000000), wk =   0.1111111
        k(   11) = (   0.0503707  -0.0290815   0.0000000), wk =   0.1111111
        k(   12) = (   0.0503707   0.0000000   0.0000000), wk =   0.1111111
        k(   13) = (   0.0503707   0.0290815   0.0000000), wk =   0.1111111
        k(   14) = (   0.0503707  -0.1163261   0.0000000), wk =   0.1111111
        k(   15) = (   0.0503707  -0.0872446   0.0000000), wk =   0.1111111
        k(   16) = (   0.0503707  -0.0581631   0.0000000), wk =   0.1111111
        k(   17) = (  -0.0755560   0.0436223   0.0000000), wk =   0.0555556
        k(   18) = (  -0.0755560   0.0727038   0.0000000), wk =   0.1111111
        k(   19) = (  -0.0755560   0.1017853   0.0000000), wk =   0.1111111
        k(   20) = (  -0.0755560  -0.0436223   0.0000000), wk =   0.0555556

     Largest allocated arrays     est. size (Mb)     dimensions
     Largest temporary arrays     est. size (Mb)     dimensions

     Initial potential from superposition of free atoms
     Check: negative starting charge=   -0.000157

     starting charge  143.99996, renormalised to  162.00000

     negative rho (up, down):  1.766E-04 0.000E+00

     *
     * You are using vdW-DF for exchange-correlation in this calculation.
     * Please cite the following three references that made this development
     * possible:
     *
     *   M. Dion, H. Rydberg, E. Schroder, D. C. Langreth, and
     *   B. I. Lundqvist, Phys. Rev. Lett. 92, 246401 (2004).
     *
     *   T. Thonhauser, V. R. Cooper, S. Li, A. Puzder, P. Hyldgaard, and
     *   D. C. Langreth, Phys. Rev. B 76, 125112 (2007).
     *
     *   G. Roman-Perez and J. M. Soler, Phys. Rev. Lett. 103, 096102 (2009).
     *
     *
     * If you are using vdW-DF2, please also cite:
     *
     *   K. Lee, E. D. Murray, L. Kong, B. I. Lundqvist, and
     *   D. C. Langreth, Phys. Rev. B 82, 081101(R) (2010).
     *
     *
     * If you are calculating the stress with vdW-DF, please also cite:
     *
     *   R. Sabatini, E. Kucukbenli, B. Kolb, T. Thonhauser, and
     *   S. de Gironcoli, J. Phys.: Condens. Matter 24, 424209 (2012).
     *

     Carrying out vdW-DF run using the following parameters:

     Nqs =      20    Nr_points =    1024   r_max =   100.000
     q_mesh =
               0.00001000     0.04494208     0.09755937     0.15916263
               0.23128650     0.31572767     0.41458969     0.53033537
               0.66584808     0.82450364     1.01025438     1.22772762
               1.48234092     1.78043706     2.12944203     2.53805004
               3.01644009     3.57652955     4.23227104     5.00000000

     Gradients computed in reciprocal space

     Adding external electric field

     Computed dipole along edir(3) :
        Dipole               -6.4967 Ry au,        -16.5130 Debye
        Dipole field         -0.0126 Ry au

        Potential amp.        1.1755 Ry
        Total length         46.8051 bohr

     Starting wfc are  112 randomized atomic wfcs

     Self-consistent Calculation

     iteration #  1     ecut=    36.75 Ry     beta=0.30
     Davidson diagonalization with overlap
     ethr =  1.00E-02,  avg # of iterations =  8.5

[...]

     total energy              =    -763.72740944 Ry
     Harris-Foulkes estimate   =   -1602.63489909 Ry
     estimated scf accuracy    <    1799.14486035 Ry

[...]

     iteration #  3     ecut=    36.75 Ry     beta=0.30
     Davidson diagonalization with overlap
     c_bands:  1 eigenvalues not converged
     c_bands:  1 eigenvalues not converged
     c_bands:  2 eigenvalues not converged
     c_bands:  3 eigenvalues not converged
     c_bands:  1 eigenvalues not converged
     c_bands:  3 eigenvalues not converged
     c_bands:  5 eigenvalues not converged
     c_bands:  1 eigenvalues not converged
     c_bands:  1 eigenvalues not converged
     c_bands:  3 eigenvalues not converged
     c_bands:  5 eigenvalues not converged
     c_bands:  5 eigenvalues not converged
     c_bands:  5 eigenvalues not converged
     c_bands:  2 eigenvalues not converged
     c_bands:  2 eigenvalues not converged
     ethr =  1.00E-02,  avg # of iterations = 20.2

[...]

     End of self-consistent calculation

          k = 0.0000 0.0000 0.0000 ( 24345 PWs)   bands (ev):

   -14.7648 -14.6616 -14.6616 -14.6281 -14.6165 -14.6164 -14.6069 -14.6069
   -14.5998 -14.5549 -14.5549 -14.5497 -14.5331 -14.5264 -14.5264 -14.5186
   -14.5075 -14.5018 -14.4956 -14.4956 -14.4841 -14.4771 -14.4771 -14.4543
   -14.4543 -14.4447 -14.4447 -14.4273 -14.4273 -14.4224 -14.4110 -14.3894
   -14.3761 -14.3761 -14.3667 -14.3667 -14.3617 -14.3617 -14.3061 -14.3061
   -14.2805 -14.2805 -14.2481 -14.2335 -14.2335 -14.2324 -14.2305 -14.2070
   -14.2070 -14.1957 -14.1957 -14.1829 -14.1713 -14.1713 -14.1707 -14.1454
   -14.1454 -14.1292 -14.1236 -14.1236 -11.2351  -8.4533  -6.8755  -5.5098
    -4.0715  -3.7407  -3.7407  -3.6012  -3.0832  -3.0831  -2.8432  -2.4490
    -2.4490  -2.3483  -2.3482  -1.8716  -1.6154  -1.2349  -1.2349  -1.0825
    -0.7084  -0.5658  -0.5657   0.7739   0.8782   0.8783   1.4916   2.9235
     2.9879   2.9879   3.1277

[...]

          k =-0.0756 0.0436 0.0000 ( 24448 PWs)   bands (ev):

[...]

     the Fermi energy is     0.5662 ev

!    total energy              =   -1641.71228948 Ry
     Harris-Foulkes estimate   =   -1641.71226296 Ry
     estimated scf accuracy    <       0.00000477 Ry

     The total energy is the sum of the following terms:

     one-electron contribution =   -8811.81145959 Ry
     hartree contribution      =    4486.99018769 Ry
     xc contribution           =    -478.13314639 Ry
     ewald contribution        =    3161.28074300 Ry
     electric field correction =       0.00028599 Ry
[...]
00030 suncat0212 pw.x -in pw.inp   Done                     01/19/2018 13:24:37
00031 suncat0212 pw.x -in pw.inp   Done                     01/19/2018 13:24:37

[...]

     Total force =     0.042599     Total SCF correction =     0.002197

[...]

   This run was terminated on:  13:59:44  19Jan2018

[...]

     Program PWSCF v.5.1rc2 (svn rev. 11289) starts on 19Jan2018 at 13:59:50

     Current dimensions of program PWSCF are:
     Max number of different atomic species (ntypx) = 10
     Max number of k-points (npk) =  40000
     Max angular momentum in pseudopotentials (lmaxx) =  3
     Presently stress not available with electric field

     IMPORTANT: XC functional enforced from input :
     Exchange-correlation      = BEEF-VDW ( 1  4 27 13 2)
     Any further DFT definition will be discarded
     Please, verify this is what you really want

     Subspace diagonalization in iterative solution of the eigenvalue problem:
     a serial algorithm will be used

     bravais-lattice index     =            0
     lattice parameter (alat)  =       1.8897  a.u.
     unit-cell volume          =    6501.5726 (a.u.)^3
     number of atoms/cell      =           13
     number of atomic types    =            2
     number of electrons       =       162.00
     number of Kohn-Sham states=           91
     kinetic-energy cutoff     =      36.7493  Ry
     charge density cutoff     =     367.4932  Ry
     convergence threshold     =      1.0E-05
     mixing beta               =       0.3000
     number of iterations used =           10  plain     mixing
     Exchange-correlation      = BEEF-VDW ( 1  4 27 13 2)
     nstep                     =           50

     celldm(1)=   1.889726  celldm(2)=   0.000000  celldm(3)=   0.000000
     celldm(4)=   0.000000  celldm(5)=   0.000000  celldm(6)=   0.000000

     crystal axes: (cart. coord. in units of alat)
               a(1) = (   6.617606   0.000000   0.000000 )
               a(2) = (   3.308803   5.731015   0.000000 )
               a(3) = (   0.000000   0.000000  25.403253 )

     reciprocal axes: (cart. coord. in units 2 pi/alat)
               b(1) = (  0.151112 -0.087245  0.000000 )
               b(2) = (  0.000000  0.174489  0.000000 )
               b(3) = (  0.000000  0.000000  0.039365 )

     PseudoPot. # 1 for In read from file:
     /afs/slac.stanford.edu/u/if/mamunm/psp/gbrv1.5pbe/In.UPF
     MD5 check sum: 90777abd96fbb83f2e67db2a40c566b9
     Pseudo is Ultrasoft + core correction, Zval = 13.0
     Generated by new atomic code, or converted to UPF format
     Using radial grid of  889 points,  6 beta functions with:
                l(1) =   0
                l(2) =   0
                l(3) =   1
                l(4) =   1
                l(5) =   2
                l(6) =   2
     Q(r) pseudized with  6 coefficients,  rinner =    1.400   1.400   1.400
                                                       1.400   1.400

     PseudoPot. # 2 for S  read from file:
     /afs/slac.stanford.edu/u/if/mamunm/psp/gbrv1.5pbe/S.UPF
     MD5 check sum: 88d86576ff6df21479756cfb9bdac1df
     Pseudo is Ultrasoft + core correction, Zval =  6.0
     Generated by new atomic code, or converted to UPF format
     Using radial grid of  907 points,  6 beta functions with:
                l(1) =   0
                l(2) =   0
                l(3) =   1
                l(4) =   1
                l(5) =   2
                l(6) =   2
     Q(r) pseudized with  8 coefficients,  rinner =    1.300   1.300   1.300
                                                       1.300   1.300

     vdW kernel table read from file vdW_kernel_table
     MD5 check sum: 095c7af220d748ca6e76c0b4c6cfb241

     atomic species   valence    mass     pseudopotential
        In1           13.00   114.81800     In( 1.00)
        S1             6.00    32.06000     S ( 1.00)

     No symmetry found

   Cartesian axes

     site n.     atom                  positions (alat units)
         1           In1 tau(   1) = (   1.6544016   0.9551692  10.0000000  )
         2           In1 tau(   2) = (   4.9632047   0.9551692  10.0000000  )
         3           In1 tau(   3) = (   3.3088031   3.8206768  10.0000000  )
         4           In1 tau(   4) = (   6.6176063   3.8206768  10.0000000  )
         5           In1 tau(   5) = (   6.6176063   1.9103384  12.7016265  )
         6           In1 tau(   6) = (   3.3088031   1.9103384  12.7016265  )
         7           In1 tau(   7) = (   8.2720078   4.7758460  12.7016265  )
         8           In1 tau(   8) = (   4.9632047   4.7758460  12.7016265  )
         9           In1 tau(   9) = (   9.9263887   5.7309905  15.0157304  )
        10           In1 tau(  10) = (   6.6176043   5.7289286  16.1418565  )
        11           In1 tau(  11) = (   8.2701447   2.8665810  16.1420636  )
        12           In1 tau(  12) = (   4.9650385   2.8665859  16.1421899  )
        13           S1  tau(  13) = (   9.9263483   5.7310128  17.4352091  )

     number of k points=    20  Fermi-Dirac smearing, width (Ry)=  0.0110
                       cart. coord. in units 2pi/alat
        k(    1) = (   0.0000000   0.0000000   0.0000000), wk =   0.0555556
        k(    2) = (   0.0000000   0.0290815   0.0000000), wk =   0.1111111
        k(    3) = (   0.0000000   0.0581631   0.0000000), wk =   0.1111111
        k(    4) = (   0.0000000  -0.0872446   0.0000000), wk =   0.0555556
        k(    5) = (   0.0251853  -0.0145408   0.0000000), wk =   0.1111111
        k(    6) = (   0.0251853   0.0145408   0.0000000), wk =   0.1111111
        k(    7) = (   0.0251853   0.0436223   0.0000000), wk =   0.1111111
        k(    8) = (   0.0251853  -0.1017853   0.0000000), wk =   0.1111111
        k(    9) = (   0.0251853  -0.0727038   0.0000000), wk =   0.1111111
        k(   10) = (   0.0251853  -0.0436223   0.0000000), wk =   0.1111111
        k(   11) = (   0.0503707  -0.0290815   0.0000000), wk =   0.1111111
        k(   12) = (   0.0503707   0.0000000   0.0000000), wk =   0.1111111
        k(   13) = (   0.0503707   0.0290815   0.0000000), wk =   0.1111111
        k(   14) = (   0.0503707  -0.1163261   0.0000000), wk =   0.1111111
        k(   15) = (   0.0503707  -0.0872446   0.0000000), wk =   0.1111111
        k(   16) = (   0.0503707  -0.0581631   0.0000000), wk =   0.1111111
        k(   17) = (  -0.0755560   0.0436223   0.0000000), wk =   0.0555556
        k(   18) = (  -0.0755560   0.0727038   0.0000000), wk =   0.1111111
        k(   19) = (  -0.0755560   0.1017853   0.0000000), wk =   0.1111111
        k(   20) = (  -0.0755560  -0.0436223   0.0000000), wk =   0.0555556

     Largest allocated arrays     est. size (Mb)     dimensions
     Largest temporary arrays     est. size (Mb)     dimensions

     Initial potential from superposition of free atoms
     Check: negative starting charge=   -0.000157

     starting charge  143.99996, renormalised to  162.00000

[...]

     *
     * You are using vdW-DF for exchange-correlation in this calculation.
     * Please cite the following three references that made this development
     * possible:
     *
     *   M. Dion, H. Rydberg, E. Schroder, D. C. Langreth, and
     *   B. I. Lundqvist, Phys. Rev. Lett. 92, 246401 (2004).
     *
     *   T. Thonhauser, V. R. Cooper, S. Li, A. Puzder, P. Hyldgaard, and
     *   D. C. Langreth, Phys. Rev. B 76, 125112 (2007).
     *
     *   G. Roman-Perez and J. M. Soler, Phys. Rev. Lett. 103, 096102 (2009).
     *
     *
     * If you are using vdW-DF2, please also cite:
     *
     *   K. Lee, E. D. Murray, L. Kong, B. I. Lundqvist, and
     *   D. C. Langreth, Phys. Rev. B 82, 081101(R) (2010).
     *
     *
     * If you are calculating the stress with vdW-DF, please also cite:
     *
     *   R. Sabatini, E. Kucukbenli, B. Kolb, T. Thonhauser, and
     *   S. de Gironcoli, J. Phys.: Condens. Matter 24, 424209 (2012).
     *

     Carrying out vdW-DF run using the following parameters:

     Nqs =      20    Nr_points =    1024   r_max =   100.000
     q_mesh =
               0.00001000     0.04494208     0.09755937     0.15916263
               0.23128650     0.31572767     0.41458969     0.53033537
               0.66584808     0.82450364     1.01025438     1.22772762
               1.48234092     1.78043706     2.12944203     2.53805004
               3.01644009     3.57652955     4.23227104     5.00000000

     Gradients computed in reciprocal space

[...]

     Starting wfc are  112 randomized atomic wfcs

     Self-consistent Calculation

[...]

     iteration #  4     ecut=    36.75 Ry     beta=0.30
     Davidson diagonalization with overlap
     c_bands:  1 eigenvalues not converged
     c_bands:  1 eigenvalues not converged
     ethr =  1.00E-02,  avg # of iterations = 18.7

[...]

     total energy              =   -1641.71230362 Ry
     Harris-Foulkes estimate   =   -1641.71234724 Ry
     estimated scf accuracy    <       0.00020773 Ry

     iteration # 32     ecut=    36.75 Ry     beta=0.30
     Davidson diagonalization with overlap
     ethr =  1.28E-07,  avg # of iterations =  3.1

[...]

     negative rho (up, down):  1.038E-03 0.000E+00

     Adding external electric field

     Computed dipole along edir(3) :
        Dipole               -0.3934 Ry au,         -1.0000 Debye
        Dipole field         -0.0008 Ry au

        Potential amp.        0.0712 Ry
        Total length         46.8051 bohr

     End of self-consistent calculation

[...]

          k = 0.0504-0.0582 0.0000 ( 24479 PWs)   bands (ev):

[...]

          k =-0.0756-0.0436 0.0000 ( 24448 PWs)   bands (ev):

   -14.7338 -14.6516 -14.6248 -14.5939 -14.5921 -14.5563 -14.5557 -14.5380
   -14.5112 -14.4992 -14.4959 -14.4904 -14.4862 -14.4833 -14.4803 -14.4736
   -14.4631 -14.4593 -14.4570 -14.4537 -14.4426 -14.4387 -14.4367 -14.4348
   -14.4300 -14.4246 -14.4214 -14.4078 -14.4057 -14.3998 -14.3949 -14.3909
   -14.3866 -14.3787 -14.3704 -14.3681 -14.3596 -14.3570 -14.3421 -14.3198
   -14.3197 -14.3150 -14.3064 -14.3019 -14.2912 -14.2881 -14.2852 -14.2777
   -14.2750 -14.2659 -14.2585 -14.2441 -14.2437 -14.2344 -14.2156 -14.2045
   -14.1942 -14.1656 -14.1536 -14.1384 -11.2287  -7.3432  -7.1040  -5.8561
    -5.8383  -4.7385  -4.6663  -4.4712  -4.2812  -3.6527  -3.5786  -2.3502
    -2.2761  -1.1661  -1.0841  -0.8197  -0.3780   0.1913   0.2591   0.3261
     0.7495   0.8026   1.2422   1.3321   1.7338   1.8839   2.1921   2.4681
     2.8504   2.9752   2.9845

     the Fermi energy is     0.5689 ev

!    total energy              =   -1641.71231052 Ry
     Harris-Foulkes estimate   =   -1641.71228637 Ry
     estimated scf accuracy    <       0.00000558 Ry

     The total energy is the sum of the following terms:

     one-electron contribution =   -8812.00779149 Ry
     hartree contribution      =    4487.10856965 Ry
     xc contribution           =    -478.13580035 Ry
     ewald contribution        =    3161.36130989 Ry
     electric field correction =       0.00029917 Ry
     smearing contrib. (-TS)   =      -0.03889739 Ry

     convergence has been achieved in  32 iterations

 BEEF-vdW xc energy contributions
           1 :   -418.588302745284
           2 :    382.149727373137
           3 :   -320.684254067978
           4 :    251.567567346188
           5 :   -190.631061505957
           6 :    146.407139902803
           7 :   -118.538434844101
           8 :    100.479943605301
           9 :   -84.4994884986511
          10 :    66.0496804680413
          11 :   -45.3608613089098
          12 :    25.9604001386273
          13 :   -11.6024099630206
          14 :    3.72555269335737
          15 :  -0.848414800832245
          16 :  -0.128087156836159
          17 :    1.88596725288210
          18 :   -5.31589792052364
          19 :    9.50759848923610
          20 :   -12.8273169311065
          21 :    14.1812445158405
          22 :   -13.6358942399135
          23 :    12.1490760842294
          24 :   -10.7969083019712
          25 :    10.1227019817640
          26 :   -10.0053398801852
          27 :    9.99130410028397
          28 :   -9.72940651299990
          29 :    9.16977387413419
          30 :   -8.45747954964992
          31 :   -38.1996782890527
          32 :   -27.6468005739072

     Forces acting on atoms (Ry/au):

     negative rho (up, down):  1.038E-03 0.000E+00
     atom    1 type  1   force =    -0.00123142   -0.00071392   -0.01012330
     atom    2 type  1   force =     0.00121625   -0.00070756   -0.01014147
     atom    3 type  1   force =    -0.00000366    0.00139770   -0.01015628
     atom    4 type  1   force =     0.00000769   -0.00001104   -0.01144472
     atom    5 type  1   force =     0.00000445    0.01797041    0.00782666
     atom    6 type  1   force =    -0.00000216    0.00000316    0.01848272
     atom    7 type  1   force =    -0.01554364   -0.00897259    0.00781543
     atom    8 type  1   force =     0.01556782   -0.00897949    0.00782476
     atom    9 type  1   force =    -0.00000695    0.00000750    0.00024696
     atom   10 type  1   force =    -0.00000435    0.00004901   -0.00053767
     atom   11 type  1   force =     0.00004662   -0.00002551   -0.00053042
     atom   12 type  1   force =    -0.00004556   -0.00002000   -0.00052851
     atom   13 type  2   force =    -0.00000508    0.00000233    0.00126586

     Total force =     0.044059     Total SCF correction =     0.012036
     SCF correction compared to forces is large: reduce conv_thr to get better values

     entering subroutine stress ...

     negative rho (up, down):  1.038E-03 0.000E+00
          total   stress  (Ry/bohr**3)                   (kbar)     P=    5.80
   0.00004617   0.00000000   0.00000000          6.79      0.00      0.00
   0.00000000   0.00004617   0.00000000          0.00      6.79      0.00
   0.00000000   0.00000000   0.00002604          0.00      0.00      3.83

 !ASE

     Writing output data file calc.save

     General routines

     Parallel routines

   This run was terminated on:  14:35: 0  19Jan2018

   JOB DONE.
Job  /afs/slac/g/suncat/bin/suncat-tsmpirun -x LD_LIBRARY_PATH -wdir /scratch/qe505014_ZOaHj pw.x -in pw.inp

TID   HOST_NAME   COMMAND_LINE            STATUS            TERMINATION_TIME
00000 suncat0110 pw.x -in pw.inp   Done                     01/19/2018 14:35:00
00001 suncat0110 pw.x -in pw.inp   Done                     01/19/2018 14:35:00
00002 suncat0110 pw.x -in pw.inp   Done                     01/19/2018 14:35:00
00003 suncat0110 pw.x -in pw.inp   Done                     01/19/2018 14:35:00
00004 suncat0110 pw.x -in pw.inp   Done                     01/19/2018 14:35:00
00005 suncat0110 pw.x -in pw.inp   Done                     01/19/2018 14:35:00
00006 suncat0110 pw.x -in pw.inp   Done                     01/19/2018 14:35:00
00007 suncat0110 pw.x -in pw.inp   Done                     01/19/2018 14:35:00
00008 suncat0109 pw.x -in pw.inp   Done                     01/19/2018 14:35:00
00009 suncat0109 pw.x -in pw.inp   Done                     01/19/2018 14:35:00
00010 suncat0109 pw.x -in pw.inp   Done                     01/19/2018 14:35:00
00011 suncat0109 pw.x -in pw.inp   Done                     01/19/2018 14:35:00
00012 suncat0109 pw.x -in pw.inp   Done                     01/19/2018 14:35:00
00013 suncat0109 pw.x -in pw.inp   Done                     01/19/2018 14:35:00
00014 suncat0109 pw.x -in pw.inp   Done                     01/19/2018 14:35:00
00015 suncat0109 pw.x -in pw.inp   Done                     01/19/2018 14:35:00
00016 suncat0238 pw.x -in pw.inp   Done                     01/19/2018 14:35:00
00017 suncat0238 pw.x -in pw.inp   Done                     01/19/2018 14:35:00
00018 suncat0238 pw.x -in pw.inp   Done                     01/19/2018 14:35:00
00019 suncat0238 pw.x -in pw.inp   Done                     01/19/2018 14:35:00
00020 suncat0238 pw.x -in pw.inp   Done                     01/19/2018 14:35:00
00021 suncat0238 pw.x -in pw.inp   Done                     01/19/2018 14:35:00
00022 suncat0238 pw.x -in pw.inp   Done                     01/19/2018 14:35:00
00023 suncat0238 pw.x -in pw.inp   Done                     01/19/2018 14:35:00
00024 suncat0212 pw.x -in pw.inp   Done                     01/19/2018 14:35:00
00025 suncat0212 pw.x -in pw.inp   Done                     01/19/2018 14:35:00
00026 suncat0212 pw.x -in pw.inp   Done                     01/19/2018 14:35:00
00027 suncat0212 pw.x -in pw.inp   Done                     01/19/2018 14:35:00
00028 suncat0212 pw.x -in pw.inp   Done                     01/19/2018 14:35:00
00029 suncat0212 pw.x -in pw.inp   Done                     01/19/2018 14:35:00
00030 suncat0212 pw.x -in pw.inp   Done                     01/19/2018 14:35:00
00031 suncat0212 pw.x -in pw.inp   Done                     01/19/2018 14:35:00