     Program PWSCF v.5.1rc2 (svn rev. 11289) starts on  4May2018 at 10:38: 2

     Current dimensions of program PWSCF are:
     Max number of different atomic species (ntypx) = 10
     Max number of k-points (npk) =  40000
     Max angular momentum in pseudopotentials (lmaxx) =  3
     Presently stress not available with electric field

     IMPORTANT: XC functional enforced from input :
     Exchange-correlation      = BEEF-VDW ( 1  4 27 13 2)
     Any further DFT definition will be discarded
     Please, verify this is what you really want

     Subspace diagonalization in iterative solution of the eigenvalue problem:
     a serial algorithm will be used

     bravais-lattice index     =            0
     lattice parameter (alat)  =       1.8897  a.u.
     unit-cell volume          =    5174.6160 (a.u.)^3
     number of atoms/cell      =           13
     number of atomic types    =            2
     number of electrons       =       233.00
     number of Kohn-Sham states=          126
     kinetic-energy cutoff     =      36.7493  Ry
     charge density cutoff     =     367.4932  Ry
     convergence threshold     =      1.0E-05
     mixing beta               =       0.3000
     number of iterations used =           10  plain     mixing
     Exchange-correlation      = BEEF-VDW ( 1  4 27 13 2)
     nstep                     =           50

     celldm(1)=   1.889726  celldm(2)=   0.000000  celldm(3)=   0.000000
     celldm(4)=   0.000000  celldm(5)=   0.000000  celldm(6)=   0.000000

     crystal axes: (cart. coord. in units of alat)
               a(1) = (   5.966546   0.000000   0.000000 )
               a(2) = (   2.983273   5.167181   0.000000 )
               a(3) = (   0.000000   0.000000  24.871665 )

     reciprocal axes: (cart. coord. in units 2 pi/alat)
               b(1) = (  0.167601 -0.096765  0.000000 )
               b(2) = (  0.000000  0.193529  0.000000 )
               b(3) = (  0.000000  0.000000  0.040206 )

     PseudoPot. # 1 for Ag read from file:
     /u/if/mamunm/psp/gbrv1.5pbe/Ag.UPF
     MD5 check sum: d66d668201baa78d5eb5b04ef7011058
     Pseudo is Ultrasoft + core correction, Zval = 19.0
     Generated by new atomic code, or converted to UPF format
     Using radial grid of  887 points,  6 beta functions with:
                l(1) =   0
                l(2) =   0
                l(3) =   1
                l(4) =   1
                l(5) =   2
                l(6) =   2
     Q(r) pseudized with  6 coefficients,  rinner =    1.300   1.300   1.300
                                                       1.300   1.300

     PseudoPot. # 2 for N  read from file:
     /u/if/mamunm/psp/gbrv1.5pbe/N.UPF
     MD5 check sum: 95339753478d7afb44899504a8723017
     Pseudo is Ultrasoft + core correction, Zval =  5.0
     Generated by new atomic code, or converted to UPF format
     Using radial grid of  729 points,  4 beta functions with:
                l(1) =   0
                l(2) =   0
                l(3) =   1
                l(4) =   1
     Q(r) pseudized with  8 coefficients,  rinner =    0.900   0.900   0.900

     vdW kernel table read from file vdW_kernel_table
     MD5 check sum: 095c7af220d748ca6e76c0b4c6cfb241

     atomic species   valence    mass     pseudopotential
        Ag1           19.00   107.86820     Ag( 1.00)
        N1             5.00    14.00700     N ( 1.00)

     No symmetry found

   Cartesian axes

     site n.     atom                  positions (alat units)
         1           Ag1 tau(   1) = (   1.4916366   0.8611968  10.0000000  )
         2           Ag1 tau(   2) = (   4.4749098   0.8611968  10.0000000  )
         3           Ag1 tau(   3) = (   2.9832732   3.4447871  10.0000000  )
         4           Ag1 tau(   4) = (   5.9665464   3.4447871  10.0000000  )
         5           Ag1 tau(   5) = (   5.9665464   1.7223936  12.4358324  )
         6           Ag1 tau(   6) = (   2.9832732   1.7223936  12.4358324  )
         7           Ag1 tau(   7) = (   7.4581830   4.3059839  12.4358324  )
         8           Ag1 tau(   8) = (   4.4749098   4.3059839  12.4358324  )
         9           Ag1 tau(   9) = (   0.0000000   0.0000000  14.8716647  )
        10           Ag1 tau(  10) = (   2.9832732   0.0000000  14.8716647  )
        11           Ag1 tau(  11) = (   1.4916366   2.5835904  14.8716647  )
        12           Ag1 tau(  12) = (   4.4749098   2.5835904  14.8716647  )
        13           N1  tau(  13) = (   0.0000000   0.0000000  16.7076647  )

     number of k points=    20  Fermi-Dirac smearing, width (Ry)=  0.0110
                       cart. coord. in units 2pi/alat
        k(    1) = (   0.0000000   0.0000000   0.0000000), wk =   0.0555556
        k(    2) = (   0.0000000   0.0322549   0.0000000), wk =   0.1111111
        k(    3) = (   0.0000000   0.0645097   0.0000000), wk =   0.1111111
        k(    4) = (   0.0000000  -0.0967646   0.0000000), wk =   0.0555556
        k(    5) = (   0.0279335  -0.0161274   0.0000000), wk =   0.1111111
        k(    6) = (   0.0279335   0.0161274   0.0000000), wk =   0.1111111
        k(    7) = (   0.0279335   0.0483823   0.0000000), wk =   0.1111111
        k(    8) = (   0.0279335  -0.1128920   0.0000000), wk =   0.1111111
        k(    9) = (   0.0279335  -0.0806371   0.0000000), wk =   0.1111111
        k(   10) = (   0.0279335  -0.0483823   0.0000000), wk =   0.1111111
        k(   11) = (   0.0558670  -0.0322549   0.0000000), wk =   0.1111111
        k(   12) = (   0.0558670   0.0000000   0.0000000), wk =   0.1111111
        k(   13) = (   0.0558670   0.0322549   0.0000000), wk =   0.1111111
        k(   14) = (   0.0558670  -0.1290194   0.0000000), wk =   0.1111111
        k(   15) = (   0.0558670  -0.0967646   0.0000000), wk =   0.1111111
        k(   16) = (   0.0558670  -0.0645097   0.0000000), wk =   0.1111111
        k(   17) = (  -0.0838006   0.0483823   0.0000000), wk =   0.0555556
        k(   18) = (  -0.0838006   0.0806371   0.0000000), wk =   0.1111111
        k(   19) = (  -0.0838006   0.1128920   0.0000000), wk =   0.1111111
        k(   20) = (  -0.0838006  -0.0483823   0.0000000), wk =   0.0555556

     Largest allocated arrays     est. size (Mb)     dimensions
     Largest temporary arrays     est. size (Mb)     dimensions

     Initial potential from superposition of free atoms
     Check: negative starting charge=   -0.002184

     starting charge  226.99942, renormalised to  233.00000

     negative rho (up, down):  2.242E-03 0.000E+00

     *
     * You are using vdW-DF for exchange-correlation in this calculation.
     * Please cite the following three references that made this development
     * possible:
     *
     *   M. Dion, H. Rydberg, E. Schroder, D. C. Langreth, and
     *   B. I. Lundqvist, Phys. Rev. Lett. 92, 246401 (2004).
     *
     *   T. Thonhauser, V. R. Cooper, S. Li, A. Puzder, P. Hyldgaard, and
     *   D. C. Langreth, Phys. Rev. B 76, 125112 (2007).
     *
     *   G. Roman-Perez and J. M. Soler, Phys. Rev. Lett. 103, 096102 (2009).
     *
     *
     * If you are using vdW-DF2, please also cite:
     *
     *   K. Lee, E. D. Murray, L. Kong, B. I. Lundqvist, and
     *   D. C. Langreth, Phys. Rev. B 82, 081101(R) (2010).
     *
     *
     * If you are calculating the stress with vdW-DF, please also cite:
     *
     *   R. Sabatini, E. Kucukbenli, B. Kolb, T. Thonhauser, and
     *   S. de Gironcoli, J. Phys.: Condens. Matter 24, 424209 (2012).
     *

     Carrying out vdW-DF run using the following parameters:

     Nqs =      20    Nr_points =    1024   r_max =   100.000
     q_mesh =
               0.00001000     0.04494208     0.09755937     0.15916263
               0.23128650     0.31572767     0.41458969     0.53033537
               0.66584808     0.82450364     1.01025438     1.22772762
               1.48234092     1.78043706     2.12944203     2.53805004
               3.01644009     3.57652955     4.23227104     5.00000000

     Gradients computed in reciprocal space

     Adding external electric field

     Computed dipole along edir(3) :
        Dipole               -1.0669 Ry au,         -2.7118 Debye
        Dipole field         -0.0026 Ry au

        Potential amp.        0.2375 Ry
        Total length         45.8256 bohr

     Starting wfc are  160 randomized atomic wfcs

     Self-consistent Calculation

     iteration #  1     ecut=    36.75 Ry     beta=0.30
     Davidson diagonalization with overlap
     ethr =  1.00E-02,  avg # of iterations =  5.2

[...]

     total energy              =   -3571.18954241 Ry
     Harris-Foulkes estimate   =   -3583.39468520 Ry
     estimated scf accuracy    <      26.36525110 Ry

[...]

     End of self-consistent calculation

          k = 0.0000 0.0000 0.0000 ( 19435 PWs)   bands (ev):

   -92.2035 -91.3662 -91.3602 -91.3602 -91.3517 -91.1744 -91.1638 -91.1595
   -91.1595 -91.0902 -91.0849 -91.0849 -55.9318 -55.5436 -55.5436 -54.9030
   -54.8987 -54.8987 -54.8641 -54.8533 -54.8533 -54.8513 -54.8403 -54.8368
   -54.8368 -54.8164 -54.8164 -54.7133 -54.7133 -54.7081 -54.6640 -54.6531
   -54.6531 -54.6527 -54.6500 -54.6387 -54.6340 -54.6340 -54.6307 -54.6307
   -54.6129 -54.6129 -54.5724 -54.5724 -54.5638 -54.5602 -54.5580 -54.5580
   -12.3922  -5.7867  -5.3258  -5.1958  -5.1958  -5.0914  -5.0706  -5.0706
    -5.0007  -5.0007  -5.0004  -4.9410  -4.8555  -4.7740  -4.7740  -4.7152
    -4.5364  -4.5364  -4.2241  -4.0778  -4.0504  -4.0504  -3.9612  -3.9240
    -3.9240  -3.8398  -3.8398  -3.7610  -3.7610  -3.7055  -3.6931  -3.6931
    -3.6207  -3.3546  -3.3546  -3.1443  -3.1443  -3.1047  -3.0904  -3.0904
    -3.0246  -2.9210  -2.9210  -2.8619  -2.8088  -2.8088  -2.6661  -2.6527
    -2.6527  -2.5781  -2.5538  -2.5538  -2.5109  -2.5109  -2.4559  -2.4559
    -2.4405  -2.3943  -2.3943  -2.2653  -2.2653  -2.2637  -2.2110  -0.5674
     0.0339   0.0339   0.8113   1.1738   1.3248   1.3248   1.9370   2.0220
     2.1171   2.1171   2.3547   2.8440   2.8440   4.4002

[...]

          k =-0.0838 0.0484 0.0000 ( 19500 PWs)   bands (ev):

[...]

     the Fermi energy is     0.6847 ev

!    total energy              =   -3579.79235056 Ry
     Harris-Foulkes estimate   =   -3579.79234671 Ry
     estimated scf accuracy    <       0.00000012 Ry

     The total energy is the sum of the following terms:

     one-electron contribution =  -26066.03790728 Ry
     hartree contribution      =   13021.48152293 Ry
     xc contribution           =    -366.19065694 Ry
     ewald contribution        =    9830.98637418 Ry
     electric field correction =       0.00078579 Ry
     smearing contrib. (-TS)   =      -0.03246923 Ry

     convergence has been achieved in  16 iterations

 BEEF-vdW xc energy contributions
           1 :   -317.217350653660
           2 :    287.043875421009
           3 :   -236.796332498366
           4 :    181.707877465347
           5 :   -135.509280019863
           6 :    105.515850640184
           7 :   -91.3397675783725
           8 :    87.1303579440582
           9 :   -85.6538907820094
          10 :    81.9188460387625
          11 :   -74.7132990208473
          12 :    65.7887284097561
          13 :   -57.7332953029794
          14 :    52.0632692951502
          15 :   -48.5817501891693
          16 :    46.0262942799199
          17 :   -43.2349622958658
          18 :    39.9196241458404
          19 :   -36.6176757591692
          20 :    34.0399789315347
          21 :   -32.4108391557971
          22 :    31.2871371037294
          23 :   -29.9295133153580
          24 :    27.8890041166404
          25 :   -25.3532216538819
          26 :    23.0072776234462
          27 :   -21.5375877285058
          28 :    21.1485941769763
          29 :   -21.4320159401473
          30 :    21.6605218865521
          31 :   -31.7235005468117
          32 :   -23.0434569972814

     Forces acting on atoms (Ry/au):

     negative rho (up, down):  2.285E-03 0.000E+00
     atom    1 type  1   force =    -0.00055565   -0.00032068   -0.00061694
     atom    2 type  1   force =     0.00055560   -0.00032075   -0.00061709
     atom    3 type  1   force =    -0.00000004    0.00064151   -0.00061710
     atom    4 type  1   force =     0.00000009   -0.00000004   -0.00004299
     atom    5 type  1   force =     0.00000012   -0.00108293    0.00051603
     atom    6 type  1   force =    -0.00000014   -0.00000004    0.00058200
     atom    7 type  1   force =     0.00093792    0.00054146    0.00051619
     atom    8 type  1   force =    -0.00093774    0.00054157    0.00051601
     atom    9 type  1   force =     0.00000001    0.00000001   -0.08089470
     atom   10 type  1   force =    -0.00000009   -0.00036945    0.00347659
     atom   11 type  1   force =    -0.00031991    0.00018464    0.00347668
     atom   12 type  1   force =     0.00031990    0.00018472    0.00347635
     atom   13 type  2   force =    -0.00000008   -0.00000002    0.07022898

     Total force =     0.107297     Total SCF correction =     0.000512

     entering subroutine stress ...

     negative rho (up, down):  2.285E-03 0.000E+00
          total   stress  (Ry/bohr**3)                   (kbar)     P=   -5.15
  -0.00006629  -0.00000000  -0.00000000         -9.75     -0.00     -0.00
  -0.00000000  -0.00006629  -0.00000000         -0.00     -9.75     -0.00
  -0.00000000  -0.00000000   0.00002756         -0.00     -0.00      4.05

     BFGS Geometry Optimization

     number of scf cycles    =   1
     number of bfgs steps    =   0

     energy   new            =   -3579.7923505581 Ry

     new trust radius        =       0.0808947049 bohr
     new conv_thr            =       0.0000099958 Ry

ATOMIC_POSITIONS (crystal)
Ag1      0.166666667   0.166666667   0.402063960    0   0   0
Ag1      0.666666667   0.166666667   0.402063960    0   0   0
Ag1      0.166666667   0.666666667   0.402063960    0   0   0
Ag1      0.666666667   0.666666667   0.402063960    0   0   0
Ag1      0.833333333   0.333333333   0.500000000    0   0   0
Ag1      0.333333333   0.333333333   0.500000000    0   0   0
Ag1      0.833333333   0.833333333   0.500000000    0   0   0
Ag1      0.333333333   0.833333333   0.500000000    0   0   0
Ag1      0.000000000   0.000000001   0.596214899
Ag1      0.500018910  -0.000037836   0.598010009
Ag1     -0.000037828   0.500018909   0.598010011
Ag1      0.500018914   0.500018917   0.598010004
N1      -0.000000006  -0.000000002   0.673249197

     Writing output data file calc.save
     Check: negative starting charge=   -0.002184
     NEW-OLD atomic charge density approx. for the potential
     Check: negative starting charge=   -0.002173

[...]

     Total force =     0.027831     Total SCF correction =     0.011082
     SCF correction compared to forces is large: reduce conv_thr to get better values

[...]

     energy   old            =   -3579.7923505581 Ry
     energy   new            =   -3579.7992082160 Ry

     CASE: energy  _new < energy  _old

[...]

     Threshold (ethr) on eigenvalues was too large:
     Diagonalizing with lowered threshold

     Davidson diagonalization with overlap
     ethr =  8.54E-08,  avg # of iterations =  1.0

[...]

     Total force =     0.011614     Total SCF correction =     0.000350

[...]

     number of scf cycles    =   9
     number of bfgs steps    =   8

     energy   old            =   -3579.8013643600 Ry
     energy   new            =   -3579.8014655869 Ry

     CASE: energy  _new < energy  _old

     new trust radius        =       0.0078900156 bohr
     new conv_thr            =       0.0000001000 Ry

ATOMIC_POSITIONS (crystal)
Ag1      0.166666667   0.166666667   0.402063960    0   0   0
Ag1      0.666666667   0.166666667   0.402063960    0   0   0
Ag1      0.166666667   0.666666667   0.402063960    0   0   0
Ag1      0.666666667   0.666666667   0.402063960    0   0   0
Ag1      0.833333333   0.333333333   0.500000000    0   0   0
Ag1      0.333333333   0.333333333   0.500000000    0   0   0
Ag1      0.833333333   0.833333333   0.500000000    0   0   0
Ag1      0.333333333   0.833333333   0.500000000    0   0   0
Ag1      0.000000020   0.000000018   0.591871088
Ag1      0.500181476  -0.000362841   0.600866500
Ag1     -0.000362842   0.500181472   0.600866497
Ag1      0.500181416   0.500181396   0.600866527
N1      -0.000000078  -0.000000056   0.670242113

     Writing output data file calc.save
     Check: negative starting charge=   -0.002189
     NEW-OLD atomic charge density approx. for the potential
     Check: negative starting charge=   -0.002191

[...]

     Self-consistent Calculation

[...]

     total energy              =   -3579.80149483 Ry
     Harris-Foulkes estimate   =   -3579.80149651 Ry
     estimated scf accuracy    <       0.00000066 Ry

     iteration #  6     ecut=    36.75 Ry     beta=0.30
     Davidson diagonalization with overlap
     ethr =  2.85E-10,  avg # of iterations =  2.0

[...]

     negative rho (up, down):  2.244E-03 0.000E+00

     Adding external electric field

     Computed dipole along edir(3) :
        Dipole               -0.5528 Ry au,         -1.4051 Debye
        Dipole field         -0.0013 Ry au

        Potential amp.        0.1230 Ry
        Total length         45.8256 bohr

     End of self-consistent calculation

[...]

          k = 0.0559-0.0645 0.0000 ( 19479 PWs)   bands (ev):

[...]

          k =-0.0838-0.0484 0.0000 ( 19500 PWs)   bands (ev):

   -91.8760 -91.3557 -91.3540 -91.3522 -91.3291 -91.1740 -91.1565 -91.1546
   -91.1530 -91.0442 -91.0424 -91.0407 -55.5111 -55.2657 -55.2649 -54.8816
   -54.8685 -54.8583 -54.8546 -54.8512 -54.8458 -54.8428 -54.8417 -54.8266
   -54.8258 -54.8214 -54.8069 -54.6978 -54.6876 -54.6775 -54.6634 -54.6596
   -54.6591 -54.6526 -54.6407 -54.6326 -54.6301 -54.6282 -54.6266 -54.6049
   -54.5816 -54.5632 -54.5393 -54.5315 -54.5207 -54.5159 -54.5138 -54.5117
   -11.9167  -4.9609  -4.8187  -4.8091  -4.7800  -4.6776  -4.6369  -4.6350
    -4.6084  -4.5100  -4.4486  -4.4337  -4.3956  -4.3662  -4.3162  -4.3014
    -4.2136  -4.1417  -4.1322  -4.1065  -3.9625  -3.9242  -3.9135  -3.9116
    -3.8564  -3.8159  -3.8007  -3.6210  -3.6170  -3.5901  -3.5608  -3.5292
    -3.5136  -3.4869  -3.3847  -3.3736  -3.3252  -3.3203  -3.3138  -3.2832
    -3.2610  -3.2221  -3.1411  -3.1402  -3.1262  -3.1043  -3.0932  -3.0130
    -3.0128  -3.0035  -2.9610  -2.9543  -2.9258  -2.8628  -2.8222  -2.7971
    -2.7793  -2.6472  -2.5550  -2.5172  -2.4925  -2.4113  -2.3686  -1.6434
    -1.5804  -0.0195   0.1863   0.3710   0.4191   0.7573   1.4302   1.4850
     2.1527   2.3884   3.7619   3.7733   4.2641   4.9515

     the Fermi energy is     0.6878 ev

!    total energy              =   -3579.80149487 Ry
     Harris-Foulkes estimate   =   -3579.80149839 Ry
     estimated scf accuracy    <       0.00000008 Ry

     The total energy is the sum of the following terms:

     one-electron contribution =  -26011.15108007 Ry
     hartree contribution      =   12994.38489242 Ry
     xc contribution           =    -366.16394782 Ry
     ewald contribution        =    9803.16057564 Ry
     electric field correction =       0.00074211 Ry
     smearing contrib. (-TS)   =      -0.03267715 Ry

     convergence has been achieved in   6 iterations

 BEEF-vdW xc energy contributions
           1 :   -317.180911141239
           2 :    286.969907847884
           3 :   -236.676578303496
           4 :    181.574656147051
           5 :   -135.414135873434
           6 :    105.490606300783
           7 :   -91.3735132510969
           8 :    87.1792328443521
           9 :   -85.6733642294756
          10 :    81.8940414636232
          11 :   -74.6654986217686
          12 :    65.7560982755418
          13 :   -57.7424486571381
          14 :    52.1115196555533
          15 :   -48.6413898853434
          16 :    46.0666580473118
          17 :   -43.2436587749335
          18 :    39.9072472420914
          19 :   -36.6051550024945
          20 :    34.0402906910364
          21 :   -32.4191249721823
          22 :    31.2862708022583
          23 :   -29.9060017087407
          24 :    27.8463077151952
          25 :   -25.3123166811037
          26 :    22.9929871870387
          27 :   -21.5604130654241
          28 :    21.1963817639175
          29 :   -21.4777858402319
          30 :    21.6813140633435
          31 :   -31.7204535607523
          32 :   -23.0322570370248

     Forces acting on atoms (Ry/au):

     negative rho (up, down):  2.244E-03 0.000E+00
     atom    1 type  1   force =    -0.00054593   -0.00031519   -0.00073495
     atom    2 type  1   force =     0.00054594   -0.00031518   -0.00073494
     atom    3 type  1   force =     0.00000002    0.00063038   -0.00073494
     atom    4 type  1   force =    -0.00000001   -0.00000000    0.00050430
     atom    5 type  1   force =    -0.00000004    0.00428284   -0.00163164
     atom    6 type  1   force =     0.00000005    0.00000002    0.00609142
     atom    7 type  1   force =    -0.00370903   -0.00214141   -0.00163163
     atom    8 type  1   force =     0.00370903   -0.00214145   -0.00163163
     atom    9 type  1   force =    -0.00000006   -0.00000003    0.00013348
     atom   10 type  1   force =     0.00000002    0.00025888    0.00002108
     atom   11 type  1   force =     0.00022421   -0.00012942    0.00002109
     atom   12 type  1   force =    -0.00022417   -0.00012942    0.00002102
     atom   13 type  2   force =    -0.00000004   -0.00000002    0.00030735

     Total force =     0.000561     Total SCF correction =     0.000560
     SCF correction compared to forces is large: reduce conv_thr to get better values

     entering subroutine stress ...

     negative rho (up, down):  2.244E-03 0.000E+00
          total   stress  (Ry/bohr**3)                   (kbar)     P=   -8.08
  -0.00007279  -0.00000000  -0.00000000        -10.71     -0.00     -0.00
  -0.00000000  -0.00007279  -0.00000000         -0.00    -10.71     -0.00
  -0.00000000  -0.00000000  -0.00001910         -0.00     -0.00     -2.81

     bfgs converged in  10 scf cycles and   9 bfgs steps
     (criteria: energy <  1.0E+00, force <  1.9E-03)

     End of BFGS Geometry Optimization

     Final energy   =   -3579.8014948742 Ry
Begin final coordinates

ATOMIC_POSITIONS (crystal)
Ag1      0.166666667   0.166666667   0.402063960    0   0   0
Ag1      0.666666667   0.166666667   0.402063960    0   0   0
Ag1      0.166666667   0.666666667   0.402063960    0   0   0
Ag1      0.666666667   0.666666667   0.402063960    0   0   0
Ag1      0.833333333   0.333333333   0.500000000    0   0   0
Ag1      0.333333333   0.333333333   0.500000000    0   0   0
Ag1      0.833333333   0.833333333   0.500000000    0   0   0
Ag1      0.333333333   0.833333333   0.500000000    0   0   0
Ag1      0.000000020   0.000000018   0.591871088
Ag1      0.500181476  -0.000362841   0.600866500
Ag1     -0.000362842   0.500181472   0.600866497
Ag1      0.500181416   0.500181396   0.600866527
N1      -0.000000078  -0.000000056   0.670242113
End final coordinates

     Writing output data file calc.save

     General routines

     Parallel routines

   This run was terminated on:  11:36:41   4May2018

   JOB DONE.
Job  /afs/slac/g/suncat/bin/suncat-tsmpirun -x LD_LIBRARY_PATH -wdir /scratch/qe937286_Yzufw pw.x -npool 4 -in pw.inp

TID   HOST_NAME   COMMAND_LINE            STATUS            TERMINATION_TIME
00000 suncat0075 pw.x -npool 4 -i  Done                     05/04/2018 11:36:41
00001 suncat0075 pw.x -npool 4 -i  Done                     05/04/2018 11:36:41
00002 suncat0075 pw.x -npool 4 -i  Done                     05/04/2018 11:36:41
00003 suncat0075 pw.x -npool 4 -i  Done                     05/04/2018 11:36:41
00004 suncat0075 pw.x -npool 4 -i  Done                     05/04/2018 11:36:41
00005 suncat0075 pw.x -npool 4 -i  Done                     05/04/2018 11:36:41
00006 suncat0075 pw.x -npool 4 -i  Done                     05/04/2018 11:36:41
00007 suncat0075 pw.x -npool 4 -i  Done                     05/04/2018 11:36:41
00008 suncat0016 pw.x -npool 4 -i  Done                     05/04/2018 11:36:41
00009 suncat0016 pw.x -npool 4 -i  Done                     05/04/2018 11:36:41
00010 suncat0016 pw.x -npool 4 -i  Done                     05/04/2018 11:36:41
00011 suncat0016 pw.x -npool 4 -i  Done                     05/04/2018 11:36:41
00012 suncat0016 pw.x -npool 4 -i  Done                     05/04/2018 11:36:41
00013 suncat0016 pw.x -npool 4 -i  Done                     05/04/2018 11:36:41
00014 suncat0016 pw.x -npool 4 -i  Done                     05/04/2018 11:36:41
00015 suncat0016 pw.x -npool 4 -i  Done                     05/04/2018 11:36:41
00016 suncat0156 pw.x -npool 4 -i  Done                     05/04/2018 11:36:41
00017 suncat0156 pw.x -npool 4 -i  Done                     05/04/2018 11:36:41
00018 suncat0156 pw.x -npool 4 -i  Done                     05/04/2018 11:36:41
00019 suncat0156 pw.x -npool 4 -i  Done                     05/04/2018 11:36:41
00020 suncat0156 pw.x -npool 4 -i  Done                     05/04/2018 11:36:41
00021 suncat0156 pw.x -npool 4 -i  Done                     05/04/2018 11:36:41
00022 suncat0156 pw.x -npool 4 -i  Done                     05/04/2018 11:36:41
00023 suncat0156 pw.x -npool 4 -i  Done                     05/04/2018 11:36:41
00024 suncat0133 pw.x -npool 4 -i  Done                     05/04/2018 11:36:41
00025 suncat0133 pw.x -npool 4 -i  Done                     05/04/2018 11:36:41
00026 suncat0133 pw.x -npool 4 -i  Done                     05/04/2018 11:36:41
00027 suncat0133 pw.x -npool 4 -i  Done                     05/04/2018 11:36:41
00028 suncat0133 pw.x -npool 4 -i  Done                     05/04/2018 11:36:41
00029 suncat0133 pw.x -npool 4 -i  Done                     05/04/2018 11:36:41
00030 suncat0133 pw.x -npool 4 -i  Done                     05/04/2018 11:36:41
00031 suncat0133 pw.x -npool 4 -i  Done                     05/04/2018 11:36:41