     Program PWSCF v.5.1rc2 (svn rev. 11289) starts on 15Jan2018 at 10:19:37

     Current dimensions of program PWSCF are:
     Max number of different atomic species (ntypx) = 10
     Max number of k-points (npk) =  40000
     Max angular momentum in pseudopotentials (lmaxx) =  3
     Presently stress not available with electric field

     IMPORTANT: XC functional enforced from input :
     Exchange-correlation      = BEEF-VDW ( 1  4 27 13 2)
     Any further DFT definition will be discarded
     Please, verify this is what you really want

     Subspace diagonalization in iterative solution of the eigenvalue problem:
     a serial algorithm will be used

     bravais-lattice index     =            0
     lattice parameter (alat)  =       1.8897  a.u.
     unit-cell volume          =    4306.9643 (a.u.)^3
     number of atoms/cell      =           13
     number of atomic types    =            2
     number of electrons       =       185.00
     number of Kohn-Sham states=          102
     kinetic-energy cutoff     =      36.7493  Ry
     charge density cutoff     =     367.4932  Ry
     convergence threshold     =      1.0E-05
     mixing beta               =       0.3000
     number of iterations used =           10  plain     mixing
     Exchange-correlation      = BEEF-VDW ( 1  4 27 13 2)
     nstep                     =           50

     celldm(1)=   1.889726  celldm(2)=   0.000000  celldm(3)=   0.000000
     celldm(4)=   0.000000  celldm(5)=   0.000000  celldm(6)=   0.000000

     crystal axes: (cart. coord. in units of alat)
               a(1) = (   5.486772   0.000000   0.000000 )
               a(2) = (   2.743386   4.751684   0.000000 )
               a(3) = (   0.000000   0.000000  24.479931 )

     reciprocal axes: (cart. coord. in units 2 pi/alat)
               b(1) = (  0.182257 -0.105226  0.000000 )
               b(2) = (  0.000000  0.210452  0.000000 )
               b(3) = (  0.000000  0.000000  0.040850 )

     PseudoPot. # 1 for Re read from file:
     /afs/slac.stanford.edu/u/if/mamunm/psp/gbrv1.5pbe/Re.UPF
     MD5 check sum: 85f993410f3e006da9d71c142b4ad953
     Pseudo is Ultrasoft + core correction, Zval = 15.0
     Generated by new atomic code, or converted to UPF format
     Using radial grid of  981 points,  8 beta functions with:
                l(1) =   0
                l(2) =   0
                l(3) =   1
                l(4) =   1
                l(5) =   2
                l(6) =   2
                l(7) =   3
                l(8) =   3
     Q(r) pseudized with  8 coefficients,  rinner =    1.150   1.150   1.150
                                                       1.150   1.150   1.150
                                                       1.150

     PseudoPot. # 2 for N  read from file:
     /afs/slac.stanford.edu/u/if/mamunm/psp/gbrv1.5pbe/N.UPF
     MD5 check sum: 95339753478d7afb44899504a8723017
     Pseudo is Ultrasoft + core correction, Zval =  5.0
     Generated by new atomic code, or converted to UPF format
     Using radial grid of  729 points,  4 beta functions with:
                l(1) =   0
                l(2) =   0
                l(3) =   1
                l(4) =   1
     Q(r) pseudized with  8 coefficients,  rinner =    0.900   0.900   0.900

     vdW kernel table read from file vdW_kernel_table
     MD5 check sum: 095c7af220d748ca6e76c0b4c6cfb241

     atomic species   valence    mass     pseudopotential
        Re1           15.00   186.20700     Re( 1.00)
        N1             5.00    14.00700     N ( 1.00)

     No symmetry found

   Cartesian axes

     site n.     atom                  positions (alat units)
         1           Re1 tau(   1) = (   1.3716930   0.7919474  10.0000000  )
         2           Re1 tau(   2) = (   4.1150791   0.7919474  10.0000000  )
         3           Re1 tau(   3) = (   2.7433861   3.1677894  10.0000000  )
         4           Re1 tau(   4) = (   5.4867722   3.1677894  10.0000000  )
         5           Re1 tau(   5) = (   5.4867722   1.5838947  12.2399654  )
         6           Re1 tau(   6) = (   2.7433861   1.5838947  12.2399654  )
         7           Re1 tau(   7) = (   6.8584652   3.9597368  12.2399654  )
         8           Re1 tau(   8) = (   4.1150791   3.9597368  12.2399654  )
         9           Re1 tau(   9) = (   0.0000000   0.0000000  14.4799307  )
        10           Re1 tau(  10) = (   2.7433861   0.0000000  14.4799307  )
        11           Re1 tau(  11) = (   1.3716930   2.3758421  14.4799307  )
        12           Re1 tau(  12) = (   4.1150791   2.3758421  14.4799307  )
        13           N1  tau(  13) = (   0.0000000   0.0000000  16.6999307  )

     number of k points=    20  Fermi-Dirac smearing, width (Ry)=  0.0110
                       cart. coord. in units 2pi/alat
        k(    1) = (   0.0000000   0.0000000   0.0000000), wk =   0.0555556
        k(    2) = (   0.0000000   0.0350753   0.0000000), wk =   0.1111111
        k(    3) = (   0.0000000   0.0701506   0.0000000), wk =   0.1111111
        k(    4) = (   0.0000000  -0.1052259   0.0000000), wk =   0.0555556
        k(    5) = (   0.0303761  -0.0175376   0.0000000), wk =   0.1111111
        k(    6) = (   0.0303761   0.0175376   0.0000000), wk =   0.1111111
        k(    7) = (   0.0303761   0.0526129   0.0000000), wk =   0.1111111
        k(    8) = (   0.0303761  -0.1227635   0.0000000), wk =   0.1111111
        k(    9) = (   0.0303761  -0.0876882   0.0000000), wk =   0.1111111
        k(   10) = (   0.0303761  -0.0526129   0.0000000), wk =   0.1111111
        k(   11) = (   0.0607522  -0.0350753   0.0000000), wk =   0.1111111
        k(   12) = (   0.0607522   0.0000000   0.0000000), wk =   0.1111111
        k(   13) = (   0.0607522   0.0350753   0.0000000), wk =   0.1111111
        k(   14) = (   0.0607522  -0.1403011   0.0000000), wk =   0.1111111
        k(   15) = (   0.0607522  -0.1052259   0.0000000), wk =   0.1111111
        k(   16) = (   0.0607522  -0.0701506   0.0000000), wk =   0.1111111
        k(   17) = (  -0.0911283   0.0526129   0.0000000), wk =   0.0555556
        k(   18) = (  -0.0911283   0.0876882   0.0000000), wk =   0.1111111
        k(   19) = (  -0.0911283   0.1227635   0.0000000), wk =   0.1111111
        k(   20) = (  -0.0911283  -0.0526129   0.0000000), wk =   0.0555556

     Largest allocated arrays     est. size (Mb)     dimensions
     Largest temporary arrays     est. size (Mb)     dimensions

     Initial potential from superposition of free atoms
     Check: negative starting charge=   -1.539574

     starting charge  178.99945, renormalised to  185.00000

     negative rho (up, down):  1.591E+00 0.000E+00

     *
     * You are using vdW-DF for exchange-correlation in this calculation.
     * Please cite the following three references that made this development
     * possible:
     *
     *   M. Dion, H. Rydberg, E. Schroder, D. C. Langreth, and
     *   B. I. Lundqvist, Phys. Rev. Lett. 92, 246401 (2004).
     *
     *   T. Thonhauser, V. R. Cooper, S. Li, A. Puzder, P. Hyldgaard, and
     *   D. C. Langreth, Phys. Rev. B 76, 125112 (2007).
     *
     *   G. Roman-Perez and J. M. Soler, Phys. Rev. Lett. 103, 096102 (2009).
     *
     *
     * If you are using vdW-DF2, please also cite:
     *
     *   K. Lee, E. D. Murray, L. Kong, B. I. Lundqvist, and
     *   D. C. Langreth, Phys. Rev. B 82, 081101(R) (2010).
     *
     *
     * If you are calculating the stress with vdW-DF, please also cite:
     *
     *   R. Sabatini, E. Kucukbenli, B. Kolb, T. Thonhauser, and
     *   S. de Gironcoli, J. Phys.: Condens. Matter 24, 424209 (2012).
     *

     Carrying out vdW-DF run using the following parameters:

     Nqs =      20    Nr_points =    1024   r_max =   100.000
     q_mesh =
               0.00001000     0.04494208     0.09755937     0.15916263
               0.23128650     0.31572767     0.41458969     0.53033537
               0.66584808     0.82450364     1.01025438     1.22772762
               1.48234092     1.78043706     2.12944203     2.53805004
               3.01644009     3.57652955     4.23227104     5.00000000

     Gradients computed in reciprocal space

     Adding external electric field

     Computed dipole along edir(3) :
        Dipole               -1.4126 Ry au,         -3.5904 Debye
        Dipole field         -0.0041 Ry au

        Potential amp.        0.3718 Ry
        Total length         45.1039 bohr

     Starting wfc are  160 randomized atomic wfcs

     Self-consistent Calculation

     iteration #  1     ecut=    36.75 Ry     beta=0.30
     Davidson diagonalization with overlap
     ethr =  1.00E-02,  avg # of iterations =  2.0

[...]

     total energy              =   -2302.36276767 Ry
     Harris-Foulkes estimate   =   -2326.41725437 Ry
     estimated scf accuracy    <      49.84285755 Ry

[...]

     End of self-consistent calculation

          k = 0.0000 0.0000 0.0000 ( 16091 PWs)   bands (ev):

   -78.1756 -78.1318 -78.0509 -78.0109 -78.0108 -77.9914 -77.9734 -77.9263
   -77.9260 -77.9213 -77.9212 -77.9190 -40.3887 -40.3886 -40.3524 -40.2757
   -40.2316 -40.2315 -40.1877 -40.0921 -40.0921 -40.0566 -39.8783 -39.7722
   -39.7078 -39.7077 -39.7072 -39.7004 -39.7003 -39.6215 -39.6215 -39.6111
   -39.5231 -39.4908 -39.4907 -39.4408 -39.4408 -39.4131 -39.3887 -39.3676
   -39.3676 -39.3370 -39.3327 -39.3326 -39.1919 -39.1918 -39.1376 -39.1376
    -9.6803  -6.7001  -4.7545  -4.2061  -3.8133  -3.8132  -3.7892  -3.5077
    -3.5077  -3.4846  -2.8350  -2.8350  -2.8138  -2.6462  -2.6462  -2.6208
    -1.1674  -1.1674  -1.0698  -0.1233  -0.0674  -0.0674   0.0576   0.2690
     0.6545   0.6545   0.6832   1.0733   1.0733   1.0878   1.0878   1.1493
     1.1667   1.1667   1.3892   1.3892   1.6336   1.6924   1.6925   2.4253
     2.7591   3.0449   3.0449   3.1534   3.3373   3.3373   3.3974   3.7273
     3.7273   4.2708   4.2708   4.2778   4.6219   4.6220

[...]

          k =-0.0911 0.0526 0.0000 ( 16164 PWs)   bands (ev):

[...]

     the Fermi energy is     2.5035 ev

!    total energy              =   -2325.92228511 Ry
     Harris-Foulkes estimate   =   -2325.92227610 Ry
     estimated scf accuracy    <       0.00000266 Ry

     The total energy is the sum of the following terms:

     one-electron contribution =  -18701.58031177 Ry
     hartree contribution      =    9335.49882684 Ry
     xc contribution           =    -654.48700596 Ry
     ewald contribution        =    7694.71811695 Ry
     electric field correction =       0.00048567 Ry
     smearing contrib. (-TS)   =      -0.07239684 Ry

     convergence has been achieved in  24 iterations

 BEEF-vdW xc energy contributions
           1 :   -581.774771500065
           2 :    540.693132384058
           3 :   -467.044196557732
           4 :    374.887240556727
           5 :   -279.625438314281
           6 :    194.125175452786
           7 :   -126.161196580214
           8 :    77.7249613207375
           9 :   -46.1265215015371
          10 :    26.2186885365149
          11 :   -12.7850544974229
          12 :    2.23362428429618
          13 :    6.82849619563444
          14 :   -14.0513057899636
          15 :    18.3769540752389
          16 :   -19.1119648275564
[...]

[...]

     Total force =     0.125197     Total SCF correction =     0.014202
     SCF correction compared to forces is large: reduce conv_thr to get better values

[...]

     Program PWSCF v.5.1rc2 (svn rev. 11289) starts on 15Jan2018 at 12:13: 4

[...]

   This run was terminated on:  13: 1: 5  15Jan2018

[...]

     Program PWSCF v.5.1rc2 (svn rev. 11289) starts on 15Jan2018 at 13: 1:11

[...]

     Total force =     0.074433     Total SCF correction =     0.015950
     SCF correction compared to forces is large: reduce conv_thr to get better values

[...]

     Program PWSCF v.5.1rc2 (svn rev. 11289) starts on 15Jan2018 at 13:32:19

     Current dimensions of program PWSCF are:
     Max number of different atomic species (ntypx) = 10
     Max number of k-points (npk) =  40000
     Max angular momentum in pseudopotentials (lmaxx) =  3
     Presently stress not available with electric field

     IMPORTANT: XC functional enforced from input :
     Exchange-correlation      = BEEF-VDW ( 1  4 27 13 2)
     Any further DFT definition will be discarded
     Please, verify this is what you really want

     Subspace diagonalization in iterative solution of the eigenvalue problem:
     a serial algorithm will be used

     bravais-lattice index     =            0
     lattice parameter (alat)  =       1.8897  a.u.
     unit-cell volume          =    4306.9643 (a.u.)^3
     number of atoms/cell      =           13
     number of atomic types    =            2
     number of electrons       =       185.00
     number of Kohn-Sham states=          102
     kinetic-energy cutoff     =      36.7493  Ry
     charge density cutoff     =     367.4932  Ry
     convergence threshold     =      1.0E-05
     mixing beta               =       0.3000
     number of iterations used =           10  plain     mixing
     Exchange-correlation      = BEEF-VDW ( 1  4 27 13 2)
     nstep                     =           50

     celldm(1)=   1.889726  celldm(2)=   0.000000  celldm(3)=   0.000000
     celldm(4)=   0.000000  celldm(5)=   0.000000  celldm(6)=   0.000000

     crystal axes: (cart. coord. in units of alat)
               a(1) = (   5.486772   0.000000   0.000000 )
               a(2) = (   2.743386   4.751684   0.000000 )
               a(3) = (   0.000000   0.000000  24.479931 )

     reciprocal axes: (cart. coord. in units 2 pi/alat)
               b(1) = (  0.182257 -0.105226  0.000000 )
               b(2) = (  0.000000  0.210452  0.000000 )
               b(3) = (  0.000000  0.000000  0.040850 )

     PseudoPot. # 1 for Re read from file:
     /afs/slac.stanford.edu/u/if/mamunm/psp/gbrv1.5pbe/Re.UPF
     MD5 check sum: 85f993410f3e006da9d71c142b4ad953
     Pseudo is Ultrasoft + core correction, Zval = 15.0
     Generated by new atomic code, or converted to UPF format
     Using radial grid of  981 points,  8 beta functions with:
                l(1) =   0
                l(2) =   0
                l(3) =   1
                l(4) =   1
                l(5) =   2
                l(6) =   2
                l(7) =   3
                l(8) =   3
     Q(r) pseudized with  8 coefficients,  rinner =    1.150   1.150   1.150
                                                       1.150   1.150   1.150
                                                       1.150

     PseudoPot. # 2 for N  read from file:
     /afs/slac.stanford.edu/u/if/mamunm/psp/gbrv1.5pbe/N.UPF
     MD5 check sum: 95339753478d7afb44899504a8723017
     Pseudo is Ultrasoft + core correction, Zval =  5.0
     Generated by new atomic code, or converted to UPF format
     Using radial grid of  729 points,  4 beta functions with:
                l(1) =   0
                l(2) =   0
                l(3) =   1
                l(4) =   1
     Q(r) pseudized with  8 coefficients,  rinner =    0.900   0.900   0.900

     vdW kernel table read from file vdW_kernel_table
     MD5 check sum: 095c7af220d748ca6e76c0b4c6cfb241

     atomic species   valence    mass     pseudopotential
        Re1           15.00   186.20700     Re( 1.00)
        N1             5.00    14.00700     N ( 1.00)

     No symmetry found

   Cartesian axes

     site n.     atom                  positions (alat units)
         1           Re1 tau(   1) = (   1.3716930   0.7919474  10.0000000  )
         2           Re1 tau(   2) = (   4.1150791   0.7919474  10.0000000  )
         3           Re1 tau(   3) = (   2.7433861   3.1677894  10.0000000  )
         4           Re1 tau(   4) = (   5.4867722   3.1677894  10.0000000  )
         5           Re1 tau(   5) = (   5.4867722   1.5838947  12.2399654  )
         6           Re1 tau(   6) = (   2.7433861   1.5838947  12.2399654  )
         7           Re1 tau(   7) = (   6.8584652   3.9597368  12.2399654  )
         8           Re1 tau(   8) = (   4.1150791   3.9597368  12.2399654  )
         9           Re1 tau(   9) = (   8.2300907   4.7516576  15.0026133  )
        10           Re1 tau(  10) = (   5.4867936   4.7368378  14.4015739  )
        11           Re1 tau(  11) = (   6.8457091   2.3832583  14.4015803  )
        12           Re1 tau(  12) = (   4.1278524   2.3832208  14.4014949  )
        13           N1  tau(  13) = (   8.2300792   4.7516684  16.6903166  )

     number of k points=    20  Fermi-Dirac smearing, width (Ry)=  0.0110
                       cart. coord. in units 2pi/alat
        k(    1) = (   0.0000000   0.0000000   0.0000000), wk =   0.0555556
        k(    2) = (   0.0000000   0.0350753   0.0000000), wk =   0.1111111
        k(    3) = (   0.0000000   0.0701506   0.0000000), wk =   0.1111111
        k(    4) = (   0.0000000  -0.1052259   0.0000000), wk =   0.0555556
        k(    5) = (   0.0303761  -0.0175376   0.0000000), wk =   0.1111111
        k(    6) = (   0.0303761   0.0175376   0.0000000), wk =   0.1111111
        k(    7) = (   0.0303761   0.0526129   0.0000000), wk =   0.1111111
        k(    8) = (   0.0303761  -0.1227635   0.0000000), wk =   0.1111111
        k(    9) = (   0.0303761  -0.0876882   0.0000000), wk =   0.1111111
        k(   10) = (   0.0303761  -0.0526129   0.0000000), wk =   0.1111111
        k(   11) = (   0.0607522  -0.0350753   0.0000000), wk =   0.1111111
        k(   12) = (   0.0607522   0.0000000   0.0000000), wk =   0.1111111
        k(   13) = (   0.0607522   0.0350753   0.0000000), wk =   0.1111111
        k(   14) = (   0.0607522  -0.1403011   0.0000000), wk =   0.1111111
        k(   15) = (   0.0607522  -0.1052259   0.0000000), wk =   0.1111111
        k(   16) = (   0.0607522  -0.0701506   0.0000000), wk =   0.1111111
        k(   17) = (  -0.0911283   0.0526129   0.0000000), wk =   0.0555556
        k(   18) = (  -0.0911283   0.0876882   0.0000000), wk =   0.1111111
        k(   19) = (  -0.0911283   0.1227635   0.0000000), wk =   0.1111111
        k(   20) = (  -0.0911283  -0.0526129   0.0000000), wk =   0.0555556

     Largest allocated arrays     est. size (Mb)     dimensions
     Largest temporary arrays     est. size (Mb)     dimensions

     Initial potential from superposition of free atoms
     Check: negative starting charge=   -1.537565

     starting charge  178.99945, renormalised to  185.00000

[...]

     *
     * You are using vdW-DF for exchange-correlation in this calculation.
     * Please cite the following three references that made this development
     * possible:
     *
     *   M. Dion, H. Rydberg, E. Schroder, D. C. Langreth, and
     *   B. I. Lundqvist, Phys. Rev. Lett. 92, 246401 (2004).
     *
     *   T. Thonhauser, V. R. Cooper, S. Li, A. Puzder, P. Hyldgaard, and
     *   D. C. Langreth, Phys. Rev. B 76, 125112 (2007).
     *
     *   G. Roman-Perez and J. M. Soler, Phys. Rev. Lett. 103, 096102 (2009).
     *
     *
     * If you are using vdW-DF2, please also cite:
     *
     *   K. Lee, E. D. Murray, L. Kong, B. I. Lundqvist, and
     *   D. C. Langreth, Phys. Rev. B 82, 081101(R) (2010).
     *
     *
     * If you are calculating the stress with vdW-DF, please also cite:
     *
     *   R. Sabatini, E. Kucukbenli, B. Kolb, T. Thonhauser, and
     *   S. de Gironcoli, J. Phys.: Condens. Matter 24, 424209 (2012).
     *

     Carrying out vdW-DF run using the following parameters:

     Nqs =      20    Nr_points =    1024   r_max =   100.000
     q_mesh =
               0.00001000     0.04494208     0.09755937     0.15916263
               0.23128650     0.31572767     0.41458969     0.53033537
               0.66584808     0.82450364     1.01025438     1.22772762
               1.48234092     1.78043706     2.12944203     2.53805004
               3.01644009     3.57652955     4.23227104     5.00000000

     Gradients computed in reciprocal space

[...]

     Starting wfc are  160 randomized atomic wfcs

     Self-consistent Calculation

[...]

     total energy              =   -2326.13459461 Ry
     Harris-Foulkes estimate   =   -2326.13460270 Ry
     estimated scf accuracy    <       0.00001109 Ry

     iteration # 21     ecut=    36.75 Ry     beta=0.30
     Davidson diagonalization with overlap
     ethr =  6.00E-09,  avg # of iterations =  4.2

[...]

     negative rho (up, down):  1.616E+00 0.000E+00

     Adding external electric field

     Computed dipole along edir(3) :
        Dipole               -0.3937 Ry au,         -1.0007 Debye
        Dipole field         -0.0011 Ry au

        Potential amp.        0.1036 Ry
        Total length         45.1039 bohr

     End of self-consistent calculation

[...]

          k = 0.0608-0.0702 0.0000 ( 16218 PWs)   bands (ev):

[...]

          k =-0.0911-0.0526 0.0000 ( 16164 PWs)   bands (ev):

   -78.0735 -78.0718 -78.0295 -78.0275 -77.9230 -77.9089 -77.8870 -77.8804
   -77.8690 -77.8447 -77.8364 -77.7964 -40.2214 -40.2020 -40.1268 -40.0767
   -40.0491 -39.9921 -39.9742 -39.9605 -39.9285 -39.8894 -39.8394 -39.7942
   -39.7684 -39.6476 -39.6107 -39.6055 -39.5860 -39.5849 -39.5805 -39.5661
   -39.5401 -39.5164 -39.5130 -39.5056 -39.4789 -39.4694 -39.4680 -39.4234
   -39.3761 -39.3640 -39.3287 -39.3062 -39.2290 -39.2149 -39.1795 -39.1677
   -10.4949  -4.6715  -4.5375  -3.1364  -2.9008  -2.5811  -2.5499  -2.4964
    -2.4101  -2.4080  -2.2538  -1.7707  -1.7154  -1.5185  -1.4231  -1.2736
    -1.0097  -0.9828  -0.9617  -0.9249  -0.5870  -0.5225  -0.4298  -0.3995
    -0.0851  -0.0754   0.3416   0.3702   0.4084   0.4526   0.5920   0.6961
     0.7007   0.7832   0.8677   0.9275   0.9744   1.1006   1.1865   1.3560
     1.4892   1.6265   2.2705   2.3570   2.5281   2.5958   2.7326   2.7762
     2.9978   3.1928   3.2332   3.5183   3.6667   3.7094

     the Fermi energy is     2.5135 ev

!    total energy              =   -2326.13459454 Ry
     Harris-Foulkes estimate   =   -2326.13459632 Ry
     estimated scf accuracy    <       0.00000193 Ry

     The total energy is the sum of the following terms:

     one-electron contribution =  -18512.60722367 Ry
     hartree contribution      =    9241.37572530 Ry
     xc contribution           =    -654.80690580 Ry
     ewald contribution        =    7599.97146616 Ry
     electric field correction =       0.00045221 Ry
     smearing contrib. (-TS)   =      -0.06810874 Ry

     convergence has been achieved in  21 iterations

 BEEF-vdW xc energy contributions
           1 :   -582.083585707440
           2 :    540.997672528505
           3 :   -467.342077349429
           4 :    375.158457441683
           5 :   -279.827050295512
           6 :    194.208180167596
           7 :   -126.088544022780
           8 :    77.4825836284245
           9 :   -45.7277445476915
          10 :    25.7030620736117
          11 :   -12.2129438361949
          12 :    1.67516485395470
          13 :    7.31119837148447
          14 :   -14.4231816376611
          15 :    18.6428951955755
          16 :   -19.3177257934775
          17 :    16.8040066887307
          18 :   -12.4841182841610
          19 :    8.23965036482673
          20 :   -5.69063244534493
          21 :    5.57385168815949
          22 :   -7.53252266413517
          23 :    10.3756758764238
          24 :   -12.6603991160774
          25 :    13.3259594678751
          26 :   -12.1015660470567
          27 :    9.52847116586042
          28 :   -6.63280469247491
          29 :    4.43024584349746
          30 :   -3.49518470755618
          31 :   -48.5101373774443
          32 :   -35.9660084912589

     Forces acting on atoms (Ry/au):

     negative rho (up, down):  1.616E+00 0.000E+00
     atom    1 type  1   force =     0.00189327    0.00109510    0.02180949
     atom    2 type  1   force =    -0.00190540    0.00109366    0.02182727
     atom    3 type  1   force =    -0.00001095   -0.00219868    0.02174775
     atom    4 type  1   force =     0.00001190   -0.00001142    0.03363448
     atom    5 type  1   force =     0.00002141    0.00982853   -0.02382461
     atom    6 type  1   force =    -0.00002312   -0.00012350   -0.03127679
     atom    7 type  1   force =    -0.00859099   -0.00486388   -0.02373574
     atom    8 type  1   force =     0.00859102   -0.00484447   -0.02374258
     atom    9 type  1   force =     0.00003706    0.00004630    0.00097164
     atom   10 type  1   force =    -0.00001884    0.00000077    0.00071504
     atom   11 type  1   force =    -0.00006178   -0.00002252    0.00071945
     atom   12 type  1   force =     0.00005759    0.00000182    0.00075798
     atom   13 type  2   force =    -0.00000116   -0.00000174    0.00039662

     Total force =     0.074416     Total SCF correction =     0.006593

     entering subroutine stress ...

     negative rho (up, down):  1.616E+00 0.000E+00
          total   stress  (Ry/bohr**3)                   (kbar)     P=  -23.55
  -0.00017873   0.00000000   0.00000000        -26.29      0.00      0.00
   0.00000000  -0.00017880   0.00000002          0.00    -26.30      0.00
   0.00000000   0.00000002  -0.00012266          0.00      0.00    -18.04

 !ASE

     Writing output data file calc.save

     General routines

     Parallel routines

   This run was terminated on:  13:48:24  15Jan2018

   JOB DONE.
Job  /afs/slac/g/suncat/bin/suncat-tsmpirun -x LD_LIBRARY_PATH -wdir /scratch/qe842473_D7PON pw.x -in pw.inp

TID   HOST_NAME   COMMAND_LINE            STATUS            TERMINATION_TIME
00000 suncat0050 pw.x -in pw.inp   Done                     01/15/2018 13:48:24
00001 suncat0050 pw.x -in pw.inp   Done                     01/15/2018 13:48:24
00002 suncat0050 pw.x -in pw.inp   Done                     01/15/2018 13:48:24
00003 suncat0050 pw.x -in pw.inp   Done                     01/15/2018 13:48:24
00004 suncat0050 pw.x -in pw.inp   Done                     01/15/2018 13:48:24
00005 suncat0050 pw.x -in pw.inp   Done                     01/15/2018 13:48:24
00006 suncat0050 pw.x -in pw.inp   Done                     01/15/2018 13:48:24
00007 suncat0050 pw.x -in pw.inp   Done                     01/15/2018 13:48:24
00008 suncat0242 pw.x -in pw.inp   Done                     01/15/2018 13:48:24
00009 suncat0242 pw.x -in pw.inp   Done                     01/15/2018 13:48:24
00010 suncat0242 pw.x -in pw.inp   Done                     01/15/2018 13:48:24
00011 suncat0242 pw.x -in pw.inp   Done                     01/15/2018 13:48:24
00012 suncat0242 pw.x -in pw.inp   Done                     01/15/2018 13:48:24
00013 suncat0242 pw.x -in pw.inp   Done                     01/15/2018 13:48:24
00014 suncat0242 pw.x -in pw.inp   Done                     01/15/2018 13:48:24
00015 suncat0242 pw.x -in pw.inp   Done                     01/15/2018 13:48:24
00016 suncat0241 pw.x -in pw.inp   Done                     01/15/2018 13:48:24
00017 suncat0241 pw.x -in pw.inp   Done                     01/15/2018 13:48:24
00018 suncat0241 pw.x -in pw.inp   Done                     01/15/2018 13:48:24
00019 suncat0241 pw.x -in pw.inp   Done                     01/15/2018 13:48:24
00020 suncat0241 pw.x -in pw.inp   Done                     01/15/2018 13:48:24
00021 suncat0241 pw.x -in pw.inp   Done                     01/15/2018 13:48:24
00022 suncat0241 pw.x -in pw.inp   Done                     01/15/2018 13:48:24
00023 suncat0241 pw.x -in pw.inp   Done                     01/15/2018 13:48:24
00024 suncat0240 pw.x -in pw.inp   Done                     01/15/2018 13:48:24
00025 suncat0240 pw.x -in pw.inp   Done                     01/15/2018 13:48:24
00026 suncat0240 pw.x -in pw.inp   Done                     01/15/2018 13:48:24
00027 suncat0240 pw.x -in pw.inp   Done                     01/15/2018 13:48:24
00028 suncat0240 pw.x -in pw.inp   Done                     01/15/2018 13:48:24
00029 suncat0240 pw.x -in pw.inp   Done                     01/15/2018 13:48:24
00030 suncat0240 pw.x -in pw.inp   Done                     01/15/2018 13:48:24
00031 suncat0240 pw.x -in pw.inp   Done                     01/15/2018 13:48:24