     Program PWSCF v.5.1rc2 (svn rev. 11289) starts on 17Jan2018 at  1:40:50

     Current dimensions of program PWSCF are:
     Max number of different atomic species (ntypx) = 10
     Max number of k-points (npk) =  40000
     Max angular momentum in pseudopotentials (lmaxx) =  3
     Presently stress not available with electric field

     IMPORTANT: XC functional enforced from input :
     Exchange-correlation      = BEEF-VDW ( 1  4 27 13 2)
     Any further DFT definition will be discarded
     Please, verify this is what you really want

     Subspace diagonalization in iterative solution of the eigenvalue problem:
     a serial algorithm will be used

     bravais-lattice index     =            0
     lattice parameter (alat)  =       1.8897  a.u.
     unit-cell volume          =    4806.0858 (a.u.)^3
     number of atoms/cell      =           13
     number of atomic types    =            2
     number of electrons       =       145.00
     number of Kohn-Sham states=           82
     kinetic-energy cutoff     =      36.7493  Ry
     charge density cutoff     =     367.4932  Ry
     convergence threshold     =      1.0E-05
     mixing beta               =       0.3000
     number of iterations used =           10  plain     mixing
     Exchange-correlation      = BEEF-VDW ( 1  4 27 13 2)
     nstep                     =           50

     celldm(1)=   1.889726  celldm(2)=   0.000000  celldm(3)=   0.000000
     celldm(4)=   0.000000  celldm(5)=   0.000000  celldm(6)=   0.000000

     crystal axes: (cart. coord. in units of alat)
               a(1) = (   5.768903   0.000000   0.000000 )
               a(2) = (   2.884451   4.996016   0.000000 )
               a(3) = (   0.000000   0.000000  24.710289 )

     reciprocal axes: (cart. coord. in units 2 pi/alat)
               b(1) = (  0.173343 -0.100080  0.000000 )
               b(2) = (  0.000000  0.200159  0.000000 )
               b(3) = (  0.000000  0.000000  0.040469 )

     PseudoPot. # 1 for Ti read from file:
     /afs/slac.stanford.edu/u/if/mamunm/psp/gbrv1.5pbe/Ti.UPF
     MD5 check sum: 88a00a6731bd790ddea75d31a80cb452
     Pseudo is Ultrasoft + core correction, Zval = 12.0
     Generated by new atomic code, or converted to UPF format
     Using radial grid of  851 points,  6 beta functions with:
                l(1) =   0
                l(2) =   0
                l(3) =   1
                l(4) =   1
                l(5) =   2
                l(6) =   2
     Q(r) pseudized with  6 coefficients,  rinner =    1.000   1.000   1.000
                                                       1.000   1.000

     PseudoPot. # 2 for H  read from file:
     /afs/slac.stanford.edu/u/if/mamunm/psp/gbrv1.5pbe/H.UPF
     MD5 check sum: 761ae9a214b05c3daf00ab9f6b793d6f
     Pseudo is Ultrasoft, Zval =  1.0
     Generated by new atomic code, or converted to UPF format
     Using radial grid of  615 points,  2 beta functions with:
                l(1) =   0
                l(2) =   0
     Q(r) pseudized with  8 coefficients,  rinner =    0.700

     vdW kernel table read from file vdW_kernel_table
     MD5 check sum: 095c7af220d748ca6e76c0b4c6cfb241

     atomic species   valence    mass     pseudopotential
        Ti1           12.00    47.86700     Ti( 1.00)
        H1             1.00     1.00800     H ( 1.00)

     No symmetry found

   Cartesian axes

     site n.     atom                  positions (alat units)
         1           Ti1 tau(   1) = (   1.4422257   0.8326694  10.0000000  )
         2           Ti1 tau(   2) = (   4.3266771   0.8326694  10.0000000  )
         3           Ti1 tau(   3) = (   2.8844514   3.3306776  10.0000000  )
         4           Ti1 tau(   4) = (   5.7689029   3.3306776  10.0000000  )
         5           Ti1 tau(   5) = (   5.7689029   1.6653388  12.3551447  )
         6           Ti1 tau(   6) = (   2.8844514   1.6653388  12.3551447  )
         7           Ti1 tau(   7) = (   7.2111286   4.1633470  12.3551447  )
         8           Ti1 tau(   8) = (   4.3266771   4.1633470  12.3551447  )
         9           Ti1 tau(   9) = (   0.0000000   0.0000000  14.7102895  )
        10           Ti1 tau(  10) = (   2.8844514   0.0000000  14.7102895  )
        11           Ti1 tau(  11) = (   1.4422257   2.4980082  14.7102895  )
        12           Ti1 tau(  12) = (   4.3266771   2.4980082  14.7102895  )
        13           H1  tau(  13) = (   2.8844514   1.6653388  16.6202895  )

     number of k points=    20  Fermi-Dirac smearing, width (Ry)=  0.0110
                       cart. coord. in units 2pi/alat
        k(    1) = (   0.0000000   0.0000000   0.0000000), wk =   0.0555556
        k(    2) = (   0.0000000   0.0333599   0.0000000), wk =   0.1111111
        k(    3) = (   0.0000000   0.0667198   0.0000000), wk =   0.1111111
        k(    4) = (   0.0000000  -0.1000797   0.0000000), wk =   0.0555556
        k(    5) = (   0.0288905  -0.0166800   0.0000000), wk =   0.1111111
        k(    6) = (   0.0288905   0.0166800   0.0000000), wk =   0.1111111
        k(    7) = (   0.0288905   0.0500399   0.0000000), wk =   0.1111111
        k(    8) = (   0.0288905  -0.1167597   0.0000000), wk =   0.1111111
        k(    9) = (   0.0288905  -0.0833998   0.0000000), wk =   0.1111111
        k(   10) = (   0.0288905  -0.0500399   0.0000000), wk =   0.1111111
        k(   11) = (   0.0577811  -0.0333599   0.0000000), wk =   0.1111111
        k(   12) = (   0.0577811  -0.0000000   0.0000000), wk =   0.1111111
        k(   13) = (   0.0577811   0.0333599   0.0000000), wk =   0.1111111
        k(   14) = (   0.0577811  -0.1334396   0.0000000), wk =   0.1111111
        k(   15) = (   0.0577811  -0.1000797   0.0000000), wk =   0.1111111
        k(   16) = (   0.0577811  -0.0667198   0.0000000), wk =   0.1111111
        k(   17) = (  -0.0866716   0.0500399   0.0000000), wk =   0.0555556
        k(   18) = (  -0.0866716   0.0833998   0.0000000), wk =   0.1111111
        k(   19) = (  -0.0866716   0.1167597   0.0000000), wk =   0.1111111
        k(   20) = (  -0.0866716  -0.0500399   0.0000000), wk =   0.0555556

     Largest allocated arrays     est. size (Mb)     dimensions
     Largest temporary arrays     est. size (Mb)     dimensions

     Check: negative/imaginary core charge=   -0.000006    0.000000

     Initial potential from superposition of free atoms
     Check: negative starting charge=   -0.012749

     starting charge  132.99946, renormalised to  145.00000

     negative rho (up, down):  1.390E-02 0.000E+00

     *
     * You are using vdW-DF for exchange-correlation in this calculation.
     * Please cite the following three references that made this development
     * possible:
     *
     *   M. Dion, H. Rydberg, E. Schroder, D. C. Langreth, and
     *   B. I. Lundqvist, Phys. Rev. Lett. 92, 246401 (2004).
     *
     *   T. Thonhauser, V. R. Cooper, S. Li, A. Puzder, P. Hyldgaard, and
     *   D. C. Langreth, Phys. Rev. B 76, 125112 (2007).
     *
     *   G. Roman-Perez and J. M. Soler, Phys. Rev. Lett. 103, 096102 (2009).
     *
     *
     * If you are using vdW-DF2, please also cite:
     *
     *   K. Lee, E. D. Murray, L. Kong, B. I. Lundqvist, and
     *   D. C. Langreth, Phys. Rev. B 82, 081101(R) (2010).
     *
     *
     * If you are calculating the stress with vdW-DF, please also cite:
     *
     *   R. Sabatini, E. Kucukbenli, B. Kolb, T. Thonhauser, and
     *   S. de Gironcoli, J. Phys.: Condens. Matter 24, 424209 (2012).
     *

     Carrying out vdW-DF run using the following parameters:

     Nqs =      20    Nr_points =    1024   r_max =   100.000
     q_mesh =
               0.00001000     0.04494208     0.09755937     0.15916263
               0.23128650     0.31572767     0.41458969     0.53033537
               0.66584808     0.82450364     1.01025438     1.22772762
               1.48234092     1.78043706     2.12944203     2.53805004
               3.01644009     3.57652955     4.23227104     5.00000000

     Gradients computed in reciprocal space

     Adding external electric field

     Computed dipole along edir(3) :
        Dipole               -0.7272 Ry au,         -1.8483 Debye
        Dipole field         -0.0019 Ry au

        Potential amp.        0.1731 Ry
        Total length         45.5283 bohr

     Starting wfc are  121 randomized atomic wfcs

     Self-consistent Calculation

     iteration #  1     ecut=    36.75 Ry     beta=0.30
     Davidson diagonalization with overlap
     ethr =  1.00E-02,  avg # of iterations =  5.8

[...]

     total energy              =   -1429.13515389 Ry
     Harris-Foulkes estimate   =   -1442.02542354 Ry
     estimated scf accuracy    <      27.40171062 Ry

[...]

     End of self-consistent calculation

          k = 0.0000 0.0000 0.0000 ( 18103 PWs)   bands (ev):

   -56.4602 -56.4147 -56.3766 -56.3635 -56.3632 -56.3243 -56.3233 -56.3219
   -56.2204 -56.1459 -56.1406 -56.1403 -32.9184 -32.9090 -32.9088 -32.8617
   -32.8589 -32.8572 -32.8568 -32.7935 -32.7851 -32.7849 -32.6995 -32.6313
   -32.6167 -32.6161 -32.5144 -32.5142 -32.5140 -32.4890 -32.4888 -32.4677
   -32.4446 -32.4440 -32.4427 -32.3531 -32.3530 -32.3399 -32.3294 -32.3291
   -32.3168 -32.3168 -32.3146 -32.2461 -32.2460 -32.2458 -32.1325 -32.1325
    -4.9218  -3.7290  -2.5394  -1.8939  -1.7388  -1.7387  -1.6477  -1.6035
    -1.6034  -1.4637  -1.1933  -1.1932  -1.0594  -0.9472  -0.9472  -0.9355
    -0.3106  -0.3105  -0.2131   0.4974   0.7376   0.7923   0.7924   0.9381
     1.1018   1.1316   1.1364   1.1366   1.3653   1.3656   1.5263   1.5474
     1.5485   1.5663

[...]

          k =-0.0867 0.0500 0.0000 ( 18044 PWs)   bands (ev):

[...]

     the Fermi energy is     0.5873 ev

!    total energy              =   -1439.72073304 Ry
     Harris-Foulkes estimate   =   -1439.72074454 Ry
     estimated scf accuracy    <       0.00000661 Ry

     The total energy is the sum of the following terms:

     one-electron contribution =  -10887.93676543 Ry
     hartree contribution      =    5428.48752590 Ry
     xc contribution           =    -225.47525586 Ry
     ewald contribution        =    4245.33640117 Ry
     electric field correction =       0.00003925 Ry
     smearing contrib. (-TS)   =      -0.13267807 Ry

     convergence has been achieved in  35 iterations

 BEEF-vdW xc energy contributions
           1 :   -193.813202542149
           2 :    173.166688222324
           3 :   -139.318999471168
           4 :    103.084871851066
           5 :   -73.3408645161670
           6 :    53.5585325378422
           7 :   -41.7986040553922
           8 :    33.4635609043213
           9 :   -24.6801311368925
          10 :    14.2528537767112
          11 :   -3.46215411813847
          12 :   -5.59750004675311
          13 :    11.7314039762745
          14 :   -15.3165993970433
          15 :    17.7179285024484
          16 :   -20.1020378472243
          17 :    22.5872679565742
          18 :   -24.3034435381239
          19 :    24.2034840010687
          20 :   -21.9439053748004
          21 :    18.1636953623323
          22 :   -14.0158475930699
          23 :    10.3735260057197
          24 :   -7.33495480032863
          25 :    4.35305904780620
[...]
     Davidson diagonalization with overlap
     c_bands:  4 eigenvalues not converged
     ethr =  2.47E-05,  avg # of iterations =  8.3

[...]

   This run was terminated on:   2:15:46  17Jan2018

[...]

     Total force =     0.201184     Total SCF correction =     0.007791

[...]

     Program PWSCF v.5.1rc2 (svn rev. 11289) starts on 17Jan2018 at  2:31: 1

[...]

   This run was terminated on:   3: 1: 6  17Jan2018

[...]

     Program PWSCF v.5.1rc2 (svn rev. 11289) starts on 17Jan2018 at  3: 1:12

[...]

   This run was terminated on:   3:52:52  17Jan2018

[...]

     Program PWSCF v.5.1rc2 (svn rev. 11289) starts on 17Jan2018 at  3:52:58

     Current dimensions of program PWSCF are:
     Max number of different atomic species (ntypx) = 10
     Max number of k-points (npk) =  40000
     Max angular momentum in pseudopotentials (lmaxx) =  3
     Presently stress not available with electric field

     IMPORTANT: XC functional enforced from input :
     Exchange-correlation      = BEEF-VDW ( 1  4 27 13 2)
     Any further DFT definition will be discarded
     Please, verify this is what you really want

     Subspace diagonalization in iterative solution of the eigenvalue problem:
     a serial algorithm will be used

     bravais-lattice index     =            0
     lattice parameter (alat)  =       1.8897  a.u.
     unit-cell volume          =    4806.0858 (a.u.)^3
     number of atoms/cell      =           13
     number of atomic types    =            2
     number of electrons       =       145.00
     number of Kohn-Sham states=           82
     kinetic-energy cutoff     =      36.7493  Ry
     charge density cutoff     =     367.4932  Ry
     convergence threshold     =      1.0E-05
     mixing beta               =       0.3000
     number of iterations used =           10  plain     mixing
     Exchange-correlation      = BEEF-VDW ( 1  4 27 13 2)
     nstep                     =           50

     celldm(1)=   1.889726  celldm(2)=   0.000000  celldm(3)=   0.000000
     celldm(4)=   0.000000  celldm(5)=   0.000000  celldm(6)=   0.000000

     crystal axes: (cart. coord. in units of alat)
               a(1) = (   5.768903   0.000000   0.000000 )
               a(2) = (   2.884451   4.996016   0.000000 )
               a(3) = (   0.000000   0.000000  24.710289 )

     reciprocal axes: (cart. coord. in units 2 pi/alat)
               b(1) = (  0.173343 -0.100080  0.000000 )
               b(2) = (  0.000000  0.200159  0.000000 )
               b(3) = (  0.000000  0.000000  0.040469 )

     PseudoPot. # 1 for Ti read from file:
     /afs/slac.stanford.edu/u/if/mamunm/psp/gbrv1.5pbe/Ti.UPF
     MD5 check sum: 88a00a6731bd790ddea75d31a80cb452
     Pseudo is Ultrasoft + core correction, Zval = 12.0
     Generated by new atomic code, or converted to UPF format
     Using radial grid of  851 points,  6 beta functions with:
                l(1) =   0
                l(2) =   0
                l(3) =   1
                l(4) =   1
                l(5) =   2
                l(6) =   2
     Q(r) pseudized with  6 coefficients,  rinner =    1.000   1.000   1.000
                                                       1.000   1.000

     PseudoPot. # 2 for H  read from file:
     /afs/slac.stanford.edu/u/if/mamunm/psp/gbrv1.5pbe/H.UPF
     MD5 check sum: 761ae9a214b05c3daf00ab9f6b793d6f
     Pseudo is Ultrasoft, Zval =  1.0
     Generated by new atomic code, or converted to UPF format
     Using radial grid of  615 points,  2 beta functions with:
                l(1) =   0
                l(2) =   0
     Q(r) pseudized with  8 coefficients,  rinner =    0.700

     vdW kernel table read from file vdW_kernel_table
     MD5 check sum: 095c7af220d748ca6e76c0b4c6cfb241

     atomic species   valence    mass     pseudopotential
        Ti1           12.00    47.86700     Ti( 1.00)
        H1             1.00     1.00800     H ( 1.00)

     No symmetry found

   Cartesian axes

     site n.     atom                  positions (alat units)
         1           Ti1 tau(   1) = (   1.4422257   0.8326694  10.0000000  )
         2           Ti1 tau(   2) = (   4.3266771   0.8326694  10.0000000  )
         3           Ti1 tau(   3) = (   2.8844514   3.3306776  10.0000000  )
         4           Ti1 tau(   4) = (   5.7689029   3.3306776  10.0000000  )
         5           Ti1 tau(   5) = (   5.7689029   1.6653388  12.3551447  )
         6           Ti1 tau(   6) = (   2.8844514   1.6653388  12.3551447  )
         7           Ti1 tau(   7) = (   7.2111286   4.1633470  12.3551447  )
         8           Ti1 tau(   8) = (   4.3266771   4.1633470  12.3551447  )
         9           Ti1 tau(   9) = (   2.8844492   4.9960072  14.5710027  )
        10           Ti1 tau(  10) = (   2.8844881   0.0412045  14.6675502  )
        11           Ti1 tau(  11) = (   1.4779460   2.4774222  14.6676027  )
        12           Ti1 tau(  12) = (   4.2909960   2.4774080  14.6675935  )
        13           H1  tau(  13) = (   2.8844984   1.6653309  15.7880149  )

     number of k points=    20  Fermi-Dirac smearing, width (Ry)=  0.0110
                       cart. coord. in units 2pi/alat
        k(    1) = (   0.0000000   0.0000000   0.0000000), wk =   0.0555556
        k(    2) = (   0.0000000   0.0333599   0.0000000), wk =   0.1111111
        k(    3) = (   0.0000000   0.0667198   0.0000000), wk =   0.1111111
        k(    4) = (   0.0000000  -0.1000797   0.0000000), wk =   0.0555556
        k(    5) = (   0.0288905  -0.0166800   0.0000000), wk =   0.1111111
        k(    6) = (   0.0288905   0.0166800   0.0000000), wk =   0.1111111
        k(    7) = (   0.0288905   0.0500399   0.0000000), wk =   0.1111111
        k(    8) = (   0.0288905  -0.1167597   0.0000000), wk =   0.1111111
        k(    9) = (   0.0288905  -0.0833998   0.0000000), wk =   0.1111111
        k(   10) = (   0.0288905  -0.0500399   0.0000000), wk =   0.1111111
        k(   11) = (   0.0577811  -0.0333599   0.0000000), wk =   0.1111111
        k(   12) = (   0.0577811  -0.0000000   0.0000000), wk =   0.1111111
        k(   13) = (   0.0577811   0.0333599   0.0000000), wk =   0.1111111
        k(   14) = (   0.0577811  -0.1334396   0.0000000), wk =   0.1111111
        k(   15) = (   0.0577811  -0.1000797   0.0000000), wk =   0.1111111
        k(   16) = (   0.0577811  -0.0667198   0.0000000), wk =   0.1111111
        k(   17) = (  -0.0866716   0.0500399   0.0000000), wk =   0.0555556
        k(   18) = (  -0.0866716   0.0833998   0.0000000), wk =   0.1111111
        k(   19) = (  -0.0866716   0.1167597   0.0000000), wk =   0.1111111
        k(   20) = (  -0.0866716  -0.0500399   0.0000000), wk =   0.0555556

     Largest allocated arrays     est. size (Mb)     dimensions
     Largest temporary arrays     est. size (Mb)     dimensions

     Check: negative/imaginary core charge=   -0.000006    0.000000

     Initial potential from superposition of free atoms
     Check: negative starting charge=   -0.013952

     starting charge  132.99946, renormalised to  145.00000

[...]

     *
     * You are using vdW-DF for exchange-correlation in this calculation.
     * Please cite the following three references that made this development
     * possible:
     *
     *   M. Dion, H. Rydberg, E. Schroder, D. C. Langreth, and
     *   B. I. Lundqvist, Phys. Rev. Lett. 92, 246401 (2004).
     *
     *   T. Thonhauser, V. R. Cooper, S. Li, A. Puzder, P. Hyldgaard, and
     *   D. C. Langreth, Phys. Rev. B 76, 125112 (2007).
     *
     *   G. Roman-Perez and J. M. Soler, Phys. Rev. Lett. 103, 096102 (2009).
     *
     *
     * If you are using vdW-DF2, please also cite:
     *
     *   K. Lee, E. D. Murray, L. Kong, B. I. Lundqvist, and
     *   D. C. Langreth, Phys. Rev. B 82, 081101(R) (2010).
     *
     *
     * If you are calculating the stress with vdW-DF, please also cite:
     *
     *   R. Sabatini, E. Kucukbenli, B. Kolb, T. Thonhauser, and
     *   S. de Gironcoli, J. Phys.: Condens. Matter 24, 424209 (2012).
     *

     Carrying out vdW-DF run using the following parameters:

     Nqs =      20    Nr_points =    1024   r_max =   100.000
     q_mesh =
               0.00001000     0.04494208     0.09755937     0.15916263
               0.23128650     0.31572767     0.41458969     0.53033537
               0.66584808     0.82450364     1.01025438     1.22772762
               1.48234092     1.78043706     2.12944203     2.53805004
               3.01644009     3.57652955     4.23227104     5.00000000

     Gradients computed in reciprocal space

[...]

     Starting wfc are  121 randomized atomic wfcs

     Self-consistent Calculation

[...]

     iteration # 16     ecut=    36.75 Ry     beta=0.30
     Davidson diagonalization with overlap
     c_bands:  1 eigenvalues not converged
     ethr =  2.36E-06,  avg # of iterations =  9.2

[...]

     total energy              =   -1439.79115161 Ry
     Harris-Foulkes estimate   =   -1439.79115257 Ry
     estimated scf accuracy    <       0.00003585 Ry

     iteration # 24     ecut=    36.75 Ry     beta=0.30
     Davidson diagonalization with overlap
     ethr =  2.47E-08,  avg # of iterations =  4.8

[...]

     negative rho (up, down):  9.112E-03 0.000E+00

     Adding external electric field

     Computed dipole along edir(3) :
        Dipole                0.0296 Ry au,          0.0751 Debye
        Dipole field          0.0001 Ry au

        Potential amp.       -0.0070 Ry
        Total length         45.5283 bohr

     End of self-consistent calculation

[...]

          k = 0.0578-0.0667 0.0000 ( 18031 PWs)   bands (ev):

[...]

          k =-0.0867-0.0500 0.0000 ( 18044 PWs)   bands (ev):

   -56.2014 -56.1932 -56.1917 -56.1765 -56.1475 -56.1469 -56.1463 -56.1081
   -55.9637 -55.9605 -55.9243 -55.9239 -32.6337 -32.6073 -32.5942 -32.5845
   -32.5724 -32.5662 -32.5220 -32.5198 -32.4976 -32.4972 -32.4662 -32.4608
   -32.4409 -32.4175 -32.4132 -32.3805 -32.3789 -32.3702 -32.3666 -32.3452
   -32.2509 -32.2269 -32.2087 -32.2058 -32.1979 -32.1794 -32.1527 -32.1456
   -32.1284 -32.1263 -32.0931 -32.0904 -32.0822 -32.0672 -31.9752 -31.9677
    -4.3059  -3.1445  -2.9711  -1.9960  -1.6924  -1.1810  -1.1760  -0.9295
    -0.9259  -0.8720  -0.7020  -0.2047  -0.1938  -0.1664  -0.1641  -0.0510
     0.0296   0.2585   0.2852   0.3044   0.3483   0.3542   0.4611   0.5637
     0.5928   0.6116   0.7583   0.7639   0.8101   0.8586   1.0190   1.0753
     1.2370   1.4505

     the Fermi energy is     0.7584 ev

!    total energy              =   -1439.79114989 Ry
     Harris-Foulkes estimate   =   -1439.79115211 Ry
     estimated scf accuracy    <       0.00000420 Ry

     The total energy is the sum of the following terms:

     one-electron contribution =  -11027.09652982 Ry
     hartree contribution      =    5499.00528776 Ry
     xc contribution           =    -225.69954122 Ry
     ewald contribution        =    4314.12982676 Ry
     electric field correction =       0.00000229 Ry
     smearing contrib. (-TS)   =      -0.13019564 Ry

     convergence has been achieved in  24 iterations

 BEEF-vdW xc energy contributions
           1 :   -194.039734437493
           2 :    173.458515907062
           3 :   -139.650887643165
           4 :    103.352510721996
           5 :   -73.4519157217659
           6 :    53.5095985773298
           7 :   -41.6771979277502
           8 :    33.3793860264722
           9 :   -24.6878797924770
          10 :    14.3267615435757
          11 :   -3.53430897475653
          12 :   -5.57473691681150
          13 :    11.7495907594891
          14 :   -15.3246433170017
          15 :    17.6678718948581
          16 :   -19.9901936348782
          17 :    22.4598036703838
          18 :   -24.2236851314063
          19 :    24.2053073855251
          20 :   -22.0062027918642
          21 :    18.2257660630407
          22 :   -14.0216004217152
          23 :    10.3099443739193
          24 :   -7.23665785505898
          25 :    4.27247165806560
          26 :  -0.791661455583153
          27 :   -3.34777578946904
          28 :    7.64437668866444
          29 :   -11.2888593330468
          30 :    13.7012140250000
          31 :   -20.5900198993801
          32 :   -14.6737841601321

     Forces acting on atoms (Ry/au):

     negative rho (up, down):  9.112E-03 0.000E+00
     atom    1 type  1   force =    -0.00011572   -0.00006491    0.00794394
     atom    2 type  1   force =     0.00011353   -0.00007065    0.00788884
     atom    3 type  1   force =    -0.00001671    0.00013154    0.00793886
     atom    4 type  1   force =     0.00001860   -0.00000211    0.00697546
     atom    5 type  1   force =     0.00000824    0.00678301   -0.00747592
     atom    6 type  1   force =    -0.00001681    0.00000100   -0.00950714
     atom    7 type  1   force =    -0.00587243   -0.00339988   -0.00746763
     atom    8 type  1   force =     0.00586272   -0.00337242   -0.00748557
     atom    9 type  1   force =    -0.00000320    0.00000175    0.00138061
     atom   10 type  1   force =     0.00000483   -0.00008142    0.00003599
     atom   11 type  1   force =    -0.00006694    0.00004276    0.00003029
     atom   12 type  1   force =     0.00007200    0.00003371   -0.00001411
     atom   13 type  2   force =     0.00001189   -0.00000239   -0.00024360

     Total force =     0.025198     Total SCF correction =     0.008095
     SCF correction compared to forces is large: reduce conv_thr to get better values

     entering subroutine stress ...

     negative rho (up, down):  9.112E-03 0.000E+00
          total   stress  (Ry/bohr**3)                   (kbar)     P=   -2.83
  -0.00001157   0.00000001   0.00000002         -1.70      0.00      0.00
   0.00000001  -0.00001161   0.00000001          0.00     -1.71      0.00
   0.00000002   0.00000001  -0.00003454          0.00      0.00     -5.08

 !ASE

     Writing output data file calc.save

     General routines

     Parallel routines

   This run was terminated on:   4: 7:36  17Jan2018

   JOB DONE.
Job  /afs/slac/g/suncat/bin/suncat-tsmpirun -x LD_LIBRARY_PATH -wdir /scratch/qe842487_hbvit pw.x -in pw.inp

TID   HOST_NAME   COMMAND_LINE            STATUS            TERMINATION_TIME
00000 suncat0267 pw.x -in pw.inp   Done                     01/17/2018 04:07:36
00001 suncat0267 pw.x -in pw.inp   Done                     01/17/2018 04:07:36
00002 suncat0267 pw.x -in pw.inp   Done                     01/17/2018 04:07:36
00003 suncat0267 pw.x -in pw.inp   Done                     01/17/2018 04:07:36
00004 suncat0267 pw.x -in pw.inp   Done                     01/17/2018 04:07:36
00005 suncat0267 pw.x -in pw.inp   Done                     01/17/2018 04:07:36
00006 suncat0267 pw.x -in pw.inp   Done                     01/17/2018 04:07:36
00007 suncat0267 pw.x -in pw.inp   Done                     01/17/2018 04:07:36
00008 suncat0220 pw.x -in pw.inp   Done                     01/17/2018 04:07:36
00009 suncat0220 pw.x -in pw.inp   Done                     01/17/2018 04:07:36
00010 suncat0220 pw.x -in pw.inp   Done                     01/17/2018 04:07:36
00011 suncat0220 pw.x -in pw.inp   Done                     01/17/2018 04:07:36
00012 suncat0220 pw.x -in pw.inp   Done                     01/17/2018 04:07:36
00013 suncat0220 pw.x -in pw.inp   Done                     01/17/2018 04:07:36
00014 suncat0220 pw.x -in pw.inp   Done                     01/17/2018 04:07:36
00015 suncat0220 pw.x -in pw.inp   Done                     01/17/2018 04:07:36
00016 suncat0209 pw.x -in pw.inp   Done                     01/17/2018 04:07:36
00017 suncat0209 pw.x -in pw.inp   Done                     01/17/2018 04:07:36
00018 suncat0209 pw.x -in pw.inp   Done                     01/17/2018 04:07:36
00019 suncat0209 pw.x -in pw.inp   Done                     01/17/2018 04:07:36
00020 suncat0209 pw.x -in pw.inp   Done                     01/17/2018 04:07:36
00021 suncat0209 pw.x -in pw.inp   Done                     01/17/2018 04:07:36
00022 suncat0209 pw.x -in pw.inp   Done                     01/17/2018 04:07:36
00023 suncat0209 pw.x -in pw.inp   Done                     01/17/2018 04:07:36
00024 suncat0205 pw.x -in pw.inp   Done                     01/17/2018 04:07:36
00025 suncat0205 pw.x -in pw.inp   Done                     01/17/2018 04:07:36
00026 suncat0205 pw.x -in pw.inp   Done                     01/17/2018 04:07:36
00027 suncat0205 pw.x -in pw.inp   Done                     01/17/2018 04:07:36
00028 suncat0205 pw.x -in pw.inp   Done                     01/17/2018 04:07:36
00029 suncat0205 pw.x -in pw.inp   Done                     01/17/2018 04:07:36
00030 suncat0205 pw.x -in pw.inp   Done                     01/17/2018 04:07:36
00031 suncat0205 pw.x -in pw.inp   Done                     01/17/2018 04:07:36