     Program PWSCF v.5.1rc2 starts on  9May2018 at  6:55:42

     Current dimensions of program PWSCF are:
     Max number of different atomic species (ntypx) = 10
     Max number of k-points (npk) =  40000
     Max angular momentum in pseudopotentials (lmaxx) =  3
     Presently stress not available with electric field

     IMPORTANT: XC functional enforced from input :
     Exchange-correlation      = BEEF-VDW ( 1  4 27 13 2)
     Any further DFT definition will be discarded
     Please, verify this is what you really want

     bravais-lattice index     =            0
     lattice parameter (alat)  =       1.8897  a.u.
     unit-cell volume          =    4569.9960 (a.u.)^3
     number of atoms/cell      =           16
     number of atomic types    =            3
     number of electrons       =       199.00
     number of Kohn-Sham states=          109
     kinetic-energy cutoff     =      36.7493  Ry
     charge density cutoff     =     367.4932  Ry
     convergence threshold     =      1.0E-05
     mixing beta               =       0.3000
     number of iterations used =           10  plain     mixing
     Exchange-correlation      = BEEF-VDW ( 1  4 27 13 2)
     nstep                     =           50

     celldm(1)=   1.889726  celldm(2)=   0.000000  celldm(3)=   0.000000
     celldm(4)=   0.000000  celldm(5)=   0.000000  celldm(6)=   0.000000

     crystal axes: (cart. coord. in units of alat)
               a(1) = (   5.637663   0.000000   0.000000 )
               a(2) = (   2.818831   4.882359   0.000000 )
               a(3) = (   0.000000   0.000000  24.603132 )

     reciprocal axes: (cart. coord. in units 2 pi/alat)
               b(1) = (  0.177378 -0.102410  0.000000 )
               b(2) = (  0.000000  0.204819  0.000000 )
               b(3) = (  0.000000  0.000000  0.040645 )

     PseudoPot. # 1 for Pd read from file:
     /home/users/winther/src/pseudo/Pd.UPF
     MD5 check sum: 2d733d2bc2cbfd217af676df1668a4bc
     Pseudo is Ultrasoft + core correction, Zval = 16.0
     Generated by new atomic code, or converted to UPF format
     Using radial grid of  887 points,  6 beta functions with:
                l(1) =   0
                l(2) =   0
                l(3) =   1
                l(4) =   1
                l(5) =   2
                l(6) =   2
     Q(r) pseudized with  8 coefficients,  rinner =    1.130   1.130   1.130
                                                       1.130   1.130

     PseudoPot. # 2 for C  read from file:
     /home/users/winther/src/pseudo/C.UPF
     MD5 check sum: d1aef80898a10debaa0f26306b886e00
     Pseudo is Ultrasoft + core correction, Zval =  4.0
     Generated by new atomic code, or converted to UPF format
     Using radial grid of  721 points,  4 beta functions with:
                l(1) =   0
                l(2) =   0
                l(3) =   1
                l(4) =   1
     Q(r) pseudized with  8 coefficients,  rinner =    1.100   1.100   1.100

     PseudoPot. # 3 for H  read from file:
     /home/users/winther/src/pseudo/H.UPF
     MD5 check sum: 761ae9a214b05c3daf00ab9f6b793d6f
     Pseudo is Ultrasoft, Zval =  1.0
     Generated by new atomic code, or converted to UPF format
     Using radial grid of  615 points,  2 beta functions with:
                l(1) =   0
                l(2) =   0
     Q(r) pseudized with  8 coefficients,  rinner =    0.700

     vdW kernel table read from file vdW_kernel_table
     MD5 check sum: 095c7af220d748ca6e76c0b4c6cfb241

     atomic species   valence    mass     pseudopotential
        Pd1           16.00   106.42000     Pd( 1.00)
        C1             4.00    12.01100     C ( 1.00)
        H1             1.00     1.00800     H ( 1.00)

     No symmetry found

   Cartesian axes

     site n.     atom                  positions (alat units)
         1           Pd1 tau(   1) = (   0.0000000   0.0000000  10.0000000  )
         2           Pd1 tau(   2) = (   1.4094157   2.4411796  10.0000000  )
         3           Pd1 tau(   3) = (   2.8188314   0.0000000  10.0000000  )
         4           Pd1 tau(   4) = (   4.2282471   2.4411796  10.0000000  )
         5           Pd1 tau(   5) = (   5.6376627   3.2549061  12.3015662  )
         6           Pd1 tau(   6) = (   4.2282471   0.8137265  12.3015662  )
         7           Pd1 tau(   7) = (   2.8188314   3.2549061  12.3015662  )
         8           Pd1 tau(   8) = (   1.4094157   0.8137265  12.3015662  )
         9           Pd1 tau(   9) = (   2.8182870   1.6275640  14.6019814  )
        10           Pd1 tau(  10) = (   4.2286228   4.0680320  14.6028407  )
        11           Pd1 tau(  11) = (   5.6370610   1.6293053  14.6031189  )
        12           Pd1 tau(  12) = (   7.0460207   4.0694552  14.6019115  )
        13           C1  tau(  13) = (   4.2284559   2.4392199  15.8359852  )
        14           H1  tau(  14) = (   4.6917675   3.2444180  16.3724848  )
        15           H1  tau(  15) = (   3.7648078   1.6383785  16.3708349  )
        16           H1  tau(  16) = (   2.8181115   1.6269924  16.2191895  )

     number of k points=    20  Fermi-Dirac smearing, width (Ry)=  0.0110
                       cart. coord. in units 2pi/alat
        k(    1) = (   0.0000000   0.0000000   0.0000000), wk =   0.0555556
        k(    2) = (   0.0000000   0.0341365   0.0000000), wk =   0.1111111
        k(    3) = (   0.0000000   0.0682730   0.0000000), wk =   0.1111111
        k(    4) = (   0.0000000  -0.1024095   0.0000000), wk =   0.0555556
        k(    5) = (   0.0295631  -0.0170683   0.0000000), wk =   0.1111111
        k(    6) = (   0.0295631   0.0170683   0.0000000), wk =   0.1111111
        k(    7) = (   0.0295631   0.0512048   0.0000000), wk =   0.1111111
        k(    8) = (   0.0295631  -0.1194778   0.0000000), wk =   0.1111111
        k(    9) = (   0.0295631  -0.0853413   0.0000000), wk =   0.1111111
        k(   10) = (   0.0295631  -0.0512048   0.0000000), wk =   0.1111111
        k(   11) = (   0.0591262  -0.0341365   0.0000000), wk =   0.1111111
        k(   12) = (   0.0591262  -0.0000000   0.0000000), wk =   0.1111111
        k(   13) = (   0.0591262   0.0341365   0.0000000), wk =   0.1111111
        k(   14) = (   0.0591262  -0.1365460   0.0000000), wk =   0.1111111
        k(   15) = (   0.0591262  -0.1024095   0.0000000), wk =   0.1111111
        k(   16) = (   0.0591262  -0.0682730   0.0000000), wk =   0.1111111
        k(   17) = (  -0.0886892   0.0512048   0.0000000), wk =   0.0555556
        k(   18) = (  -0.0886892   0.0853413   0.0000000), wk =   0.1111111
        k(   19) = (  -0.0886892   0.1194778   0.0000000), wk =   0.1111111
        k(   20) = (  -0.0886892  -0.0512048   0.0000000), wk =   0.0555556

     Largest allocated arrays     est. size (Mb)     dimensions
     Largest temporary arrays     est. size (Mb)     dimensions

     Initial potential from superposition of free atoms
     Check: negative starting charge=   -0.903615

     starting charge  192.99985, renormalised to  199.00000

     negative rho (up, down):  9.317E-01 0.000E+00

     *
     * You are using vdW-DF for exchange-correlation in this calculation.
     * Please cite the following three references that made this development
     * possible:
     *
     *   M. Dion, H. Rydberg, E. Schroder, D. C. Langreth, and
     *   B. I. Lundqvist, Phys. Rev. Lett. 92, 246401 (2004).
     *
     *   T. Thonhauser, V. R. Cooper, S. Li, A. Puzder, P. Hyldgaard, and
     *   D. C. Langreth, Phys. Rev. B 76, 125112 (2007).
     *
     *   G. Roman-Perez and J. M. Soler, Phys. Rev. Lett. 103, 096102 (2009).
     *
     *
     * If you are using vdW-DF2, please also cite:
     *
     *   K. Lee, E. D. Murray, L. Kong, B. I. Lundqvist, and
     *   D. C. Langreth, Phys. Rev. B 82, 081101(R) (2010).
     *
     *
     * If you are calculating the stress with vdW-DF, please also cite:
     *
     *   R. Sabatini, E. Kucukbenli, B. Kolb, T. Thonhauser, and
     *   S. de Gironcoli, J. Phys.: Condens. Matter 24, 424209 (2012).
     *

     Carrying out vdW-DF run using the following parameters:

     Nqs =      20    Nr_points =    1024   r_max =   100.000
     q_mesh =
               0.00001000     0.04494208     0.09755937     0.15916263
               0.23128650     0.31572767     0.41458969     0.53033537
               0.66584808     0.82450364     1.01025438     1.22772762
               1.48234092     1.78043706     2.12944203     2.53805004
               3.01644009     3.57652955     4.23227104     5.00000000

     Gradients computed in reciprocal space

     Adding external electric field

     Computed dipole along edir(3) :
        Dipole               -1.5386 Ry au,         -3.9107 Debye
        Dipole field         -0.0042 Ry au

        Potential amp.        0.3836 Ry
        Total length         45.3309 bohr

     Starting wfc are  151 randomized atomic wfcs

     Self-consistent Calculation

     iteration #  1     ecut=    36.75 Ry     beta=0.30
     Davidson diagonalization with overlap
     ethr =  1.00E-02,  avg # of iterations =  5.0

[...]

     total energy              =   -2356.60190420 Ry
     Harris-Foulkes estimate   =   -2415.18165218 Ry
     estimated scf accuracy    <     123.70942163 Ry

[...]

     End of self-consistent calculation

          k = 0.0000 0.0000 0.0000 ( 17231 PWs)   bands (ev):

   -49.5061 -49.1821 -48.9541 -48.9011 -48.7856 -48.5441 -48.4824 -48.4555
   -48.4007 -48.3791 -48.3571 -48.3434 -48.2735 -48.2475 -48.2334 -48.2250
   -48.2041 -48.1929 -48.1837 -48.1327 -48.1286 -48.1185 -48.1095 -48.1078
   -47.9608 -47.9493 -47.9382 -47.9022 -47.8922 -47.8910 -47.8896 -47.8121
   -47.7911 -47.7833 -47.7566 -47.7517 -12.9985  -8.2891  -5.2485  -4.2258
    -3.7700  -3.1904  -3.1884  -2.9842  -2.9210  -2.8903  -2.8385  -2.7586
    -2.7101  -2.6412  -2.5301  -2.4624  -2.4357  -2.2442  -2.1174  -1.7992
    -1.5769  -1.4070  -1.2613  -1.2220  -1.1360  -1.1249  -1.0016  -0.9746
    -0.8613  -0.8092  -0.7897  -0.6670  -0.6176  -0.6146  -0.5461  -0.3095
    -0.2663  -0.0804   0.0095   0.0646   0.1011   0.2646   0.3853   0.4937
     0.5969   0.6198   0.6956   0.8461   0.9832   1.0358   1.1185   1.1268
     1.1682   1.1842   1.2449   1.2632   1.3339   1.3980   1.4023   1.5198
     1.5309   1.5378   1.7304   1.7391   1.7405   1.7868   2.1414   2.7627
     3.7362   3.9285   4.1659   4.4694   4.8374

[...]

          k =-0.0887 0.0512 0.0000 ( 17240 PWs)   bands (ev):

[...]

     the Fermi energy is     1.5091 ev

!    total energy              =   -2412.39425087 Ry
     Harris-Foulkes estimate   =   -2412.39428156 Ry
     estimated scf accuracy    <       0.00000783 Ry

     The total energy is the sum of the following terms:

     one-electron contribution =  -20853.80238849 Ry
     hartree contribution      =   10480.83084088 Ry
     xc contribution           =    -396.34210061 Ry
     ewald contribution        =    8357.02050420 Ry
     electric field correction =       0.00022581 Ry
     smearing contrib. (-TS)   =      -0.10133266 Ry

     convergence has been achieved in  21 iterations

 BEEF-vdW xc energy contributions
           1 :   -344.937211031173
           2 :    315.223851401335
           3 :   -264.503215337049
           4 :    206.349370089680
           5 :   -153.928943304618
           6 :    115.702745465272
           7 :   -93.5889055341339
           8 :    83.9034697382878
           9 :   -80.2672409431509
          10 :    76.9217596273752
          11 :   -70.9534987244004
          12 :    62.6550587205406
          13 :   -54.2737775536611
          14 :    48.1243179518969
          15 :   -45.1643014210791
          16 :    44.6588940468351
          17 :   -44.8728725051760
          18 :    44.1959780347744
          19 :   -41.9912951699851
          20 :    38.7372209890000
          21 :   -35.5124081197915
          22 :    33.2332710566391
          23 :   -32.1282223937012
          24 :    31.7130939569233
          25 :   -31.2021713018160
          26 :    30.0405821244308
          27 :   -28.2178332082684
          28 :    26.1974623337143
          29 :   -24.5556628410789
          30 :    23.5891001129044
          31 :   -33.7953607895088
          32 :   -24.9938745952824

     Forces acting on atoms (Ry/au):

     negative rho (up, down):  9.431E-01 0.000E+00
     atom    1 type  1   force =    -0.00174535    0.00036591   -0.00464082
     atom    2 type  1   force =    -0.00044759    0.00154493   -0.00266296
     atom    3 type  1   force =     0.00230071   -0.00146127   -0.00223427
     atom    4 type  1   force =     0.00045969   -0.00040129   -0.00061234
     atom    5 type  1   force =     0.00180967    0.00070393   -0.00827814
     atom    6 type  1   force =    -0.00028309   -0.00068175   -0.00653247
     atom    7 type  1   force =    -0.00126062    0.00155197   -0.00716051
     atom    8 type  1   force =     0.00308773   -0.00191985    0.00537990
     atom    9 type  1   force =    -0.05301349   -0.00863424   -0.02193081
     atom   10 type  1   force =    -0.01324072    0.03444169   -0.02636231
     atom   11 type  1   force =     0.00933356   -0.00939159   -0.00258110
     atom   12 type  1   force =     0.00378778   -0.00171709   -0.00235197
     atom   13 type  2   force =     0.09677024    0.02274043   -0.06649055
     atom   14 type  3   force =    -0.00224326    0.02579483    0.06156183
     atom   15 type  3   force =     0.07760015   -0.05302515    0.10652371
     atom   16 type  3   force =    -0.12291539   -0.00991148   -0.02162718

     Total force =     0.245449     Total SCF correction =     0.006678

     entering subroutine stress ...

     negative rho (up, down):  9.431E-01 0.000E+00
          total   stress  (Ry/bohr**3)                   (kbar)     P=    6.63
   0.00003830   0.00002330   0.00001788          5.63      3.43      2.63
   0.00002330   0.00000552  -0.00001493          3.43      0.81     -2.20
   0.00001788  -0.00001493   0.00009143          2.63     -2.20     13.45

     BFGS Geometry Optimization

     number of scf cycles    =   1
     number of bfgs steps    =   0

     energy   new            =   -2412.3942508689 Ry

     new trust radius        =       0.1420589659 bohr
     new conv_thr            =       0.0000099958 Ry

ATOMIC_POSITIONS (crystal)
Pd1      0.000000000   0.000000000   0.406452311    0   0   0
Pd1     -0.000000000   0.500000000   0.406452311    0   0   0
Pd1      0.500000000   0.000000000   0.406452311    0   0   0
Pd1      0.500000000   0.500000000   0.406452311    0   0   0
Pd1      0.666666667   0.666666667   0.500000000    0   0   0
Pd1      0.666666667   0.166666667   0.500000000    0   0   0
Pd1      0.166666667   0.666666667   0.500000000    0   0   0
Pd1      0.166666667   0.166666667   0.500000000    0   0   0
Pd1      0.328717233   0.332420225   0.593029207
Pd1      0.330352159   0.836943293   0.592968819
Pd1      0.834421961   0.332694802   0.593491625
Pd1      0.833510074   0.833315698   0.593447480
C1       0.508088673   0.502063357   0.642227164
H1       0.498350837   0.667314300   0.666787531
H1       0.510167813   0.329823907   0.667687535
H1       0.322252543   0.332164725   0.658767535

     Writing output data file calc.save
     Check: negative starting charge=   -0.903615
     NEW-OLD atomic charge density approx. for the potential
     Check: negative starting charge=   -0.904340

[...]

     energy   old            =   -2412.3942508689 Ry
     energy   new            =   -2412.4373526756 Ry

     CASE: energy  _new < energy  _old

[...]

     iteration #  1     ecut=    36.75 Ry     beta=0.30
     Davidson diagonalization with overlap
     c_bands:  1 eigenvalues not converged
     ethr =  1.00E-06,  avg # of iterations =  5.8

[...]

     iteration #  1     ecut=    36.75 Ry     beta=0.30
     Davidson diagonalization with overlap
     c_bands:  1 eigenvalues not converged
     ethr =  1.00E-06,  avg # of iterations =  6.0

[...]

     Total force =     0.012289     Total SCF correction =     0.001411
     SCF correction compared to forces is large: reduce conv_thr to get better values

[...]

     Total force =     0.008807     Total SCF correction =     0.001047
     SCF correction compared to forces is large: reduce conv_thr to get better values

[...]

     number of scf cycles    =  45
     number of bfgs steps    =  44

     energy   old            =   -2412.5906133137 Ry
     energy   new            =   -2412.5906855808 Ry

     CASE: energy  _new < energy  _old

     new trust radius        =       0.0340585555 bohr
     new conv_thr            =       0.0000001000 Ry

ATOMIC_POSITIONS (crystal)
Pd1      0.000000000   0.000000000   0.406452311    0   0   0
Pd1     -0.000000000   0.500000000   0.406452311    0   0   0
Pd1      0.500000000   0.000000000   0.406452311    0   0   0
Pd1      0.500000000   0.500000000   0.406452311    0   0   0
Pd1      0.666666667   0.666666667   0.500000000    0   0   0
Pd1      0.666666667   0.166666667   0.500000000    0   0   0
Pd1      0.166666667   0.666666667   0.500000000    0   0   0
Pd1      0.166666667   0.166666667   0.500000000    0   0   0
Pd1      0.330085304   0.337832231   0.598951793
Pd1      0.321257967   0.845268795   0.591924213
Pd1      0.817388913   0.337545180   0.599371573
Pd1      0.826329076   0.833575147   0.592115943
C1       0.564728087   0.352966939   0.659923904
H1       0.467994626   0.543475151   0.683440689
H1       0.651712850   0.174598316   0.686876779
H1       0.098725278   0.287430440   0.638442921

     Writing output data file calc.save
     Check: negative starting charge=   -0.907748
     NEW-OLD atomic charge density approx. for the potential
     Check: negative starting charge=   -0.908111

[...]

     Self-consistent Calculation

[...]

     total energy              =   -2412.59072882 Ry
     Harris-Foulkes estimate   =   -2412.59072881 Ry
     estimated scf accuracy    <       0.00000010 Ry

     iteration # 11     ecut=    36.75 Ry     beta=0.30
     Davidson diagonalization with overlap
     ethr =  5.25E-11,  avg # of iterations =  2.0

[...]

     negative rho (up, down):  9.474E-01 0.000E+00

     Adding external electric field

     Computed dipole along edir(3) :
        Dipole                0.2012 Ry au,          0.5115 Debye
        Dipole field          0.0006 Ry au

        Potential amp.       -0.0502 Ry
        Total length         45.3309 bohr

     End of self-consistent calculation

[...]

          k = 0.0591-0.0683 0.0000 ( 17183 PWs)   bands (ev):

[...]

          k =-0.0887-0.0512 0.0000 ( 17240 PWs)   bands (ev):

   -49.3351 -49.2978 -49.1069 -49.0920 -48.9013 -48.8951 -48.4882 -48.4853
   -48.4221 -48.4212 -48.4102 -48.4000 -48.3965 -48.3916 -48.3795 -48.3708
   -48.3153 -48.3142 -48.2507 -48.2453 -48.2309 -48.2179 -48.1939 -48.1909
   -48.1835 -48.1670 -48.1487 -48.1480 -48.0947 -48.0886 -48.0855 -48.0370
   -47.9886 -47.9821 -47.9213 -47.9212 -10.9461  -5.0627  -4.3779  -4.0031
    -3.2311  -3.0638  -2.6846  -2.5673  -2.5066  -2.4292  -2.3582  -2.3343
    -2.2379  -2.1690  -2.0954  -2.0749  -1.9918  -1.9838  -1.8765  -1.8503
    -1.7186  -1.5747  -1.5472  -1.5136  -1.4650  -1.4095  -1.3143  -1.2065
    -1.1081  -1.0925  -0.8977  -0.8269  -0.8086  -0.7951  -0.7192  -0.6318
    -0.5746  -0.5277  -0.4971  -0.4903  -0.4107  -0.3836  -0.3522  -0.2281
    -0.1900  -0.1326  -0.0733  -0.0159   0.0278   0.0712   0.1313   0.1902
     0.2633   0.2772   0.4003   0.4818   0.5153   0.6136   0.7684   0.8563
     1.0214   1.0714   1.1141   1.1273   1.3262   1.3440   2.0585   2.7013
     3.5230   3.7247   4.1417   4.2803   4.6066

     the Fermi energy is     1.3402 ev

!    total energy              =   -2412.59072882 Ry
     Harris-Foulkes estimate   =   -2412.59072865 Ry
     estimated scf accuracy    <       0.00000003 Ry

     The total energy is the sum of the following terms:

     one-electron contribution =  -20588.60458625 Ry
     hartree contribution      =   10347.59057811 Ry
     xc contribution           =    -396.09906440 Ry
     ewald contribution        =    8224.62702624 Ry
     electric field correction =       0.00011136 Ry
     smearing contrib. (-TS)   =      -0.10479387 Ry

     convergence has been achieved in  11 iterations

 BEEF-vdW xc energy contributions
           1 :   -344.671316901923
           2 :    314.811444902336
           3 :   -263.927194758203
           4 :    205.721985516685
           5 :   -153.405926312675
           6 :    115.395443671558
           7 :   -93.5130170709274
           8 :    83.9844424830503
           9 :   -80.3916268993669
          10 :    77.0014842708347
          11 :   -70.9666606952400
          12 :    62.6418807396826
          13 :   -54.2953250775860
          14 :    48.2140445092937
          15 :   -45.3024264273228
          16 :    44.7835274485947
          17 :   -44.9185014924677
          18 :    44.1336944758788
          19 :   -41.8456733706543
          20 :    38.5699749023426
          21 :   -35.3850762725158
          22 :    33.1741759523736
          23 :   -32.1233362151052
          24 :    31.7240235567716
          25 :   -31.1964699863966
          26 :    30.0129679213323
          27 :   -28.1896985225262
          28 :    26.1975804968741
          29 :   -24.5971262500411
          30 :    23.6581661333327
          31 :   -33.7772554563674
          32 :   -24.9413270663329

     Forces acting on atoms (Ry/au):

     negative rho (up, down):  9.474E-01 0.000E+00
     atom    1 type  1   force =    -0.00181686   -0.00028409   -0.00433793
     atom    2 type  1   force =     0.00014211   -0.00010271    0.00028550
     atom    3 type  1   force =     0.00174229   -0.00019234   -0.00432821
     atom    4 type  1   force =     0.00016753   -0.00079136    0.00056830
     atom    5 type  1   force =    -0.00164029   -0.00555224   -0.00156211
     atom    6 type  1   force =    -0.00068710    0.00636571    0.00440198
     atom    7 type  1   force =    -0.00092037   -0.00510222   -0.00171592
     atom    8 type  1   force =    -0.00106972    0.00886359    0.00817243
     atom    9 type  1   force =    -0.00107327    0.00041104   -0.00068219
     atom   10 type  1   force =     0.00011586   -0.00071048    0.00046915
     atom   11 type  1   force =     0.00137537    0.00040074   -0.00045143
     atom   12 type  1   force =     0.00181674   -0.00149460   -0.00090991
     atom   13 type  2   force =    -0.00046550    0.00014945    0.00160178
     atom   14 type  3   force =     0.00078453   -0.00008131    0.00048174
     atom   15 type  3   force =     0.00088782   -0.00026420   -0.00144288
     atom   16 type  3   force =     0.00064086   -0.00161499   -0.00055032

     Total force =     0.004589     Total SCF correction =     0.000317

     entering subroutine stress ...

     negative rho (up, down):  9.474E-01 0.000E+00
          total   stress  (Ry/bohr**3)                   (kbar)     P=   -7.76
  -0.00007845   0.00000223   0.00000518        -11.54      0.33      0.76
   0.00000223  -0.00006952  -0.00000268          0.33    -10.23     -0.39
   0.00000518  -0.00000268  -0.00001030          0.76     -0.39     -1.51

     bfgs converged in  46 scf cycles and  45 bfgs steps
     (criteria: energy <  1.0E+00, force <  1.9E-03)

     End of BFGS Geometry Optimization

     Final energy   =   -2412.5907288160 Ry
Begin final coordinates

ATOMIC_POSITIONS (crystal)
Pd1      0.000000000   0.000000000   0.406452311    0   0   0
Pd1     -0.000000000   0.500000000   0.406452311    0   0   0
Pd1      0.500000000   0.000000000   0.406452311    0   0   0
Pd1      0.500000000   0.500000000   0.406452311    0   0   0
Pd1      0.666666667   0.666666667   0.500000000    0   0   0
Pd1      0.666666667   0.166666667   0.500000000    0   0   0
Pd1      0.166666667   0.666666667   0.500000000    0   0   0
Pd1      0.166666667   0.166666667   0.500000000    0   0   0
Pd1      0.330085304   0.337832231   0.598951793
Pd1      0.321257967   0.845268795   0.591924213
Pd1      0.817388913   0.337545180   0.599371573
Pd1      0.826329076   0.833575147   0.592115943
C1       0.564728087   0.352966939   0.659923904
H1       0.467994626   0.543475151   0.683440689
H1       0.651712850   0.174598316   0.686876779
H1       0.098725278   0.287430440   0.638442921
End final coordinates

     Writing output data file calc.save

     General routines

     Parallel routines

   This run was terminated on:   8:44:42   9May2018

   JOB DONE.