     Program PWSCF v.5.1rc2 (svn rev. 11289) starts on 27Jan2018 at 13: 7:40

     Current dimensions of program PWSCF are:
     Max number of different atomic species (ntypx) = 10
     Max number of k-points (npk) =  40000
     Max angular momentum in pseudopotentials (lmaxx) =  3
     Presently stress not available with electric field

     IMPORTANT: XC functional enforced from input :
     Exchange-correlation      = BEEF-VDW ( 1  4 27 13 2)
     Any further DFT definition will be discarded
     Please, verify this is what you really want

     Subspace diagonalization in iterative solution of the eigenvalue problem:
     a serial algorithm will be used

     bravais-lattice index     =            0
     lattice parameter (alat)  =       1.8897  a.u.
     unit-cell volume          =    7171.5276 (a.u.)^3
     number of atoms/cell      =           13
     number of atomic types    =            2
     number of electrons       =       174.00
     number of Kohn-Sham states=           97
     kinetic-energy cutoff     =      36.7493  Ry
     charge density cutoff     =     367.4932  Ry
     convergence threshold     =      1.0E-05
     mixing beta               =       0.3000
     number of iterations used =           10  plain     mixing
     Exchange-correlation      = BEEF-VDW ( 1  4 27 13 2)
     nstep                     =           50

     celldm(1)=   1.889726  celldm(2)=   0.000000  celldm(3)=   0.000000
     celldm(4)=   0.000000  celldm(5)=   0.000000  celldm(6)=   0.000000

     crystal axes: (cart. coord. in units of alat)
               a(1) = (   6.917003   0.000000   0.000000 )
               a(2) = (   3.458501   5.990300   0.000000 )
               a(3) = (   0.000000   0.000000  25.647709 )

     reciprocal axes: (cart. coord. in units 2 pi/alat)
               b(1) = (  0.144571 -0.083468  0.000000 )
               b(2) = (  0.000000  0.166937  0.000000 )
               b(3) = (  0.000000  0.000000  0.038990 )

     PseudoPot. # 1 for Pb read from file:
     /afs/slac.stanford.edu/u/if/mamunm/psp/gbrv1.5pbe/Pb.UPF
     MD5 check sum: 3d1c1779aa92214d1e8f3a7db79003e2
     Pseudo is Ultrasoft + core correction, Zval = 14.0
     Generated by new atomic code, or converted to UPF format
     Using radial grid of  899 points,  6 beta functions with:
                l(1) =   0
                l(2) =   0
                l(3) =   1
                l(4) =   1
                l(5) =   2
                l(6) =   2
     Q(r) pseudized with  6 coefficients,  rinner =    1.000   1.000   1.000
                                                       1.000   1.000

     PseudoPot. # 2 for S  read from file:
     /afs/slac.stanford.edu/u/if/mamunm/psp/gbrv1.5pbe/S.UPF
     MD5 check sum: 88d86576ff6df21479756cfb9bdac1df
     Pseudo is Ultrasoft + core correction, Zval =  6.0
     Generated by new atomic code, or converted to UPF format
     Using radial grid of  907 points,  6 beta functions with:
                l(1) =   0
                l(2) =   0
                l(3) =   1
                l(4) =   1
                l(5) =   2
                l(6) =   2
     Q(r) pseudized with  8 coefficients,  rinner =    1.300   1.300   1.300
                                                       1.300   1.300

     vdW kernel table read from file vdW_kernel_table
     MD5 check sum: 095c7af220d748ca6e76c0b4c6cfb241

     atomic species   valence    mass     pseudopotential
        Pb1           14.00   207.20000     Pb( 1.00)
        S1             6.00    32.06000     S ( 1.00)

     No symmetry found

   Cartesian axes

     site n.     atom                  positions (alat units)
         1           Pb1 tau(   1) = (   1.7292506   0.9983833  10.0000000  )
         2           Pb1 tau(   2) = (   5.1877519   0.9983833  10.0000000  )
         3           Pb1 tau(   3) = (   3.4585013   3.9935333  10.0000000  )
         4           Pb1 tau(   4) = (   6.9170025   3.9935333  10.0000000  )
         5           Pb1 tau(   5) = (   6.9170025   1.9967666  12.8238544  )
         6           Pb1 tau(   6) = (   3.4585013   1.9967666  12.8238544  )
         7           Pb1 tau(   7) = (   8.6462531   4.9919166  12.8238544  )
         8           Pb1 tau(   8) = (   5.1877519   4.9919166  12.8238544  )
         9           Pb1 tau(   9) = (   0.0000000   0.0000000  15.6477089  )
        10           Pb1 tau(  10) = (   3.4585013   0.0000000  15.6477089  )
        11           Pb1 tau(  11) = (   1.7292506   2.9951499  15.6477089  )
        12           Pb1 tau(  12) = (   5.1877519   2.9951499  15.6477089  )
        13           S1  tau(  13) = (   0.0000000   0.0000000  18.1577089  )

     number of k points=    20  Fermi-Dirac smearing, width (Ry)=  0.0110
                       cart. coord. in units 2pi/alat
        k(    1) = (   0.0000000   0.0000000   0.0000000), wk =   0.0555556
        k(    2) = (   0.0000000   0.0278228   0.0000000), wk =   0.1111111
        k(    3) = (   0.0000000   0.0556455   0.0000000), wk =   0.1111111
        k(    4) = (   0.0000000  -0.0834683   0.0000000), wk =   0.0555556
        k(    5) = (   0.0240952  -0.0139114   0.0000000), wk =   0.1111111
        k(    6) = (   0.0240952   0.0139114   0.0000000), wk =   0.1111111
        k(    7) = (   0.0240952   0.0417341   0.0000000), wk =   0.1111111
        k(    8) = (   0.0240952  -0.0973797   0.0000000), wk =   0.1111111
        k(    9) = (   0.0240952  -0.0695569   0.0000000), wk =   0.1111111
        k(   10) = (   0.0240952  -0.0417341   0.0000000), wk =   0.1111111
        k(   11) = (   0.0481904  -0.0278228   0.0000000), wk =   0.1111111
        k(   12) = (   0.0481904   0.0000000   0.0000000), wk =   0.1111111
        k(   13) = (   0.0481904   0.0278228   0.0000000), wk =   0.1111111
        k(   14) = (   0.0481904  -0.1112910   0.0000000), wk =   0.1111111
        k(   15) = (   0.0481904  -0.0834683   0.0000000), wk =   0.1111111
        k(   16) = (   0.0481904  -0.0556455   0.0000000), wk =   0.1111111
        k(   17) = (  -0.0722856   0.0417341   0.0000000), wk =   0.0555556
        k(   18) = (  -0.0722856   0.0695569   0.0000000), wk =   0.1111111
        k(   19) = (  -0.0722856   0.0973797   0.0000000), wk =   0.1111111
        k(   20) = (  -0.0722856  -0.0417341   0.0000000), wk =   0.0555556

     Largest allocated arrays     est. size (Mb)     dimensions
     Largest temporary arrays     est. size (Mb)     dimensions

     Check: negative/imaginary core charge=   -0.000001    0.000000

     Initial potential from superposition of free atoms
     Check: negative starting charge=   -0.197614

     starting charge  173.97174, renormalised to  174.00000

     negative rho (up, down):  1.976E-01 0.000E+00

     *
     * You are using vdW-DF for exchange-correlation in this calculation.
     * Please cite the following three references that made this development
     * possible:
     *
     *   M. Dion, H. Rydberg, E. Schroder, D. C. Langreth, and
     *   B. I. Lundqvist, Phys. Rev. Lett. 92, 246401 (2004).
     *
     *   T. Thonhauser, V. R. Cooper, S. Li, A. Puzder, P. Hyldgaard, and
     *   D. C. Langreth, Phys. Rev. B 76, 125112 (2007).
     *
     *   G. Roman-Perez and J. M. Soler, Phys. Rev. Lett. 103, 096102 (2009).
     *
     *
     * If you are using vdW-DF2, please also cite:
     *
     *   K. Lee, E. D. Murray, L. Kong, B. I. Lundqvist, and
     *   D. C. Langreth, Phys. Rev. B 82, 081101(R) (2010).
     *
     *
     * If you are calculating the stress with vdW-DF, please also cite:
     *
     *   R. Sabatini, E. Kucukbenli, B. Kolb, T. Thonhauser, and
     *   S. de Gironcoli, J. Phys.: Condens. Matter 24, 424209 (2012).
     *

     Carrying out vdW-DF run using the following parameters:

     Nqs =      20    Nr_points =    1024   r_max =   100.000
     q_mesh =
               0.00001000     0.04494208     0.09755937     0.15916263
               0.23128650     0.31572767     0.41458969     0.53033537
               0.66584808     0.82450364     1.01025438     1.22772762
               1.48234092     1.78043706     2.12944203     2.53805004
               3.01644009     3.57652955     4.23227104     5.00000000

     Gradients computed in reciprocal space

     Adding external electric field

     Computed dipole along edir(3) :
        Dipole               -0.0094 Ry au,         -0.0240 Debye
        Dipole field         -0.0000 Ry au

        Potential amp.        0.0016 Ry
        Total length         47.2555 bohr

     Starting wfc are  112 randomized atomic wfcs

     Self-consistent Calculation

     iteration #  1     ecut=    36.75 Ry     beta=0.30
     Davidson diagonalization with overlap
     ethr =  1.00E-02,  avg # of iterations =  2.0

     Threshold (ethr) on eigenvalues was too large:
     Diagonalizing with lowered threshold

     Davidson diagonalization with overlap
     ethr =  7.07E-04,  avg # of iterations =  2.0

[...]

     total energy              =   -2016.14511989 Ry
     Harris-Foulkes estimate   =   -2016.69545979 Ry
     estimated scf accuracy    <       1.21282947 Ry

[...]

     End of self-consistent calculation

          k = 0.0000 0.0000 0.0000 ( 27033 PWs)   bands (ev):

   -16.9957 -16.9897 -16.9897 -16.9490 -16.9394 -16.9394 -16.9175 -16.9085
   -16.8966 -16.8966 -16.8744 -16.8693 -16.8693 -16.8681 -16.8440 -16.8440
   -16.8392 -16.8321 -16.8321 -16.8266 -16.8214 -16.8214 -16.8213 -16.8112
   -16.8112 -16.8102 -16.8102 -16.7947 -16.7736 -16.7736 -16.7386 -16.7331
   -16.7331 -16.6903 -16.6902 -16.6861 -16.6861 -16.6326 -16.6250 -16.6250
   -16.6222 -16.6042 -16.6042 -16.5971 -16.5771 -16.5771 -16.5602 -16.5602
   -16.5596 -16.5525 -16.5525 -16.5492 -16.5198 -16.5131 -16.5131 -16.4521
   -16.4520 -16.4428 -16.3751 -16.3751 -11.0316 -10.5571  -9.6224  -8.2176
    -7.3992  -7.3992  -7.3403  -6.9619  -6.9619  -6.8050  -6.3248  -6.3248
    -6.2007  -3.1141  -3.1062  -3.1062  -2.5795  -2.1408  -2.0697  -2.0697
    -1.9678  -1.9678  -1.9199  -0.5214   0.0868   0.0868   0.5262   1.8038
     1.8789   1.8789   1.9247   1.9247   2.8264   3.2072   3.2341   3.2341
     3.3357

[...]

          k =-0.0723 0.0417 0.0000 ( 26962 PWs)   bands (ev):

[...]

     the Fermi energy is     0.6748 ev

!    total energy              =   -2016.59008048 Ry
     Harris-Foulkes estimate   =   -2016.59009007 Ry
     estimated scf accuracy    <       0.00000160 Ry

     The total energy is the sum of the following terms:

     one-electron contribution =   -9503.06619373 Ry
     hartree contribution      =    4820.80404728 Ry
     xc contribution           =    -792.55578638 Ry
     ewald contribution        =    3458.27323015 Ry
     electric field correction =       0.00142076 Ry
     smearing contrib. (-TS)   =      -0.04679857 Ry

     convergence has been achieved in  12 iterations

 BEEF-vdW xc energy contributions
           1 :   -706.170111661668
           2 :    655.561872449034
           3 :   -566.561861476720
           4 :    458.755106477185
           5 :   -352.237075119280
           6 :    261.660397951396
           7 :   -193.116776085507
           8 :    144.560688900246
           9 :   -109.092540200429
          10 :    79.3385042563324
[...]

[...]

     Program PWSCF v.5.1rc2 (svn rev. 11289) starts on 27Jan2018 at 14:29: 6

[...]

     Total force =     0.023087     Total SCF correction =     0.006357
     SCF correction compared to forces is large: reduce conv_thr to get better values

[...]

   This run was terminated on:  15:11:43  27Jan2018

[...]

     Program PWSCF v.5.1rc2 (svn rev. 11289) starts on 27Jan2018 at 15:11:49

     Current dimensions of program PWSCF are:
     Max number of different atomic species (ntypx) = 10
     Max number of k-points (npk) =  40000
     Max angular momentum in pseudopotentials (lmaxx) =  3
     Presently stress not available with electric field

     IMPORTANT: XC functional enforced from input :
     Exchange-correlation      = BEEF-VDW ( 1  4 27 13 2)
     Any further DFT definition will be discarded
     Please, verify this is what you really want

     Subspace diagonalization in iterative solution of the eigenvalue problem:
     a serial algorithm will be used

     bravais-lattice index     =            0
     lattice parameter (alat)  =       1.8897  a.u.
     unit-cell volume          =    7171.5276 (a.u.)^3
     number of atoms/cell      =           13
     number of atomic types    =            2
     number of electrons       =       174.00
     number of Kohn-Sham states=           97
     kinetic-energy cutoff     =      36.7493  Ry
     charge density cutoff     =     367.4932  Ry
     convergence threshold     =      1.0E-05
     mixing beta               =       0.3000
     number of iterations used =           10  plain     mixing
     Exchange-correlation      = BEEF-VDW ( 1  4 27 13 2)
     nstep                     =           50

     celldm(1)=   1.889726  celldm(2)=   0.000000  celldm(3)=   0.000000
     celldm(4)=   0.000000  celldm(5)=   0.000000  celldm(6)=   0.000000

     crystal axes: (cart. coord. in units of alat)
               a(1) = (   6.917003   0.000000   0.000000 )
               a(2) = (   3.458501   5.990300   0.000000 )
               a(3) = (   0.000000   0.000000  25.647709 )

     reciprocal axes: (cart. coord. in units 2 pi/alat)
               b(1) = (  0.144571 -0.083468  0.000000 )
               b(2) = (  0.000000  0.166937  0.000000 )
               b(3) = (  0.000000  0.000000  0.038990 )

     PseudoPot. # 1 for Pb read from file:
     /afs/slac.stanford.edu/u/if/mamunm/psp/gbrv1.5pbe/Pb.UPF
     MD5 check sum: 3d1c1779aa92214d1e8f3a7db79003e2
     Pseudo is Ultrasoft + core correction, Zval = 14.0
     Generated by new atomic code, or converted to UPF format
     Using radial grid of  899 points,  6 beta functions with:
                l(1) =   0
                l(2) =   0
                l(3) =   1
                l(4) =   1
                l(5) =   2
                l(6) =   2
     Q(r) pseudized with  6 coefficients,  rinner =    1.000   1.000   1.000
                                                       1.000   1.000

     PseudoPot. # 2 for S  read from file:
     /afs/slac.stanford.edu/u/if/mamunm/psp/gbrv1.5pbe/S.UPF
     MD5 check sum: 88d86576ff6df21479756cfb9bdac1df
     Pseudo is Ultrasoft + core correction, Zval =  6.0
     Generated by new atomic code, or converted to UPF format
     Using radial grid of  907 points,  6 beta functions with:
                l(1) =   0
                l(2) =   0
                l(3) =   1
                l(4) =   1
                l(5) =   2
                l(6) =   2
     Q(r) pseudized with  8 coefficients,  rinner =    1.300   1.300   1.300
                                                       1.300   1.300

     vdW kernel table read from file vdW_kernel_table
     MD5 check sum: 095c7af220d748ca6e76c0b4c6cfb241

     atomic species   valence    mass     pseudopotential
        Pb1           14.00   207.20000     Pb( 1.00)
        S1             6.00    32.06000     S ( 1.00)

     No symmetry found

   Cartesian axes

     site n.     atom                  positions (alat units)
         1           Pb1 tau(   1) = (   1.7292506   0.9983833  10.0000000  )
         2           Pb1 tau(   2) = (   5.1877519   0.9983833  10.0000000  )
         3           Pb1 tau(   3) = (   3.4585013   3.9935333  10.0000000  )
         4           Pb1 tau(   4) = (   6.9170025   3.9935333  10.0000000  )
         5           Pb1 tau(   5) = (   6.9170025   1.9967666  12.8238544  )
         6           Pb1 tau(   6) = (   3.4585013   1.9967666  12.8238544  )
         7           Pb1 tau(   7) = (   8.6462531   4.9919166  12.8238544  )
         8           Pb1 tau(   8) = (   5.1877519   4.9919166  12.8238544  )
         9           Pb1 tau(   9) = (   3.4585296   5.9902145  15.8338026  )
        10           Pb1 tau(  10) = (   6.9170617   5.9768418  15.9409627  )
        11           Pb1 tau(  11) = (   8.6345209   3.0017606  15.9412342  )
        12           Pb1 tau(  12) = (   5.1994236   3.0018058  15.9412390  )
        13           S1  tau(  13) = (   6.9170022   0.0000570  18.2970702  )

     number of k points=    20  Fermi-Dirac smearing, width (Ry)=  0.0110
                       cart. coord. in units 2pi/alat
        k(    1) = (   0.0000000   0.0000000   0.0000000), wk =   0.0555556
        k(    2) = (   0.0000000   0.0278228   0.0000000), wk =   0.1111111
        k(    3) = (   0.0000000   0.0556455   0.0000000), wk =   0.1111111
        k(    4) = (   0.0000000  -0.0834683   0.0000000), wk =   0.0555556
        k(    5) = (   0.0240952  -0.0139114   0.0000000), wk =   0.1111111
        k(    6) = (   0.0240952   0.0139114   0.0000000), wk =   0.1111111
        k(    7) = (   0.0240952   0.0417341   0.0000000), wk =   0.1111111
        k(    8) = (   0.0240952  -0.0973797   0.0000000), wk =   0.1111111
        k(    9) = (   0.0240952  -0.0695569   0.0000000), wk =   0.1111111
        k(   10) = (   0.0240952  -0.0417341   0.0000000), wk =   0.1111111
        k(   11) = (   0.0481904  -0.0278228   0.0000000), wk =   0.1111111
        k(   12) = (   0.0481904   0.0000000   0.0000000), wk =   0.1111111
        k(   13) = (   0.0481904   0.0278228   0.0000000), wk =   0.1111111
        k(   14) = (   0.0481904  -0.1112910   0.0000000), wk =   0.1111111
        k(   15) = (   0.0481904  -0.0834683   0.0000000), wk =   0.1111111
        k(   16) = (   0.0481904  -0.0556455   0.0000000), wk =   0.1111111
        k(   17) = (  -0.0722856   0.0417341   0.0000000), wk =   0.0555556
        k(   18) = (  -0.0722856   0.0695569   0.0000000), wk =   0.1111111
        k(   19) = (  -0.0722856   0.0973797   0.0000000), wk =   0.1111111
        k(   20) = (  -0.0722856  -0.0417341   0.0000000), wk =   0.0555556

     Largest allocated arrays     est. size (Mb)     dimensions
     Largest temporary arrays     est. size (Mb)     dimensions

     Check: negative/imaginary core charge=   -0.000001    0.000000

     Initial potential from superposition of free atoms
     Check: negative starting charge=   -0.194320

     starting charge  173.97174, renormalised to  174.00000

[...]

     *
     * You are using vdW-DF for exchange-correlation in this calculation.
     * Please cite the following three references that made this development
     * possible:
     *
     *   M. Dion, H. Rydberg, E. Schroder, D. C. Langreth, and
     *   B. I. Lundqvist, Phys. Rev. Lett. 92, 246401 (2004).
     *
     *   T. Thonhauser, V. R. Cooper, S. Li, A. Puzder, P. Hyldgaard, and
     *   D. C. Langreth, Phys. Rev. B 76, 125112 (2007).
     *
     *   G. Roman-Perez and J. M. Soler, Phys. Rev. Lett. 103, 096102 (2009).
     *
     *
     * If you are using vdW-DF2, please also cite:
     *
     *   K. Lee, E. D. Murray, L. Kong, B. I. Lundqvist, and
     *   D. C. Langreth, Phys. Rev. B 82, 081101(R) (2010).
     *
     *
     * If you are calculating the stress with vdW-DF, please also cite:
     *
     *   R. Sabatini, E. Kucukbenli, B. Kolb, T. Thonhauser, and
     *   S. de Gironcoli, J. Phys.: Condens. Matter 24, 424209 (2012).
     *

     Carrying out vdW-DF run using the following parameters:

     Nqs =      20    Nr_points =    1024   r_max =   100.000
     q_mesh =
               0.00001000     0.04494208     0.09755937     0.15916263
               0.23128650     0.31572767     0.41458969     0.53033537
               0.66584808     0.82450364     1.01025438     1.22772762
               1.48234092     1.78043706     2.12944203     2.53805004
               3.01644009     3.57652955     4.23227104     5.00000000

     Gradients computed in reciprocal space

[...]

     Starting wfc are  112 randomized atomic wfcs

     Self-consistent Calculation

[...]

     Threshold (ethr) on eigenvalues was too large:
     Diagonalizing with lowered threshold

     Davidson diagonalization with overlap
     ethr =  5.95E-04,  avg # of iterations =  2.0

[...]

     total energy              =   -2016.60198313 Ry
     Harris-Foulkes estimate   =   -2016.60198169 Ry
     estimated scf accuracy    <       0.00004069 Ry

     iteration # 12     ecut=    36.75 Ry     beta=0.30
     Davidson diagonalization with overlap
     ethr =  2.34E-08,  avg # of iterations =  2.5

[...]

     negative rho (up, down):  2.105E-01 0.000E+00

     Adding external electric field

     Computed dipole along edir(3) :
        Dipole               -0.8364 Ry au,         -2.1258 Debye
        Dipole field         -0.0015 Ry au

        Potential amp.        0.1385 Ry
        Total length         47.2555 bohr

     End of self-consistent calculation

[...]

          k = 0.0482-0.0556 0.0000 ( 26956 PWs)   bands (ev):

[...]

          k =-0.0723-0.0417 0.0000 ( 26962 PWs)   bands (ev):

   -16.9061 -16.8501 -16.8460 -16.8357 -16.8317 -16.8212 -16.8112 -16.8053
   -16.8014 -16.7988 -16.7926 -16.7864 -16.7825 -16.7769 -16.7758 -16.7753
   -16.7724 -16.7712 -16.7658 -16.7611 -16.7526 -16.7400 -16.7358 -16.7306
   -16.7292 -16.7168 -16.7147 -16.7118 -16.7117 -16.7072 -16.6894 -16.6861
   -16.6817 -16.6758 -16.6484 -16.6427 -16.6408 -16.6388 -16.6351 -16.6278
   -16.6231 -16.6046 -16.6005 -16.5995 -16.5947 -16.5858 -16.5810 -16.5789
   -16.5695 -16.5494 -16.5440 -16.5369 -16.5271 -16.4991 -16.4853 -16.4287
   -16.4247 -16.3865 -16.2992 -16.2940 -10.7398  -9.6029  -9.5632  -8.6543
    -8.4000  -7.6452  -7.6311  -7.5189  -7.4089  -6.9283  -6.7348  -6.2335
    -6.1489  -1.6991  -1.3950  -1.3013  -1.2718  -1.2253  -1.1143  -0.7593
    -0.6179  -0.4750  -0.2623   0.0915   0.3457   0.5226   0.5997   0.8848
     1.3985   1.4395   1.4977   1.7575   1.8075   1.8707   2.0509   2.1390
     2.2017

     the Fermi energy is     0.7239 ev

!    total energy              =   -2016.60198260 Ry
     Harris-Foulkes estimate   =   -2016.60198136 Ry
     estimated scf accuracy    <       0.00000083 Ry

     The total energy is the sum of the following terms:

     one-electron contribution =   -9147.17494978 Ry
     hartree contribution      =    4643.07413195 Ry
     xc contribution           =    -792.41092019 Ry
     ewald contribution        =    3279.95484847 Ry
     electric field correction =       0.00122569 Ry
     smearing contrib. (-TS)   =      -0.04631874 Ry

     convergence has been achieved in  12 iterations

 BEEF-vdW xc energy contributions
           1 :   -706.014718576357
           2 :    655.305233095912
           3 :   -566.179425518659
           4 :    458.335533842808
           5 :   -351.940453390256
           6 :    261.613536051610
           7 :   -193.318033893452
           8 :    144.864003729980
           9 :   -109.286008172250
          10 :    79.2693513035059
          11 :   -50.5746555566335
          12 :    23.1322606372709
          13 :   0.228003288150944
          14 :   -16.3111914133248
          15 :    23.8201857013479
          16 :   -24.2167500721570
          17 :    20.9444146379934
          18 :   -17.6575590506960
          19 :    16.5317511296146
          20 :   -17.5526307061870
          21 :    19.0478827914482
          22 :   -19.0296992616715
          23 :    16.5183402025606
          24 :   -12.1173500348617
          25 :    7.59839385891553
          26 :   -4.82936293515831
          27 :    4.71236832880311
          28 :   -6.73347265974394
          29 :    9.33242539736148
          30 :   -10.8281675429774
          31 :   -56.7197958515648
          32 :   -41.5005455228784

     Forces acting on atoms (Ry/au):

     negative rho (up, down):  2.105E-01 0.000E+00
     atom    1 type  1   force =    -0.00167761   -0.00095821   -0.00697073
     atom    2 type  1   force =     0.00167875   -0.00095976   -0.00697960
     atom    3 type  1   force =    -0.00000789    0.00195518   -0.00695231
     atom    4 type  1   force =     0.00001977   -0.00001190   -0.00341045
     atom    5 type  1   force =    -0.00000237    0.00277983    0.00438758
     atom    6 type  1   force =     0.00000943    0.00002548    0.01186309
     atom    7 type  1   force =    -0.00243627   -0.00140890    0.00440186
     atom    8 type  1   force =     0.00243259   -0.00138728    0.00441627
     atom    9 type  1   force =     0.00001540   -0.00001442   -0.00093480
     atom   10 type  1   force =    -0.00000992    0.00054466    0.00033438
     atom   11 type  1   force =     0.00048055   -0.00028951    0.00034216
     atom   12 type  1   force =    -0.00049668   -0.00028412    0.00035707
     atom   13 type  2   force =    -0.00000575    0.00000895   -0.00085451

     Total force =     0.019845     Total SCF correction =     0.001934

     entering subroutine stress ...

     negative rho (up, down):  2.105E-01 0.000E+00
          total   stress  (Ry/bohr**3)                   (kbar)     P=    7.28
   0.00006315  -0.00000000  -0.00000000          9.29     -0.00     -0.00
  -0.00000000   0.00006315   0.00000000         -0.00      9.29      0.00
  -0.00000000   0.00000000   0.00002220         -0.00      0.00      3.27

 !ASE

     Writing output data file calc.save

     General routines

     Parallel routines

   This run was terminated on:  15:25: 8  27Jan2018

   JOB DONE.
Job  /afs/slac/g/suncat/bin/suncat-tsmpirun -x LD_LIBRARY_PATH -wdir /scratch/qe498627_Sf6vV pw.x -in pw.inp

TID   HOST_NAME   COMMAND_LINE            STATUS            TERMINATION_TIME
00000 suncat0085 pw.x -in pw.inp   Done                     01/27/2018 15:25:08
00001 suncat0085 pw.x -in pw.inp   Done                     01/27/2018 15:25:08
00002 suncat0085 pw.x -in pw.inp   Done                     01/27/2018 15:25:08
00003 suncat0085 pw.x -in pw.inp   Done                     01/27/2018 15:25:08
00004 suncat0085 pw.x -in pw.inp   Done                     01/27/2018 15:25:08
00005 suncat0085 pw.x -in pw.inp   Done                     01/27/2018 15:25:08
00006 suncat0085 pw.x -in pw.inp   Done                     01/27/2018 15:25:08
00007 suncat0085 pw.x -in pw.inp   Done                     01/27/2018 15:25:08
00008 suncat0075 pw.x -in pw.inp   Done                     01/27/2018 15:25:08
00009 suncat0075 pw.x -in pw.inp   Done                     01/27/2018 15:25:08
00010 suncat0075 pw.x -in pw.inp   Done                     01/27/2018 15:25:08
00011 suncat0075 pw.x -in pw.inp   Done                     01/27/2018 15:25:08
00012 suncat0075 pw.x -in pw.inp   Done                     01/27/2018 15:25:08
00013 suncat0075 pw.x -in pw.inp   Done                     01/27/2018 15:25:08
00014 suncat0075 pw.x -in pw.inp   Done                     01/27/2018 15:25:08
00015 suncat0075 pw.x -in pw.inp   Done                     01/27/2018 15:25:08
00016 suncat0129 pw.x -in pw.inp   Done                     01/27/2018 15:25:08
00017 suncat0129 pw.x -in pw.inp   Done                     01/27/2018 15:25:08
00018 suncat0129 pw.x -in pw.inp   Done                     01/27/2018 15:25:08
00019 suncat0129 pw.x -in pw.inp   Done                     01/27/2018 15:25:08
00020 suncat0129 pw.x -in pw.inp   Done                     01/27/2018 15:25:08
00021 suncat0129 pw.x -in pw.inp   Done                     01/27/2018 15:25:08
00022 suncat0129 pw.x -in pw.inp   Done                     01/27/2018 15:25:08
00023 suncat0129 pw.x -in pw.inp   Done                     01/27/2018 15:25:08
00024 suncat0255 pw.x -in pw.inp   Done                     01/27/2018 15:25:08
00025 suncat0255 pw.x -in pw.inp   Done                     01/27/2018 15:25:08
00026 suncat0255 pw.x -in pw.inp   Done                     01/27/2018 15:25:08
00027 suncat0255 pw.x -in pw.inp   Done                     01/27/2018 15:25:08
00028 suncat0255 pw.x -in pw.inp   Done                     01/27/2018 15:25:08
00029 suncat0255 pw.x -in pw.inp   Done                     01/27/2018 15:25:08
00030 suncat0255 pw.x -in pw.inp   Done                     01/27/2018 15:25:08
00031 suncat0255 pw.x -in pw.inp   Done                     01/27/2018 15:25:08