     Program PWSCF v.5.1rc2 (svn rev. 11289) starts on  3May2018 at  5:58: 0

     Current dimensions of program PWSCF are:
     Max number of different atomic species (ntypx) = 10
     Max number of k-points (npk) =  40000
     Max angular momentum in pseudopotentials (lmaxx) =  3
     Presently stress not available with electric field

     IMPORTANT: XC functional enforced from input :
     Exchange-correlation      = BEEF-VDW ( 1  4 27 13 2)
     Any further DFT definition will be discarded
     Please, verify this is what you really want

     Subspace diagonalization in iterative solution of the eigenvalue problem:
     a serial algorithm will be used

     bravais-lattice index     =            0
     lattice parameter (alat)  =       1.8897  a.u.
     unit-cell volume          =    4704.3541 (a.u.)^3
     number of atoms/cell      =           13
     number of atomic types    =            2
     number of electrons       =       174.00
     number of Kohn-Sham states=           97
     kinetic-energy cutoff     =      36.7493  Ry
     charge density cutoff     =     367.4932  Ry
     convergence threshold     =      1.0E-05
     mixing beta               =       0.3000
     number of iterations used =           10  plain     mixing
     Exchange-correlation      = BEEF-VDW ( 1  4 27 13 2)
     nstep                     =           50

     celldm(1)=   1.889726  celldm(2)=   0.000000  celldm(3)=   0.000000
     celldm(4)=   0.000000  celldm(5)=   0.000000  celldm(6)=   0.000000

     crystal axes: (cart. coord. in units of alat)
               a(1) = (   5.712816   0.000000   0.000000 )
               a(2) = (   2.856408   4.947444   0.000000 )
               a(3) = (   0.000000   0.000000  24.664495 )

     reciprocal axes: (cart. coord. in units 2 pi/alat)
               b(1) = (  0.175045 -0.101062  0.000000 )
               b(2) = (  0.000000  0.202125  0.000000 )
               b(3) = (  0.000000  0.000000  0.040544 )

     PseudoPot. # 1 for W  read from file:
     /u/if/mamunm/psp/gbrv1.5pbe/W.UPF
     MD5 check sum: 9c083fa34c2a2ea0f02f1f893e16e1c8
     Pseudo is Ultrasoft + core correction, Zval = 14.0
     Generated by new atomic code, or converted to UPF format
     Using radial grid of  923 points,  8 beta functions with:
                l(1) =   0
                l(2) =   0
                l(3) =   0
                l(4) =   1
                l(5) =   1
                l(6) =   2
                l(7) =   2
                l(8) =   3
     Q(r) pseudized with  6 coefficients,  rinner =    1.350   1.350   1.350
                                                       1.350   1.350   1.350
                                                       1.350

     PseudoPot. # 2 for S  read from file:
     /u/if/mamunm/psp/gbrv1.5pbe/S.UPF
     MD5 check sum: 88d86576ff6df21479756cfb9bdac1df
     Pseudo is Ultrasoft + core correction, Zval =  6.0
     Generated by new atomic code, or converted to UPF format
     Using radial grid of  907 points,  6 beta functions with:
                l(1) =   0
                l(2) =   0
                l(3) =   1
                l(4) =   1
                l(5) =   2
                l(6) =   2
     Q(r) pseudized with  8 coefficients,  rinner =    1.300   1.300   1.300
                                                       1.300   1.300

     vdW kernel table read from file vdW_kernel_table
     MD5 check sum: 095c7af220d748ca6e76c0b4c6cfb241

     atomic species   valence    mass     pseudopotential
        W1            14.00   183.84000     W ( 1.00)
        S1             6.00    32.06000     S ( 1.00)

     No symmetry found

   Cartesian axes

     site n.     atom                  positions (alat units)
         1           W1  tau(   1) = (   1.4282041   0.8245740  10.0000000  )
         2           W1  tau(   2) = (   4.2846123   0.8245740  10.0000000  )
         3           W1  tau(   3) = (   2.8564082   3.2982961  10.0000000  )
         4           W1  tau(   4) = (   5.7128165   3.2982961  10.0000000  )
         5           W1  tau(   5) = (   5.7128165   1.6491481  12.3322476  )
         6           W1  tau(   6) = (   2.8564082   1.6491481  12.3322476  )
         7           W1  tau(   7) = (   7.1410206   4.1228701  12.3322476  )
         8           W1  tau(   8) = (   4.2846123   4.1228701  12.3322476  )
         9           W1  tau(   9) = (   0.0000000   0.0000000  14.6644951  )
        10           W1  tau(  10) = (   2.8564082   0.0000000  14.6644951  )
        11           W1  tau(  11) = (   1.4282041   2.4737221  14.6644951  )
        12           W1  tau(  12) = (   4.2846123   2.4737221  14.6644951  )
        13           S1  tau(  13) = (   1.4282041   0.8245740  16.3999951  )

     number of k points=    20  Fermi-Dirac smearing, width (Ry)=  0.0110
                       cart. coord. in units 2pi/alat
        k(    1) = (   0.0000000   0.0000000   0.0000000), wk =   0.0555556
        k(    2) = (   0.0000000   0.0336874   0.0000000), wk =   0.1111111
        k(    3) = (   0.0000000   0.0673749   0.0000000), wk =   0.1111111
        k(    4) = (   0.0000000  -0.1010623   0.0000000), wk =   0.0555556
        k(    5) = (   0.0291742  -0.0168437   0.0000000), wk =   0.1111111
        k(    6) = (   0.0291742   0.0168437   0.0000000), wk =   0.1111111
        k(    7) = (   0.0291742   0.0505311   0.0000000), wk =   0.1111111
        k(    8) = (   0.0291742  -0.1179060   0.0000000), wk =   0.1111111
        k(    9) = (   0.0291742  -0.0842186   0.0000000), wk =   0.1111111
        k(   10) = (   0.0291742  -0.0505311   0.0000000), wk =   0.1111111
        k(   11) = (   0.0583483  -0.0336874   0.0000000), wk =   0.1111111
        k(   12) = (   0.0583483  -0.0000000   0.0000000), wk =   0.1111111
        k(   13) = (   0.0583483   0.0336874   0.0000000), wk =   0.1111111
        k(   14) = (   0.0583483  -0.1347497   0.0000000), wk =   0.1111111
        k(   15) = (   0.0583483  -0.1010623   0.0000000), wk =   0.1111111
        k(   16) = (   0.0583483  -0.0673749   0.0000000), wk =   0.1111111
        k(   17) = (  -0.0875225   0.0505311   0.0000000), wk =   0.0555556
        k(   18) = (  -0.0875225   0.0842186   0.0000000), wk =   0.1111111
        k(   19) = (  -0.0875225   0.1179060   0.0000000), wk =   0.1111111
        k(   20) = (  -0.0875225  -0.0505311   0.0000000), wk =   0.0555556

     Largest allocated arrays     est. size (Mb)     dimensions
     Largest temporary arrays     est. size (Mb)     dimensions

     Initial potential from superposition of free atoms
     Check: negative starting charge=   -0.760231

     starting charge  172.79588, renormalised to  174.00000

     negative rho (up, down):  7.655E-01 0.000E+00

     *
     * You are using vdW-DF for exchange-correlation in this calculation.
     * Please cite the following three references that made this development
     * possible:
     *
     *   M. Dion, H. Rydberg, E. Schroder, D. C. Langreth, and
     *   B. I. Lundqvist, Phys. Rev. Lett. 92, 246401 (2004).
     *
     *   T. Thonhauser, V. R. Cooper, S. Li, A. Puzder, P. Hyldgaard, and
     *   D. C. Langreth, Phys. Rev. B 76, 125112 (2007).
     *
     *   G. Roman-Perez and J. M. Soler, Phys. Rev. Lett. 103, 096102 (2009).
     *
     *
     * If you are using vdW-DF2, please also cite:
     *
     *   K. Lee, E. D. Murray, L. Kong, B. I. Lundqvist, and
     *   D. C. Langreth, Phys. Rev. B 82, 081101(R) (2010).
     *
     *
     * If you are calculating the stress with vdW-DF, please also cite:
     *
     *   R. Sabatini, E. Kucukbenli, B. Kolb, T. Thonhauser, and
     *   S. de Gironcoli, J. Phys.: Condens. Matter 24, 424209 (2012).
     *

     Carrying out vdW-DF run using the following parameters:

     Nqs =      20    Nr_points =    1024   r_max =   100.000
     q_mesh =
               0.00001000     0.04494208     0.09755937     0.15916263
               0.23128650     0.31572767     0.41458969     0.53033537
               0.66584808     0.82450364     1.01025438     1.22772762
               1.48234092     1.78043706     2.12944203     2.53805004
               3.01644009     3.57652955     4.23227104     5.00000000

     Gradients computed in reciprocal space

     Adding external electric field

     Computed dipole along edir(3) :
        Dipole               -0.3211 Ry au,         -0.8162 Debye
        Dipole field         -0.0009 Ry au

        Potential amp.        0.0780 Ry
        Total length         45.4439 bohr

     Starting wfc are  160 randomized atomic wfcs

     Self-consistent Calculation

     iteration #  1     ecut=    36.75 Ry     beta=0.30
     Davidson diagonalization with overlap
     ethr =  1.00E-02,  avg # of iterations =  2.0

[...]

     total energy              =   -1946.42242294 Ry
     Harris-Foulkes estimate   =   -1949.65572264 Ry
     estimated scf accuracy    <       6.86614464 Ry

[...]

     End of self-consistent calculation

          k = 0.0000 0.0000 0.0000 ( 17753 PWs)   bands (ev):

   -71.6338 -71.5811 -71.5603 -71.5354 -71.5353 -71.5243 -71.5092 -71.4941
   -71.4941 -71.4727 -71.4726 -71.4666 -36.1950 -36.1727 -36.1727 -36.1516
   -36.1084 -36.0903 -36.0902 -35.9915 -35.9800 -35.9799 -35.7849 -35.6932
   -35.6688 -35.6687 -35.6105 -35.6105 -35.6088 -35.5166 -35.5166 -35.4836
   -35.4274 -35.4157 -35.4156 -35.3907 -35.3907 -35.3700 -35.3407 -35.2928
   -35.2928 -35.2837 -35.2736 -35.2736 -35.2038 -35.2038 -35.1156 -35.1156
   -10.8217  -5.5009  -3.7842  -3.0468  -2.6512  -2.6512  -2.5692  -2.3857
    -2.3857  -2.3553  -1.8538  -1.6834  -1.6834  -1.4096  -1.4095  -1.3693
    -0.6935  -0.6935  -0.4411   0.4063   0.4063   1.0824   1.2510   1.2510
     1.2532   1.3869   1.6601   2.0144   2.0144   2.1438   2.1565   2.1565
     2.3818   2.3818   2.4589   2.5038   2.5038   2.5125   2.6251   2.6251
     3.3471   3.5102   3.5103   4.1563   4.2466   4.2466   4.2602   4.6184
     4.6185

[...]

          k =-0.0875 0.0505 0.0000 ( 17668 PWs)   bands (ev):

[...]

     the Fermi energy is     2.6273 ev

!    total energy              =   -1949.34257084 Ry
     Harris-Foulkes estimate   =   -1949.34257085 Ry
     estimated scf accuracy    <       0.00000045 Ry

     The total energy is the sum of the following terms:

     one-electron contribution =  -15047.98337905 Ry
     hartree contribution      =    7510.35852148 Ry
     xc contribution           =    -519.27220058 Ry
     ewald contribution        =    6107.64925250 Ry
     electric field correction =       0.00000007 Ry
     smearing contrib. (-TS)   =      -0.09476526 Ry

     convergence has been achieved in  18 iterations

 BEEF-vdW xc energy contributions
           1 :   -456.680322317161
           2 :    422.332883810423
           3 :   -361.835950072802
           4 :    288.440424555747
           5 :   -215.967571141982
           6 :    154.818434865255
           7 :   -109.730129636331
           8 :    79.8267558020849
           9 :   -60.5810088857587
          10 :    46.5960198295976
          11 :   -33.9483953330010
          12 :    21.2396050555476
          13 :   -9.23400568842976
          14 :  -0.391232659888033
          15 :    6.38911352319349
          16 :   -8.72990589843391
          17 :    8.57738795764396
          18 :   -7.62895760341763
          19 :    7.26695168947163
          20 :   -7.98391282189846
          21 :    9.33936390229394
          22 :   -10.4017671462385
          23 :    10.3842845824024
          24 :   -9.11793019933748
          25 :    7.13024691194039
          26 :   -5.32654222377141
          27 :    4.47950784301941
          28 :   -4.81856147353790
          29 :    5.93503644818259
          30 :   -7.03443850250983
          31 :   -41.5313388259724
          32 :   -31.0919854078969

     Forces acting on atoms (Ry/au):

     negative rho (up, down):  7.929E-01 0.000E+00
     atom    1 type  1   force =    -0.00000236   -0.00000593   -0.00207824
     atom    2 type  1   force =     0.00000455    0.00085263   -0.00572643
     atom    3 type  1   force =     0.00073848   -0.00042194   -0.00571541
     atom    4 type  1   force =    -0.00074117   -0.00042614   -0.00571061
     atom    5 type  1   force =     0.00380669   -0.00219689    0.00064820
     atom    6 type  1   force =    -0.00380769   -0.00219777    0.00064686
     atom    7 type  1   force =     0.00000250   -0.00000682   -0.00559253
     atom    8 type  1   force =    -0.00000079    0.00439503    0.00064210
     atom    9 type  1   force =    -0.04337664   -0.02504206    0.01812418
     atom   10 type  1   force =     0.04337749   -0.02504528    0.01814459
     atom   11 type  1   force =    -0.00000324    0.05008446    0.01817233
     atom   12 type  1   force =     0.00000061   -0.00000113   -0.04764892
     atom   13 type  2   force =     0.00000157    0.00001185    0.01609389

     Total force =     0.105087     Total SCF correction =     0.001407

     entering subroutine stress ...

     negative rho (up, down):  7.929E-01 0.000E+00
          total   stress  (Ry/bohr**3)                   (kbar)     P=  -39.98
  -0.00039159   0.00000000  -0.00000000        -57.60      0.00     -0.00
   0.00000000  -0.00039158  -0.00000000          0.00    -57.60     -0.00
  -0.00000000  -0.00000000  -0.00003214         -0.00     -0.00     -4.73

     BFGS Geometry Optimization

     number of scf cycles    =   1
     number of bfgs steps    =   0

     energy   new            =   -1949.3425708359 Ry

     new trust radius        =       0.0532793238 bohr
     new conv_thr            =       0.0000099958 Ry

ATOMIC_POSITIONS (crystal)
W1       0.166666667   0.166666667   0.405441099    0   0   0
W1       0.666666667   0.166666667   0.405441099    0   0   0
W1       0.166666667   0.666666667   0.405441099    0   0   0
W1       0.666666667   0.666666667   0.405441099    0   0   0
W1       0.833333333   0.333333333   0.500000000    0   0   0
W1       0.333333333   0.333333333   0.500000000    0   0   0
W1       0.833333333   0.833333333   0.500000000    0   0   0
W1       0.333333333   0.833333333   0.500000000    0   0   0
W1      -0.002678725  -0.002678492   0.594947756
W1       0.505357468  -0.002678836   0.594948193
W1      -0.002678809   0.505357019   0.594948789
W1       0.500000116   0.499999879   0.593536593
S1       0.166666178   0.166667934   0.665268498

     Writing output data file calc.save
     Check: negative starting charge=   -0.760231
     NEW-OLD atomic charge density approx. for the potential
     Check: negative starting charge=   -0.761244

[...]

     energy   old            =   -1949.3425708359 Ry
     energy   new            =   -1949.3518390086 Ry

     CASE: energy  _new < energy  _old

[...]

     Total force =     0.015820     Total SCF correction =     0.000525

[...]

     Total force =     0.006132     Total SCF correction =     0.000647
     SCF correction compared to forces is large: reduce conv_thr to get better values

[...]

     number of scf cycles    =   8
     number of bfgs steps    =   7

     energy   old            =   -1949.3693313297 Ry
     energy   new            =   -1949.3696513561 Ry

     CASE: energy  _new < energy  _old

     new trust radius        =       0.0086747757 bohr
     new conv_thr            =       0.0000001000 Ry

ATOMIC_POSITIONS (crystal)
W1       0.166666667   0.166666667   0.405441099    0   0   0
W1       0.666666667   0.166666667   0.405441099    0   0   0
W1       0.166666667   0.666666667   0.405441099    0   0   0
W1       0.666666667   0.666666667   0.405441099    0   0   0
W1       0.833333333   0.333333333   0.500000000    0   0   0
W1       0.333333333   0.333333333   0.500000000    0   0   0
W1       0.833333333   0.833333333   0.500000000    0   0   0
W1       0.333333333   0.833333333   0.500000000    0   0   0
W1      -0.006497235  -0.006496887   0.597740441
W1       0.512996249  -0.006497864   0.597740771
W1      -0.006498756   0.512997218   0.597740977
W1       0.499998814   0.499999025   0.584012394
S1       0.166665996   0.166666510   0.667108545

     Writing output data file calc.save
     Check: negative starting charge=   -0.759357
     NEW-OLD atomic charge density approx. for the potential
     Check: negative starting charge=   -0.758793

[...]

     Self-consistent Calculation

[...]

     Threshold (ethr) on eigenvalues was too large:
     Diagonalizing with lowered threshold

     Davidson diagonalization with overlap
     ethr =  3.85E-08,  avg # of iterations =  3.0

[...]

     total energy              =   -1949.36970096 Ry
     Harris-Foulkes estimate   =   -1949.36970099 Ry
     estimated scf accuracy    <       0.00000041 Ry

     iteration #  8     ecut=    36.75 Ry     beta=0.30
     Davidson diagonalization with overlap
     ethr =  2.33E-10,  avg # of iterations =  3.0

[...]

     negative rho (up, down):  7.920E-01 0.000E+00

     Adding external electric field

     Computed dipole along edir(3) :
        Dipole               -0.0190 Ry au,         -0.0483 Debye
        Dipole field         -0.0001 Ry au

        Potential amp.        0.0046 Ry
        Total length         45.4439 bohr

     End of self-consistent calculation

[...]

          k = 0.0583-0.0674 0.0000 ( 17692 PWs)   bands (ev):

[...]

          k =-0.0875-0.0505 0.0000 ( 17668 PWs)   bands (ev):

   -71.6930 -71.6598 -71.6492 -71.6448 -71.5503 -71.5351 -71.5174 -71.5056
   -71.5045 -71.4918 -71.4843 -71.4347 -36.1416 -36.1136 -36.0785 -36.0241
   -36.0117 -35.9880 -35.9275 -35.9144 -35.8679 -35.8527 -35.8471 -35.8096
   -35.8019 -35.7123 -35.7002 -35.6678 -35.6450 -35.6281 -35.5963 -35.5850
   -35.5624 -35.5442 -35.5340 -35.5250 -35.4907 -35.4799 -35.4566 -35.4319
   -35.4192 -35.3789 -35.3603 -35.2915 -35.2605 -35.2333 -35.1996 -35.1960
   -10.7203  -3.7944  -3.6320  -2.5977  -2.3232  -1.8516  -1.7101  -1.6069
    -1.3881  -1.3474  -1.2250  -1.2167  -1.1371  -0.5651  -0.4564  -0.2945
    -0.2199  -0.1221  -0.0952   0.1087   0.3066   0.4719   0.5098   0.5842
     0.7111   0.7613   0.9730   1.2273   1.2735   1.3896   1.4929   1.5240
     1.5628   1.6578   1.7190   2.0693   2.1221   2.1682   2.2448   2.5876
     2.6156   2.8218   3.1398   3.3465   3.5417   3.5730   3.6840   3.8783
     3.9537

     the Fermi energy is     2.6105 ev

!    total energy              =   -1949.36970098 Ry
     Harris-Foulkes estimate   =   -1949.36970102 Ry
     estimated scf accuracy    <       0.00000006 Ry

     The total energy is the sum of the following terms:

     one-electron contribution =  -15037.65776207 Ry
     hartree contribution      =    7504.98540886 Ry
     xc contribution           =    -519.29336406 Ry
     ewald contribution        =    6102.68682674 Ry
     electric field correction =       0.00000097 Ry
     smearing contrib. (-TS)   =      -0.09081142 Ry

     convergence has been achieved in   8 iterations

 BEEF-vdW xc energy contributions
           1 :   -456.701206243889
           2 :    422.342544610669
           3 :   -361.826798710267
           4 :    288.406701359712
           5 :   -215.902920661140
           6 :    154.715224822820
           7 :   -109.580526042224
           8 :    79.6270938854901
           9 :   -60.3391838811309
          10 :    46.3370526039463
          11 :   -33.7113661210022
          12 :    21.0628573955292
          13 :   -9.13430738772820
          14 :  -0.432553741480660
          15 :    6.42135749498692
          16 :   -8.80874214845937
          17 :    8.73304833495672
          18 :   -7.84543768099348
          19 :    7.48674536359567
          20 :   -8.13831287595383
          21 :    9.38791226051740
          22 :   -10.3581996619564
          23 :    10.3129824794771
          24 :   -9.10091200535896
          25 :    7.22210518840484
          26 :   -5.52268652652469
          27 :    4.71659838364178
          28 :   -5.00827262446387
          29 :    6.01267400563989
          30 :   -6.99510743833105
          31 :   -41.5319784468745
          32 :   -31.0875736599377

     Forces acting on atoms (Ry/au):

     negative rho (up, down):  7.920E-01 0.000E+00
     atom    1 type  1   force =    -0.00000013   -0.00000010    0.00862797
     atom    2 type  1   force =     0.00000011    0.00191044   -0.00625489
     atom    3 type  1   force =     0.00165454   -0.00095516   -0.00625485
     atom    4 type  1   force =    -0.00165423   -0.00095515   -0.00625462
     atom    5 type  1   force =     0.02544444   -0.01468868   -0.00328124
     atom    6 type  1   force =    -0.02544449   -0.01468989   -0.00328121
     atom    7 type  1   force =    -0.00000082   -0.00000100    0.02015267
     atom    8 type  1   force =     0.00000105    0.02937963   -0.00328205
     atom    9 type  1   force =    -0.00059214   -0.00034167   -0.00047360
     atom   10 type  1   force =     0.00059033   -0.00034074   -0.00047481
     atom   11 type  1   force =     0.00000006    0.00068168   -0.00047632
     atom   12 type  1   force =     0.00000055    0.00000054   -0.00016730
     atom   13 type  2   force =     0.00000074    0.00000009    0.00142025

     Total force =     0.002029     Total SCF correction =     0.000443
     SCF correction compared to forces is large: reduce conv_thr to get better values

     entering subroutine stress ...

     negative rho (up, down):  7.920E-01 0.000E+00
          total   stress  (Ry/bohr**3)                   (kbar)     P=  -38.84
  -0.00036032   0.00000000  -0.00000000        -53.01      0.00     -0.00
   0.00000000  -0.00036032  -0.00000000          0.00    -53.01     -0.00
  -0.00000000  -0.00000000  -0.00007144         -0.00     -0.00    -10.51

     bfgs converged in   9 scf cycles and   8 bfgs steps
     (criteria: energy <  1.0E+00, force <  1.9E-03)

     End of BFGS Geometry Optimization

     Final energy   =   -1949.3697009782 Ry
Begin final coordinates

ATOMIC_POSITIONS (crystal)
W1       0.166666667   0.166666667   0.405441099    0   0   0
W1       0.666666667   0.166666667   0.405441099    0   0   0
W1       0.166666667   0.666666667   0.405441099    0   0   0
W1       0.666666667   0.666666667   0.405441099    0   0   0
W1       0.833333333   0.333333333   0.500000000    0   0   0
W1       0.333333333   0.333333333   0.500000000    0   0   0
W1       0.833333333   0.833333333   0.500000000    0   0   0
W1       0.333333333   0.833333333   0.500000000    0   0   0
W1      -0.006497235  -0.006496887   0.597740441
W1       0.512996249  -0.006497864   0.597740771
W1      -0.006498756   0.512997218   0.597740977
W1       0.499998814   0.499999025   0.584012394
S1       0.166665996   0.166666510   0.667108545
End final coordinates

     Writing output data file calc.save

     General routines

     Parallel routines

   This run was terminated on:   7:20: 5   3May2018

   JOB DONE.
Job  /afs/slac/g/suncat/bin/suncat-tsmpirun -x LD_LIBRARY_PATH -wdir /scratch/qe634949_vM5gQ pw.x -npool 4 -in pw.inp

TID   HOST_NAME   COMMAND_LINE            STATUS            TERMINATION_TIME
00000 suncat0179 pw.x -npool 4 -i  Done                     05/03/2018 07:20:05
00001 suncat0179 pw.x -npool 4 -i  Done                     05/03/2018 07:20:05
00002 suncat0179 pw.x -npool 4 -i  Done                     05/03/2018 07:20:05
00003 suncat0179 pw.x -npool 4 -i  Done                     05/03/2018 07:20:05
00004 suncat0179 pw.x -npool 4 -i  Done                     05/03/2018 07:20:05
00005 suncat0179 pw.x -npool 4 -i  Done                     05/03/2018 07:20:05
00006 suncat0179 pw.x -npool 4 -i  Done                     05/03/2018 07:20:05
00007 suncat0179 pw.x -npool 4 -i  Done                     05/03/2018 07:20:05
00008 suncat0174 pw.x -npool 4 -i  Done                     05/03/2018 07:20:05
00009 suncat0174 pw.x -npool 4 -i  Done                     05/03/2018 07:20:05
00010 suncat0174 pw.x -npool 4 -i  Done                     05/03/2018 07:20:05
00011 suncat0174 pw.x -npool 4 -i  Done                     05/03/2018 07:20:05
00012 suncat0174 pw.x -npool 4 -i  Done                     05/03/2018 07:20:05
00013 suncat0174 pw.x -npool 4 -i  Done                     05/03/2018 07:20:05
00014 suncat0174 pw.x -npool 4 -i  Done                     05/03/2018 07:20:05
00015 suncat0174 pw.x -npool 4 -i  Done                     05/03/2018 07:20:05
00016 suncat0135 pw.x -npool 4 -i  Done                     05/03/2018 07:20:05
00017 suncat0135 pw.x -npool 4 -i  Done                     05/03/2018 07:20:05
00018 suncat0135 pw.x -npool 4 -i  Done                     05/03/2018 07:20:05
00019 suncat0135 pw.x -npool 4 -i  Done                     05/03/2018 07:20:05
00020 suncat0135 pw.x -npool 4 -i  Done                     05/03/2018 07:20:05
00021 suncat0135 pw.x -npool 4 -i  Done                     05/03/2018 07:20:05
00022 suncat0135 pw.x -npool 4 -i  Done                     05/03/2018 07:20:05
00023 suncat0135 pw.x -npool 4 -i  Done                     05/03/2018 07:20:05
00024 suncat0282 pw.x -npool 4 -i  Done                     05/03/2018 07:20:05
00025 suncat0282 pw.x -npool 4 -i  Done                     05/03/2018 07:20:05
00026 suncat0282 pw.x -npool 4 -i  Done                     05/03/2018 07:20:05
00027 suncat0282 pw.x -npool 4 -i  Done                     05/03/2018 07:20:05
00028 suncat0282 pw.x -npool 4 -i  Done                     05/03/2018 07:20:05
00029 suncat0282 pw.x -npool 4 -i  Done                     05/03/2018 07:20:05
00030 suncat0282 pw.x -npool 4 -i  Done                     05/03/2018 07:20:05
00031 suncat0282 pw.x -npool 4 -i  Done                     05/03/2018 07:20:05