     Program PWSCF v.5.1rc2 (svn rev. 11289) starts on 25Apr2018 at  2:19:55

     Current dimensions of program PWSCF are:
     Max number of different atomic species (ntypx) = 10
     Max number of k-points (npk) =  40000
     Max angular momentum in pseudopotentials (lmaxx) =  3
     Presently stress not available with electric field

     IMPORTANT: XC functional enforced from input :
     Exchange-correlation      = BEEF-VDW ( 1  4 27 13 2)
     Any further DFT definition will be discarded
     Please, verify this is what you really want

     Subspace diagonalization in iterative solution of the eigenvalue problem:
     a serial algorithm will be used

     bravais-lattice index     =            0
     lattice parameter (alat)  =       1.8897  a.u.
     unit-cell volume          =    4515.4205 (a.u.)^3
     number of atoms/cell      =           14
     number of atomic types    =            3
     number of electrons       =       245.00
     number of Kohn-Sham states=          132
     kinetic-energy cutoff     =      36.7493  Ry
     charge density cutoff     =     367.4932  Ry
     convergence threshold     =      1.0E-05
     mixing beta               =       0.3000
     number of iterations used =           10  plain     mixing
     Exchange-correlation      = BEEF-VDW ( 1  4 27 13 2)
     nstep                     =           50

     celldm(1)=   1.889726  celldm(2)=   0.000000  celldm(3)=   0.000000
     celldm(4)=   0.000000  celldm(5)=   0.000000  celldm(6)=   0.000000

     crystal axes: (cart. coord. in units of alat)
               a(1) = (   5.606773   0.000000   0.000000 )
               a(2) = (   2.803387   4.855608   0.000000 )
               a(3) = (   0.000000   0.000000  24.577911 )

     reciprocal axes: (cart. coord. in units 2 pi/alat)
               b(1) = (  0.178356 -0.102974  0.000000 )
               b(2) = (  0.000000  0.205947  0.000000 )
               b(3) = (  0.000000  0.000000  0.040687 )

     PseudoPot. # 1 for Zn read from file:
     /u/if/mamunm/psp/gbrv1.5pbe/Zn.UPF
     MD5 check sum: df62231357ef9e81f77b2b3087fa5675
     Pseudo is Ultrasoft, Zval = 20.0
     Generated by new atomic code, or converted to UPF format
     Using radial grid of  943 points,  6 beta functions with:
                l(1) =   0
                l(2) =   0
                l(3) =   1
                l(4) =   1
                l(5) =   2
                l(6) =   2
     Q(r) pseudized with  8 coefficients,  rinner =    1.100   1.100   1.100
                                                       1.100   1.100

     PseudoPot. # 2 for C  read from file:
     /u/if/mamunm/psp/gbrv1.5pbe/C.UPF
     MD5 check sum: d1aef80898a10debaa0f26306b886e00
     Pseudo is Ultrasoft + core correction, Zval =  4.0
     Generated by new atomic code, or converted to UPF format
     Using radial grid of  721 points,  4 beta functions with:
                l(1) =   0
                l(2) =   0
                l(3) =   1
                l(4) =   1
     Q(r) pseudized with  8 coefficients,  rinner =    1.100   1.100   1.100

     PseudoPot. # 3 for H  read from file:
     /u/if/mamunm/psp/gbrv1.5pbe/H.UPF
     MD5 check sum: 761ae9a214b05c3daf00ab9f6b793d6f
     Pseudo is Ultrasoft, Zval =  1.0
     Generated by new atomic code, or converted to UPF format
     Using radial grid of  615 points,  2 beta functions with:
                l(1) =   0
                l(2) =   0
     Q(r) pseudized with  8 coefficients,  rinner =    0.700

     vdW kernel table read from file vdW_kernel_table
     MD5 check sum: 095c7af220d748ca6e76c0b4c6cfb241

     atomic species   valence    mass     pseudopotential
        Zn1           20.00    65.38000     Zn( 1.00)
        C1             4.00    12.01100     C ( 1.00)
        H1             1.00     1.00800     H ( 1.00)

     No symmetry found

   Cartesian axes

     site n.     atom                  positions (alat units)
         1           Zn1 tau(   1) = (   1.4016933   0.8092680  10.0000000  )
         2           Zn1 tau(   2) = (   4.2050800   0.8092680  10.0000000  )
         3           Zn1 tau(   3) = (   2.8033867   3.2370721  10.0000000  )
         4           Zn1 tau(   4) = (   5.6067733   3.2370721  10.0000000  )
         5           Zn1 tau(   5) = (   5.6067733   1.6185360  12.2889556  )
         6           Zn1 tau(   6) = (   2.8033867   1.6185360  12.2889556  )
         7           Zn1 tau(   7) = (   7.0084667   4.0463401  12.2889556  )
         8           Zn1 tau(   8) = (   4.2050800   4.0463401  12.2889556  )
         9           Zn1 tau(   9) = (   0.0000000   0.0000000  14.5779113  )
        10           Zn1 tau(  10) = (   2.8033867   0.0000000  14.5779113  )
        11           Zn1 tau(  11) = (   1.4016933   2.4278041  14.5779113  )
        12           Zn1 tau(  12) = (   4.2050800   2.4278041  14.5779113  )
        13           C1  tau(  13) = (   2.8033867   1.6185360  15.8649113  )
        14           H1  tau(  14) = (   2.8033867   1.6185360  16.9649113  )

     number of k points=    20  Fermi-Dirac smearing, width (Ry)=  0.0110
                       cart. coord. in units 2pi/alat
        k(    1) = (   0.0000000   0.0000000   0.0000000), wk =   0.0555556
        k(    2) = (   0.0000000   0.0343246   0.0000000), wk =   0.1111111
        k(    3) = (   0.0000000   0.0686491   0.0000000), wk =   0.1111111
        k(    4) = (   0.0000000  -0.1029737   0.0000000), wk =   0.0555556
        k(    5) = (   0.0297260  -0.0171623   0.0000000), wk =   0.1111111
        k(    6) = (   0.0297260   0.0171623   0.0000000), wk =   0.1111111
        k(    7) = (   0.0297260   0.0514869   0.0000000), wk =   0.1111111
        k(    8) = (   0.0297260  -0.1201360   0.0000000), wk =   0.1111111
        k(    9) = (   0.0297260  -0.0858114   0.0000000), wk =   0.1111111
        k(   10) = (   0.0297260  -0.0514869   0.0000000), wk =   0.1111111
        k(   11) = (   0.0594519  -0.0343246   0.0000000), wk =   0.1111111
        k(   12) = (   0.0594519   0.0000000   0.0000000), wk =   0.1111111
        k(   13) = (   0.0594519   0.0343246   0.0000000), wk =   0.1111111
        k(   14) = (   0.0594519  -0.1372983   0.0000000), wk =   0.1111111
        k(   15) = (   0.0594519  -0.1029737   0.0000000), wk =   0.1111111
        k(   16) = (   0.0594519  -0.0686491   0.0000000), wk =   0.1111111
        k(   17) = (  -0.0891779   0.0514869   0.0000000), wk =   0.0555556
        k(   18) = (  -0.0891779   0.0858114   0.0000000), wk =   0.1111111
        k(   19) = (  -0.0891779   0.1201360   0.0000000), wk =   0.1111111
        k(   20) = (  -0.0891779  -0.0514869   0.0000000), wk =   0.0555556

     Largest allocated arrays     est. size (Mb)     dimensions
     Largest temporary arrays     est. size (Mb)     dimensions

     Initial potential from superposition of free atoms
     Check: negative starting charge=   -0.000778

     starting charge  244.99826, renormalised to  245.00000

     negative rho (up, down):  7.781E-04 0.000E+00

     *
     * You are using vdW-DF for exchange-correlation in this calculation.
     * Please cite the following three references that made this development
     * possible:
     *
     *   M. Dion, H. Rydberg, E. Schroder, D. C. Langreth, and
     *   B. I. Lundqvist, Phys. Rev. Lett. 92, 246401 (2004).
     *
     *   T. Thonhauser, V. R. Cooper, S. Li, A. Puzder, P. Hyldgaard, and
     *   D. C. Langreth, Phys. Rev. B 76, 125112 (2007).
     *
     *   G. Roman-Perez and J. M. Soler, Phys. Rev. Lett. 103, 096102 (2009).
     *
     *
     * If you are using vdW-DF2, please also cite:
     *
     *   K. Lee, E. D. Murray, L. Kong, B. I. Lundqvist, and
     *   D. C. Langreth, Phys. Rev. B 82, 081101(R) (2010).
     *
     *
     * If you are calculating the stress with vdW-DF, please also cite:
     *
     *   R. Sabatini, E. Kucukbenli, B. Kolb, T. Thonhauser, and
     *   S. de Gironcoli, J. Phys.: Condens. Matter 24, 424209 (2012).
     *

     Carrying out vdW-DF run using the following parameters:

     Nqs =      20    Nr_points =    1024   r_max =   100.000
     q_mesh =
               0.00001000     0.04494208     0.09755937     0.15916263
               0.23128650     0.31572767     0.41458969     0.53033537
               0.66584808     0.82450364     1.01025438     1.22772762
               1.48234092     1.78043706     2.12944203     2.53805004
               3.01644009     3.57652955     4.23227104     5.00000000

     Gradients computed in reciprocal space

     Adding external electric field

     Computed dipole along edir(3) :
        Dipole                0.0001 Ry au,          0.0002 Debye
        Dipole field          0.0000 Ry au

        Potential amp.       -0.0000 Ry
        Total length         45.2844 bohr

     Starting wfc are  161 randomized atomic wfcs

     Self-consistent Calculation

     iteration #  1     ecut=    36.75 Ry     beta=0.30
     Davidson diagonalization with overlap
     ethr =  1.00E-02,  avg # of iterations =  2.2

[...]

     total energy              =   -5565.03374346 Ry
     Harris-Foulkes estimate   =   -5566.22801544 Ry
     estimated scf accuracy    <       2.63884694 Ry

[...]

     End of self-consistent calculation

          k = 0.0000 0.0000 0.0000 ( 16931 PWs)   bands (ev):

  -126.3746-126.2862-126.2853-126.2853-126.1171-126.1162-126.1162-126.0834
  -126.0683-125.9767-125.9758-125.9758 -80.5602 -80.5443 -80.5443 -80.4687
   -80.4660 -80.4660 -80.4623 -80.4616 -80.4615 -80.4604 -80.4558 -80.4558
   -80.3072 -80.3056 -80.3056 -80.2975 -80.2912 -80.2912 -80.2845 -80.2845
   -80.2832 -80.2712 -80.2599 -80.2599 -80.2496 -80.2426 -80.2426 -80.1882
   -80.1812 -80.1812 -80.1679 -80.1679 -80.1640 -80.1086 -80.1035 -80.1035
   -10.9632  -8.9375  -7.8629  -7.8620  -7.8620  -7.8391  -7.7736  -7.7736
    -7.7625  -7.7395  -7.6669  -7.6527  -7.6527  -7.5556  -7.5229  -7.5229
    -7.3198  -7.3171  -7.3171  -7.2750  -7.2750  -7.2619  -7.2455  -7.2455
    -7.2077  -7.2077  -7.1795  -7.1778  -7.1464  -7.1464  -7.0562  -7.0562
    -6.9229  -6.9229  -6.8581  -6.8581  -6.8415  -6.8356  -6.8356  -6.8109
    -6.7946  -6.7876  -6.7876  -6.7458  -6.7458  -6.7267  -6.7267  -6.7140
    -6.6844  -6.6844  -6.6272  -6.6222  -6.6195  -6.6195  -6.5895  -6.5895
    -6.5325  -6.5151  -6.5151  -6.4551  -6.4551  -6.4475  -6.4080  -4.2359
    -2.9560  -2.3260  -2.3260  -2.0683  -1.7493  -1.7493  -1.4284  -1.1428
    -1.1428  -0.7528  -0.6381  -0.6381   0.3782   1.0698   1.0698   1.2434
     2.3068   2.7058   2.7058   3.0053

[...]

          k =-0.0892 0.0515 0.0000 ( 17028 PWs)   bands (ev):

[...]

     the Fermi energy is     0.4789 ev

!    total energy              =   -5565.92274502 Ry
     Harris-Foulkes estimate   =   -5565.92274124 Ry
     estimated scf accuracy    <       0.00000239 Ry

     The total energy is the sum of the following terms:

     one-electron contribution =  -36008.36203049 Ry
     hartree contribution      =   17984.89708232 Ry
     xc contribution           =    -525.26313409 Ry
     ewald contribution        =   12982.83011871 Ry
     electric field correction =       0.00001058 Ry
     smearing contrib. (-TS)   =      -0.02479205 Ry

     convergence has been achieved in  10 iterations

 BEEF-vdW xc energy contributions
           1 :   -466.540054812691
           2 :    422.798607293639
           3 :   -349.465029137534
           4 :    267.811225585372
           5 :   -196.612759703043
           6 :    145.148027377919
           7 :   -111.973160440928
           8 :    89.1804145824934
           9 :   -68.8661726785149
          10 :    47.7510735466899
          11 :   -27.6595974571945
          12 :    12.4885647034928
          13 :   -4.41257996294746
          14 :    2.07383148673318
          15 :   -1.68680649556961
          16 :  -0.188469341433347
          17 :    4.44741255416113
          18 :   -9.34173213695385
          19 :    12.2847343824457
          20 :   -12.0152984677524
          21 :    9.49743848619823
          22 :   -7.04236394822783
          23 :    6.49874841174261
          24 :   -7.95883318206313
          25 :    9.89705511372466
          26 :   -10.5029532710599
          27 :    9.09656924323508
          28 :   -6.55623474366189
          29 :    4.52597046910796
          30 :   -4.11048647015775
          31 :   -36.2688283460557
          32 :   -24.7642132786568

     Forces acting on atoms (Ry/au):

     negative rho (up, down):  1.130E-03 0.000E+00
     atom    1 type  1   force =    -0.00394871   -0.00229092   -0.00880155
     atom    2 type  1   force =     0.00395313   -0.00227780   -0.00879174
     atom    3 type  1   force =    -0.00000296    0.00456645   -0.00879913
     atom    4 type  1   force =    -0.00000498    0.00000384   -0.00715564
     atom    5 type  1   force =    -0.00000305    0.00294578    0.00560858
     atom    6 type  1   force =    -0.00000324    0.00000863   -0.00345842
     atom    7 type  1   force =    -0.00254307   -0.00148442    0.00561482
     atom    8 type  1   force =     0.00255260   -0.00147224    0.00560571
     atom    9 type  1   force =     0.00000124    0.00000162    0.00091449
     atom   10 type  1   force =    -0.00000109   -0.01179256    0.02765795
     atom   11 type  1   force =    -0.01021324    0.00589528    0.02765283
     atom   12 type  1   force =     0.01021248    0.00589744    0.02765001
     atom   13 type  2   force =     0.00000025   -0.00000055   -0.05032945
     atom   14 type  3   force =     0.00000065   -0.00000056   -0.01336847

     Total force =     0.073648     Total SCF correction =     0.001805

     entering subroutine stress ...

     negative rho (up, down):  1.130E-03 0.000E+00
          total   stress  (Ry/bohr**3)                   (kbar)     P=  -17.27
  -0.00014462  -0.00000000  -0.00000000        -21.27     -0.00     -0.00
  -0.00000000  -0.00014462   0.00000000         -0.00    -21.27      0.00
  -0.00000000   0.00000000  -0.00006296         -0.00      0.00     -9.26

     BFGS Geometry Optimization

     number of scf cycles    =   1
     number of bfgs steps    =   0

     energy   new            =   -5565.9227450181 Ry

     new trust radius        =       0.0503294476 bohr
     new conv_thr            =       0.0000099958 Ry

ATOMIC_POSITIONS (crystal)
Zn1      0.166666667   0.166666667   0.406869400    0   0   0
Zn1      0.666666667   0.166666667   0.406869400    0   0   0
Zn1      0.166666667   0.666666667   0.406869400    0   0   0
Zn1      0.666666667   0.666666667   0.406869400    0   0   0
Zn1      0.833333333   0.333333333   0.500000000    0   0   0
Zn1      0.333333333   0.333333333   0.500000000    0   0   0
Zn1      0.833333333   0.833333333   0.500000000    0   0   0
Zn1      0.333333333   0.833333333   0.500000000    0   0   0
Zn1      0.000000028   0.000000177   0.593150290
Zn1      0.500642490  -0.001285184   0.593726093
Zn1     -0.001285185   0.500642484   0.593725982
Zn1      0.500642513   0.500642719   0.593725922
C1       0.333333387   0.333333274   0.644411069
H1       0.333333425   0.333333272   0.689962495

     Writing output data file calc.save
     Check: negative starting charge=   -0.000778
     NEW-OLD atomic charge density approx. for the potential
     Check: negative starting charge=   -0.000787

[...]

     Total force =     0.066651     Total SCF correction =     0.015905
     SCF correction compared to forces is large: reduce conv_thr to get better values

[...]

     energy   old            =   -5565.9227450181 Ry
     energy   new            =   -5565.9273591306 Ry

     CASE: energy  _new < energy  _old

[...]

     Threshold (ethr) on eigenvalues was too large:
     Diagonalizing with lowered threshold

     Davidson diagonalization with overlap
     ethr =  7.43E-09,  avg # of iterations =  1.9

[...]

     WARNING: bfgs curvature condition failed, Theta= 0.909
     new trust radius        =       0.0091830448 bohr
     new conv_thr            =       0.0000001000 Ry

[...]

     Total force =     0.009586     Total SCF correction =     0.000827

[...]

     number of scf cycles    =  19
     number of bfgs steps    =  18

     energy   old            =   -5565.9601828918 Ry
     energy   new            =   -5565.9602685280 Ry

     CASE: energy  _new < energy  _old

     new trust radius        =       0.0218581105 bohr
     new conv_thr            =       0.0000001000 Ry

ATOMIC_POSITIONS (crystal)
Zn1      0.166666667   0.166666667   0.406869400    0   0   0
Zn1      0.666666667   0.166666667   0.406869400    0   0   0
Zn1      0.166666667   0.666666667   0.406869400    0   0   0
Zn1      0.666666667   0.666666667   0.406869400    0   0   0
Zn1      0.833333333   0.333333333   0.500000000    0   0   0
Zn1      0.333333333   0.333333333   0.500000000    0   0   0
Zn1      0.833333333   0.833333333   0.500000000    0   0   0
Zn1      0.333333333   0.833333333   0.500000000    0   0   0
Zn1      0.000001240  -0.000000902   0.589512428
Zn1      0.516053499  -0.032109864   0.605308112
Zn1     -0.032110005   0.516053526   0.605307928
Zn1      0.516054773   0.516055101   0.605307575
C1       0.333333563   0.333334821   0.639616358
H1       0.333333659   0.333334307   0.684131461

     Writing output data file calc.save
     Check: negative starting charge=   -0.000787
     NEW-OLD atomic charge density approx. for the potential
     Check: negative starting charge=   -0.000785

[...]

     Self-consistent Calculation

[...]

     Threshold (ethr) on eigenvalues was too large:
     Diagonalizing with lowered threshold

     Davidson diagonalization with overlap
     ethr =  5.24E-08,  avg # of iterations =  1.0

[...]

     total energy              =   -5565.96035378 Ry
     Harris-Foulkes estimate   =   -5565.96035369 Ry
     estimated scf accuracy    <       0.00000029 Ry

     iteration #  7     ecut=    36.75 Ry     beta=0.30
     Davidson diagonalization with overlap
     ethr =  1.20E-10,  avg # of iterations =  2.0

[...]

     negative rho (up, down):  1.102E-03 0.000E+00

     Adding external electric field

     Computed dipole along edir(3) :
        Dipole               -0.0074 Ry au,         -0.0189 Debye
        Dipole field         -0.0000 Ry au

        Potential amp.        0.0019 Ry
        Total length         45.2844 bohr

     End of self-consistent calculation

[...]

          k = 0.0595-0.0686 0.0000 ( 16986 PWs)   bands (ev):

[...]

          k =-0.0892-0.0515 0.0000 ( 17028 PWs)   bands (ev):

  -126.1683-126.1488-126.1485-126.1482-126.0291-126.0288-126.0285-126.0002
  -125.9795-125.8337-125.8316-125.8315 -80.3613 -80.3391 -80.3376 -80.3297
   -80.3287 -80.3281 -80.3272 -80.3238 -80.3235 -80.3229 -80.3214 -80.3170
   -80.2204 -80.2200 -80.2196 -80.2052 -80.2009 -80.1997 -80.1997 -80.1993
   -80.1952 -80.1855 -80.1737 -80.1726 -80.1660 -80.1552 -80.1552 -80.0368
   -80.0305 -80.0300 -80.0231 -80.0225 -80.0159 -79.9751 -79.9610 -79.9597
   -11.0759  -7.6889  -7.6027  -7.5078  -7.4680  -7.4650  -7.4397  -7.4146
    -7.3890  -7.3871  -7.3553  -7.3531  -7.3362  -7.3032  -7.2402  -7.2182
    -7.2094  -7.1873  -7.1482  -7.1206  -7.1078  -7.0904  -7.0850  -7.0572
    -7.0444  -7.0337  -7.0132  -6.9927  -6.9763  -6.9621  -6.9385  -6.9315
    -6.9055  -6.8831  -6.8783  -6.8680  -6.8616  -6.8357  -6.8237  -6.8192
    -6.8131  -6.7922  -6.7724  -6.7621  -6.7513  -6.7190  -6.7120  -6.7083
    -6.6914  -6.6691  -6.6472  -6.6356  -6.6206  -6.6013  -6.5526  -6.5207
    -6.5119  -6.5065  -6.4977  -6.4825  -6.4579  -6.3606  -6.2508  -5.2196
    -4.9051  -3.5538  -3.4023  -2.8404  -2.8279  -2.3912  -2.0713  -0.3149
    -0.2588   0.0872   1.0079   1.6645   1.9569   2.9509   3.3067   3.3907
     3.4596   3.9384   4.0759   4.3642

     the Fermi energy is     0.5953 ev

!    total energy              =   -5565.96035381 Ry
     Harris-Foulkes estimate   =   -5565.96035381 Ry
     estimated scf accuracy    <       0.00000005 Ry

     The total energy is the sum of the following terms:

     one-electron contribution =  -35187.01123707 Ry
     hartree contribution      =   17575.26223052 Ry
     xc contribution           =    -525.30265829 Ry
     ewald contribution        =   12571.11184790 Ry
     electric field correction =       0.00000015 Ry
     smearing contrib. (-TS)   =      -0.02053702 Ry

     convergence has been achieved in   7 iterations

 BEEF-vdW xc energy contributions
           1 :   -466.577452610042
           2 :    422.796147182425
           3 :   -349.378087707256
           4 :    267.609918125251
           5 :   -196.303044627800
           6 :    144.774497239545
           7 :   -111.604734718441
           8 :    88.8847424542800
           9 :   -68.6827734682442
          10 :    47.6752194781218
          11 :   -27.6454251016449
          12 :    12.4718521849492
          13 :   -4.34343465091627
          14 :    1.94296745168839
          15 :   -1.52940414158530
          16 :  -0.316285608681824
          17 :    4.50541453454605
          18 :   -9.33109376858681
          19 :    12.2445019754977
          20 :   -11.9914351180524
          21 :    9.50668079561365
          22 :   -7.05750222660106
          23 :    6.46676730568186
          24 :   -7.84081980121016
          25 :    9.70261066858666
          26 :   -10.2929681452325
          27 :    8.94947235054974
          28 :   -6.51990056398785
          29 :    4.58932658255571
          30 :   -4.21589192582911
          31 :   -36.2702761118969
          32 :   -24.7468953096749

     Forces acting on atoms (Ry/au):

     negative rho (up, down):  1.102E-03 0.000E+00
     atom    1 type  1   force =    -0.00426192   -0.00246060   -0.01038033
     atom    2 type  1   force =     0.00426193   -0.00246061   -0.01038033
     atom    3 type  1   force =     0.00000001    0.00492125   -0.01038030
     atom    4 type  1   force =     0.00000000    0.00000003   -0.00777692
     atom    5 type  1   force =    -0.00000000    0.00601065    0.01036659
     atom    6 type  1   force =    -0.00000002   -0.00000004    0.00420519
     atom    7 type  1   force =    -0.00520540   -0.00300525    0.01036656
     atom    8 type  1   force =     0.00520552   -0.00300532    0.01036626
     atom    9 type  1   force =    -0.00000098    0.00000025    0.00045211
     atom   10 type  1   force =     0.00000120   -0.00113264    0.00048735
     atom   11 type  1   force =    -0.00098127    0.00056744    0.00048747
     atom   12 type  1   force =     0.00098226    0.00056663    0.00048731
     atom   13 type  2   force =    -0.00000149   -0.00000210    0.00086417
     atom   14 type  3   force =     0.00000016    0.00000032    0.00083488

     Total force =     0.002493     Total SCF correction =     0.000856
     SCF correction compared to forces is large: reduce conv_thr to get better values

     entering subroutine stress ...

     negative rho (up, down):  1.102E-03 0.000E+00
          total   stress  (Ry/bohr**3)                   (kbar)     P=  -11.40
  -0.00011115   0.00000000  -0.00000000        -16.35      0.00     -0.00
   0.00000000  -0.00011115  -0.00000000          0.00    -16.35     -0.00
  -0.00000000  -0.00000000  -0.00001015         -0.00     -0.00     -1.49

     bfgs converged in  20 scf cycles and  19 bfgs steps
     (criteria: energy <  1.0E+00, force <  1.9E-03)

     End of BFGS Geometry Optimization

     Final energy   =   -5565.9603538094 Ry
Begin final coordinates

ATOMIC_POSITIONS (crystal)
Zn1      0.166666667   0.166666667   0.406869400    0   0   0
Zn1      0.666666667   0.166666667   0.406869400    0   0   0
Zn1      0.166666667   0.666666667   0.406869400    0   0   0
Zn1      0.666666667   0.666666667   0.406869400    0   0   0
Zn1      0.833333333   0.333333333   0.500000000    0   0   0
Zn1      0.333333333   0.333333333   0.500000000    0   0   0
Zn1      0.833333333   0.833333333   0.500000000    0   0   0
Zn1      0.333333333   0.833333333   0.500000000    0   0   0
Zn1      0.000001240  -0.000000902   0.589512428
Zn1      0.516053499  -0.032109864   0.605308112
Zn1     -0.032110005   0.516053526   0.605307928
Zn1      0.516054773   0.516055101   0.605307575
C1       0.333333563   0.333334821   0.639616358
H1       0.333333659   0.333334307   0.684131461
End final coordinates

     Writing output data file calc.save

     General routines

     Parallel routines

   This run was terminated on:   3:59:42  25Apr2018

   JOB DONE.
Job  /afs/slac/g/suncat/bin/suncat-tsmpirun -x LD_LIBRARY_PATH -wdir /scratch/qe302997_ESfsT pw.x -npool 4 -in pw.inp

TID   HOST_NAME   COMMAND_LINE            STATUS            TERMINATION_TIME
00000 suncat0184 pw.x -npool 4 -i  Done                     04/25/2018 03:59:42
00001 suncat0184 pw.x -npool 4 -i  Done                     04/25/2018 03:59:42
00002 suncat0184 pw.x -npool 4 -i  Done                     04/25/2018 03:59:42
00003 suncat0184 pw.x -npool 4 -i  Done                     04/25/2018 03:59:42
00004 suncat0184 pw.x -npool 4 -i  Done                     04/25/2018 03:59:42
00005 suncat0184 pw.x -npool 4 -i  Done                     04/25/2018 03:59:42
00006 suncat0184 pw.x -npool 4 -i  Done                     04/25/2018 03:59:42
00007 suncat0184 pw.x -npool 4 -i  Done                     04/25/2018 03:59:42
00008 suncat0175 pw.x -npool 4 -i  Done                     04/25/2018 03:59:42
00009 suncat0175 pw.x -npool 4 -i  Done                     04/25/2018 03:59:42
00010 suncat0175 pw.x -npool 4 -i  Done                     04/25/2018 03:59:42
00011 suncat0175 pw.x -npool 4 -i  Done                     04/25/2018 03:59:42
00012 suncat0175 pw.x -npool 4 -i  Done                     04/25/2018 03:59:42
00013 suncat0175 pw.x -npool 4 -i  Done                     04/25/2018 03:59:42
00014 suncat0175 pw.x -npool 4 -i  Done                     04/25/2018 03:59:42
00015 suncat0175 pw.x -npool 4 -i  Done                     04/25/2018 03:59:42
00016 suncat0163 pw.x -npool 4 -i  Done                     04/25/2018 03:59:42
00017 suncat0163 pw.x -npool 4 -i  Done                     04/25/2018 03:59:42
00018 suncat0163 pw.x -npool 4 -i  Done                     04/25/2018 03:59:42
00019 suncat0163 pw.x -npool 4 -i  Done                     04/25/2018 03:59:42
00020 suncat0163 pw.x -npool 4 -i  Done                     04/25/2018 03:59:42
00021 suncat0163 pw.x -npool 4 -i  Done                     04/25/2018 03:59:42
00022 suncat0163 pw.x -npool 4 -i  Done                     04/25/2018 03:59:42
00023 suncat0163 pw.x -npool 4 -i  Done                     04/25/2018 03:59:42
00024 suncat0125 pw.x -npool 4 -i  Done                     04/25/2018 03:59:42
00025 suncat0125 pw.x -npool 4 -i  Done                     04/25/2018 03:59:42
00026 suncat0125 pw.x -npool 4 -i  Done                     04/25/2018 03:59:42
00027 suncat0125 pw.x -npool 4 -i  Done                     04/25/2018 03:59:42
00028 suncat0125 pw.x -npool 4 -i  Done                     04/25/2018 03:59:42
00029 suncat0125 pw.x -npool 4 -i  Done                     04/25/2018 03:59:42
00030 suncat0125 pw.x -npool 4 -i  Done                     04/25/2018 03:59:42
00031 suncat0125 pw.x -npool 4 -i  Done                     04/25/2018 03:59:42