     Program PWSCF v.5.1rc2 (svn rev. ) starts on 17Apr2018 at 20: 1:20

     Current dimensions of program PWSCF are:
     Max number of different atomic species (ntypx) = 10
     Max number of k-points (npk) =  40000
     Max angular momentum in pseudopotentials (lmaxx) =  3
     Presently stress not available with electric field

     IMPORTANT: XC functional enforced from input :
     Exchange-correlation      = BEEF-VDW ( 1  4 27 13 2)
     Any further DFT definition will be discarded
     Please, verify this is what you really want

     Subspace diagonalization in iterative solution of the eigenvalue problem:
     a serial algorithm will be used

     bravais-lattice index     =            0
     lattice parameter (alat)  =       1.8897  a.u.
     unit-cell volume          =    5409.9593 (a.u.)^3
     number of atoms/cell      =           14
     number of atomic types    =            3
     number of electrons       =       233.00
     number of Kohn-Sham states=          126
     kinetic-energy cutoff     =      36.7493  Ry
     charge density cutoff     =     367.4932  Ry
     convergence threshold     =      1.0E-05
     mixing beta               =       0.3000
     number of iterations used =           10  plain     mixing
     Exchange-correlation      = BEEF-VDW ( 1  4 27 13 2)
     nstep                     =           50

     celldm(1)=   1.889726  celldm(2)=   0.000000  celldm(3)=   0.000000
     celldm(4)=   0.000000  celldm(5)=   0.000000  celldm(6)=   0.000000

     crystal axes: (cart. coord. in units of alat)
               a(1) = (   6.088539   0.000000   0.000000 )
               a(2) = (   3.044269   5.272829   0.000000 )
               a(3) = (   0.000000   0.000000  24.971271 )

     reciprocal axes: (cart. coord. in units 2 pi/alat)
               b(1) = (  0.164243 -0.094826  0.000000 )
               b(2) = (  0.000000  0.189652  0.000000 )
               b(3) = (  0.000000  0.000000  0.040046 )

     PseudoPot. # 1 for Ga read from file:
     /home/mamunm/src/pseudo/gbrv1.5pbe/Ga.UPF
     MD5 check sum: ccd671392a58a050fbb373893b4fcd66
     Pseudo is Ultrasoft + core correction, Zval = 19.0
     Generated by new atomic code, or converted to UPF format
     Using radial grid of  871 points,  6 beta functions with:
                l(1) =   0
                l(2) =   0
                l(3) =   1
                l(4) =   1
                l(5) =   2
                l(6) =   2
     Q(r) pseudized with  8 coefficients,  rinner =    1.250   1.250   1.250
                                                       1.250   1.250

     PseudoPot. # 2 for C  read from file:
     /home/mamunm/src/pseudo/gbrv1.5pbe/C.UPF
     MD5 check sum: d1aef80898a10debaa0f26306b886e00
     Pseudo is Ultrasoft + core correction, Zval =  4.0
     Generated by new atomic code, or converted to UPF format
     Using radial grid of  721 points,  4 beta functions with:
                l(1) =   0
                l(2) =   0
                l(3) =   1
                l(4) =   1
     Q(r) pseudized with  8 coefficients,  rinner =    1.100   1.100   1.100

     PseudoPot. # 3 for H  read from file:
     /home/mamunm/src/pseudo/gbrv1.5pbe/H.UPF
     MD5 check sum: 761ae9a214b05c3daf00ab9f6b793d6f
     Pseudo is Ultrasoft, Zval =  1.0
     Generated by new atomic code, or converted to UPF format
     Using radial grid of  615 points,  2 beta functions with:
                l(1) =   0
                l(2) =   0
     Q(r) pseudized with  8 coefficients,  rinner =    0.700

     vdW kernel table read from file vdW_kernel_table
     MD5 check sum: 095c7af220d748ca6e76c0b4c6cfb241

     atomic species   valence    mass     pseudopotential
        Ga1           19.00    69.72300     Ga( 1.00)
        C1             4.00    12.01100     C ( 1.00)
        H1             1.00     1.00800     H ( 1.00)

     No symmetry found

   Cartesian axes

     site n.     atom                  positions (alat units)
         1           Ga1 tau(   1) = (   1.5221346   0.8788048  10.0000000  )
         2           Ga1 tau(   2) = (   4.5664039   0.8788048  10.0000000  )
         3           Ga1 tau(   3) = (   3.0442693   3.5152194  10.0000000  )
         4           Ga1 tau(   4) = (   6.0885386   3.5152194  10.0000000  )
         5           Ga1 tau(   5) = (   6.0885386   1.7576097  12.4856355  )
         6           Ga1 tau(   6) = (   3.0442693   1.7576097  12.4856355  )
         7           Ga1 tau(   7) = (   7.6106732   4.3940242  12.4856355  )
         8           Ga1 tau(   8) = (   4.5664039   4.3940242  12.4856355  )
         9           Ga1 tau(   9) = (   0.0000000   0.0000000  14.9712709  )
        10           Ga1 tau(  10) = (   3.0442693   0.0000000  14.9712709  )
        11           Ga1 tau(  11) = (   1.5221346   2.6364145  14.9712709  )
        12           Ga1 tau(  12) = (   4.5664039   2.6364145  14.9712709  )
        13           C1  tau(  13) = (   3.0442693   1.7576097  16.2582709  )
        14           H1  tau(  14) = (   3.0442693   1.7576097  17.3582709  )

     number of k points=    20  Fermi-Dirac smearing, width (Ry)=  0.0110
                       cart. coord. in units 2pi/alat
        k(    1) = (   0.0000000   0.0000000   0.0000000), wk =   0.0555556
        k(    2) = (   0.0000000   0.0316086   0.0000000), wk =   0.1111111
        k(    3) = (   0.0000000   0.0632172   0.0000000), wk =   0.1111111
        k(    4) = (   0.0000000  -0.0948258   0.0000000), wk =   0.0555556
        k(    5) = (   0.0273738  -0.0158043   0.0000000), wk =   0.1111111
        k(    6) = (   0.0273738   0.0158043   0.0000000), wk =   0.1111111
        k(    7) = (   0.0273738   0.0474129   0.0000000), wk =   0.1111111
        k(    8) = (   0.0273738  -0.1106300   0.0000000), wk =   0.1111111
        k(    9) = (   0.0273738  -0.0790215   0.0000000), wk =   0.1111111
        k(   10) = (   0.0273738  -0.0474129   0.0000000), wk =   0.1111111
        k(   11) = (   0.0547477  -0.0316086   0.0000000), wk =   0.1111111
        k(   12) = (   0.0547477   0.0000000   0.0000000), wk =   0.1111111
        k(   13) = (   0.0547477   0.0316086   0.0000000), wk =   0.1111111
        k(   14) = (   0.0547477  -0.1264343   0.0000000), wk =   0.1111111
        k(   15) = (   0.0547477  -0.0948258   0.0000000), wk =   0.1111111
        k(   16) = (   0.0547477  -0.0632172   0.0000000), wk =   0.1111111
        k(   17) = (  -0.0821215   0.0474129   0.0000000), wk =   0.0555556
        k(   18) = (  -0.0821215   0.0790215   0.0000000), wk =   0.1111111
        k(   19) = (  -0.0821215   0.1106300   0.0000000), wk =   0.1111111
        k(   20) = (  -0.0821215  -0.0474129   0.0000000), wk =   0.0555556

     Largest allocated arrays     est. size (Mb)     dimensions
     Largest temporary arrays     est. size (Mb)     dimensions

     Initial potential from superposition of free atoms
     Check: negative starting charge=   -0.001119

     starting charge  220.99994, renormalised to  233.00000

     negative rho (up, down):  1.180E-03 0.000E+00

     *
     * You are using vdW-DF for exchange-correlation in this calculation.
     * Please cite the following three references that made this development
     * possible:
     *
     *   M. Dion, H. Rydberg, E. Schroder, D. C. Langreth, and
     *   B. I. Lundqvist, Phys. Rev. Lett. 92, 246401 (2004).
     *
     *   T. Thonhauser, V. R. Cooper, S. Li, A. Puzder, P. Hyldgaard, and
     *   D. C. Langreth, Phys. Rev. B 76, 125112 (2007).
     *
     *   G. Roman-Perez and J. M. Soler, Phys. Rev. Lett. 103, 096102 (2009).
     *
     *
     * If you are using vdW-DF2, please also cite:
     *
     *   K. Lee, E. D. Murray, L. Kong, B. I. Lundqvist, and
     *   D. C. Langreth, Phys. Rev. B 82, 081101(R) (2010).
     *
     *
     * If you are calculating the stress with vdW-DF, please also cite:
     *
     *   R. Sabatini, E. Kucukbenli, B. Kolb, T. Thonhauser, and
     *   S. de Gironcoli, J. Phys.: Condens. Matter 24, 424209 (2012).
     *

     Carrying out vdW-DF run using the following parameters:

     Nqs =      20    Nr_points =    1024   r_max =   100.000
     q_mesh =
               0.00001000     0.04494208     0.09755937     0.15916263
               0.23128650     0.31572767     0.41458969     0.53033537
               0.66584808     0.82450364     1.01025438     1.22772762
               1.48234092     1.78043706     2.12944203     2.53805004
               3.01644009     3.57652955     4.23227104     5.00000000

     Gradients computed in reciprocal space

     Adding external electric field

     Computed dipole along edir(3) :
        Dipole               -2.0480 Ry au,         -5.2056 Debye
        Dipole field         -0.0048 Ry au

        Potential amp.        0.4378 Ry
        Total length         46.0091 bohr

     Starting wfc are  149 randomized atomic wfcs

     Self-consistent Calculation

     iteration #  1     ecut=    36.75 Ry     beta=0.30
     Davidson diagonalization with overlap
     ethr =  1.00E-02,  avg # of iterations =  7.1

[...]

     total energy              =   -4814.56411661 Ry
     Harris-Foulkes estimate   =   -5027.82381682 Ry
     estimated scf accuracy    <     449.05707631 Ry

     iteration #  2     ecut=    36.75 Ry     beta=0.30
     Davidson diagonalization with overlap
     c_bands:  1 eigenvalues not converged
     c_bands:  1 eigenvalues not converged
     c_bands:  2 eigenvalues not converged
     c_bands:  5 eigenvalues not converged
     c_bands:  1 eigenvalues not converged
     c_bands:  1 eigenvalues not converged
     c_bands:  3 eigenvalues not converged
     c_bands:  5 eigenvalues not converged
     c_bands:  1 eigenvalues not converged
     c_bands:  4 eigenvalues not converged
     c_bands:  1 eigenvalues not converged
     c_bands:  3 eigenvalues not converged
     c_bands:  3 eigenvalues not converged
     c_bands:  5 eigenvalues not converged
     c_bands:  4 eigenvalues not converged
     c_bands:  5 eigenvalues not converged
     c_bands:  2 eigenvalues not converged
     ethr =  1.00E-02,  avg # of iterations = 20.1

[...]

     End of self-consistent calculation

          k = 0.0000 0.0000 0.0000 ( 20347 PWs)   bands (ev):

   -94.5888 -94.5626 -94.5626 -94.5425 -94.5424 -94.5424 -94.5335 -94.5238
   -94.5238 -94.5223 -94.5216 -94.5216 -94.5208 -94.5206 -94.5206 -94.5190
   -94.5190 -94.5168 -94.5160 -94.5160 -94.5094 -94.5094 -94.5090 -94.5078
   -94.4929 -94.4918 -94.4918 -94.4907 -94.4907 -94.4904 -94.4833 -94.4830
   -94.4830 -94.4231 -94.4223 -94.4223 -15.0314 -15.0214 -15.0214 -15.0131
   -14.9822 -14.9822 -14.9789 -14.9789 -14.9771 -14.9695 -14.9501 -14.9501
   -14.9446 -14.9365 -14.9223 -14.9223 -14.9180 -14.9079 -14.9049 -14.9049
   -14.9006 -14.9006 -14.8908 -14.8908 -14.8883 -14.8840 -14.8840 -14.8769
   -14.8769 -14.8711 -14.8219 -14.8219 -14.8151 -14.8151 -14.8134 -14.8123
   -14.7872 -14.7872 -14.7826 -14.7826 -14.7578 -14.7474 -14.7474 -14.7437
   -14.7396 -14.7396 -14.7325 -14.7325 -14.7291 -14.7251 -14.7251 -14.7194
   -14.7113 -14.7113 -14.7055 -14.7055 -14.6971 -14.6873 -14.6873 -14.6754
   -11.2922  -9.7597  -8.2334  -6.2640  -5.1317  -4.7531  -4.7531  -4.5567
    -4.5567  -4.4074  -3.8128  -3.5441  -3.5441  -3.0386  -2.5480  -2.5480
    -2.2061  -1.5209  -1.5209  -1.4621  -0.7635  -0.6014  -0.6014   0.9594
     1.1404   1.1404   1.8968   3.1855   3.2262   3.2262

[...]

          k =-0.0821 0.0474 0.0000 ( 20384 PWs)   bands (ev):

[...]

     the Fermi energy is     0.2492 ev

!    total energy              =   -5011.71128993 Ry
     Harris-Foulkes estimate   =   -5011.71129266 Ry
     estimated scf accuracy    <       0.00000142 Ry

     The total energy is the sum of the following terms:

     one-electron contribution =  -27515.04038399 Ry
     hartree contribution      =   13763.79891832 Ry
     xc contribution           =    -600.86329321 Ry
     ewald contribution        =    9340.42608494 Ry
     electric field correction =       0.00000297 Ry
     smearing contrib. (-TS)   =      -0.03261896 Ry

     convergence has been achieved in  18 iterations

 BEEF-vdW xc energy contributions
           1 :   -537.050387111782
           2 :    487.555354451962
           3 :   -404.573983772427
           4 :    312.211491091681
           5 :   -231.799305708718
           6 :    173.904640167873
           7 :   -136.818026875652
           8 :    111.301811514462
           9 :   -88.0140913133478
          10 :    62.9924869769138
          11 :   -38.4277377945723
          12 :    19.2400279868145
          13 :   -8.51554237291930
          14 :    5.07703917492313
          15 :   -4.51226635918715
          16 :    2.42032522013142
          17 :    2.72610835304158
          18 :   -9.09999580049521
          19 :    13.4742324871967
          20 :   -13.9236877554580
          21 :    11.2371816399191
          22 :   -8.15247994324977
          23 :    7.19700045740274
          24 :   -8.86794862063391
          25 :    11.4770532627152
          26 :   -12.6426659576712
          27 :    11.1863883592287
          28 :   -7.98475314801931
          29 :    5.20861847209244
          30 :   -4.62786321995111
          31 :   -39.7823954282021
          32 :   -27.0435039117713

     Forces acting on atoms (Ry/au):

     negative rho (up, down):  1.004E-03 0.000E+00
     atom    1 type  1   force =     0.00239234    0.00137649    0.00063799
     atom    2 type  1   force =    -0.00239400    0.00138180    0.00064225
     atom    3 type  1   force =     0.00000011   -0.00276176    0.00063714
     atom    4 type  1   force =    -0.00000240    0.00000660    0.00415543
     atom    5 type  1   force =     0.00000208   -0.00184995    0.00540665
     atom    6 type  1   force =    -0.00000198   -0.00000113    0.01105649
     atom    7 type  1   force =     0.00160199    0.00092568    0.00543028
     atom    8 type  1   force =    -0.00160501    0.00092592    0.00541469
     atom    9 type  1   force =    -0.00000201    0.00000161   -0.00428929
     atom   10 type  1   force =     0.00000389    0.00015437    0.02209204
     atom   11 type  1   force =     0.00014469   -0.00008106    0.02204687
     atom   12 type  1   force =    -0.00013960   -0.00008018    0.02205362
     atom   13 type  2   force =    -0.00000014    0.00000083   -0.08727324
     atom   14 type  3   force =     0.00000004    0.00000079   -0.00801091

     Total force =     0.095707     Total SCF correction =     0.004725

     entering subroutine stress ...

     negative rho (up, down):  1.004E-03 0.000E+00
          total   stress  (Ry/bohr**3)                   (kbar)     P=  -11.58
  -0.00007152  -0.00000000   0.00000000        -10.52     -0.00      0.00
  -0.00000000  -0.00007152  -0.00000000         -0.00    -10.52     -0.00
   0.00000000  -0.00000000  -0.00009304          0.00     -0.00    -13.69

     BFGS Geometry Optimization

     number of scf cycles    =   1
     number of bfgs steps    =   0

     energy   new            =   -5011.7112899257 Ry

     new trust radius        =       0.0872732373 bohr
     new conv_thr            =       0.0000099958 Ry

ATOMIC_POSITIONS (crystal)
Ga1      0.166666667   0.166666667   0.400460194    0   0   0
Ga1      0.666666667   0.166666667   0.400460194    0   0   0
Ga1      0.166666667   0.666666667   0.400460194    0   0   0
Ga1      0.666666667   0.666666667   0.400460194    0   0   0
Ga1      0.833333333   0.333333333   0.500000000    0   0   0
Ga1      0.333333333   0.333333333   0.500000000    0   0   0
Ga1      0.833333333   0.833333333   0.500000000    0   0   0
Ga1      0.333333333   0.833333333   0.500000000    0   0   0
Ga1     -0.000000256   0.000000162   0.599448910
Ga1      0.499992592   0.000015492   0.600007968
Ga1      0.000016643   0.499991865   0.600007011
Ga1      0.499991890   0.499991953   0.600007154
C1       0.333333280   0.333333417   0.649229587
H1       0.333333297   0.333333413   0.694959891

     Writing output data file calc.save
     Check: negative starting charge=   -0.001119
     NEW-OLD atomic charge density approx. for the potential
     Check: negative starting charge=   -0.001108

[...]

     energy   old            =   -5011.7112899257 Ry
     energy   new            =   -5011.7176904443 Ry

     CASE: energy  _new < energy  _old

[...]

     Total force =     0.015441     Total SCF correction =     0.001568
     SCF correction compared to forces is large: reduce conv_thr to get better values

[...]

     Total force =     0.004403     Total SCF correction =     0.000437

[...]

     new trust radius        =       0.0189027930 bohr
     new conv_thr            =       0.0000001000 Ry

[...]

     number of scf cycles    =  20
     number of bfgs steps    =  19

     energy   old            =   -5011.7574999756 Ry
     energy   new            =   -5011.7575463839 Ry

     CASE: energy  _new < energy  _old

     WARNING: bfgs curvature condition failed, Theta= 0.746
     new trust radius        =       0.0283541896 bohr
     new conv_thr            =       0.0000001000 Ry

ATOMIC_POSITIONS (crystal)
Ga1      0.166666667   0.166666667   0.400460194    0   0   0
Ga1      0.666666667   0.166666667   0.400460194    0   0   0
Ga1      0.166666667   0.666666667   0.400460194    0   0   0
Ga1      0.666666667   0.666666667   0.400460194    0   0   0
Ga1      0.833333333   0.333333333   0.500000000    0   0   0
Ga1      0.333333333   0.333333333   0.500000000    0   0   0
Ga1      0.833333333   0.833333333   0.500000000    0   0   0
Ga1      0.333333333   0.833333333   0.500000000    0   0   0
Ga1      0.000001913  -0.000003563   0.596799674
Ga1      0.512332374  -0.024662159   0.596342921
Ga1     -0.024650003   0.512323579   0.596338226
Ga1      0.512331766   0.512323948   0.596339851
C1       0.333332640   0.333334194   0.629164102
H1       0.333329290   0.333337454   0.673222959

     Writing output data file calc.save
     Check: negative starting charge=   -0.001162
     NEW-OLD atomic charge density approx. for the potential
     Check: negative starting charge=   -0.001166

[...]

     Self-consistent Calculation

[...]

     total energy              =   -5011.75758310 Ry
     Harris-Foulkes estimate   =   -5011.75758307 Ry
     estimated scf accuracy    <       0.00000018 Ry

     iteration #  7     ecut=    36.75 Ry     beta=0.30
     Davidson diagonalization with overlap
     ethr =  7.60E-11,  avg # of iterations =  3.1

[...]

     negative rho (up, down):  1.019E-03 0.000E+00

     Adding external electric field

     Computed dipole along edir(3) :
        Dipole                0.0589 Ry au,          0.1498 Debye
        Dipole field          0.0001 Ry au

        Potential amp.       -0.0126 Ry
        Total length         46.0091 bohr

     End of self-consistent calculation

[...]

          k = 0.0547-0.0632 0.0000 ( 20377 PWs)   bands (ev):

[...]

          k =-0.0821-0.0474 0.0000 ( 20384 PWs)   bands (ev):

   -94.5322 -94.5316 -94.5316 -94.5239 -94.5238 -94.5230 -94.4827 -94.4805
   -94.4805 -94.4394 -94.4341 -94.4324 -94.4321 -94.4295 -94.4295 -94.4294
   -94.4244 -94.4201 -94.4201 -94.4178 -94.4177 -94.4099 -94.4094 -94.4093
   -94.4092 -94.4092 -94.4086 -94.3628 -94.3623 -94.3618 -94.3588 -94.3586
   -94.3584 -94.3483 -94.3483 -94.3482 -15.0652 -14.9631 -14.9367 -14.9230
   -14.9132 -14.9118 -14.9077 -14.8929 -14.8804 -14.8662 -14.8614 -14.8579
   -14.8489 -14.8448 -14.8368 -14.8271 -14.8232 -14.8140 -14.8120 -14.8095
   -14.8077 -14.8056 -14.8046 -14.7999 -14.7947 -14.7889 -14.7814 -14.7746
   -14.7704 -14.7699 -14.7655 -14.7635 -14.7585 -14.7522 -14.7506 -14.7352
   -14.7288 -14.7257 -14.7170 -14.7110 -14.7106 -14.7011 -14.7011 -14.6991
   -14.6958 -14.6807 -14.6658 -14.6641 -14.6638 -14.6564 -14.6543 -14.6526
   -14.6473 -14.6448 -14.6359 -14.6257 -14.6191 -14.6093 -14.6015 -14.5786
   -11.5687  -8.6924  -8.3469  -7.2783  -6.8456  -6.0364  -5.9410  -5.0711
    -4.9133  -4.8292  -4.5782  -3.0206  -2.6593  -2.3228  -1.2975  -0.5978
    -0.5075  -0.3551  -0.1510   0.1651   0.3557   1.0137   1.3608   1.4117
     2.1129   2.2388   2.3616   2.3859   2.4978   2.9400

     the Fermi energy is     0.3626 ev

!    total energy              =   -5011.75758308 Ry
     Harris-Foulkes estimate   =   -5011.75758312 Ry
     estimated scf accuracy    <       0.00000002 Ry

     The total energy is the sum of the following terms:

     one-electron contribution =  -27927.74884368 Ry
     hartree contribution      =   13970.70566063 Ry
     xc contribution           =    -601.06799105 Ry
     ewald contribution        =    9546.38065951 Ry
     electric field correction =       0.00000807 Ry
     smearing contrib. (-TS)   =      -0.02707656 Ry

     convergence has been achieved in   7 iterations

 BEEF-vdW xc energy contributions
           1 :   -537.259974156639
           2 :    487.845207693879
           3 :   -404.944203145739
           4 :    312.582527727608
           5 :   -232.072413910401
           6 :    174.026419645043
           7 :   -136.811798288017
           8 :    111.249200129833
           9 :   -88.0003322362470
          10 :    63.0526579909081
          11 :   -38.5298227832252
          12 :    19.3144036981435
          13 :   -8.50771071205713
          14 :    4.98618087059276
          15 :   -4.38934378445151
          16 :    2.32904011349547
          17 :    2.75309135221869
          18 :   -9.07513559430458
          19 :    13.4332522463644
          20 :   -13.8897822859822
          21 :    11.2019109151568
          22 :   -8.08826843524218
          23 :    7.08918787589482
          24 :   -8.73737645325014
          25 :    11.3711933212066
          26 :   -12.5993617027009
          27 :    11.1988394730350
          28 :   -7.99860697813210
          29 :    5.15846829598104
          30 :   -4.48898876526891
          31 :   -39.7991686544890
          32 :   -27.0776593520461

     Forces acting on atoms (Ry/au):

     negative rho (up, down):  1.019E-03 0.000E+00
     atom    1 type  1   force =     0.00149725    0.00086410    0.00039689
     atom    2 type  1   force =    -0.00149743    0.00086409    0.00039526
     atom    3 type  1   force =    -0.00000011   -0.00172886    0.00039748
     atom    4 type  1   force =    -0.00000015    0.00000028    0.00470487
     atom    5 type  1   force =    -0.00000081    0.00007932    0.00002744
     atom    6 type  1   force =     0.00000047   -0.00000161   -0.00475439
     atom    7 type  1   force =    -0.00006987   -0.00003854    0.00002970
     atom    8 type  1   force =     0.00007022   -0.00003965    0.00002816
     atom    9 type  1   force =     0.00000012   -0.00000022    0.00139465
     atom   10 type  1   force =     0.00000060    0.00055679   -0.00016823
     atom   11 type  1   force =     0.00047996   -0.00027543   -0.00016291
     atom   12 type  1   force =    -0.00048264   -0.00027731   -0.00016298
     atom   13 type  2   force =     0.00000245   -0.00000401   -0.00066006
     atom   14 type  3   force =    -0.00000006    0.00000107   -0.00146587

     Total force =     0.002353     Total SCF correction =     0.000815
     SCF correction compared to forces is large: reduce conv_thr to get better values

     entering subroutine stress ...

     negative rho (up, down):  1.019E-03 0.000E+00
          total   stress  (Ry/bohr**3)                   (kbar)     P=   -5.45
  -0.00004961  -0.00000000   0.00000000         -7.30     -0.00      0.00
  -0.00000000  -0.00004961   0.00000000         -0.00     -7.30      0.00
   0.00000000   0.00000000  -0.00001197          0.00      0.00     -1.76

     bfgs converged in  21 scf cycles and  20 bfgs steps
     (criteria: energy <  1.0E+00, force <  1.9E-03)

     End of BFGS Geometry Optimization

     Final energy   =   -5011.7575830752 Ry
Begin final coordinates

ATOMIC_POSITIONS (crystal)
Ga1      0.166666667   0.166666667   0.400460194    0   0   0
Ga1      0.666666667   0.166666667   0.400460194    0   0   0
Ga1      0.166666667   0.666666667   0.400460194    0   0   0
Ga1      0.666666667   0.666666667   0.400460194    0   0   0
Ga1      0.833333333   0.333333333   0.500000000    0   0   0
Ga1      0.333333333   0.333333333   0.500000000    0   0   0
Ga1      0.833333333   0.833333333   0.500000000    0   0   0
Ga1      0.333333333   0.833333333   0.500000000    0   0   0
Ga1      0.000001913  -0.000003563   0.596799674
Ga1      0.512332374  -0.024662159   0.596342921
Ga1     -0.024650003   0.512323579   0.596338226
Ga1      0.512331766   0.512323948   0.596339851
C1       0.333332640   0.333334194   0.629164102
H1       0.333329290   0.333337454   0.673222959
End final coordinates

     Writing output data file calc.save

     General routines

     Parallel routines

   This run was terminated on:  21:27: 9  17Apr2018

   JOB DONE.