     Program PWSCF v.5.1rc2 (svn rev. ) starts on 17Apr2018 at 22:23:11

     Current dimensions of program PWSCF are:
     Max number of different atomic species (ntypx) = 10
     Max number of k-points (npk) =  40000
     Max angular momentum in pseudopotentials (lmaxx) =  3
     Presently stress not available with electric field

     IMPORTANT: XC functional enforced from input :
     Exchange-correlation      = BEEF-VDW ( 1  4 27 13 2)
     Any further DFT definition will be discarded
     Please, verify this is what you really want

     Subspace diagonalization in iterative solution of the eigenvalue problem:
     a serial algorithm will be used

     bravais-lattice index     =            0
     lattice parameter (alat)  =       1.8897  a.u.
     unit-cell volume          =    5409.9593 (a.u.)^3
     number of atoms/cell      =           14
     number of atomic types    =            3
     number of electrons       =       235.00
     number of Kohn-Sham states=          127
     kinetic-energy cutoff     =      36.7493  Ry
     charge density cutoff     =     367.4932  Ry
     convergence threshold     =      1.0E-05
     mixing beta               =       0.3000
     number of iterations used =           10  plain     mixing
     Exchange-correlation      = BEEF-VDW ( 1  4 27 13 2)
     nstep                     =           50

     celldm(1)=   1.889726  celldm(2)=   0.000000  celldm(3)=   0.000000
     celldm(4)=   0.000000  celldm(5)=   0.000000  celldm(6)=   0.000000

     crystal axes: (cart. coord. in units of alat)
               a(1) = (   6.088539   0.000000   0.000000 )
               a(2) = (   3.044269   5.272829   0.000000 )
               a(3) = (   0.000000   0.000000  24.971271 )

     reciprocal axes: (cart. coord. in units 2 pi/alat)
               b(1) = (  0.164243 -0.094826  0.000000 )
               b(2) = (  0.000000  0.189652  0.000000 )
               b(3) = (  0.000000  0.000000  0.040046 )

     PseudoPot. # 1 for Ga read from file:
     /home/mamunm/src/pseudo/gbrv1.5pbe/Ga.UPF
     MD5 check sum: ccd671392a58a050fbb373893b4fcd66
     Pseudo is Ultrasoft + core correction, Zval = 19.0
     Generated by new atomic code, or converted to UPF format
     Using radial grid of  871 points,  6 beta functions with:
                l(1) =   0
                l(2) =   0
                l(3) =   1
                l(4) =   1
                l(5) =   2
                l(6) =   2
     Q(r) pseudized with  8 coefficients,  rinner =    1.250   1.250   1.250
                                                       1.250   1.250

     PseudoPot. # 2 for O  read from file:
     /home/mamunm/src/pseudo/gbrv1.5pbe/O.UPF
     MD5 check sum: 734c27235a0248c51dbae37a1fbe46ec
     Pseudo is Ultrasoft + core correction, Zval =  6.0
     Generated by new atomic code, or converted to UPF format
     Using radial grid of  737 points,  5 beta functions with:
                l(1) =   0
                l(2) =   0
                l(3) =   1
                l(4) =   1
                l(5) =   2
     Q(r) pseudized with  8 coefficients,  rinner =    0.900   0.900   0.900
                                                       0.900   0.900

     PseudoPot. # 3 for H  read from file:
     /home/mamunm/src/pseudo/gbrv1.5pbe/H.UPF
     MD5 check sum: 761ae9a214b05c3daf00ab9f6b793d6f
     Pseudo is Ultrasoft, Zval =  1.0
     Generated by new atomic code, or converted to UPF format
     Using radial grid of  615 points,  2 beta functions with:
                l(1) =   0
                l(2) =   0
     Q(r) pseudized with  8 coefficients,  rinner =    0.700

     vdW kernel table read from file vdW_kernel_table
     MD5 check sum: 095c7af220d748ca6e76c0b4c6cfb241

     atomic species   valence    mass     pseudopotential
        Ga1           19.00    69.72300     Ga( 1.00)
        O1             6.00    15.99900     O ( 1.00)
        H1             1.00     1.00800     H ( 1.00)

     No symmetry found

   Cartesian axes

     site n.     atom                  positions (alat units)
         1           Ga1 tau(   1) = (   1.5221346   0.8788048  10.0000000  )
         2           Ga1 tau(   2) = (   4.5664039   0.8788048  10.0000000  )
         3           Ga1 tau(   3) = (   3.0442693   3.5152194  10.0000000  )
         4           Ga1 tau(   4) = (   6.0885386   3.5152194  10.0000000  )
         5           Ga1 tau(   5) = (   6.0885386   1.7576097  12.4856355  )
         6           Ga1 tau(   6) = (   3.0442693   1.7576097  12.4856355  )
         7           Ga1 tau(   7) = (   7.6106732   4.3940242  12.4856355  )
         8           Ga1 tau(   8) = (   4.5664039   4.3940242  12.4856355  )
         9           Ga1 tau(   9) = (   0.0000000   0.0000000  14.9712709  )
        10           Ga1 tau(  10) = (   3.0442693   0.0000000  14.9712709  )
        11           Ga1 tau(  11) = (   1.5221346   2.6364145  14.9712709  )
        12           Ga1 tau(  12) = (   4.5664039   2.6364145  14.9712709  )
        13           O1  tau(  13) = (   3.0442693   1.7576097  16.1932709  )
        14           H1  tau(  14) = (   3.0442693   1.7576097  17.1432709  )

     number of k points=    20  Fermi-Dirac smearing, width (Ry)=  0.0110
                       cart. coord. in units 2pi/alat
        k(    1) = (   0.0000000   0.0000000   0.0000000), wk =   0.0555556
        k(    2) = (   0.0000000   0.0316086   0.0000000), wk =   0.1111111
        k(    3) = (   0.0000000   0.0632172   0.0000000), wk =   0.1111111
        k(    4) = (   0.0000000  -0.0948258   0.0000000), wk =   0.0555556
        k(    5) = (   0.0273738  -0.0158043   0.0000000), wk =   0.1111111
        k(    6) = (   0.0273738   0.0158043   0.0000000), wk =   0.1111111
        k(    7) = (   0.0273738   0.0474129   0.0000000), wk =   0.1111111
        k(    8) = (   0.0273738  -0.1106300   0.0000000), wk =   0.1111111
        k(    9) = (   0.0273738  -0.0790215   0.0000000), wk =   0.1111111
        k(   10) = (   0.0273738  -0.0474129   0.0000000), wk =   0.1111111
        k(   11) = (   0.0547477  -0.0316086   0.0000000), wk =   0.1111111
        k(   12) = (   0.0547477   0.0000000   0.0000000), wk =   0.1111111
        k(   13) = (   0.0547477   0.0316086   0.0000000), wk =   0.1111111
        k(   14) = (   0.0547477  -0.1264343   0.0000000), wk =   0.1111111
        k(   15) = (   0.0547477  -0.0948258   0.0000000), wk =   0.1111111
        k(   16) = (   0.0547477  -0.0632172   0.0000000), wk =   0.1111111
        k(   17) = (  -0.0821215   0.0474129   0.0000000), wk =   0.0555556
        k(   18) = (  -0.0821215   0.0790215   0.0000000), wk =   0.1111111
        k(   19) = (  -0.0821215   0.1106300   0.0000000), wk =   0.1111111
        k(   20) = (  -0.0821215  -0.0474129   0.0000000), wk =   0.0555556

     Largest allocated arrays     est. size (Mb)     dimensions
     Largest temporary arrays     est. size (Mb)     dimensions

     Initial potential from superposition of free atoms
     Check: negative starting charge=   -0.001187

     starting charge  222.99998, renormalised to  235.00000

     negative rho (up, down):  1.251E-03 0.000E+00

     *
     * You are using vdW-DF for exchange-correlation in this calculation.
     * Please cite the following three references that made this development
     * possible:
     *
     *   M. Dion, H. Rydberg, E. Schroder, D. C. Langreth, and
     *   B. I. Lundqvist, Phys. Rev. Lett. 92, 246401 (2004).
     *
     *   T. Thonhauser, V. R. Cooper, S. Li, A. Puzder, P. Hyldgaard, and
     *   D. C. Langreth, Phys. Rev. B 76, 125112 (2007).
     *
     *   G. Roman-Perez and J. M. Soler, Phys. Rev. Lett. 103, 096102 (2009).
     *
     *
     * If you are using vdW-DF2, please also cite:
     *
     *   K. Lee, E. D. Murray, L. Kong, B. I. Lundqvist, and
     *   D. C. Langreth, Phys. Rev. B 82, 081101(R) (2010).
     *
     *
     * If you are calculating the stress with vdW-DF, please also cite:
     *
     *   R. Sabatini, E. Kucukbenli, B. Kolb, T. Thonhauser, and
     *   S. de Gironcoli, J. Phys.: Condens. Matter 24, 424209 (2012).
     *

     Carrying out vdW-DF run using the following parameters:

     Nqs =      20    Nr_points =    1024   r_max =   100.000
     q_mesh =
               0.00001000     0.04494208     0.09755937     0.15916263
               0.23128650     0.31572767     0.41458969     0.53033537
               0.66584808     0.82450364     1.01025438     1.22772762
               1.48234092     1.78043706     2.12944203     2.53805004
               3.01644009     3.57652955     4.23227104     5.00000000

     Gradients computed in reciprocal space

     Adding external electric field

     Computed dipole along edir(3) :
        Dipole               -2.7357 Ry au,         -6.9535 Debye
        Dipole field         -0.0064 Ry au

        Potential amp.        0.5847 Ry
        Total length         46.0091 bohr

     Starting wfc are  149 randomized atomic wfcs

     Self-consistent Calculation

     iteration #  1     ecut=    36.75 Ry     beta=0.30
     Davidson diagonalization with overlap
     ethr =  1.00E-02,  avg # of iterations =  7.2

[...]

     total energy              =   -4647.12081861 Ry
     Harris-Foulkes estimate   =   -5038.11728882 Ry
     estimated scf accuracy    <     825.69345567 Ry

[...]

     iteration # 16     ecut=    36.75 Ry     beta=0.30
     Davidson diagonalization with overlap
     c_bands:  1 eigenvalues not converged
     ethr =  2.91E-07,  avg # of iterations =  8.1

[...]

     End of self-consistent calculation

          k = 0.0000 0.0000 0.0000 ( 20347 PWs)   bands (ev):

   -94.2351 -94.2343 -94.2343 -94.2311 -94.2304 -94.2303 -94.2214 -94.2214
   -94.2208 -94.1764 -94.1476 -94.1476 -94.1140 -94.1140 -94.1060 -94.1046
   -94.1038 -94.1038 -94.1032 -94.1031 -94.1031 -94.0999 -94.0999 -94.0994
   -94.0969 -94.0961 -94.0961 -94.0837 -94.0831 -94.0831 -94.0823 -94.0820
   -94.0820 -94.0544 -94.0339 -94.0339 -20.8206 -14.7281 -14.6829 -14.6829
   -14.6363 -14.6234 -14.6234 -14.6093 -14.6056 -14.6056 -14.5949 -14.5780
   -14.5780 -14.5590 -14.5589 -14.5548 -14.5548 -14.5490 -14.5455 -14.5404
   -14.5404 -14.5332 -14.5242 -14.5242 -14.5235 -14.5142 -14.4887 -14.4820
   -14.4820 -14.4724 -14.4724 -14.4607 -14.4607 -14.4502 -14.4502 -14.4417
   -14.4301 -14.3999 -14.3999 -14.3952 -14.3952 -14.3846 -14.3522 -14.3522
   -14.3455 -14.3430 -14.3418 -14.3418 -14.3341 -14.3341 -14.3211 -14.3211
   -14.3173 -14.3109 -14.3109 -14.3033 -14.3009 -14.3009 -14.2970 -14.2970
   -14.2803  -9.7234  -8.8806  -7.4188  -5.6175  -5.6175  -5.4806  -4.2598
    -4.2598  -4.1476  -3.8194  -3.6039  -3.6039  -2.6415  -2.1605  -2.1605
    -1.9849  -1.9849  -1.9093  -1.3887  -0.3784  -0.2333  -0.2333   0.2866
     0.2866   0.8858   1.4128   2.8049   3.5814   3.5822   3.6483

[...]

          k =-0.0821 0.0474 0.0000 ( 20384 PWs)   bands (ev):

[...]

     the Fermi energy is     0.6440 ev

!    total energy              =   -5032.82616412 Ry
     Harris-Foulkes estimate   =   -5032.82617789 Ry
     estimated scf accuracy    <       0.00000045 Ry

     The total energy is the sum of the following terms:

     one-electron contribution =  -27811.22747071 Ry
     hartree contribution      =   13915.72155770 Ry
     xc contribution           =    -604.98213436 Ry
     ewald contribution        =    9467.69664615 Ry
     electric field correction =       0.00023196 Ry
     smearing contrib. (-TS)   =      -0.03499485 Ry

     convergence has been achieved in  19 iterations

 BEEF-vdW xc energy contributions
           1 :   -540.598755520251
           2 :    490.576144111764
           3 :   -406.726566145296
           4 :    313.443238404779
           5 :   -232.307281167939
           6 :    174.007499083691
           7 :   -136.823761695343
           8 :    111.409980609163
           9 :   -88.2744306899455
          10 :    63.3269393526328
          11 :   -38.7005416722960
          12 :    19.3411950169494
          13 :   -8.41479879130350
          14 :    4.82212009322996
          15 :   -4.18406492340853
          16 :    2.08182579970696
          17 :    3.05334289068321
          18 :   -9.42360539069421
          19 :    13.8002540062713
          20 :   -14.2330447621868
          21 :    11.4878014948289
          22 :   -8.30641776317179
          23 :    7.25019123244635
          24 :   -8.85714302386293
          25 :    11.4576538080271
          26 :   -12.6542903858548
          27 :    11.2313369159079
          28 :   -8.03502472716434
          29 :    5.23467834863902
          30 :   -4.62456932807481
          31 :   -40.1014723675574
          32 :   -27.2137763780067

     Forces acting on atoms (Ry/au):

     negative rho (up, down):  1.030E-03 0.000E+00
     atom    1 type  1   force =     0.00036491    0.00022265    0.00138378
     atom    2 type  1   force =    -0.00036803    0.00022718    0.00138157
     atom    3 type  1   force =     0.00000926   -0.00044247    0.00149489
     atom    4 type  1   force =     0.00001878    0.00000946    0.00286295
     atom    5 type  1   force =    -0.00000227   -0.00388475   -0.00284741
     atom    6 type  1   force =    -0.00000775   -0.00000008    0.00411115
     atom    7 type  1   force =     0.00335827    0.00193837   -0.00282961
     atom    8 type  1   force =    -0.00336191    0.00193295   -0.00283541
     atom    9 type  1   force =    -0.00000139   -0.00000400   -0.00772399
     atom   10 type  1   force =    -0.00000269   -0.03241299   -0.01340276
     atom   11 type  1   force =    -0.02808048    0.01620843   -0.01340002
     atom   12 type  1   force =     0.02807810    0.01620988   -0.01341041
     atom   13 type  2   force =    -0.00000251   -0.00000235   -0.02180174
     atom   14 type  3   force =    -0.00000227   -0.00000227    0.06701700

     Total force =     0.093372     Total SCF correction =     0.001590

     entering subroutine stress ...

     negative rho (up, down):  1.030E-03 0.000E+00
          total   stress  (Ry/bohr**3)                   (kbar)     P=   -3.05
  -0.00003546   0.00000000  -0.00000000         -5.22      0.00     -0.00
   0.00000000  -0.00003546  -0.00000000          0.00     -5.22     -0.00
  -0.00000000  -0.00000000   0.00000871         -0.00     -0.00      1.28

     BFGS Geometry Optimization

     number of scf cycles    =   1
     number of bfgs steps    =   0

     energy   new            =   -5032.8261641199 Ry

     new trust radius        =       0.0670170023 bohr
     new conv_thr            =       0.0000099958 Ry

ATOMIC_POSITIONS (crystal)
Ga1      0.166666667   0.166666667   0.400460194    0   0   0
Ga1      0.666666667   0.166666667   0.400460194    0   0   0
Ga1      0.166666667   0.666666667   0.400460194    0   0   0
Ga1      0.666666667   0.666666667   0.400460194    0   0   0
Ga1      0.833333333   0.333333333   0.500000000    0   0   0
Ga1      0.333333333   0.333333333   0.500000000    0   0   0
Ga1      0.833333333   0.833333333   0.500000000    0   0   0
Ga1      0.333333333   0.833333333   0.500000000    0   0   0
Ga1      0.000000080  -0.000000401   0.599376124
Ga1      0.501626238  -0.003252944   0.599255782
Ga1     -0.003253911   0.501626666   0.599255840
Ga1      0.501626965   0.501626811   0.599255620
O1       0.333333233   0.333333097   0.648014031
H1       0.333333250   0.333333105   0.687939947

     Writing output data file calc.save
     Check: negative starting charge=   -0.001187
     NEW-OLD atomic charge density approx. for the potential
     Check: negative starting charge=   -0.001191

[...]

     energy   old            =   -5032.8261641199 Ry
     energy   new            =   -5032.8302690046 Ry

     CASE: energy  _new < energy  _old

[...]

     Total force =     0.006479     Total SCF correction =     0.001450
     SCF correction compared to forces is large: reduce conv_thr to get better values

[...]

     Total force =     0.007516     Total SCF correction =     0.000331

[...]

     number of scf cycles    =  10
     number of bfgs steps    =   9

     energy   old            =   -5032.8401712232 Ry
     energy   new            =   -5032.8403721771 Ry

     CASE: energy  _new < energy  _old

     new trust radius        =       0.0290249066 bohr
     new conv_thr            =       0.0000001000 Ry

ATOMIC_POSITIONS (crystal)
Ga1      0.166666667   0.166666667   0.400460194    0   0   0
Ga1      0.666666667   0.166666667   0.400460194    0   0   0
Ga1      0.166666667   0.666666667   0.400460194    0   0   0
Ga1      0.666666667   0.666666667   0.400460194    0   0   0
Ga1      0.833333333   0.333333333   0.500000000    0   0   0
Ga1      0.333333333   0.333333333   0.500000000    0   0   0
Ga1      0.833333333   0.833333333   0.500000000    0   0   0
Ga1      0.333333333   0.833333333   0.500000000    0   0   0
Ga1     -0.000000216  -0.000001938   0.593979685
Ga1      0.508519805  -0.017039446   0.598708036
Ga1     -0.017045803   0.508524644   0.598708062
Ga1      0.508522533   0.508525038   0.598707886
O1       0.333332221   0.333333322   0.651891305
H1       0.333333572   0.333330236   0.691132272

     Writing output data file calc.save
     Check: negative starting charge=   -0.001161
     NEW-OLD atomic charge density approx. for the potential
     Check: negative starting charge=   -0.001160

[...]

     Self-consistent Calculation

[...]

     Threshold (ethr) on eigenvalues was too large:
     Diagonalizing with lowered threshold

     Davidson diagonalization with overlap
     ethr =  4.41E-08,  avg # of iterations =  1.9

[...]

     total energy              =   -5032.84045792 Ry
     Harris-Foulkes estimate   =   -5032.84045762 Ry
     estimated scf accuracy    <       0.00000023 Ry

     iteration #  7     ecut=    36.75 Ry     beta=0.30
     Davidson diagonalization with overlap
     ethr =  9.98E-11,  avg # of iterations =  4.0

[...]

     negative rho (up, down):  1.033E-03 0.000E+00

     Adding external electric field

     Computed dipole along edir(3) :
        Dipole                0.2344 Ry au,          0.5957 Debye
        Dipole field          0.0005 Ry au

        Potential amp.       -0.0501 Ry
        Total length         46.0091 bohr

     End of self-consistent calculation

[...]

          k = 0.0547-0.0632 0.0000 ( 20377 PWs)   bands (ev):

[...]

          k =-0.0821-0.0474 0.0000 ( 20384 PWs)   bands (ev):

   -94.3485 -94.3484 -94.3483 -94.3450 -94.3440 -94.3435 -94.3378 -94.3376
   -94.3372 -94.2883 -94.2618 -94.2618 -94.2430 -94.2429 -94.2411 -94.2306
   -94.2303 -94.2302 -94.2300 -94.2298 -94.2296 -94.2271 -94.2269 -94.2267
   -94.2213 -94.2211 -94.2209 -94.2106 -94.2100 -94.2099 -94.2098 -94.2098
   -94.2093 -94.1563 -94.1454 -94.1454 -19.8009 -14.7932 -14.7502 -14.7461
   -14.7343 -14.7322 -14.7154 -14.7035 -14.7005 -14.6941 -14.6907 -14.6835
   -14.6830 -14.6693 -14.6537 -14.6514 -14.6505 -14.6503 -14.6389 -14.6375
   -14.6362 -14.6296 -14.6273 -14.6165 -14.6133 -14.6095 -14.6074 -14.5979
   -14.5961 -14.5865 -14.5820 -14.5759 -14.5693 -14.5682 -14.5636 -14.5574
   -14.5521 -14.5421 -14.5382 -14.5340 -14.5337 -14.5246 -14.5209 -14.5153
   -14.5142 -14.5065 -14.5054 -14.5043 -14.5015 -14.4917 -14.4833 -14.4754
   -14.4678 -14.4648 -14.4589 -14.4539 -14.4537 -14.4328 -14.4311 -14.4169
   -14.4168  -8.5448  -8.3995  -7.7416  -6.9970  -6.3336  -5.7292  -5.4275
    -4.9925  -4.7752  -4.3524  -3.5099  -3.3813  -3.3761  -1.9285  -1.4888
    -0.3890  -0.2535  -0.0457   0.2133   0.3262   0.6051   1.4471   1.6124
     1.8143   1.9125   2.4625   2.5084   2.6285   2.9470   3.0193

     the Fermi energy is     0.5101 ev

!    total energy              =   -5032.84045712 Ry
     Harris-Foulkes estimate   =   -5032.84045788 Ry
     estimated scf accuracy    <       0.00000003 Ry

     The total energy is the sum of the following terms:

     one-electron contribution =  -27926.58824099 Ry
     hartree contribution      =   13972.71306627 Ry
     xc contribution           =    -604.92020098 Ry
     ewald contribution        =    9525.98904655 Ry
     electric field correction =       0.00012759 Ry
     smearing contrib. (-TS)   =      -0.03425557 Ry

     convergence has been achieved in   7 iterations

 BEEF-vdW xc energy contributions
           1 :   -540.536194829135
           2 :    490.503751949997
           3 :   -406.655926600940
           4 :    313.400698793918
           5 :   -232.313645193395
           6 :    174.062133339684
           7 :   -136.900853641330
           8 :    111.471729252958
           9 :   -88.2926471226231
          10 :    63.2984378616379
          11 :   -38.6471464939789
          12 :    19.2945374590872
          13 :   -8.39673561803988
          14 :    4.83443878105800
          15 :   -4.21172518701565
          16 :    2.10550545504361
          17 :    3.04385570289787
          18 :   -9.42414665576553
          19 :    13.7977381176597
          20 :   -14.2159473667592
          21 :    11.4535476126196
          22 :   -8.26160846021116
          23 :    7.20620737433478
          24 :   -8.82604876654398
          25 :    11.4506182754737
          26 :   -12.6807818009854
          27 :    11.2955976999194
          28 :   -8.12895657999115
          29 :    5.33071277131262
          30 :   -4.67490872881751
          31 :   -40.0990219319040
          32 :   -27.2106618699938

     Forces acting on atoms (Ry/au):

     negative rho (up, down):  1.033E-03 0.000E+00
     atom    1 type  1   force =    -0.00077386   -0.00044688    0.00134586
     atom    2 type  1   force =     0.00077396   -0.00044687    0.00134585
     atom    3 type  1   force =    -0.00000003    0.00089338    0.00134588
     atom    4 type  1   force =     0.00000014   -0.00000002    0.00412624
     atom    5 type  1   force =     0.00000022   -0.00201734   -0.00650593
     atom    6 type  1   force =    -0.00000015    0.00000003    0.00606355
     atom    7 type  1   force =     0.00174612    0.00100779   -0.00650742
     atom    8 type  1   force =    -0.00174820    0.00100929   -0.00650578
     atom    9 type  1   force =    -0.00000042    0.00000041    0.00098923
     atom   10 type  1   force =     0.00000030    0.00149890    0.00115589
     atom   11 type  1   force =     0.00129773   -0.00074945    0.00115751
     atom   12 type  1   force =    -0.00129569   -0.00074858    0.00115731
     atom   13 type  2   force =     0.00000009   -0.00000041    0.00034154
     atom   14 type  3   force =    -0.00000021   -0.00000025    0.00049025

     Total force =     0.003476     Total SCF correction =     0.000692
     SCF correction compared to forces is large: reduce conv_thr to get better values

     entering subroutine stress ...

     negative rho (up, down):  1.033E-03 0.000E+00
          total   stress  (Ry/bohr**3)                   (kbar)     P=   -3.99
  -0.00003674   0.00000000  -0.00000000         -5.41      0.00     -0.00
   0.00000000  -0.00003674  -0.00000000          0.00     -5.41     -0.00
  -0.00000000  -0.00000000  -0.00000784         -0.00     -0.00     -1.15

     bfgs converged in  11 scf cycles and  10 bfgs steps
     (criteria: energy <  1.0E+00, force <  1.9E-03)

     End of BFGS Geometry Optimization

     Final energy   =   -5032.8404571242 Ry
Begin final coordinates

ATOMIC_POSITIONS (crystal)
Ga1      0.166666667   0.166666667   0.400460194    0   0   0
Ga1      0.666666667   0.166666667   0.400460194    0   0   0
Ga1      0.166666667   0.666666667   0.400460194    0   0   0
Ga1      0.666666667   0.666666667   0.400460194    0   0   0
Ga1      0.833333333   0.333333333   0.500000000    0   0   0
Ga1      0.333333333   0.333333333   0.500000000    0   0   0
Ga1      0.833333333   0.833333333   0.500000000    0   0   0
Ga1      0.333333333   0.833333333   0.500000000    0   0   0
Ga1     -0.000000216  -0.000001938   0.593979685
Ga1      0.508519805  -0.017039446   0.598708036
Ga1     -0.017045803   0.508524644   0.598708062
Ga1      0.508522533   0.508525038   0.598707886
O1       0.333332221   0.333333322   0.651891305
H1       0.333333572   0.333330236   0.691132272
End final coordinates

     Writing output data file calc.save

     General routines

     Parallel routines

   This run was terminated on:  23:10:42  17Apr2018

   JOB DONE.