     Program PWSCF v.5.1rc2 (svn rev. 11289) starts on 23Apr2018 at 14:55:17

     Current dimensions of program PWSCF are:
     Max number of different atomic species (ntypx) = 10
     Max number of k-points (npk) =  40000
     Max angular momentum in pseudopotentials (lmaxx) =  3
     Presently stress not available with electric field

     IMPORTANT: XC functional enforced from input :
     Exchange-correlation      = BEEF-VDW ( 1  4 27 13 2)
     Any further DFT definition will be discarded
     Please, verify this is what you really want

     Subspace diagonalization in iterative solution of the eigenvalue problem:
     a serial algorithm will be used

     bravais-lattice index     =            0
     lattice parameter (alat)  =       1.8897  a.u.
     unit-cell volume          =    4301.6107 (a.u.)^3
     number of atoms/cell      =           16
     number of atomic types    =            3
     number of electrons       =       187.00
     number of Kohn-Sham states=          103
     kinetic-energy cutoff     =      36.7493  Ry
     charge density cutoff     =     367.4932  Ry
     convergence threshold     =      1.0E-05
     mixing beta               =       0.3000
     number of iterations used =           10  plain     mixing
     Exchange-correlation      = BEEF-VDW ( 1  4 27 13 2)
     nstep                     =           50

     celldm(1)=   1.889726  celldm(2)=   0.000000  celldm(3)=   0.000000
     celldm(4)=   0.000000  celldm(5)=   0.000000  celldm(6)=   0.000000

     crystal axes: (cart. coord. in units of alat)
               a(1) = (   5.483647   0.000000   0.000000 )
               a(2) = (   2.741823   4.748977   0.000000 )
               a(3) = (   0.000000   0.000000  24.477379 )

     reciprocal axes: (cart. coord. in units 2 pi/alat)
               b(1) = (  0.182360 -0.105286  0.000000 )
               b(2) = (  0.000000  0.210572  0.000000 )
               b(3) = (  0.000000  0.000000  0.040854 )

     PseudoPot. # 1 for Tc read from file:
     /u/if/mamunm/psp/gbrv1.5pbe/Tc.UPF
     MD5 check sum: 9eb49e5b028550b2339a02317eb7b844
     Pseudo is Ultrasoft + core correction, Zval = 15.0
     Generated by new atomic code, or converted to UPF format
     Using radial grid of  965 points,  6 beta functions with:
                l(1) =   0
                l(2) =   0
                l(3) =   1
                l(4) =   1
                l(5) =   2
                l(6) =   2
     Q(r) pseudized with  8 coefficients,  rinner =    1.300   1.300   1.300
                                                       1.300   1.300

     PseudoPot. # 2 for C  read from file:
     /u/if/mamunm/psp/gbrv1.5pbe/C.UPF
     MD5 check sum: d1aef80898a10debaa0f26306b886e00
     Pseudo is Ultrasoft + core correction, Zval =  4.0
     Generated by new atomic code, or converted to UPF format
     Using radial grid of  721 points,  4 beta functions with:
                l(1) =   0
                l(2) =   0
                l(3) =   1
                l(4) =   1
     Q(r) pseudized with  8 coefficients,  rinner =    1.100   1.100   1.100

     PseudoPot. # 3 for H  read from file:
     /u/if/mamunm/psp/gbrv1.5pbe/H.UPF
     MD5 check sum: 761ae9a214b05c3daf00ab9f6b793d6f
     Pseudo is Ultrasoft, Zval =  1.0
     Generated by new atomic code, or converted to UPF format
     Using radial grid of  615 points,  2 beta functions with:
                l(1) =   0
                l(2) =   0
     Q(r) pseudized with  8 coefficients,  rinner =    0.700

     vdW kernel table read from file vdW_kernel_table
     MD5 check sum: 095c7af220d748ca6e76c0b4c6cfb241

     atomic species   valence    mass     pseudopotential
        Tc1           15.00    97.90721     Tc( 1.00)
        C1             4.00    12.01100     C ( 1.00)
        H1             1.00     1.00800     H ( 1.00)

     No symmetry found

   Cartesian axes

     site n.     atom                  positions (alat units)
         1           Tc1 tau(   1) = (   1.3709117   0.7914962  10.0000000  )
         2           Tc1 tau(   2) = (   4.1127351   0.7914962  10.0000000  )
         3           Tc1 tau(   3) = (   2.7418234   3.1659850  10.0000000  )
         4           Tc1 tau(   4) = (   5.4836469   3.1659850  10.0000000  )
         5           Tc1 tau(   5) = (   5.4836469   1.5829925  12.2386895  )
         6           Tc1 tau(   6) = (   2.7418234   1.5829925  12.2386895  )
         7           Tc1 tau(   7) = (   6.8545586   3.9574812  12.2386895  )
         8           Tc1 tau(   8) = (   4.1127351   3.9574812  12.2386895  )
         9           Tc1 tau(   9) = (   0.0000000   0.0000000  14.4773789  )
        10           Tc1 tau(  10) = (   2.7418234   0.0000000  14.4773789  )
        11           Tc1 tau(  11) = (   1.3709117   2.3744887  14.4773789  )
        12           Tc1 tau(  12) = (   4.1127351   2.3744887  14.4773789  )
        13           C1  tau(  13) = (   2.7418234   1.5829925  15.9268789  )
        14           H1  tau(  14) = (   3.8318234   1.5829925  16.5568789  )
        15           H1  tau(  15) = (   2.2918234   2.4724925  16.5568789  )
        16           H1  tau(  16) = (   2.2918234   0.6934925  16.5568789  )

     number of k points=    20  Fermi-Dirac smearing, width (Ry)=  0.0110
                       cart. coord. in units 2pi/alat
        k(    1) = (   0.0000000   0.0000000   0.0000000), wk =   0.0555556
        k(    2) = (   0.0000000   0.0350953   0.0000000), wk =   0.1111111
        k(    3) = (   0.0000000   0.0701905   0.0000000), wk =   0.1111111
        k(    4) = (   0.0000000  -0.1052858   0.0000000), wk =   0.0555556
        k(    5) = (   0.0303934  -0.0175476   0.0000000), wk =   0.1111111
        k(    6) = (   0.0303934   0.0175476   0.0000000), wk =   0.1111111
        k(    7) = (   0.0303934   0.0526429   0.0000000), wk =   0.1111111
        k(    8) = (   0.0303934  -0.1228335   0.0000000), wk =   0.1111111
        k(    9) = (   0.0303934  -0.0877382   0.0000000), wk =   0.1111111
        k(   10) = (   0.0303934  -0.0526429   0.0000000), wk =   0.1111111
        k(   11) = (   0.0607868  -0.0350953   0.0000000), wk =   0.1111111
        k(   12) = (   0.0607868   0.0000000   0.0000000), wk =   0.1111111
        k(   13) = (   0.0607868   0.0350953   0.0000000), wk =   0.1111111
        k(   14) = (   0.0607868  -0.1403811   0.0000000), wk =   0.1111111
        k(   15) = (   0.0607868  -0.1052858   0.0000000), wk =   0.1111111
        k(   16) = (   0.0607868  -0.0701905   0.0000000), wk =   0.1111111
        k(   17) = (  -0.0911802   0.0526429   0.0000000), wk =   0.0555556
        k(   18) = (  -0.0911802   0.0877382   0.0000000), wk =   0.1111111
        k(   19) = (  -0.0911802   0.1228335   0.0000000), wk =   0.1111111
        k(   20) = (  -0.0911802  -0.0526429   0.0000000), wk =   0.0555556

     Largest allocated arrays     est. size (Mb)     dimensions
     Largest temporary arrays     est. size (Mb)     dimensions

     Check: negative/imaginary core charge=   -0.000022    0.000000

     Initial potential from superposition of free atoms
     Check: negative starting charge=   -1.504622

     starting charge  174.99960, renormalised to  187.00000

     negative rho (up, down):  1.608E+00 0.000E+00

     *
     * You are using vdW-DF for exchange-correlation in this calculation.
     * Please cite the following three references that made this development
     * possible:
     *
     *   M. Dion, H. Rydberg, E. Schroder, D. C. Langreth, and
     *   B. I. Lundqvist, Phys. Rev. Lett. 92, 246401 (2004).
     *
     *   T. Thonhauser, V. R. Cooper, S. Li, A. Puzder, P. Hyldgaard, and
     *   D. C. Langreth, Phys. Rev. B 76, 125112 (2007).
     *
     *   G. Roman-Perez and J. M. Soler, Phys. Rev. Lett. 103, 096102 (2009).
     *
     *
     * If you are using vdW-DF2, please also cite:
     *
     *   K. Lee, E. D. Murray, L. Kong, B. I. Lundqvist, and
     *   D. C. Langreth, Phys. Rev. B 82, 081101(R) (2010).
     *
     *
     * If you are calculating the stress with vdW-DF, please also cite:
     *
     *   R. Sabatini, E. Kucukbenli, B. Kolb, T. Thonhauser, and
     *   S. de Gironcoli, J. Phys.: Condens. Matter 24, 424209 (2012).
     *

     Carrying out vdW-DF run using the following parameters:

     Nqs =      20    Nr_points =    1024   r_max =   100.000
     q_mesh =
               0.00001000     0.04494208     0.09755937     0.15916263
               0.23128650     0.31572767     0.41458969     0.53033537
               0.66584808     0.82450364     1.01025438     1.22772762
               1.48234092     1.78043706     2.12944203     2.53805004
               3.01644009     3.57652955     4.23227104     5.00000000

     Gradients computed in reciprocal space

     Adding external electric field

     Computed dipole along edir(3) :
        Dipole               -3.5899 Ry au,         -9.1247 Debye
        Dipole field         -0.0105 Ry au

        Potential amp.        0.9459 Ry
        Total length         45.0992 bohr

     Starting wfc are  163 randomized atomic wfcs

     Self-consistent Calculation

     iteration #  1     ecut=    36.75 Ry     beta=0.30
     Davidson diagonalization with overlap
     ethr =  1.00E-02,  avg # of iterations =  8.4

[...]

     total energy              =   -1854.96174005 Ry
     Harris-Foulkes estimate   =   -2114.09947748 Ry
     estimated scf accuracy    <     545.21180202 Ry

[...]

     End of self-consistent calculation

          k = 0.0000 0.0000 0.0000 ( 16073 PWs)   bands (ev):

   -64.1300 -63.9826 -63.9723 -63.9659 -63.9640 -63.8703 -63.8682 -63.8634
   -63.7510 -63.7506 -63.7499 -63.7314 -36.5724 -36.5641 -36.5636 -36.4915
   -36.4425 -36.4027 -36.4008 -36.2911 -36.2595 -36.2578 -35.9948 -35.9406
   -35.9337 -35.9100 -35.8784 -35.8759 -35.8321 -35.8312 -35.8301 -35.7827
   -35.6981 -35.6962 -35.6614 -35.6413 -35.6393 -35.6291 -35.6004 -35.5958
   -35.5956 -35.5400 -35.5324 -35.5318 -35.4184 -35.4169 -35.3385 -35.3375
   -10.8451  -4.0616  -3.7380  -3.6689  -3.1516  -2.0561  -2.0558  -2.0431
    -1.9357  -1.7146  -1.5656  -1.5603  -1.4550  -1.4039  -1.3639  -1.3399
    -1.0719  -1.0606  -0.5347   0.1132   0.1363   0.5560   0.9390   0.9440
     1.1770   1.3124   1.4606   1.4613   1.7210   1.7257   1.8487   1.8568
     1.8575   1.9913   1.9930   2.1091   2.3958   2.5732   2.5962   3.0209
     3.3051   3.3432   3.4408   3.5172   3.5426   3.8291   3.8312   4.0602
     4.2702   4.2751   4.3878   4.9185   5.0251   5.0534   5.1305

[...]

          k =-0.0912 0.0526 0.0000 ( 16164 PWs)   bands (ev):

[...]

     the Fermi energy is     3.1562 ev

!    total energy              =   -2118.54146083 Ry
     Harris-Foulkes estimate   =   -2118.54145346 Ry
     estimated scf accuracy    <       0.00000600 Ry

     The total energy is the sum of the following terms:

     one-electron contribution =  -19199.58665126 Ry
     hartree contribution      =    9604.81156889 Ry
     xc contribution           =    -403.03015101 Ry
     ewald contribution        =    7879.35470874 Ry
     electric field correction =       0.00041072 Ry
     smearing contrib. (-TS)   =      -0.09134690 Ry

     convergence has been achieved in  37 iterations

 BEEF-vdW xc energy contributions
           1 :   -352.945984652517
           2 :    324.465289572925
           3 :   -273.841952795728
           4 :    211.257190003855
           5 :   -147.541257016432
           6 :    91.2136967444427
           7 :   -46.8355556757855
           8 :    14.8771888429326
           9 :    7.03746088651354
          10 :   -22.2671164553851
          11 :    33.4403225588653
          12 :   -41.5693269411212
          13 :    46.1271897107420
          14 :   -45.8841868525341
          15 :    39.9788400019253
          16 :   -28.7407183919779
          17 :    13.9141275656858
          18 :    1.74616124870920
          19 :   -15.3059905402541
          20 :    24.5226042416726
          21 :   -28.4148807426258
          22 :    27.3282229837496
          23 :   -22.5436226801544
          24 :    15.6504366027798
          25 :   -7.98866551301114
          26 :   0.376145912585173
          27 :    6.82116705678078
          28 :   -13.4010496187616
          29 :    19.0242501937814
          30 :   -23.0875762906820
          31 :   -33.7808766913496
          32 :   -24.8132673598051

     Forces acting on atoms (Ry/au):

     negative rho (up, down):  1.590E+00 0.000E+00
     atom    1 type  1   force =    -0.00099688   -0.00040421    0.02547046
     atom    2 type  1   force =     0.00077430   -0.00079451    0.02567395
     atom    3 type  1   force =     0.00008991    0.00103687    0.02530713
     atom    4 type  1   force =    -0.00011211    0.00011619    0.02447733
     atom    5 type  1   force =    -0.00097618   -0.00658005    0.00142011
     atom    6 type  1   force =    -0.00049750    0.00023428    0.00273039
     atom    7 type  1   force =     0.00646489    0.00267787   -0.00091430
     atom    8 type  1   force =    -0.00476641    0.00468663    0.00005604
     atom    9 type  1   force =     0.00007197    0.00004335   -0.04853180
     atom   10 type  1   force =    -0.01112013   -0.05521187   -0.04410629
     atom   11 type  1   force =    -0.04233351    0.03571870   -0.04224092
     atom   12 type  1   force =     0.05484143    0.01589622   -0.03654856
     atom   13 type  2   force =     0.03209047    0.00251812    0.20192291
     atom   14 type  3   force =    -0.05237275    0.01708421   -0.05961296
     atom   15 type  3   force =    -0.00450377   -0.03771265   -0.03775669
     atom   16 type  3   force =     0.02334627    0.02069086   -0.03734680

     Total force =     0.265621     Total SCF correction =     0.005061

     entering subroutine stress ...

     negative rho (up, down):  1.590E+00 0.000E+00
          total   stress  (Ry/bohr**3)                   (kbar)     P=  -29.86
  -0.00019732   0.00000049  -0.00000988        -29.03      0.07     -1.45
   0.00000049  -0.00019250   0.00000066          0.07    -28.32      0.10
  -0.00000988   0.00000066  -0.00021913         -1.45      0.10    -32.24

     BFGS Geometry Optimization

     number of scf cycles    =   1
     number of bfgs steps    =   0

     energy   new            =   -2118.5414608255 Ry

     new trust radius        =       0.2044724908 bohr
     new conv_thr            =       0.0000099958 Ry

ATOMIC_POSITIONS (crystal)
Tc1      0.166666667   0.166666667   0.408540475    0   0   0
Tc1      0.666666667   0.166666667   0.408540475    0   0   0
Tc1      0.166666667   0.666666667   0.408540475    0   0   0
Tc1      0.666666667   0.666666667   0.408540475    0   0   0
Tc1      0.833333333   0.333333333   0.500000000    0   0   0
Tc1      0.333333333   0.333333333   0.500000000    0   0   0
Tc1      0.833333333   0.833333333   0.500000000    0   0   0
Tc1      0.333333333   0.833333333   0.500000000    0   0   0
Tc1      0.000004530   0.000004830   0.590410315
Tc1      0.502003019  -0.006152243   0.590505990
Tc1     -0.006075287   0.503980124   0.590546317
Tc1      0.504406595   0.501771312   0.590669381
C1       0.336289798   0.333613927   0.655042845
H1       0.526100297   0.335237022   0.675126743
H1       0.159285954   0.516434502   0.675599254
H1       0.346023044   0.148335432   0.675608115

     Writing output data file calc.save
     Check: negative starting charge=   -1.504622
     NEW-OLD atomic charge density approx. for the potential

     Check: negative/imaginary core charge=   -0.000022    0.000000
     Check: negative starting charge=   -1.503310

[...]

     energy   old            =   -2118.5414608255 Ry
     energy   new            =   -2118.5913042243 Ry

     CASE: energy  _new < energy  _old

[...]

     iteration #  1     ecut=    36.75 Ry     beta=0.30
     Davidson diagonalization with overlap
     c_bands:  1 eigenvalues not converged
     ethr =  1.00E-06,  avg # of iterations = 14.6

[...]

     iteration #  1     ecut=    36.75 Ry     beta=0.30
     Davidson diagonalization with overlap
     c_bands:  1 eigenvalues not converged
     c_bands:  1 eigenvalues not converged
     ethr =  1.00E-06,  avg # of iterations = 14.9

[...]

     Total force =     0.010134     Total SCF correction =     0.001133
     SCF correction compared to forces is large: reduce conv_thr to get better values

[...]

     Total force =     0.005630     Total SCF correction =     0.000478

[...]

     number of scf cycles    =  25
     number of bfgs steps    =  24

     energy   old            =   -2118.6266117850 Ry
     energy   new            =   -2118.6266552059 Ry

     CASE: energy  _new < energy  _old

     new trust radius        =       0.0117507478 bohr
     new conv_thr            =       0.0000001000 Ry

ATOMIC_POSITIONS (crystal)
Tc1      0.166666667   0.166666667   0.408540475    0   0   0
Tc1      0.666666667   0.166666667   0.408540475    0   0   0
Tc1      0.166666667   0.666666667   0.408540475    0   0   0
Tc1      0.666666667   0.666666667   0.408540475    0   0   0
Tc1      0.833333333   0.333333333   0.500000000    0   0   0
Tc1      0.333333333   0.333333333   0.500000000    0   0   0
Tc1      0.833333333   0.833333333   0.500000000    0   0   0
Tc1      0.333333333   0.833333333   0.500000000    0   0   0
Tc1     -0.000295126  -0.000041880   0.585587729
Tc1      0.503826317  -0.008181642   0.588038409
Tc1     -0.008490486   0.504261621   0.588055859
Tc1      0.504134932   0.504203149   0.587993600
C1       0.334995250   0.333428996   0.657812867
H1       0.441392366   0.442224240   0.675800592
H1       0.120359517   0.439792650   0.675949606
H1       0.443904378   0.118412085   0.675842782

     Writing output data file calc.save
     Check: negative starting charge=   -1.501526
     NEW-OLD atomic charge density approx. for the potential

     Check: negative/imaginary core charge=   -0.000022    0.000000
     Check: negative starting charge=   -1.501397

[...]

     Self-consistent Calculation

[...]

     total energy              =   -2118.62667557 Ry
     Harris-Foulkes estimate   =   -2118.62667559 Ry
     estimated scf accuracy    <       0.00000016 Ry

     iteration # 13     ecut=    36.75 Ry     beta=0.30
     Davidson diagonalization with overlap
     ethr =  8.37E-11,  avg # of iterations =  4.0

[...]

     negative rho (up, down):  1.586E+00 0.000E+00

     Adding external electric field

     Computed dipole along edir(3) :
        Dipole                0.3386 Ry au,          0.8607 Debye
        Dipole field          0.0010 Ry au

        Potential amp.       -0.0892 Ry
        Total length         45.0992 bohr

     End of self-consistent calculation

[...]

          k = 0.0608-0.0702 0.0000 ( 16203 PWs)   bands (ev):

[...]

          k =-0.0912-0.0526 0.0000 ( 16164 PWs)   bands (ev):

   -64.1459 -64.1372 -64.0599 -64.0505 -63.9878 -63.9578 -63.9258 -63.8924
   -63.8868 -63.8308 -63.8242 -63.8157 -36.5270 -36.5101 -36.5038 -36.4705
   -36.4148 -36.4078 -36.2750 -36.2641 -36.2354 -36.2087 -36.1741 -36.1572
   -36.0466 -35.9625 -35.9196 -35.9155 -35.9151 -35.8956 -35.8858 -35.8735
   -35.8531 -35.8403 -35.8338 -35.8209 -35.8144 -35.8037 -35.7921 -35.7836
   -35.7127 -35.6751 -35.6412 -35.6161 -35.6086 -35.5415 -35.5196 -35.5066
   -10.7701  -4.1372  -3.9764  -2.0985  -1.8825  -1.7849  -1.2977  -1.2529
    -1.2119  -1.0331  -0.9724  -0.9422  -0.6642  -0.6352  -0.5248  -0.4987
    -0.3013  -0.2387  -0.2192  -0.0133   0.2549   0.3506   0.4200   0.5474
     0.6038   0.6091   1.0830   1.1567   1.3198   1.3795   1.4127   1.5082
     1.6512   1.7025   1.7332   1.7821   1.7891   1.9022   1.9377   1.9742
     2.0310   2.0759   2.1116   2.8413   2.8834   2.9336   2.9918   3.1414
     3.1809   3.4640   3.5217   3.5442   3.6931   3.7704   3.8025

     the Fermi energy is     3.0909 ev

!    total energy              =   -2118.62667555 Ry
     Harris-Foulkes estimate   =   -2118.62667576 Ry
     estimated scf accuracy    <       0.00000004 Ry

     The total energy is the sum of the following terms:

     one-electron contribution =  -19405.20810665 Ry
     hartree contribution      =    9707.24280182 Ry
     xc contribution           =    -403.28232765 Ry
     ewald contribution        =    7982.71024887 Ry
     electric field correction =       0.00033497 Ry
     smearing contrib. (-TS)   =      -0.08962691 Ry

     convergence has been achieved in  13 iterations

 BEEF-vdW xc energy contributions
           1 :   -353.173947735248
           2 :    324.679933993314
           3 :   -274.052318611376
           4 :    211.472135973468
           5 :   -147.738121787154
           6 :    91.3470638350432
           7 :   -46.8732379515228
           8 :    14.8317006171532
           9 :    7.10320722712572
          10 :   -22.2623112676800
          11 :    33.2884211867261
          12 :   -41.2490572285358
          13 :    45.6912742931930
          14 :   -45.4442931516289
          15 :    39.6608955056531
          16 :   -28.6303263731094
          17 :    14.0185427961517
          18 :    1.50207502700255
          19 :   -15.0458694432972
          20 :    24.3618062310758
          21 :   -28.4070077342064
          22 :    27.4414741957361
          23 :   -22.6783138251818
          24 :    15.6905113681783
          25 :   -7.86305095246854
          26 :   9.863137754717854E-002
          27 :    7.15331707094231
          28 :   -13.6506742530439
          29 :    19.0783325887712
          30 :   -22.9116342697357
          31 :   -33.7953727889684
          32 :   -24.8243285126870

     Forces acting on atoms (Ry/au):

     negative rho (up, down):  1.586E+00 0.000E+00
     atom    1 type  1   force =     0.00048398    0.00029211    0.01493881
     atom    2 type  1   force =    -0.00049607    0.00029123    0.01489437
     atom    3 type  1   force =    -0.00004378   -0.00054171    0.01489690
     atom    4 type  1   force =    -0.00007487   -0.00000500    0.01521889
     atom    5 type  1   force =     0.00013532   -0.00273400   -0.01719613
     atom    6 type  1   force =    -0.00016361    0.00001156   -0.00890831
     atom    7 type  1   force =     0.00217219    0.00129136   -0.01700833
     atom    8 type  1   force =    -0.00252009    0.00148061   -0.01729011
     atom    9 type  1   force =     0.00041247    0.00008605   -0.00089269
     atom   10 type  1   force =     0.00053971    0.00025288    0.00072325
     atom   11 type  1   force =     0.00065960   -0.00047800    0.00096001
     atom   12 type  1   force =    -0.00004987    0.00003309    0.00091137
     atom   13 type  2   force =    -0.00042071    0.00012572   -0.00025805
     atom   14 type  3   force =     0.00032338   -0.00021793   -0.00047829
     atom   15 type  3   force =    -0.00079489    0.00045646   -0.00024392
     atom   16 type  3   force =    -0.00016274   -0.00034443   -0.00026779

     Total force =     0.002455     Total SCF correction =     0.000483
     SCF correction compared to forces is large: reduce conv_thr to get better values

     entering subroutine stress ...

     negative rho (up, down):  1.586E+00 0.000E+00
          total   stress  (Ry/bohr**3)                   (kbar)     P=  -19.25
  -0.00015805  -0.00000004  -0.00000031        -23.25     -0.01     -0.05
  -0.00000004  -0.00015815  -0.00000012         -0.01    -23.26     -0.02
  -0.00000031  -0.00000012  -0.00007643         -0.05     -0.02    -11.24

     bfgs converged in  26 scf cycles and  25 bfgs steps
     (criteria: energy <  1.0E+00, force <  1.9E-03)

     End of BFGS Geometry Optimization

     Final energy   =   -2118.6266755518 Ry
Begin final coordinates

ATOMIC_POSITIONS (crystal)
Tc1      0.166666667   0.166666667   0.408540475    0   0   0
Tc1      0.666666667   0.166666667   0.408540475    0   0   0
Tc1      0.166666667   0.666666667   0.408540475    0   0   0
Tc1      0.666666667   0.666666667   0.408540475    0   0   0
Tc1      0.833333333   0.333333333   0.500000000    0   0   0
Tc1      0.333333333   0.333333333   0.500000000    0   0   0
Tc1      0.833333333   0.833333333   0.500000000    0   0   0
Tc1      0.333333333   0.833333333   0.500000000    0   0   0
Tc1     -0.000295126  -0.000041880   0.585587729
Tc1      0.503826317  -0.008181642   0.588038409
Tc1     -0.008490486   0.504261621   0.588055859
Tc1      0.504134932   0.504203149   0.587993600
C1       0.334995250   0.333428996   0.657812867
H1       0.441392366   0.442224240   0.675800592
H1       0.120359517   0.439792650   0.675949606
H1       0.443904378   0.118412085   0.675842782
End final coordinates

     Writing output data file calc.save

     General routines

     Parallel routines

   This run was terminated on:  16:51: 7  23Apr2018

   JOB DONE.
Job  /afs/slac/g/suncat/bin/suncat-tsmpirun -x LD_LIBRARY_PATH -wdir /scratch/qe23741_dG27V pw.x -npool 3 -in pw.inp

TID   HOST_NAME   COMMAND_LINE            STATUS            TERMINATION_TIME
00000 suncat2006 pw.x -npool 3 -i  Done                     04/23/2018 16:51:07
00001 suncat2006 pw.x -npool 3 -i  Done                     04/23/2018 16:51:07
00002 suncat2006 pw.x -npool 3 -i  Done                     04/23/2018 16:51:07
00003 suncat2006 pw.x -npool 3 -i  Done                     04/23/2018 16:51:07
00004 suncat2057 pw.x -npool 3 -i  Done                     04/23/2018 16:51:07
00005 suncat2057 pw.x -npool 3 -i  Done                     04/23/2018 16:51:07
00006 suncat2057 pw.x -npool 3 -i  Done                     04/23/2018 16:51:07
00007 suncat2057 pw.x -npool 3 -i  Done                     04/23/2018 16:51:07
00008 suncat2057 pw.x -npool 3 -i  Done                     04/23/2018 16:51:07
00009 suncat2057 pw.x -npool 3 -i  Done                     04/23/2018 16:51:07
00010 suncat2057 pw.x -npool 3 -i  Done                     04/23/2018 16:51:07
00011 suncat2057 pw.x -npool 3 -i  Done                     04/23/2018 16:51:07
00012 suncat2057 pw.x -npool 3 -i  Done                     04/23/2018 16:51:07
00013 suncat2057 pw.x -npool 3 -i  Done                     04/23/2018 16:51:07
00014 suncat2057 pw.x -npool 3 -i  Done                     04/23/2018 16:51:07
00015 suncat2057 pw.x -npool 3 -i  Done                     04/23/2018 16:51:07
00016 suncat2057 pw.x -npool 3 -i  Done                     04/23/2018 16:51:07
00017 suncat2057 pw.x -npool 3 -i  Done                     04/23/2018 16:51:07
00018 suncat2057 pw.x -npool 3 -i  Done                     04/23/2018 16:51:07
00019 suncat2057 pw.x -npool 3 -i  Done                     04/23/2018 16:51:07
00020 suncat2044 pw.x -npool 3 -i  Done                     04/23/2018 16:51:07
00021 suncat2044 pw.x -npool 3 -i  Done                     04/23/2018 16:51:07
00022 suncat2044 pw.x -npool 3 -i  Done                     04/23/2018 16:51:07
00023 suncat2044 pw.x -npool 3 -i  Done                     04/23/2018 16:51:07
00024 suncat2044 pw.x -npool 3 -i  Done                     04/23/2018 16:51:07
00025 suncat2044 pw.x -npool 3 -i  Done                     04/23/2018 16:51:07
00026 suncat2044 pw.x -npool 3 -i  Done                     04/23/2018 16:51:07
00027 suncat2044 pw.x -npool 3 -i  Done                     04/23/2018 16:51:07
00028 suncat2044 pw.x -npool 3 -i  Done                     04/23/2018 16:51:07
00029 suncat2044 pw.x -npool 3 -i  Done                     04/23/2018 16:51:07
00030 suncat2044 pw.x -npool 3 -i  Done                     04/23/2018 16:51:07
00031 suncat2044 pw.x -npool 3 -i  Done                     04/23/2018 16:51:07
00032 suncat2044 pw.x -npool 3 -i  Done                     04/23/2018 16:51:07
00033 suncat2044 pw.x -npool 3 -i  Done                     04/23/2018 16:51:07
00034 suncat2044 pw.x -npool 3 -i  Done                     04/23/2018 16:51:07
00035 suncat2044 pw.x -npool 3 -i  Done                     04/23/2018 16:51:07