     Program PWSCF v.5.1rc2 (svn rev. 11289) starts on 15Jan2018 at  6: 6: 9

     Current dimensions of program PWSCF are:
     Max number of different atomic species (ntypx) = 10
     Max number of k-points (npk) =  40000
     Max angular momentum in pseudopotentials (lmaxx) =  3
     Presently stress not available with electric field

     IMPORTANT: XC functional enforced from input :
     Exchange-correlation      = BEEF-VDW ( 1  4 27 13 2)
     Any further DFT definition will be discarded
     Please, verify this is what you really want

     Subspace diagonalization in iterative solution of the eigenvalue problem:
     a serial algorithm will be used

     bravais-lattice index     =            0
     lattice parameter (alat)  =       1.8897  a.u.
     unit-cell volume          =    4299.0717 (a.u.)^3
     number of atoms/cell      =           13
     number of atomic types    =            2
     number of electrons       =       184.00
     number of Kohn-Sham states=          102
     kinetic-energy cutoff     =      36.7493  Ry
     charge density cutoff     =     367.4932  Ry
     convergence threshold     =      1.0E-05
     mixing beta               =       0.3000
     number of iterations used =           10  plain     mixing
     Exchange-correlation      = BEEF-VDW ( 1  4 27 13 2)
     nstep                     =           50

     celldm(1)=   1.889726  celldm(2)=   0.000000  celldm(3)=   0.000000
     celldm(4)=   0.000000  celldm(5)=   0.000000  celldm(6)=   0.000000

     crystal axes: (cart. coord. in units of alat)
               a(1) = (   5.482164   0.000000   0.000000 )
               a(2) = (   2.741082   4.747693   0.000000 )
               a(3) = (   0.000000   0.000000  24.476168 )

     reciprocal axes: (cart. coord. in units 2 pi/alat)
               b(1) = (  0.182410 -0.105314  0.000000 )
               b(2) = (  0.000000  0.210629  0.000000 )
               b(3) = (  0.000000  0.000000  0.040856 )

     PseudoPot. # 1 for Ir read from file:
     /afs/slac.stanford.edu/u/if/mamunm/psp/gbrv1.5pbe/Ir.UPF
     MD5 check sum: 8836f839c3459d2b385c504ce6d91f2c
     Pseudo is Ultrasoft + core correction, Zval = 15.0
     Generated by new atomic code, or converted to UPF format
     Using radial grid of  983 points,  7 beta functions with:
                l(1) =   0
                l(2) =   0
                l(3) =   1
                l(4) =   1
                l(5) =   1
                l(6) =   2
                l(7) =   2
     Q(r) pseudized with  8 coefficients,  rinner =    1.400   1.400   1.400
                                                       1.400   1.400

     PseudoPot. # 2 for C  read from file:
     /afs/slac.stanford.edu/u/if/mamunm/psp/gbrv1.5pbe/C.UPF
     MD5 check sum: d1aef80898a10debaa0f26306b886e00
     Pseudo is Ultrasoft + core correction, Zval =  4.0
     Generated by new atomic code, or converted to UPF format
     Using radial grid of  721 points,  4 beta functions with:
                l(1) =   0
                l(2) =   0
                l(3) =   1
                l(4) =   1
     Q(r) pseudized with  8 coefficients,  rinner =    1.100   1.100   1.100

     vdW kernel table read from file vdW_kernel_table
     MD5 check sum: 095c7af220d748ca6e76c0b4c6cfb241

     atomic species   valence    mass     pseudopotential
        Ir1           15.00   192.21700     Ir( 1.00)
        C1             4.00    12.01100     C ( 1.00)

     No symmetry found

   Cartesian axes

     site n.     atom                  positions (alat units)
         1           Ir1 tau(   1) = (   1.3705410   0.7912822  10.0000000  )
         2           Ir1 tau(   2) = (   4.1116229   0.7912822  10.0000000  )
         3           Ir1 tau(   3) = (   2.7410819   3.1651288  10.0000000  )
         4           Ir1 tau(   4) = (   5.4821639   3.1651288  10.0000000  )
         5           Ir1 tau(   5) = (   5.4821639   1.5825644  12.2380840  )
         6           Ir1 tau(   6) = (   2.7410819   1.5825644  12.2380840  )
         7           Ir1 tau(   7) = (   6.8527049   3.9564110  12.2380840  )
         8           Ir1 tau(   8) = (   4.1116229   3.9564110  12.2380840  )
         9           Ir1 tau(   9) = (   0.0000000   0.0000000  14.4761681  )
        10           Ir1 tau(  10) = (   2.7410819   0.0000000  14.4761681  )
        11           Ir1 tau(  11) = (   1.3705410   2.3738466  14.4761681  )
        12           Ir1 tau(  12) = (   4.1116229   2.3738466  14.4761681  )
        13           C1  tau(  13) = (   0.0000000   0.0000000  16.6461681  )

     number of k points=    20  Fermi-Dirac smearing, width (Ry)=  0.0110
                       cart. coord. in units 2pi/alat
        k(    1) = (   0.0000000   0.0000000   0.0000000), wk =   0.0555556
        k(    2) = (   0.0000000   0.0351048   0.0000000), wk =   0.1111111
        k(    3) = (   0.0000000   0.0702095   0.0000000), wk =   0.1111111
        k(    4) = (   0.0000000  -0.1053143   0.0000000), wk =   0.0555556
        k(    5) = (   0.0304016  -0.0175524   0.0000000), wk =   0.1111111
        k(    6) = (   0.0304016   0.0175524   0.0000000), wk =   0.1111111
        k(    7) = (   0.0304016   0.0526572   0.0000000), wk =   0.1111111
        k(    8) = (   0.0304016  -0.1228667   0.0000000), wk =   0.1111111
        k(    9) = (   0.0304016  -0.0877619   0.0000000), wk =   0.1111111
        k(   10) = (   0.0304016  -0.0526572   0.0000000), wk =   0.1111111
        k(   11) = (   0.0608032  -0.0351048   0.0000000), wk =   0.1111111
        k(   12) = (   0.0608032   0.0000000   0.0000000), wk =   0.1111111
        k(   13) = (   0.0608032   0.0351048   0.0000000), wk =   0.1111111
        k(   14) = (   0.0608032  -0.1404191   0.0000000), wk =   0.1111111
        k(   15) = (   0.0608032  -0.1053143   0.0000000), wk =   0.1111111
        k(   16) = (   0.0608032  -0.0702095   0.0000000), wk =   0.1111111
        k(   17) = (  -0.0912049   0.0526572   0.0000000), wk =   0.0555556
        k(   18) = (  -0.0912049   0.0877619   0.0000000), wk =   0.1111111
        k(   19) = (  -0.0912049   0.1228667   0.0000000), wk =   0.1111111
        k(   20) = (  -0.0912049  -0.0526572   0.0000000), wk =   0.0555556

     Largest allocated arrays     est. size (Mb)     dimensions
     Largest temporary arrays     est. size (Mb)     dimensions

     Initial potential from superposition of free atoms
     Check: negative starting charge=   -4.361426

     starting charge  177.99958, renormalised to  184.00000

     negative rho (up, down):  4.508E+00 0.000E+00

     *
     * You are using vdW-DF for exchange-correlation in this calculation.
     * Please cite the following three references that made this development
     * possible:
     *
     *   M. Dion, H. Rydberg, E. Schroder, D. C. Langreth, and
     *   B. I. Lundqvist, Phys. Rev. Lett. 92, 246401 (2004).
     *
     *   T. Thonhauser, V. R. Cooper, S. Li, A. Puzder, P. Hyldgaard, and
     *   D. C. Langreth, Phys. Rev. B 76, 125112 (2007).
     *
     *   G. Roman-Perez and J. M. Soler, Phys. Rev. Lett. 103, 096102 (2009).
     *
     *
     * If you are using vdW-DF2, please also cite:
     *
     *   K. Lee, E. D. Murray, L. Kong, B. I. Lundqvist, and
     *   D. C. Langreth, Phys. Rev. B 82, 081101(R) (2010).
     *
     *
     * If you are calculating the stress with vdW-DF, please also cite:
     *
     *   R. Sabatini, E. Kucukbenli, B. Kolb, T. Thonhauser, and
     *   S. de Gironcoli, J. Phys.: Condens. Matter 24, 424209 (2012).
     *

     Carrying out vdW-DF run using the following parameters:

     Nqs =      20    Nr_points =    1024   r_max =   100.000
     q_mesh =
               0.00001000     0.04494208     0.09755937     0.15916263
               0.23128650     0.31572767     0.41458969     0.53033537
               0.66584808     0.82450364     1.01025438     1.22772762
               1.48234092     1.78043706     2.12944203     2.53805004
               3.01644009     3.57652955     4.23227104     5.00000000

     Gradients computed in reciprocal space

     Adding external electric field

     Computed dipole along edir(3) :
        Dipole               -1.1229 Ry au,         -2.8541 Debye
        Dipole field         -0.0033 Ry au

        Potential amp.        0.2960 Ry
        Total length         45.0969 bohr

     Starting wfc are  148 randomized atomic wfcs

     Self-consistent Calculation

     iteration #  1     ecut=    36.75 Ry     beta=0.30
     Davidson diagonalization with overlap
     ethr =  1.00E-02,  avg # of iterations =  2.3

[...]

     total energy              =   -2194.93171730 Ry
     Harris-Foulkes estimate   =   -2214.37661657 Ry
     estimated scf accuracy    <      41.57282045 Ry

[...]

     End of self-consistent calculation

          k = 0.0000 0.0000 0.0000 ( 16073 PWs)   bands (ev):

   -47.7540 -47.7538 -47.7412 -47.6334 -47.5674 -47.5673 -47.5235 -47.4145
   -47.4144 -47.3730 -47.3522 -47.3191 -47.3190 -47.2407 -47.1989 -47.1989
   -47.1842 -47.1839 -47.1731 -46.9510 -46.9510 -46.8628 -46.8467 -46.8208
   -46.8203 -46.8153 -46.8146 -46.8045 -46.7741 -46.7565 -46.7564 -46.7391
   -46.7391 -46.6976 -46.6975 -46.6939  -7.3802  -6.6951  -5.1771  -4.8917
    -4.5822  -4.5822  -4.5581  -4.2934  -4.2934  -4.2358  -3.8109  -3.8109
    -3.7769  -3.5199  -3.5198  -3.4866  -2.1434  -2.1432  -2.0002  -1.4882
    -1.4838  -1.4838  -1.2811  -1.1137  -1.1137  -0.9159  -0.6826  -0.6826
    -0.6307  -0.6307  -0.6047  -0.3755  -0.3755  -0.3398  -0.0468  -0.0466
     0.8068   0.8069   1.1826   1.2413   1.2414   1.2562   1.3370   1.3371
     1.3449   1.9230   2.0108   2.0109   2.5029   2.5030   2.6737   2.6739
     2.7787   2.8614   2.8615   2.8853   2.9804   2.9804   3.3012   3.3013
     3.3037   3.5322   3.7003   3.7003   3.8558   3.8561

[...]

          k =-0.0912 0.0527 0.0000 ( 16164 PWs)   bands (ev):

[...]

     the Fermi energy is     2.3313 ev

!    total energy              =   -2211.03659781 Ry
     Harris-Foulkes estimate   =   -2211.03661505 Ry
     estimated scf accuracy    <       0.00000387 Ry

     The total energy is the sum of the following terms:

     one-electron contribution =  -18611.07614317 Ry
     hartree contribution      =    9336.13053059 Ry
     xc contribution           =    -626.81412282 Ry
     ewald contribution        =    7690.82051949 Ry
     electric field correction =       0.00005598 Ry
     smearing contrib. (-TS)   =      -0.09743790 Ry

     convergence has been achieved in  17 iterations

 BEEF-vdW xc energy contributions
           1 :   -555.092170764445
           2 :    516.334234873116
           3 :   -447.058272839745
           4 :    360.887888896987
           5 :   -272.766309031189
           6 :    195.135314697471
           7 :   -135.326271940376
           8 :    94.7413958080825
           9 :   -69.8693260663058
          10 :    54.5736767186841
          11 :   -42.7250637879631
          12 :    30.2337509122785
          13 :   -15.9058637475096
          14 :    1.06417804958937
          15 :    11.6852287749159
          16 :   -19.9465812831745
          17 :    22.6842598740827
          18 :   -20.6347092634451
[...]

[...]

     Total force =     0.122784     Total SCF correction =     0.014016
     SCF correction compared to forces is large: reduce conv_thr to get better values

[...]

     Total force =     0.867055     Total SCF correction =     0.008681

[...]

     Program PWSCF v.5.1rc2 (svn rev. 11289) starts on 15Jan2018 at  6:55: 1

[...]

   This run was terminated on:   7: 6:23  15Jan2018

[...]

     Program PWSCF v.5.1rc2 (svn rev. 11289) starts on 15Jan2018 at  7: 6:29

[...]

     Program PWSCF v.5.1rc2 (svn rev. 11289) starts on 15Jan2018 at  7:18:28

[...]

     Program PWSCF v.5.1rc2 (svn rev. 11289) starts on 15Jan2018 at  7:31: 1

     Current dimensions of program PWSCF are:
     Max number of different atomic species (ntypx) = 10
     Max number of k-points (npk) =  40000
     Max angular momentum in pseudopotentials (lmaxx) =  3
     Presently stress not available with electric field

     IMPORTANT: XC functional enforced from input :
     Exchange-correlation      = BEEF-VDW ( 1  4 27 13 2)
     Any further DFT definition will be discarded
     Please, verify this is what you really want

     Subspace diagonalization in iterative solution of the eigenvalue problem:
     a serial algorithm will be used

     bravais-lattice index     =            0
     lattice parameter (alat)  =       1.8897  a.u.
     unit-cell volume          =    4299.0717 (a.u.)^3
     number of atoms/cell      =           13
     number of atomic types    =            2
     number of electrons       =       184.00
     number of Kohn-Sham states=          102
     kinetic-energy cutoff     =      36.7493  Ry
     charge density cutoff     =     367.4932  Ry
     convergence threshold     =      1.0E-05
     mixing beta               =       0.3000
     number of iterations used =           10  plain     mixing
     Exchange-correlation      = BEEF-VDW ( 1  4 27 13 2)
     nstep                     =           50

     celldm(1)=   1.889726  celldm(2)=   0.000000  celldm(3)=   0.000000
     celldm(4)=   0.000000  celldm(5)=   0.000000  celldm(6)=   0.000000

     crystal axes: (cart. coord. in units of alat)
               a(1) = (   5.482164   0.000000   0.000000 )
               a(2) = (   2.741082   4.747693   0.000000 )
               a(3) = (   0.000000   0.000000  24.476168 )

     reciprocal axes: (cart. coord. in units 2 pi/alat)
               b(1) = (  0.182410 -0.105314  0.000000 )
               b(2) = (  0.000000  0.210629  0.000000 )
               b(3) = (  0.000000  0.000000  0.040856 )

     PseudoPot. # 1 for Ir read from file:
     /afs/slac.stanford.edu/u/if/mamunm/psp/gbrv1.5pbe/Ir.UPF
     MD5 check sum: 8836f839c3459d2b385c504ce6d91f2c
     Pseudo is Ultrasoft + core correction, Zval = 15.0
     Generated by new atomic code, or converted to UPF format
     Using radial grid of  983 points,  7 beta functions with:
                l(1) =   0
                l(2) =   0
                l(3) =   1
                l(4) =   1
                l(5) =   1
                l(6) =   2
                l(7) =   2
     Q(r) pseudized with  8 coefficients,  rinner =    1.400   1.400   1.400
                                                       1.400   1.400

     PseudoPot. # 2 for C  read from file:
     /afs/slac.stanford.edu/u/if/mamunm/psp/gbrv1.5pbe/C.UPF
     MD5 check sum: d1aef80898a10debaa0f26306b886e00
     Pseudo is Ultrasoft + core correction, Zval =  4.0
     Generated by new atomic code, or converted to UPF format
     Using radial grid of  721 points,  4 beta functions with:
                l(1) =   0
                l(2) =   0
                l(3) =   1
                l(4) =   1
     Q(r) pseudized with  8 coefficients,  rinner =    1.100   1.100   1.100

     vdW kernel table read from file vdW_kernel_table
     MD5 check sum: 095c7af220d748ca6e76c0b4c6cfb241

     atomic species   valence    mass     pseudopotential
        Ir1           15.00   192.21700     Ir( 1.00)
        C1             4.00    12.01100     C ( 1.00)

     No symmetry found

   Cartesian axes

     site n.     atom                  positions (alat units)
         1           Ir1 tau(   1) = (   1.3705410   0.7912822  10.0000000  )
         2           Ir1 tau(   2) = (   4.1116229   0.7912822  10.0000000  )
         3           Ir1 tau(   3) = (   2.7410819   3.1651288  10.0000000  )
         4           Ir1 tau(   4) = (   5.4821639   3.1651288  10.0000000  )
         5           Ir1 tau(   5) = (   5.4821639   1.5825644  12.2380840  )
         6           Ir1 tau(   6) = (   2.7410819   1.5825644  12.2380840  )
         7           Ir1 tau(   7) = (   6.8527049   3.9564110  12.2380840  )
         8           Ir1 tau(   8) = (   4.1116229   3.9564110  12.2380840  )
         9           Ir1 tau(   9) = (   0.0000783   0.0000589  14.8697937  )
        10           Ir1 tau(  10) = (   2.7409896   0.0082216  14.4167518  )
        11           Ir1 tau(  11) = (   1.3776222   2.3696586  14.4167344  )
        12           Ir1 tau(  12) = (   4.1044902   2.3697518  14.4166701  )
        13           C1  tau(  13) = (   5.4821263   0.0000373  16.5778318  )

     number of k points=    20  Fermi-Dirac smearing, width (Ry)=  0.0110
                       cart. coord. in units 2pi/alat
        k(    1) = (   0.0000000   0.0000000   0.0000000), wk =   0.0555556
        k(    2) = (   0.0000000   0.0351048   0.0000000), wk =   0.1111111
        k(    3) = (   0.0000000   0.0702095   0.0000000), wk =   0.1111111
        k(    4) = (   0.0000000  -0.1053143   0.0000000), wk =   0.0555556
        k(    5) = (   0.0304016  -0.0175524   0.0000000), wk =   0.1111111
        k(    6) = (   0.0304016   0.0175524   0.0000000), wk =   0.1111111
        k(    7) = (   0.0304016   0.0526572   0.0000000), wk =   0.1111111
        k(    8) = (   0.0304016  -0.1228667   0.0000000), wk =   0.1111111
        k(    9) = (   0.0304016  -0.0877619   0.0000000), wk =   0.1111111
        k(   10) = (   0.0304016  -0.0526572   0.0000000), wk =   0.1111111
        k(   11) = (   0.0608032  -0.0351048   0.0000000), wk =   0.1111111
        k(   12) = (   0.0608032   0.0000000   0.0000000), wk =   0.1111111
        k(   13) = (   0.0608032   0.0351048   0.0000000), wk =   0.1111111
        k(   14) = (   0.0608032  -0.1404191   0.0000000), wk =   0.1111111
        k(   15) = (   0.0608032  -0.1053143   0.0000000), wk =   0.1111111
        k(   16) = (   0.0608032  -0.0702095   0.0000000), wk =   0.1111111
        k(   17) = (  -0.0912049   0.0526572   0.0000000), wk =   0.0555556
        k(   18) = (  -0.0912049   0.0877619   0.0000000), wk =   0.1111111
        k(   19) = (  -0.0912049   0.1228667   0.0000000), wk =   0.1111111
        k(   20) = (  -0.0912049  -0.0526572   0.0000000), wk =   0.0555556

     Largest allocated arrays     est. size (Mb)     dimensions
     Largest temporary arrays     est. size (Mb)     dimensions

     Initial potential from superposition of free atoms
     Check: negative starting charge=   -4.364837

     starting charge  177.99958, renormalised to  184.00000

[...]

     *
     * You are using vdW-DF for exchange-correlation in this calculation.
     * Please cite the following three references that made this development
     * possible:
     *
     *   M. Dion, H. Rydberg, E. Schroder, D. C. Langreth, and
     *   B. I. Lundqvist, Phys. Rev. Lett. 92, 246401 (2004).
     *
     *   T. Thonhauser, V. R. Cooper, S. Li, A. Puzder, P. Hyldgaard, and
     *   D. C. Langreth, Phys. Rev. B 76, 125112 (2007).
     *
     *   G. Roman-Perez and J. M. Soler, Phys. Rev. Lett. 103, 096102 (2009).
     *
     *
     * If you are using vdW-DF2, please also cite:
     *
     *   K. Lee, E. D. Murray, L. Kong, B. I. Lundqvist, and
     *   D. C. Langreth, Phys. Rev. B 82, 081101(R) (2010).
     *
     *
     * If you are calculating the stress with vdW-DF, please also cite:
     *
     *   R. Sabatini, E. Kucukbenli, B. Kolb, T. Thonhauser, and
     *   S. de Gironcoli, J. Phys.: Condens. Matter 24, 424209 (2012).
     *

     Carrying out vdW-DF run using the following parameters:

     Nqs =      20    Nr_points =    1024   r_max =   100.000
     q_mesh =
               0.00001000     0.04494208     0.09755937     0.15916263
               0.23128650     0.31572767     0.41458969     0.53033537
               0.66584808     0.82450364     1.01025438     1.22772762
               1.48234092     1.78043706     2.12944203     2.53805004
               3.01644009     3.57652955     4.23227104     5.00000000

     Gradients computed in reciprocal space

[...]

     Starting wfc are  148 randomized atomic wfcs

     Self-consistent Calculation

[...]

     total energy              =   -2211.17802771 Ry
     Harris-Foulkes estimate   =   -2211.17803342 Ry
     estimated scf accuracy    <       0.00001255 Ry

     iteration # 19     ecut=    36.75 Ry     beta=0.30
     Davidson diagonalization with overlap
     ethr =  6.82E-09,  avg # of iterations =  2.1

[...]

     negative rho (up, down):  3.876E+00 0.000E+00

     Adding external electric field

     Computed dipole along edir(3) :
        Dipole               -0.1684 Ry au,         -0.4279 Debye
        Dipole field         -0.0005 Ry au

        Potential amp.        0.0444 Ry
        Total length         45.0969 bohr

     End of self-consistent calculation

[...]

          k = 0.0608-0.0702 0.0000 ( 16191 PWs)   bands (ev):

[...]

          k =-0.0912-0.0527 0.0000 ( 16164 PWs)   bands (ev):

   -48.1329 -47.6949 -47.6548 -47.5783 -47.5649 -47.5507 -47.5089 -47.4699
   -47.4600 -47.4278 -47.3880 -47.3842 -47.3081 -47.2925 -47.1833 -47.1707
   -47.1242 -47.1191 -47.0291 -47.0007 -46.9955 -46.9791 -46.9728 -46.9639
   -46.9506 -46.9180 -46.8719 -46.8647 -46.8465 -46.8279 -46.8216 -46.8155
   -46.8139 -46.8069 -46.8058 -46.7866  -8.0449  -5.3251  -5.1280  -3.9151
    -3.7250  -3.5270  -3.5116  -3.4810  -3.4079  -3.3513  -3.2798  -2.9204
    -2.7982  -2.6785  -2.5895  -2.4715  -2.2587  -2.1748  -2.1691  -2.0860
    -1.8137  -1.7572  -1.7374  -1.6024  -1.4479  -1.3383  -1.1330  -1.0629
    -0.9419  -0.7982  -0.7421  -0.6232  -0.5359  -0.5078  -0.4661  -0.4213
    -0.3570  -0.3173  -0.2795  -0.2778  -0.1484   0.2275   0.3808   0.5197
     0.5592   0.6921   0.8338   0.8883   1.0406   1.1348   1.3270   1.3473
     1.4535   1.4635   1.7031   1.9400   2.0075   2.0309   2.0801   2.3474
     2.7098   2.8061   3.0971   3.1309   3.4327   4.1225

     the Fermi energy is     2.3076 ev

!    total energy              =   -2211.17802346 Ry
     Harris-Foulkes estimate   =   -2211.17801678 Ry
     estimated scf accuracy    <       0.00000470 Ry

     The total energy is the sum of the following terms:

     one-electron contribution =  -18483.56757390 Ry
     hartree contribution      =    9272.09845462 Ry
     xc contribution           =    -627.07958489 Ry
     ewald contribution        =    7627.46523337 Ry
     electric field correction =       0.00008286 Ry
     smearing contrib. (-TS)   =      -0.09463553 Ry

     convergence has been achieved in  19 iterations

 BEEF-vdW xc energy contributions
           1 :   -555.344778130141
           2 :    516.584000759725
           3 :   -447.308855100119
           4 :    361.136775173947
           5 :   -272.995921177685
           6 :    195.317696173559
           7 :   -135.430377335159
           8 :    94.7397451447316
           9 :   -69.7472817141389
          10 :    54.3417734018328
          11 :   -42.4285634341999
          12 :    29.9489597103169
          13 :   -15.7182443298417
          14 :    1.03554934721296
          15 :    11.5471107224527
          16 :   -19.7007127292831
          17 :    22.4385509933107
          18 :   -20.5013707950571
          19 :    15.9703569748303
          20 :   -11.3738571021393
          21 :    8.70490546367671
          22 :   -8.74888906337912
          23 :    10.9539674031231
          24 :   -13.8461047648834
          25 :    15.7705100485229
          26 :   -15.6291001096464
          27 :    13.3096231464353
          28 :   -9.65551068999400
          29 :    6.02877329970227
          30 :   -3.68739933178028
          31 :   -47.6885118415668
          32 :   -35.7460505450949

     Forces acting on atoms (Ry/au):

     negative rho (up, down):  3.876E+00 0.000E+00
     atom    1 type  1   force =    -0.00118781   -0.00067287    0.01828600
     atom    2 type  1   force =     0.00118631   -0.00068016    0.01833283
     atom    3 type  1   force =    -0.00000434    0.00136811    0.01832443
     atom    4 type  1   force =     0.00000730   -0.00000428    0.00873132
     atom    5 type  1   force =    -0.00002404   -0.01537402   -0.01562423
     atom    6 type  1   force =     0.00001780   -0.00003837   -0.01650701
     atom    7 type  1   force =     0.01327448    0.00771529   -0.01557979
     atom    8 type  1   force =    -0.01329442    0.00769918   -0.01558337
     atom    9 type  1   force =    -0.00004895   -0.00002757    0.00078612
     atom   10 type  1   force =     0.00005673    0.00082580   -0.00014699
     atom   11 type  1   force =     0.00072260   -0.00037272   -0.00013929
     atom   12 type  1   force =    -0.00070607   -0.00043422   -0.00010656
     atom   13 type  2   force =     0.00000040   -0.00000416   -0.00077346

     Total force =     0.052931     Total SCF correction =     0.016789
     SCF correction compared to forces is large: reduce conv_thr to get better values

     entering subroutine stress ...

     negative rho (up, down):  3.876E+00 0.000E+00
          total   stress  (Ry/bohr**3)                   (kbar)     P=  -29.82
  -0.00025022  -0.00000000  -0.00000001        -36.81     -0.00     -0.00
  -0.00000000  -0.00025023  -0.00000000         -0.00    -36.81     -0.00
  -0.00000001  -0.00000000  -0.00010766         -0.00     -0.00    -15.84

 !ASE

     Writing output data file calc.save

     General routines

     Parallel routines

   This run was terminated on:   7:43:55  15Jan2018

   JOB DONE.
Job  /afs/slac/g/suncat/bin/suncat-tsmpirun -x LD_LIBRARY_PATH -wdir /scratch/qe842452_UmphZ pw.x -in pw.inp

TID   HOST_NAME   COMMAND_LINE            STATUS            TERMINATION_TIME
00000 suncat0253 pw.x -in pw.inp   Done                     01/15/2018 07:43:55
00001 suncat0253 pw.x -in pw.inp   Done                     01/15/2018 07:43:55
00002 suncat0253 pw.x -in pw.inp   Done                     01/15/2018 07:43:55
00003 suncat0253 pw.x -in pw.inp   Done                     01/15/2018 07:43:55
00004 suncat0253 pw.x -in pw.inp   Done                     01/15/2018 07:43:55
00005 suncat0253 pw.x -in pw.inp   Done                     01/15/2018 07:43:55
00006 suncat0253 pw.x -in pw.inp   Done                     01/15/2018 07:43:55
00007 suncat0253 pw.x -in pw.inp   Done                     01/15/2018 07:43:55
00008 suncat0249 pw.x -in pw.inp   Done                     01/15/2018 07:43:55
00009 suncat0249 pw.x -in pw.inp   Done                     01/15/2018 07:43:55
00010 suncat0249 pw.x -in pw.inp   Done                     01/15/2018 07:43:55
00011 suncat0249 pw.x -in pw.inp   Done                     01/15/2018 07:43:55
00012 suncat0249 pw.x -in pw.inp   Done                     01/15/2018 07:43:55
00013 suncat0249 pw.x -in pw.inp   Done                     01/15/2018 07:43:55
00014 suncat0249 pw.x -in pw.inp   Done                     01/15/2018 07:43:55
00015 suncat0249 pw.x -in pw.inp   Done                     01/15/2018 07:43:55
00016 suncat0248 pw.x -in pw.inp   Done                     01/15/2018 07:43:55
00017 suncat0248 pw.x -in pw.inp   Done                     01/15/2018 07:43:55
00018 suncat0248 pw.x -in pw.inp   Done                     01/15/2018 07:43:55
00019 suncat0248 pw.x -in pw.inp   Done                     01/15/2018 07:43:55
00020 suncat0248 pw.x -in pw.inp   Done                     01/15/2018 07:43:55
00021 suncat0248 pw.x -in pw.inp   Done                     01/15/2018 07:43:55
00022 suncat0248 pw.x -in pw.inp   Done                     01/15/2018 07:43:55
00023 suncat0248 pw.x -in pw.inp   Done                     01/15/2018 07:43:55
00024 suncat0247 pw.x -in pw.inp   Done                     01/15/2018 07:43:55
00025 suncat0247 pw.x -in pw.inp   Done                     01/15/2018 07:43:55
00026 suncat0247 pw.x -in pw.inp   Done                     01/15/2018 07:43:55
00027 suncat0247 pw.x -in pw.inp   Done                     01/15/2018 07:43:55
00028 suncat0247 pw.x -in pw.inp   Done                     01/15/2018 07:43:55
00029 suncat0247 pw.x -in pw.inp   Done                     01/15/2018 07:43:55
00030 suncat0247 pw.x -in pw.inp   Done                     01/15/2018 07:43:55
00031 suncat0247 pw.x -in pw.inp   Done                     01/15/2018 07:43:55