     Program PWSCF v.5.1rc2 (svn rev. 11289) starts on 20Apr2018 at 23: 2:41

     Current dimensions of program PWSCF are:
     Max number of different atomic species (ntypx) = 10
     Max number of k-points (npk) =  40000
     Max angular momentum in pseudopotentials (lmaxx) =  3
     Presently stress not available with electric field

     IMPORTANT: XC functional enforced from input :
     Exchange-correlation      = BEEF-VDW ( 1  4 27 13 2)
     Any further DFT definition will be discarded
     Please, verify this is what you really want

     Subspace diagonalization in iterative solution of the eigenvalue problem:
     a serial algorithm will be used

     bravais-lattice index     =            0
     lattice parameter (alat)  =       1.8897  a.u.
     unit-cell volume          =    7171.5276 (a.u.)^3
     number of atoms/cell      =           14
     number of atomic types    =            3
     number of electrons       =       175.00
     number of Kohn-Sham states=           97
     kinetic-energy cutoff     =      36.7493  Ry
     charge density cutoff     =     367.4932  Ry
     convergence threshold     =      1.0E-05
     mixing beta               =       0.3000
     number of iterations used =           10  plain     mixing
     Exchange-correlation      = BEEF-VDW ( 1  4 27 13 2)
     nstep                     =           50

     celldm(1)=   1.889726  celldm(2)=   0.000000  celldm(3)=   0.000000
     celldm(4)=   0.000000  celldm(5)=   0.000000  celldm(6)=   0.000000

     crystal axes: (cart. coord. in units of alat)
               a(1) = (   6.917003   0.000000   0.000000 )
               a(2) = (   3.458501   5.990300   0.000000 )
               a(3) = (   0.000000   0.000000  25.647709 )

     reciprocal axes: (cart. coord. in units 2 pi/alat)
               b(1) = (  0.144571 -0.083468  0.000000 )
               b(2) = (  0.000000  0.166937  0.000000 )
               b(3) = (  0.000000  0.000000  0.038990 )

     PseudoPot. # 1 for Pb read from file:
     /u/if/mamunm/psp/gbrv1.5pbe/Pb.UPF
     MD5 check sum: 3d1c1779aa92214d1e8f3a7db79003e2
     Pseudo is Ultrasoft + core correction, Zval = 14.0
     Generated by new atomic code, or converted to UPF format
     Using radial grid of  899 points,  6 beta functions with:
                l(1) =   0
                l(2) =   0
                l(3) =   1
                l(4) =   1
                l(5) =   2
                l(6) =   2
     Q(r) pseudized with  6 coefficients,  rinner =    1.000   1.000   1.000
                                                       1.000   1.000

     PseudoPot. # 2 for O  read from file:
     /u/if/mamunm/psp/gbrv1.5pbe/O.UPF
     MD5 check sum: 734c27235a0248c51dbae37a1fbe46ec
     Pseudo is Ultrasoft + core correction, Zval =  6.0
     Generated by new atomic code, or converted to UPF format
     Using radial grid of  737 points,  5 beta functions with:
                l(1) =   0
                l(2) =   0
                l(3) =   1
                l(4) =   1
                l(5) =   2
     Q(r) pseudized with  8 coefficients,  rinner =    0.900   0.900   0.900
                                                       0.900   0.900

     PseudoPot. # 3 for H  read from file:
     /u/if/mamunm/psp/gbrv1.5pbe/H.UPF
     MD5 check sum: 761ae9a214b05c3daf00ab9f6b793d6f
     Pseudo is Ultrasoft, Zval =  1.0
     Generated by new atomic code, or converted to UPF format
     Using radial grid of  615 points,  2 beta functions with:
                l(1) =   0
                l(2) =   0
     Q(r) pseudized with  8 coefficients,  rinner =    0.700

     vdW kernel table read from file vdW_kernel_table
     MD5 check sum: 095c7af220d748ca6e76c0b4c6cfb241

     atomic species   valence    mass     pseudopotential
        Pb1           14.00   207.20000     Pb( 1.00)
        O1             6.00    15.99900     O ( 1.00)
        H1             1.00     1.00800     H ( 1.00)

     No symmetry found

   Cartesian axes

     site n.     atom                  positions (alat units)
         1           Pb1 tau(   1) = (   1.7292506   0.9983833  10.0000000  )
         2           Pb1 tau(   2) = (   5.1877519   0.9983833  10.0000000  )
         3           Pb1 tau(   3) = (   3.4585013   3.9935333  10.0000000  )
         4           Pb1 tau(   4) = (   6.9170025   3.9935333  10.0000000  )
         5           Pb1 tau(   5) = (   6.9170025   1.9967666  12.8238544  )
         6           Pb1 tau(   6) = (   3.4585013   1.9967666  12.8238544  )
         7           Pb1 tau(   7) = (   8.6462531   4.9919166  12.8238544  )
         8           Pb1 tau(   8) = (   5.1877519   4.9919166  12.8238544  )
         9           Pb1 tau(   9) = (   0.0000000   0.0000000  15.6477089  )
        10           Pb1 tau(  10) = (   3.4585013   0.0000000  15.6477089  )
        11           Pb1 tau(  11) = (   1.7292506   2.9951499  15.6477089  )
        12           Pb1 tau(  12) = (   5.1877519   2.9951499  15.6477089  )
        13           O1  tau(  13) = (   1.7292506   0.9983833  17.0257089  )
        14           H1  tau(  14) = (   1.7292506   0.9983833  17.9757089  )

     number of k points=    20  Fermi-Dirac smearing, width (Ry)=  0.0110
                       cart. coord. in units 2pi/alat
        k(    1) = (   0.0000000   0.0000000   0.0000000), wk =   0.0555556
        k(    2) = (   0.0000000   0.0278228   0.0000000), wk =   0.1111111
        k(    3) = (   0.0000000   0.0556455   0.0000000), wk =   0.1111111
        k(    4) = (   0.0000000  -0.0834683   0.0000000), wk =   0.0555556
        k(    5) = (   0.0240952  -0.0139114   0.0000000), wk =   0.1111111
        k(    6) = (   0.0240952   0.0139114   0.0000000), wk =   0.1111111
        k(    7) = (   0.0240952   0.0417341   0.0000000), wk =   0.1111111
        k(    8) = (   0.0240952  -0.0973797   0.0000000), wk =   0.1111111
        k(    9) = (   0.0240952  -0.0695569   0.0000000), wk =   0.1111111
        k(   10) = (   0.0240952  -0.0417341   0.0000000), wk =   0.1111111
        k(   11) = (   0.0481904  -0.0278228   0.0000000), wk =   0.1111111
        k(   12) = (   0.0481904   0.0000000   0.0000000), wk =   0.1111111
        k(   13) = (   0.0481904   0.0278228   0.0000000), wk =   0.1111111
        k(   14) = (   0.0481904  -0.1112910   0.0000000), wk =   0.1111111
        k(   15) = (   0.0481904  -0.0834683   0.0000000), wk =   0.1111111
        k(   16) = (   0.0481904  -0.0556455   0.0000000), wk =   0.1111111
        k(   17) = (  -0.0722856   0.0417341   0.0000000), wk =   0.0555556
        k(   18) = (  -0.0722856   0.0695569   0.0000000), wk =   0.1111111
        k(   19) = (  -0.0722856   0.0973797   0.0000000), wk =   0.1111111
        k(   20) = (  -0.0722856  -0.0417341   0.0000000), wk =   0.0555556

     Largest allocated arrays     est. size (Mb)     dimensions
     Largest temporary arrays     est. size (Mb)     dimensions

     Check: negative/imaginary core charge=   -0.000001    0.000000

     Initial potential from superposition of free atoms
     Check: negative starting charge=   -0.198084

     starting charge  174.97177, renormalised to  175.00000

     negative rho (up, down):  1.981E-01 0.000E+00

     *
     * You are using vdW-DF for exchange-correlation in this calculation.
     * Please cite the following three references that made this development
     * possible:
     *
     *   M. Dion, H. Rydberg, E. Schroder, D. C. Langreth, and
     *   B. I. Lundqvist, Phys. Rev. Lett. 92, 246401 (2004).
     *
     *   T. Thonhauser, V. R. Cooper, S. Li, A. Puzder, P. Hyldgaard, and
     *   D. C. Langreth, Phys. Rev. B 76, 125112 (2007).
     *
     *   G. Roman-Perez and J. M. Soler, Phys. Rev. Lett. 103, 096102 (2009).
     *
     *
     * If you are using vdW-DF2, please also cite:
     *
     *   K. Lee, E. D. Murray, L. Kong, B. I. Lundqvist, and
     *   D. C. Langreth, Phys. Rev. B 82, 081101(R) (2010).
     *
     *
     * If you are calculating the stress with vdW-DF, please also cite:
     *
     *   R. Sabatini, E. Kucukbenli, B. Kolb, T. Thonhauser, and
     *   S. de Gironcoli, J. Phys.: Condens. Matter 24, 424209 (2012).
     *

     Carrying out vdW-DF run using the following parameters:

     Nqs =      20    Nr_points =    1024   r_max =   100.000
     q_mesh =
               0.00001000     0.04494208     0.09755937     0.15916263
               0.23128650     0.31572767     0.41458969     0.53033537
               0.66584808     0.82450364     1.01025438     1.22772762
               1.48234092     1.78043706     2.12944203     2.53805004
               3.01644009     3.57652955     4.23227104     5.00000000

     Gradients computed in reciprocal space

     Adding external electric field

     Computed dipole along edir(3) :
        Dipole               -0.0092 Ry au,         -0.0233 Debye
        Dipole field         -0.0000 Ry au

        Potential amp.        0.0015 Ry
        Total length         47.2555 bohr

     Starting wfc are  113 randomized atomic wfcs

     Self-consistent Calculation

     iteration #  1     ecut=    36.75 Ry     beta=0.30
     Davidson diagonalization with overlap
     ethr =  1.00E-02,  avg # of iterations =  2.0

     Threshold (ethr) on eigenvalues was too large:
     Diagonalizing with lowered threshold

     Davidson diagonalization with overlap
     ethr =  5.06E-04,  avg # of iterations =  2.0

[...]

     total energy              =   -2025.81797463 Ry
     Harris-Foulkes estimate   =   -2026.21144073 Ry
     estimated scf accuracy    <       0.90091577 Ry

[...]

     End of self-consistent calculation

          k = 0.0000 0.0000 0.0000 ( 27033 PWs)   bands (ev):

   -19.1955 -16.2034 -16.1936 -16.1935 -16.1390 -16.1362 -16.1362 -16.1073
   -16.0986 -16.0986 -16.0752 -16.0639 -16.0639 -16.0585 -16.0353 -16.0353
   -16.0306 -16.0168 -16.0168 -16.0096 -16.0096 -16.0079 -16.0004 -16.0004
   -15.9987 -15.9987 -15.9962 -15.9789 -15.9632 -15.9533 -15.9533 -15.9311
   -15.9236 -15.9236 -15.8966 -15.8966 -15.8699 -15.8699 -15.8453 -15.8453
   -15.8427 -15.8124 -15.7940 -15.7940 -15.7706 -15.7598 -15.7598 -15.7570
   -15.7524 -15.7517 -15.7517 -15.7417 -15.7417 -15.7344 -15.7344 -15.7116
   -15.7116 -15.6935 -15.6789 -15.6723 -15.6723 -10.1327  -9.1059  -7.6956
    -6.6950  -6.6950  -6.6445  -6.5018  -6.3082  -6.3082  -5.9103  -5.6083
    -5.6083  -5.1469  -2.9467  -2.9467  -2.1826  -1.9195  -1.9195  -1.7092
    -1.2433  -1.2433  -1.1860  -0.8075  -0.8075  -0.1552   1.0527   2.5938
     2.6098   2.6099   2.9190   3.0564   3.0564   3.3931   4.0174   4.1186
     4.1187

[...]

          k =-0.0723 0.0417 0.0000 ( 26962 PWs)   bands (ev):

[...]

     the Fermi energy is     1.4640 ev

!    total energy              =   -2025.98945215 Ry
     Harris-Foulkes estimate   =   -2025.98946673 Ry
     estimated scf accuracy    <       0.00000126 Ry

     The total energy is the sum of the following terms:

     one-electron contribution =   -9786.08331785 Ry
     hartree contribution      =    4967.20734758 Ry
     xc contribution           =    -792.37676213 Ry
     ewald contribution        =    3585.30651857 Ry
     electric field correction =       0.00008228 Ry
     smearing contrib. (-TS)   =      -0.04332060 Ry

     convergence has been achieved in  10 iterations

 BEEF-vdW xc energy contributions
           1 :   -706.079665106773
           2 :    655.564849502046
           3 :   -566.709881337428
           4 :    459.081248589605
           5 :   -352.766942472227
           6 :    262.379830137793
           7 :   -193.949149134537
           8 :    145.380449136540
           9 :   -109.775715242343
          10 :    79.8177997559762
          11 :   -51.1965290528869
          12 :    23.7502852654154
          13 :  -0.258579178812397
          14 :   -16.0589844722638
          15 :    23.8220124310616
          16 :   -24.3989278472118
          17 :    21.1801486327586
          18 :   -17.8385695189062
          19 :    16.6301310923494
          20 :   -17.6310622205447
          21 :    19.2090207528558
          22 :   -19.3374252591930
          23 :    16.9423015459691
          24 :   -12.5387127353611
          25 :    7.87574901537869
          26 :   -4.88489046738187
          27 :    4.58377407099806
          28 :   -6.55782770534518
          29 :    9.26711817351998
          30 :   -10.9527325998563
          31 :   -56.6619405991730
          32 :   -41.4976641926902

     Forces acting on atoms (Ry/au):

     negative rho (up, down):  2.143E-01 0.000E+00
     atom    1 type  1   force =     0.00001006   -0.00000075   -0.01085314
     atom    2 type  1   force =    -0.00001022   -0.00249354   -0.00745767
     atom    3 type  1   force =    -0.00215651    0.00124430   -0.00746293
     atom    4 type  1   force =     0.00214915    0.00124532   -0.00743639
     atom    5 type  1   force =     0.00170788   -0.00099133   -0.00033793
     atom    6 type  1   force =    -0.00170760   -0.00099563   -0.00033696
     atom    7 type  1   force =    -0.00000763    0.00000166   -0.01544127
     atom    8 type  1   force =    -0.00000247    0.00196400   -0.00033519
     atom    9 type  1   force =    -0.01813718   -0.01046815   -0.00100283
     atom   10 type  1   force =     0.01815102   -0.01046762   -0.00099781
     atom   11 type  1   force =     0.00000142    0.02096332   -0.00101075
     atom   12 type  1   force =    -0.00000272   -0.00000721    0.00688811
     atom   13 type  2   force =     0.00000358    0.00000287   -0.01409593
     atom   14 type  3   force =     0.00000122    0.00000276    0.05988068

     Total force =     0.071777     Total SCF correction =     0.004026

     entering subroutine stress ...

     negative rho (up, down):  2.143E-01 0.000E+00
          total   stress  (Ry/bohr**3)                   (kbar)     P=   15.05
   0.00010563  -0.00000000  -0.00000000         15.54     -0.00     -0.00
  -0.00000000   0.00010563   0.00000000         -0.00     15.54      0.00
  -0.00000000   0.00000000   0.00009571         -0.00      0.00     14.08

     BFGS Geometry Optimization

     number of scf cycles    =   1
     number of bfgs steps    =   0

     energy   new            =   -2025.9894521470 Ry

     new trust radius        =       0.0598806836 bohr
     new conv_thr            =       0.0000099958 Ry

ATOMIC_POSITIONS (crystal)
Pb1      0.166666667   0.166666667   0.389898374    0   0   0
Pb1      0.666666667   0.166666667   0.389898374    0   0   0
Pb1      0.166666667   0.666666667   0.389898374    0   0   0
Pb1      0.666666667   0.666666667   0.389898374    0   0   0
Pb1      0.833333333   0.333333333   0.500000000    0   0   0
Pb1      0.333333333   0.333333333   0.500000000    0   0   0
Pb1      0.833333333   0.833333333   0.500000000    0   0   0
Pb1      0.333333333   0.833333333   0.500000000    0   0   0
Pb1     -0.000925191  -0.000924746   0.610080935
Pb1      0.501850972  -0.000924700   0.610081039
Pb1     -0.000925831   0.501851879   0.610080772
Pb1      0.500000110   0.499999363   0.610243745
O1       0.166666814   0.166666920   0.663538787
H1       0.166666638   0.166666910   0.702105458

     Writing output data file calc.save
     Check: negative starting charge=   -0.198084
     NEW-OLD atomic charge density approx. for the potential

     Check: negative/imaginary core charge=   -0.000001    0.000000
     Check: negative starting charge=   -0.197709

[...]

     energy   old            =   -2025.9894521470 Ry
     energy   new            =   -2025.9914401580 Ry

     CASE: energy  _new < energy  _old

[...]

     Total force =     0.024227     Total SCF correction =     0.002470
     SCF correction compared to forces is large: reduce conv_thr to get better values

[...]

     CASE: energy  _new > energy  _old

[...]

     Total force =     0.007211     Total SCF correction =     0.000582

[...]

     WARNING: bfgs curvature condition failed, Theta= 0.689
     uphill step: resetting bfgs history

[...]

     CASE: energy  _new < energy  _old

     WARNING: bfgs curvature condition failed, Theta= 0.949
     new trust radius        =       0.0294609774 bohr
     new conv_thr            =       0.0000001000 Ry

[...]

     number of scf cycles    =  34
     number of bfgs steps    =  31

     energy   old            =   -2026.0136057648 Ry
     energy   new            =   -2026.0136040481 Ry

     CASE: energy  _new > energy  _old

     new trust radius        =       0.0054816516 bohr
     new conv_thr            =       0.0000001000 Ry

ATOMIC_POSITIONS (crystal)
Pb1      0.166666667   0.166666667   0.389898374    0   0   0
Pb1      0.666666667   0.166666667   0.389898374    0   0   0
Pb1      0.166666667   0.666666667   0.389898374    0   0   0
Pb1      0.666666667   0.666666667   0.389898374    0   0   0
Pb1      0.833333333   0.333333333   0.500000000    0   0   0
Pb1      0.333333333   0.333333333   0.500000000    0   0   0
Pb1      0.833333333   0.833333333   0.500000000    0   0   0
Pb1      0.333333333   0.833333333   0.500000000    0   0   0
Pb1      0.000017535   0.000015337   0.624153213
Pb1      0.499974256   0.000014006   0.624155125
Pb1      0.000016238   0.499972484   0.624155942
Pb1      0.500002264   0.500003039   0.613785044
O1       0.166667770   0.166668920   0.686991910
H1       0.166664730   0.166671008   0.725050965

     Writing output data file calc.save
     Check: negative starting charge=   -0.196489
     NEW-OLD atomic charge density approx. for the potential

     Check: negative/imaginary core charge=   -0.000001    0.000000
     Check: negative starting charge=   -0.196471

[...]

     Self-consistent Calculation

[...]

     Threshold (ethr) on eigenvalues was too large:
     Diagonalizing with lowered threshold

     Davidson diagonalization with overlap
     ethr =  4.12E-09,  avg # of iterations =  4.3

[...]

     total energy              =   -2026.01360659 Ry
     Harris-Foulkes estimate   =   -2026.01360762 Ry
     estimated scf accuracy    <       0.00000050 Ry

     iteration #  5     ecut=    36.75 Ry     beta=0.30
     Davidson diagonalization with overlap
     ethr =  2.84E-10,  avg # of iterations =  3.0

[...]

     negative rho (up, down):  2.118E-01 0.000E+00

     Adding external electric field

     Computed dipole along edir(3) :
        Dipole                0.1121 Ry au,          0.2849 Debye
        Dipole field          0.0002 Ry au

        Potential amp.       -0.0186 Ry
        Total length         47.2555 bohr

     End of self-consistent calculation

[...]

          k = 0.0482-0.0556 0.0000 ( 26956 PWs)   bands (ev):

[...]

          k =-0.0723-0.0417 0.0000 ( 26962 PWs)   bands (ev):

   -18.2836 -16.2587 -16.2021 -16.1815 -16.1724 -16.1642 -16.1559 -16.1440
   -16.1420 -16.1349 -16.1345 -16.1324 -16.1267 -16.1235 -16.1166 -16.1164
   -16.1105 -16.1076 -16.1017 -16.0976 -16.0976 -16.0860 -16.0773 -16.0744
   -16.0667 -16.0622 -16.0604 -16.0578 -16.0516 -16.0493 -16.0302 -16.0221
   -16.0155 -16.0141 -16.0063 -15.9971 -15.9902 -15.9764 -15.9762 -15.9637
   -15.9574 -15.9569 -15.9401 -15.9322 -15.9274 -15.9209 -15.9155 -15.9147
   -15.9093 -15.9067 -15.9065 -15.9047 -15.8970 -15.8919 -15.8833 -15.8613
   -15.8606 -15.8502 -15.8448 -15.8127 -15.7992  -8.9624  -8.9172  -8.1502
    -8.0252  -7.0560  -6.9808  -6.9518  -6.8646  -6.3891  -6.3618  -5.6250
    -5.6175  -4.9084  -2.2801  -1.9444  -0.6786  -0.5962  -0.5647  -0.5437
    -0.3877  -0.3019   0.1524   0.5321   0.9225   0.9650   1.2236   1.3493
     1.9765   2.0628   2.2061   2.3400   2.4187   2.4667   2.6538   2.7566
     2.8427

     the Fermi energy is     1.3643 ev

!    total energy              =   -2026.01360576 Ry
     Harris-Foulkes estimate   =   -2026.01360668 Ry
     estimated scf accuracy    <       0.00000008 Ry

     The total energy is the sum of the following terms:

     one-electron contribution =   -9288.67339341 Ry
     hartree contribution      =    4718.08702199 Ry
     xc contribution           =    -792.09150655 Ry
     ewald contribution        =    3336.70602659 Ry
     electric field correction =       0.00002201 Ry
     smearing contrib. (-TS)   =      -0.04177639 Ry

     convergence has been achieved in   5 iterations

 BEEF-vdW xc energy contributions
           1 :   -705.779113120521
           2 :    655.102908998173
           3 :   -566.072026321025
           4 :    458.425384775152
           5 :   -352.325233228127
           6 :    262.308266302272
           7 :   -194.216539125495
           8 :    145.769863593418
           9 :   -110.002324240597
          10 :    79.6936044675363
          11 :   -50.7426548251493
          12 :    23.1869062717134
          13 :   0.123415944846670
          14 :   -16.0682665399220
          15 :    23.4788452140466
          16 :   -23.9223361407223
          17 :    20.8573404334545
          18 :   -17.8555957792198
          19 :    16.9649223476927
          20 :   -18.0706121928552
          21 :    19.4785742974032
          22 :   -19.2641788064689
          23 :    16.5568668054859
          24 :   -12.0550708931344
          25 :    7.56328221982471
          26 :   -4.90975912040744
          27 :    4.91322746801234
          28 :   -6.98259307316744
          29 :    9.52678369219143
          30 :   -10.8883935084342
          31 :   -56.6370788101440
          32 :   -41.4338666326048

     Forces acting on atoms (Ry/au):

     negative rho (up, down):  2.118E-01 0.000E+00
     atom    1 type  1   force =     0.00000011    0.00000038   -0.00934846
     atom    2 type  1   force =    -0.00000018   -0.00030526   -0.00640077
     atom    3 type  1   force =    -0.00026453    0.00015230   -0.00640090
     atom    4 type  1   force =     0.00026451    0.00015251   -0.00640127
     atom    5 type  1   force =     0.00205100   -0.00118390    0.00844304
     atom    6 type  1   force =    -0.00205083   -0.00118412    0.00844337
     atom    7 type  1   force =     0.00000010    0.00000015    0.00483541
     atom    8 type  1   force =     0.00000025    0.00236798    0.00844283
     atom    9 type  1   force =    -0.00144643   -0.00083443   -0.00140830
     atom   10 type  1   force =     0.00144644   -0.00083380   -0.00140866
     atom   11 type  1   force =     0.00000035    0.00166938   -0.00140929
     atom   12 type  1   force =    -0.00000049   -0.00000096    0.00061698
     atom   13 type  2   force =    -0.00000031    0.00000004    0.00146290
     atom   14 type  3   force =     0.00000001   -0.00000028    0.00053312

     Total force =     0.004138     Total SCF correction =     0.001460
     SCF correction compared to forces is large: reduce conv_thr to get better values

     entering subroutine stress ...

     negative rho (up, down):  2.118E-01 0.000E+00
          total   stress  (Ry/bohr**3)                   (kbar)     P=    6.97
   0.00006125  -0.00000000  -0.00000000          9.01     -0.00     -0.00
  -0.00000000   0.00006125  -0.00000000         -0.00      9.01     -0.00
  -0.00000000  -0.00000000   0.00001967         -0.00     -0.00      2.89

     bfgs converged in  35 scf cycles and  31 bfgs steps
     (criteria: energy <  1.0E+00, force <  1.9E-03)

     End of BFGS Geometry Optimization

     Final energy   =   -2026.0136057602 Ry
Begin final coordinates

ATOMIC_POSITIONS (crystal)
Pb1      0.166666667   0.166666667   0.389898374    0   0   0
Pb1      0.666666667   0.166666667   0.389898374    0   0   0
Pb1      0.166666667   0.666666667   0.389898374    0   0   0
Pb1      0.666666667   0.666666667   0.389898374    0   0   0
Pb1      0.833333333   0.333333333   0.500000000    0   0   0
Pb1      0.333333333   0.333333333   0.500000000    0   0   0
Pb1      0.833333333   0.833333333   0.500000000    0   0   0
Pb1      0.333333333   0.833333333   0.500000000    0   0   0
Pb1      0.000017535   0.000015337   0.624153213
Pb1      0.499974256   0.000014006   0.624155125
Pb1      0.000016238   0.499972484   0.624155942
Pb1      0.500002264   0.500003039   0.613785044
O1       0.166667770   0.166668920   0.686991910
H1       0.166664730   0.166671008   0.725050965
End final coordinates

     Writing output data file calc.save

     General routines

     Parallel routines

   This run was terminated on:   3:42:11  21Apr2018

   JOB DONE.
Job  /afs/slac/g/suncat/bin/suncat-tsmpirun -x LD_LIBRARY_PATH -wdir /scratch/qe294396_QpgJU pw.x -npool 4 -in pw.inp

TID   HOST_NAME   COMMAND_LINE            STATUS            TERMINATION_TIME
00000 suncat0020 pw.x -npool 4 -i  Done                     04/21/2018 03:42:11
00001 suncat0020 pw.x -npool 4 -i  Done                     04/21/2018 03:42:11
00002 suncat0020 pw.x -npool 4 -i  Done                     04/21/2018 03:42:11
00003 suncat0020 pw.x -npool 4 -i  Done                     04/21/2018 03:42:11
00004 suncat0020 pw.x -npool 4 -i  Done                     04/21/2018 03:42:11
00005 suncat0020 pw.x -npool 4 -i  Done                     04/21/2018 03:42:11
00006 suncat0020 pw.x -npool 4 -i  Done                     04/21/2018 03:42:11
00007 suncat0020 pw.x -npool 4 -i  Done                     04/21/2018 03:42:11
00008 suncat0194 pw.x -npool 4 -i  Done                     04/21/2018 03:42:11
00009 suncat0194 pw.x -npool 4 -i  Done                     04/21/2018 03:42:11
00010 suncat0194 pw.x -npool 4 -i  Done                     04/21/2018 03:42:11
00011 suncat0194 pw.x -npool 4 -i  Done                     04/21/2018 03:42:11
00012 suncat0194 pw.x -npool 4 -i  Done                     04/21/2018 03:42:11
00013 suncat0194 pw.x -npool 4 -i  Done                     04/21/2018 03:42:11
00014 suncat0194 pw.x -npool 4 -i  Done                     04/21/2018 03:42:11
00015 suncat0194 pw.x -npool 4 -i  Done                     04/21/2018 03:42:11
00016 suncat0268 pw.x -npool 4 -i  Done                     04/21/2018 03:42:11
00017 suncat0268 pw.x -npool 4 -i  Done                     04/21/2018 03:42:11
00018 suncat0268 pw.x -npool 4 -i  Done                     04/21/2018 03:42:11
00019 suncat0268 pw.x -npool 4 -i  Done                     04/21/2018 03:42:11
00020 suncat0268 pw.x -npool 4 -i  Done                     04/21/2018 03:42:11
00021 suncat0268 pw.x -npool 4 -i  Done                     04/21/2018 03:42:11
00022 suncat0268 pw.x -npool 4 -i  Done                     04/21/2018 03:42:11
00023 suncat0268 pw.x -npool 4 -i  Done                     04/21/2018 03:42:11
00024 suncat0224 pw.x -npool 4 -i  Done                     04/21/2018 03:42:11
00025 suncat0224 pw.x -npool 4 -i  Done                     04/21/2018 03:42:11
00026 suncat0224 pw.x -npool 4 -i  Done                     04/21/2018 03:42:11
00027 suncat0224 pw.x -npool 4 -i  Done                     04/21/2018 03:42:11
00028 suncat0224 pw.x -npool 4 -i  Done                     04/21/2018 03:42:11
00029 suncat0224 pw.x -npool 4 -i  Done                     04/21/2018 03:42:11
00030 suncat0224 pw.x -npool 4 -i  Done                     04/21/2018 03:42:11
00031 suncat0224 pw.x -npool 4 -i  Done                     04/21/2018 03:42:11