     Program PWSCF v.5.1rc2 (svn rev. 11289) starts on 16Jan2018 at 13:24:33

     Current dimensions of program PWSCF are:
     Max number of different atomic species (ntypx) = 10
     Max number of k-points (npk) =  40000
     Max angular momentum in pseudopotentials (lmaxx) =  3
     Presently stress not available with electric field

     IMPORTANT: XC functional enforced from input :
     Exchange-correlation      = BEEF-VDW ( 1  4 27 13 2)
     Any further DFT definition will be discarded
     Please, verify this is what you really want

     Subspace diagonalization in iterative solution of the eigenvalue problem:
     a serial algorithm will be used

     bravais-lattice index     =            0
     lattice parameter (alat)  =       1.8897  a.u.
     unit-cell volume          =    4198.3539 (a.u.)^3
     number of atoms/cell      =           13
     number of atomic types    =            2
     number of electrons       =       193.00
     number of Kohn-Sham states=          106
     kinetic-energy cutoff     =      36.7493  Ry
     charge density cutoff     =     367.4932  Ry
     convergence threshold     =      1.0E-05
     mixing beta               =       0.3000
     number of iterations used =           10  plain     mixing
     Exchange-correlation      = BEEF-VDW ( 1  4 27 13 2)
     nstep                     =           50

     celldm(1)=   1.889726  celldm(2)=   0.000000  celldm(3)=   0.000000
     celldm(4)=   0.000000  celldm(5)=   0.000000  celldm(6)=   0.000000

     crystal axes: (cart. coord. in units of alat)
               a(1) = (   5.422927   0.000000   0.000000 )
               a(2) = (   2.711463   4.696392   0.000000 )
               a(3) = (   0.000000   0.000000  24.427801 )

     reciprocal axes: (cart. coord. in units 2 pi/alat)
               b(1) = (  0.184402 -0.106465  0.000000 )
               b(2) = (  0.000000  0.212929  0.000000 )
               b(3) = (  0.000000  0.000000  0.040937 )

     PseudoPot. # 1 for Ru read from file:
     /afs/slac.stanford.edu/u/if/mamunm/psp/gbrv1.5pbe/Ru.UPF
     MD5 check sum: 7158a806dd851261a58e6920c40ebe78
     Pseudo is Ultrasoft + core correction, Zval = 16.0
     Generated by new atomic code, or converted to UPF format
     Using radial grid of  967 points,  6 beta functions with:
                l(1) =   0
                l(2) =   0
                l(3) =   1
                l(4) =   1
                l(5) =   2
                l(6) =   2
     Q(r) pseudized with  8 coefficients,  rinner =    1.300   1.300   1.300
                                                       1.300   1.300

     PseudoPot. # 2 for H  read from file:
     /afs/slac.stanford.edu/u/if/mamunm/psp/gbrv1.5pbe/H.UPF
     MD5 check sum: 761ae9a214b05c3daf00ab9f6b793d6f
     Pseudo is Ultrasoft, Zval =  1.0
     Generated by new atomic code, or converted to UPF format
     Using radial grid of  615 points,  2 beta functions with:
                l(1) =   0
                l(2) =   0
     Q(r) pseudized with  8 coefficients,  rinner =    0.700

     vdW kernel table read from file vdW_kernel_table
     MD5 check sum: 095c7af220d748ca6e76c0b4c6cfb241

     atomic species   valence    mass     pseudopotential
        Ru1           16.00   101.07000     Ru( 1.00)
        H1             1.00     1.00800     H ( 1.00)

     No symmetry found

   Cartesian axes

     site n.     atom                  positions (alat units)
         1           Ru1 tau(   1) = (   1.3557316   0.7827320  10.0000000  )
         2           Ru1 tau(   2) = (   4.0671949   0.7827320  10.0000000  )
         3           Ru1 tau(   3) = (   2.7114633   3.1309281  10.0000000  )
         4           Ru1 tau(   4) = (   5.4229265   3.1309281  10.0000000  )
         5           Ru1 tau(   5) = (   5.4229265   1.5654640  12.2139005  )
         6           Ru1 tau(   6) = (   2.7114633   1.5654640  12.2139005  )
         7           Ru1 tau(   7) = (   6.7786581   3.9136601  12.2139005  )
         8           Ru1 tau(   8) = (   4.0671949   3.9136601  12.2139005  )
         9           Ru1 tau(   9) = (   0.0000000   0.0000000  14.4278010  )
        10           Ru1 tau(  10) = (   2.7114633   0.0000000  14.4278010  )
        11           Ru1 tau(  11) = (   1.3557316   2.3481961  14.4278010  )
        12           Ru1 tau(  12) = (   4.0671949   2.3481961  14.4278010  )
        13           H1  tau(  13) = (   1.3557316   0.0000000  16.1978010  )

     number of k points=    20  Fermi-Dirac smearing, width (Ry)=  0.0110
                       cart. coord. in units 2pi/alat
        k(    1) = (   0.0000000   0.0000000   0.0000000), wk =   0.0555556
        k(    2) = (   0.0000000   0.0354882   0.0000000), wk =   0.1111111
        k(    3) = (   0.0000000   0.0709765   0.0000000), wk =   0.1111111
        k(    4) = (   0.0000000  -0.1064647   0.0000000), wk =   0.0555556
        k(    5) = (   0.0307337  -0.0177441   0.0000000), wk =   0.1111111
        k(    6) = (   0.0307337   0.0177441   0.0000000), wk =   0.1111111
        k(    7) = (   0.0307337   0.0532324   0.0000000), wk =   0.1111111
        k(    8) = (   0.0307337  -0.1242088   0.0000000), wk =   0.1111111
        k(    9) = (   0.0307337  -0.0887206   0.0000000), wk =   0.1111111
        k(   10) = (   0.0307337  -0.0532324   0.0000000), wk =   0.1111111
        k(   11) = (   0.0614674  -0.0354882   0.0000000), wk =   0.1111111
        k(   12) = (   0.0614674   0.0000000   0.0000000), wk =   0.1111111
        k(   13) = (   0.0614674   0.0354882   0.0000000), wk =   0.1111111
        k(   14) = (   0.0614674  -0.1419529   0.0000000), wk =   0.1111111
        k(   15) = (   0.0614674  -0.1064647   0.0000000), wk =   0.1111111
        k(   16) = (   0.0614674  -0.0709765   0.0000000), wk =   0.1111111
        k(   17) = (  -0.0922011   0.0532324   0.0000000), wk =   0.0555556
        k(   18) = (  -0.0922011   0.0887206   0.0000000), wk =   0.1111111
        k(   19) = (  -0.0922011   0.1242088   0.0000000), wk =   0.1111111
        k(   20) = (  -0.0922011  -0.0532324   0.0000000), wk =   0.0555556

     Largest allocated arrays     est. size (Mb)     dimensions
     Largest temporary arrays     est. size (Mb)     dimensions

     Initial potential from superposition of free atoms
     Check: negative starting charge=   -0.873640

     starting charge  180.99980, renormalised to  193.00000

     negative rho (up, down):  9.316E-01 0.000E+00

     *
     * You are using vdW-DF for exchange-correlation in this calculation.
     * Please cite the following three references that made this development
     * possible:
     *
     *   M. Dion, H. Rydberg, E. Schroder, D. C. Langreth, and
     *   B. I. Lundqvist, Phys. Rev. Lett. 92, 246401 (2004).
     *
     *   T. Thonhauser, V. R. Cooper, S. Li, A. Puzder, P. Hyldgaard, and
     *   D. C. Langreth, Phys. Rev. B 76, 125112 (2007).
     *
     *   G. Roman-Perez and J. M. Soler, Phys. Rev. Lett. 103, 096102 (2009).
     *
     *
     * If you are using vdW-DF2, please also cite:
     *
     *   K. Lee, E. D. Murray, L. Kong, B. I. Lundqvist, and
     *   D. C. Langreth, Phys. Rev. B 82, 081101(R) (2010).
     *
     *
     * If you are calculating the stress with vdW-DF, please also cite:
     *
     *   R. Sabatini, E. Kucukbenli, B. Kolb, T. Thonhauser, and
     *   S. de Gironcoli, J. Phys.: Condens. Matter 24, 424209 (2012).
     *

     Carrying out vdW-DF run using the following parameters:

     Nqs =      20    Nr_points =    1024   r_max =   100.000
     q_mesh =
               0.00001000     0.04494208     0.09755937     0.15916263
               0.23128650     0.31572767     0.41458969     0.53033537
               0.66584808     0.82450364     1.01025438     1.22772762
               1.48234092     1.78043706     2.12944203     2.53805004
               3.01644009     3.57652955     4.23227104     5.00000000

     Gradients computed in reciprocal space

     Adding external electric field

     Computed dipole along edir(3) :
        Dipole               -0.4991 Ry au,         -1.2685 Debye
        Dipole field         -0.0015 Ry au

        Potential amp.        0.1345 Ry
        Total length         45.0078 bohr

     Starting wfc are  157 randomized atomic wfcs

     Self-consistent Calculation

     iteration #  1     ecut=    36.75 Ry     beta=0.30
     Davidson diagonalization with overlap
     ethr =  1.00E-02,  avg # of iterations =  2.8

[...]

     total energy              =   -2334.49334603 Ry
     Harris-Foulkes estimate   =   -2347.64990262 Ry
     estimated scf accuracy    <      29.45926987 Ry

[...]

     End of self-consistent calculation

          k = 0.0000 0.0000 0.0000 ( 15761 PWs)   bands (ev):

   -71.0771 -70.9889 -70.9753 -70.9180 -70.6398 -70.5833 -70.5646 -70.5272
   -70.4999 -70.4934 -70.4850 -70.4777 -41.3529 -41.3373 -41.3364 -41.1795
   -41.0922 -41.0742 -41.0539 -40.8845 -40.8599 -40.8503 -40.8012 -40.7813
   -40.7704 -40.7249 -40.7098 -40.6959 -40.6066 -40.6051 -40.5513 -40.4816
   -40.4528 -40.4326 -40.3940 -40.3864 -40.3680 -40.3641 -40.3597 -40.3484
   -40.3423 -40.3069 -40.3018 -40.3010 -40.1851 -40.1796 -40.1411 -40.1399
    -4.5456  -3.3300  -3.2944  -3.2888  -3.2244  -3.1084  -2.9306  -2.9226
    -2.9172  -2.7070  -2.6625  -2.6556  -2.3303  -2.3060  -2.2917  -1.4879
    -1.1534  -1.1449  -0.6964  -0.5509  -0.5493  -0.4004  -0.2626  -0.1748
    -0.1740   0.2269   0.2334   0.2619   0.2676   0.2782   0.4782   0.4977
     0.5906   0.9712   0.9968   1.0794   1.8798   1.8891   1.8904   2.0101
     2.0198   2.0254   2.0343   2.0356   2.6183   2.6282   2.7460   3.1556
     3.1853   3.1996   3.2579   3.2710   3.2725   3.4325   3.4380   3.7677
     3.7845   3.7893

[...]

          k =-0.0922 0.0532 0.0000 ( 15808 PWs)   bands (ev):

[...]

     the Fermi energy is     2.2223 ev

!    total energy              =   -2342.38202084 Ry
     Harris-Foulkes estimate   =   -2342.38202574 Ry
     estimated scf accuracy    <       0.00000178 Ry

     The total energy is the sum of the following terms:

     one-electron contribution =  -21880.98451228 Ry
     hartree contribution      =   10939.41649945 Ry
     xc contribution           =    -322.36900962 Ry
     ewald contribution        =    8921.64140278 Ry
     electric field correction =       0.00001349 Ry
     smearing contrib. (-TS)   =      -0.08641465 Ry

     convergence has been achieved in  20 iterations

 BEEF-vdW xc energy contributions
           1 :   -279.589252354326
           2 :    256.654268631514
           3 :   -216.935009579808
           4 :    170.271113696557
           5 :   -126.692861821364
           6 :    93.3522081460713
           7 :   -72.8671314414371
           8 :    63.4669068286706
           9 :   -60.6139075516779
          10 :    59.2739211417233
          11 :   -55.8779366078388
          12 :    49.2887419983615
          13 :   -40.5956539285301
          14 :    32.0554044710252
          15 :   -25.7758402587838
          16 :    22.7286350677343
          17 :   -22.4429368603170
          18 :    23.3999226255818
          19 :   -23.8527696760575
          20 :    22.6491648662889
          21 :   -19.6808464937735
[...]

[...]

     iteration # 12     ecut=    36.75 Ry     beta=0.30
     Davidson diagonalization with overlap
     c_bands:  1 eigenvalues not converged
     ethr =  4.03E-05,  avg # of iterations =  6.6

[...]

     Total force =     0.086271     Total SCF correction =     0.017672
     SCF correction compared to forces is large: reduce conv_thr to get better values

[...]

   This run was terminated on:  14: 6:29  16Jan2018

[...]

     Program PWSCF v.5.1rc2 (svn rev. 11289) starts on 16Jan2018 at 14: 6:35

[...]

     Total force =     0.085582     Total SCF correction =     0.007629

[...]

     Program PWSCF v.5.1rc2 (svn rev. 11289) starts on 16Jan2018 at 14:58:27

     Current dimensions of program PWSCF are:
     Max number of different atomic species (ntypx) = 10
     Max number of k-points (npk) =  40000
     Max angular momentum in pseudopotentials (lmaxx) =  3
     Presently stress not available with electric field

     IMPORTANT: XC functional enforced from input :
     Exchange-correlation      = BEEF-VDW ( 1  4 27 13 2)
     Any further DFT definition will be discarded
     Please, verify this is what you really want

     Subspace diagonalization in iterative solution of the eigenvalue problem:
     a serial algorithm will be used

     bravais-lattice index     =            0
     lattice parameter (alat)  =       1.8897  a.u.
     unit-cell volume          =    4198.3539 (a.u.)^3
     number of atoms/cell      =           13
     number of atomic types    =            2
     number of electrons       =       193.00
     number of Kohn-Sham states=          106
     kinetic-energy cutoff     =      36.7493  Ry
     charge density cutoff     =     367.4932  Ry
     convergence threshold     =      1.0E-05
     mixing beta               =       0.3000
     number of iterations used =           10  plain     mixing
     Exchange-correlation      = BEEF-VDW ( 1  4 27 13 2)
     nstep                     =           50

     celldm(1)=   1.889726  celldm(2)=   0.000000  celldm(3)=   0.000000
     celldm(4)=   0.000000  celldm(5)=   0.000000  celldm(6)=   0.000000

     crystal axes: (cart. coord. in units of alat)
               a(1) = (   5.422927   0.000000   0.000000 )
               a(2) = (   2.711463   4.696392   0.000000 )
               a(3) = (   0.000000   0.000000  24.427801 )

     reciprocal axes: (cart. coord. in units 2 pi/alat)
               b(1) = (  0.184402 -0.106465  0.000000 )
               b(2) = (  0.000000  0.212929  0.000000 )
               b(3) = (  0.000000  0.000000  0.040937 )

     PseudoPot. # 1 for Ru read from file:
     /afs/slac.stanford.edu/u/if/mamunm/psp/gbrv1.5pbe/Ru.UPF
     MD5 check sum: 7158a806dd851261a58e6920c40ebe78
     Pseudo is Ultrasoft + core correction, Zval = 16.0
     Generated by new atomic code, or converted to UPF format
     Using radial grid of  967 points,  6 beta functions with:
                l(1) =   0
                l(2) =   0
                l(3) =   1
                l(4) =   1
                l(5) =   2
                l(6) =   2
     Q(r) pseudized with  8 coefficients,  rinner =    1.300   1.300   1.300
                                                       1.300   1.300

     PseudoPot. # 2 for H  read from file:
     /afs/slac.stanford.edu/u/if/mamunm/psp/gbrv1.5pbe/H.UPF
     MD5 check sum: 761ae9a214b05c3daf00ab9f6b793d6f
     Pseudo is Ultrasoft, Zval =  1.0
     Generated by new atomic code, or converted to UPF format
     Using radial grid of  615 points,  2 beta functions with:
                l(1) =   0
                l(2) =   0
     Q(r) pseudized with  8 coefficients,  rinner =    0.700

     vdW kernel table read from file vdW_kernel_table
     MD5 check sum: 095c7af220d748ca6e76c0b4c6cfb241

     atomic species   valence    mass     pseudopotential
        Ru1           16.00   101.07000     Ru( 1.00)
        H1             1.00     1.00800     H ( 1.00)

     No symmetry found

   Cartesian axes

     site n.     atom                  positions (alat units)
         1           Ru1 tau(   1) = (   1.3557316   0.7827320  10.0000000  )
         2           Ru1 tau(   2) = (   4.0671949   0.7827320  10.0000000  )
         3           Ru1 tau(   3) = (   2.7114633   3.1309281  10.0000000  )
         4           Ru1 tau(   4) = (   5.4229265   3.1309281  10.0000000  )
         5           Ru1 tau(   5) = (   5.4229265   1.5654640  12.2139005  )
         6           Ru1 tau(   6) = (   2.7114633   1.5654640  12.2139005  )
         7           Ru1 tau(   7) = (   6.7786581   3.9136601  12.2139005  )
         8           Ru1 tau(   8) = (   4.0671949   3.9136601  12.2139005  )
         9           Ru1 tau(   9) = (   5.3923886   0.0083927  14.3461882  )
        10           Ru1 tau(  10) = (   2.7419848   0.0083563  14.3461313  )
        11           Ru1 tau(  11) = (   6.7786224   2.3520344  14.3058782  )
        12           Ru1 tau(  12) = (   4.0672073   2.3403339  14.3155560  )
        13           H1  tau(  13) = (   1.3557241   0.0310657  15.5100773  )

     number of k points=    20  Fermi-Dirac smearing, width (Ry)=  0.0110
                       cart. coord. in units 2pi/alat
        k(    1) = (   0.0000000   0.0000000   0.0000000), wk =   0.0555556
        k(    2) = (   0.0000000   0.0354882   0.0000000), wk =   0.1111111
        k(    3) = (   0.0000000   0.0709765   0.0000000), wk =   0.1111111
        k(    4) = (   0.0000000  -0.1064647   0.0000000), wk =   0.0555556
        k(    5) = (   0.0307337  -0.0177441   0.0000000), wk =   0.1111111
        k(    6) = (   0.0307337   0.0177441   0.0000000), wk =   0.1111111
        k(    7) = (   0.0307337   0.0532324   0.0000000), wk =   0.1111111
        k(    8) = (   0.0307337  -0.1242088   0.0000000), wk =   0.1111111
        k(    9) = (   0.0307337  -0.0887206   0.0000000), wk =   0.1111111
        k(   10) = (   0.0307337  -0.0532324   0.0000000), wk =   0.1111111
        k(   11) = (   0.0614674  -0.0354882   0.0000000), wk =   0.1111111
        k(   12) = (   0.0614674   0.0000000   0.0000000), wk =   0.1111111
        k(   13) = (   0.0614674   0.0354882   0.0000000), wk =   0.1111111
        k(   14) = (   0.0614674  -0.1419529   0.0000000), wk =   0.1111111
        k(   15) = (   0.0614674  -0.1064647   0.0000000), wk =   0.1111111
        k(   16) = (   0.0614674  -0.0709765   0.0000000), wk =   0.1111111
        k(   17) = (  -0.0922011   0.0532324   0.0000000), wk =   0.0555556
        k(   18) = (  -0.0922011   0.0887206   0.0000000), wk =   0.1111111
        k(   19) = (  -0.0922011   0.1242088   0.0000000), wk =   0.1111111
        k(   20) = (  -0.0922011  -0.0532324   0.0000000), wk =   0.0555556

     Largest allocated arrays     est. size (Mb)     dimensions
     Largest temporary arrays     est. size (Mb)     dimensions

     Initial potential from superposition of free atoms
     Check: negative starting charge=   -0.879320

     starting charge  180.99980, renormalised to  193.00000

[...]

     *
     * You are using vdW-DF for exchange-correlation in this calculation.
     * Please cite the following three references that made this development
     * possible:
     *
     *   M. Dion, H. Rydberg, E. Schroder, D. C. Langreth, and
     *   B. I. Lundqvist, Phys. Rev. Lett. 92, 246401 (2004).
     *
     *   T. Thonhauser, V. R. Cooper, S. Li, A. Puzder, P. Hyldgaard, and
     *   D. C. Langreth, Phys. Rev. B 76, 125112 (2007).
     *
     *   G. Roman-Perez and J. M. Soler, Phys. Rev. Lett. 103, 096102 (2009).
     *
     *
     * If you are using vdW-DF2, please also cite:
     *
     *   K. Lee, E. D. Murray, L. Kong, B. I. Lundqvist, and
     *   D. C. Langreth, Phys. Rev. B 82, 081101(R) (2010).
     *
     *
     * If you are calculating the stress with vdW-DF, please also cite:
     *
     *   R. Sabatini, E. Kucukbenli, B. Kolb, T. Thonhauser, and
     *   S. de Gironcoli, J. Phys.: Condens. Matter 24, 424209 (2012).
     *

     Carrying out vdW-DF run using the following parameters:

     Nqs =      20    Nr_points =    1024   r_max =   100.000
     q_mesh =
               0.00001000     0.04494208     0.09755937     0.15916263
               0.23128650     0.31572767     0.41458969     0.53033537
               0.66584808     0.82450364     1.01025438     1.22772762
               1.48234092     1.78043706     2.12944203     2.53805004
               3.01644009     3.57652955     4.23227104     5.00000000

     Gradients computed in reciprocal space

[...]

     Starting wfc are  157 randomized atomic wfcs

     Self-consistent Calculation

[...]

     total energy              =   -2342.44633615 Ry
     Harris-Foulkes estimate   =   -2342.44633813 Ry
     estimated scf accuracy    <       0.00002711 Ry

     iteration # 19     ecut=    36.75 Ry     beta=0.30
     Davidson diagonalization with overlap
     ethr =  1.40E-08,  avg # of iterations =  2.5

[...]

     negative rho (up, down):  9.161E-01 0.000E+00

     Adding external electric field

     Computed dipole along edir(3) :
        Dipole                0.0039 Ry au,          0.0099 Debye
        Dipole field          0.0000 Ry au

        Potential amp.       -0.0010 Ry
        Total length         45.0078 bohr

     End of self-consistent calculation

[...]

          k = 0.0615-0.0710 0.0000 ( 15803 PWs)   bands (ev):

[...]

          k =-0.0922-0.0532 0.0000 ( 15808 PWs)   bands (ev):

   -70.9722 -70.9621 -70.9161 -70.8767 -70.5455 -70.5316 -70.4795 -70.4621
   -70.4027 -70.4011 -70.3516 -70.3488 -41.1734 -41.1628 -41.0838 -41.0811
   -41.0090 -41.0059 -40.9581 -40.9505 -40.9025 -40.8803 -40.6641 -40.6539
   -40.6517 -40.6331 -40.5512 -40.5315 -40.5166 -40.5019 -40.4346 -40.4164
   -40.4004 -40.3901 -40.3643 -40.3639 -40.3432 -40.3413 -40.2961 -40.2942
   -40.2582 -40.2575 -40.2423 -40.2393 -40.2175 -40.1996 -40.0908 -40.0904
    -3.3566  -3.0049  -2.8953  -2.4155  -2.3812  -2.3697  -2.3318  -2.0877
    -2.0681  -1.8959  -1.8465  -1.8118  -1.7568  -1.4126  -1.3794  -1.3741
    -1.3336  -0.9814  -0.9545  -0.8260  -0.7963  -0.5754  -0.5472  -0.1552
    -0.0962   0.1340   0.1844   0.2107   0.2880   0.4177   0.4308   0.5044
     0.5545   0.5780   0.6244   0.6432   0.7198   0.7375   0.7691   0.7915
     1.2903   1.3086   1.4792   1.5526   1.6496   1.6744   1.9297   1.9683
     2.0486   2.1304   2.2586   2.2788   2.4733   2.6107   2.6961   2.7340
     2.7546   2.7571

     the Fermi energy is     2.3350 ev

!    total energy              =   -2342.44633599 Ry
     Harris-Foulkes estimate   =   -2342.44633785 Ry
     estimated scf accuracy    <       0.00000245 Ry

     The total energy is the sum of the following terms:

     one-electron contribution =  -22234.86249726 Ry
     hartree contribution      =   11116.70677751 Ry
     xc contribution           =    -322.72286184 Ry
     ewald contribution        =    9098.51305801 Ry
     electric field correction =       0.00000005 Ry
     smearing contrib. (-TS)   =      -0.08081246 Ry

     convergence has been achieved in  19 iterations

 BEEF-vdW xc energy contributions
           1 :   -279.954672754305
           2 :    257.153915601261
           3 :   -217.601570170249
           4 :    171.005871842400
           5 :   -127.313762162793
           6 :    93.6880857675847
           7 :   -72.8501778983290
           8 :    63.1742543767113
           9 :   -60.2358874530216
          10 :    59.0247481510536
          11 :   -55.8943606043493
          12 :    49.5678538071143
          13 :   -41.0023290635495
          14 :    32.3941675374832
          15 :   -25.8897238421476
          16 :    22.5759522972767
          17 :   -22.1151610837002
          18 :    23.0731445649621
          19 :   -23.6987270241149
          20 :    22.7512923712885
          21 :   -19.9960508788402
          22 :    16.1777422153782
          23 :   -12.5434009546736
          24 :    10.1843385832278
          25 :   -9.52286362167717
          26 :    10.1705295978311
          27 :   -11.1892580992924
          28 :    11.5926681706483
          29 :   -10.8237101076462
          30 :    8.97985627359060
          31 :   -29.0404225546005
          32 :   -22.0510954943379

     Forces acting on atoms (Ry/au):

     negative rho (up, down):  9.161E-01 0.000E+00
     atom    1 type  1   force =     0.00001256    0.00019194    0.02613343
     atom    2 type  1   force =    -0.00001211    0.00135729    0.02226406
     atom    3 type  1   force =     0.00118296   -0.00041818    0.02753309
     atom    4 type  1   force =    -0.00118741   -0.00040455    0.02751666
     atom    5 type  1   force =    -0.00095832   -0.00104844   -0.02361079
     atom    6 type  1   force =     0.00095551   -0.00106347   -0.02360690
     atom    7 type  1   force =    -0.00000944   -0.00537888   -0.03617300
     atom    8 type  1   force =     0.00001359    0.00207865   -0.02267715
     atom    9 type  1   force =    -0.00054403    0.00079847    0.00008359
     atom   10 type  1   force =     0.00054129    0.00082245    0.00009253
     atom   11 type  1   force =     0.00002960   -0.00009782    0.00099498
     atom   12 type  1   force =    -0.00002981    0.00129173    0.00112687
     atom   13 type  2   force =     0.00000562    0.00187081    0.00032264

     Total force =     0.075387     Total SCF correction =     0.013073
     SCF correction compared to forces is large: reduce conv_thr to get better values

     entering subroutine stress ...

     negative rho (up, down):  9.161E-01 0.000E+00
          total   stress  (Ry/bohr**3)                   (kbar)     P=  -22.41
  -0.00017327  -0.00000001   0.00000001        -25.49     -0.00      0.00
  -0.00000001  -0.00017128   0.00000474         -0.00    -25.20      0.70
   0.00000001   0.00000474  -0.00011249          0.00      0.70    -16.55

 !ASE

     Writing output data file calc.save

     General routines

     Parallel routines

   This run was terminated on:  15:11:13  16Jan2018

   JOB DONE.
Job  /afs/slac/g/suncat/bin/suncat-tsmpirun -x LD_LIBRARY_PATH -wdir /scratch/qe842477_lLeQn pw.x -in pw.inp

TID   HOST_NAME   COMMAND_LINE            STATUS            TERMINATION_TIME
00000 suncat0153 pw.x -in pw.inp   Done                     01/16/2018 15:11:13
00001 suncat0153 pw.x -in pw.inp   Done                     01/16/2018 15:11:13
00002 suncat0153 pw.x -in pw.inp   Done                     01/16/2018 15:11:13
00003 suncat0153 pw.x -in pw.inp   Done                     01/16/2018 15:11:13
00004 suncat0153 pw.x -in pw.inp   Done                     01/16/2018 15:11:13
00005 suncat0153 pw.x -in pw.inp   Done                     01/16/2018 15:11:13
00006 suncat0153 pw.x -in pw.inp   Done                     01/16/2018 15:11:13
00007 suncat0153 pw.x -in pw.inp   Done                     01/16/2018 15:11:13
00008 suncat0146 pw.x -in pw.inp   Done                     01/16/2018 15:11:13
00009 suncat0146 pw.x -in pw.inp   Done                     01/16/2018 15:11:13
00010 suncat0146 pw.x -in pw.inp   Done                     01/16/2018 15:11:13
00011 suncat0146 pw.x -in pw.inp   Done                     01/16/2018 15:11:13
00012 suncat0146 pw.x -in pw.inp   Done                     01/16/2018 15:11:13
00013 suncat0146 pw.x -in pw.inp   Done                     01/16/2018 15:11:13
00014 suncat0146 pw.x -in pw.inp   Done                     01/16/2018 15:11:13
00015 suncat0146 pw.x -in pw.inp   Done                     01/16/2018 15:11:13
00016 suncat0115 pw.x -in pw.inp   Done                     01/16/2018 15:11:13
00017 suncat0115 pw.x -in pw.inp   Done                     01/16/2018 15:11:13
00018 suncat0115 pw.x -in pw.inp   Done                     01/16/2018 15:11:13
00019 suncat0115 pw.x -in pw.inp   Done                     01/16/2018 15:11:13
00020 suncat0115 pw.x -in pw.inp   Done                     01/16/2018 15:11:13
00021 suncat0115 pw.x -in pw.inp   Done                     01/16/2018 15:11:13
00022 suncat0115 pw.x -in pw.inp   Done                     01/16/2018 15:11:13
00023 suncat0115 pw.x -in pw.inp   Done                     01/16/2018 15:11:13
00024 suncat0114 pw.x -in pw.inp   Done                     01/16/2018 15:11:13
00025 suncat0114 pw.x -in pw.inp   Done                     01/16/2018 15:11:13
00026 suncat0114 pw.x -in pw.inp   Done                     01/16/2018 15:11:13
00027 suncat0114 pw.x -in pw.inp   Done                     01/16/2018 15:11:13
00028 suncat0114 pw.x -in pw.inp   Done                     01/16/2018 15:11:13
00029 suncat0114 pw.x -in pw.inp   Done                     01/16/2018 15:11:13
00030 suncat0114 pw.x -in pw.inp   Done                     01/16/2018 15:11:13
00031 suncat0114 pw.x -in pw.inp   Done                     01/16/2018 15:11:13