     Program PWSCF v.5.1rc2 (svn rev. 11289) starts on 12Jan2019 at  0:58: 6

     Current dimensions of program PWSCF are:
     Max number of different atomic species (ntypx) = 10
     Max number of k-points (npk) =  40000
     Max angular momentum in pseudopotentials (lmaxx) =  3

     IMPORTANT: XC functional enforced from input :
     Exchange-correlation      = BEEF-VDW ( 1  4 27 13 2)
     Any further DFT definition will be discarded
     Please, verify this is what you really want

     Subspace diagonalization in iterative solution of the eigenvalue problem:
     a serial algorithm will be used

     bravais-lattice index     =            0
     lattice parameter (alat)  =      12.6383  a.u.
     unit-cell volume          =    6655.4372 (a.u.)^3
     number of atoms/cell      =           13
     number of atomic types    =            2
     number of electrons       =       162.00
     number of Kohn-Sham states=           91
     kinetic-energy cutoff     =      36.7493  Ry
     charge density cutoff     =     367.4933  Ry
     convergence threshold     =      1.0E-04
     mixing beta               =       0.2000
     number of iterations used =            8  plain     mixing
     Exchange-correlation      = BEEF-VDW ( 1  4 27 13 2)
     nstep                     =           50

     celldm(1)=  12.638304  celldm(2)=   0.000000  celldm(3)=   0.000000
     celldm(4)=   0.000000  celldm(5)=   0.000000  celldm(6)=   0.000000

     crystal axes: (cart. coord. in units of alat)
               a(1) = (   1.000000   0.000000   0.000000 )
               a(2) = (   0.500000   0.866025   0.000000 )
               a(3) = (   0.000000   0.000000   3.806971 )

     reciprocal axes: (cart. coord. in units 2 pi/alat)
               b(1) = (  1.000000 -0.577350  0.000000 )
               b(2) = (  0.000000  1.154701  0.000000 )
               b(3) = (  0.000000  0.000000  0.262676 )

     PseudoPot. # 1 for Tl read from file:
     /u/if/jboes/code/decaf-espresso/gbrv15pbe/Tl.UPF
     MD5 check sum: b76cf1f7e72655a2b2c53cf6385d7059
     Pseudo is Ultrasoft + core correction, Zval = 13.0
     Generated by new atomic code, or converted to UPF format
     Using radial grid of  899 points,  6 beta functions with:
                l(1) =   0
                l(2) =   0
                l(3) =   1
                l(4) =   1
                l(5) =   2
                l(6) =   2
     Q(r) pseudized with  6 coefficients,  rinner =    1.100   1.100   1.100
                                                       1.100   1.100

     PseudoPot. # 2 for S  read from file:
     /u/if/jboes/code/decaf-espresso/gbrv15pbe/S.UPF
     MD5 check sum: 88d86576ff6df21479756cfb9bdac1df
     Pseudo is Ultrasoft + core correction, Zval =  6.0
     Generated by new atomic code, or converted to UPF format
     Using radial grid of  907 points,  6 beta functions with:
                l(1) =   0
                l(2) =   0
                l(3) =   1
                l(4) =   1
                l(5) =   2
                l(6) =   2
     Q(r) pseudized with  8 coefficients,  rinner =    1.300   1.300   1.300
                                                       1.300   1.300

     vdW kernel table read from file vdW_kernel_table
     MD5 check sum: 095c7af220d748ca6e76c0b4c6cfb241

     atomic species   valence    mass     pseudopotential
        Tl            13.00   204.38000     Tl( 1.00)
        S              6.00    32.06000     S ( 1.00)

     No symmetry found

   Cartesian axes

     site n.     atom                  positions (alat units)
         1           Tl  tau(   1) = (   0.2500000   0.1443376   1.4952371  )
         2           Tl  tau(   2) = (   0.7500000   0.1443376   1.4952371  )
         3           Tl  tau(   3) = (   0.5000000   0.5773503   1.4952371  )
         4           Tl  tau(   4) = (   1.0000000   0.5773503   1.4952371  )
         5           Tl  tau(   5) = (   1.0000000   0.2886751   1.9034854  )
         6           Tl  tau(   6) = (   0.5000000   0.2886751   1.9034854  )
         7           Tl  tau(   7) = (   1.2500000   0.7216878   1.9034854  )
         8           Tl  tau(   8) = (   0.7500000   0.7216878   1.9034854  )
         9           Tl  tau(   9) = (  -0.0108091   0.0121022   2.3623147  )
        10           Tl  tau(  10) = (   0.5107976   0.0121166   2.3623100  )
        11           Tl  tau(  11) = (   0.2500071   0.4482591   2.7239045  )
        12           Tl  tau(  12) = (   0.7499945   0.4641790   2.6416601  )
        13           S   tau(  13) = (   0.2499962   0.0287929   2.6985003  )

     number of k points=    20  Fermi-Dirac smearing, width (Ry)=  0.0110
                       cart. coord. in units 2pi/alat
        k(    1) = (   0.0000000   0.0000000   0.0000000), wk =   0.0555556
        k(    2) = (   0.0000000   0.1924501   0.0000000), wk =   0.1111111
        k(    3) = (   0.0000000   0.3849002   0.0000000), wk =   0.1111111
        k(    4) = (   0.0000000  -0.5773503   0.0000000), wk =   0.0555556
        k(    5) = (   0.1666667  -0.0962250   0.0000000), wk =   0.1111111
        k(    6) = (   0.1666667   0.0962250   0.0000000), wk =   0.1111111
        k(    7) = (   0.1666667   0.2886751   0.0000000), wk =   0.1111111
        k(    8) = (   0.1666667  -0.6735753   0.0000000), wk =   0.1111111
        k(    9) = (   0.1666667  -0.4811252   0.0000000), wk =   0.1111111
        k(   10) = (   0.1666667  -0.2886751   0.0000000), wk =   0.1111111
        k(   11) = (   0.3333333  -0.1924501   0.0000000), wk =   0.1111111
        k(   12) = (   0.3333333  -0.0000000   0.0000000), wk =   0.1111111
        k(   13) = (   0.3333333   0.1924501   0.0000000), wk =   0.1111111
        k(   14) = (   0.3333333  -0.7698004   0.0000000), wk =   0.1111111
        k(   15) = (   0.3333333  -0.5773503   0.0000000), wk =   0.1111111
        k(   16) = (   0.3333333  -0.3849002   0.0000000), wk =   0.1111111
        k(   17) = (  -0.5000000   0.2886751   0.0000000), wk =   0.0555556
        k(   18) = (  -0.5000000   0.4811252   0.0000000), wk =   0.1111111
        k(   19) = (  -0.5000000   0.6735753   0.0000000), wk =   0.1111111
        k(   20) = (  -0.5000000  -0.2886751   0.0000000), wk =   0.0555556

     Largest allocated arrays     est. size (Mb)     dimensions
     Largest temporary arrays     est. size (Mb)     dimensions

     Check: negative/imaginary core charge=   -0.000002    0.000000

     Initial potential from superposition of free atoms
     Check: negative starting charge=   -0.599530

     starting charge  161.94157, renormalised to  162.00000

     negative rho (up, down):  5.997E-01 0.000E+00

     *
     * You are using vdW-DF for exchange-correlation in this calculation.
     * Please cite the following three references that made this development
     * possible:
     *
     *   M. Dion, H. Rydberg, E. Schroder, D. C. Langreth, and
     *   B. I. Lundqvist, Phys. Rev. Lett. 92, 246401 (2004).
     *
     *   T. Thonhauser, V. R. Cooper, S. Li, A. Puzder, P. Hyldgaard, and
     *   D. C. Langreth, Phys. Rev. B 76, 125112 (2007).
     *
     *   G. Roman-Perez and J. M. Soler, Phys. Rev. Lett. 103, 096102 (2009).
     *
     *
     * If you are using vdW-DF2, please also cite:
     *
     *   K. Lee, E. D. Murray, L. Kong, B. I. Lundqvist, and
     *   D. C. Langreth, Phys. Rev. B 82, 081101(R) (2010).
     *
     *
     * If you are calculating the stress with vdW-DF, please also cite:
     *
     *   R. Sabatini, E. Kucukbenli, B. Kolb, T. Thonhauser, and
     *   S. de Gironcoli, J. Phys.: Condens. Matter 24, 424209 (2012).
     *

     Carrying out vdW-DF run using the following parameters:

     Nqs =      20    Nr_points =    1024   r_max =   100.000
     q_mesh =
               0.00001000     0.04494208     0.09755937     0.15916263
               0.23128650     0.31572767     0.41458969     0.53033537
               0.66584808     0.82450364     1.01025438     1.22772762
               1.48234092     1.78043706     2.12944203     2.53805004
               3.01644009     3.57652955     4.23227104     5.00000000

     Gradients computed in reciprocal space

     Adding external electric field

     Computed dipole along edir(3) :
        Dipole               -0.0195 Ry au,         -0.0495 Debye
        Dipole field         -0.0000 Ry au

        Potential amp.        0.0032 Ry
        Total length         43.3023 bohr

     Starting wfc are  112 randomized atomic wfcs

     Self-consistent Calculation

     iteration #  1     ecut=    36.75 Ry     beta=0.20
     Davidson diagonalization with overlap
     ethr =  1.00E-02,  avg # of iterations =  2.0

     Threshold (ethr) on eigenvalues was too large:
     Diagonalizing with lowered threshold

     Davidson diagonalization with overlap
     ethr =  3.34E-04,  avg # of iterations =  3.5

[...]

     total energy              =   -1785.93671649 Ry
     Harris-Foulkes estimate   =   -1786.10909307 Ry
     estimated scf accuracy    <       0.56299899 Ry

[...]

     End of self-consistent calculation

          k = 0.0000 0.0000 0.0000 ( 24957 PWs)   bands (ev):

   -11.3900 -11.0376 -11.0362 -11.0350 -10.9163 -10.9060 -10.8987 -10.8905
   -10.8790 -10.8779 -10.8730 -10.8197 -10.7932 -10.7777 -10.7200 -10.7152
   -10.7125 -10.6874 -10.6870 -10.6788 -10.6661 -10.6653 -10.6314 -10.6238
   -10.6089 -10.5874 -10.5850 -10.5810 -10.5780 -10.5615 -10.5231 -10.5089
   -10.4450 -10.4384 -10.4288 -10.4238 -10.4146 -10.4074 -10.4001 -10.3565
   -10.3293 -10.3181 -10.3069 -10.2910 -10.2888 -10.2729 -10.2539 -10.2513
   -10.2372 -10.2321 -10.2244 -10.2159 -10.1963 -10.1353 -10.1270 -10.1240
   -10.1211 -10.0939 -10.0925 -10.0844  -9.9188  -8.4437  -6.3121  -5.3930
    -4.6865  -3.8642  -3.8614  -3.8424  -3.7867  -3.5922  -2.9888  -2.9752
    -2.8434  -1.2020  -0.9088  -0.7089  -0.7033  -0.6165  -0.4012  -0.1843
     0.1752   0.2211   0.5067   0.6395   1.5378   2.0003   2.5399   3.2125
     3.4219   3.7787   3.9109

[...]

          k =-0.5000 0.2887 0.0000 ( 25090 PWs)   bands (ev):

[...]

     the Fermi energy is     1.3667 ev

!    total energy              =   -1786.01300504 Ry
     Harris-Foulkes estimate   =   -1786.01290303 Ry
     estimated scf accuracy    <       0.00004420 Ry

     The total energy is the sum of the following terms:

     one-electron contribution =   -7110.93039312 Ry
     hartree contribution      =    3641.20946434 Ry
     xc contribution           =    -776.86765692 Ry
     ewald contribution        =    2460.61586534 Ry
     electric field correction =       0.00002904 Ry
     smearing contrib. (-TS)   =      -0.04031371 Ry

     convergence has been achieved in   9 iterations

     Forces acting on atoms (Ry/au):

     negative rho (up, down):  6.244E-01 0.000E+00
     atom    1 type  1   force =     0.00000959   -0.00109398   -0.02460196
     atom    2 type  1   force =     0.00000808   -0.00051321   -0.02539839
     atom    3 type  1   force =     0.00017089    0.00061806   -0.02502783
     atom    4 type  1   force =    -0.00018386    0.00058759   -0.02500830
     atom    5 type  1   force =     0.00114616    0.00504874    0.02522340
     atom    6 type  1   force =    -0.00114631    0.00505474    0.02522453
     atom    7 type  1   force =     0.00000915   -0.00799052    0.01346507
     atom    8 type  1   force =    -0.00000103   -0.00332636    0.02540560
     atom    9 type  1   force =     0.00137060    0.00098036   -0.00125294
     atom   10 type  1   force =    -0.00139654    0.00096718   -0.00125812
     atom   11 type  1   force =    -0.00000637    0.00507090    0.00388917
     atom   12 type  1   force =     0.00000896   -0.00338838    0.00457348
     atom   13 type  2   force =     0.00001069   -0.00201514    0.00476628

     Total force =     0.010435     Total SCF correction =     0.017126
     SCF correction compared to forces is large: reduce conv_thr to get better values

     BFGS Geometry Optimization

     number of scf cycles    =   1
     number of bfgs steps    =   0

     energy   new            =   -1786.0130050395 Ry

     new trust radius        =       0.0063905982 bohr
     new conv_thr            =       0.0001000000 Ry

ATOMIC_POSITIONS (angstrom)
Tl       1.671975640   0.965315586  10.000000000    0   0   0
Tl       5.015926920   0.965315586  10.000000000    0   0   0
Tl       3.343951280   3.861262344  10.000000000    0   0   0
Tl       6.687902560   3.861262344  10.000000000    0   0   0
Tl       6.687902560   1.930631172  12.730324787    0   0   0
Tl       3.343951280   1.930631172  12.730324787    0   0   0
Tl       8.359878201   4.826577929  12.730324787    0   0   0
Tl       5.015926920   4.826577929  12.730324787    0   0   0
Tl      -0.071564958   0.081457229  15.798267441
Tl       3.415425457   0.081546546  15.798233285
Tl       1.672020063   3.000596259  18.219266002
Tl       5.015894643   3.102591062  17.669585238
S        1.671955573   0.191498033  18.049829149

     Writing output data file calc.save
     Check: negative starting charge=   -0.599530
     NEW-OLD atomic charge density approx. for the potential

     Check: negative/imaginary core charge=   -0.000002    0.000000
     Check: negative starting charge=   -0.599413

[...]

     number of scf cycles    =   2
     number of bfgs steps    =   1

     energy   old            =   -1786.0130050395 Ry
     energy   new            =   -1786.0130526101 Ry

     CASE: energy  _new < energy  _old

     new trust radius        =       0.0037396724 bohr
     new conv_thr            =       0.0000010000 Ry

ATOMIC_POSITIONS (angstrom)
Tl       1.671975640   0.965315586  10.000000000    0   0   0
Tl       5.015926920   0.965315586  10.000000000    0   0   0
Tl       3.343951280   3.861262344  10.000000000    0   0   0
Tl       6.687902560   3.861262344  10.000000000    0   0   0
Tl       6.687902560   1.930631172  12.730324787    0   0   0
Tl       3.343951280   1.930631172  12.730324787    0   0   0
Tl       8.359878201   4.826577930  12.730324787    0   0   0
Tl       5.015926920   4.826577930  12.730324787    0   0   0
Tl      -0.070147506   0.082365774  15.799305031
Tl       3.414012619   0.082460568  15.799274771
Tl       1.672013079   3.000643950  18.220184845
Tl       5.015897835   3.102978744  17.671312309
S        1.671955294   0.190210296  18.049838628

     Writing output data file calc.save
     Check: negative starting charge=   -0.599413
     NEW-OLD atomic charge density approx. for the potential

     Check: negative/imaginary core charge=   -0.000002    0.000000
     Check: negative starting charge=   -0.599498

[...]

     Self-consistent Calculation

[...]

     total energy              =   -1786.01307961 Ry
     Harris-Foulkes estimate   =   -1786.01307966 Ry
     estimated scf accuracy    <       0.00000131 Ry

     iteration #  5     ecut=    36.75 Ry     beta=0.20
     Davidson diagonalization with overlap
     ethr =  8.10E-10,  avg # of iterations =  2.8

     negative rho (up, down):  6.247E-01 0.000E+00

     Adding external electric field

     Computed dipole along edir(3) :
        Dipole               -0.0661 Ry au,         -0.1679 Debye
        Dipole field         -0.0001 Ry au

        Potential amp.        0.0108 Ry
        Total length         43.3023 bohr

     End of self-consistent calculation

[...]

          k = 0.3333-0.3849 0.0000 ( 25036 PWs)   bands (ev):

[...]

          k =-0.5000-0.2887 0.0000 ( 25090 PWs)   bands (ev):

   -11.3513 -10.9149 -10.9070 -10.8114 -10.8087 -10.7999 -10.7981 -10.7904
   -10.7835 -10.7420 -10.7417 -10.7112 -10.7090 -10.6857 -10.6812 -10.6577
   -10.6517 -10.6204 -10.6144 -10.6135 -10.6091 -10.6041 -10.5975 -10.5869
   -10.5656 -10.5529 -10.5453 -10.5331 -10.5296 -10.5174 -10.5102 -10.5053
   -10.4946 -10.4914 -10.4828 -10.4718 -10.4530 -10.4393 -10.4384 -10.4298
   -10.4261 -10.4237 -10.4201 -10.4106 -10.3974 -10.3833 -10.3816 -10.3743
   -10.3568 -10.3522 -10.3493 -10.3459 -10.3236 -10.3124 -10.2498 -10.2431
   -10.2337 -10.2287 -10.1492 -10.1424  -9.8278  -7.1581  -7.1372  -5.6121
    -5.2007  -4.9557  -4.6220  -4.6160  -4.4224  -4.3073  -4.0317  -2.8419
    -2.8349  -0.9758  -0.4154  -0.3297   0.9468   1.0077   1.1294   1.2074
     1.6491   1.7109   1.8500   1.9416   2.8523   2.9720   3.1759   3.3346
     3.5167   3.7608   3.8539

     the Fermi energy is     1.3651 ev

!    total energy              =   -1786.01308005 Ry
     Harris-Foulkes estimate   =   -1786.01307976 Ry
     estimated scf accuracy    <       0.00000019 Ry

     The total energy is the sum of the following terms:

     one-electron contribution =   -7108.30123300 Ry
     hartree contribution      =    3639.92676311 Ry
     xc contribution           =    -776.87453822 Ry
     ewald contribution        =    2459.27623666 Ry
     electric field correction =       0.00000824 Ry
     smearing contrib. (-TS)   =      -0.04031683 Ry

     convergence has been achieved in   5 iterations

     Forces acting on atoms (Ry/au):

     negative rho (up, down):  6.247E-01 0.000E+00
     atom    1 type  1   force =    -0.00000002   -0.00102651   -0.02245705
     atom    2 type  1   force =    -0.00000015   -0.00020725   -0.02335740
     atom    3 type  1   force =     0.00042151    0.00043843   -0.02298280
     atom    4 type  1   force =    -0.00042199    0.00043475   -0.02297924
     atom    5 type  1   force =     0.00032123    0.00428926    0.02589102
     atom    6 type  1   force =    -0.00031895    0.00429377    0.02589268
     atom    7 type  1   force =     0.00000004   -0.00647143    0.01568637
     atom    8 type  1   force =    -0.00000056   -0.00318965    0.02442238
     atom    9 type  1   force =     0.00068989    0.00140284    0.00017073
     atom   10 type  1   force =    -0.00069349    0.00139796    0.00016870
     atom   11 type  1   force =    -0.00000257    0.00088759   -0.00123917
     atom   12 type  1   force =     0.00000436   -0.00058855    0.00136616
     atom   13 type  2   force =     0.00000071   -0.00166120   -0.00058238

     Total force =     0.003546     Total SCF correction =     0.001450
     SCF correction compared to forces is large: reduce conv_thr to get better values

     bfgs converged in   3 scf cycles and   2 bfgs steps
     (criteria: energy <  1.0E+12, force <  1.9E-03)

     End of BFGS Geometry Optimization

     Final energy   =   -1786.0130800503 Ry
Begin final coordinates

ATOMIC_POSITIONS (angstrom)
Tl       1.671975640   0.965315586  10.000000000    0   0   0
Tl       5.015926920   0.965315586  10.000000000    0   0   0
Tl       3.343951280   3.861262344  10.000000000    0   0   0
Tl       6.687902560   3.861262344  10.000000000    0   0   0
Tl       6.687902560   1.930631172  12.730324787    0   0   0
Tl       3.343951280   1.930631172  12.730324787    0   0   0
Tl       8.359878201   4.826577930  12.730324787    0   0   0
Tl       5.015926920   4.826577930  12.730324787    0   0   0
Tl      -0.070147506   0.082365774  15.799305031
Tl       3.414012619   0.082460568  15.799274771
Tl       1.672013079   3.000643950  18.220184845
Tl       5.015897835   3.102978744  17.671312309
S        1.671955294   0.190210296  18.049838628
End final coordinates

     Writing output data file calc.save

     General routines

     Parallel routines

   This run was terminated on:   1: 8:35  12Jan2019

   JOB DONE.
Job  /afs/slac/g/suncat/bin/suncat-tsmpirun -x LD_LIBRARY_PATH -wdir /tmp/qe_759309z_k_vk5d_scratch pw.x -npool 3 -in pw.pwi

TID   HOST_NAME   COMMAND_LINE            STATUS            TERMINATION_TIME
00000 suncat1046 pw.x -npool 3 -i  Done                     01/12/2019 01:08:35
00001 suncat1046 pw.x -npool 3 -i  Done                     01/12/2019 01:08:35
00002 suncat1046 pw.x -npool 3 -i  Done                     01/12/2019 01:08:35
00003 suncat1046 pw.x -npool 3 -i  Done                     01/12/2019 01:08:35
00004 suncat1046 pw.x -npool 3 -i  Done                     01/12/2019 01:08:35
00005 suncat1046 pw.x -npool 3 -i  Done                     01/12/2019 01:08:35
00006 suncat1046 pw.x -npool 3 -i  Done                     01/12/2019 01:08:35
00007 suncat1046 pw.x -npool 3 -i  Done                     01/12/2019 01:08:35
00008 suncat1046 pw.x -npool 3 -i  Done                     01/12/2019 01:08:35
00009 suncat1046 pw.x -npool 3 -i  Done                     01/12/2019 01:08:35
00010 suncat1046 pw.x -npool 3 -i  Done                     01/12/2019 01:08:35
00011 suncat1046 pw.x -npool 3 -i  Done                     01/12/2019 01:08:35
00012 suncat1045 pw.x -npool 3 -i  Done                     01/12/2019 01:08:35
00013 suncat1045 pw.x -npool 3 -i  Done                     01/12/2019 01:08:35
00014 suncat1045 pw.x -npool 3 -i  Done                     01/12/2019 01:08:35
00015 suncat1045 pw.x -npool 3 -i  Done                     01/12/2019 01:08:35
00016 suncat1045 pw.x -npool 3 -i  Done                     01/12/2019 01:08:35
00017 suncat1045 pw.x -npool 3 -i  Done                     01/12/2019 01:08:35
00018 suncat1045 pw.x -npool 3 -i  Done                     01/12/2019 01:08:35
00019 suncat1045 pw.x -npool 3 -i  Done                     01/12/2019 01:08:35
00020 suncat1045 pw.x -npool 3 -i  Done                     01/12/2019 01:08:35
00021 suncat1045 pw.x -npool 3 -i  Done                     01/12/2019 01:08:35
00022 suncat1045 pw.x -npool 3 -i  Done                     01/12/2019 01:08:35
00023 suncat1045 pw.x -npool 3 -i  Done                     01/12/2019 01:08:35
00024 suncat1036 pw.x -npool 3 -i  Done                     01/12/2019 01:08:35
00025 suncat1036 pw.x -npool 3 -i  Done                     01/12/2019 01:08:35
00026 suncat1036 pw.x -npool 3 -i  Done                     01/12/2019 01:08:35
00027 suncat1036 pw.x -npool 3 -i  Done                     01/12/2019 01:08:35
00028 suncat1036 pw.x -npool 3 -i  Done                     01/12/2019 01:08:35
00029 suncat1036 pw.x -npool 3 -i  Done                     01/12/2019 01:08:35
00030 suncat1036 pw.x -npool 3 -i  Done                     01/12/2019 01:08:35
00031 suncat1036 pw.x -npool 3 -i  Done                     01/12/2019 01:08:35
00032 suncat1036 pw.x -npool 3 -i  Done                     01/12/2019 01:08:35
00033 suncat1036 pw.x -npool 3 -i  Done                     01/12/2019 01:08:35
00034 suncat1036 pw.x -npool 3 -i  Done                     01/12/2019 01:08:35
00035 suncat1036 pw.x -npool 3 -i  Done                     01/12/2019 01:08:35