     Program PWSCF v.5.1rc2 (svn rev. 11289) starts on  3May2018 at 14:34:25

     Current dimensions of program PWSCF are:
     Max number of different atomic species (ntypx) = 10
     Max number of k-points (npk) =  40000
     Max angular momentum in pseudopotentials (lmaxx) =  3
     Presently stress not available with electric field

     IMPORTANT: XC functional enforced from input :
     Exchange-correlation      = BEEF-VDW ( 1  4 27 13 2)
     Any further DFT definition will be discarded
     Please, verify this is what you really want

     Subspace diagonalization in iterative solution of the eigenvalue problem:
     a serial algorithm will be used

     bravais-lattice index     =            0
     lattice parameter (alat)  =       1.8897  a.u.
     unit-cell volume          =    6024.3322 (a.u.)^3
     number of atoms/cell      =           13
     number of atomic types    =            2
     number of electrons       =       149.00
     number of Kohn-Sham states=           84
     kinetic-energy cutoff     =      36.7493  Ry
     charge density cutoff     =     367.4932  Ry
     convergence threshold     =      1.0E-05
     mixing beta               =       0.3000
     number of iterations used =           10  plain     mixing
     Exchange-correlation      = BEEF-VDW ( 1  4 27 13 2)
     nstep                     =           50

     celldm(1)=   1.889726  celldm(2)=   0.000000  celldm(3)=   0.000000
     celldm(4)=   0.000000  celldm(5)=   0.000000  celldm(6)=   0.000000

     crystal axes: (cart. coord. in units of alat)
               a(1) = (   6.393197   0.000000   0.000000 )
               a(2) = (   3.196599   5.536671   0.000000 )
               a(3) = (   0.000000   0.000000  25.220024 )

     reciprocal axes: (cart. coord. in units 2 pi/alat)
               b(1) = (  0.156416 -0.090307  0.000000 )
               b(2) = (  0.000000  0.180614  0.000000 )
               b(3) = (  0.000000  0.000000  0.039651 )

     PseudoPot. # 1 for Hf read from file:
     /u/if/mamunm/psp/gbrv1.5pbe/Hf.UPF
     MD5 check sum: 8ee9378dfe14276e333edf04c5e4aa26
     Pseudo is Ultrasoft + core correction, Zval = 12.0
     Generated by new atomic code, or converted to UPF format
     Using radial grid of  921 points,  8 beta functions with:
                l(1) =   0
                l(2) =   0
                l(3) =   0
                l(4) =   1
                l(5) =   1
                l(6) =   2
                l(7) =   2
                l(8) =   3
     Q(r) pseudized with  6 coefficients,  rinner =    1.200   1.200   1.200
                                                       1.200   1.200   1.200
                                                       1.200

     PseudoPot. # 2 for N  read from file:
     /u/if/mamunm/psp/gbrv1.5pbe/N.UPF
     MD5 check sum: 95339753478d7afb44899504a8723017
     Pseudo is Ultrasoft + core correction, Zval =  5.0
     Generated by new atomic code, or converted to UPF format
     Using radial grid of  729 points,  4 beta functions with:
                l(1) =   0
                l(2) =   0
                l(3) =   1
                l(4) =   1
     Q(r) pseudized with  8 coefficients,  rinner =    0.900   0.900   0.900

     vdW kernel table read from file vdW_kernel_table
     MD5 check sum: 095c7af220d748ca6e76c0b4c6cfb241

     atomic species   valence    mass     pseudopotential
        Hf1           12.00   178.49000     Hf( 1.00)
        N1             5.00    14.00700     N ( 1.00)

     No symmetry found

   Cartesian axes

     site n.     atom                  positions (alat units)
         1           Hf1 tau(   1) = (   1.5982993   0.9227785  10.0000000  )
         2           Hf1 tau(   2) = (   4.7948978   0.9227785  10.0000000  )
         3           Hf1 tau(   3) = (   3.1965986   3.6911141  10.0000000  )
         4           Hf1 tau(   4) = (   6.3931971   3.6911141  10.0000000  )
         5           Hf1 tau(   5) = (   6.3931971   1.8455570  12.6100118  )
         6           Hf1 tau(   6) = (   3.1965986   1.8455570  12.6100118  )
         7           Hf1 tau(   7) = (   7.9914964   4.6138926  12.6100118  )
         8           Hf1 tau(   8) = (   4.7948978   4.6138926  12.6100118  )
         9           Hf1 tau(   9) = (   0.0000000   0.0000000  15.2200236  )
        10           Hf1 tau(  10) = (   3.1965986   0.0000000  15.2200236  )
        11           Hf1 tau(  11) = (   1.5982993   2.7683356  15.2200236  )
        12           Hf1 tau(  12) = (   4.7948978   2.7683356  15.2200236  )
        13           N1  tau(  13) = (   1.5982993   0.9227785  16.8190236  )

     number of k points=    20  Fermi-Dirac smearing, width (Ry)=  0.0110
                       cart. coord. in units 2pi/alat
        k(    1) = (   0.0000000   0.0000000   0.0000000), wk =   0.0555556
        k(    2) = (   0.0000000   0.0301023   0.0000000), wk =   0.1111111
        k(    3) = (   0.0000000   0.0602046   0.0000000), wk =   0.1111111
        k(    4) = (   0.0000000  -0.0903070   0.0000000), wk =   0.0555556
        k(    5) = (   0.0260694  -0.0150512   0.0000000), wk =   0.1111111
        k(    6) = (   0.0260694   0.0150512   0.0000000), wk =   0.1111111
        k(    7) = (   0.0260694   0.0451535   0.0000000), wk =   0.1111111
        k(    8) = (   0.0260694  -0.1053581   0.0000000), wk =   0.1111111
        k(    9) = (   0.0260694  -0.0752558   0.0000000), wk =   0.1111111
        k(   10) = (   0.0260694  -0.0451535   0.0000000), wk =   0.1111111
        k(   11) = (   0.0521388  -0.0301023   0.0000000), wk =   0.1111111
        k(   12) = (   0.0521388   0.0000000   0.0000000), wk =   0.1111111
        k(   13) = (   0.0521388   0.0301023   0.0000000), wk =   0.1111111
        k(   14) = (   0.0521388  -0.1204093   0.0000000), wk =   0.1111111
        k(   15) = (   0.0521388  -0.0903070   0.0000000), wk =   0.1111111
        k(   16) = (   0.0521388  -0.0602046   0.0000000), wk =   0.1111111
        k(   17) = (  -0.0782081   0.0451535   0.0000000), wk =   0.0555556
        k(   18) = (  -0.0782081   0.0752558   0.0000000), wk =   0.1111111
        k(   19) = (  -0.0782081   0.1053581   0.0000000), wk =   0.1111111
        k(   20) = (  -0.0782081  -0.0451535   0.0000000), wk =   0.0555556

     Largest allocated arrays     est. size (Mb)     dimensions
     Largest temporary arrays     est. size (Mb)     dimensions

     Check: negative/imaginary core charge=   -0.000003    0.000000

     Initial potential from superposition of free atoms
     Check: negative starting charge=   -1.301381

     starting charge  124.99997, renormalised to  149.00000

     negative rho (up, down):  1.551E+00 0.000E+00

     *
     * You are using vdW-DF for exchange-correlation in this calculation.
     * Please cite the following three references that made this development
     * possible:
     *
     *   M. Dion, H. Rydberg, E. Schroder, D. C. Langreth, and
     *   B. I. Lundqvist, Phys. Rev. Lett. 92, 246401 (2004).
     *
     *   T. Thonhauser, V. R. Cooper, S. Li, A. Puzder, P. Hyldgaard, and
     *   D. C. Langreth, Phys. Rev. B 76, 125112 (2007).
     *
     *   G. Roman-Perez and J. M. Soler, Phys. Rev. Lett. 103, 096102 (2009).
     *
     *
     * If you are using vdW-DF2, please also cite:
     *
     *   K. Lee, E. D. Murray, L. Kong, B. I. Lundqvist, and
     *   D. C. Langreth, Phys. Rev. B 82, 081101(R) (2010).
     *
     *
     * If you are calculating the stress with vdW-DF, please also cite:
     *
     *   R. Sabatini, E. Kucukbenli, B. Kolb, T. Thonhauser, and
     *   S. de Gironcoli, J. Phys.: Condens. Matter 24, 424209 (2012).
     *

     Carrying out vdW-DF run using the following parameters:

     Nqs =      20    Nr_points =    1024   r_max =   100.000
     q_mesh =
               0.00001000     0.04494208     0.09755937     0.15916263
               0.23128650     0.31572767     0.41458969     0.53033537
               0.66584808     0.82450364     1.01025438     1.22772762
               1.48234092     1.78043706     2.12944203     2.53805004
               3.01644009     3.57652955     4.23227104     5.00000000

     Gradients computed in reciprocal space

     Adding external electric field

     Computed dipole along edir(3) :
        Dipole               -7.6357 Ry au,        -19.4079 Debye
        Dipole field         -0.0159 Ry au

        Potential amp.        1.4802 Ry
        Total length         46.4675 bohr

     Starting wfc are  160 randomized atomic wfcs

     Self-consistent Calculation

     iteration #  1     ecut=    36.75 Ry     beta=0.30
     Davidson diagonalization with overlap
     ethr =  1.00E-02,  avg # of iterations =  9.3

[...]

     total energy              =   -1318.01980256 Ry
     Harris-Foulkes estimate   =   -1933.34988746 Ry
     estimated scf accuracy    <    1324.81532621 Ry

     iteration #  2     ecut=    36.75 Ry     beta=0.30
     Davidson diagonalization with overlap
     c_bands:  4 eigenvalues not converged
     c_bands:  4 eigenvalues not converged
     ethr =  1.00E-02,  avg # of iterations = 20.9

[...]

     End of self-consistent calculation

          k = 0.0000 0.0000 0.0000 ( 22729 PWs)   bands (ev):

   -61.7146 -61.5974 -61.5643 -61.5640 -61.5609 -61.4869 -61.4624 -61.4619
   -61.1583 -61.1301 -61.1296 -61.0898 -30.3699 -30.3697 -30.3557 -30.3469
   -30.3378 -30.3376 -30.2477 -30.2161 -30.1618 -30.1615 -30.1438 -30.0616
   -30.0445 -30.0442 -29.9352 -29.9352 -29.9351 -29.9168 -29.9166 -29.8701
   -29.8660 -29.8360 -29.8358 -29.8071 -29.8071 -29.6920 -29.6917 -29.6206
   -29.6110 -29.6106 -29.5555 -29.5206 -29.5107 -29.5104 -29.3906 -29.3906
   -11.0160  -5.4009  -4.0311  -2.7955  -2.0510  -2.0509  -1.9632  -1.8049
    -1.8048  -1.7411  -1.4553  -1.4553  -1.4135  -0.7318  -0.6766  -0.6766
    -0.2708  -0.2707  -0.0760   0.3515   0.3516   0.7950   1.0601   1.3263
     1.4740   1.5177   1.5178   1.5739   1.6117   1.6118   1.8768   2.1690
     2.1691   2.2912   2.3456   2.3868

[...]

          k =-0.0782 0.0452 0.0000 ( 22668 PWs)   bands (ev):

[...]

     the Fermi energy is     1.0387 ev

!    total energy              =   -1946.97431332 Ry
     Harris-Foulkes estimate   =   -1946.97433931 Ry
     estimated scf accuracy    <       0.00000914 Ry

     The total energy is the sum of the following terms:

     one-electron contribution =   -8554.32138366 Ry
     hartree contribution      =    4260.74205664 Ry
     xc contribution           =    -933.02844765 Ry
     ewald contribution        =    3279.74524967 Ry
     electric field correction =       0.00024232 Ry
     smearing contrib. (-TS)   =      -0.11203064 Ry

     convergence has been achieved in  37 iterations

 BEEF-vdW xc energy contributions
           1 :   -843.521947595620
           2 :    783.831541318391
           3 :   -678.112510742096
           4 :    548.283202679145
           5 :   -416.962115385150
           6 :    301.118208619632
           7 :   -209.336542035204
           8 :    142.769826362063
           9 :   -98.1886019376429
          10 :    70.9404814732439
          11 :   -56.5030685471661
          12 :    50.5860879477136
          13 :   -48.7395375831537
          14 :    46.4311600406671
          15 :   -39.9442773087731
          16 :    27.6059708724390
          17 :   -10.5051859508660
          18 :   -7.91734292385649
          19 :    23.3235728377870
          20 :   -32.2897009930493
          21 :    33.5767967731040
          22 :   -28.3269692535491
          23 :    19.2611000340330
          24 :   -9.46933182927614
          25 :    1.44716830361426
          26 :    3.28115039011163
          27 :   -4.07256530044265
          28 :   0.964544365182178
          29 :    5.36504139980298
          30 :   -13.5140815069608
          31 :   -60.7486261602680
          32 :   -43.6592029669797

     Forces acting on atoms (Ry/au):

     negative rho (up, down):  1.381E+00 0.000E+00
     atom    1 type  1   force =     0.00002863    0.00000011    0.02342429
     atom    2 type  1   force =    -0.00004178    0.00152532    0.02570375
     atom    3 type  1   force =     0.00130951   -0.00077434    0.02581498
     atom    4 type  1   force =    -0.00130758   -0.00073549    0.02567595
     atom    5 type  1   force =    -0.00319029    0.00188638   -0.00464958
     atom    6 type  1   force =     0.00319771    0.00185421   -0.00461654
     atom    7 type  1   force =    -0.00002554   -0.00003788   -0.01670588
     atom    8 type  1   force =     0.00001324   -0.00372127   -0.00464089
     atom    9 type  1   force =     0.04998614    0.02885433    0.05500972
     atom   10 type  1   force =    -0.04999817    0.02886329    0.05492286
     atom   11 type  1   force =     0.00000717   -0.05773617    0.05494252
     atom   12 type  1   force =     0.00000946    0.00002205   -0.03084819
     atom   13 type  2   force =     0.00001150   -0.00000054   -0.20403298

     Total force =     0.248274     Total SCF correction =     0.005458

     entering subroutine stress ...

     negative rho (up, down):  1.381E+00 0.000E+00
          total   stress  (Ry/bohr**3)                   (kbar)     P=  -30.57
  -0.00017891  -0.00000001   0.00000002        -26.32     -0.00      0.00
  -0.00000001  -0.00017891   0.00000001         -0.00    -26.32      0.00
   0.00000002   0.00000001  -0.00026564          0.00      0.00    -39.08

     BFGS Geometry Optimization

     number of scf cycles    =   1
     number of bfgs steps    =   0

     energy   new            =   -1946.9743133171 Ry

     new trust radius        =       0.2040329812 bohr
     new conv_thr            =       0.0000099958 Ry

ATOMIC_POSITIONS (crystal)
Hf1      0.166666667   0.166666667   0.396510335    0   0   0
Hf1      0.666666667   0.166666667   0.396510335    0   0   0
Hf1      0.166666667   0.666666667   0.396510335    0   0   0
Hf1      0.666666667   0.666666667   0.396510335    0   0   0
Hf1      0.833333333   0.333333333   0.500000000    0   0   0
Hf1      0.333333333   0.333333333   0.500000000    0   0   0
Hf1      0.833333333   0.833333333   0.500000000    0   0   0
Hf1      0.333333333   0.833333333   0.500000000    0   0   0
Hf1      0.002758547   0.002757804   0.604643902
Hf1      0.494482225   0.002758661   0.604642080
Hf1      0.002759712   0.494481763   0.604642492
Hf1      0.499999729   0.500002107   0.602842395
N1       0.166667645   0.166666615   0.662610561

     Writing output data file calc.save
     Check: negative starting charge=   -1.301381
     NEW-OLD atomic charge density approx. for the potential

     Check: negative/imaginary core charge=   -0.000003    0.000000
     Check: negative starting charge=   -1.299070

[...]

     energy   old            =   -1946.9743133172 Ry
     energy   new            =   -1947.0338909716 Ry

     CASE: energy  _new < energy  _old

     WARNING: bfgs curvature condition failed, Theta= 0.871
     new trust radius        =       0.3060494718 bohr
     new conv_thr            =       0.0000001000 Ry

[...]

     iteration #  1     ecut=    36.75 Ry     beta=0.30
     Davidson diagonalization with overlap
     c_bands:  1 eigenvalues not converged
     c_bands:  1 eigenvalues not converged
     ethr =  1.00E-06,  avg # of iterations = 16.3

[...]

     Total force =     0.002576     Total SCF correction =     0.000135

[...]

     number of scf cycles    =  16
     number of bfgs steps    =  15

     energy   old            =   -1947.1638979865 Ry
     energy   new            =   -1947.1639575514 Ry

     CASE: energy  _new < energy  _old

     new trust radius        =       0.0121141679 bohr
     new conv_thr            =       0.0000001000 Ry

ATOMIC_POSITIONS (crystal)
Hf1      0.166666667   0.166666667   0.396510335    0   0   0
Hf1      0.666666667   0.166666667   0.396510335    0   0   0
Hf1      0.166666667   0.666666667   0.396510335    0   0   0
Hf1      0.666666667   0.666666667   0.396510335    0   0   0
Hf1      0.833333333   0.333333333   0.500000000    0   0   0
Hf1      0.333333333   0.333333333   0.500000000    0   0   0
Hf1      0.833333333   0.833333333   0.500000000    0   0   0
Hf1      0.333333333   0.833333333   0.500000000    0   0   0
Hf1      0.001728888   0.001728193   0.602042751
Hf1      0.496416842   0.001712153   0.602038741
Hf1      0.001712606   0.496416496   0.602038648
Hf1      0.499990493   0.499990133   0.594266867
N1       0.166640958   0.166640766   0.637228898

     Writing output data file calc.save
     Check: negative starting charge=   -1.298220
     NEW-OLD atomic charge density approx. for the potential

     Check: negative/imaginary core charge=   -0.000003    0.000000
     Check: negative starting charge=   -1.297977

[...]

     Self-consistent Calculation

[...]

     total energy              =   -1947.16397141 Ry
     Harris-Foulkes estimate   =   -1947.16397153 Ry
     estimated scf accuracy    <       0.00000158 Ry

     iteration #  9     ecut=    36.75 Ry     beta=0.30
     Davidson diagonalization with overlap
     ethr =  1.06E-09,  avg # of iterations =  3.1

[...]

     negative rho (up, down):  1.376E+00 0.000E+00

     Adding external electric field

     Computed dipole along edir(3) :
        Dipole               -0.0327 Ry au,         -0.0832 Debye
        Dipole field         -0.0001 Ry au

        Potential amp.        0.0063 Ry
        Total length         46.4675 bohr

     End of self-consistent calculation

[...]

          k = 0.0521-0.0602 0.0000 ( 22643 PWs)   bands (ev):

[...]

          k =-0.0782-0.0452 0.0000 ( 22668 PWs)   bands (ev):

   -61.2878 -61.2860 -61.2704 -61.2689 -61.0800 -60.9302 -60.9193 -60.9102
   -60.8093 -60.7427 -60.7337 -60.7263 -29.9525 -29.9519 -29.8966 -29.8930
   -29.8418 -29.8401 -29.8029 -29.7874 -29.7718 -29.7697 -29.7459 -29.7402
   -29.7332 -29.6597 -29.6115 -29.5938 -29.5895 -29.5766 -29.5762 -29.5563
   -29.4924 -29.4656 -29.3911 -29.3604 -29.3573 -29.3147 -29.2599 -29.2551
   -29.2429 -29.2237 -29.2155 -29.1970 -29.1906 -29.1693 -29.1009 -29.0620
   -12.2343  -3.7530  -3.5095  -2.8544  -2.4275  -2.2693  -1.9669  -1.6136
    -1.2310  -1.1642  -0.9059  -0.6050  -0.5013  -0.4913   0.2053   0.2684
     0.3300   0.4816   0.5213   0.5275   0.7329   0.7744   0.8926   0.9677
     0.9846   0.9963   1.1597   1.1781   1.2865   1.3867   1.3931   1.5608
     1.6402   1.8877   2.0070   2.2742

     the Fermi energy is     1.3346 ev

!    total energy              =   -1947.16397147 Ry
     Harris-Foulkes estimate   =   -1947.16397149 Ry
     estimated scf accuracy    <       0.00000009 Ry

     The total energy is the sum of the following terms:

     one-electron contribution =   -8785.23192857 Ry
     hartree contribution      =    4377.90144175 Ry
     xc contribution           =    -933.65216327 Ry
     ewald contribution        =    3393.92452568 Ry
     electric field correction =       0.00000223 Ry
     smearing contrib. (-TS)   =      -0.10584929 Ry

     convergence has been achieved in   9 iterations

 BEEF-vdW xc energy contributions
           1 :   -844.150222951566
           2 :    784.624193984353
           3 :   -679.049893841660
           4 :    549.155864717312
           5 :   -417.519479313179
           6 :    301.227864740075
           7 :   -209.048549380996
           8 :    142.267075930750
           9 :   -97.6774278050658
          10 :    70.5555524110083
          11 :   -56.2728542175545
          12 :    50.4590179679163
          13 :   -48.6419608316260
          14 :    46.3222903977746
          15 :   -39.8390122056539
          16 :    27.5537203602915
          17 :   -10.5402314784180
          18 :   -7.81661378140302
          19 :    23.2350178804409
          20 :   -32.3031946996773
          21 :    33.7348844974138
          22 :   -28.5943500382493
          23 :    19.5461613873082
          24 :   -9.68193888606152
          25 :    1.55009964991643
          26 :    3.26336790259609
          27 :   -4.08942513887655
          28 :   0.986078436564298
          29 :    5.33016643183510
          30 :   -13.4409986747510
          31 :   -60.7882259326982
          32 :   -43.7263324134144

     Forces acting on atoms (Ry/au):

     negative rho (up, down):  1.376E+00 0.000E+00
     atom    1 type  1   force =     0.00002210    0.00001275    0.01926412
     atom    2 type  1   force =     0.00001654   -0.00003456    0.02388900
     atom    3 type  1   force =    -0.00002166    0.00003160    0.02388900
     atom    4 type  1   force =     0.00005053    0.00002917    0.02386814
     atom    5 type  1   force =    -0.00263672    0.00152655   -0.02173627
     atom    6 type  1   force =     0.00267690    0.00154542   -0.02169591
     atom    7 type  1   force =     0.00000727    0.00000420   -0.02554328
     atom    8 type  1   force =     0.00000378   -0.00304694   -0.02173621
     atom    9 type  1   force =     0.00018542    0.00010744    0.00020228
     atom   10 type  1   force =    -0.00021948    0.00010080    0.00023538
     atom   11 type  1   force =    -0.00002268   -0.00024057    0.00023578
     atom   12 type  1   force =    -0.00001362   -0.00000787   -0.00025511
     atom   13 type  2   force =    -0.00004836   -0.00002801   -0.00061694

     Total force =     0.000874     Total SCF correction =     0.000294
     SCF correction compared to forces is large: reduce conv_thr to get better values

     entering subroutine stress ...

     negative rho (up, down):  1.376E+00 0.000E+00
          total   stress  (Ry/bohr**3)                   (kbar)     P=  -14.09
  -0.00009344   0.00000004   0.00000004        -13.74      0.01      0.01
   0.00000004  -0.00009348   0.00000002          0.01    -13.75      0.00
   0.00000004   0.00000002  -0.00010034          0.01      0.00    -14.76

     bfgs converged in  17 scf cycles and  16 bfgs steps
     (criteria: energy <  1.0E+00, force <  1.9E-03)

     End of BFGS Geometry Optimization

     Final energy   =   -1947.1639714729 Ry
Begin final coordinates

ATOMIC_POSITIONS (crystal)
Hf1      0.166666667   0.166666667   0.396510335    0   0   0
Hf1      0.666666667   0.166666667   0.396510335    0   0   0
Hf1      0.166666667   0.666666667   0.396510335    0   0   0
Hf1      0.666666667   0.666666667   0.396510335    0   0   0
Hf1      0.833333333   0.333333333   0.500000000    0   0   0
Hf1      0.333333333   0.333333333   0.500000000    0   0   0
Hf1      0.833333333   0.833333333   0.500000000    0   0   0
Hf1      0.333333333   0.833333333   0.500000000    0   0   0
Hf1      0.001728888   0.001728193   0.602042751
Hf1      0.496416842   0.001712153   0.602038741
Hf1      0.001712606   0.496416496   0.602038648
Hf1      0.499990493   0.499990133   0.594266867
N1       0.166640958   0.166640766   0.637228898
End final coordinates

     Writing output data file calc.save

     General routines

     Parallel routines

   This run was terminated on:  18:50:41   3May2018

   JOB DONE.
Job  /afs/slac/g/suncat/bin/suncat-tsmpirun -x LD_LIBRARY_PATH -wdir /scratch/qe776251_TTtj8 pw.x -npool 4 -in pw.inp

TID   HOST_NAME   COMMAND_LINE            STATUS            TERMINATION_TIME
00000 suncat0079 pw.x -npool 4 -i  Done                     05/03/2018 18:50:41
00001 suncat0079 pw.x -npool 4 -i  Done                     05/03/2018 18:50:41
00002 suncat0079 pw.x -npool 4 -i  Done                     05/03/2018 18:50:41
00003 suncat0079 pw.x -npool 4 -i  Done                     05/03/2018 18:50:41
00004 suncat0079 pw.x -npool 4 -i  Done                     05/03/2018 18:50:41
00005 suncat0079 pw.x -npool 4 -i  Done                     05/03/2018 18:50:41
00006 suncat0079 pw.x -npool 4 -i  Done                     05/03/2018 18:50:41
00007 suncat0079 pw.x -npool 4 -i  Done                     05/03/2018 18:50:41
00008 suncat0075 pw.x -npool 4 -i  Done                     05/03/2018 18:50:41
00009 suncat0075 pw.x -npool 4 -i  Done                     05/03/2018 18:50:41
00010 suncat0075 pw.x -npool 4 -i  Done                     05/03/2018 18:50:41
00011 suncat0075 pw.x -npool 4 -i  Done                     05/03/2018 18:50:41
00012 suncat0075 pw.x -npool 4 -i  Done                     05/03/2018 18:50:41
00013 suncat0075 pw.x -npool 4 -i  Done                     05/03/2018 18:50:41
00014 suncat0075 pw.x -npool 4 -i  Done                     05/03/2018 18:50:41
00015 suncat0075 pw.x -npool 4 -i  Done                     05/03/2018 18:50:41
00016 suncat0178 pw.x -npool 4 -i  Done                     05/03/2018 18:50:41
00017 suncat0178 pw.x -npool 4 -i  Done                     05/03/2018 18:50:41
00018 suncat0178 pw.x -npool 4 -i  Done                     05/03/2018 18:50:41
00019 suncat0178 pw.x -npool 4 -i  Done                     05/03/2018 18:50:41
00020 suncat0178 pw.x -npool 4 -i  Done                     05/03/2018 18:50:41
00021 suncat0178 pw.x -npool 4 -i  Done                     05/03/2018 18:50:41
00022 suncat0178 pw.x -npool 4 -i  Done                     05/03/2018 18:50:41
00023 suncat0178 pw.x -npool 4 -i  Done                     05/03/2018 18:50:41
00024 suncat0154 pw.x -npool 4 -i  Done                     05/03/2018 18:50:41
00025 suncat0154 pw.x -npool 4 -i  Done                     05/03/2018 18:50:41
00026 suncat0154 pw.x -npool 4 -i  Done                     05/03/2018 18:50:41
00027 suncat0154 pw.x -npool 4 -i  Done                     05/03/2018 18:50:41
00028 suncat0154 pw.x -npool 4 -i  Done                     05/03/2018 18:50:41
00029 suncat0154 pw.x -npool 4 -i  Done                     05/03/2018 18:50:41
00030 suncat0154 pw.x -npool 4 -i  Done                     05/03/2018 18:50:41
00031 suncat0154 pw.x -npool 4 -i  Done                     05/03/2018 18:50:41