     Program PWSCF v.5.1rc2 (svn rev. 11289) starts on 16Apr2018 at 22:38:33

     Current dimensions of program PWSCF are:
     Max number of different atomic species (ntypx) = 10
     Max number of k-points (npk) =  40000
     Max angular momentum in pseudopotentials (lmaxx) =  3
     Presently stress not available with electric field

     IMPORTANT: XC functional enforced from input :
     Exchange-correlation      = BEEF-VDW ( 1  4 27 13 2)
     Any further DFT definition will be discarded
     Please, verify this is what you really want

     Subspace diagonalization in iterative solution of the eigenvalue problem:
     a serial algorithm will be used

     bravais-lattice index     =            0
     lattice parameter (alat)  =       1.8897  a.u.
     unit-cell volume          =    3724.3394 (a.u.)^3
     number of atoms/cell      =           14
     number of atomic types    =            3
     number of electrons       =       175.00
     number of Kohn-Sham states=           97
     kinetic-energy cutoff     =      36.7493  Ry
     charge density cutoff     =     367.4932  Ry
     convergence threshold     =      1.0E-05
     mixing beta               =       0.3000
     number of iterations used =           10  plain     mixing
     Exchange-correlation      = BEEF-VDW ( 1  4 27 13 2)
     nstep                     =           50

     celldm(1)=   1.889726  celldm(2)=   0.000000  celldm(3)=   0.000000
     celldm(4)=   0.000000  celldm(5)=   0.000000  celldm(6)=   0.000000

     crystal axes: (cart. coord. in units of alat)
               a(1) = (   5.132588   0.000000   0.000000 )
               a(2) = (   2.566294   4.444952   0.000000 )
               a(3) = (   0.000000   0.000000  24.190741 )

     reciprocal axes: (cart. coord. in units 2 pi/alat)
               b(1) = (  0.194833 -0.112487  0.000000 )
               b(2) = (  0.000000  0.224974  0.000000 )
               b(3) = (  0.000000  0.000000  0.041338 )

     PseudoPot. # 1 for Cr read from file:
     /u/if/mamunm/psp/gbrv1.5pbe/Cr.UPF
     MD5 check sum: 0d52af634a40206e4dee301ad30da4bf
     Pseudo is Ultrasoft + core correction, Zval = 14.0
     Generated by new atomic code, or converted to UPF format
     Using radial grid of  857 points,  6 beta functions with:
                l(1) =   0
                l(2) =   0
                l(3) =   1
                l(4) =   1
                l(5) =   2
                l(6) =   2
     Q(r) pseudized with  8 coefficients,  rinner =    0.950   0.950   0.950
                                                       0.950   0.950

     PseudoPot. # 2 for O  read from file:
     /u/if/mamunm/psp/gbrv1.5pbe/O.UPF
     MD5 check sum: 734c27235a0248c51dbae37a1fbe46ec
     Pseudo is Ultrasoft + core correction, Zval =  6.0
     Generated by new atomic code, or converted to UPF format
     Using radial grid of  737 points,  5 beta functions with:
                l(1) =   0
                l(2) =   0
                l(3) =   1
                l(4) =   1
                l(5) =   2
     Q(r) pseudized with  8 coefficients,  rinner =    0.900   0.900   0.900
                                                       0.900   0.900

     PseudoPot. # 3 for H  read from file:
     /u/if/mamunm/psp/gbrv1.5pbe/H.UPF
     MD5 check sum: 761ae9a214b05c3daf00ab9f6b793d6f
     Pseudo is Ultrasoft, Zval =  1.0
     Generated by new atomic code, or converted to UPF format
     Using radial grid of  615 points,  2 beta functions with:
                l(1) =   0
                l(2) =   0
     Q(r) pseudized with  8 coefficients,  rinner =    0.700

     vdW kernel table read from file vdW_kernel_table
     MD5 check sum: 095c7af220d748ca6e76c0b4c6cfb241

     atomic species   valence    mass     pseudopotential
        Cr1           14.00    51.99610     Cr( 1.00)
        O1             6.00    15.99900     O ( 1.00)
        H1             1.00     1.00800     H ( 1.00)

     No symmetry found

   Cartesian axes

     site n.     atom                  positions (alat units)
         1           Cr1 tau(   1) = (   1.2831471   0.7408253  10.0000000  )
         2           Cr1 tau(   2) = (   3.8494412   0.7408253  10.0000000  )
         3           Cr1 tau(   3) = (   2.5662941   2.9633012  10.0000000  )
         4           Cr1 tau(   4) = (   5.1325882   2.9633012  10.0000000  )
         5           Cr1 tau(   5) = (   5.1325882   1.4816506  12.0953704  )
         6           Cr1 tau(   6) = (   2.5662941   1.4816506  12.0953704  )
         7           Cr1 tau(   7) = (   6.4157353   3.7041265  12.0953704  )
         8           Cr1 tau(   8) = (   3.8494412   3.7041265  12.0953704  )
         9           Cr1 tau(   9) = (   0.0000000   0.0000000  14.1907408  )
        10           Cr1 tau(  10) = (   2.5662941   0.0000000  14.1907408  )
        11           Cr1 tau(  11) = (   1.2831471   2.2224759  14.1907408  )
        12           Cr1 tau(  12) = (   3.8494412   2.2224759  14.1907408  )
        13           O1  tau(  13) = (   2.5662941   1.4816506  15.5232408  )
        14           H1  tau(  14) = (   2.5662941   1.4816506  16.4732408  )

     number of k points=    20  Fermi-Dirac smearing, width (Ry)=  0.0110
                       cart. coord. in units 2pi/alat
        k(    1) = (   0.0000000   0.0000000   0.0000000), wk =   0.0555556
        k(    2) = (   0.0000000   0.0374957   0.0000000), wk =   0.1111111
        k(    3) = (   0.0000000   0.0749914   0.0000000), wk =   0.1111111
        k(    4) = (   0.0000000  -0.1124872   0.0000000), wk =   0.0555556
        k(    5) = (   0.0324722  -0.0187479   0.0000000), wk =   0.1111111
        k(    6) = (   0.0324722   0.0187479   0.0000000), wk =   0.1111111
        k(    7) = (   0.0324722   0.0562436   0.0000000), wk =   0.1111111
        k(    8) = (   0.0324722  -0.1312350   0.0000000), wk =   0.1111111
        k(    9) = (   0.0324722  -0.0937393   0.0000000), wk =   0.1111111
        k(   10) = (   0.0324722  -0.0562436   0.0000000), wk =   0.1111111
        k(   11) = (   0.0649445  -0.0374957   0.0000000), wk =   0.1111111
        k(   12) = (   0.0649445   0.0000000   0.0000000), wk =   0.1111111
        k(   13) = (   0.0649445   0.0374957   0.0000000), wk =   0.1111111
        k(   14) = (   0.0649445  -0.1499829   0.0000000), wk =   0.1111111
        k(   15) = (   0.0649445  -0.1124872   0.0000000), wk =   0.1111111
        k(   16) = (   0.0649445  -0.0749914   0.0000000), wk =   0.1111111
        k(   17) = (  -0.0974167   0.0562436   0.0000000), wk =   0.0555556
        k(   18) = (  -0.0974167   0.0937393   0.0000000), wk =   0.1111111
        k(   19) = (  -0.0974167   0.1312350   0.0000000), wk =   0.1111111
        k(   20) = (  -0.0974167  -0.0562436   0.0000000), wk =   0.0555556

     Largest allocated arrays     est. size (Mb)     dimensions
     Largest temporary arrays     est. size (Mb)     dimensions

     Check: negative/imaginary core charge=   -0.000004    0.000000

     Initial potential from superposition of free atoms
     Check: negative starting charge=   -0.014890

     starting charge  162.99980, renormalised to  175.00000

     negative rho (up, down):  1.599E-02 0.000E+00

     *
     * You are using vdW-DF for exchange-correlation in this calculation.
     * Please cite the following three references that made this development
     * possible:
     *
     *   M. Dion, H. Rydberg, E. Schroder, D. C. Langreth, and
     *   B. I. Lundqvist, Phys. Rev. Lett. 92, 246401 (2004).
     *
     *   T. Thonhauser, V. R. Cooper, S. Li, A. Puzder, P. Hyldgaard, and
     *   D. C. Langreth, Phys. Rev. B 76, 125112 (2007).
     *
     *   G. Roman-Perez and J. M. Soler, Phys. Rev. Lett. 103, 096102 (2009).
     *
     *
     * If you are using vdW-DF2, please also cite:
     *
     *   K. Lee, E. D. Murray, L. Kong, B. I. Lundqvist, and
     *   D. C. Langreth, Phys. Rev. B 82, 081101(R) (2010).
     *
     *
     * If you are calculating the stress with vdW-DF, please also cite:
     *
     *   R. Sabatini, E. Kucukbenli, B. Kolb, T. Thonhauser, and
     *   S. de Gironcoli, J. Phys.: Condens. Matter 24, 424209 (2012).
     *

     Carrying out vdW-DF run using the following parameters:

     Nqs =      20    Nr_points =    1024   r_max =   100.000
     q_mesh =
               0.00001000     0.04494208     0.09755937     0.15916263
               0.23128650     0.31572767     0.41458969     0.53033537
               0.66584808     0.82450364     1.01025438     1.22772762
               1.48234092     1.78043706     2.12944203     2.53805004
               3.01644009     3.57652955     4.23227104     5.00000000

     Gradients computed in reciprocal space

     Adding external electric field

     Computed dipole along edir(3) :
        Dipole               -3.4704 Ry au,         -8.8208 Debye
        Dipole field         -0.0117 Ry au

        Potential amp.        1.0438 Ry
        Total length         44.5710 bohr

     Starting wfc are  125 randomized atomic wfcs

     Self-consistent Calculation

     iteration #  1     ecut=    36.75 Ry     beta=0.30
     Davidson diagonalization with overlap
     ethr =  1.00E-02,  avg # of iterations =  8.6

[...]

     total energy              =   -1842.49926384 Ry
     Harris-Foulkes estimate   =   -2148.26372302 Ry
     estimated scf accuracy    <     636.75424144 Ry

     iteration #  2     ecut=    36.75 Ry     beta=0.30
     Davidson diagonalization with overlap
     c_bands:  4 eigenvalues not converged
     c_bands:  5 eigenvalues not converged
     ethr =  1.00E-02,  avg # of iterations = 19.6

[...]

     End of self-consistent calculation

          k = 0.0000 0.0000 0.0000 ( 14081 PWs)   bands (ev):

   -69.7536 -69.6726 -69.6357 -69.6349 -69.5756 -69.5694 -69.5690 -69.5628
   -69.4956 -69.4670 -69.4666 -69.4655 -41.4335 -41.3133 -41.3131 -41.2879
   -41.2648 -41.2533 -41.2531 -41.1426 -41.1290 -41.1289 -41.0104 -40.9924
   -40.9919 -40.8789 -40.8623 -40.8620 -40.8564 -40.8236 -40.8233 -40.8060
   -40.7577 -40.7575 -40.7297 -40.7256 -40.7254 -40.7128 -40.6856 -40.6353
   -40.6352 -40.6124 -40.6117 -40.6116 -40.5728 -40.5726 -40.4782 -40.4782
   -19.9809  -8.2576  -4.5990  -4.2189  -4.2189  -2.8007  -1.8878  -1.6458
    -1.6457  -1.5494  -1.2751  -1.2381  -1.2381  -0.9292  -0.8745  -0.8745
    -0.7589  -0.7588  -0.6476   0.1404   0.1405   0.2640   0.9434   1.0971
     1.0972   1.2576   1.2823   1.5767   1.5767   1.7186   1.7187   1.7793
     1.8253   1.8254   1.8292   1.8517   1.9028   1.9028   2.0416   2.0417
     2.5123   2.6146   2.6147   2.8819   2.9925   2.9925   3.0413   3.2059
     3.2060

[...]

          k =-0.0974 0.0562 0.0000 ( 14010 PWs)   bands (ev):

[...]

     the Fermi energy is     2.0073 ev

!    total energy              =   -2148.77541036 Ry
     Harris-Foulkes estimate   =   -2148.77543843 Ry
     estimated scf accuracy    <       0.00000422 Ry

     The total energy is the sum of the following terms:

     one-electron contribution =  -20247.94288421 Ry
     hartree contribution      =   10122.01183349 Ry
     xc contribution           =    -287.62324775 Ry
     ewald contribution        =    8264.91148241 Ry
     electric field correction =       0.00064509 Ry
     smearing contrib. (-TS)   =      -0.13323939 Ry

     convergence has been achieved in  46 iterations

 BEEF-vdW xc energy contributions
           1 :   -248.918651683097
           2 :    223.967988810344
           3 :   -182.316083810347
           4 :    136.491235827694
           5 :   -97.8638731718914
           6 :    72.5291545488670
           7 :   -60.1781432354374
           8 :    55.9668621309141
           9 :   -53.9744656281271
          10 :    50.2661157068824
          11 :   -44.1461135045232
          12 :    37.3882418091565
          13 :   -32.3351023459401
          14 :    30.1691250730708
          15 :   -30.2987669414117
          16 :    30.9794478826863
          17 :   -30.5585646863446
          18 :    28.4772542661566
          19 :   -25.4530667872460
          20 :    22.8376598338271
          21 :   -21.6509493201791
          22 :    21.9370033664464
          23 :   -22.8194893810180
          24 :    23.1487052356343
          25 :   -22.2670530132538
          26 :    20.3865397694584
          27 :   -18.3718047779651
          28 :    17.1233435762876
          29 :   -16.9937706591962
          30 :    17.6036494489371
          31 :   -24.6984083549251
          32 :   -17.7203242057207

     Forces acting on atoms (Ry/au):

     negative rho (up, down):  1.452E-02 0.000E+00
     atom    1 type  1   force =    -0.00139695   -0.00081948    0.00003103
     atom    2 type  1   force =     0.00138501   -0.00081553    0.00000298
     atom    3 type  1   force =     0.00000047    0.00161742    0.00004748
     atom    4 type  1   force =    -0.00000845    0.00000977    0.00184429
     atom    5 type  1   force =     0.00000237   -0.00139982   -0.00221191
     atom    6 type  1   force =    -0.00002414    0.00000884    0.00733168
     atom    7 type  1   force =     0.00122252    0.00068366   -0.00221577
     atom    8 type  1   force =    -0.00122025    0.00069722   -0.00225683
     atom    9 type  1   force =    -0.00000732   -0.00000259   -0.03322414
     atom   10 type  1   force =    -0.00000977   -0.04846274    0.00869189
     atom   11 type  1   force =    -0.04195660    0.02422535    0.00879609
     atom   12 type  1   force =     0.04196104    0.02423674    0.00873986
     atom   13 type  2   force =     0.00005772    0.00001897   -0.04223894
     atom   14 type  3   force =    -0.00000566    0.00000218    0.04666229

     Total force =     0.111080     Total SCF correction =     0.003880

     entering subroutine stress ...

     negative rho (up, down):  1.452E-02 0.000E+00
          total   stress  (Ry/bohr**3)                   (kbar)     P=  -20.60
  -0.00021502   0.00000001  -0.00000008        -31.63      0.00     -0.01
   0.00000001  -0.00021499  -0.00000001          0.00    -31.63     -0.00
  -0.00000008  -0.00000001   0.00000989         -0.01     -0.00      1.46

     BFGS Geometry Optimization

     number of scf cycles    =   1
     number of bfgs steps    =   0

     energy   new            =   -2148.7754103624 Ry

     new trust radius        =       0.0492401756 bohr
     new conv_thr            =       0.0000099958 Ry

ATOMIC_POSITIONS (crystal)
Cr1      0.166666667   0.166666667   0.413381306    0   0   0
Cr1      0.666666667   0.166666667   0.413381306    0   0   0
Cr1      0.166666667   0.666666667   0.413381306    0   0   0
Cr1      0.666666667   0.666666667   0.413381306    0   0   0
Cr1      0.833333333   0.333333333   0.500000000    0   0   0
Cr1      0.333333333   0.333333333   0.500000000    0   0   0
Cr1      0.833333333   0.833333333   0.500000000    0   0   0
Cr1      0.333333333   0.833333333   0.500000000    0   0   0
Cr1     -0.000000600  -0.000000308   0.585891910
Cr1      0.502883769  -0.005769552   0.586808831
Cr1     -0.005767815   0.502884059   0.586811111
Cr1      0.502883535   0.502885415   0.586809880
O1       0.333338155   0.333335592   0.640777768
H1       0.333332620   0.333333593   0.681993724

     Writing output data file calc.save
     Check: negative starting charge=   -0.014890
     NEW-OLD atomic charge density approx. for the potential

     Check: negative/imaginary core charge=   -0.000004    0.000000
     Check: negative starting charge=   -0.014159

[...]

     energy   old            =   -2148.7754103624 Ry
     energy   new            =   -2148.7822261371 Ry

     CASE: energy  _new < energy  _old

[...]

     iteration #  1     ecut=    36.75 Ry     beta=0.30
     Davidson diagonalization with overlap
     c_bands:  1 eigenvalues not converged
     ethr =  1.00E-06,  avg # of iterations = 16.1

[...]

     CASE: energy  _new > energy  _old

[...]

     Total force =     0.022228     Total SCF correction =     0.000322

[...]

     Total force =     0.009498     Total SCF correction =     0.001037
     SCF correction compared to forces is large: reduce conv_thr to get better values

[...]

     number of scf cycles    =  12
     number of bfgs steps    =  10

     energy   old            =   -2148.8028010499 Ry
     energy   new            =   -2148.8029508115 Ry

     CASE: energy  _new < energy  _old

     new trust radius        =       0.0020837421 bohr
     new conv_thr            =       0.0000001000 Ry

ATOMIC_POSITIONS (crystal)
Cr1      0.166666667   0.166666667   0.413381306    0   0   0
Cr1      0.666666667   0.166666667   0.413381306    0   0   0
Cr1      0.166666667   0.666666667   0.413381306    0   0   0
Cr1      0.666666667   0.666666667   0.413381306    0   0   0
Cr1      0.833333333   0.333333333   0.500000000    0   0   0
Cr1      0.333333333   0.333333333   0.500000000    0   0   0
Cr1      0.833333333   0.833333333   0.500000000    0   0   0
Cr1      0.333333333   0.833333333   0.500000000    0   0   0
Cr1     -0.000003719   0.000001510   0.570510069
Cr1      0.511930548  -0.023861608   0.589924709
Cr1     -0.023842922   0.511921311   0.589923448
Cr1      0.511936370   0.511937601   0.589925113
O1       0.333343348   0.333331859   0.641924182
H1       0.333343081   0.333329052   0.682132811

     Writing output data file calc.save
     Check: negative starting charge=   -0.014734
     NEW-OLD atomic charge density approx. for the potential

     Check: negative/imaginary core charge=   -0.000004    0.000000
     Check: negative starting charge=   -0.014702

[...]

     Self-consistent Calculation

[...]

     Threshold (ethr) on eigenvalues was too large:
     Diagonalizing with lowered threshold

     Davidson diagonalization with overlap
     ethr =  4.15E-08,  avg # of iterations =  1.9

[...]

     total energy              =   -2148.80295908 Ry
     Harris-Foulkes estimate   =   -2148.80295909 Ry
     estimated scf accuracy    <       0.00000041 Ry

     iteration # 13     ecut=    36.75 Ry     beta=0.30
     Davidson diagonalization with overlap
     ethr =  2.37E-10,  avg # of iterations =  3.8

[...]

     negative rho (up, down):  1.430E-02 0.000E+00

     Adding external electric field

     Computed dipole along edir(3) :
        Dipole                0.4631 Ry au,          1.1771 Debye
        Dipole field          0.0016 Ry au

        Potential amp.       -0.1393 Ry
        Total length         44.5710 bohr

     End of self-consistent calculation

[...]

          k = 0.0649-0.0750 0.0000 ( 13990 PWs)   bands (ev):

[...]

          k =-0.0974-0.0562 0.0000 ( 14010 PWs)   bands (ev):

   -69.7247 -69.7027 -69.6680 -69.6254 -69.6191 -69.5851 -69.5505 -69.5089
   -69.5005 -69.4659 -69.4512 -69.4478 -41.3943 -41.3703 -41.2713 -41.2416
   -41.1976 -41.1849 -41.1236 -41.0719 -41.0614 -41.0490 -41.0454 -40.9981
   -40.9946 -40.9356 -40.9181 -40.8894 -40.8877 -40.8734 -40.8252 -40.7914
   -40.7863 -40.7842 -40.7709 -40.7683 -40.7343 -40.7342 -40.7271 -40.7249
   -40.6892 -40.6791 -40.6559 -40.5864 -40.5575 -40.5274 -40.5182 -40.4742
   -19.7791  -7.8547  -4.3248  -4.0809  -2.7897  -2.7248  -1.4815  -1.2997
    -0.9156  -0.9109  -0.8533  -0.8312  -0.8265  -0.5116  -0.3487  -0.2556
    -0.1381  -0.0741   0.1082   0.1770   0.2743   0.4770   0.5277   0.5670
     0.5856   0.6507   0.8096   0.8705   1.0160   1.0546   1.2845   1.2897
     1.3247   1.4065   1.4987   1.5656   1.6762   1.6911   1.7076   1.7705
     2.0275   2.0985   2.3121   2.3232   2.5361   2.5619   2.6537   2.8419
     2.8772

     the Fermi energy is     2.0386 ev

!    total energy              =   -2148.80295907 Ry
     Harris-Foulkes estimate   =   -2148.80295972 Ry
     estimated scf accuracy    <       0.00000004 Ry

     The total energy is the sum of the following terms:

     one-electron contribution =  -20321.63031075 Ry
     hartree contribution      =   10158.83210585 Ry
     xc contribution           =    -287.73512319 Ry
     ewald contribution        =    8301.85461983 Ry
     electric field correction =       0.00072358 Ry
     smearing contrib. (-TS)   =      -0.12497439 Ry

     convergence has been achieved in  13 iterations

 BEEF-vdW xc energy contributions
           1 :   -249.033331124548
           2 :    224.096241702822
           3 :   -182.449116982566
           4 :    136.588733581049
           5 :   -97.8655329943047
           6 :    72.3839349698449
           7 :   -59.8777127421407
           8 :    55.5642278212268
           9 :   -53.5706192154070
          10 :    49.9634758115022
          11 :   -43.9897883528469
          12 :    37.3312630334537
          13 :   -32.2574163787649
          14 :    29.9480052819815
          15 :   -29.8900102283889
          16 :    30.4562627293704
          17 :   -30.0774672529899
          18 :    28.1852299041859
          19 :   -25.3923590642868
          20 :    22.9131010601814
          21 :   -21.6860960668918
          22 :    21.7849171728658
          23 :   -22.4565350312669
          24 :    22.6900549686711
          25 :   -21.8935184814116
          26 :    20.2303999821132
          27 :   -18.4346815028167
          28 :    17.2766480927760
          29 :   -17.0602062491028
          30 :    17.4691290313849
          31 :   -24.7048894424825
          32 :   -17.7244393831285

     Forces acting on atoms (Ry/au):

     negative rho (up, down):  1.430E-02 0.000E+00
     atom    1 type  1   force =    -0.00116655   -0.00067135   -0.00101671
     atom    2 type  1   force =     0.00116772   -0.00067475   -0.00101666
     atom    3 type  1   force =    -0.00000084    0.00134528   -0.00102173
     atom    4 type  1   force =     0.00000033   -0.00000048    0.00709508
     atom    5 type  1   force =    -0.00000222    0.01930001   -0.01552231
     atom    6 type  1   force =     0.00000238   -0.00000045    0.03971102
     atom    7 type  1   force =    -0.01671529   -0.00965008   -0.01552342
     atom    8 type  1   force =     0.01671224   -0.00964996   -0.01552200
     atom    9 type  1   force =     0.00000107   -0.00000113    0.00036452
     atom   10 type  1   force =    -0.00000102   -0.00067756    0.00021717
     atom   11 type  1   force =    -0.00058646    0.00033974    0.00021813
     atom   12 type  1   force =     0.00058727    0.00034044    0.00021361
     atom   13 type  2   force =     0.00000335   -0.00000036    0.00165254
     atom   14 type  3   force =    -0.00000198    0.00000065    0.00015075

     Total force =     0.002099     Total SCF correction =     0.000538
     SCF correction compared to forces is large: reduce conv_thr to get better values

     entering subroutine stress ...

     negative rho (up, down):  1.430E-02 0.000E+00
          total   stress  (Ry/bohr**3)                   (kbar)     P=  -16.51
  -0.00016398  -0.00000001  -0.00000000        -24.12     -0.00     -0.00
  -0.00000001  -0.00016399   0.00000000         -0.00    -24.12      0.00
  -0.00000000   0.00000000  -0.00000869         -0.00      0.00     -1.28

     bfgs converged in  13 scf cycles and  11 bfgs steps
     (criteria: energy <  1.0E+00, force <  1.9E-03)

     End of BFGS Geometry Optimization

     Final energy   =   -2148.8029590690 Ry
Begin final coordinates

ATOMIC_POSITIONS (crystal)
Cr1      0.166666667   0.166666667   0.413381306    0   0   0
Cr1      0.666666667   0.166666667   0.413381306    0   0   0
Cr1      0.166666667   0.666666667   0.413381306    0   0   0
Cr1      0.666666667   0.666666667   0.413381306    0   0   0
Cr1      0.833333333   0.333333333   0.500000000    0   0   0
Cr1      0.333333333   0.333333333   0.500000000    0   0   0
Cr1      0.833333333   0.833333333   0.500000000    0   0   0
Cr1      0.333333333   0.833333333   0.500000000    0   0   0
Cr1     -0.000003719   0.000001510   0.570510069
Cr1      0.511930548  -0.023861608   0.589924709
Cr1     -0.023842922   0.511921311   0.589923448
Cr1      0.511936370   0.511937601   0.589925113
O1       0.333343348   0.333331859   0.641924182
H1       0.333343081   0.333329052   0.682132811
End final coordinates

     Writing output data file calc.save

     General routines

     Parallel routines

   This run was terminated on:   0:41:18  17Apr2018

   JOB DONE.
Job  /afs/slac/g/suncat/bin/suncat-tsmpirun -x LD_LIBRARY_PATH -wdir /scratch/qe154414_1Whab pw.x -npool 4 -in pw.inp

TID   HOST_NAME   COMMAND_LINE            STATUS            TERMINATION_TIME
00000 suncat0086 pw.x -npool 4 -i  Done                     04/17/2018 00:41:18
00001 suncat0086 pw.x -npool 4 -i  Done                     04/17/2018 00:41:18
00002 suncat0086 pw.x -npool 4 -i  Done                     04/17/2018 00:41:18
00003 suncat0086 pw.x -npool 4 -i  Done                     04/17/2018 00:41:18
00004 suncat0086 pw.x -npool 4 -i  Done                     04/17/2018 00:41:18
00005 suncat0086 pw.x -npool 4 -i  Done                     04/17/2018 00:41:18
00006 suncat0086 pw.x -npool 4 -i  Done                     04/17/2018 00:41:18
00007 suncat0086 pw.x -npool 4 -i  Done                     04/17/2018 00:41:18
00008 suncat0072 pw.x -npool 4 -i  Done                     04/17/2018 00:41:18
00009 suncat0072 pw.x -npool 4 -i  Done                     04/17/2018 00:41:18
00010 suncat0072 pw.x -npool 4 -i  Done                     04/17/2018 00:41:18
00011 suncat0072 pw.x -npool 4 -i  Done                     04/17/2018 00:41:18
00012 suncat0072 pw.x -npool 4 -i  Done                     04/17/2018 00:41:18
00013 suncat0072 pw.x -npool 4 -i  Done                     04/17/2018 00:41:18
00014 suncat0072 pw.x -npool 4 -i  Done                     04/17/2018 00:41:18
00015 suncat0072 pw.x -npool 4 -i  Done                     04/17/2018 00:41:18
00016 suncat0016 pw.x -npool 4 -i  Done                     04/17/2018 00:41:18
00017 suncat0016 pw.x -npool 4 -i  Done                     04/17/2018 00:41:18
00018 suncat0016 pw.x -npool 4 -i  Done                     04/17/2018 00:41:18
00019 suncat0016 pw.x -npool 4 -i  Done                     04/17/2018 00:41:18
00020 suncat0016 pw.x -npool 4 -i  Done                     04/17/2018 00:41:18
00021 suncat0016 pw.x -npool 4 -i  Done                     04/17/2018 00:41:18
00022 suncat0016 pw.x -npool 4 -i  Done                     04/17/2018 00:41:18
00023 suncat0016 pw.x -npool 4 -i  Done                     04/17/2018 00:41:18
00024 suncat0014 pw.x -npool 4 -i  Done                     04/17/2018 00:41:18
00025 suncat0014 pw.x -npool 4 -i  Done                     04/17/2018 00:41:18
00026 suncat0014 pw.x -npool 4 -i  Done                     04/17/2018 00:41:18
00027 suncat0014 pw.x -npool 4 -i  Done                     04/17/2018 00:41:18
00028 suncat0014 pw.x -npool 4 -i  Done                     04/17/2018 00:41:18
00029 suncat0014 pw.x -npool 4 -i  Done                     04/17/2018 00:41:18
00030 suncat0014 pw.x -npool 4 -i  Done                     04/17/2018 00:41:18
00031 suncat0014 pw.x -npool 4 -i  Done                     04/17/2018 00:41:18