     Program PWSCF v.5.1rc2 (svn rev. 11289) starts on  2May2018 at 19:42: 6

     Current dimensions of program PWSCF are:
     Max number of different atomic species (ntypx) = 10
     Max number of k-points (npk) =  40000
     Max angular momentum in pseudopotentials (lmaxx) =  3
     Presently stress not available with electric field

     IMPORTANT: XC functional enforced from input :
     Exchange-correlation      = BEEF-VDW ( 1  4 27 13 2)
     Any further DFT definition will be discarded
     Please, verify this is what you really want

     Subspace diagonalization in iterative solution of the eigenvalue problem:
     a serial algorithm will be used

     bravais-lattice index     =            0
     lattice parameter (alat)  =       1.8897  a.u.
     unit-cell volume          =    6082.7792 (a.u.)^3
     number of atoms/cell      =           13
     number of atomic types    =            2
     number of electrons       =       149.00
     number of Kohn-Sham states=           84
     kinetic-energy cutoff     =      36.7493  Ry
     charge density cutoff     =     367.4932  Ry
     convergence threshold     =      1.0E-05
     mixing beta               =       0.3000
     number of iterations used =           10  plain     mixing
     Exchange-correlation      = BEEF-VDW ( 1  4 27 13 2)
     nstep                     =           50

     celldm(1)=   1.889726  celldm(2)=   0.000000  celldm(3)=   0.000000
     celldm(4)=   0.000000  celldm(5)=   0.000000  celldm(6)=   0.000000

     crystal axes: (cart. coord. in units of alat)
               a(1) = (   6.421223   0.000000   0.000000 )
               a(2) = (   3.210611   5.560942   0.000000 )
               a(3) = (   0.000000   0.000000  25.242906 )

     reciprocal axes: (cart. coord. in units 2 pi/alat)
               b(1) = (  0.155734 -0.089913  0.000000 )
               b(2) = (  0.000000  0.179826  0.000000 )
               b(3) = (  0.000000  0.000000  0.039615 )

     PseudoPot. # 1 for Zr read from file:
     /u/if/mamunm/psp/gbrv1.5pbe/Zr.UPF
     MD5 check sum: 5db81b1e868ab7776c4564c113de050b
     Pseudo is Ultrasoft + core correction, Zval = 12.0
     Generated by new atomic code, or converted to UPF format
     Using radial grid of  887 points,  6 beta functions with:
                l(1) =   0
                l(2) =   0
                l(3) =   1
                l(4) =   1
                l(5) =   2
                l(6) =   2
     Q(r) pseudized with  6 coefficients,  rinner =    1.200   1.200   1.200
                                                       1.200   1.200

     PseudoPot. # 2 for N  read from file:
     /u/if/mamunm/psp/gbrv1.5pbe/N.UPF
     MD5 check sum: 95339753478d7afb44899504a8723017
     Pseudo is Ultrasoft + core correction, Zval =  5.0
     Generated by new atomic code, or converted to UPF format
     Using radial grid of  729 points,  4 beta functions with:
                l(1) =   0
                l(2) =   0
                l(3) =   1
                l(4) =   1
     Q(r) pseudized with  8 coefficients,  rinner =    0.900   0.900   0.900

     vdW kernel table read from file vdW_kernel_table
     MD5 check sum: 095c7af220d748ca6e76c0b4c6cfb241

     atomic species   valence    mass     pseudopotential
        Zr1           12.00    91.22400     Zr( 1.00)
        N1             5.00    14.00700     N ( 1.00)

     No symmetry found

   Cartesian axes

     site n.     atom                  positions (alat units)
         1           Zr1 tau(   1) = (   1.6053057   0.9268237  10.0000000  )
         2           Zr1 tau(   2) = (   4.8159170   0.9268237  10.0000000  )
         3           Zr1 tau(   3) = (   3.2106113   3.7072946  10.0000000  )
         4           Zr1 tau(   4) = (   6.4212227   3.7072946  10.0000000  )
         5           Zr1 tau(   5) = (   6.4212227   1.8536473  12.6214532  )
         6           Zr1 tau(   6) = (   3.2106113   1.8536473  12.6214532  )
         7           Zr1 tau(   7) = (   8.0265283   4.6341183  12.6214532  )
         8           Zr1 tau(   8) = (   4.8159170   4.6341183  12.6214532  )
         9           Zr1 tau(   9) = (   0.0000000   0.0000000  15.2429064  )
        10           Zr1 tau(  10) = (   3.2106113   0.0000000  15.2429064  )
        11           Zr1 tau(  11) = (   1.6053057   2.7804710  15.2429064  )
        12           Zr1 tau(  12) = (   4.8159170   2.7804710  15.2429064  )
        13           N1  tau(  13) = (   1.6053057   0.9268237  16.8419064  )

     number of k points=    20  Fermi-Dirac smearing, width (Ry)=  0.0110
                       cart. coord. in units 2pi/alat
        k(    1) = (   0.0000000   0.0000000   0.0000000), wk =   0.0555556
        k(    2) = (   0.0000000   0.0299709   0.0000000), wk =   0.1111111
        k(    3) = (   0.0000000   0.0599419   0.0000000), wk =   0.1111111
        k(    4) = (   0.0000000  -0.0899128   0.0000000), wk =   0.0555556
        k(    5) = (   0.0259556  -0.0149855   0.0000000), wk =   0.1111111
        k(    6) = (   0.0259556   0.0149855   0.0000000), wk =   0.1111111
        k(    7) = (   0.0259556   0.0449564   0.0000000), wk =   0.1111111
        k(    8) = (   0.0259556  -0.1048983   0.0000000), wk =   0.1111111
        k(    9) = (   0.0259556  -0.0749274   0.0000000), wk =   0.1111111
        k(   10) = (   0.0259556  -0.0449564   0.0000000), wk =   0.1111111
        k(   11) = (   0.0519112  -0.0299709   0.0000000), wk =   0.1111111
        k(   12) = (   0.0519112   0.0000000   0.0000000), wk =   0.1111111
        k(   13) = (   0.0519112   0.0299709   0.0000000), wk =   0.1111111
        k(   14) = (   0.0519112  -0.1198838   0.0000000), wk =   0.1111111
        k(   15) = (   0.0519112  -0.0899128   0.0000000), wk =   0.1111111
        k(   16) = (   0.0519112  -0.0599419   0.0000000), wk =   0.1111111
        k(   17) = (  -0.0778668   0.0449564   0.0000000), wk =   0.0555556
        k(   18) = (  -0.0778668   0.0749274   0.0000000), wk =   0.1111111
        k(   19) = (  -0.0778668   0.1048983   0.0000000), wk =   0.1111111
        k(   20) = (  -0.0778668  -0.0449564   0.0000000), wk =   0.0555556

     Largest allocated arrays     est. size (Mb)     dimensions
     Largest temporary arrays     est. size (Mb)     dimensions

     Initial potential from superposition of free atoms
     Check: negative starting charge=   -0.729135

     starting charge  148.97420, renormalised to  149.00000

     negative rho (up, down):  7.293E-01 0.000E+00

     *
     * You are using vdW-DF for exchange-correlation in this calculation.
     * Please cite the following three references that made this development
     * possible:
     *
     *   M. Dion, H. Rydberg, E. Schroder, D. C. Langreth, and
     *   B. I. Lundqvist, Phys. Rev. Lett. 92, 246401 (2004).
     *
     *   T. Thonhauser, V. R. Cooper, S. Li, A. Puzder, P. Hyldgaard, and
     *   D. C. Langreth, Phys. Rev. B 76, 125112 (2007).
     *
     *   G. Roman-Perez and J. M. Soler, Phys. Rev. Lett. 103, 096102 (2009).
     *
     *
     * If you are using vdW-DF2, please also cite:
     *
     *   K. Lee, E. D. Murray, L. Kong, B. I. Lundqvist, and
     *   D. C. Langreth, Phys. Rev. B 82, 081101(R) (2010).
     *
     *
     * If you are calculating the stress with vdW-DF, please also cite:
     *
     *   R. Sabatini, E. Kucukbenli, B. Kolb, T. Thonhauser, and
     *   S. de Gironcoli, J. Phys.: Condens. Matter 24, 424209 (2012).
     *

     Carrying out vdW-DF run using the following parameters:

     Nqs =      20    Nr_points =    1024   r_max =   100.000
     q_mesh =
               0.00001000     0.04494208     0.09755937     0.15916263
               0.23128650     0.31572767     0.41458969     0.53033537
               0.66584808     0.82450364     1.01025438     1.22772762
               1.48234092     1.78043706     2.12944203     2.53805004
               3.01644009     3.57652955     4.23227104     5.00000000

     Gradients computed in reciprocal space

     Adding external electric field

     Computed dipole along edir(3) :
        Dipole               -0.0068 Ry au,         -0.0174 Debye
        Dipole field         -0.0000 Ry au

        Potential amp.        0.0013 Ry
        Total length         46.5096 bohr

     Starting wfc are  160 randomized atomic wfcs

     Self-consistent Calculation

     iteration #  1     ecut=    36.75 Ry     beta=0.30
     Davidson diagonalization with overlap
     ethr =  1.00E-02,  avg # of iterations =  2.0

[...]

     total energy              =   -1213.96938035 Ry
     Harris-Foulkes estimate   =   -1217.83751411 Ry
     estimated scf accuracy    <       8.25134053 Ry

[...]

     End of self-consistent calculation

          k = 0.0000 0.0000 0.0000 ( 22923 PWs)   bands (ev):

   -48.2098 -48.1522 -48.0654 -48.0644 -48.0634 -48.0569 -48.0072 -48.0067
   -47.8195 -47.7464 -47.7459 -47.7023 -26.4591 -26.4588 -26.4321 -26.4085
   -26.4081 -26.3804 -26.3372 -26.2810 -26.2480 -26.2475 -26.1726 -26.0795
   -26.0394 -26.0387 -25.9343 -25.9136 -25.9133 -25.8897 -25.8867 -25.8863
   -25.8594 -25.8593 -25.8572 -25.7210 -25.7209 -25.6726 -25.6725 -25.6547
   -25.6492 -25.6491 -25.5966 -25.5624 -25.5494 -25.5491 -25.4019 -25.4019
   -10.8339  -3.7785  -2.6221  -1.8584  -1.5303  -1.5302  -1.4534  -1.3450
    -1.3450  -1.3382  -1.0287  -1.0234  -1.0233  -0.7105  -0.7027  -0.7027
    -0.2082  -0.2082   0.0287   0.4795   0.4796   0.9703   1.1699   1.4235
     1.4347   1.4348   1.5840   1.7894   1.8481   1.8621   1.8624   2.0632
     2.0632   2.3176   2.3190   2.3657

[...]

          k =-0.0779 0.0450 0.0000 ( 22880 PWs)   bands (ev):

[...]

     the Fermi energy is     1.1271 ev

!    total energy              =   -1217.22057313 Ry
     Harris-Foulkes estimate   =   -1217.22060955 Ry
     estimated scf accuracy    <       0.00000680 Ry

     The total energy is the sum of the following terms:

     one-electron contribution =   -8442.97643859 Ry
     hartree contribution      =    4213.03415878 Ry
     xc contribution           =    -225.82915645 Ry
     ewald contribution        =    3238.66556014 Ry
     electric field correction =       0.00027311 Ry
     smearing contrib. (-TS)   =      -0.11497011 Ry

     convergence has been achieved in  17 iterations

 BEEF-vdW xc energy contributions
           1 :   -193.383688752810
           2 :    174.909087612075
           3 :   -143.811496465280
           4 :    108.881963310646
           5 :   -78.0120573861706
           6 :    55.4451543602949
           7 :   -41.1602638986003
           8 :    32.2350880020235
           9 :   -25.1277194177975
          10 :    17.5900598048244
          11 :   -9.39379651843450
          12 :    1.80499796574401
          13 :    3.62578439382133
          14 :   -6.16514074423333
          15 :    6.30230532019482
          16 :   -5.35245771175903
          17 :    4.62136773918166
          18 :   -4.70021252057006
          19 :    5.29817145188593
          20 :   -5.63899746795980
          21 :    5.09665028343170
          22 :   -3.63986136882784
          23 :    1.82823258290122
          24 :  -0.419962058450494
          25 :  -0.110654397281820
          26 :  -0.171761334210032
          27 :   0.770556675964883
          28 :   -1.11807636262097
          29 :   0.935032132573269
          30 :  -0.364548823842483
          31 :   -22.4346112252730
          32 :   -16.6920603622227

     Forces acting on atoms (Ry/au):

     negative rho (up, down):  7.502E-01 0.000E+00
     atom    1 type  1   force =     0.00002120   -0.00002650    0.01395173
     atom    2 type  1   force =    -0.00002435    0.00094378    0.01545160
     atom    3 type  1   force =     0.00084352   -0.00047189    0.01551018
     atom    4 type  1   force =    -0.00084604   -0.00044889    0.01548340
     atom    5 type  1   force =    -0.00295434    0.00173209   -0.00222705
     atom    6 type  1   force =     0.00295238    0.00174497   -0.00223889
     atom    7 type  1   force =     0.00001375   -0.00001909   -0.01418408
     atom    8 type  1   force =    -0.00001416   -0.00344268   -0.00226831
     atom    9 type  1   force =     0.04938901    0.02849475    0.05652040
     atom   10 type  1   force =    -0.04938887    0.02851337    0.05649302
     atom   11 type  1   force =     0.00001684   -0.05701358    0.05654141
     atom   12 type  1   force =    -0.00001448    0.00001032   -0.01699855
     atom   13 type  2   force =     0.00000554   -0.00001666   -0.19203485

     Total force =     0.237704     Total SCF correction =     0.008552

     entering subroutine stress ...

     negative rho (up, down):  7.502E-01 0.000E+00
          total   stress  (Ry/bohr**3)                   (kbar)     P=  -17.75
  -0.00009255  -0.00000000   0.00000000        -13.61     -0.00      0.00
  -0.00000000  -0.00009255  -0.00000001         -0.00    -13.61     -0.00
   0.00000000  -0.00000001  -0.00017699          0.00     -0.00    -26.04

     BFGS Geometry Optimization

     number of scf cycles    =   1
     number of bfgs steps    =   0

     energy   new            =   -1217.2205731277 Ry

     new trust radius        =       0.1920348519 bohr
     new conv_thr            =       0.0000099958 Ry

ATOMIC_POSITIONS (crystal)
Zr1      0.166666667   0.166666667   0.396150897    0   0   0
Zr1      0.666666667   0.166666667   0.396150897    0   0   0
Zr1      0.166666667   0.666666667   0.396150897    0   0   0
Zr1      0.666666667   0.666666667   0.396150897    0   0   0
Zr1      0.833333333   0.333333333   0.500000000    0   0   0
Zr1      0.333333333   0.333333333   0.500000000    0   0   0
Zr1      0.833333333   0.833333333   0.500000000    0   0   0
Zr1      0.333333333   0.833333333   0.500000000    0   0   0
Zr1      0.002714406   0.002711550   0.605033963
Zr1      0.494573170   0.002713322   0.605033389
Zr1      0.002714083   0.494574609   0.605034403
Zr1      0.499998315   0.500000982   0.603492755
N1       0.166667916   0.166665081   0.663167927

     Writing output data file calc.save
     Check: negative starting charge=   -0.729135
     NEW-OLD atomic charge density approx. for the potential
     Check: negative starting charge=   -0.728157

[...]

     iteration #  1     ecut=    36.75 Ry     beta=0.30
     Davidson diagonalization with overlap
     c_bands:  1 eigenvalues not converged
     ethr =  1.00E-06,  avg # of iterations = 12.6

[...]

     energy   old            =   -1217.2205731277 Ry
     energy   new            =   -1217.2747994155 Ry

     CASE: energy  _new < energy  _old

     WARNING: bfgs curvature condition failed, Theta= 0.885
     new trust radius        =       0.2880522779 bohr
     new conv_thr            =       0.0000001000 Ry

[...]

     iteration #  1     ecut=    36.75 Ry     beta=0.30
     Davidson diagonalization with overlap
     c_bands:  1 eigenvalues not converged
     ethr =  1.00E-06,  avg # of iterations = 13.2

[...]

     Threshold (ethr) on eigenvalues was too large:
     Diagonalizing with lowered threshold

     Davidson diagonalization with overlap
     ethr =  3.06E-08,  avg # of iterations =  5.9

[...]

     Threshold (ethr) on eigenvalues was too large:
     Diagonalizing with lowered threshold

     Davidson diagonalization with overlap
     ethr =  4.79E-08,  avg # of iterations =  4.8

[...]

     Total force =     0.004770     Total SCF correction =     0.000244

[...]

     number of scf cycles    =  16
     number of bfgs steps    =  15

     energy   old            =   -1217.3889066658 Ry
     energy   new            =   -1217.3890301408 Ry

     CASE: energy  _new < energy  _old

     new trust radius        =       0.0239277185 bohr
     new conv_thr            =       0.0000001000 Ry

ATOMIC_POSITIONS (crystal)
Zr1      0.166666667   0.166666667   0.396150897    0   0   0
Zr1      0.666666667   0.166666667   0.396150897    0   0   0
Zr1      0.166666667   0.666666667   0.396150897    0   0   0
Zr1      0.666666667   0.666666667   0.396150897    0   0   0
Zr1      0.833333333   0.333333333   0.500000000    0   0   0
Zr1      0.333333333   0.333333333   0.500000000    0   0   0
Zr1      0.833333333   0.833333333   0.500000000    0   0   0
Zr1      0.333333333   0.833333333   0.500000000    0   0   0
Zr1      0.002221253   0.002218155   0.604584052
Zr1      0.495558444   0.002218783   0.604584315
Zr1      0.002220016   0.495559008   0.604583810
Zr1      0.499998957   0.500000403   0.596160287
N1       0.166664718   0.166665916   0.640342619

     Writing output data file calc.save
     Check: negative starting charge=   -0.727654
     NEW-OLD atomic charge density approx. for the potential
     Check: negative starting charge=   -0.728077

[...]

     Self-consistent Calculation

[...]

     total energy              =   -1217.38908501 Ry
     Harris-Foulkes estimate   =   -1217.38908496 Ry
     estimated scf accuracy    <       0.00000023 Ry

     iteration # 10     ecut=    36.75 Ry     beta=0.30
     Davidson diagonalization with overlap
     ethr =  1.52E-10,  avg # of iterations =  2.8

[...]

     negative rho (up, down):  7.500E-01 0.000E+00

     Adding external electric field

     Computed dipole along edir(3) :
        Dipole               -0.0627 Ry au,         -0.1595 Debye
        Dipole field         -0.0001 Ry au

        Potential amp.        0.0121 Ry
        Total length         46.5096 bohr

     End of self-consistent calculation

[...]

          k = 0.0519-0.0599 0.0000 ( 22856 PWs)   bands (ev):

[...]

          k =-0.0779-0.0450 0.0000 ( 22880 PWs)   bands (ev):

   -47.8242 -47.8182 -47.7792 -47.7711 -47.6735 -47.6341 -47.5967 -47.5809
   -47.4559 -47.4412 -47.4098 -47.4026 -26.0268 -26.0104 -25.9993 -25.9516
   -25.9347 -25.8919 -25.8792 -25.8641 -25.8346 -25.8116 -25.7928 -25.7642
   -25.7609 -25.7449 -25.7235 -25.7065 -25.6929 -25.6568 -25.6048 -25.5973
   -25.5202 -25.5121 -25.5019 -25.4781 -25.4052 -25.4028 -25.3826 -25.3590
   -25.3583 -25.3388 -25.2934 -25.2913 -25.2795 -25.2507 -25.1626 -25.1417
   -11.8273  -2.6796  -2.1048  -2.0614  -1.8406  -1.8032  -1.0591  -0.8080
    -0.4344  -0.3918  -0.3071  -0.2983  -0.1891   0.0440   0.3481   0.4287
     0.4597   0.5184   0.5526   0.6259   0.8727   0.9352   0.9773   1.0098
     1.0214   1.1526   1.2112   1.3625   1.3772   1.4598   1.5321   1.5854
     1.6865   1.8230   1.9016   2.1237

     the Fermi energy is     1.4161 ev

!    total energy              =   -1217.38908502 Ry
     Harris-Foulkes estimate   =   -1217.38908511 Ry
     estimated scf accuracy    <       0.00000005 Ry

     The total energy is the sum of the following terms:

     one-electron contribution =   -8602.43180191 Ry
     hartree contribution      =    4294.22104780 Ry
     xc contribution           =    -226.30345835 Ry
     ewald contribution        =    3317.23568855 Ry
     electric field correction =       0.00000813 Ry
     smearing contrib. (-TS)   =      -0.11056923 Ry

     convergence has been achieved in  10 iterations

 BEEF-vdW xc energy contributions
           1 :   -193.862598163355
           2 :    175.516750459022
           3 :   -144.543736022868
           4 :    109.601434386165
           5 :   -78.5459011191575
           6 :    55.6811196228086
           7 :   -41.0891767672826
           8 :    31.9381084836291
           9 :   -24.7350329175987
          10 :    17.2348199589391
          11 :   -9.17044259482037
          12 :    1.74008760281072
          13 :    3.57583639587563
          14 :   -6.08273672037606
          15 :    6.25951419018543
          16 :   -5.37550237402110
          17 :    4.68915526425866
          18 :   -4.77103379152192
          19 :    5.34308674155821
          20 :   -5.66150852542080
          21 :    5.12888164814927
          22 :   -3.71968958675316
          23 :    1.97270423242836
          24 :  -0.611683338046532
          25 :   8.411372768239289E-002
          26 :  -0.323043090390854
          27 :   0.854801165559707
          28 :   -1.14401289137083
          29 :   0.932977727150984
          30 :  -0.365050459836539
          31 :   -22.4649254714130
          32 :   -16.7482412329983

     Forces acting on atoms (Ry/au):

     negative rho (up, down):  7.500E-01 0.000E+00
     atom    1 type  1   force =     0.00000024   -0.00000033    0.01236638
     atom    2 type  1   force =    -0.00000093    0.00126628    0.01551617
     atom    3 type  1   force =     0.00109634   -0.00063366    0.01551620
     atom    4 type  1   force =    -0.00109656   -0.00063270    0.01551586
     atom    5 type  1   force =     0.00056931   -0.00032901   -0.01319405
     atom    6 type  1   force =    -0.00057006   -0.00033048   -0.01319290
     atom    7 type  1   force =    -0.00000143    0.00000045   -0.01901527
     atom    8 type  1   force =     0.00000092    0.00065807   -0.01319372
     atom    9 type  1   force =     0.00059298    0.00034575    0.00053326
     atom   10 type  1   force =    -0.00059618    0.00034618    0.00053257
     atom   11 type  1   force =    -0.00000123   -0.00069159    0.00053504
     atom   12 type  1   force =    -0.00000064   -0.00000246   -0.00032479
     atom   13 type  2   force =     0.00000725    0.00000348   -0.00159475

     Total force =     0.002220     Total SCF correction =     0.000233
     SCF correction compared to forces is large: reduce conv_thr to get better values

     entering subroutine stress ...

     negative rho (up, down):  7.500E-01 0.000E+00
          total   stress  (Ry/bohr**3)                   (kbar)     P=   -4.07
  -0.00001666   0.00000000   0.00000000         -2.45      0.00      0.00
   0.00000000  -0.00001666   0.00000000          0.00     -2.45      0.00
   0.00000000   0.00000000  -0.00004965          0.00      0.00     -7.30

     bfgs converged in  17 scf cycles and  16 bfgs steps
     (criteria: energy <  1.0E+00, force <  1.9E-03)

     End of BFGS Geometry Optimization

     Final energy   =   -1217.3890850167 Ry
Begin final coordinates

ATOMIC_POSITIONS (crystal)
Zr1      0.166666667   0.166666667   0.396150897    0   0   0
Zr1      0.666666667   0.166666667   0.396150897    0   0   0
Zr1      0.166666667   0.666666667   0.396150897    0   0   0
Zr1      0.666666667   0.666666667   0.396150897    0   0   0
Zr1      0.833333333   0.333333333   0.500000000    0   0   0
Zr1      0.333333333   0.333333333   0.500000000    0   0   0
Zr1      0.833333333   0.833333333   0.500000000    0   0   0
Zr1      0.333333333   0.833333333   0.500000000    0   0   0
Zr1      0.002221253   0.002218155   0.604584052
Zr1      0.495558444   0.002218783   0.604584315
Zr1      0.002220016   0.495559008   0.604583810
Zr1      0.499998957   0.500000403   0.596160287
N1       0.166664718   0.166665916   0.640342619
End final coordinates

     Writing output data file calc.save

     General routines

     Parallel routines

   This run was terminated on:  21:50:37   2May2018

   JOB DONE.
Job  /afs/slac/g/suncat/bin/suncat-tsmpirun -x LD_LIBRARY_PATH -wdir /scratch/qe881509_jWsmn pw.x -npool 4 -in pw.inp

TID   HOST_NAME   COMMAND_LINE            STATUS            TERMINATION_TIME
00000 suncat0010 pw.x -npool 4 -i  Done                     05/02/2018 21:50:37
00001 suncat0010 pw.x -npool 4 -i  Done                     05/02/2018 21:50:37
00002 suncat0010 pw.x -npool 4 -i  Done                     05/02/2018 21:50:37
00003 suncat0010 pw.x -npool 4 -i  Done                     05/02/2018 21:50:37
00004 suncat0010 pw.x -npool 4 -i  Done                     05/02/2018 21:50:37
00005 suncat0010 pw.x -npool 4 -i  Done                     05/02/2018 21:50:37
00006 suncat0010 pw.x -npool 4 -i  Done                     05/02/2018 21:50:37
00007 suncat0010 pw.x -npool 4 -i  Done                     05/02/2018 21:50:37
00008 suncat0191 pw.x -npool 4 -i  Done                     05/02/2018 21:50:37
00009 suncat0191 pw.x -npool 4 -i  Done                     05/02/2018 21:50:37
00010 suncat0191 pw.x -npool 4 -i  Done                     05/02/2018 21:50:37
00011 suncat0191 pw.x -npool 4 -i  Done                     05/02/2018 21:50:37
00012 suncat0191 pw.x -npool 4 -i  Done                     05/02/2018 21:50:37
00013 suncat0191 pw.x -npool 4 -i  Done                     05/02/2018 21:50:37
00014 suncat0191 pw.x -npool 4 -i  Done                     05/02/2018 21:50:37
00015 suncat0191 pw.x -npool 4 -i  Done                     05/02/2018 21:50:37
00016 suncat0145 pw.x -npool 4 -i  Done                     05/02/2018 21:50:37
00017 suncat0145 pw.x -npool 4 -i  Done                     05/02/2018 21:50:37
00018 suncat0145 pw.x -npool 4 -i  Done                     05/02/2018 21:50:37
00019 suncat0145 pw.x -npool 4 -i  Done                     05/02/2018 21:50:37
00020 suncat0145 pw.x -npool 4 -i  Done                     05/02/2018 21:50:37
00021 suncat0145 pw.x -npool 4 -i  Done                     05/02/2018 21:50:37
00022 suncat0145 pw.x -npool 4 -i  Done                     05/02/2018 21:50:37
00023 suncat0145 pw.x -npool 4 -i  Done                     05/02/2018 21:50:37
00024 suncat0143 pw.x -npool 4 -i  Done                     05/02/2018 21:50:37
00025 suncat0143 pw.x -npool 4 -i  Done                     05/02/2018 21:50:37
00026 suncat0143 pw.x -npool 4 -i  Done                     05/02/2018 21:50:37
00027 suncat0143 pw.x -npool 4 -i  Done                     05/02/2018 21:50:37
00028 suncat0143 pw.x -npool 4 -i  Done                     05/02/2018 21:50:37
00029 suncat0143 pw.x -npool 4 -i  Done                     05/02/2018 21:50:37
00030 suncat0143 pw.x -npool 4 -i  Done                     05/02/2018 21:50:37
00031 suncat0143 pw.x -npool 4 -i  Done                     05/02/2018 21:50:37