     Program PWSCF v.5.1rc2 starts on 27Apr2018 at 11:27:57

     Current dimensions of program PWSCF are:
     Max number of different atomic species (ntypx) = 10
     Max number of k-points (npk) =  40000
     Max angular momentum in pseudopotentials (lmaxx) =  3
     Presently stress not available with electric field

     IMPORTANT: XC functional enforced from input :
     Exchange-correlation      = BEEF-VDW ( 1  4 27 13 2)
     Any further DFT definition will be discarded
     Please, verify this is what you really want

     bravais-lattice index     =            0
     lattice parameter (alat)  =       1.8897  a.u.
     unit-cell volume          =    7276.7660 (a.u.)^3
     number of atoms/cell      =           14
     number of atomic types    =            3
     number of electrons       =       186.00
     number of Kohn-Sham states=          103
     kinetic-energy cutoff     =      36.7493  Ry
     charge density cutoff     =     367.4932  Ry
     convergence threshold     =      1.0E-05
     mixing beta               =       0.3000
     number of iterations used =           10  plain     mixing
     Exchange-correlation      = BEEF-VDW ( 1  4 27 13 2)
     nstep                     =           50

     celldm(1)=   1.889726  celldm(2)=   0.000000  celldm(3)=   0.000000
     celldm(4)=   0.000000  celldm(5)=   0.000000  celldm(6)=   0.000000

     crystal axes: (cart. coord. in units of alat)
               a(1) = (   6.962526   0.000000   0.000000 )
               a(2) = (   3.481263   6.029724   0.000000 )
               a(3) = (   0.000000   0.000000  25.684879 )

     reciprocal axes: (cart. coord. in units 2 pi/alat)
               b(1) = (  0.143626 -0.082923  0.000000 )
               b(2) = (  0.000000  0.165845  0.000000 )
               b(3) = (  0.000000  0.000000  0.038933 )

     PseudoPot. # 1 for Bi read from file:
     /home/users/mamunm/src/pseudo/gbrv1.5pbe/Bi.UPF
     MD5 check sum: 81103212dc04adf40945787f699eab19
     Pseudo is Ultrasoft + core correction, Zval = 15.0
     Generated by new atomic code, or converted to UPF format
     Using radial grid of  899 points,  6 beta functions with:
                l(1) =   0
                l(2) =   0
                l(3) =   1
                l(4) =   1
                l(5) =   2
                l(6) =   2
     Q(r) pseudized with  6 coefficients,  rinner =    1.000   1.000   1.000
                                                       1.000   1.000

     PseudoPot. # 2 for N  read from file:
     /home/users/mamunm/src/pseudo/gbrv1.5pbe/N.UPF
     MD5 check sum: 95339753478d7afb44899504a8723017
     Pseudo is Ultrasoft + core correction, Zval =  5.0
     Generated by new atomic code, or converted to UPF format
     Using radial grid of  729 points,  4 beta functions with:
                l(1) =   0
                l(2) =   0
                l(3) =   1
                l(4) =   1
     Q(r) pseudized with  8 coefficients,  rinner =    0.900   0.900   0.900

     PseudoPot. # 3 for H  read from file:
     /home/users/mamunm/src/pseudo/gbrv1.5pbe/H.UPF
     MD5 check sum: 761ae9a214b05c3daf00ab9f6b793d6f
     Pseudo is Ultrasoft, Zval =  1.0
     Generated by new atomic code, or converted to UPF format
     Using radial grid of  615 points,  2 beta functions with:
                l(1) =   0
                l(2) =   0
     Q(r) pseudized with  8 coefficients,  rinner =    0.700

     vdW kernel table read from file vdW_kernel_table
     MD5 check sum: 095c7af220d748ca6e76c0b4c6cfb241

     atomic species   valence    mass     pseudopotential
        Bi1           15.00   208.98040     Bi( 1.00)
        N1             5.00    14.00700     N ( 1.00)
        H1             1.00     1.00800     H ( 1.00)

     No symmetry found

   Cartesian axes

     site n.     atom                  positions (alat units)
         1           Bi1 tau(   1) = (   1.7406315   1.0049541  10.0000000  )
         2           Bi1 tau(   2) = (   5.2218945   1.0049541  10.0000000  )
         3           Bi1 tau(   3) = (   3.4812630   4.0198163  10.0000000  )
         4           Bi1 tau(   4) = (   6.9625260   4.0198163  10.0000000  )
         5           Bi1 tau(   5) = (   6.9625260   2.0099081  12.8424393  )
         6           Bi1 tau(   6) = (   3.4812630   2.0099081  12.8424393  )
         7           Bi1 tau(   7) = (   8.7031575   5.0247703  12.8424393  )
         8           Bi1 tau(   8) = (   5.2218945   5.0247703  12.8424393  )
         9           Bi1 tau(   9) = (   0.0000000   0.0000000  15.6848787  )
        10           Bi1 tau(  10) = (   3.4812630   0.0000000  15.6848787  )
        11           Bi1 tau(  11) = (   1.7406315   3.0148622  15.6848787  )
        12           Bi1 tau(  12) = (   5.2218945   3.0148622  15.6848787  )
        13           N1  tau(  13) = (   1.7406315   1.0049541  17.1083787  )
        14           H1  tau(  14) = (   1.7406315   1.0049541  18.1583787  )

     number of k points=    20  Fermi-Dirac smearing, width (Ry)=  0.0110
                       cart. coord. in units 2pi/alat
        k(    1) = (   0.0000000   0.0000000   0.0000000), wk =   0.0555556
        k(    2) = (   0.0000000   0.0276408   0.0000000), wk =   0.1111111
        k(    3) = (   0.0000000   0.0552817   0.0000000), wk =   0.1111111
        k(    4) = (   0.0000000  -0.0829225   0.0000000), wk =   0.0555556
        k(    5) = (   0.0239377  -0.0138204   0.0000000), wk =   0.1111111
        k(    6) = (   0.0239377   0.0138204   0.0000000), wk =   0.1111111
        k(    7) = (   0.0239377   0.0414613   0.0000000), wk =   0.1111111
        k(    8) = (   0.0239377  -0.0967430   0.0000000), wk =   0.1111111
        k(    9) = (   0.0239377  -0.0691021   0.0000000), wk =   0.1111111
        k(   10) = (   0.0239377  -0.0414613   0.0000000), wk =   0.1111111
        k(   11) = (   0.0478753  -0.0276408   0.0000000), wk =   0.1111111
        k(   12) = (   0.0478753  -0.0000000   0.0000000), wk =   0.1111111
        k(   13) = (   0.0478753   0.0276408   0.0000000), wk =   0.1111111
        k(   14) = (   0.0478753  -0.1105634   0.0000000), wk =   0.1111111
        k(   15) = (   0.0478753  -0.0829225   0.0000000), wk =   0.1111111
        k(   16) = (   0.0478753  -0.0552817   0.0000000), wk =   0.1111111
        k(   17) = (  -0.0718130   0.0414613   0.0000000), wk =   0.0555556
        k(   18) = (  -0.0718130   0.0691021   0.0000000), wk =   0.1111111
        k(   19) = (  -0.0718130   0.0967430   0.0000000), wk =   0.1111111
        k(   20) = (  -0.0718130  -0.0414613   0.0000000), wk =   0.0555556

     Largest allocated arrays     est. size (Mb)     dimensions
     Largest temporary arrays     est. size (Mb)     dimensions

     Check: negative/imaginary core charge=   -0.000001    0.000000

     Initial potential from superposition of free atoms
     Check: negative starting charge=   -0.503074

     starting charge  173.99948, renormalised to  186.00000

     negative rho (up, down):  5.378E-01 0.000E+00

     *
     * You are using vdW-DF for exchange-correlation in this calculation.
     * Please cite the following three references that made this development
     * possible:
     *
     *   M. Dion, H. Rydberg, E. Schroder, D. C. Langreth, and
     *   B. I. Lundqvist, Phys. Rev. Lett. 92, 246401 (2004).
     *
     *   T. Thonhauser, V. R. Cooper, S. Li, A. Puzder, P. Hyldgaard, and
     *   D. C. Langreth, Phys. Rev. B 76, 125112 (2007).
     *
     *   G. Roman-Perez and J. M. Soler, Phys. Rev. Lett. 103, 096102 (2009).
     *
     *
     * If you are using vdW-DF2, please also cite:
     *
     *   K. Lee, E. D. Murray, L. Kong, B. I. Lundqvist, and
     *   D. C. Langreth, Phys. Rev. B 82, 081101(R) (2010).
     *
     *
     * If you are calculating the stress with vdW-DF, please also cite:
     *
     *   R. Sabatini, E. Kucukbenli, B. Kolb, T. Thonhauser, and
     *   S. de Gironcoli, J. Phys.: Condens. Matter 24, 424209 (2012).
     *

     Carrying out vdW-DF run using the following parameters:

     Nqs =      20    Nr_points =    1024   r_max =   100.000
     q_mesh =
               0.00001000     0.04494208     0.09755937     0.15916263
               0.23128650     0.31572767     0.41458969     0.53033537
               0.66584808     0.82450364     1.01025438     1.22772762
               1.48234092     1.78043706     2.12944203     2.53805004
               3.01644009     3.57652955     4.23227104     5.00000000

     Gradients computed in reciprocal space

     Adding external electric field

     Computed dipole along edir(3) :
        Dipole               -3.4726 Ry au,         -8.8265 Debye
        Dipole field         -0.0060 Ry au

        Potential amp.        0.5676 Ry
        Total length         47.3240 bohr

     Starting wfc are  113 randomized atomic wfcs

     Self-consistent Calculation

     iteration #  1     ecut=    36.75 Ry     beta=0.30
     Davidson diagonalization with overlap
     ethr =  1.00E-02,  avg # of iterations =  7.7

[...]

     total energy              =   -2231.78669356 Ry
     Harris-Foulkes estimate   =   -2270.29090007 Ry
     estimated scf accuracy    <      81.34393846 Ry

[...]

     End of self-consistent calculation

          k = 0.0000 0.0000 0.0000 ( 27441 PWs)   bands (ev):

   -22.2867 -22.2737 -22.2737 -22.2377 -22.2219 -22.2178 -22.2178 -22.2006
   -22.2006 -22.1829 -22.1736 -22.1736 -22.1506 -22.1506 -22.1380 -22.1079
   -22.1079 -22.0993 -22.0817 -22.0553 -22.0512 -22.0512 -22.0314 -22.0314
   -22.0085 -22.0085 -22.0057 -22.0034 -21.9959 -21.9959 -21.9782 -21.9782
   -21.9632 -21.9632 -21.9563 -21.9546 -21.9546 -21.9469 -21.9408 -21.9408
   -21.9374 -21.9106 -21.9106 -21.8909 -21.8690 -21.8646 -21.8646 -21.8536
   -21.8536 -21.8340 -21.8317 -21.8317 -21.8267 -21.8267 -21.8167 -21.8167
   -21.8150 -21.8137 -21.8137 -21.8107 -13.7004 -11.9966 -10.8517  -9.7969
    -9.2836  -9.2836  -9.1662  -8.7823  -8.7823  -8.6493  -8.3497  -8.3496
    -8.2488  -4.7356  -3.5882  -3.5882  -3.3828  -2.8862  -2.6133  -2.6133
    -2.5234  -2.5234  -2.4983  -0.9207  -0.8307  -0.8307   0.0930   1.1456
     1.1458   1.1458   1.6110   1.8161   1.8161   2.2434   2.4353   2.4353
     2.8241   3.2970   3.2970   3.3978   3.7789   3.8588   3.8589

[...]

          k =-0.0718 0.0415 0.0000 ( 27378 PWs)   bands (ev):

[...]

     the Fermi energy is     1.5232 ev

!    total energy              =   -2267.27068272 Ry
     Harris-Foulkes estimate   =   -2267.27068698 Ry
     estimated scf accuracy    <       0.00000197 Ry

     The total energy is the sum of the following terms:

     one-electron contribution =  -11012.93764007 Ry
     hartree contribution      =    5563.76566288 Ry
     xc contribution           =    -805.25889932 Ry
     ewald contribution        =    3987.21639411 Ry
     electric field correction =       0.00000407 Ry
     smearing contrib. (-TS)   =      -0.05620439 Ry

     convergence has been achieved in  17 iterations

 BEEF-vdW xc energy contributions
           1 :   -717.797761228846
           2 :    667.027246711586
           3 :   -577.476624627082
           4 :    468.620554365377
           5 :   -360.899558527515
           6 :    269.783344800468
           7 :   -202.287264968543
           8 :    156.820109424078
           9 :   -126.031466112501
          10 :    101.186970137857
          11 :   -76.1305004692952
          12 :    49.2705747516952
          13 :   -23.0929803002384
          14 :    1.85375585128793
          15 :    11.1788118769912
          16 :   -15.5679304745723
          17 :    13.8752575071487
          18 :   -10.2884622786561
          19 :    8.56912959710587
          20 :   -10.4106541090326
          21 :    14.9739921438869
          22 :   -19.7202679313866
          23 :    21.9984902393928
          24 :   -20.5180368128974
          25 :    15.9697439924282
          26 :   -10.5580371220639
          27 :    6.77436224222663
          28 :   -6.10169269949870
          29 :    8.32135879233897
          30 :   -11.7418715964141
          31 :   -57.4546409710761
          32 :   -42.2795955033847

     Forces acting on atoms (Ry/au):

     negative rho (up, down):  5.264E-01 0.000E+00
     atom    1 type  1   force =    -0.00000652    0.00000192   -0.00761087
     atom    2 type  1   force =     0.00000865    0.00486603   -0.00902654
     atom    3 type  1   force =     0.00422296   -0.00244053   -0.00901793
     atom    4 type  1   force =    -0.00423123   -0.00243750   -0.00900712
     atom    5 type  1   force =    -0.00153326    0.00088848   -0.00492105
     atom    6 type  1   force =     0.00153256    0.00088908   -0.00490461
     atom    7 type  1   force =    -0.00000481   -0.00000212   -0.00842812
     atom    8 type  1   force =     0.00000741   -0.00177292   -0.00490740
     atom    9 type  1   force =     0.00342684    0.00198230    0.02723852
     atom   10 type  1   force =    -0.00342432    0.00198733    0.02724914
     atom   11 type  1   force =     0.00000229   -0.00395746    0.02725680
     atom   12 type  1   force =    -0.00000122   -0.00000581    0.00774742
     atom   13 type  2   force =    -0.00000048    0.00000056   -0.00766775
     atom   14 type  3   force =     0.00000113    0.00000063   -0.02400049

     Total force =     0.054491     Total SCF correction =     0.002200

     entering subroutine stress ...

     negative rho (up, down):  5.264E-01 0.000E+00
          total   stress  (Ry/bohr**3)                   (kbar)     P=    5.68
   0.00004337   0.00000000   0.00000000          6.38      0.00      0.00
   0.00000000   0.00004336  -0.00000000          0.00      6.38     -0.00
   0.00000000  -0.00000000   0.00002920          0.00     -0.00      4.29

     BFGS Geometry Optimization

     number of scf cycles    =   1
     number of bfgs steps    =   0

     energy   new            =   -2267.2706827177 Ry

     new trust radius        =       0.0275425980 bohr
     new conv_thr            =       0.0000099958 Ry

ATOMIC_POSITIONS (crystal)
Bi1      0.166666667   0.166666667   0.389334134    0   0   0
Bi1      0.666666667   0.166666667   0.389334134    0   0   0
Bi1      0.166666667   0.666666667   0.389334134    0   0   0
Bi1      0.666666667   0.666666667   0.389334134    0   0   0
Bi1      0.833333333   0.333333333   0.500000000    0   0   0
Bi1      0.333333333   0.333333333   0.500000000    0   0   0
Bi1      0.833333333   0.833333333   0.500000000    0   0   0
Bi1      0.333333333   0.833333333   0.500000000    0   0   0
Bi1      0.000173467   0.000173970   0.611227052
Bi1      0.499652534   0.000174411   0.611227271
Bi1      0.000173830   0.499652688   0.611227429
Bi1      0.500000162   0.499999490   0.610825483
N1       0.166666605   0.166666716   0.665929603
H1       0.166666725   0.166666722   0.706473190

     Writing output data file calc.save
     Check: negative starting charge=   -0.503074
     NEW-OLD atomic charge density approx. for the potential

     Check: negative/imaginary core charge=   -0.000001    0.000000
     Check: negative starting charge=   -0.504297

[...]

     energy   old            =   -2267.2706827177 Ry
     energy   new            =   -2267.2734392838 Ry

     CASE: energy  _new < energy  _old

     WARNING: bfgs curvature condition failed, Theta= 0.900
     new trust radius        =       0.0302968578 bohr
     new conv_thr            =       0.0000001000 Ry

[...]

     iteration #  1     ecut=    36.75 Ry     beta=0.30
     Davidson diagonalization with overlap
     c_bands:  1 eigenvalues not converged
     c_bands:  1 eigenvalues not converged
     c_bands:  1 eigenvalues not converged
     ethr =  1.00E-06,  avg # of iterations =  9.1

[...]

     iteration #  1     ecut=    36.75 Ry     beta=0.30
     Davidson diagonalization with overlap
     c_bands:  1 eigenvalues not converged
     c_bands:  1 eigenvalues not converged
     c_bands:  1 eigenvalues not converged
     ethr =  1.00E-06,  avg # of iterations = 10.8

[...]

     Total force =     0.005652     Total SCF correction =     0.000627
     SCF correction compared to forces is large: reduce conv_thr to get better values

[...]

     Total force =     0.008081     Total SCF correction =     0.000487

[...]

     number of scf cycles    =  20
     number of bfgs steps    =  19

     energy   old            =   -2267.2934176255 Ry
     energy   new            =   -2267.2934765423 Ry

     CASE: energy  _new < energy  _old

     new trust radius        =       0.0306134537 bohr
     new conv_thr            =       0.0000001000 Ry

ATOMIC_POSITIONS (crystal)
Bi1      0.166666667   0.166666667   0.389334134    0   0   0
Bi1      0.666666667   0.166666667   0.389334134    0   0   0
Bi1      0.166666667   0.666666667   0.389334134    0   0   0
Bi1      0.666666667   0.666666667   0.389334134    0   0   0
Bi1      0.833333333   0.333333333   0.500000000    0   0   0
Bi1      0.333333333   0.333333333   0.500000000    0   0   0
Bi1      0.833333333   0.833333333   0.500000000    0   0   0
Bi1      0.333333333   0.833333333   0.500000000    0   0   0
Bi1     -0.003861007  -0.003872872   0.625740208
Bi1      0.507689439  -0.003815336   0.625727907
Bi1     -0.003838967   0.507714132   0.625732882
Bi1      0.500018217   0.499999611   0.617917658
N1       0.166657987   0.166662028   0.671990190
H1       0.166665579   0.166656358   0.712126496

     Writing output data file calc.save
     Check: negative starting charge=   -0.502618
     NEW-OLD atomic charge density approx. for the potential

     Check: negative/imaginary core charge=   -0.000001    0.000000
     Check: negative starting charge=   -0.502755

[...]

     Self-consistent Calculation

[...]

     total energy              =   -2267.29350541 Ry
     Harris-Foulkes estimate   =   -2267.29350551 Ry
     estimated scf accuracy    <       0.00000031 Ry

     iteration #  8     ecut=    36.75 Ry     beta=0.30
     Davidson diagonalization with overlap
     ethr =  1.68E-10,  avg # of iterations =  2.8

[...]

     negative rho (up, down):  5.260E-01 0.000E+00

     Adding external electric field

     Computed dipole along edir(3) :
        Dipole                0.0871 Ry au,          0.2214 Debye
        Dipole field          0.0002 Ry au

        Potential amp.       -0.0142 Ry
        Total length         47.3240 bohr

     End of self-consistent calculation

[...]

          k = 0.0479-0.0553 0.0000 ( 27352 PWs)   bands (ev):

[...]

          k =-0.0718-0.0415 0.0000 ( 27378 PWs)   bands (ev):

   -22.1195 -22.0805 -22.0755 -22.0660 -22.0536 -22.0512 -22.0481 -22.0473
   -22.0458 -22.0456 -22.0438 -22.0412 -22.0319 -22.0257 -22.0175 -21.9926
   -21.9788 -21.9767 -21.9615 -21.9593 -21.9405 -21.9394 -21.9324 -21.9289
   -21.9273 -21.9272 -21.9221 -21.9198 -21.9119 -21.9097 -21.9095 -21.9053
   -21.9037 -21.9000 -21.8969 -21.8874 -21.8784 -21.8777 -21.8600 -21.8484
   -21.8432 -21.8419 -21.8409 -21.8393 -21.8354 -21.8315 -21.8312 -21.8298
   -21.8265 -21.8258 -21.8202 -21.8082 -21.8067 -21.7777 -21.7725 -21.7308
   -21.7191 -21.6942 -21.6926 -21.6796 -14.2913 -10.8127 -10.7646 -10.0646
    -9.7103  -9.2505  -9.2296  -9.1523  -9.0863  -8.7876  -8.5510  -8.2557
    -8.1782  -4.4002  -2.6183  -2.0677  -1.8391  -1.7280  -1.7141  -1.6243
    -1.4747  -1.4067  -1.1383  -0.3502  -0.2702  -0.2666  -0.0563   0.1619
     0.6252   0.9266   0.9563   1.0123   1.0373   1.2001   1.2568   1.5462
     1.7245   1.8657   2.0622   2.3849   2.8867   3.1795   3.4097

     the Fermi energy is     1.5983 ev

!    total energy              =   -2267.29350542 Ry
     Harris-Foulkes estimate   =   -2267.29350535 Ry
     estimated scf accuracy    <       0.00000004 Ry

     The total energy is the sum of the following terms:

     one-electron contribution =  -10509.15193674 Ry
     hartree contribution      =    5312.34150065 Ry
     xc contribution           =    -805.11065425 Ry
     ewald contribution        =    3734.68399855 Ry
     electric field correction =       0.00001310 Ry
     smearing contrib. (-TS)   =      -0.05642673 Ry

     convergence has been achieved in   8 iterations

 BEEF-vdW xc energy contributions
           1 :   -717.640590096613
           2 :    666.747978111114
           3 :   -577.022762453295
           4 :    468.052852695766
           5 :   -360.373827450954
           6 :    269.468777648786
           7 :   -202.266823501387
           8 :    157.035020713805
           9 :   -126.306256759636
          10 :    101.322578150603
          11 :   -76.0125843614242
          12 :    48.9328820870683
          13 :   -22.7006124636576
          14 :    1.61365945985631
          15 :    11.1326509953394
          16 :   -15.2509755982576
          17 :    13.4474558509830
          18 :   -9.97035815687377
          19 :    8.52396527403278
          20 :   -10.6560677783984
          21 :    15.3719917623029
          22 :   -20.0517383256101
          23 :    22.0814494743914
          24 :   -20.3052381625081
          25 :    15.5729503127177
          26 :   -10.1863831712517
          27 :    6.62090042096656
          28 :   -6.23974813156610
          29 :    8.66630490424927
          30 :   -12.0984276923266
          31 :   -57.4385397703236
          32 :   -42.2272427737219

     Forces acting on atoms (Ry/au):

     negative rho (up, down):  5.260E-01 0.000E+00
     atom    1 type  1   force =     0.00000470    0.00000406   -0.00335374
     atom    2 type  1   force =    -0.00000026    0.00408000   -0.00427330
     atom    3 type  1   force =     0.00353538   -0.00204136   -0.00427711
     atom    4 type  1   force =    -0.00352911   -0.00203761   -0.00426558
     atom    5 type  1   force =     0.00212231   -0.00122769    0.00374446
     atom    6 type  1   force =    -0.00212612   -0.00122611    0.00373964
     atom    7 type  1   force =     0.00000323   -0.00000009    0.00577618
     atom    8 type  1   force =    -0.00000351    0.00245092    0.00374416
     atom    9 type  1   force =    -0.00035542   -0.00020385    0.00019511
     atom   10 type  1   force =     0.00034844   -0.00022763    0.00020585
     atom   11 type  1   force =    -0.00002978    0.00041709    0.00021070
     atom   12 type  1   force =     0.00001460    0.00000396   -0.00192551
     atom   13 type  2   force =     0.00001010    0.00000520    0.00017374
     atom   14 type  3   force =     0.00000544    0.00000310    0.00030540

     Total force =     0.002115     Total SCF correction =     0.000396
     SCF correction compared to forces is large: reduce conv_thr to get better values

     entering subroutine stress ...

     negative rho (up, down):  5.260E-01 0.000E+00
          total   stress  (Ry/bohr**3)                   (kbar)     P=    1.80
   0.00002037   0.00000000   0.00000000          3.00      0.00      0.00
   0.00000000   0.00002037   0.00000000          0.00      3.00      0.00
   0.00000000   0.00000000  -0.00000401          0.00      0.00     -0.59

     bfgs converged in  21 scf cycles and  20 bfgs steps
     (criteria: energy <  1.0E+00, force <  1.9E-03)

     End of BFGS Geometry Optimization

     Final energy   =   -2267.2935054246 Ry
Begin final coordinates

ATOMIC_POSITIONS (crystal)
Bi1      0.166666667   0.166666667   0.389334134    0   0   0
Bi1      0.666666667   0.166666667   0.389334134    0   0   0
Bi1      0.166666667   0.666666667   0.389334134    0   0   0
Bi1      0.666666667   0.666666667   0.389334134    0   0   0
Bi1      0.833333333   0.333333333   0.500000000    0   0   0
Bi1      0.333333333   0.333333333   0.500000000    0   0   0
Bi1      0.833333333   0.833333333   0.500000000    0   0   0
Bi1      0.333333333   0.833333333   0.500000000    0   0   0
Bi1     -0.003861007  -0.003872872   0.625740208
Bi1      0.507689439  -0.003815336   0.625727907
Bi1     -0.003838967   0.507714132   0.625732882
Bi1      0.500018217   0.499999611   0.617917658
N1       0.166657987   0.166662028   0.671990190
H1       0.166665579   0.166656358   0.712126496
End final coordinates

     Writing output data file calc.save

     General routines

     Parallel routines

   This run was terminated on:  12:46:44  27Apr2018

   JOB DONE.