     Program PWSCF v.5.1rc2 (svn rev. 11289) starts on 11Jan2019 at 22:46:19

     Current dimensions of program PWSCF are:
     Max number of different atomic species (ntypx) = 10
     Max number of k-points (npk) =  40000
     Max angular momentum in pseudopotentials (lmaxx) =  3

     IMPORTANT: XC functional enforced from input :
     Exchange-correlation      = BEEF-VDW ( 1  4 27 13 2)
     Any further DFT definition will be discarded
     Please, verify this is what you really want

     Subspace diagonalization in iterative solution of the eigenvalue problem:
     a serial algorithm will be used

     bravais-lattice index     =            0
     lattice parameter (alat)  =      12.6383  a.u.
     unit-cell volume          =    6655.4372 (a.u.)^3
     number of atoms/cell      =           13
     number of atomic types    =            2
     number of electrons       =       160.00
     number of Kohn-Sham states=           90
     kinetic-energy cutoff     =      36.7493  Ry
     charge density cutoff     =     367.4933  Ry
     convergence threshold     =      1.0E-04
     mixing beta               =       0.2000
     number of iterations used =            8  plain     mixing
     Exchange-correlation      = BEEF-VDW ( 1  4 27 13 2)
     nstep                     =           50

     celldm(1)=  12.638304  celldm(2)=   0.000000  celldm(3)=   0.000000
     celldm(4)=   0.000000  celldm(5)=   0.000000  celldm(6)=   0.000000

     crystal axes: (cart. coord. in units of alat)
               a(1) = (   1.000000   0.000000   0.000000 )
               a(2) = (   0.500000   0.866025   0.000000 )
               a(3) = (   0.000000   0.000000   3.806971 )

     reciprocal axes: (cart. coord. in units 2 pi/alat)
               b(1) = (  1.000000 -0.577350  0.000000 )
               b(2) = (  0.000000  1.154701  0.000000 )
               b(3) = (  0.000000  0.000000  0.262676 )

     PseudoPot. # 1 for Tl read from file:
     /u/if/jboes/code/decaf-espresso/gbrv15pbe/Tl.UPF
     MD5 check sum: b76cf1f7e72655a2b2c53cf6385d7059
     Pseudo is Ultrasoft + core correction, Zval = 13.0
     Generated by new atomic code, or converted to UPF format
     Using radial grid of  899 points,  6 beta functions with:
                l(1) =   0
                l(2) =   0
                l(3) =   1
                l(4) =   1
                l(5) =   2
                l(6) =   2
     Q(r) pseudized with  6 coefficients,  rinner =    1.100   1.100   1.100
                                                       1.100   1.100

     PseudoPot. # 2 for C  read from file:
     /u/if/jboes/code/decaf-espresso/gbrv15pbe/C.UPF
     MD5 check sum: d1aef80898a10debaa0f26306b886e00
     Pseudo is Ultrasoft + core correction, Zval =  4.0
     Generated by new atomic code, or converted to UPF format
     Using radial grid of  721 points,  4 beta functions with:
                l(1) =   0
                l(2) =   0
                l(3) =   1
                l(4) =   1
     Q(r) pseudized with  8 coefficients,  rinner =    1.100   1.100   1.100

     vdW kernel table read from file vdW_kernel_table
     MD5 check sum: 095c7af220d748ca6e76c0b4c6cfb241

     atomic species   valence    mass     pseudopotential
        Tl            13.00   204.38000     Tl( 1.00)
        C              4.00    12.01100     C ( 1.00)

     No symmetry found

   Cartesian axes

     site n.     atom                  positions (alat units)
         1           Tl  tau(   1) = (   0.2500000   0.1443376   1.4952371  )
         2           Tl  tau(   2) = (   0.7500000   0.1443376   1.4952371  )
         3           Tl  tau(   3) = (   0.5000000   0.5773503   1.4952371  )
         4           Tl  tau(   4) = (   1.0000000   0.5773503   1.4952371  )
         5           Tl  tau(   5) = (   1.0000000   0.2886751   1.9034854  )
         6           Tl  tau(   6) = (   0.5000000   0.2886751   1.9034854  )
         7           Tl  tau(   7) = (   1.2500000   0.7216878   1.9034854  )
         8           Tl  tau(   8) = (   0.7500000   0.7216878   1.9034854  )
         9           Tl  tau(   9) = (  -0.0120705  -0.0069645   2.3785343  )
        10           Tl  tau(  10) = (   0.5120654  -0.0069700   2.3785375  )
        11           Tl  tau(  11) = (   0.2500006   0.4469426   2.3785122  )
        12           Tl  tau(  12) = (   0.7499981   0.4330112   2.3820449  )
        13           C   tau(  13) = (   0.2499977   0.1443394   2.5368958  )

     number of k points=    20  Fermi-Dirac smearing, width (Ry)=  0.0110
                       cart. coord. in units 2pi/alat
        k(    1) = (   0.0000000   0.0000000   0.0000000), wk =   0.0555556
        k(    2) = (   0.0000000   0.1924501   0.0000000), wk =   0.1111111
        k(    3) = (   0.0000000   0.3849002   0.0000000), wk =   0.1111111
        k(    4) = (   0.0000000  -0.5773503   0.0000000), wk =   0.0555556
        k(    5) = (   0.1666667  -0.0962250   0.0000000), wk =   0.1111111
        k(    6) = (   0.1666667   0.0962250   0.0000000), wk =   0.1111111
        k(    7) = (   0.1666667   0.2886751   0.0000000), wk =   0.1111111
        k(    8) = (   0.1666667  -0.6735753   0.0000000), wk =   0.1111111
        k(    9) = (   0.1666667  -0.4811252   0.0000000), wk =   0.1111111
        k(   10) = (   0.1666667  -0.2886751   0.0000000), wk =   0.1111111
        k(   11) = (   0.3333333  -0.1924501   0.0000000), wk =   0.1111111
        k(   12) = (   0.3333333  -0.0000000   0.0000000), wk =   0.1111111
        k(   13) = (   0.3333333   0.1924501   0.0000000), wk =   0.1111111
        k(   14) = (   0.3333333  -0.7698004   0.0000000), wk =   0.1111111
        k(   15) = (   0.3333333  -0.5773503   0.0000000), wk =   0.1111111
        k(   16) = (   0.3333333  -0.3849002   0.0000000), wk =   0.1111111
        k(   17) = (  -0.5000000   0.2886751   0.0000000), wk =   0.0555556
        k(   18) = (  -0.5000000   0.4811252   0.0000000), wk =   0.1111111
        k(   19) = (  -0.5000000   0.6735753   0.0000000), wk =   0.1111111
        k(   20) = (  -0.5000000  -0.2886751   0.0000000), wk =   0.0555556

     Largest allocated arrays     est. size (Mb)     dimensions
     Largest temporary arrays     est. size (Mb)     dimensions

     Check: negative/imaginary core charge=   -0.000001    0.000000

     Initial potential from superposition of free atoms
     Check: negative starting charge=   -0.603963

     starting charge  159.94157, renormalised to  160.00000

     negative rho (up, down):  6.042E-01 0.000E+00

     *
     * You are using vdW-DF for exchange-correlation in this calculation.
     * Please cite the following three references that made this development
     * possible:
     *
     *   M. Dion, H. Rydberg, E. Schroder, D. C. Langreth, and
     *   B. I. Lundqvist, Phys. Rev. Lett. 92, 246401 (2004).
     *
     *   T. Thonhauser, V. R. Cooper, S. Li, A. Puzder, P. Hyldgaard, and
     *   D. C. Langreth, Phys. Rev. B 76, 125112 (2007).
     *
     *   G. Roman-Perez and J. M. Soler, Phys. Rev. Lett. 103, 096102 (2009).
     *
     *
     * If you are using vdW-DF2, please also cite:
     *
     *   K. Lee, E. D. Murray, L. Kong, B. I. Lundqvist, and
     *   D. C. Langreth, Phys. Rev. B 82, 081101(R) (2010).
     *
     *
     * If you are calculating the stress with vdW-DF, please also cite:
     *
     *   R. Sabatini, E. Kucukbenli, B. Kolb, T. Thonhauser, and
     *   S. de Gironcoli, J. Phys.: Condens. Matter 24, 424209 (2012).
     *

     Carrying out vdW-DF run using the following parameters:

     Nqs =      20    Nr_points =    1024   r_max =   100.000
     q_mesh =
               0.00001000     0.04494208     0.09755937     0.15916263
               0.23128650     0.31572767     0.41458969     0.53033537
               0.66584808     0.82450364     1.01025438     1.22772762
               1.48234092     1.78043706     2.12944203     2.53805004
               3.01644009     3.57652955     4.23227104     5.00000000

     Gradients computed in reciprocal space

     Adding external electric field

     Computed dipole along edir(3) :
        Dipole               -0.0110 Ry au,         -0.0279 Debye
        Dipole field         -0.0000 Ry au

        Potential amp.        0.0018 Ry
        Total length         43.3023 bohr

     Starting wfc are  112 randomized atomic wfcs

     Self-consistent Calculation

     iteration #  1     ecut=    36.75 Ry     beta=0.20
     Davidson diagonalization with overlap
     ethr =  1.00E-02,  avg # of iterations =  2.0

[...]

     total energy              =   -1771.85646276 Ry
     Harris-Foulkes estimate   =   -1772.95206561 Ry
     estimated scf accuracy    <       3.34700584 Ry

[...]

     End of self-consistent calculation

          k = 0.0000 0.0000 0.0000 ( 24957 PWs)   bands (ev):

   -11.8866 -11.3811 -11.3811 -11.3788 -11.2877 -11.2877 -11.2585 -11.2477
   -11.2395 -11.2395 -11.2276 -11.2276 -11.2209 -11.2097 -11.1190 -11.0583
   -11.0581 -11.0580 -11.0521 -11.0521 -11.0285 -11.0285 -11.0096 -11.0096
   -10.9841 -10.9750 -10.9750 -10.9257 -10.9257 -10.9216 -10.7564 -10.7564
   -10.7515 -10.7515 -10.7122 -10.6592 -10.6485 -10.6485 -10.6396 -10.6199
   -10.6199 -10.5872 -10.5872 -10.5782 -10.5746 -10.5746 -10.5583 -10.5583
   -10.5463 -10.5085 -10.5085 -10.4662 -10.4645 -10.4645 -10.4371 -10.4371
   -10.4306 -10.3890 -10.3890 -10.2792  -9.0452  -8.5872  -6.5888  -5.4430
    -4.2479  -4.2479  -4.2320  -4.0644  -4.0643  -3.7027  -3.2604  -3.2603
    -2.9735  -1.4509  -1.4509  -1.3661  -0.9616  -0.5127  -0.5127  -0.2324
    -0.2324  -0.2080  -0.0643   1.8779   1.8799   1.8800   3.2706   3.5833
     3.7610   3.7611

[...]

          k =-0.5000 0.2887 0.0000 ( 25090 PWs)   bands (ev):

[...]

     the Fermi energy is     1.0044 ev

!    total energy              =   -1772.80851609 Ry
     Harris-Foulkes estimate   =   -1772.80858588 Ry
     estimated scf accuracy    <       0.00005398 Ry

     The total energy is the sum of the following terms:

     one-electron contribution =   -8338.04692848 Ry
     hartree contribution      =    4252.77257681 Ry
     xc contribution           =    -771.83727089 Ry
     ewald contribution        =    3084.34469054 Ry
     electric field correction =       0.00014247 Ry
     smearing contrib. (-TS)   =      -0.04172655 Ry

     convergence has been achieved in  10 iterations

     Forces acting on atoms (Ry/au):

     negative rho (up, down):  6.322E-01 0.000E+00
     atom    1 type  1   force =    -0.00001851    0.00000164   -0.03071074
     atom    2 type  1   force =     0.00000630    0.00040740   -0.03265162
     atom    3 type  1   force =     0.00034166   -0.00016431   -0.03262730
     atom    4 type  1   force =    -0.00035404   -0.00021280   -0.03266019
     atom    5 type  1   force =     0.00043113   -0.00023058    0.02513689
     atom    6 type  1   force =    -0.00040926   -0.00021559    0.02513774
     atom    7 type  1   force =     0.00003646   -0.00001281    0.02374515
     atom    8 type  1   force =    -0.00004434    0.00045408    0.02513896
     atom    9 type  1   force =    -0.00017065   -0.00009720    0.00769723
     atom   10 type  1   force =     0.00020429   -0.00010384    0.00767772
     atom   11 type  1   force =     0.00002573    0.00022202    0.00769880
     atom   12 type  1   force =    -0.00005620   -0.00004509    0.00803769
     atom   13 type  2   force =     0.00000743   -0.00000292   -0.00162033

     Total force =     0.015647     Total SCF correction =     0.031917
     SCF correction compared to forces is large: reduce conv_thr to get better values

     BFGS Geometry Optimization

     number of scf cycles    =   1
     number of bfgs steps    =   0

     energy   new            =   -1772.8085160888 Ry

     new trust radius        =       0.0080380147 bohr
     new conv_thr            =       0.0001000000 Ry

ATOMIC_POSITIONS (angstrom)
Tl       1.671975640   0.965315586  10.000000000    0   0   0
Tl       5.015926920   0.965315586  10.000000000    0   0   0
Tl       3.343951280   3.861262344  10.000000000    0   0   0
Tl       6.687902560   3.861262344  10.000000000    0   0   0
Tl       6.687902560   1.930631172  12.730324787    0   0   0
Tl       3.343951280   1.930631172  12.730324787    0   0   0
Tl       8.359878201   4.826577929  12.730324787    0   0   0
Tl       5.015926920   4.826577929  12.730324787    0   0   0
Tl      -0.080816824  -0.046629634  15.911479146
Tl       3.424751507  -0.046669908  15.911489624
Tl       1.671993324   2.989225723  15.911331721
Tl       5.015884338   2.895912877  15.935137646
C        1.671964208   0.965326430  16.965654241

     Writing output data file calc.save
     Check: negative starting charge=   -0.603963
     NEW-OLD atomic charge density approx. for the potential

     Check: negative/imaginary core charge=   -0.000001    0.000000
     Check: negative starting charge=   -0.604014

[...]

     energy   old            =   -1772.8085160888 Ry
     energy   new            =   -1772.8085369526 Ry

     CASE: energy  _new < energy  _old

[...]

     number of scf cycles    =   3
     number of bfgs steps    =   2

     energy   old            =   -1772.8085369526 Ry
     energy   new            =   -1772.8085566595 Ry

     CASE: energy  _new < energy  _old

     new trust radius        =       0.0017620696 bohr
     new conv_thr            =       0.0000010000 Ry

ATOMIC_POSITIONS (angstrom)
Tl       1.671975640   0.965315586  10.000000000    0   0   0
Tl       5.015926920   0.965315586  10.000000000    0   0   0
Tl       3.343951280   3.861262344  10.000000000    0   0   0
Tl       6.687902560   3.861262344  10.000000000    0   0   0
Tl       6.687902560   1.930631172  12.730324787    0   0   0
Tl       3.343951280   1.930631172  12.730324787    0   0   0
Tl       8.359878201   4.826577930  12.730324787    0   0   0
Tl       5.015926920   4.826577930  12.730324787    0   0   0
Tl      -0.080559459  -0.046492280  15.912559936
Tl       3.424486078  -0.046530370  15.912576417
Tl       1.671979704   2.988936358  15.912427416
Tl       5.015900336   2.895924909  15.933826101
C        1.671965293   0.965329854  16.966964569

     Writing output data file calc.save
     Check: negative starting charge=   -0.604065
     NEW-OLD atomic charge density approx. for the potential

     Check: negative/imaginary core charge=   -0.000001    0.000000
     Check: negative starting charge=   -0.604079

[...]

     Self-consistent Calculation

[...]

     total energy              =   -1772.80855772 Ry
     Harris-Foulkes estimate   =   -1772.80856224 Ry
     estimated scf accuracy    <       0.00002283 Ry

     iteration #  4     ecut=    36.75 Ry     beta=0.20
     Davidson diagonalization with overlap
     ethr =  1.43E-08,  avg # of iterations =  4.2

     negative rho (up, down):  6.327E-01 0.000E+00

     Adding external electric field

     Computed dipole along edir(3) :
        Dipole               -0.3043 Ry au,         -0.7735 Debye
        Dipole field         -0.0006 Ry au

        Potential amp.        0.0498 Ry
        Total length         43.3023 bohr

     End of self-consistent calculation

[...]

          k = 0.3333-0.3849 0.0000 ( 25036 PWs)   bands (ev):

[...]

          k =-0.5000-0.2887 0.0000 ( 25090 PWs)   bands (ev):

   -11.6802 -11.2574 -11.2445 -11.2175 -11.1515 -11.1474 -11.1378 -11.1372
   -11.1295 -11.1250 -11.0849 -11.0817 -11.0642 -11.0400 -11.0254 -11.0241
   -11.0165 -11.0049 -10.9972 -10.9797 -10.9666 -10.9489 -10.9443 -10.9323
   -10.9245 -10.9067 -10.8848 -10.8745 -10.8719 -10.8400 -10.8261 -10.8191
   -10.8093 -10.7847 -10.7744 -10.7664 -10.7631 -10.7448 -10.7359 -10.7335
   -10.7298 -10.7056 -10.7056 -10.7016 -10.6941 -10.6914 -10.6788 -10.6657
   -10.6568 -10.6359 -10.6333 -10.6034 -10.5858 -10.5777 -10.5640 -10.5555
   -10.5231 -10.4835 -10.4826 -10.3875  -8.5512  -7.5838  -7.4511  -6.5832
    -5.5284  -5.0683  -5.0385  -5.0024  -4.6076  -4.4312  -3.2547  -3.1328
    -2.5764  -0.6868   0.2894   0.4324   0.5643   0.7892   1.0341   1.1087
     1.1838   1.3878   1.8946   2.2550   2.4102   2.5245   2.9072   3.4314
     3.6088   3.6673

     the Fermi energy is     1.0052 ev

!    total energy              =   -1772.80856102 Ry
     Harris-Foulkes estimate   =   -1772.80855859 Ry
     estimated scf accuracy    <       0.00000012 Ry

     The total energy is the sum of the following terms:

     one-electron contribution =   -8332.51355539 Ry
     hartree contribution      =    4249.89557386 Ry
     xc contribution           =    -771.83843257 Ry
     ewald contribution        =    3081.68934163 Ry
     electric field correction =       0.00017485 Ry
     smearing contrib. (-TS)   =      -0.04166341 Ry

     convergence has been achieved in   4 iterations

     Forces acting on atoms (Ry/au):

     negative rho (up, down):  6.327E-01 0.000E+00
     atom    1 type  1   force =     0.00000062   -0.00000042   -0.02077807
     atom    2 type  1   force =     0.00000042    0.00088554   -0.02282137
     atom    3 type  1   force =     0.00076982   -0.00044509   -0.02281940
     atom    4 type  1   force =    -0.00076816   -0.00044372   -0.02282096
     atom    5 type  1   force =    -0.00079585    0.00045386    0.02254003
     atom    6 type  1   force =     0.00079610    0.00045905    0.02254257
     atom    7 type  1   force =     0.00000007    0.00000355    0.02379153
     atom    8 type  1   force =    -0.00000085   -0.00091715    0.02253552
     atom    9 type  1   force =    -0.00028395   -0.00016155   -0.00038742
     atom   10 type  1   force =     0.00027883   -0.00015947   -0.00038382
     atom   11 type  1   force =     0.00000045    0.00032077   -0.00038558
     atom   12 type  1   force =     0.00000107    0.00000162   -0.00157807
     atom   13 type  2   force =     0.00000143    0.00000302    0.00056505

     Total force =     0.001889     Total SCF correction =     0.001232
     SCF correction compared to forces is large: reduce conv_thr to get better values

     bfgs converged in   4 scf cycles and   3 bfgs steps
     (criteria: energy <  1.0E+12, force <  1.9E-03)

     End of BFGS Geometry Optimization

     Final energy   =   -1772.8085610222 Ry
Begin final coordinates

ATOMIC_POSITIONS (angstrom)
Tl       1.671975640   0.965315586  10.000000000    0   0   0
Tl       5.015926920   0.965315586  10.000000000    0   0   0
Tl       3.343951280   3.861262344  10.000000000    0   0   0
Tl       6.687902560   3.861262344  10.000000000    0   0   0
Tl       6.687902560   1.930631172  12.730324787    0   0   0
Tl       3.343951280   1.930631172  12.730324787    0   0   0
Tl       8.359878201   4.826577930  12.730324787    0   0   0
Tl       5.015926920   4.826577930  12.730324787    0   0   0
Tl      -0.080559459  -0.046492280  15.912559936
Tl       3.424486078  -0.046530370  15.912576417
Tl       1.671979704   2.988936358  15.912427416
Tl       5.015900336   2.895924909  15.933826101
C        1.671965293   0.965329854  16.966964569
End final coordinates

     Writing output data file calc.save

     General routines

     Parallel routines

   This run was terminated on:  22:59: 9  11Jan2019

   JOB DONE.
Job  /afs/slac/g/suncat/bin/suncat-tsmpirun -x LD_LIBRARY_PATH -wdir /tmp/qe_673693ow4079kg_scratch pw.x -npool 4 -in pw.pwi

TID   HOST_NAME   COMMAND_LINE            STATUS            TERMINATION_TIME
00000 suncat0001 pw.x -npool 4 -i  Done                     01/11/2019 22:59:09
00001 suncat0001 pw.x -npool 4 -i  Done                     01/11/2019 22:59:09
00002 suncat0001 pw.x -npool 4 -i  Done                     01/11/2019 22:59:09
00003 suncat0001 pw.x -npool 4 -i  Done                     01/11/2019 22:59:09
00004 suncat0001 pw.x -npool 4 -i  Done                     01/11/2019 22:59:09
00005 suncat0001 pw.x -npool 4 -i  Done                     01/11/2019 22:59:09
00006 suncat0001 pw.x -npool 4 -i  Done                     01/11/2019 22:59:09
00007 suncat0001 pw.x -npool 4 -i  Done                     01/11/2019 22:59:09
00008 suncat0242 pw.x -npool 4 -i  Done                     01/11/2019 22:59:09
00009 suncat0242 pw.x -npool 4 -i  Done                     01/11/2019 22:59:09
00010 suncat0242 pw.x -npool 4 -i  Done                     01/11/2019 22:59:09
00011 suncat0242 pw.x -npool 4 -i  Done                     01/11/2019 22:59:09
00012 suncat0242 pw.x -npool 4 -i  Done                     01/11/2019 22:59:09
00013 suncat0242 pw.x -npool 4 -i  Done                     01/11/2019 22:59:09
00014 suncat0242 pw.x -npool 4 -i  Done                     01/11/2019 22:59:09
00015 suncat0242 pw.x -npool 4 -i  Done                     01/11/2019 22:59:09
00016 suncat0241 pw.x -npool 4 -i  Done                     01/11/2019 22:59:09
00017 suncat0241 pw.x -npool 4 -i  Done                     01/11/2019 22:59:09
00018 suncat0241 pw.x -npool 4 -i  Done                     01/11/2019 22:59:09
00019 suncat0241 pw.x -npool 4 -i  Done                     01/11/2019 22:59:09
00020 suncat0241 pw.x -npool 4 -i  Done                     01/11/2019 22:59:09
00021 suncat0241 pw.x -npool 4 -i  Done                     01/11/2019 22:59:09
00022 suncat0241 pw.x -npool 4 -i  Done                     01/11/2019 22:59:09
00023 suncat0241 pw.x -npool 4 -i  Done                     01/11/2019 22:59:09
00024 suncat0238 pw.x -npool 4 -i  Done                     01/11/2019 22:59:09
00025 suncat0238 pw.x -npool 4 -i  Done                     01/11/2019 22:59:09
00026 suncat0238 pw.x -npool 4 -i  Done                     01/11/2019 22:59:09
00027 suncat0238 pw.x -npool 4 -i  Done                     01/11/2019 22:59:09
00028 suncat0238 pw.x -npool 4 -i  Done                     01/11/2019 22:59:09
00029 suncat0238 pw.x -npool 4 -i  Done                     01/11/2019 22:59:09
00030 suncat0238 pw.x -npool 4 -i  Done                     01/11/2019 22:59:09
00031 suncat0238 pw.x -npool 4 -i  Done                     01/11/2019 22:59:09