     Program PWSCF v.5.1rc2 (svn rev. 11289) starts on 19Jan2018 at 11: 3:35

     Current dimensions of program PWSCF are:
     Max number of different atomic species (ntypx) = 10
     Max number of k-points (npk) =  40000
     Max angular momentum in pseudopotentials (lmaxx) =  3
     Presently stress not available with electric field

     IMPORTANT: XC functional enforced from input :
     Exchange-correlation      = BEEF-VDW ( 1  4 27 13 2)
     Any further DFT definition will be discarded
     Please, verify this is what you really want

     Subspace diagonalization in iterative solution of the eigenvalue problem:
     a serial algorithm will be used

     bravais-lattice index     =            0
     lattice parameter (alat)  =       1.8897  a.u.
     unit-cell volume          =    4552.2840 (a.u.)^3
     number of atoms/cell      =           13
     number of atomic types    =            2
     number of electrons       =       172.00
     number of Kohn-Sham states=           96
     kinetic-energy cutoff     =      36.7493  Ry
     charge density cutoff     =     367.4932  Ry
     convergence threshold     =      1.0E-05
     mixing beta               =       0.3000
     number of iterations used =           10  plain     mixing
     Exchange-correlation      = BEEF-VDW ( 1  4 27 13 2)
     nstep                     =           50

     celldm(1)=   1.889726  celldm(2)=   0.000000  celldm(3)=   0.000000
     celldm(4)=   0.000000  celldm(5)=   0.000000  celldm(6)=   0.000000

     crystal axes: (cart. coord. in units of alat)
               a(1) = (   5.627661   0.000000   0.000000 )
               a(2) = (   2.813831   4.873698   0.000000 )
               a(3) = (   0.000000   0.000000  24.594966 )

     reciprocal axes: (cart. coord. in units 2 pi/alat)
               b(1) = (  0.177694 -0.102592  0.000000 )
               b(2) = (  0.000000  0.205183  0.000000 )
               b(3) = (  0.000000  0.000000  0.040659 )

     PseudoPot. # 1 for Mo read from file:
     /afs/slac.stanford.edu/u/if/mamunm/psp/gbrv1.5pbe/Mo.UPF
     MD5 check sum: 30c4dcd161f5d35cd49bb5239c51a633
     Pseudo is Ultrasoft + core correction, Zval = 14.0
     Generated by new atomic code, or converted to UPF format
     Using radial grid of  889 points,  6 beta functions with:
                l(1) =   0
                l(2) =   0
                l(3) =   1
                l(4) =   1
                l(5) =   2
                l(6) =   2
     Q(r) pseudized with  6 coefficients,  rinner =    1.000   1.000   1.000
                                                       1.000   1.000

     PseudoPot. # 2 for C  read from file:
     /afs/slac.stanford.edu/u/if/mamunm/psp/gbrv1.5pbe/C.UPF
     MD5 check sum: d1aef80898a10debaa0f26306b886e00
     Pseudo is Ultrasoft + core correction, Zval =  4.0
     Generated by new atomic code, or converted to UPF format
     Using radial grid of  721 points,  4 beta functions with:
                l(1) =   0
                l(2) =   0
                l(3) =   1
                l(4) =   1
     Q(r) pseudized with  8 coefficients,  rinner =    1.100   1.100   1.100

     vdW kernel table read from file vdW_kernel_table
     MD5 check sum: 095c7af220d748ca6e76c0b4c6cfb241

     atomic species   valence    mass     pseudopotential
        Mo1           14.00    95.95000     Mo( 1.00)
        C1             4.00    12.01100     C ( 1.00)

     No symmetry found

   Cartesian axes

     site n.     atom                  positions (alat units)
         1           Mo1 tau(   1) = (   1.4069153   0.8122829  10.0000000  )
         2           Mo1 tau(   2) = (   4.2207459   0.8122829  10.0000000  )
         3           Mo1 tau(   3) = (   2.8138306   3.2491317  10.0000000  )
         4           Mo1 tau(   4) = (   5.6276612   3.2491317  10.0000000  )
         5           Mo1 tau(   5) = (   5.6276612   1.6245658  12.2974831  )
         6           Mo1 tau(   6) = (   2.8138306   1.6245658  12.2974831  )
         7           Mo1 tau(   7) = (   7.0345765   4.0614146  12.2974831  )
         8           Mo1 tau(   8) = (   4.2207459   4.0614146  12.2974831  )
         9           Mo1 tau(   9) = (   0.0000000   0.0000000  14.5949661  )
        10           Mo1 tau(  10) = (   2.8138306   0.0000000  14.5949661  )
        11           Mo1 tau(  11) = (   1.4069153   2.4368488  14.5949661  )
        12           Mo1 tau(  12) = (   4.2207459   2.4368488  14.5949661  )
        13           C1  tau(  13) = (   1.4069153   0.0000000  16.8949661  )

     number of k points=    20  Fermi-Dirac smearing, width (Ry)=  0.0110
                       cart. coord. in units 2pi/alat
        k(    1) = (   0.0000000   0.0000000   0.0000000), wk =   0.0555556
        k(    2) = (   0.0000000   0.0341972   0.0000000), wk =   0.1111111
        k(    3) = (   0.0000000   0.0683943   0.0000000), wk =   0.1111111
        k(    4) = (   0.0000000  -0.1025915   0.0000000), wk =   0.0555556
        k(    5) = (   0.0296156  -0.0170986   0.0000000), wk =   0.1111111
        k(    6) = (   0.0296156   0.0170986   0.0000000), wk =   0.1111111
        k(    7) = (   0.0296156   0.0512958   0.0000000), wk =   0.1111111
        k(    8) = (   0.0296156  -0.1196901   0.0000000), wk =   0.1111111
        k(    9) = (   0.0296156  -0.0854929   0.0000000), wk =   0.1111111
        k(   10) = (   0.0296156  -0.0512958   0.0000000), wk =   0.1111111
        k(   11) = (   0.0592312  -0.0341972   0.0000000), wk =   0.1111111
        k(   12) = (   0.0592312   0.0000000   0.0000000), wk =   0.1111111
        k(   13) = (   0.0592312   0.0341972   0.0000000), wk =   0.1111111
        k(   14) = (   0.0592312  -0.1367887   0.0000000), wk =   0.1111111
        k(   15) = (   0.0592312  -0.1025915   0.0000000), wk =   0.1111111
        k(   16) = (   0.0592312  -0.0683943   0.0000000), wk =   0.1111111
        k(   17) = (  -0.0888469   0.0512958   0.0000000), wk =   0.0555556
        k(   18) = (  -0.0888469   0.0854929   0.0000000), wk =   0.1111111
        k(   19) = (  -0.0888469   0.1196901   0.0000000), wk =   0.1111111
        k(   20) = (  -0.0888469  -0.0512958   0.0000000), wk =   0.0555556

     Largest allocated arrays     est. size (Mb)     dimensions
     Largest temporary arrays     est. size (Mb)     dimensions

     Initial potential from superposition of free atoms
     Check: negative starting charge=   -0.004667

     starting charge  171.98720, renormalised to  172.00000

     negative rho (up, down):  4.667E-03 0.000E+00

     *
     * You are using vdW-DF for exchange-correlation in this calculation.
     * Please cite the following three references that made this development
     * possible:
     *
     *   M. Dion, H. Rydberg, E. Schroder, D. C. Langreth, and
     *   B. I. Lundqvist, Phys. Rev. Lett. 92, 246401 (2004).
     *
     *   T. Thonhauser, V. R. Cooper, S. Li, A. Puzder, P. Hyldgaard, and
     *   D. C. Langreth, Phys. Rev. B 76, 125112 (2007).
     *
     *   G. Roman-Perez and J. M. Soler, Phys. Rev. Lett. 103, 096102 (2009).
     *
     *
     * If you are using vdW-DF2, please also cite:
     *
     *   K. Lee, E. D. Murray, L. Kong, B. I. Lundqvist, and
     *   D. C. Langreth, Phys. Rev. B 82, 081101(R) (2010).
     *
     *
     * If you are calculating the stress with vdW-DF, please also cite:
     *
     *   R. Sabatini, E. Kucukbenli, B. Kolb, T. Thonhauser, and
     *   S. de Gironcoli, J. Phys.: Condens. Matter 24, 424209 (2012).
     *

     Carrying out vdW-DF run using the following parameters:

     Nqs =      20    Nr_points =    1024   r_max =   100.000
     q_mesh =
               0.00001000     0.04494208     0.09755937     0.15916263
               0.23128650     0.31572767     0.41458969     0.53033537
               0.66584808     0.82450364     1.01025438     1.22772762
               1.48234092     1.78043706     2.12944203     2.53805004
               3.01644009     3.57652955     4.23227104     5.00000000

     Gradients computed in reciprocal space

     Adding external electric field

     Computed dipole along edir(3) :
        Dipole               -0.0022 Ry au,         -0.0057 Debye
        Dipole field         -0.0000 Ry au

        Potential amp.        0.0006 Ry
        Total length         45.3158 bohr

     Starting wfc are  160 randomized atomic wfcs

     Self-consistent Calculation

     iteration #  1     ecut=    36.75 Ry     beta=0.30
     Davidson diagonalization with overlap
     ethr =  1.00E-02,  avg # of iterations =  2.0

[...]

     total energy              =   -1685.25916139 Ry
     Harris-Foulkes estimate   =   -1691.16161619 Ry
     estimated scf accuracy    <      12.14439000 Ry

[...]

     End of self-consistent calculation

          k = 0.0000 0.0000 0.0000 ( 17111 PWs)   bands (ev):

   -59.1023 -59.0138 -58.9245 -58.9149 -58.9095 -58.9022 -58.8506 -58.8474
   -58.8440 -58.8110 -58.8089 -58.8039 -33.6235 -33.6200 -33.6185 -33.5423
   -33.5380 -33.5318 -33.5298 -33.4408 -33.4366 -33.4360 -33.1142 -32.9944
   -32.9704 -32.9554 -32.9220 -32.9206 -32.9133 -32.8094 -32.8050 -32.8023
   -32.6897 -32.6875 -32.6864 -32.6840 -32.6828 -32.6816 -32.5977 -32.5794
   -32.5766 -32.5758 -32.5291 -32.5265 -32.4540 -32.4524 -32.3802 -32.3785
    -6.3818  -3.9709  -2.6279  -2.5354  -2.5323  -2.5303  -2.4873  -2.0953
    -2.0797  -2.0775  -1.8763  -1.8729  -1.8634  -1.6300  -1.6208  -1.6201
    -0.4755  -0.4488  -0.4221   0.5151   0.5499   0.5577   0.7464   0.9016
     1.2435   1.2436   1.3621   1.4947   1.5174   1.5836   1.6246   1.6470
     1.6797   1.7120   1.7416   1.8795   1.9470   2.2353   2.4945   2.5436
     3.0638   3.1738   3.2423   3.2557   3.2773   3.3952   3.7762   3.7801

[...]

          k =-0.0888 0.0513 0.0000 ( 17160 PWs)   bands (ev):

[...]

     the Fermi energy is     1.9599 ev

!    total energy              =   -1690.47229769 Ry
     Harris-Foulkes estimate   =   -1690.47230460 Ry
     estimated scf accuracy    <       0.00000567 Ry

     The total energy is the sum of the following terms:

     one-electron contribution =  -15346.43623639 Ry
     hartree contribution      =    7667.22429157 Ry
     xc contribution           =    -243.29404613 Ry
     ewald contribution        =    6232.14047923 Ry
     electric field correction =       0.00039446 Ry
     smearing contrib. (-TS)   =      -0.10718041 Ry

     convergence has been achieved in  25 iterations

 BEEF-vdW xc energy contributions
           1 :   -208.863958991922
           2 :    190.697813043686
           3 :   -159.645156867729
           4 :    123.965476848328
           5 :   -91.8512619164953
           6 :    68.8509851568516
           7 :   -56.6185220513881
           8 :    53.1960773724451
           9 :   -54.5108600409220
          10 :    56.3041010011660
          11 :   -55.7054693930347
          12 :    51.9142722430152
          13 :   -45.9261856409578
          14 :    39.6093965615910
          15 :   -34.6420304536560
          16 :    31.7537756776318
          17 :   -30.5397775915598
          18 :    29.8323580229106
          19 :   -28.3871249689385
          20 :    25.5128453154482
          21 :   -21.3575099671463
[...]

[...]

     Program PWSCF v.5.1rc2 (svn rev. 11289) starts on 19Jan2018 at 15: 6: 8

[...]

     Program PWSCF v.5.1rc2 (svn rev. 11289) starts on 19Jan2018 at 15:36: 7

[...]

   This run was terminated on:  15:51: 7  19Jan2018

[...]

     iteration # 10     ecut=    36.75 Ry     beta=0.30
     Davidson diagonalization with overlap
     c_bands:  1 eigenvalues not converged
     ethr =  1.33E-05,  avg # of iterations =  7.2

[...]

     Total force =     0.070075     Total SCF correction =     0.005748

[...]

     Program PWSCF v.5.1rc2 (svn rev. 11289) starts on 19Jan2018 at 16:51:33

[...]

   This run was terminated on:  17: 6:22  19Jan2018

[...]

     Program PWSCF v.5.1rc2 (svn rev. 11289) starts on 19Jan2018 at 17: 6:28

     Current dimensions of program PWSCF are:
     Max number of different atomic species (ntypx) = 10
     Max number of k-points (npk) =  40000
     Max angular momentum in pseudopotentials (lmaxx) =  3
     Presently stress not available with electric field

     IMPORTANT: XC functional enforced from input :
     Exchange-correlation      = BEEF-VDW ( 1  4 27 13 2)
     Any further DFT definition will be discarded
     Please, verify this is what you really want

     Subspace diagonalization in iterative solution of the eigenvalue problem:
     a serial algorithm will be used

     bravais-lattice index     =            0
     lattice parameter (alat)  =       1.8897  a.u.
     unit-cell volume          =    4552.2840 (a.u.)^3
     number of atoms/cell      =           13
     number of atomic types    =            2
     number of electrons       =       172.00
     number of Kohn-Sham states=           96
     kinetic-energy cutoff     =      36.7493  Ry
     charge density cutoff     =     367.4932  Ry
     convergence threshold     =      1.0E-05
     mixing beta               =       0.3000
     number of iterations used =           10  plain     mixing
     Exchange-correlation      = BEEF-VDW ( 1  4 27 13 2)
     nstep                     =           50

     celldm(1)=   1.889726  celldm(2)=   0.000000  celldm(3)=   0.000000
     celldm(4)=   0.000000  celldm(5)=   0.000000  celldm(6)=   0.000000

     crystal axes: (cart. coord. in units of alat)
               a(1) = (   5.627661   0.000000   0.000000 )
               a(2) = (   2.813831   4.873698   0.000000 )
               a(3) = (   0.000000   0.000000  24.594966 )

     reciprocal axes: (cart. coord. in units 2 pi/alat)
               b(1) = (  0.177694 -0.102592  0.000000 )
               b(2) = (  0.000000  0.205183  0.000000 )
               b(3) = (  0.000000  0.000000  0.040659 )

     PseudoPot. # 1 for Mo read from file:
     /afs/slac.stanford.edu/u/if/mamunm/psp/gbrv1.5pbe/Mo.UPF
     MD5 check sum: 30c4dcd161f5d35cd49bb5239c51a633
     Pseudo is Ultrasoft + core correction, Zval = 14.0
     Generated by new atomic code, or converted to UPF format
     Using radial grid of  889 points,  6 beta functions with:
                l(1) =   0
                l(2) =   0
                l(3) =   1
                l(4) =   1
                l(5) =   2
                l(6) =   2
     Q(r) pseudized with  6 coefficients,  rinner =    1.000   1.000   1.000
                                                       1.000   1.000

     PseudoPot. # 2 for C  read from file:
     /afs/slac.stanford.edu/u/if/mamunm/psp/gbrv1.5pbe/C.UPF
     MD5 check sum: d1aef80898a10debaa0f26306b886e00
     Pseudo is Ultrasoft + core correction, Zval =  4.0
     Generated by new atomic code, or converted to UPF format
     Using radial grid of  721 points,  4 beta functions with:
                l(1) =   0
                l(2) =   0
                l(3) =   1
                l(4) =   1
     Q(r) pseudized with  8 coefficients,  rinner =    1.100   1.100   1.100

     vdW kernel table read from file vdW_kernel_table
     MD5 check sum: 095c7af220d748ca6e76c0b4c6cfb241

     atomic species   valence    mass     pseudopotential
        Mo1           14.00    95.95000     Mo( 1.00)
        C1             4.00    12.01100     C ( 1.00)

     No symmetry found

   Cartesian axes

     site n.     atom                  positions (alat units)
         1           Mo1 tau(   1) = (   1.4069153   0.8122829  10.0000000  )
         2           Mo1 tau(   2) = (   4.2207459   0.8122829  10.0000000  )
         3           Mo1 tau(   3) = (   2.8138306   3.2491317  10.0000000  )
         4           Mo1 tau(   4) = (   5.6276612   3.2491317  10.0000000  )
         5           Mo1 tau(   5) = (   5.6276612   1.6245658  12.2974831  )
         6           Mo1 tau(   6) = (   2.8138306   1.6245658  12.2974831  )
         7           Mo1 tau(   7) = (   7.0345765   4.0614146  12.2974831  )
         8           Mo1 tau(   8) = (   4.2207459   4.0614146  12.2974831  )
         9           Mo1 tau(   9) = (   5.6129344   0.2076719  14.6927216  )
        10           Mo1 tau(  10) = (   2.8285645   0.2076605  14.6927214  )
        11           Mo1 tau(  11) = (   7.0345738   2.6462847  14.3744729  )
        12           Mo1 tau(  12) = (   4.2207474   2.6099362  14.7038039  )
        13           C1  tau(  13) = (   4.2207463   4.2552229  15.8058597  )

     number of k points=    20  Fermi-Dirac smearing, width (Ry)=  0.0110
                       cart. coord. in units 2pi/alat
        k(    1) = (   0.0000000   0.0000000   0.0000000), wk =   0.0555556
        k(    2) = (   0.0000000   0.0341972   0.0000000), wk =   0.1111111
        k(    3) = (   0.0000000   0.0683943   0.0000000), wk =   0.1111111
        k(    4) = (   0.0000000  -0.1025915   0.0000000), wk =   0.0555556
        k(    5) = (   0.0296156  -0.0170986   0.0000000), wk =   0.1111111
        k(    6) = (   0.0296156   0.0170986   0.0000000), wk =   0.1111111
        k(    7) = (   0.0296156   0.0512958   0.0000000), wk =   0.1111111
        k(    8) = (   0.0296156  -0.1196901   0.0000000), wk =   0.1111111
        k(    9) = (   0.0296156  -0.0854929   0.0000000), wk =   0.1111111
        k(   10) = (   0.0296156  -0.0512958   0.0000000), wk =   0.1111111
        k(   11) = (   0.0592312  -0.0341972   0.0000000), wk =   0.1111111
        k(   12) = (   0.0592312   0.0000000   0.0000000), wk =   0.1111111
        k(   13) = (   0.0592312   0.0341972   0.0000000), wk =   0.1111111
        k(   14) = (   0.0592312  -0.1367887   0.0000000), wk =   0.1111111
        k(   15) = (   0.0592312  -0.1025915   0.0000000), wk =   0.1111111
        k(   16) = (   0.0592312  -0.0683943   0.0000000), wk =   0.1111111
        k(   17) = (  -0.0888469   0.0512958   0.0000000), wk =   0.0555556
        k(   18) = (  -0.0888469   0.0854929   0.0000000), wk =   0.1111111
        k(   19) = (  -0.0888469   0.1196901   0.0000000), wk =   0.1111111
        k(   20) = (  -0.0888469  -0.0512958   0.0000000), wk =   0.0555556

     Largest allocated arrays     est. size (Mb)     dimensions
     Largest temporary arrays     est. size (Mb)     dimensions

     Initial potential from superposition of free atoms
     Check: negative starting charge=   -0.004979

     starting charge  171.98720, renormalised to  172.00000

[...]

     *
     * You are using vdW-DF for exchange-correlation in this calculation.
     * Please cite the following three references that made this development
     * possible:
     *
     *   M. Dion, H. Rydberg, E. Schroder, D. C. Langreth, and
     *   B. I. Lundqvist, Phys. Rev. Lett. 92, 246401 (2004).
     *
     *   T. Thonhauser, V. R. Cooper, S. Li, A. Puzder, P. Hyldgaard, and
     *   D. C. Langreth, Phys. Rev. B 76, 125112 (2007).
     *
     *   G. Roman-Perez and J. M. Soler, Phys. Rev. Lett. 103, 096102 (2009).
     *
     *
     * If you are using vdW-DF2, please also cite:
     *
     *   K. Lee, E. D. Murray, L. Kong, B. I. Lundqvist, and
     *   D. C. Langreth, Phys. Rev. B 82, 081101(R) (2010).
     *
     *
     * If you are calculating the stress with vdW-DF, please also cite:
     *
     *   R. Sabatini, E. Kucukbenli, B. Kolb, T. Thonhauser, and
     *   S. de Gironcoli, J. Phys.: Condens. Matter 24, 424209 (2012).
     *

     Carrying out vdW-DF run using the following parameters:

     Nqs =      20    Nr_points =    1024   r_max =   100.000
     q_mesh =
               0.00001000     0.04494208     0.09755937     0.15916263
               0.23128650     0.31572767     0.41458969     0.53033537
               0.66584808     0.82450364     1.01025438     1.22772762
               1.48234092     1.78043706     2.12944203     2.53805004
               3.01644009     3.57652955     4.23227104     5.00000000

     Gradients computed in reciprocal space

[...]

     Starting wfc are  160 randomized atomic wfcs

     Self-consistent Calculation

[...]

     total energy              =   -1690.81834494 Ry
     Harris-Foulkes estimate   =   -1690.81834596 Ry
     estimated scf accuracy    <       0.00005158 Ry

     iteration # 19     ecut=    36.75 Ry     beta=0.30
     Davidson diagonalization with overlap
     ethr =  3.00E-08,  avg # of iterations =  1.0

[...]

     negative rho (up, down):  5.045E-03 0.000E+00

     Adding external electric field

     Computed dipole along edir(3) :
        Dipole               -0.1721 Ry au,         -0.4375 Debye
        Dipole field         -0.0005 Ry au

        Potential amp.        0.0431 Ry
        Total length         45.3158 bohr

     End of self-consistent calculation

[...]

          k = 0.0592-0.0684 0.0000 ( 17122 PWs)   bands (ev):

[...]

          k =-0.0888-0.0513 0.0000 ( 17160 PWs)   bands (ev):

   -58.8025 -58.7865 -58.7264 -58.6932 -58.6855 -58.6680 -58.6525 -58.6285
   -58.6226 -58.5952 -58.5783 -58.5651 -33.3635 -33.2286 -33.2218 -33.1980
   -33.1610 -33.1471 -33.0635 -33.0083 -32.9958 -32.9476 -32.9095 -32.8632
   -32.8315 -32.8027 -32.7357 -32.7204 -32.7115 -32.7020 -32.6947 -32.6667
   -32.6214 -32.5967 -32.5950 -32.5829 -32.5673 -32.5263 -32.4822 -32.4545
   -32.4429 -32.4064 -32.3914 -32.3649 -32.3462 -32.2636 -32.2593 -32.1827
    -7.6538  -2.4011  -2.1439  -1.7766  -1.4841  -1.3656  -1.2561  -1.2031
    -1.0874  -1.0233  -0.9665  -0.9205  -0.6677  -0.5765  -0.4730  -0.4454
    -0.3135  -0.2850  -0.0925   0.1213   0.3280   0.4017   0.4463   0.5434
     0.8120   0.8751   1.0019   1.0630   1.1417   1.2047   1.3548   1.4057
     1.4220   1.5182   1.5817   1.6487   1.7377   1.8284   1.9815   2.1734
     2.3155   2.5460   2.7542   2.8238   3.0268   3.1027   3.2635   3.3803

     the Fermi energy is     2.2222 ev

!    total energy              =   -1690.81834445 Ry
     Harris-Foulkes estimate   =   -1690.81834838 Ry
     estimated scf accuracy    <       0.00000226 Ry

     The total energy is the sum of the following terms:

     one-electron contribution =  -15533.05450550 Ry
     hartree contribution      =    7761.64109447 Ry
     xc contribution           =    -243.92253103 Ry
     ewald contribution        =    6324.60842744 Ry
     electric field correction =       0.00008179 Ry
     smearing contrib. (-TS)   =      -0.09091163 Ry

     convergence has been achieved in  19 iterations

 BEEF-vdW xc energy contributions
           1 :   -209.490902813480
           2 :    191.496515743628
           3 :   -160.646460315675
           4 :    125.052395866051
           5 :   -92.8393013310645
           6 :    69.5673128144173
           7 :   -56.9578757625096
           8 :    53.1495332409434
           9 :   -54.1615974862966
          10 :    55.7935458458032
          11 :   -55.1829337596585
          12 :    51.4891959508456
          13 :   -45.6423672649206
          14 :    39.4474779467449
          15 :   -34.5429525909055
          16 :    31.6542893390059
          17 :   -30.4063027836285
          18 :    29.6769718619984
          19 :   -28.2597222368021
          20 :    25.4786118045050
          21 :   -21.4710601988893
          22 :    17.0333746430046
          23 :   -13.1558063594680
          24 :    10.5059862876590
          25 :   -9.12597237769950
          26 :    8.46704219471229
          27 :   -7.71377939423229
          28 :    6.20707722179486
          29 :   -3.75223708886716
          30 :   0.671457004235663
          31 :   -23.9527763875121
          32 :   -18.4040661186316

     Forces acting on atoms (Ry/au):

     negative rho (up, down):  5.045E-03 0.000E+00
     atom    1 type  1   force =     0.00000165    0.00317517   -0.00402302
     atom    2 type  1   force =     0.00000002   -0.00003692   -0.00120063
     atom    3 type  1   force =    -0.00111904   -0.00432071   -0.00568861
     atom    4 type  1   force =     0.00111776   -0.00432007   -0.00568615
     atom    5 type  1   force =    -0.01181758   -0.00406378   -0.01088328
     atom    6 type  1   force =     0.01181724   -0.00406450   -0.01088438
     atom    7 type  1   force =     0.00000209    0.01525754   -0.01567612
     atom    8 type  1   force =    -0.00000215   -0.00280986    0.05516863
     atom    9 type  1   force =     0.00017164    0.00114582   -0.00098840
     atom   10 type  1   force =    -0.00017159    0.00114854   -0.00098827
     atom   11 type  1   force =     0.00000232    0.00147987    0.00039459
     atom   12 type  1   force =    -0.00000287   -0.00107512    0.00084574
     atom   13 type  2   force =     0.00000052   -0.00151598   -0.00039009

     Total force =     0.064983     Total SCF correction =     0.007955
     SCF correction compared to forces is large: reduce conv_thr to get better values

     entering subroutine stress ...

     negative rho (up, down):  5.045E-03 0.000E+00
          total   stress  (Ry/bohr**3)                   (kbar)     P=   -8.85
  -0.00010442   0.00000000   0.00000000        -15.36      0.00      0.00
   0.00000000  -0.00008763   0.00000553          0.00    -12.89      0.81
   0.00000000   0.00000553   0.00001165          0.00      0.81      1.71

 !ASE

     Writing output data file calc.save

     General routines

     Parallel routines

   This run was terminated on:  17:21:16  19Jan2018

   JOB DONE.
Job  /afs/slac/g/suncat/bin/suncat-tsmpirun -x LD_LIBRARY_PATH -wdir /scratch/qe891410_tSUPa pw.x -in pw.inp

TID   HOST_NAME   COMMAND_LINE            STATUS            TERMINATION_TIME
00000 suncat1009 pw.x -in pw.inp   Done                     01/19/2018 17:21:16
00001 suncat1009 pw.x -in pw.inp   Done                     01/19/2018 17:21:16
00002 suncat1009 pw.x -in pw.inp   Done                     01/19/2018 17:21:16
00003 suncat1009 pw.x -in pw.inp   Done                     01/19/2018 17:21:16
00004 suncat1009 pw.x -in pw.inp   Done                     01/19/2018 17:21:16
00005 suncat1009 pw.x -in pw.inp   Done                     01/19/2018 17:21:16
00006 suncat1009 pw.x -in pw.inp   Done                     01/19/2018 17:21:16
00007 suncat1009 pw.x -in pw.inp   Done                     01/19/2018 17:21:16
00008 suncat1059 pw.x -in pw.inp   Done                     01/19/2018 17:21:16
00009 suncat1059 pw.x -in pw.inp   Done                     01/19/2018 17:21:16
00010 suncat1059 pw.x -in pw.inp   Done                     01/19/2018 17:21:16
00011 suncat1059 pw.x -in pw.inp   Done                     01/19/2018 17:21:16
00012 suncat1059 pw.x -in pw.inp   Done                     01/19/2018 17:21:16
00013 suncat1059 pw.x -in pw.inp   Done                     01/19/2018 17:21:16
00014 suncat1059 pw.x -in pw.inp   Done                     01/19/2018 17:21:16
00015 suncat1059 pw.x -in pw.inp   Done                     01/19/2018 17:21:16
00016 suncat1059 pw.x -in pw.inp   Done                     01/19/2018 17:21:16
00017 suncat1059 pw.x -in pw.inp   Done                     01/19/2018 17:21:16
00018 suncat1059 pw.x -in pw.inp   Done                     01/19/2018 17:21:16
00019 suncat1059 pw.x -in pw.inp   Done                     01/19/2018 17:21:16
00020 suncat1056 pw.x -in pw.inp   Done                     01/19/2018 17:21:16
00021 suncat1056 pw.x -in pw.inp   Done                     01/19/2018 17:21:16
00022 suncat1056 pw.x -in pw.inp   Done                     01/19/2018 17:21:16
00023 suncat1056 pw.x -in pw.inp   Done                     01/19/2018 17:21:16
00024 suncat1056 pw.x -in pw.inp   Done                     01/19/2018 17:21:16
00025 suncat1056 pw.x -in pw.inp   Done                     01/19/2018 17:21:16
00026 suncat1056 pw.x -in pw.inp   Done                     01/19/2018 17:21:16
00027 suncat1056 pw.x -in pw.inp   Done                     01/19/2018 17:21:16
00028 suncat1056 pw.x -in pw.inp   Done                     01/19/2018 17:21:16
00029 suncat1056 pw.x -in pw.inp   Done                     01/19/2018 17:21:16
00030 suncat1056 pw.x -in pw.inp   Done                     01/19/2018 17:21:16
00031 suncat1056 pw.x -in pw.inp   Done                     01/19/2018 17:21:16