     Program PWSCF v.5.1rc2 (svn rev. 11289) starts on 11Jan2019 at 21:32:59

     Current dimensions of program PWSCF are:
     Max number of different atomic species (ntypx) = 10
     Max number of k-points (npk) =  40000
     Max angular momentum in pseudopotentials (lmaxx) =  3

     IMPORTANT: XC functional enforced from input :
     Exchange-correlation      = BEEF-VDW ( 1  4 27 13 2)
     Any further DFT definition will be discarded
     Please, verify this is what you really want

     Subspace diagonalization in iterative solution of the eigenvalue problem:
     a serial algorithm will be used

     bravais-lattice index     =            0
     lattice parameter (alat)  =      12.6383  a.u.
     unit-cell volume          =    6655.4372 (a.u.)^3
     number of atoms/cell      =           13
     number of atomic types    =            2
     number of electrons       =       157.00
     number of Kohn-Sham states=           88
     kinetic-energy cutoff     =      36.7493  Ry
     charge density cutoff     =     367.4933  Ry
     convergence threshold     =      1.0E-04
     mixing beta               =       0.2000
     number of iterations used =            8  plain     mixing
     Exchange-correlation      = BEEF-VDW ( 1  4 27 13 2)
     nstep                     =           50

     celldm(1)=  12.638304  celldm(2)=   0.000000  celldm(3)=   0.000000
     celldm(4)=   0.000000  celldm(5)=   0.000000  celldm(6)=   0.000000

     crystal axes: (cart. coord. in units of alat)
               a(1) = (   1.000000   0.000000   0.000000 )
               a(2) = (   0.500000   0.866025   0.000000 )
               a(3) = (   0.000000   0.000000   3.806971 )

     reciprocal axes: (cart. coord. in units 2 pi/alat)
               b(1) = (  1.000000 -0.577350  0.000000 )
               b(2) = (  0.000000  1.154701  0.000000 )
               b(3) = (  0.000000  0.000000  0.262676 )

     PseudoPot. # 1 for Tl read from file:
     /u/if/jboes/code/decaf-espresso/gbrv15pbe/Tl.UPF
     MD5 check sum: b76cf1f7e72655a2b2c53cf6385d7059
     Pseudo is Ultrasoft + core correction, Zval = 13.0
     Generated by new atomic code, or converted to UPF format
     Using radial grid of  899 points,  6 beta functions with:
                l(1) =   0
                l(2) =   0
                l(3) =   1
                l(4) =   1
                l(5) =   2
                l(6) =   2
     Q(r) pseudized with  6 coefficients,  rinner =    1.100   1.100   1.100
                                                       1.100   1.100

     PseudoPot. # 2 for H  read from file:
     /u/if/jboes/code/decaf-espresso/gbrv15pbe/H.UPF
     MD5 check sum: 761ae9a214b05c3daf00ab9f6b793d6f
     Pseudo is Ultrasoft, Zval =  1.0
     Generated by new atomic code, or converted to UPF format
     Using radial grid of  615 points,  2 beta functions with:
                l(1) =   0
                l(2) =   0
     Q(r) pseudized with  8 coefficients,  rinner =    0.700

     vdW kernel table read from file vdW_kernel_table
     MD5 check sum: 095c7af220d748ca6e76c0b4c6cfb241

     atomic species   valence    mass     pseudopotential
        Tl            13.00   204.38000     Tl( 1.00)
        H              1.00     1.00800     H ( 1.00)

     No symmetry found

   Cartesian axes

     site n.     atom                  positions (alat units)
         1           Tl  tau(   1) = (   0.2500000   0.1443376   1.4952371  )
         2           Tl  tau(   2) = (   0.7500000   0.1443376   1.4952371  )
         3           Tl  tau(   3) = (   0.5000000   0.5773503   1.4952371  )
         4           Tl  tau(   4) = (   1.0000000   0.5773503   1.4952371  )
         5           Tl  tau(   5) = (   1.0000000   0.2886751   1.9034854  )
         6           Tl  tau(   6) = (   0.5000000   0.2886751   1.9034854  )
         7           Tl  tau(   7) = (   1.2500000   0.7216878   1.9034854  )
         8           Tl  tau(   8) = (   0.7500000   0.7216878   1.9034854  )
         9           Tl  tau(   9) = (  -0.0000089   0.0000063   2.4866334  )
        10           Tl  tau(  10) = (   0.4999896   0.0001634   2.3591381  )
        11           Tl  tau(  11) = (   0.2501205   0.4329573   2.3590846  )
        12           Tl  tau(  12) = (   0.7498764   0.4329453   2.3591361  )
        13           H   tau(  13) = (   0.0000074  -0.0000124   2.7664830  )

     number of k points=    20  Fermi-Dirac smearing, width (Ry)=  0.0110
                       cart. coord. in units 2pi/alat
        k(    1) = (   0.0000000   0.0000000   0.0000000), wk =   0.0555556
        k(    2) = (   0.0000000   0.1924501   0.0000000), wk =   0.1111111
        k(    3) = (   0.0000000   0.3849002   0.0000000), wk =   0.1111111
        k(    4) = (   0.0000000  -0.5773503   0.0000000), wk =   0.0555556
        k(    5) = (   0.1666667  -0.0962250   0.0000000), wk =   0.1111111
        k(    6) = (   0.1666667   0.0962250   0.0000000), wk =   0.1111111
        k(    7) = (   0.1666667   0.2886751   0.0000000), wk =   0.1111111
        k(    8) = (   0.1666667  -0.6735753   0.0000000), wk =   0.1111111
        k(    9) = (   0.1666667  -0.4811252   0.0000000), wk =   0.1111111
        k(   10) = (   0.1666667  -0.2886751   0.0000000), wk =   0.1111111
        k(   11) = (   0.3333333  -0.1924501   0.0000000), wk =   0.1111111
        k(   12) = (   0.3333333  -0.0000000   0.0000000), wk =   0.1111111
        k(   13) = (   0.3333333   0.1924501   0.0000000), wk =   0.1111111
        k(   14) = (   0.3333333  -0.7698004   0.0000000), wk =   0.1111111
        k(   15) = (   0.3333333  -0.5773503   0.0000000), wk =   0.1111111
        k(   16) = (   0.3333333  -0.3849002   0.0000000), wk =   0.1111111
        k(   17) = (  -0.5000000   0.2886751   0.0000000), wk =   0.0555556
        k(   18) = (  -0.5000000   0.4811252   0.0000000), wk =   0.1111111
        k(   19) = (  -0.5000000   0.6735753   0.0000000), wk =   0.1111111
        k(   20) = (  -0.5000000  -0.2886751   0.0000000), wk =   0.0555556

     Largest allocated arrays     est. size (Mb)     dimensions
     Largest temporary arrays     est. size (Mb)     dimensions

     Check: negative/imaginary core charge=   -0.000001    0.000000

     Initial potential from superposition of free atoms
     Check: negative starting charge=   -0.603860

     starting charge  156.94160, renormalised to  157.00000

     negative rho (up, down):  6.041E-01 0.000E+00

     *
     * You are using vdW-DF for exchange-correlation in this calculation.
     * Please cite the following three references that made this development
     * possible:
     *
     *   M. Dion, H. Rydberg, E. Schroder, D. C. Langreth, and
     *   B. I. Lundqvist, Phys. Rev. Lett. 92, 246401 (2004).
     *
     *   T. Thonhauser, V. R. Cooper, S. Li, A. Puzder, P. Hyldgaard, and
     *   D. C. Langreth, Phys. Rev. B 76, 125112 (2007).
     *
     *   G. Roman-Perez and J. M. Soler, Phys. Rev. Lett. 103, 096102 (2009).
     *
     *
     * If you are using vdW-DF2, please also cite:
     *
     *   K. Lee, E. D. Murray, L. Kong, B. I. Lundqvist, and
     *   D. C. Langreth, Phys. Rev. B 82, 081101(R) (2010).
     *
     *
     * If you are calculating the stress with vdW-DF, please also cite:
     *
     *   R. Sabatini, E. Kucukbenli, B. Kolb, T. Thonhauser, and
     *   S. de Gironcoli, J. Phys.: Condens. Matter 24, 424209 (2012).
     *

     Carrying out vdW-DF run using the following parameters:

     Nqs =      20    Nr_points =    1024   r_max =   100.000
     q_mesh =
               0.00001000     0.04494208     0.09755937     0.15916263
               0.23128650     0.31572767     0.41458969     0.53033537
               0.66584808     0.82450364     1.01025438     1.22772762
               1.48234092     1.78043706     2.12944203     2.53805004
               3.01644009     3.57652955     4.23227104     5.00000000

     Gradients computed in reciprocal space

     Adding external electric field

     Computed dipole along edir(3) :
        Dipole               -0.0038 Ry au,         -0.0098 Debye
        Dipole field         -0.0000 Ry au

        Potential amp.        0.0006 Ry
        Total length         43.3023 bohr

     Starting wfc are  109 randomized atomic wfcs

     Self-consistent Calculation

     iteration #  1     ecut=    36.75 Ry     beta=0.20
     Davidson diagonalization with overlap
     ethr =  1.00E-02,  avg # of iterations =  2.0

     Threshold (ethr) on eigenvalues was too large:
     Diagonalizing with lowered threshold

     Davidson diagonalization with overlap
     ethr =  1.39E-04,  avg # of iterations =  4.0

[...]

     total energy              =   -1762.68118131 Ry
     Harris-Foulkes estimate   =   -1762.74174568 Ry
     estimated scf accuracy    <       0.24594478 Ry

[...]

     End of self-consistent calculation

          k = 0.0000 0.0000 0.0000 ( 24957 PWs)   bands (ev):

   -11.5594 -11.5576 -11.5576 -11.4508 -11.4375 -11.4216 -11.4216 -11.4176
   -11.4079 -11.3980 -11.3980 -11.3456 -11.3456 -11.2919 -11.2441 -11.2427
   -11.2427 -11.2220 -11.2128 -11.2128 -11.1764 -11.1764 -11.1569 -11.1325
   -11.1324 -11.1207 -11.0821 -11.0821 -11.0343 -11.0342 -10.9440 -10.9326
   -10.9326 -10.9035 -10.9034 -10.8778 -10.8777 -10.8068 -10.8032 -10.8032
   -10.7788 -10.7744 -10.7744 -10.7462 -10.7462 -10.7227 -10.7100 -10.7100
   -10.6835 -10.6562 -10.6459 -10.6459 -10.6296 -10.6056 -10.5974 -10.5974
   -10.5930 -10.5930 -10.5916 -10.5916  -9.0310  -7.6459  -6.2044  -4.4198
    -4.3941  -4.3941  -4.3346  -3.9751  -3.9750  -3.5038  -3.2484  -3.2483
    -1.5283  -1.3331  -1.3330  -1.0958  -0.5586  -0.3594  -0.3230  -0.3230
    -0.1721  -0.1720   0.1231   1.6346   3.4304   3.4305   3.5098   3.6055

[...]

          k =-0.5000 0.2887 0.0000 ( 25090 PWs)   bands (ev):

[...]

     the Fermi energy is     0.8074 ev

!    total energy              =   -1762.68658513 Ry
     Harris-Foulkes estimate   =   -1762.68664388 Ry
     estimated scf accuracy    <       0.00002924 Ry

     The total energy is the sum of the following terms:

     one-electron contribution =   -8005.71660168 Ry
     hartree contribution      =    4084.54834313 Ry
     xc contribution           =    -768.95804595 Ry
     ewald contribution        =    2927.47958696 Ry
     electric field correction =       0.00031557 Ry
     smearing contrib. (-TS)   =      -0.04018316 Ry

     convergence has been achieved in   9 iterations

     Forces acting on atoms (Ry/au):

     negative rho (up, down):  6.317E-01 0.000E+00
     atom    1 type  1   force =     0.00108885    0.00063938   -0.02297426
     atom    2 type  1   force =    -0.00109724    0.00062215   -0.02294210
     atom    3 type  1   force =     0.00000022   -0.00129221   -0.02296681
     atom    4 type  1   force =    -0.00000443    0.00001569   -0.02465926
     atom    5 type  1   force =     0.00002087    0.00035270    0.02370312
     atom    6 type  1   force =    -0.00001159    0.00001551    0.02156870
     atom    7 type  1   force =    -0.00030656   -0.00017912    0.02369728
     atom    8 type  1   force =     0.00031445   -0.00018374    0.02369254
     atom    9 type  1   force =    -0.00000450   -0.00000303   -0.00628303
     atom   10 type  1   force =    -0.00001656    0.00016724    0.00276491
     atom   11 type  1   force =     0.00011153   -0.00009365    0.00274110
     atom   12 type  1   force =    -0.00009938   -0.00006262    0.00275582
     atom   13 type  2   force =     0.00000436    0.00000171   -0.00109803

     Total force =     0.007969     Total SCF correction =     0.011927
     SCF correction compared to forces is large: reduce conv_thr to get better values

     BFGS Geometry Optimization

     number of scf cycles    =   1
     number of bfgs steps    =   0

     energy   new            =   -1762.6865851302 Ry

     new trust radius        =       0.0062830295 bohr
     new conv_thr            =       0.0001000000 Ry

ATOMIC_POSITIONS (angstrom)
Tl       1.671975640   0.965315586  10.000000000    0   0   0
Tl       5.015926920   0.965315586  10.000000000    0   0   0
Tl       3.343951280   3.861262344  10.000000000    0   0   0
Tl       6.687902560   3.861262344  10.000000000    0   0   0
Tl       6.687902560   1.930631172  12.730324787    0   0   0
Tl       3.343951280   1.930631172  12.730324787    0   0   0
Tl       8.359878201   4.826577929  12.730324787    0   0   0
Tl       5.015926920   4.826577929  12.730324787    0   0   0
Tl      -0.000061661   0.000040672  16.627036819
Tl       3.343872981   0.001181086  15.779148571
Tl       1.672840319   2.895526769  15.778778402
Tl       5.015047948   2.895462587  15.779130926
H        0.000051786  -0.000082077  18.501387526

     Writing output data file calc.save
     Check: negative starting charge=   -0.603860
     NEW-OLD atomic charge density approx. for the potential

     Check: negative/imaginary core charge=   -0.000001    0.000000
     Check: negative starting charge=   -0.603889

[...]

     energy   old            =   -1762.6865851302 Ry
     energy   new            =   -1762.6865765060 Ry

     CASE: energy  _new > energy  _old

[...]

     number of scf cycles    =   3
     number of bfgs steps    =   1

     energy   old            =   -1762.6865851302 Ry
     energy   new            =   -1762.6866084130 Ry

     CASE: energy  _new < energy  _old

     new trust radius        =       0.0028963391 bohr
     new conv_thr            =       0.0000010000 Ry

ATOMIC_POSITIONS (angstrom)
Tl       1.671975640   0.965315586  10.000000000    0   0   0
Tl       5.015926920   0.965315586  10.000000000    0   0   0
Tl       3.343951280   3.861262344  10.000000000    0   0   0
Tl       6.687902560   3.861262344  10.000000000    0   0   0
Tl       6.687902560   1.930631172  12.730324787    0   0   0
Tl       3.343951280   1.930631172  12.730324787    0   0   0
Tl       8.359878201   4.826577929  12.730324787    0   0   0
Tl       5.015926920   4.826577929  12.730324787    0   0   0
Tl      -0.000056977   0.000044965  16.627425156
Tl       3.343869345   0.001267010  15.778368137
Tl       1.672922568   2.895476863  15.777999669
Tl       5.014968353   2.895416064  15.778350955
H        0.000050547  -0.000082265  18.503245470

     Writing output data file calc.save
     Check: negative starting charge=   -0.603863
     NEW-OLD atomic charge density approx. for the potential

     Check: negative/imaginary core charge=   -0.000001    0.000000
     Check: negative starting charge=   -0.603807

[...]

     Self-consistent Calculation

[...]

     Threshold (ethr) on eigenvalues was too large:
     Diagonalizing with lowered threshold

     Davidson diagonalization with overlap
     ethr =  5.99E-08,  avg # of iterations =  1.2

[...]

     total energy              =   -1762.68661297 Ry
     Harris-Foulkes estimate   =   -1762.68661354 Ry
     estimated scf accuracy    <       0.00000120 Ry

     iteration #  4     ecut=    36.75 Ry     beta=0.20
     Davidson diagonalization with overlap
     ethr =  7.61E-10,  avg # of iterations =  4.5

     negative rho (up, down):  6.319E-01 0.000E+00

     Adding external electric field

     Computed dipole along edir(3) :
        Dipole               -0.4478 Ry au,         -1.1383 Debye
        Dipole field         -0.0008 Ry au

        Potential amp.        0.0732 Ry
        Total length         43.3023 bohr

     End of self-consistent calculation

[...]

          k = 0.3333-0.3849 0.0000 ( 25036 PWs)   bands (ev):

[...]

          k =-0.5000-0.2887 0.0000 ( 25090 PWs)   bands (ev):

   -11.4419 -11.4363 -11.3636 -11.3465 -11.3359 -11.3355 -11.3282 -11.3148
   -11.2995 -11.2733 -11.2679 -11.2137 -11.2122 -11.2039 -11.1953 -11.1939
   -11.1879 -11.1573 -11.1419 -11.1398 -11.1223 -11.1067 -11.1014 -11.0934
   -11.0853 -11.0799 -11.0760 -11.0749 -11.0710 -11.0393 -11.0344 -11.0126
   -10.9979 -10.9704 -10.9643 -10.9634 -10.9589 -10.9491 -10.9305 -10.9208
   -10.9196 -10.9063 -10.8866 -10.8832 -10.8782 -10.8727 -10.8633 -10.8514
   -10.7958 -10.7680 -10.7631 -10.7562 -10.7395 -10.7047 -10.7021 -10.6864
   -10.6656 -10.6501 -10.5735 -10.5611  -7.7753  -7.7068  -6.5320  -6.4171
    -5.2960  -5.2288  -5.1664  -5.0503  -4.3943  -4.1878  -3.3280  -3.1860
    -0.8550  -0.0126   0.3903   0.5537   0.6655   0.9775   1.0136   1.6540
     1.6944   2.0430   2.0861   2.1784   2.8469   3.3116   3.3533   3.4412

     the Fermi energy is     0.7982 ev

!    total energy              =   -1762.68661300 Ry
     Harris-Foulkes estimate   =   -1762.68661889 Ry
     estimated scf accuracy    <       0.00000043 Ry

     The total energy is the sum of the following terms:

     one-electron contribution =   -8006.15374250 Ry
     hartree contribution      =    4084.81360006 Ry
     xc contribution           =    -768.95919099 Ry
     ewald contribution        =    2927.65249804 Ry
     electric field correction =       0.00037869 Ry
     smearing contrib. (-TS)   =      -0.04015630 Ry

     convergence has been achieved in   4 iterations

     Forces acting on atoms (Ry/au):

     negative rho (up, down):  6.319E-01 0.000E+00
     atom    1 type  1   force =     0.00141664    0.00081335   -0.02235658
     atom    2 type  1   force =    -0.00141526    0.00081460   -0.02236815
     atom    3 type  1   force =     0.00000368   -0.00162991   -0.02236361
     atom    4 type  1   force =    -0.00000396    0.00000125   -0.02389719
     atom    5 type  1   force =    -0.00000057   -0.00036829    0.02281586
     atom    6 type  1   force =     0.00000016   -0.00000554    0.01956763
     atom    7 type  1   force =     0.00031379    0.00018529    0.02281898
     atom    8 type  1   force =    -0.00031799    0.00018277    0.02281413
     atom    9 type  1   force =    -0.00000066   -0.00000291    0.00051133
     atom   10 type  1   force =     0.00001126    0.00007821    0.00104221
     atom   11 type  1   force =     0.00007385   -0.00003073    0.00104821
     atom   12 type  1   force =    -0.00008079   -0.00003822    0.00104461
     atom   13 type  2   force =    -0.00000014    0.00000013   -0.00067744

     Total force =     0.002004     Total SCF correction =     0.003601
     SCF correction compared to forces is large: reduce conv_thr to get better values

     bfgs converged in   4 scf cycles and   2 bfgs steps
     (criteria: energy <  1.0E+12, force <  1.9E-03)

     End of BFGS Geometry Optimization

     Final energy   =   -1762.6866129985 Ry
Begin final coordinates

ATOMIC_POSITIONS (angstrom)
Tl       1.671975640   0.965315586  10.000000000    0   0   0
Tl       5.015926920   0.965315586  10.000000000    0   0   0
Tl       3.343951280   3.861262344  10.000000000    0   0   0
Tl       6.687902560   3.861262344  10.000000000    0   0   0
Tl       6.687902560   1.930631172  12.730324787    0   0   0
Tl       3.343951280   1.930631172  12.730324787    0   0   0
Tl       8.359878201   4.826577929  12.730324787    0   0   0
Tl       5.015926920   4.826577929  12.730324787    0   0   0
Tl      -0.000056977   0.000044965  16.627425156
Tl       3.343869345   0.001267010  15.778368137
Tl       1.672922568   2.895476863  15.777999669
Tl       5.014968353   2.895416064  15.778350955
H        0.000050547  -0.000082265  18.503245470
End final coordinates

     Writing output data file calc.save

     General routines

     Parallel routines

   This run was terminated on:  21:39:23  11Jan2019

   JOB DONE.
Job  /afs/slac/g/suncat/bin/suncat-tsmpirun -x LD_LIBRARY_PATH -wdir /tmp/qe_673375lbkm7y_c_scratch pw.x -npool 2 -in pw.pwi

TID   HOST_NAME   COMMAND_LINE            STATUS            TERMINATION_TIME
00000 suncat2060 pw.x -npool 2 -i  Done                     01/11/2019 21:39:23
00001 suncat2060 pw.x -npool 2 -i  Done                     01/11/2019 21:39:23
00002 suncat2060 pw.x -npool 2 -i  Done                     01/11/2019 21:39:23
00003 suncat2060 pw.x -npool 2 -i  Done                     01/11/2019 21:39:23
00004 suncat2060 pw.x -npool 2 -i  Done                     01/11/2019 21:39:23
00005 suncat2060 pw.x -npool 2 -i  Done                     01/11/2019 21:39:23
00006 suncat2060 pw.x -npool 2 -i  Done                     01/11/2019 21:39:23
00007 suncat2060 pw.x -npool 2 -i  Done                     01/11/2019 21:39:23
00008 suncat2060 pw.x -npool 2 -i  Done                     01/11/2019 21:39:23
00009 suncat2060 pw.x -npool 2 -i  Done                     01/11/2019 21:39:23
00010 suncat2060 pw.x -npool 2 -i  Done                     01/11/2019 21:39:23
00011 suncat2060 pw.x -npool 2 -i  Done                     01/11/2019 21:39:23
00012 suncat2060 pw.x -npool 2 -i  Done                     01/11/2019 21:39:23
00013 suncat2060 pw.x -npool 2 -i  Done                     01/11/2019 21:39:23
00014 suncat2060 pw.x -npool 2 -i  Done                     01/11/2019 21:39:23
00015 suncat2060 pw.x -npool 2 -i  Done                     01/11/2019 21:39:23
00016 suncat2055 pw.x -npool 2 -i  Done                     01/11/2019 21:39:23
00017 suncat2055 pw.x -npool 2 -i  Done                     01/11/2019 21:39:23
00018 suncat2055 pw.x -npool 2 -i  Done                     01/11/2019 21:39:23
00019 suncat2055 pw.x -npool 2 -i  Done                     01/11/2019 21:39:23
00020 suncat2055 pw.x -npool 2 -i  Done                     01/11/2019 21:39:23
00021 suncat2055 pw.x -npool 2 -i  Done                     01/11/2019 21:39:23
00022 suncat2055 pw.x -npool 2 -i  Done                     01/11/2019 21:39:23
00023 suncat2055 pw.x -npool 2 -i  Done                     01/11/2019 21:39:23
00024 suncat2055 pw.x -npool 2 -i  Done                     01/11/2019 21:39:23
00025 suncat2055 pw.x -npool 2 -i  Done                     01/11/2019 21:39:23
00026 suncat2055 pw.x -npool 2 -i  Done                     01/11/2019 21:39:23
00027 suncat2055 pw.x -npool 2 -i  Done                     01/11/2019 21:39:23
00028 suncat2055 pw.x -npool 2 -i  Done                     01/11/2019 21:39:23
00029 suncat2055 pw.x -npool 2 -i  Done                     01/11/2019 21:39:23
00030 suncat2055 pw.x -npool 2 -i  Done                     01/11/2019 21:39:23
00031 suncat2055 pw.x -npool 2 -i  Done                     01/11/2019 21:39:23