     Program PWSCF v.5.1rc2 (svn rev. 11289) starts on 19Apr2018 at  8:42:50

     Current dimensions of program PWSCF are:
     Max number of different atomic species (ntypx) = 10
     Max number of k-points (npk) =  40000
     Max angular momentum in pseudopotentials (lmaxx) =  3
     Presently stress not available with electric field

     IMPORTANT: XC functional enforced from input :
     Exchange-correlation      = BEEF-VDW ( 1  4 27 13 2)
     Any further DFT definition will be discarded
     Please, verify this is what you really want

     Subspace diagonalization in iterative solution of the eigenvalue problem:
     a serial algorithm will be used

     bravais-lattice index     =            0
     lattice parameter (alat)  =       1.8897  a.u.
     unit-cell volume          =    5182.3421 (a.u.)^3
     number of atoms/cell      =           14
     number of atomic types    =            3
     number of electrons       =       161.00
     number of Kohn-Sham states=           90
     kinetic-energy cutoff     =      36.7493  Ry
     charge density cutoff     =     367.4932  Ry
     convergence threshold     =      1.0E-05
     mixing beta               =       0.3000
     number of iterations used =           10  plain     mixing
     Exchange-correlation      = BEEF-VDW ( 1  4 27 13 2)
     nstep                     =           50

     celldm(1)=   1.889726  celldm(2)=   0.000000  celldm(3)=   0.000000
     celldm(4)=   0.000000  celldm(5)=   0.000000  celldm(6)=   0.000000

     crystal axes: (cart. coord. in units of alat)
               a(1) = (   5.970602   0.000000   0.000000 )
               a(2) = (   2.985301   5.170693   0.000000 )
               a(3) = (   0.000000   0.000000  24.874976 )

     reciprocal axes: (cart. coord. in units 2 pi/alat)
               b(1) = (  0.167487 -0.096699  0.000000 )
               b(2) = (  0.000000  0.193398  0.000000 )
               b(3) = (  0.000000  0.000000  0.040201 )

     PseudoPot. # 1 for Nb read from file:
     /u/if/mamunm/psp/gbrv1.5pbe/Nb.UPF
     MD5 check sum: 573aab8a2fa660278ed4a62cd769473f
     Pseudo is Ultrasoft + core correction, Zval = 13.0
     Generated by new atomic code, or converted to UPF format
     Using radial grid of  887 points,  6 beta functions with:
                l(1) =   0
                l(2) =   0
                l(3) =   1
                l(4) =   1
                l(5) =   2
                l(6) =   2
     Q(r) pseudized with  6 coefficients,  rinner =    1.000   1.000   1.000
                                                       1.000   1.000

     PseudoPot. # 2 for C  read from file:
     /u/if/mamunm/psp/gbrv1.5pbe/C.UPF
     MD5 check sum: d1aef80898a10debaa0f26306b886e00
     Pseudo is Ultrasoft + core correction, Zval =  4.0
     Generated by new atomic code, or converted to UPF format
     Using radial grid of  721 points,  4 beta functions with:
                l(1) =   0
                l(2) =   0
                l(3) =   1
                l(4) =   1
     Q(r) pseudized with  8 coefficients,  rinner =    1.100   1.100   1.100

     PseudoPot. # 3 for H  read from file:
     /u/if/mamunm/psp/gbrv1.5pbe/H.UPF
     MD5 check sum: 761ae9a214b05c3daf00ab9f6b793d6f
     Pseudo is Ultrasoft, Zval =  1.0
     Generated by new atomic code, or converted to UPF format
     Using radial grid of  615 points,  2 beta functions with:
                l(1) =   0
                l(2) =   0
     Q(r) pseudized with  8 coefficients,  rinner =    0.700

     vdW kernel table read from file vdW_kernel_table
     MD5 check sum: 095c7af220d748ca6e76c0b4c6cfb241

     atomic species   valence    mass     pseudopotential
        Nb1           13.00    92.90637     Nb( 1.00)
        C1             4.00    12.01100     C ( 1.00)
        H1             1.00     1.00800     H ( 1.00)

     No symmetry found

   Cartesian axes

     site n.     atom                  positions (alat units)
         1           Nb1 tau(   1) = (   1.4926504   0.8617821  10.0000000  )
         2           Nb1 tau(   2) = (   4.4779512   0.8617821  10.0000000  )
         3           Nb1 tau(   3) = (   2.9853008   3.4471284  10.0000000  )
         4           Nb1 tau(   4) = (   5.9706016   3.4471284  10.0000000  )
         5           Nb1 tau(   5) = (   5.9706016   1.7235642  12.4374879  )
         6           Nb1 tau(   6) = (   2.9853008   1.7235642  12.4374879  )
         7           Nb1 tau(   7) = (   7.4632520   4.3089105  12.4374879  )
         8           Nb1 tau(   8) = (   4.4779512   4.3089105  12.4374879  )
         9           Nb1 tau(   9) = (   0.0000000   0.0000000  14.8749758  )
        10           Nb1 tau(  10) = (   2.9853008   0.0000000  14.8749758  )
        11           Nb1 tau(  11) = (   1.4926504   2.5853463  14.8749758  )
        12           Nb1 tau(  12) = (   4.4779512   2.5853463  14.8749758  )
        13           C1  tau(  13) = (   2.9853008   1.7235642  16.4349758  )
        14           H1  tau(  14) = (   2.9853008   1.7235642  17.5349758  )

     number of k points=    20  Fermi-Dirac smearing, width (Ry)=  0.0110
                       cart. coord. in units 2pi/alat
        k(    1) = (   0.0000000   0.0000000   0.0000000), wk =   0.0555556
        k(    2) = (   0.0000000   0.0322329   0.0000000), wk =   0.1111111
        k(    3) = (   0.0000000   0.0644659   0.0000000), wk =   0.1111111
        k(    4) = (   0.0000000  -0.0966988   0.0000000), wk =   0.0555556
        k(    5) = (   0.0279146  -0.0161165   0.0000000), wk =   0.1111111
        k(    6) = (   0.0279146   0.0161165   0.0000000), wk =   0.1111111
        k(    7) = (   0.0279146   0.0483494   0.0000000), wk =   0.1111111
        k(    8) = (   0.0279146  -0.1128153   0.0000000), wk =   0.1111111
        k(    9) = (   0.0279146  -0.0805824   0.0000000), wk =   0.1111111
        k(   10) = (   0.0279146  -0.0483494   0.0000000), wk =   0.1111111
        k(   11) = (   0.0558291  -0.0322329   0.0000000), wk =   0.1111111
        k(   12) = (   0.0558291   0.0000000   0.0000000), wk =   0.1111111
        k(   13) = (   0.0558291   0.0322329   0.0000000), wk =   0.1111111
        k(   14) = (   0.0558291  -0.1289318   0.0000000), wk =   0.1111111
        k(   15) = (   0.0558291  -0.0966988   0.0000000), wk =   0.1111111
        k(   16) = (   0.0558291  -0.0644659   0.0000000), wk =   0.1111111
        k(   17) = (  -0.0837437   0.0483494   0.0000000), wk =   0.0555556
        k(   18) = (  -0.0837437   0.0805824   0.0000000), wk =   0.1111111
        k(   19) = (  -0.0837437   0.1128153   0.0000000), wk =   0.1111111
        k(   20) = (  -0.0837437  -0.0483494   0.0000000), wk =   0.0555556

     Largest allocated arrays     est. size (Mb)     dimensions
     Largest temporary arrays     est. size (Mb)     dimensions

     Initial potential from superposition of free atoms
     Check: negative starting charge=   -0.004922

     starting charge  160.96715, renormalised to  161.00000

     negative rho (up, down):  4.923E-03 0.000E+00

     *
     * You are using vdW-DF for exchange-correlation in this calculation.
     * Please cite the following three references that made this development
     * possible:
     *
     *   M. Dion, H. Rydberg, E. Schroder, D. C. Langreth, and
     *   B. I. Lundqvist, Phys. Rev. Lett. 92, 246401 (2004).
     *
     *   T. Thonhauser, V. R. Cooper, S. Li, A. Puzder, P. Hyldgaard, and
     *   D. C. Langreth, Phys. Rev. B 76, 125112 (2007).
     *
     *   G. Roman-Perez and J. M. Soler, Phys. Rev. Lett. 103, 096102 (2009).
     *
     *
     * If you are using vdW-DF2, please also cite:
     *
     *   K. Lee, E. D. Murray, L. Kong, B. I. Lundqvist, and
     *   D. C. Langreth, Phys. Rev. B 82, 081101(R) (2010).
     *
     *
     * If you are calculating the stress with vdW-DF, please also cite:
     *
     *   R. Sabatini, E. Kucukbenli, B. Kolb, T. Thonhauser, and
     *   S. de Gironcoli, J. Phys.: Condens. Matter 24, 424209 (2012).
     *

     Carrying out vdW-DF run using the following parameters:

     Nqs =      20    Nr_points =    1024   r_max =   100.000
     q_mesh =
               0.00001000     0.04494208     0.09755937     0.15916263
               0.23128650     0.31572767     0.41458969     0.53033537
               0.66584808     0.82450364     1.01025438     1.22772762
               1.48234092     1.78043706     2.12944203     2.53805004
               3.01644009     3.57652955     4.23227104     5.00000000

     Gradients computed in reciprocal space

     Adding external electric field

     Computed dipole along edir(3) :
        Dipole               -0.0077 Ry au,         -0.0197 Debye
        Dipole field         -0.0000 Ry au

        Potential amp.        0.0017 Ry
        Total length         45.8317 bohr

     Starting wfc are  161 randomized atomic wfcs

     Self-consistent Calculation

     iteration #  1     ecut=    36.75 Ry     beta=0.30
     Davidson diagonalization with overlap
     ethr =  1.00E-02,  avg # of iterations =  2.0

[...]

     total energy              =   -1432.46777002 Ry
     Harris-Foulkes estimate   =   -1435.57803610 Ry
     estimated scf accuracy    <       6.93512084 Ry

[...]

     End of self-consistent calculation

          k = 0.0000 0.0000 0.0000 ( 19435 PWs)   bands (ev):

   -53.1416 -53.0934 -53.0170 -52.9843 -52.9708 -52.9701 -52.9616 -52.9613
   -52.9522 -52.8986 -52.8983 -52.8980 -29.5814 -29.5813 -29.5696 -29.5105
   -29.5060 -29.5059 -29.4980 -29.4541 -29.4540 -29.4506 -29.1781 -29.0668
   -29.0281 -29.0278 -28.9927 -28.9835 -28.9831 -28.8825 -28.8767 -28.8766
   -28.7984 -28.7984 -28.7982 -28.7724 -28.7601 -28.7600 -28.6979 -28.6975
   -28.6886 -28.6886 -28.6360 -28.6359 -28.5917 -28.5916 -28.5246 -28.5246
    -8.5026  -3.6248  -2.9974  -1.9958  -1.6587  -1.5387  -1.5387  -1.3680
    -1.3680  -1.3254  -1.0807  -0.8804  -0.8804  -0.8324  -0.7926  -0.7925
    -0.2708   0.1231   0.1232   0.7778   0.9701   0.9702   1.3766   1.5311
     1.5312   1.7549   1.8823   2.1339   2.1339   2.3554   2.3555   2.3656
     2.4347   2.4348   2.4614   2.4658   2.4919   2.4919   2.8767   2.8768
     3.1164   3.4321

[...]

          k =-0.0837 0.0483 0.0000 ( 19524 PWs)   bands (ev):

[...]

     the Fermi energy is     2.0237 ev

!    total energy              =   -1434.92357630 Ry
     Harris-Foulkes estimate   =   -1434.92358232 Ry
     estimated scf accuracy    <       0.00000717 Ry

     The total energy is the sum of the following terms:

     one-electron contribution =  -11681.64247795 Ry
     hartree contribution      =    5835.24535150 Ry
     xc contribution           =    -232.56483311 Ry
     ewald contribution        =    4644.15484473 Ry
     electric field correction =       0.00000002 Ry
     smearing contrib. (-TS)   =      -0.11646149 Ry

     convergence has been achieved in  17 iterations

 BEEF-vdW xc energy contributions
           1 :   -199.339534418558
           2 :    181.216423827386
           3 :   -150.363518202493
           4 :    115.073857775749
           5 :   -83.2743730532197
           6 :    59.9043346821695
           7 :   -45.8874808525021
           8 :    38.8025206405842
           9 :   -34.7052130248400
          10 :    30.1166885710653
          11 :   -23.3380620188090
          12 :    14.6783669104708
          13 :   -5.75096673927075
          14 :   -1.66472686202206
          15 :    6.58532156067895
          16 :   -9.19979974130428
          17 :    10.5723831338678
          18 :   -11.9350032361242
          19 :    13.9857500650497
          20 :   -16.5678496847048
          21 :    18.8532833730946
          22 :   -19.8817303028486
          23 :    19.1221243550681
          24 :   -16.7546350567462
          25 :    13.5496545822182
          26 :   -10.4572499105908
          27 :    8.15233470731613
          28 :   -6.77810921204122
          29 :    5.99194789694175
          30 :   -5.25421158130041
          31 :   -23.0725265025219
          32 :   -17.4341970755551

     Forces acting on atoms (Ry/au):

     negative rho (up, down):  4.805E-03 0.000E+00
     atom    1 type  1   force =     0.00077552    0.00044091   -0.00387017
     atom    2 type  1   force =    -0.00077554    0.00043747   -0.00387237
     atom    3 type  1   force =    -0.00000356   -0.00088843   -0.00389083
     atom    4 type  1   force =     0.00000303    0.00000540   -0.00882422
     atom    5 type  1   force =     0.00001477   -0.00315968   -0.00267323
     atom    6 type  1   force =    -0.00001861   -0.00001295   -0.00131110
     atom    7 type  1   force =     0.00272758    0.00158126   -0.00266256
     atom    8 type  1   force =    -0.00272375    0.00159651   -0.00266549
     atom    9 type  1   force =     0.00000156   -0.00000774   -0.01324352
     atom   10 type  1   force =     0.00000231    0.02049080    0.05304637
     atom   11 type  1   force =     0.01774365   -0.01024030    0.05305030
     atom   12 type  1   force =    -0.01773746   -0.01023827    0.05304006
     atom   13 type  2   force =    -0.00000831   -0.00000450   -0.10757943
     atom   14 type  3   force =    -0.00000118   -0.00000045   -0.00854381

     Total force =     0.146705     Total SCF correction =     0.005079

     entering subroutine stress ...

     negative rho (up, down):  4.805E-03 0.000E+00
          total   stress  (Ry/bohr**3)                   (kbar)     P=  -23.76
  -0.00022803   0.00000001  -0.00000002        -33.54      0.00     -0.00
   0.00000001  -0.00022805  -0.00000000          0.00    -33.55     -0.00
  -0.00000002  -0.00000000  -0.00002841         -0.00     -0.00     -4.18

     BFGS Geometry Optimization

     number of scf cycles    =   1
     number of bfgs steps    =   0

     energy   new            =   -1434.9235762961 Ry

     new trust radius        =       0.1075794279 bohr
     new conv_thr            =       0.0000099958 Ry

ATOMIC_POSITIONS (crystal)
Nb1      0.166666667   0.166666667   0.402010442    0   0   0
Nb1      0.666666667   0.166666667   0.402010442    0   0   0
Nb1      0.166666667   0.666666667   0.402010442    0   0   0
Nb1      0.666666667   0.666666667   0.402010442    0   0   0
Nb1      0.833333333   0.333333333   0.500000000    0   0   0
Nb1      0.333333333   0.333333333   0.500000000    0   0   0
Nb1      0.833333333   0.833333333   0.500000000    0   0   0
Nb1      0.333333333   0.833333333   0.500000000    0   0   0
Nb1      0.000000534  -0.000000792   0.597707822
Nb1      0.498951673   0.002097062   0.599118039
Nb1      0.002096633   0.498951990   0.599118122
Nb1      0.498951821   0.498952199   0.599117905
C1       0.333332827   0.333332873   0.658414599
H1       0.333333252   0.333333287   0.704742579

     Writing output data file calc.save
     Check: negative starting charge=   -0.004922
     NEW-OLD atomic charge density approx. for the potential
     Check: negative starting charge=   -0.004905

[...]

     iteration #  6     ecut=    36.75 Ry     beta=0.30
     Davidson diagonalization with overlap
     c_bands:  1 eigenvalues not converged
     ethr =  9.17E-07,  avg # of iterations =  6.3

[...]

     energy   old            =   -1434.9235762961 Ry
     energy   new            =   -1434.9396709184 Ry

     CASE: energy  _new < energy  _old

[...]

     Total force =     0.016522     Total SCF correction =     0.000103

[...]

     Total force =     0.004310     Total SCF correction =     0.000508
     SCF correction compared to forces is large: reduce conv_thr to get better values

[...]

     number of scf cycles    =  12
     number of bfgs steps    =  11

     energy   old            =   -1434.9765388975 Ry
     energy   new            =   -1434.9766850614 Ry

     CASE: energy  _new < energy  _old

     new trust radius        =       0.0041402613 bohr
     new conv_thr            =       0.0000001000 Ry

ATOMIC_POSITIONS (crystal)
Nb1      0.166666667   0.166666667   0.402010442    0   0   0
Nb1      0.666666667   0.166666667   0.402010442    0   0   0
Nb1      0.166666667   0.666666667   0.402010442    0   0   0
Nb1      0.666666667   0.666666667   0.402010442    0   0   0
Nb1      0.833333333   0.333333333   0.500000000    0   0   0
Nb1      0.333333333   0.333333333   0.500000000    0   0   0
Nb1      0.833333333   0.833333333   0.500000000    0   0   0
Nb1      0.333333333   0.833333333   0.500000000    0   0   0
Nb1      0.000001062   0.000000816   0.582900734
Nb1      0.500140170  -0.000280084   0.602329727
Nb1     -0.000278595   0.500138194   0.602329681
Nb1      0.500140798   0.500138614   0.602329981
C1       0.333334017   0.333333281   0.652266907
H1       0.333333766   0.333333539   0.696615918

     Writing output data file calc.save
     Check: negative starting charge=   -0.005001
     NEW-OLD atomic charge density approx. for the potential
     Check: negative starting charge=   -0.005004

[...]

     Self-consistent Calculation

[...]

     Threshold (ethr) on eigenvalues was too large:
     Diagonalizing with lowered threshold

     Davidson diagonalization with overlap
     ethr =  1.08E-08,  avg # of iterations =  4.1

[...]

     total energy              =   -1434.97669352 Ry
     Harris-Foulkes estimate   =   -1434.97669353 Ry
     estimated scf accuracy    <       0.00000013 Ry

     iteration #  8     ecut=    36.75 Ry     beta=0.30
     Davidson diagonalization with overlap
     ethr =  8.18E-11,  avg # of iterations =  3.8

[...]

     negative rho (up, down):  4.833E-03 0.000E+00

     Adding external electric field

     Computed dipole along edir(3) :
        Dipole                0.0886 Ry au,          0.2253 Debye
        Dipole field          0.0002 Ry au

        Potential amp.       -0.0197 Ry
        Total length         45.8317 bohr

     End of self-consistent calculation

[...]

          k = 0.0558-0.0645 0.0000 ( 19505 PWs)   bands (ev):

[...]

          k =-0.0837-0.0483 0.0000 ( 19524 PWs)   bands (ev):

   -52.9431 -52.9280 -52.9198 -52.9004 -52.8633 -52.8632 -52.8553 -52.8481
   -52.8090 -52.7606 -52.7336 -52.5535 -29.3785 -29.2772 -29.2704 -29.2693
   -29.2592 -29.2230 -29.2012 -29.1287 -29.1233 -29.0954 -29.0709 -29.0151
   -28.9652 -28.9418 -28.9265 -28.9059 -28.8922 -28.8737 -28.8619 -28.8500
   -28.8210 -28.7997 -28.7607 -28.7607 -28.7242 -28.6917 -28.6526 -28.6422
   -28.6267 -28.6065 -28.5816 -28.5159 -28.4920 -28.3827 -28.2971 -28.2634
    -8.7060  -3.1009  -1.8729  -1.7321  -1.1446  -0.8346  -0.5981  -0.5618
    -0.4431  -0.4118  -0.3607  -0.2967  -0.1156   0.0813   0.2779   0.2985
     0.3989   0.4351   0.4668   0.7156   0.8588   0.9946   1.0548   1.0803
     1.1401   1.3960   1.4309   1.5755   1.6030   1.6974   1.7711   1.7756
     1.8303   1.8900   2.0653   2.2417   2.2787   2.2861   2.5068   2.6771
     2.9188   3.1121

     the Fermi energy is     2.1167 ev

!    total energy              =   -1434.97669351 Ry
     Harris-Foulkes estimate   =   -1434.97669337 Ry
     estimated scf accuracy    <       0.00000004 Ry

     The total energy is the sum of the following terms:

     one-electron contribution =  -11741.59669218 Ry
     hartree contribution      =    5865.95949853 Ry
     xc contribution           =    -232.85030388 Ry
     ewald contribution        =    4673.61867918 Ry
     electric field correction =       0.00001905 Ry
     smearing contrib. (-TS)   =      -0.10789421 Ry

     convergence has been achieved in   8 iterations

 BEEF-vdW xc energy contributions
           1 :   -199.619790546808
           2 :    181.543217149470
           3 :   -150.747697962137
           4 :    115.479573534701
           5 :   -83.6267353150402
           6 :    60.1113837083764
           7 :   -45.8787578492713
           8 :    38.5695040293317
           9 :   -34.3169927747871
          10 :    29.6933187885684
          11 :   -22.9931154563085
          12 :    14.4626013185552
          13 :   -5.63053455949409
          14 :   -1.78171948684297
          15 :    6.79187226767141
          16 :   -9.53793920642502
          17 :    11.0114067142754
          18 :   -12.3848753687007
          19 :    14.3354103446708
          20 :   -16.7329073650062
          21 :    18.8160779208260
          22 :   -19.7054979124457
          23 :    18.9266827356861
          24 :   -16.6605887099908
          25 :    13.6192374859201
          26 :   -10.6647047323727
          27 :    8.40117777901099
          28 :   -6.95564833463010
          29 :    6.03011075443300
          30 :   -5.16201833966656
          31 :   -23.0905737024410
          32 :   -17.4613519796934

     Forces acting on atoms (Ry/au):

     negative rho (up, down):  4.833E-03 0.000E+00
     atom    1 type  1   force =     0.00193038    0.00111310   -0.00226600
     atom    2 type  1   force =    -0.00193059    0.00111339   -0.00226626
     atom    3 type  1   force =     0.00000004   -0.00222663   -0.00226341
     atom    4 type  1   force =    -0.00000006    0.00000100   -0.00189798
     atom    5 type  1   force =    -0.00000012    0.02925117   -0.00890005
     atom    6 type  1   force =    -0.00000002    0.00000234    0.03670393
     atom    7 type  1   force =    -0.02532951   -0.01462613   -0.00890017
     atom    8 type  1   force =     0.02533006   -0.01462652   -0.00890128
     atom    9 type  1   force =    -0.00000111   -0.00000476    0.00027818
     atom   10 type  1   force =     0.00000088   -0.00026966   -0.00030610
     atom   11 type  1   force =    -0.00023121    0.00013666   -0.00030520
     atom   12 type  1   force =     0.00023217    0.00013610   -0.00030716
     atom   13 type  2   force =    -0.00000074   -0.00000001   -0.00011247
     atom   14 type  3   force =    -0.00000015   -0.00000004   -0.00055602

     Total force =     0.000947     Total SCF correction =     0.000690
     SCF correction compared to forces is large: reduce conv_thr to get better values

     entering subroutine stress ...

     negative rho (up, down):  4.833E-03 0.000E+00
          total   stress  (Ry/bohr**3)                   (kbar)     P=  -13.67
  -0.00014185  -0.00000000  -0.00000000        -20.87     -0.00     -0.00
  -0.00000000  -0.00014185  -0.00000000         -0.00    -20.87     -0.00
  -0.00000000  -0.00000000   0.00000490         -0.00     -0.00      0.72

     bfgs converged in  13 scf cycles and  12 bfgs steps
     (criteria: energy <  1.0E+00, force <  1.9E-03)

     End of BFGS Geometry Optimization

     Final energy   =   -1434.9766935146 Ry
Begin final coordinates

ATOMIC_POSITIONS (crystal)
Nb1      0.166666667   0.166666667   0.402010442    0   0   0
Nb1      0.666666667   0.166666667   0.402010442    0   0   0
Nb1      0.166666667   0.666666667   0.402010442    0   0   0
Nb1      0.666666667   0.666666667   0.402010442    0   0   0
Nb1      0.833333333   0.333333333   0.500000000    0   0   0
Nb1      0.333333333   0.333333333   0.500000000    0   0   0
Nb1      0.833333333   0.833333333   0.500000000    0   0   0
Nb1      0.333333333   0.833333333   0.500000000    0   0   0
Nb1      0.000001062   0.000000816   0.582900734
Nb1      0.500140170  -0.000280084   0.602329727
Nb1     -0.000278595   0.500138194   0.602329681
Nb1      0.500140798   0.500138614   0.602329981
C1       0.333334017   0.333333281   0.652266907
H1       0.333333766   0.333333539   0.696615918
End final coordinates

     Writing output data file calc.save

     General routines

     Parallel routines

   This run was terminated on:  10:20: 7  19Apr2018

   JOB DONE.
Job  /afs/slac/g/suncat/bin/suncat-tsmpirun -x LD_LIBRARY_PATH -wdir /scratch/qe548469_9pPB8 pw.x -npool 4 -in pw.inp

TID   HOST_NAME   COMMAND_LINE            STATUS            TERMINATION_TIME
00000 suncat0072 pw.x -npool 4 -i  Done                     04/19/2018 10:20:07
00001 suncat0072 pw.x -npool 4 -i  Done                     04/19/2018 10:20:07
00002 suncat0072 pw.x -npool 4 -i  Done                     04/19/2018 10:20:07
00003 suncat0072 pw.x -npool 4 -i  Done                     04/19/2018 10:20:07
00004 suncat0072 pw.x -npool 4 -i  Done                     04/19/2018 10:20:07
00005 suncat0072 pw.x -npool 4 -i  Done                     04/19/2018 10:20:07
00006 suncat0072 pw.x -npool 4 -i  Done                     04/19/2018 10:20:07
00007 suncat0072 pw.x -npool 4 -i  Done                     04/19/2018 10:20:07
00008 suncat0032 pw.x -npool 4 -i  Done                     04/19/2018 10:20:07
00009 suncat0032 pw.x -npool 4 -i  Done                     04/19/2018 10:20:07
00010 suncat0032 pw.x -npool 4 -i  Done                     04/19/2018 10:20:07
00011 suncat0032 pw.x -npool 4 -i  Done                     04/19/2018 10:20:07
00012 suncat0032 pw.x -npool 4 -i  Done                     04/19/2018 10:20:07
00013 suncat0032 pw.x -npool 4 -i  Done                     04/19/2018 10:20:07
00014 suncat0032 pw.x -npool 4 -i  Done                     04/19/2018 10:20:07
00015 suncat0032 pw.x -npool 4 -i  Done                     04/19/2018 10:20:07
00016 suncat0193 pw.x -npool 4 -i  Done                     04/19/2018 10:20:07
00017 suncat0193 pw.x -npool 4 -i  Done                     04/19/2018 10:20:07
00018 suncat0193 pw.x -npool 4 -i  Done                     04/19/2018 10:20:07
00019 suncat0193 pw.x -npool 4 -i  Done                     04/19/2018 10:20:07
00020 suncat0193 pw.x -npool 4 -i  Done                     04/19/2018 10:20:07
00021 suncat0193 pw.x -npool 4 -i  Done                     04/19/2018 10:20:07
00022 suncat0193 pw.x -npool 4 -i  Done                     04/19/2018 10:20:07
00023 suncat0193 pw.x -npool 4 -i  Done                     04/19/2018 10:20:07
00024 suncat0007 pw.x -npool 4 -i  Done                     04/19/2018 10:20:07
00025 suncat0007 pw.x -npool 4 -i  Done                     04/19/2018 10:20:07
00026 suncat0007 pw.x -npool 4 -i  Done                     04/19/2018 10:20:07
00027 suncat0007 pw.x -npool 4 -i  Done                     04/19/2018 10:20:07
00028 suncat0007 pw.x -npool 4 -i  Done                     04/19/2018 10:20:07
00029 suncat0007 pw.x -npool 4 -i  Done                     04/19/2018 10:20:07
00030 suncat0007 pw.x -npool 4 -i  Done                     04/19/2018 10:20:07
00031 suncat0007 pw.x -npool 4 -i  Done                     04/19/2018 10:20:07