     Program PWSCF v.5.1rc2 (svn rev. 11289) starts on 23Apr2018 at 14: 3:21

     Current dimensions of program PWSCF are:
     Max number of different atomic species (ntypx) = 10
     Max number of k-points (npk) =  40000
     Max angular momentum in pseudopotentials (lmaxx) =  3
     Presently stress not available with electric field

     IMPORTANT: XC functional enforced from input :
     Exchange-correlation      = BEEF-VDW ( 1  4 27 13 2)
     Any further DFT definition will be discarded
     Please, verify this is what you really want

     Subspace diagonalization in iterative solution of the eigenvalue problem:
     a serial algorithm will be used

     bravais-lattice index     =            0
     lattice parameter (alat)  =       1.8897  a.u.
     unit-cell volume          =    4301.6107 (a.u.)^3
     number of atoms/cell      =           14
     number of atomic types    =            3
     number of electrons       =       187.00
     number of Kohn-Sham states=          103
     kinetic-energy cutoff     =      36.7493  Ry
     charge density cutoff     =     367.4932  Ry
     convergence threshold     =      1.0E-05
     mixing beta               =       0.3000
     number of iterations used =           10  plain     mixing
     Exchange-correlation      = BEEF-VDW ( 1  4 27 13 2)
     nstep                     =           50

     celldm(1)=   1.889726  celldm(2)=   0.000000  celldm(3)=   0.000000
     celldm(4)=   0.000000  celldm(5)=   0.000000  celldm(6)=   0.000000

     crystal axes: (cart. coord. in units of alat)
               a(1) = (   5.483647   0.000000   0.000000 )
               a(2) = (   2.741823   4.748977   0.000000 )
               a(3) = (   0.000000   0.000000  24.477379 )

     reciprocal axes: (cart. coord. in units 2 pi/alat)
               b(1) = (  0.182360 -0.105286  0.000000 )
               b(2) = (  0.000000  0.210572  0.000000 )
               b(3) = (  0.000000  0.000000  0.040854 )

     PseudoPot. # 1 for Tc read from file:
     /u/if/mamunm/psp/gbrv1.5pbe/Tc.UPF
     MD5 check sum: 9eb49e5b028550b2339a02317eb7b844
     Pseudo is Ultrasoft + core correction, Zval = 15.0
     Generated by new atomic code, or converted to UPF format
     Using radial grid of  965 points,  6 beta functions with:
                l(1) =   0
                l(2) =   0
                l(3) =   1
                l(4) =   1
                l(5) =   2
                l(6) =   2
     Q(r) pseudized with  8 coefficients,  rinner =    1.300   1.300   1.300
                                                       1.300   1.300

     PseudoPot. # 2 for S  read from file:
     /u/if/mamunm/psp/gbrv1.5pbe/S.UPF
     MD5 check sum: 88d86576ff6df21479756cfb9bdac1df
     Pseudo is Ultrasoft + core correction, Zval =  6.0
     Generated by new atomic code, or converted to UPF format
     Using radial grid of  907 points,  6 beta functions with:
                l(1) =   0
                l(2) =   0
                l(3) =   1
                l(4) =   1
                l(5) =   2
                l(6) =   2
     Q(r) pseudized with  8 coefficients,  rinner =    1.300   1.300   1.300
                                                       1.300   1.300

     PseudoPot. # 3 for H  read from file:
     /u/if/mamunm/psp/gbrv1.5pbe/H.UPF
     MD5 check sum: 761ae9a214b05c3daf00ab9f6b793d6f
     Pseudo is Ultrasoft, Zval =  1.0
     Generated by new atomic code, or converted to UPF format
     Using radial grid of  615 points,  2 beta functions with:
                l(1) =   0
                l(2) =   0
     Q(r) pseudized with  8 coefficients,  rinner =    0.700

     vdW kernel table read from file vdW_kernel_table
     MD5 check sum: 095c7af220d748ca6e76c0b4c6cfb241

     atomic species   valence    mass     pseudopotential
        Tc1           15.00    97.90721     Tc( 1.00)
        S1             6.00    32.06000     S ( 1.00)
        H1             1.00     1.00800     H ( 1.00)

     No symmetry found

   Cartesian axes

     site n.     atom                  positions (alat units)
         1           Tc1 tau(   1) = (   1.3709117   0.7914962  10.0000000  )
         2           Tc1 tau(   2) = (   4.1127351   0.7914962  10.0000000  )
         3           Tc1 tau(   3) = (   2.7418234   3.1659850  10.0000000  )
         4           Tc1 tau(   4) = (   5.4836469   3.1659850  10.0000000  )
         5           Tc1 tau(   5) = (   5.4836469   1.5829925  12.2386895  )
         6           Tc1 tau(   6) = (   2.7418234   1.5829925  12.2386895  )
         7           Tc1 tau(   7) = (   6.8545586   3.9574812  12.2386895  )
         8           Tc1 tau(   8) = (   4.1127351   3.9574812  12.2386895  )
         9           Tc1 tau(   9) = (   0.0000000   0.0000000  14.4773789  )
        10           Tc1 tau(  10) = (   2.7418234   0.0000000  14.4773789  )
        11           Tc1 tau(  11) = (   1.3709117   2.3744887  14.4773789  )
        12           Tc1 tau(  12) = (   4.1127351   2.3744887  14.4773789  )
        13           S1  tau(  13) = (   2.7418234   1.5829925  16.1153789  )
        14           H1  tau(  14) = (   2.7418234   1.5829925  17.3653789  )

     number of k points=    20  Fermi-Dirac smearing, width (Ry)=  0.0110
                       cart. coord. in units 2pi/alat
        k(    1) = (   0.0000000   0.0000000   0.0000000), wk =   0.0555556
        k(    2) = (   0.0000000   0.0350953   0.0000000), wk =   0.1111111
        k(    3) = (   0.0000000   0.0701905   0.0000000), wk =   0.1111111
        k(    4) = (   0.0000000  -0.1052858   0.0000000), wk =   0.0555556
        k(    5) = (   0.0303934  -0.0175476   0.0000000), wk =   0.1111111
        k(    6) = (   0.0303934   0.0175476   0.0000000), wk =   0.1111111
        k(    7) = (   0.0303934   0.0526429   0.0000000), wk =   0.1111111
        k(    8) = (   0.0303934  -0.1228335   0.0000000), wk =   0.1111111
        k(    9) = (   0.0303934  -0.0877382   0.0000000), wk =   0.1111111
        k(   10) = (   0.0303934  -0.0526429   0.0000000), wk =   0.1111111
        k(   11) = (   0.0607868  -0.0350953   0.0000000), wk =   0.1111111
        k(   12) = (   0.0607868   0.0000000   0.0000000), wk =   0.1111111
        k(   13) = (   0.0607868   0.0350953   0.0000000), wk =   0.1111111
        k(   14) = (   0.0607868  -0.1403811   0.0000000), wk =   0.1111111
        k(   15) = (   0.0607868  -0.1052858   0.0000000), wk =   0.1111111
        k(   16) = (   0.0607868  -0.0701905   0.0000000), wk =   0.1111111
        k(   17) = (  -0.0911802   0.0526429   0.0000000), wk =   0.0555556
        k(   18) = (  -0.0911802   0.0877382   0.0000000), wk =   0.1111111
        k(   19) = (  -0.0911802   0.1228335   0.0000000), wk =   0.1111111
        k(   20) = (  -0.0911802  -0.0526429   0.0000000), wk =   0.0555556

     Largest allocated arrays     est. size (Mb)     dimensions
     Largest temporary arrays     est. size (Mb)     dimensions

     Check: negative/imaginary core charge=   -0.000022    0.000000

     Initial potential from superposition of free atoms
     Check: negative starting charge=   -1.504578

     starting charge  174.99962, renormalised to  187.00000

     negative rho (up, down):  1.608E+00 0.000E+00

     *
     * You are using vdW-DF for exchange-correlation in this calculation.
     * Please cite the following three references that made this development
     * possible:
     *
     *   M. Dion, H. Rydberg, E. Schroder, D. C. Langreth, and
     *   B. I. Lundqvist, Phys. Rev. Lett. 92, 246401 (2004).
     *
     *   T. Thonhauser, V. R. Cooper, S. Li, A. Puzder, P. Hyldgaard, and
     *   D. C. Langreth, Phys. Rev. B 76, 125112 (2007).
     *
     *   G. Roman-Perez and J. M. Soler, Phys. Rev. Lett. 103, 096102 (2009).
     *
     *
     * If you are using vdW-DF2, please also cite:
     *
     *   K. Lee, E. D. Murray, L. Kong, B. I. Lundqvist, and
     *   D. C. Langreth, Phys. Rev. B 82, 081101(R) (2010).
     *
     *
     * If you are calculating the stress with vdW-DF, please also cite:
     *
     *   R. Sabatini, E. Kucukbenli, B. Kolb, T. Thonhauser, and
     *   S. de Gironcoli, J. Phys.: Condens. Matter 24, 424209 (2012).
     *

     Carrying out vdW-DF run using the following parameters:

     Nqs =      20    Nr_points =    1024   r_max =   100.000
     q_mesh =
               0.00001000     0.04494208     0.09755937     0.15916263
               0.23128650     0.31572767     0.41458969     0.53033537
               0.66584808     0.82450364     1.01025438     1.22772762
               1.48234092     1.78043706     2.12944203     2.53805004
               3.01644009     3.57652955     4.23227104     5.00000000

     Gradients computed in reciprocal space

     Adding external electric field

     Computed dipole along edir(3) :
        Dipole               -3.6781 Ry au,         -9.3489 Debye
        Dipole field         -0.0107 Ry au

        Potential amp.        0.9692 Ry
        Total length         45.0992 bohr

     Starting wfc are  161 randomized atomic wfcs

     Self-consistent Calculation

     iteration #  1     ecut=    36.75 Ry     beta=0.30
     Davidson diagonalization with overlap
     ethr =  1.00E-02,  avg # of iterations =  7.8

[...]

     total energy              =   -1833.99967872 Ry
     Harris-Foulkes estimate   =   -2123.04019249 Ry
     estimated scf accuracy    <     607.09916263 Ry

     iteration #  2     ecut=    36.75 Ry     beta=0.30
     Davidson diagonalization with overlap
     c_bands:  1 eigenvalues not converged
     ethr =  1.00E-02,  avg # of iterations = 17.9

[...]

     iteration # 23     ecut=    36.75 Ry     beta=0.30
     Davidson diagonalization with overlap
     c_bands:  1 eigenvalues not converged
     ethr =  9.91E-07,  avg # of iterations =  4.3

[...]

     End of self-consistent calculation

          k = 0.0000 0.0000 0.0000 ( 16073 PWs)   bands (ev):

   -63.9844 -63.8466 -63.8313 -63.8163 -63.8159 -63.7558 -63.7391 -63.7389
   -63.6636 -63.6409 -63.6398 -63.6240 -36.4607 -36.4210 -36.4209 -36.3775
   -36.2977 -36.2829 -36.2828 -36.1771 -36.1457 -36.1453 -35.8698 -35.8165
   -35.8164 -35.7842 -35.7528 -35.7525 -35.6914 -35.6909 -35.6906 -35.6904
   -35.5760 -35.5755 -35.5427 -35.5113 -35.5111 -35.5057 -35.4800 -35.4535
   -35.4535 -35.4236 -35.4179 -35.4174 -35.3059 -35.3059 -35.2252 -35.2252
   -12.2186  -5.6273  -3.1153  -2.3468  -2.3468  -1.9247  -1.9246  -1.9219
    -1.8236  -1.6224  -1.4328  -1.4165  -1.4165  -1.3255  -1.0932  -1.0930
    -0.8593  -0.7168  -0.7167   0.3542   0.3544   0.5095   0.9596   1.1146
     1.1146   1.3087   1.6052   1.6052   1.7171   1.8447   1.8447   1.9793
     2.0189   2.0191   2.1095   2.1095   2.5058   2.8536   2.8539   3.2034
     3.5052   3.5053   3.5657   3.7356   3.7358   3.9672   3.9673   3.9948
     4.3800   4.3801   4.6458   5.0665   5.2133   5.2135   5.2940

[...]

          k =-0.0912 0.0526 0.0000 ( 16164 PWs)   bands (ev):

[...]

     the Fermi energy is     3.2797 ev

!    total energy              =   -2129.04264053 Ry
     Harris-Foulkes estimate   =   -2129.04263335 Ry
     estimated scf accuracy    <       0.00000182 Ry

     The total energy is the sum of the following terms:

     one-electron contribution =  -19159.52258140 Ry
     hartree contribution      =    9585.50562264 Ry
     xc contribution           =    -406.83898439 Ry
     ewald contribution        =    7851.90409818 Ry
     electric field correction =       0.00043757 Ry
     smearing contrib. (-TS)   =      -0.09123314 Ry

     convergence has been achieved in  31 iterations

 BEEF-vdW xc energy contributions
           1 :   -356.242770322320
           2 :    327.350570229268
           3 :   -276.001831370515
           4 :    212.533244122022
           5 :   -147.961154648998
           6 :    90.9770683158740
           7 :   -46.2438565005169
           8 :    14.2292815893942
           9 :    7.53832233766940
          10 :   -22.5593978558789
          11 :    33.5910101189334
          12 :   -41.7136453494899
          13 :    46.3891228539443
          14 :   -46.3136343232940
          15 :    40.5328531698061
          16 :   -29.3118987886198
          17 :    14.3870514900642
          18 :    1.44254321780966
          19 :   -15.1762631651487
          20 :    24.5173645820194
          21 :   -28.4654402895223
          22 :    27.3820385671042
          23 :   -22.5820544007271
          24 :    15.6847588146088
          25 :   -8.04253912603752
          26 :   0.465629149736287
          27 :    6.69893886559476
          28 :   -13.2674502403484
          29 :    18.9110217318088
          30 :   -23.0251729596121
          31 :   -34.0944278082102
          32 :   -25.0121758091148

     Forces acting on atoms (Ry/au):

     negative rho (up, down):  1.590E+00 0.000E+00
     atom    1 type  1   force =    -0.00130704   -0.00080274    0.03032375
     atom    2 type  1   force =     0.00131296   -0.00078665    0.03029672
     atom    3 type  1   force =     0.00001217    0.00154126    0.03032202
     atom    4 type  1   force =    -0.00001135    0.00003993    0.02612419
     atom    5 type  1   force =     0.00000320   -0.01176561   -0.01325306
     atom    6 type  1   force =    -0.00000165    0.00004075    0.01664399
     atom    7 type  1   force =     0.01024293    0.00585419   -0.01325207
     atom    8 type  1   force =    -0.01023978    0.00586044   -0.01326096
     atom    9 type  1   force =     0.00001542   -0.00004842   -0.04623113
     atom   10 type  1   force =    -0.00001545   -0.06272808   -0.03578617
     atom   11 type  1   force =    -0.05429950    0.03138583   -0.03576605
     atom   12 type  1   force =     0.05428616    0.03140576   -0.03578000
     atom   13 type  2   force =     0.00000076    0.00000559   -0.08267107
     atom   14 type  3   force =     0.00000118   -0.00000225    0.14228984

     Total force =     0.211802     Total SCF correction =     0.002114

     entering subroutine stress ...

     negative rho (up, down):  1.590E+00 0.000E+00
          total   stress  (Ry/bohr**3)                   (kbar)     P=  -17.54
  -0.00013081   0.00000000  -0.00000001        -19.24      0.00     -0.00
   0.00000000  -0.00013083   0.00000001          0.00    -19.25      0.00
  -0.00000001   0.00000001  -0.00009609         -0.00      0.00    -14.13

     BFGS Geometry Optimization

     number of scf cycles    =   1
     number of bfgs steps    =   0

     energy   new            =   -2129.0426405291 Ry

     new trust radius        =       0.1422898436 bohr
     new conv_thr            =       0.0000099958 Ry

ATOMIC_POSITIONS (crystal)
Tc1      0.166666667   0.166666667   0.408540475    0   0   0
Tc1      0.666666667   0.166666667   0.408540475    0   0   0
Tc1      0.166666667   0.666666667   0.408540475    0   0   0
Tc1      0.666666667   0.666666667   0.408540475    0   0   0
Tc1      0.833333333   0.333333333   0.500000000    0   0   0
Tc1      0.333333333   0.333333333   0.500000000    0   0   0
Tc1      0.833333333   0.833333333   0.500000000    0   0   0
Tc1      0.333333333   0.833333333   0.500000000    0   0   0
Tc1      0.000004185  -0.000005395   0.590460053
Tc1      0.503493395  -0.006989772   0.590685863
Tc1     -0.006988611   0.503497314   0.590686298
Tc1      0.503488899   0.503499535   0.590685996
S1       0.333333095   0.333333956   0.656591187
H1       0.333333572   0.333333083   0.712522183

     Writing output data file calc.save
     Check: negative starting charge=   -1.504578
     NEW-OLD atomic charge density approx. for the potential

     Check: negative/imaginary core charge=   -0.000022    0.000000
     Check: negative starting charge=   -1.501852

[...]

     energy   old            =   -2129.0426405291 Ry
     energy   new            =   -2129.0686589225 Ry

     CASE: energy  _new < energy  _old

[...]

     Total force =     0.005665     Total SCF correction =     0.000150

[...]

     Total force =     0.002237     Total SCF correction =     0.000487
     SCF correction compared to forces is large: reduce conv_thr to get better values

[...]

     number of scf cycles    =   8
     number of bfgs steps    =   7

     energy   old            =   -2129.0836509013 Ry
     energy   new            =   -2129.0836767129 Ry

     CASE: energy  _new < energy  _old

     new trust radius        =       0.0024064746 bohr
     new conv_thr            =       0.0000001000 Ry

ATOMIC_POSITIONS (crystal)
Tc1      0.166666667   0.166666667   0.408540475    0   0   0
Tc1      0.666666667   0.166666667   0.408540475    0   0   0
Tc1      0.166666667   0.666666667   0.408540475    0   0   0
Tc1      0.666666667   0.666666667   0.408540475    0   0   0
Tc1      0.833333333   0.333333333   0.500000000    0   0   0
Tc1      0.333333333   0.333333333   0.500000000    0   0   0
Tc1      0.833333333   0.833333333   0.500000000    0   0   0
Tc1      0.333333333   0.833333333   0.500000000    0   0   0
Tc1     -0.000000107   0.000000318   0.585219056
Tc1      0.508387554  -0.016775004   0.589293033
Tc1     -0.016776702   0.508387418   0.589293397
Tc1      0.508389168   0.508387743   0.589293295
S1       0.333334368   0.333331946   0.658152696
H1       0.333333181   0.333333474   0.714314086

     Writing output data file calc.save
     Check: negative starting charge=   -1.501704
     NEW-OLD atomic charge density approx. for the potential

     Check: negative/imaginary core charge=   -0.000022    0.000000
     Check: negative starting charge=   -1.501716

[...]

     Self-consistent Calculation

[...]

     Threshold (ethr) on eigenvalues was too large:
     Diagonalizing with lowered threshold

     Davidson diagonalization with overlap
     ethr =  1.14E-08,  avg # of iterations =  5.2

[...]

     total energy              =   -2129.08368211 Ry
     Harris-Foulkes estimate   =   -2129.08368245 Ry
     estimated scf accuracy    <       0.00000068 Ry

     iteration #  7     ecut=    36.75 Ry     beta=0.30
     Davidson diagonalization with overlap
     ethr =  3.65E-10,  avg # of iterations =  3.9

[...]

     negative rho (up, down):  1.586E+00 0.000E+00

     Adding external electric field

     Computed dipole along edir(3) :
        Dipole                0.3754 Ry au,          0.9541 Debye
        Dipole field          0.0011 Ry au

        Potential amp.       -0.0989 Ry
        Total length         45.0992 bohr

     End of self-consistent calculation

[...]

          k = 0.0608-0.0702 0.0000 ( 16203 PWs)   bands (ev):

[...]

          k =-0.0912-0.0526 0.0000 ( 16164 PWs)   bands (ev):

   -63.9495 -63.9412 -63.8596 -63.8577 -63.8253 -63.7732 -63.7461 -63.7292
   -63.7278 -63.6691 -63.6673 -63.6392 -36.3805 -36.3351 -36.3018 -36.2832
   -36.2446 -36.1997 -36.1006 -36.0780 -36.0557 -36.0212 -35.9970 -35.9913
   -35.9357 -35.7906 -35.7618 -35.7520 -35.7347 -35.7343 -35.7105 -35.6901
   -35.6875 -35.6687 -35.6593 -35.6355 -35.6336 -35.6290 -35.6198 -35.6062
   -35.5436 -35.4917 -35.4679 -35.4323 -35.4307 -35.3705 -35.3546 -35.3322
   -11.5732  -4.7373  -2.2882  -1.6842  -1.6283  -1.5087  -1.1476  -1.0739
    -0.9788  -0.8550  -0.7858  -0.6932  -0.4997  -0.3653  -0.3574  -0.2519
    -0.1455  -0.0515  -0.0239   0.0611   0.4347   0.5555   0.6190   0.7079
     0.7823   0.9245   1.1929   1.3234   1.4552   1.4554   1.5994   1.7947
     1.8062   1.8097   1.8871   1.9312   1.9720   2.0316   2.0764   2.1622
     2.2361   2.3605   2.4825   2.8943   3.0037   3.0532   3.0979   3.3526
     3.4498   3.5667   3.5837   3.6414   3.7896   3.8836   3.9327

     the Fermi energy is     3.2565 ev

!    total energy              =   -2129.08368213 Ry
     Harris-Foulkes estimate   =   -2129.08368437 Ry
     estimated scf accuracy    <       0.00000009 Ry

     The total energy is the sum of the following terms:

     one-electron contribution =  -19346.69990649 Ry
     hartree contribution      =    9678.91968875 Ry
     xc contribution           =    -406.89393648 Ry
     ewald contribution        =    7945.67939918 Ry
     electric field correction =       0.00041160 Ry
     smearing contrib. (-TS)   =      -0.08933869 Ry

     convergence has been achieved in   7 iterations

 BEEF-vdW xc energy contributions
           1 :   -356.305799829411
           2 :    327.449412666365
           3 :   -276.148313964887
           4 :    212.699367508102
           5 :   -148.084967594116
           6 :    90.9903949896658
           7 :   -46.1096979541407
           8 :    13.9674271717845
           9 :    7.85155757217012
          10 :   -22.8188211259328
          11 :    33.7065226103238
          12 :   -41.6506151451366
          13 :    46.1860417007738
          14 :   -46.0658154151804
          15 :    40.3485100877813
          16 :   -29.2624369387368
          17 :    14.4733194752269
          18 :    1.29033450511088
          19 :   -15.0628056310594
          20 :    24.5298699851560
          21 :   -28.6286226093421
          22 :    27.6426190475827
          23 :   -22.8321582025308
          24 :    15.8128727543356
          25 :   -7.98604261480961
          26 :   0.241503070122064
          27 :    7.00149169371690
          28 :   -13.5273839496232
          29 :    19.0285307899402
          30 :   -22.9639608472647
          31 :   -34.0985925732205
          32 :   -25.0219062823544

     Forces acting on atoms (Ry/au):

     negative rho (up, down):  1.586E+00 0.000E+00
     atom    1 type  1   force =     0.00112504    0.00064902    0.02055751
     atom    2 type  1   force =    -0.00112474    0.00064811    0.02055585
     atom    3 type  1   force =    -0.00000071   -0.00129752    0.02055609
     atom    4 type  1   force =     0.00000068    0.00000104    0.02050526
     atom    5 type  1   force =     0.00000088   -0.00530222   -0.02648695
     atom    6 type  1   force =    -0.00000188   -0.00000178   -0.00453225
     atom    7 type  1   force =     0.00459046    0.00264986   -0.02648796
     atom    8 type  1   force =    -0.00459139    0.00265063   -0.02648617
     atom    9 type  1   force =    -0.00000106   -0.00000301    0.00036596
     atom   10 type  1   force =     0.00000134    0.00007740   -0.00034343
     atom   11 type  1   force =     0.00007102   -0.00003630   -0.00034216
     atom   12 type  1   force =    -0.00007114   -0.00003837   -0.00033966
     atom   13 type  2   force =     0.00000112    0.00000297    0.00125928
     atom   14 type  3   force =     0.00000038    0.00000015    0.00121862

     Total force =     0.001891     Total SCF correction =     0.000457
     SCF correction compared to forces is large: reduce conv_thr to get better values

     entering subroutine stress ...

     negative rho (up, down):  1.586E+00 0.000E+00
          total   stress  (Ry/bohr**3)                   (kbar)     P=  -15.91
  -0.00011574  -0.00000000   0.00000000        -17.03     -0.00      0.00
  -0.00000000  -0.00011574   0.00000000         -0.00    -17.03      0.00
   0.00000000   0.00000000  -0.00009296          0.00      0.00    -13.68

     bfgs converged in   9 scf cycles and   8 bfgs steps
     (criteria: energy <  1.0E+00, force <  1.9E-03)

     End of BFGS Geometry Optimization

     Final energy   =   -2129.0836821331 Ry
Begin final coordinates

ATOMIC_POSITIONS (crystal)
Tc1      0.166666667   0.166666667   0.408540475    0   0   0
Tc1      0.666666667   0.166666667   0.408540475    0   0   0
Tc1      0.166666667   0.666666667   0.408540475    0   0   0
Tc1      0.666666667   0.666666667   0.408540475    0   0   0
Tc1      0.833333333   0.333333333   0.500000000    0   0   0
Tc1      0.333333333   0.333333333   0.500000000    0   0   0
Tc1      0.833333333   0.833333333   0.500000000    0   0   0
Tc1      0.333333333   0.833333333   0.500000000    0   0   0
Tc1     -0.000000107   0.000000318   0.585219056
Tc1      0.508387554  -0.016775004   0.589293033
Tc1     -0.016776702   0.508387418   0.589293397
Tc1      0.508389168   0.508387743   0.589293295
S1       0.333334368   0.333331946   0.658152696
H1       0.333333181   0.333333474   0.714314086
End final coordinates

     Writing output data file calc.save

     General routines

     Parallel routines

   This run was terminated on:  14:44:56  23Apr2018

   JOB DONE.
Job  /afs/slac/g/suncat/bin/suncat-tsmpirun -x LD_LIBRARY_PATH -wdir /scratch/qe17387_KRsht pw.x -npool 3 -in pw.inp

TID   HOST_NAME   COMMAND_LINE            STATUS            TERMINATION_TIME
00000 suncat2006 pw.x -npool 3 -i  Done                     04/23/2018 14:44:56
00001 suncat2006 pw.x -npool 3 -i  Done                     04/23/2018 14:44:56
00002 suncat2006 pw.x -npool 3 -i  Done                     04/23/2018 14:44:56
00003 suncat2006 pw.x -npool 3 -i  Done                     04/23/2018 14:44:56
00004 suncat2058 pw.x -npool 3 -i  Done                     04/23/2018 14:44:56
00005 suncat2058 pw.x -npool 3 -i  Done                     04/23/2018 14:44:56
00006 suncat2058 pw.x -npool 3 -i  Done                     04/23/2018 14:44:56
00007 suncat2058 pw.x -npool 3 -i  Done                     04/23/2018 14:44:56
00008 suncat2058 pw.x -npool 3 -i  Done                     04/23/2018 14:44:56
00009 suncat2058 pw.x -npool 3 -i  Done                     04/23/2018 14:44:56
00010 suncat2058 pw.x -npool 3 -i  Done                     04/23/2018 14:44:56
00011 suncat2058 pw.x -npool 3 -i  Done                     04/23/2018 14:44:56
00012 suncat2058 pw.x -npool 3 -i  Done                     04/23/2018 14:44:56
00013 suncat2058 pw.x -npool 3 -i  Done                     04/23/2018 14:44:56
00014 suncat2058 pw.x -npool 3 -i  Done                     04/23/2018 14:44:56
00015 suncat2058 pw.x -npool 3 -i  Done                     04/23/2018 14:44:56
00016 suncat2058 pw.x -npool 3 -i  Done                     04/23/2018 14:44:56
00017 suncat2058 pw.x -npool 3 -i  Done                     04/23/2018 14:44:56
00018 suncat2058 pw.x -npool 3 -i  Done                     04/23/2018 14:44:56
00019 suncat2058 pw.x -npool 3 -i  Done                     04/23/2018 14:44:56
00020 suncat2050 pw.x -npool 3 -i  Done                     04/23/2018 14:44:56
00021 suncat2050 pw.x -npool 3 -i  Done                     04/23/2018 14:44:56
00022 suncat2050 pw.x -npool 3 -i  Done                     04/23/2018 14:44:56
00023 suncat2050 pw.x -npool 3 -i  Done                     04/23/2018 14:44:56
00024 suncat2050 pw.x -npool 3 -i  Done                     04/23/2018 14:44:56
00025 suncat2050 pw.x -npool 3 -i  Done                     04/23/2018 14:44:56
00026 suncat2050 pw.x -npool 3 -i  Done                     04/23/2018 14:44:56
00027 suncat2050 pw.x -npool 3 -i  Done                     04/23/2018 14:44:56
00028 suncat2050 pw.x -npool 3 -i  Done                     04/23/2018 14:44:56
00029 suncat2050 pw.x -npool 3 -i  Done                     04/23/2018 14:44:56
00030 suncat2050 pw.x -npool 3 -i  Done                     04/23/2018 14:44:56
00031 suncat2050 pw.x -npool 3 -i  Done                     04/23/2018 14:44:56
00032 suncat2050 pw.x -npool 3 -i  Done                     04/23/2018 14:44:56
00033 suncat2050 pw.x -npool 3 -i  Done                     04/23/2018 14:44:56
00034 suncat2050 pw.x -npool 3 -i  Done                     04/23/2018 14:44:56
00035 suncat2050 pw.x -npool 3 -i  Done                     04/23/2018 14:44:56