     Program PWSCF v.5.1rc2 (svn rev. 11289) starts on  2May2018 at 15:49:12

     Current dimensions of program PWSCF are:
     Max number of different atomic species (ntypx) = 10
     Max number of k-points (npk) =  40000
     Max angular momentum in pseudopotentials (lmaxx) =  3
     Presently stress not available with electric field

     IMPORTANT: XC functional enforced from input :
     Exchange-correlation      = BEEF-VDW ( 1  4 27 13 2)
     Any further DFT definition will be discarded
     Please, verify this is what you really want

     Subspace diagonalization in iterative solution of the eigenvalue problem:
     a serial algorithm will be used

     bravais-lattice index     =            0
     lattice parameter (alat)  =       1.8897  a.u.
     unit-cell volume          =    6116.8020 (a.u.)^3
     number of atoms/cell      =           13
     number of atomic types    =            2
     number of electrons       =       138.00
     number of Kohn-Sham states=           79
     kinetic-energy cutoff     =      36.7493  Ry
     charge density cutoff     =     367.4932  Ry
     convergence threshold     =      1.0E-05
     mixing beta               =       0.3000
     number of iterations used =           10  plain     mixing
     Exchange-correlation      = BEEF-VDW ( 1  4 27 13 2)
     nstep                     =           50

     celldm(1)=   1.889726  celldm(2)=   0.000000  celldm(3)=   0.000000
     celldm(4)=   0.000000  celldm(5)=   0.000000  celldm(6)=   0.000000

     crystal axes: (cart. coord. in units of alat)
               a(1) = (   6.437465   0.000000   0.000000 )
               a(2) = (   3.218732   5.575008   0.000000 )
               a(3) = (   0.000000   0.000000  25.256168 )

     reciprocal axes: (cart. coord. in units 2 pi/alat)
               b(1) = (  0.155341 -0.089686  0.000000 )
               b(2) = (  0.000000  0.179372  0.000000 )
               b(3) = (  0.000000  0.000000  0.039594 )

     PseudoPot. # 1 for Sc read from file:
     /u/if/mamunm/psp/gbrv1.5pbe/Sc.UPF
     MD5 check sum: db30a2753ba66ef00f23801d899b7e7f
     Pseudo is Ultrasoft + core correction, Zval = 11.0
     Generated by new atomic code, or converted to UPF format
     Using radial grid of  849 points,  6 beta functions with:
                l(1) =   0
                l(2) =   0
                l(3) =   1
                l(4) =   1
                l(5) =   2
                l(6) =   2
     Q(r) pseudized with  6 coefficients,  rinner =    1.200   1.200   1.200
                                                       1.200   1.200

     PseudoPot. # 2 for S  read from file:
     /u/if/mamunm/psp/gbrv1.5pbe/S.UPF
     MD5 check sum: 88d86576ff6df21479756cfb9bdac1df
     Pseudo is Ultrasoft + core correction, Zval =  6.0
     Generated by new atomic code, or converted to UPF format
     Using radial grid of  907 points,  6 beta functions with:
                l(1) =   0
                l(2) =   0
                l(3) =   1
                l(4) =   1
                l(5) =   2
                l(6) =   2
     Q(r) pseudized with  8 coefficients,  rinner =    1.300   1.300   1.300
                                                       1.300   1.300

     vdW kernel table read from file vdW_kernel_table
     MD5 check sum: 095c7af220d748ca6e76c0b4c6cfb241

     atomic species   valence    mass     pseudopotential
        Sc1           11.00    44.95591     Sc( 1.00)
        S1             6.00    32.06000     S ( 1.00)

     No symmetry found

   Cartesian axes

     site n.     atom                  positions (alat units)
         1           Sc1 tau(   1) = (   1.6093662   0.9291680  10.0000000  )
         2           Sc1 tau(   2) = (   4.8280986   0.9291680  10.0000000  )
         3           Sc1 tau(   3) = (   3.2187324   3.7166720  10.0000000  )
         4           Sc1 tau(   4) = (   6.4374648   3.7166720  10.0000000  )
         5           Sc1 tau(   5) = (   6.4374648   1.8583360  12.6280840  )
         6           Sc1 tau(   6) = (   3.2187324   1.8583360  12.6280840  )
         7           Sc1 tau(   7) = (   8.0468310   4.6458400  12.6280840  )
         8           Sc1 tau(   8) = (   4.8280986   4.6458400  12.6280840  )
         9           Sc1 tau(   9) = (   0.0000000   0.0000000  15.2561680  )
        10           Sc1 tau(  10) = (   3.2187324   0.0000000  15.2561680  )
        11           Sc1 tau(  11) = (   1.6093662   2.7875040  15.2561680  )
        12           Sc1 tau(  12) = (   4.8280986   2.7875040  15.2561680  )
        13           S1  tau(  13) = (   0.0000000   0.0000000  17.5936680  )

     number of k points=    20  Fermi-Dirac smearing, width (Ry)=  0.0110
                       cart. coord. in units 2pi/alat
        k(    1) = (   0.0000000   0.0000000   0.0000000), wk =   0.0555556
        k(    2) = (   0.0000000   0.0298953   0.0000000), wk =   0.1111111
        k(    3) = (   0.0000000   0.0597906   0.0000000), wk =   0.1111111
        k(    4) = (   0.0000000  -0.0896860   0.0000000), wk =   0.0555556
        k(    5) = (   0.0258901  -0.0149477   0.0000000), wk =   0.1111111
        k(    6) = (   0.0258901   0.0149477   0.0000000), wk =   0.1111111
        k(    7) = (   0.0258901   0.0448430   0.0000000), wk =   0.1111111
        k(    8) = (   0.0258901  -0.1046336   0.0000000), wk =   0.1111111
        k(    9) = (   0.0258901  -0.0747383   0.0000000), wk =   0.1111111
        k(   10) = (   0.0258901  -0.0448430   0.0000000), wk =   0.1111111
        k(   11) = (   0.0517802  -0.0298953   0.0000000), wk =   0.1111111
        k(   12) = (   0.0517802   0.0000000   0.0000000), wk =   0.1111111
        k(   13) = (   0.0517802   0.0298953   0.0000000), wk =   0.1111111
        k(   14) = (   0.0517802  -0.1195813   0.0000000), wk =   0.1111111
        k(   15) = (   0.0517802  -0.0896860   0.0000000), wk =   0.1111111
        k(   16) = (   0.0517802  -0.0597906   0.0000000), wk =   0.1111111
        k(   17) = (  -0.0776703   0.0448430   0.0000000), wk =   0.0555556
        k(   18) = (  -0.0776703   0.0747383   0.0000000), wk =   0.1111111
        k(   19) = (  -0.0776703   0.1046336   0.0000000), wk =   0.1111111
        k(   20) = (  -0.0776703  -0.0448430   0.0000000), wk =   0.0555556

     Largest allocated arrays     est. size (Mb)     dimensions
     Largest temporary arrays     est. size (Mb)     dimensions

     Initial potential from superposition of free atoms
     Check: negative starting charge=   -0.000241

     starting charge  137.97114, renormalised to  138.00000

     negative rho (up, down):  2.409E-04 0.000E+00

     *
     * You are using vdW-DF for exchange-correlation in this calculation.
     * Please cite the following three references that made this development
     * possible:
     *
     *   M. Dion, H. Rydberg, E. Schroder, D. C. Langreth, and
     *   B. I. Lundqvist, Phys. Rev. Lett. 92, 246401 (2004).
     *
     *   T. Thonhauser, V. R. Cooper, S. Li, A. Puzder, P. Hyldgaard, and
     *   D. C. Langreth, Phys. Rev. B 76, 125112 (2007).
     *
     *   G. Roman-Perez and J. M. Soler, Phys. Rev. Lett. 103, 096102 (2009).
     *
     *
     * If you are using vdW-DF2, please also cite:
     *
     *   K. Lee, E. D. Murray, L. Kong, B. I. Lundqvist, and
     *   D. C. Langreth, Phys. Rev. B 82, 081101(R) (2010).
     *
     *
     * If you are calculating the stress with vdW-DF, please also cite:
     *
     *   R. Sabatini, E. Kucukbenli, B. Kolb, T. Thonhauser, and
     *   S. de Gironcoli, J. Phys.: Condens. Matter 24, 424209 (2012).
     *

     Carrying out vdW-DF run using the following parameters:

     Nqs =      20    Nr_points =    1024   r_max =   100.000
     q_mesh =
               0.00001000     0.04494208     0.09755937     0.15916263
               0.23128650     0.31572767     0.41458969     0.53033537
               0.66584808     0.82450364     1.01025438     1.22772762
               1.48234092     1.78043706     2.12944203     2.53805004
               3.01644009     3.57652955     4.23227104     5.00000000

     Gradients computed in reciprocal space

     Adding external electric field

     Computed dipole along edir(3) :
        Dipole               -0.0114 Ry au,         -0.0291 Debye
        Dipole field         -0.0000 Ry au

        Potential amp.        0.0022 Ry
        Total length         46.5341 bohr

     Starting wfc are  160 randomized atomic wfcs

     Self-consistent Calculation

     iteration #  1     ecut=    36.75 Ry     beta=0.30
     Davidson diagonalization with overlap
     ethr =  1.00E-02,  avg # of iterations =  2.0

[...]

     total energy              =   -1159.79860629 Ry
     Harris-Foulkes estimate   =   -1162.61167472 Ry
     estimated scf accuracy    <       5.97816524 Ry

[...]

     End of self-consistent calculation

          k = 0.0000 0.0000 0.0000 ( 23031 PWs)   bands (ev):

   -49.9683 -49.9338 -49.9336 -49.8775 -49.8340 -49.8320 -49.8281 -49.4335
   -49.3899 -49.3886 -49.3861 -49.1618 -28.6846 -28.6422 -28.6406 -28.6404
   -28.6044 -28.6042 -28.5888 -28.5881 -28.5871 -28.5553 -28.5016 -28.4997
   -28.4954 -28.4316 -28.3427 -28.3426 -28.3328 -28.3294 -28.3285 -28.2516
   -28.2516 -28.1798 -28.1533 -28.1526 -28.0098 -27.9780 -27.9778 -27.9767
   -27.9212 -27.9204 -27.9118 -27.8402 -27.8400 -27.7985 -27.7985 -27.6804
   -11.1109  -4.6610  -3.5652  -2.2727  -1.8069  -1.7288  -1.7288  -1.3819
    -1.3803  -1.3802  -1.2751  -1.2751  -1.2292  -1.0094  -1.0093  -0.8736
    -0.4845  -0.4844  -0.4689  -0.2286  -0.1150  -0.1148   0.1643   0.5623
     0.6801   0.6968   0.6970   0.7481   1.0659   1.1220   1.1221

[...]

          k =-0.0777 0.0448 0.0000 ( 23032 PWs)   bands (ev):

[...]

     the Fermi energy is     0.0735 ev

!    total energy              =   -1162.17783286 Ry
     Harris-Foulkes estimate   =   -1162.17785069 Ry
     estimated scf accuracy    <       0.00000524 Ry

     The total energy is the sum of the following terms:

     one-electron contribution =   -7270.07815734 Ry
     hartree contribution      =    3617.69126513 Ry
     xc contribution           =    -175.15886460 Ry
     ewald contribution        =    2665.49449318 Ry
     electric field correction =       0.00082730 Ry
     smearing contrib. (-TS)   =      -0.12739654 Ry

     convergence has been achieved in  18 iterations

 BEEF-vdW xc energy contributions
           1 :   -148.413705492292
           2 :    130.477751455650
           3 :   -102.489176805011
           4 :    75.1608661733718
           5 :   -56.0283830715344
           6 :    46.5066676934811
           7 :   -43.1596560055345
           8 :    41.3633501742828
           9 :   -38.4413644475062
          10 :    34.4690843899592
          11 :   -30.9556891377118
          12 :    28.9533047374278
          13 :   -28.1384102225009
          14 :    27.3331005299873
          15 :   -25.7165989004714
          16 :    23.5340350862021
          17 :   -21.7316464141900
          18 :    20.9841689637665
          19 :   -21.0686227703534
          20 :    21.1104506013750
          21 :   -20.3911466707306
          22 :    18.9468837628871
          23 :   -17.4590712950685
          24 :    16.6037703953538
          25 :   -16.4757512083627
          26 :    16.5748134999098
          27 :   -16.3059334753031
          28 :    15.5013892032597
          29 :   -14.5070932523680
          30 :    13.8086441924033
          31 :   -17.5430490343757
          32 :   -12.5290561089926

     Forces acting on atoms (Ry/au):

     negative rho (up, down):  1.029E-04 0.000E+00
     atom    1 type  1   force =    -0.00041436   -0.00033211    0.00185786
     atom    2 type  1   force =     0.00041413   -0.00024844    0.00195795
     atom    3 type  1   force =     0.00007231    0.00053175    0.00190680
     atom    4 type  1   force =    -0.00007135    0.00005148    0.00250217
     atom    5 type  1   force =     0.00013162    0.00655643    0.00036452
     atom    6 type  1   force =    -0.00013425   -0.00001421    0.00819740
     atom    7 type  1   force =    -0.00569437   -0.00334392    0.00042985
     atom    8 type  1   force =     0.00569625   -0.00319655    0.00030523
     atom    9 type  1   force =     0.00008858   -0.00006618   -0.00324476
     atom   10 type  1   force =    -0.00008503   -0.00122162    0.00842904
     atom   11 type  1   force =    -0.00100605    0.00059488    0.00849945
     atom   12 type  1   force =     0.00100230    0.00068827    0.00845729
     atom   13 type  2   force =     0.00000021    0.00000023   -0.03966281

     Total force =     0.042460     Total SCF correction =     0.002143

     entering subroutine stress ...

     negative rho (up, down):  1.029E-04 0.000E+00
          total   stress  (Ry/bohr**3)                   (kbar)     P=   -0.47
   0.00002059  -0.00000000   0.00000000          3.03     -0.00      0.00
  -0.00000000   0.00002059  -0.00000000         -0.00      3.03     -0.00
   0.00000000  -0.00000000  -0.00005075          0.00     -0.00     -7.47

     BFGS Geometry Optimization

     number of scf cycles    =   1
     number of bfgs steps    =   0

     energy   new            =   -1162.1778328637 Ry

     new trust radius        =       0.0396628101 bohr
     new conv_thr            =       0.0000099958 Ry

ATOMIC_POSITIONS (crystal)
Sc1      0.166666667   0.166666667   0.395942884    0   0   0
Sc1      0.666666667   0.166666667   0.395942884    0   0   0
Sc1      0.166666667   0.666666667   0.395942884    0   0   0
Sc1      0.666666667   0.666666667   0.395942884    0   0   0
Sc1      0.833333333   0.333333333   0.500000000    0   0   0
Sc1      0.333333333   0.333333333   0.500000000    0   0   0
Sc1      0.833333333   0.833333333   0.500000000    0   0   0
Sc1      0.333333333   0.833333333   0.500000000    0   0   0
Sc1      0.000010423  -0.000006282   0.603989130
Sc1      0.500050989  -0.000115956   0.604233724
Sc1     -0.000110933   0.500056466   0.604235199
Sc1      0.500049726   0.500065331   0.604234316
S1       0.000000006   0.000000021   0.695777734

     Writing output data file calc.save
     Check: negative starting charge=   -0.000241
     NEW-OLD atomic charge density approx. for the potential
     Check: negative starting charge=   -0.000241

[...]

     energy   old            =   -1162.1778328637 Ry
     energy   new            =   -1162.1794456891 Ry

     CASE: energy  _new < energy  _old

     WARNING: bfgs curvature condition failed, Theta= 0.998
     new trust radius        =       0.0594942151 bohr
     new conv_thr            =       0.0000001000 Ry

[...]

     Total force =     0.006843     Total SCF correction =     0.000230

[...]

     number of scf cycles    =   8
     number of bfgs steps    =   7

     energy   old            =   -1162.1920067039 Ry
     energy   new            =   -1162.1925757491 Ry

     CASE: energy  _new < energy  _old

     new trust radius        =       0.0229044153 bohr
     new conv_thr            =       0.0000001000 Ry

ATOMIC_POSITIONS (crystal)
Sc1      0.166666667   0.166666667   0.395942884    0   0   0
Sc1      0.666666667   0.166666667   0.395942884    0   0   0
Sc1      0.166666667   0.666666667   0.395942884    0   0   0
Sc1      0.666666667   0.666666667   0.395942884    0   0   0
Sc1      0.833333333   0.333333333   0.500000000    0   0   0
Sc1      0.333333333   0.333333333   0.500000000    0   0   0
Sc1      0.833333333   0.833333333   0.500000000    0   0   0
Sc1      0.333333333   0.833333333   0.500000000    0   0   0
Sc1      0.000042658  -0.000026479   0.594121633
Sc1      0.501188811  -0.002442101   0.607780346
Sc1     -0.002421607   0.501216622   0.607793625
Sc1      0.501182429   0.501255044   0.607784851
S1       0.000012840  -0.000007530   0.684618241

     Writing output data file calc.save
     Check: negative starting charge=   -0.000244
     NEW-OLD atomic charge density approx. for the potential
     Check: negative starting charge=   -0.000243

[...]

     Self-consistent Calculation

[...]

     total energy              =   -1162.19264060 Ry
     Harris-Foulkes estimate   =   -1162.19264067 Ry
     estimated scf accuracy    <       0.00000029 Ry

     iteration # 10     ecut=    36.75 Ry     beta=0.30
     Davidson diagonalization with overlap
     ethr =  2.08E-10,  avg # of iterations =  6.0

[...]

     negative rho (up, down):  1.059E-04 0.000E+00

     Adding external electric field

     Computed dipole along edir(3) :
        Dipole               -0.4004 Ry au,         -1.0178 Debye
        Dipole field         -0.0008 Ry au

        Potential amp.        0.0766 Ry
        Total length         46.5341 bohr

     End of self-consistent calculation

[...]

          k = 0.0518-0.0598 0.0000 ( 23012 PWs)   bands (ev):

[...]

          k =-0.0777-0.0448 0.0000 ( 23032 PWs)   bands (ev):

   -49.8010 -49.7894 -49.7782 -49.6209 -49.6165 -49.5967 -49.5935 -49.2404
   -49.1608 -49.1475 -49.1369 -48.8452 -28.5008 -28.4867 -28.4733 -28.4352
   -28.3819 -28.3428 -28.3415 -28.2936 -28.2935 -28.2905 -28.2869 -28.2789
   -28.2612 -28.2591 -28.1895 -28.1870 -28.1771 -28.1609 -28.1605 -28.0585
   -28.0518 -27.8960 -27.8886 -27.8245 -27.8217 -27.7925 -27.7611 -27.7529
   -27.7478 -27.7295 -27.7229 -27.6615 -27.6371 -27.4789 -27.4644 -27.4300
   -11.3497  -3.1740  -3.1537  -2.5549  -2.2946  -2.1378  -1.7566  -1.6712
    -1.1935  -1.1576  -0.8302  -0.6985  -0.6417  -0.5994   0.0569   0.0721
     0.0821   0.1110   0.1913   0.2075   0.3378   0.3892   0.3905   0.4477
     0.4601   0.6082   0.6490   0.7704   0.8159   0.8358   0.8580

     the Fermi energy is     0.3095 ev

!    total energy              =   -1162.19264060 Ry
     Harris-Foulkes estimate   =   -1162.19264109 Ry
     estimated scf accuracy    <       0.00000006 Ry

     The total energy is the sum of the following terms:

     one-electron contribution =   -7312.83521235 Ry
     hartree contribution      =    3639.93368689 Ry
     xc contribution           =    -175.21060128 Ry
     ewald contribution        =    2686.04769793 Ry
     electric field correction =       0.00032940 Ry
     smearing contrib. (-TS)   =      -0.12854119 Ry

     convergence has been achieved in  10 iterations

 BEEF-vdW xc energy contributions
           1 :   -148.463836674914
           2 :    130.544879293444
           3 :   -102.571017960734
           4 :    75.2404583703165
           5 :   -56.0856917007221
           6 :    46.5286891417685
           7 :   -43.1492014024911
           8 :    41.3374461043361
           9 :   -38.4188661552490
          10 :    34.4585476295996
          11 :   -30.9518252556562
          12 :    28.9418726884921
          13 :   -28.1056391240150
          14 :    27.2744717489880
          15 :   -25.6379714803058
          16 :    23.4439950901951
          17 :   -21.6335998639663
          18 :    20.8771575347755
          19 :   -20.9551103643168
          20 :    21.0000100164821
          21 :   -20.2946934926056
          22 :    18.8681479709051
          23 :   -17.3914539285450
          24 :    16.5345072881800
          25 :   -16.3946091395942
          26 :    16.4815867541877
          27 :   -16.2100673429001
          28 :    15.4128059122977
          29 :   -14.4270493715964
          30 :    13.7305571765120
          31 :   -17.5471874031982
          32 :   -12.5374084098833

     Forces acting on atoms (Ry/au):

     negative rho (up, down):  1.059E-04 0.000E+00
     atom    1 type  1   force =     0.00090659    0.00052346    0.00195588
     atom    2 type  1   force =    -0.00090685    0.00052493    0.00195813
     atom    3 type  1   force =     0.00000128   -0.00104756    0.00195599
     atom    4 type  1   force =    -0.00000106   -0.00000063    0.00401653
     atom    5 type  1   force =     0.00000152    0.01417145   -0.00721991
     atom    6 type  1   force =    -0.00000412    0.00000261    0.01779085
     atom    7 type  1   force =    -0.01227247   -0.00708711   -0.00722435
     atom    8 type  1   force =     0.01227536   -0.00708731   -0.00723842
     atom    9 type  1   force =    -0.00005501    0.00004362   -0.00083601
     atom   10 type  1   force =     0.00004248   -0.00007756   -0.00156957
     atom   11 type  1   force =    -0.00009974    0.00004731   -0.00158754
     atom   12 type  1   force =     0.00009730   -0.00000192   -0.00157615
     atom   13 type  2   force =     0.00001470   -0.00001127   -0.00042542

     Total force =     0.002895     Total SCF correction =     0.000577
     SCF correction compared to forces is large: reduce conv_thr to get better values

     entering subroutine stress ...

     negative rho (up, down):  1.059E-04 0.000E+00
          total   stress  (Ry/bohr**3)                   (kbar)     P=   -0.02
   0.00000807  -0.00000001   0.00000001          1.19     -0.00      0.00
  -0.00000001   0.00000806  -0.00000001         -0.00      1.19     -0.00
   0.00000001  -0.00000001  -0.00001651          0.00     -0.00     -2.43

     bfgs converged in   9 scf cycles and   8 bfgs steps
     (criteria: energy <  1.0E+00, force <  1.9E-03)

     End of BFGS Geometry Optimization

     Final energy   =   -1162.1926406007 Ry
Begin final coordinates

ATOMIC_POSITIONS (crystal)
Sc1      0.166666667   0.166666667   0.395942884    0   0   0
Sc1      0.666666667   0.166666667   0.395942884    0   0   0
Sc1      0.166666667   0.666666667   0.395942884    0   0   0
Sc1      0.666666667   0.666666667   0.395942884    0   0   0
Sc1      0.833333333   0.333333333   0.500000000    0   0   0
Sc1      0.333333333   0.333333333   0.500000000    0   0   0
Sc1      0.833333333   0.833333333   0.500000000    0   0   0
Sc1      0.333333333   0.833333333   0.500000000    0   0   0
Sc1      0.000042658  -0.000026479   0.594121633
Sc1      0.501188811  -0.002442101   0.607780346
Sc1     -0.002421607   0.501216622   0.607793625
Sc1      0.501182429   0.501255044   0.607784851
S1       0.000012840  -0.000007530   0.684618241
End final coordinates

     Writing output data file calc.save

     General routines

     Parallel routines

   This run was terminated on:  17:14:30   2May2018

   JOB DONE.
Job  /afs/slac/g/suncat/bin/suncat-tsmpirun -x LD_LIBRARY_PATH -wdir /scratch/qe782459_TFMGo pw.x -npool 4 -in pw.inp

TID   HOST_NAME   COMMAND_LINE            STATUS            TERMINATION_TIME
00000 suncat0050 pw.x -npool 4 -i  Done                     05/02/2018 17:14:30
00001 suncat0050 pw.x -npool 4 -i  Done                     05/02/2018 17:14:30
00002 suncat0050 pw.x -npool 4 -i  Done                     05/02/2018 17:14:30
00003 suncat0050 pw.x -npool 4 -i  Done                     05/02/2018 17:14:30
00004 suncat0050 pw.x -npool 4 -i  Done                     05/02/2018 17:14:30
00005 suncat0050 pw.x -npool 4 -i  Done                     05/02/2018 17:14:30
00006 suncat0050 pw.x -npool 4 -i  Done                     05/02/2018 17:14:30
00007 suncat0050 pw.x -npool 4 -i  Done                     05/02/2018 17:14:30
00008 suncat0178 pw.x -npool 4 -i  Done                     05/02/2018 17:14:30
00009 suncat0178 pw.x -npool 4 -i  Done                     05/02/2018 17:14:30
00010 suncat0178 pw.x -npool 4 -i  Done                     05/02/2018 17:14:30
00011 suncat0178 pw.x -npool 4 -i  Done                     05/02/2018 17:14:30
00012 suncat0178 pw.x -npool 4 -i  Done                     05/02/2018 17:14:30
00013 suncat0178 pw.x -npool 4 -i  Done                     05/02/2018 17:14:30
00014 suncat0178 pw.x -npool 4 -i  Done                     05/02/2018 17:14:30
00015 suncat0178 pw.x -npool 4 -i  Done                     05/02/2018 17:14:30
00016 suncat0172 pw.x -npool 4 -i  Done                     05/02/2018 17:14:30
00017 suncat0172 pw.x -npool 4 -i  Done                     05/02/2018 17:14:30
00018 suncat0172 pw.x -npool 4 -i  Done                     05/02/2018 17:14:30
00019 suncat0172 pw.x -npool 4 -i  Done                     05/02/2018 17:14:30
00020 suncat0172 pw.x -npool 4 -i  Done                     05/02/2018 17:14:30
00021 suncat0172 pw.x -npool 4 -i  Done                     05/02/2018 17:14:30
00022 suncat0172 pw.x -npool 4 -i  Done                     05/02/2018 17:14:30
00023 suncat0172 pw.x -npool 4 -i  Done                     05/02/2018 17:14:30
00024 suncat0150 pw.x -npool 4 -i  Done                     05/02/2018 17:14:30
00025 suncat0150 pw.x -npool 4 -i  Done                     05/02/2018 17:14:30
00026 suncat0150 pw.x -npool 4 -i  Done                     05/02/2018 17:14:30
00027 suncat0150 pw.x -npool 4 -i  Done                     05/02/2018 17:14:30
00028 suncat0150 pw.x -npool 4 -i  Done                     05/02/2018 17:14:30
00029 suncat0150 pw.x -npool 4 -i  Done                     05/02/2018 17:14:30
00030 suncat0150 pw.x -npool 4 -i  Done                     05/02/2018 17:14:30
00031 suncat0150 pw.x -npool 4 -i  Done                     05/02/2018 17:14:30