     Program PWSCF v.5.1rc2 (svn rev. 11289) starts on  2May2018 at 17:27:51

     Current dimensions of program PWSCF are:
     Max number of different atomic species (ntypx) = 10
     Max number of k-points (npk) =  40000
     Max angular momentum in pseudopotentials (lmaxx) =  3
     Presently stress not available with electric field

     IMPORTANT: XC functional enforced from input :
     Exchange-correlation      = BEEF-VDW ( 1  4 27 13 2)
     Any further DFT definition will be discarded
     Please, verify this is what you really want

     Subspace diagonalization in iterative solution of the eigenvalue problem:
     a serial algorithm will be used

     bravais-lattice index     =            0
     lattice parameter (alat)  =       1.8897  a.u.
     unit-cell volume          =    4158.3597 (a.u.)^3
     number of atoms/cell      =           13
     number of atomic types    =            2
     number of electrons       =       160.00
     number of Kohn-Sham states=           90
     kinetic-energy cutoff     =      36.7493  Ry
     charge density cutoff     =     367.4932  Ry
     convergence threshold     =      1.0E-05
     mixing beta               =       0.3000
     number of iterations used =           10  plain     mixing
     Exchange-correlation      = BEEF-VDW ( 1  4 27 13 2)
     nstep                     =           50

     celldm(1)=   1.889726  celldm(2)=   0.000000  celldm(3)=   0.000000
     celldm(4)=   0.000000  celldm(5)=   0.000000  celldm(6)=   0.000000

     crystal axes: (cart. coord. in units of alat)
               a(1) = (   5.399178   0.000000   0.000000 )
               a(2) = (   2.699589   4.675825   0.000000 )
               a(3) = (   0.000000   0.000000  24.408411 )

     reciprocal axes: (cart. coord. in units 2 pi/alat)
               b(1) = (  0.185213 -0.106933  0.000000 )
               b(2) = (  0.000000  0.213866  0.000000 )
               b(3) = (  0.000000  0.000000  0.040969 )

     PseudoPot. # 1 for V  read from file:
     /u/if/mamunm/psp/gbrv1.5pbe/V.UPF
     MD5 check sum: 22b79981416ebb76fdaf5b1b8640f6fb
     Pseudo is Ultrasoft + core correction, Zval = 13.0
     Generated by new atomic code, or converted to UPF format
     Using radial grid of  853 points,  6 beta functions with:
                l(1) =   0
                l(2) =   0
                l(3) =   1
                l(4) =   1
                l(5) =   2
                l(6) =   2
     Q(r) pseudized with  8 coefficients,  rinner =    1.100   1.100   1.100
                                                       1.100   1.100

     PseudoPot. # 2 for C  read from file:
     /u/if/mamunm/psp/gbrv1.5pbe/C.UPF
     MD5 check sum: d1aef80898a10debaa0f26306b886e00
     Pseudo is Ultrasoft + core correction, Zval =  4.0
     Generated by new atomic code, or converted to UPF format
     Using radial grid of  721 points,  4 beta functions with:
                l(1) =   0
                l(2) =   0
                l(3) =   1
                l(4) =   1
     Q(r) pseudized with  8 coefficients,  rinner =    1.100   1.100   1.100

     vdW kernel table read from file vdW_kernel_table
     MD5 check sum: 095c7af220d748ca6e76c0b4c6cfb241

     atomic species   valence    mass     pseudopotential
        V1            13.00    50.94150     V ( 1.00)
        C1             4.00    12.01100     C ( 1.00)

     No symmetry found

   Cartesian axes

     site n.     atom                  positions (alat units)
         1           V1  tau(   1) = (   1.3497945   0.7793042  10.0000000  )
         2           V1  tau(   2) = (   4.0493836   0.7793042  10.0000000  )
         3           V1  tau(   3) = (   2.6995891   3.1172170  10.0000000  )
         4           V1  tau(   4) = (   5.3991782   3.1172170  10.0000000  )
         5           V1  tau(   5) = (   5.3991782   1.5586085  12.2042053  )
         6           V1  tau(   6) = (   2.6995891   1.5586085  12.2042053  )
         7           V1  tau(   7) = (   6.7489727   3.8965212  12.2042053  )
         8           V1  tau(   8) = (   4.0493836   3.8965212  12.2042053  )
         9           V1  tau(   9) = (   0.0000000   0.0000000  14.4084105  )
        10           V1  tau(  10) = (   2.6995891   0.0000000  14.4084105  )
        11           V1  tau(  11) = (   1.3497945   2.3379127  14.4084105  )
        12           V1  tau(  12) = (   4.0493836   2.3379127  14.4084105  )
        13           C1  tau(  13) = (   1.3497945   0.7793042  15.8969105  )

     number of k points=    20  Fermi-Dirac smearing, width (Ry)=  0.0110
                       cart. coord. in units 2pi/alat
        k(    1) = (   0.0000000   0.0000000   0.0000000), wk =   0.0555556
        k(    2) = (   0.0000000   0.0356443   0.0000000), wk =   0.1111111
        k(    3) = (   0.0000000   0.0712887   0.0000000), wk =   0.1111111
        k(    4) = (   0.0000000  -0.1069330   0.0000000), wk =   0.0555556
        k(    5) = (   0.0308689  -0.0178222   0.0000000), wk =   0.1111111
        k(    6) = (   0.0308689   0.0178222   0.0000000), wk =   0.1111111
        k(    7) = (   0.0308689   0.0534665   0.0000000), wk =   0.1111111
        k(    8) = (   0.0308689  -0.1247552   0.0000000), wk =   0.1111111
        k(    9) = (   0.0308689  -0.0891108   0.0000000), wk =   0.1111111
        k(   10) = (   0.0308689  -0.0534665   0.0000000), wk =   0.1111111
        k(   11) = (   0.0617378  -0.0356443   0.0000000), wk =   0.1111111
        k(   12) = (   0.0617378   0.0000000   0.0000000), wk =   0.1111111
        k(   13) = (   0.0617378   0.0356443   0.0000000), wk =   0.1111111
        k(   14) = (   0.0617378  -0.1425773   0.0000000), wk =   0.1111111
        k(   15) = (   0.0617378  -0.1069330   0.0000000), wk =   0.1111111
        k(   16) = (   0.0617378  -0.0712887   0.0000000), wk =   0.1111111
        k(   17) = (  -0.0926067   0.0534665   0.0000000), wk =   0.0555556
        k(   18) = (  -0.0926067   0.0891108   0.0000000), wk =   0.1111111
        k(   19) = (  -0.0926067   0.1247552   0.0000000), wk =   0.1111111
        k(   20) = (  -0.0926067  -0.0534665   0.0000000), wk =   0.0555556

     Largest allocated arrays     est. size (Mb)     dimensions
     Largest temporary arrays     est. size (Mb)     dimensions

     Check: negative/imaginary core charge=   -0.000001    0.000000

     Initial potential from superposition of free atoms
     Check: negative starting charge=   -0.011644

     starting charge  159.98523, renormalised to  160.00000

     negative rho (up, down):  1.165E-02 0.000E+00

     *
     * You are using vdW-DF for exchange-correlation in this calculation.
     * Please cite the following three references that made this development
     * possible:
     *
     *   M. Dion, H. Rydberg, E. Schroder, D. C. Langreth, and
     *   B. I. Lundqvist, Phys. Rev. Lett. 92, 246401 (2004).
     *
     *   T. Thonhauser, V. R. Cooper, S. Li, A. Puzder, P. Hyldgaard, and
     *   D. C. Langreth, Phys. Rev. B 76, 125112 (2007).
     *
     *   G. Roman-Perez and J. M. Soler, Phys. Rev. Lett. 103, 096102 (2009).
     *
     *
     * If you are using vdW-DF2, please also cite:
     *
     *   K. Lee, E. D. Murray, L. Kong, B. I. Lundqvist, and
     *   D. C. Langreth, Phys. Rev. B 82, 081101(R) (2010).
     *
     *
     * If you are calculating the stress with vdW-DF, please also cite:
     *
     *   R. Sabatini, E. Kucukbenli, B. Kolb, T. Thonhauser, and
     *   S. de Gironcoli, J. Phys.: Condens. Matter 24, 424209 (2012).
     *

     Carrying out vdW-DF run using the following parameters:

     Nqs =      20    Nr_points =    1024   r_max =   100.000
     q_mesh =
               0.00001000     0.04494208     0.09755937     0.15916263
               0.23128650     0.31572767     0.41458969     0.53033537
               0.66584808     0.82450364     1.01025438     1.22772762
               1.48234092     1.78043706     2.12944203     2.53805004
               3.01644009     3.57652955     4.23227104     5.00000000

     Gradients computed in reciprocal space

     Adding external electric field

     Computed dipole along edir(3) :
        Dipole               -0.0023 Ry au,         -0.0058 Debye
        Dipole field         -0.0000 Ry au

        Potential amp.        0.0006 Ry
        Total length         44.9721 bohr

     Starting wfc are  124 randomized atomic wfcs

     Self-consistent Calculation

     iteration #  1     ecut=    36.75 Ry     beta=0.30
     Davidson diagonalization with overlap
     ethr =  1.00E-02,  avg # of iterations =  2.2

[...]

     total energy              =   -1755.06190461 Ry
     Harris-Foulkes estimate   =   -1760.95380192 Ry
     estimated scf accuracy    <      12.16120888 Ry

[...]

     iteration # 14     ecut=    36.75 Ry     beta=0.30
     Davidson diagonalization with overlap
     c_bands:  2 eigenvalues not converged
     ethr =  1.83E-05,  avg # of iterations =  7.4

[...]

     End of self-consistent calculation

          k = 0.0000 0.0000 0.0000 ( 15569 PWs)   bands (ev):

   -63.6838 -63.6236 -63.5612 -63.5382 -63.5215 -63.5205 -63.4891 -63.4871
   -63.4865 -63.4718 -63.4717 -63.4604 -37.7639 -37.7449 -37.7444 -37.7203
   -37.6981 -37.6978 -37.6632 -37.6316 -37.6315 -37.6162 -37.4979 -37.4060
   -37.3528 -37.3522 -37.3390 -37.3359 -37.3348 -37.2544 -37.2540 -37.2506
   -37.1976 -37.1967 -37.1954 -37.1823 -37.1822 -37.1696 -37.1344 -37.1180
   -37.1178 -37.1156 -37.0822 -37.0820 -37.0310 -37.0305 -36.9967 -36.9967
    -8.3532  -5.3163  -3.6420  -2.6820  -2.4655  -2.4652  -2.4021  -2.2318
    -2.2317  -2.1654  -1.8014  -1.7921  -1.7919  -1.6521  -1.6520  -1.6434
    -0.9677  -0.9676  -0.8525  -0.1482  -0.1481   0.0797   0.2640   0.3903
     0.3906   0.4381   0.6589   0.8002   0.8002   0.8857   0.8861   0.9184
     0.9670   0.9700   0.9701   1.0418   1.0596   1.0597   1.1984   1.1985
     1.7267   1.7270

[...]

          k =-0.0926 0.0535 0.0000 ( 15660 PWs)   bands (ev):

[...]

     the Fermi energy is     0.6326 ev

!    total energy              =   -1760.34923400 Ry
     Harris-Foulkes estimate   =   -1760.34922281 Ry
     estimated scf accuracy    <       0.00000921 Ry

     The total energy is the sum of the following terms:

     one-electron contribution =  -15211.47050377 Ry
     hartree contribution      =    7592.33640337 Ry
     xc contribution           =    -247.65883154 Ry
     ewald contribution        =    6106.58371234 Ry
     electric field correction =       0.00033462 Ry
     smearing contrib. (-TS)   =      -0.14034902 Ry

     convergence has been achieved in  28 iterations

 BEEF-vdW xc energy contributions
           1 :   -213.359816398429
           2 :    191.501752001763
           3 :   -155.407490449206
           4 :    116.436851395703
           5 :   -84.4776694606325
           6 :    64.2118522101454
           7 :   -54.4859314734782
           8 :    50.5221650530381
           9 :   -47.2975158344285
          10 :    42.1113448677018
          11 :   -35.2145306407739
          12 :    28.6387488973181
          13 :   -24.3163154711763
          14 :    22.7297497101429
          15 :   -22.7862688416421
          16 :    22.7472352696456
          17 :   -21.4391396963308
          18 :    18.9161549457283
          19 :   -16.2177680704890
          20 :    14.4969020456788
          21 :   -14.1838049317402
          22 :    14.7480137238226
          23 :   -15.1549772654323
          24 :    14.6240234752414
          25 :   -13.1359484829715
          26 :    11.3680839819087
          27 :   -10.1612465379501
          28 :    9.92690007782818
          29 :   -10.4039622815163
          30 :    10.8959802261870
          31 :   -22.1843618801205
          32 :   -16.0200272711761

     Forces acting on atoms (Ry/au):

     negative rho (up, down):  1.554E-02 0.000E+00
     atom    1 type  1   force =    -0.00000092   -0.00001267   -0.00095162
     atom    2 type  1   force =    -0.00000435    0.00138231   -0.00037017
     atom    3 type  1   force =     0.00119494   -0.00068070   -0.00037817
     atom    4 type  1   force =    -0.00118885   -0.00067152   -0.00038824
     atom    5 type  1   force =     0.00049299   -0.00029194    0.00201697
     atom    6 type  1   force =    -0.00048577   -0.00029138    0.00204335
     atom    7 type  1   force =    -0.00001464    0.00000936   -0.00064751
     atom    8 type  1   force =    -0.00000148    0.00057073    0.00206379
     atom    9 type  1   force =     0.01858042    0.01071782    0.05675008
     atom   10 type  1   force =    -0.01859426    0.01072530    0.05682733
     atom   11 type  1   force =     0.00000028   -0.02148384    0.05674488
     atom   12 type  1   force =     0.00001177    0.00004393    0.00257726
     atom   13 type  2   force =     0.00000988   -0.00001740   -0.17628794

     Total force =     0.205272     Total SCF correction =     0.007870

     entering subroutine stress ...

     negative rho (up, down):  1.554E-02 0.000E+00
          total   stress  (Ry/bohr**3)                   (kbar)     P=  -24.48
  -0.00018273  -0.00000001   0.00000002        -26.88     -0.00      0.00
  -0.00000001  -0.00018274   0.00000001         -0.00    -26.88      0.00
   0.00000002   0.00000001  -0.00013372          0.00      0.00    -19.67

     BFGS Geometry Optimization

     number of scf cycles    =   1
     number of bfgs steps    =   0

     energy   new            =   -1760.3492339961 Ry

     new trust radius        =       0.1762879414 bohr
     new conv_thr            =       0.0000099958 Ry

ATOMIC_POSITIONS (crystal)
V1       0.166666667   0.166666667   0.409694847    0   0   0
V1       0.666666667   0.166666667   0.409694847    0   0   0
V1       0.166666667   0.666666667   0.409694847    0   0   0
V1       0.666666667   0.666666667   0.409694847    0   0   0
V1       0.833333333   0.333333333   0.500000000    0   0   0
V1       0.333333333   0.333333333   0.500000000    0   0   0
V1       0.833333333   0.833333333   0.500000000    0   0   0
V1       0.333333333   0.833333333   0.500000000    0   0   0
V1       0.001214596   0.001212968   0.591535502
V1       0.497570656   0.001213814   0.591537177
V1       0.001215723   0.497568609   0.591535389
V1       0.499998668   0.500004971   0.590361029
C1       0.166668619   0.166664698   0.647466288

     Writing output data file calc.save
     Check: negative starting charge=   -0.011644
     NEW-OLD atomic charge density approx. for the potential

     Check: negative/imaginary core charge=   -0.000001    0.000000
     Check: negative starting charge=   -0.011524

[...]

     energy   old            =   -1760.3492339961 Ry
     energy   new            =   -1760.3871850634 Ry

     CASE: energy  _new < energy  _old

[...]

     Total force =     0.011225     Total SCF correction =     0.000431

[...]

     number of scf cycles    =  10
     number of bfgs steps    =   9

     energy   old            =   -1760.4369446859 Ry
     energy   new            =   -1760.4376421573 Ry

     CASE: energy  _new < energy  _old

     new trust radius        =       0.0664830690 bohr
     new conv_thr            =       0.0000001000 Ry

ATOMIC_POSITIONS (crystal)
V1       0.166666667   0.166666667   0.409694847    0   0   0
V1       0.666666667   0.166666667   0.409694847    0   0   0
V1       0.166666667   0.666666667   0.409694847    0   0   0
V1       0.666666667   0.666666667   0.409694847    0   0   0
V1       0.833333333   0.333333333   0.500000000    0   0   0
V1       0.333333333   0.333333333   0.500000000    0   0   0
V1       0.833333333   0.833333333   0.500000000    0   0   0
V1       0.333333333   0.833333333   0.500000000    0   0   0
V1      -0.004638308  -0.004636544   0.592075610
V1       0.509276454  -0.004633176   0.592075795
V1      -0.004634098   0.509277293   0.592076025
V1       0.500000667   0.499998193   0.584213271
C1       0.166666358   0.166665733   0.633172294

     Writing output data file calc.save
     Check: negative starting charge=   -0.011031
     NEW-OLD atomic charge density approx. for the potential

     Check: negative/imaginary core charge=   -0.000001    0.000000
     Check: negative starting charge=   -0.009560

[...]

     Self-consistent Calculation

[...]

     total energy              =   -1760.43801903 Ry
     Harris-Foulkes estimate   =   -1760.43801894 Ry
     estimated scf accuracy    <       0.00000042 Ry

     iteration # 20     ecut=    36.75 Ry     beta=0.30
     Davidson diagonalization with overlap
     ethr =  2.65E-10,  avg # of iterations =  4.0

[...]

     negative rho (up, down):  1.444E-02 0.000E+00

     Adding external electric field

     Computed dipole along edir(3) :
        Dipole               -0.2001 Ry au,         -0.5087 Debye
        Dipole field         -0.0006 Ry au

        Potential amp.        0.0544 Ry
        Total length         44.9721 bohr

     End of self-consistent calculation

[...]

          k = 0.0617-0.0713 0.0000 ( 15642 PWs)   bands (ev):

[...]

          k =-0.0926-0.0535 0.0000 ( 15660 PWs)   bands (ev):

   -63.4521 -63.4258 -63.3919 -63.3688 -63.3650 -63.3513 -63.3459 -63.3266
   -63.3258 -63.3071 -63.2818 -63.2645 -37.5270 -37.4575 -37.4538 -37.4475
   -37.4429 -37.4171 -37.3671 -37.3530 -37.3457 -37.3176 -37.2849 -37.2804
   -37.2172 -37.1870 -37.1787 -37.1679 -37.1388 -37.1341 -37.1249 -37.1239
   -37.1164 -37.1097 -37.1062 -37.0841 -37.0699 -37.0681 -37.0232 -37.0027
   -36.9943 -36.9904 -36.9624 -36.9515 -36.9404 -36.9189 -36.9028 -36.8651
    -8.6475  -3.6869  -3.4880  -2.6541  -2.1521  -1.9061  -1.8650  -1.6734
    -1.5613  -1.5291  -1.4801  -1.3145  -1.0592  -0.8278  -0.8188  -0.7278
    -0.6781  -0.5834  -0.5120  -0.4379  -0.2268  -0.1365  -0.1063  -0.0326
    -0.0143   0.0234   0.1535   0.3149   0.3921   0.3926   0.4706   0.5185
     0.5864   0.6406   0.8213   0.9337   0.9673   1.0166   1.2963   1.4013
     1.4716   1.7308

     the Fermi energy is     0.7767 ev

!    total energy              =   -1760.43801901 Ry
     Harris-Foulkes estimate   =   -1760.43802000 Ry
     estimated scf accuracy    <       0.00000004 Ry

     The total energy is the sum of the following terms:

     one-electron contribution =  -15319.07795497 Ry
     hartree contribution      =    7647.05719676 Ry
     xc contribution           =    -247.99156012 Ry
     ewald contribution        =    6159.70844347 Ry
     electric field correction =       0.00012103 Ry
     smearing contrib. (-TS)   =      -0.13426519 Ry

     convergence has been achieved in  20 iterations

 BEEF-vdW xc energy contributions
           1 :   -213.693167455060
           2 :    191.909154100409
           3 :   -155.878064969333
           4 :    116.873729828285
           5 :   -84.7652170400246
           6 :    64.2856661445099
           7 :   -54.3632849668947
           8 :    50.2848565105018
           9 :   -47.0471520787831
          10 :    41.9238619934249
          11 :   -35.1111518751177
          12 :    28.5829166631787
          13 :   -24.2413486784370
          14 :    22.5855212449001
          15 :   -22.5753387833073
          16 :    22.5252617838700
          17 :   -21.2794231654036
          18 :    18.8627960969756
          19 :   -16.2593025137909
          20 :    14.5759207172226
          21 :   -14.2327499350963
          22 :    14.7265218237836
          23 :   -15.0677965149713
          24 :    14.5131567012461
          25 :   -13.0539196297299
          26 :    11.3477424845612
          27 :   -10.1995631240715
          28 :    9.99149047380544
          29 :   -10.4559152784543
          30 :    10.9120294318281
          31 :   -22.2060717764653
          32 :   -16.0540019389360

     Forces acting on atoms (Ry/au):

     negative rho (up, down):  1.444E-02 0.000E+00
     atom    1 type  1   force =    -0.00000206   -0.00000116    0.00027014
     atom    2 type  1   force =     0.00000171    0.00148320   -0.00034793
     atom    3 type  1   force =     0.00128571   -0.00073939   -0.00035012
     atom    4 type  1   force =    -0.00128658   -0.00074225   -0.00034918
     atom    5 type  1   force =     0.01202333   -0.00693921   -0.00106325
     atom    6 type  1   force =    -0.01202415   -0.00694052   -0.00106378
     atom    7 type  1   force =    -0.00000115   -0.00000234    0.00255813
     atom    8 type  1   force =    -0.00000033    0.01388149   -0.00106353
     atom    9 type  1   force =     0.00108183    0.00062217    0.00029879
     atom   10 type  1   force =    -0.00108375    0.00061354    0.00029786
     atom   11 type  1   force =    -0.00000835   -0.00124638    0.00029756
     atom   12 type  1   force =     0.00000755    0.00000650   -0.00122340
     atom   13 type  2   force =     0.00000625    0.00000436    0.00173871

     Total force =     0.003074     Total SCF correction =     0.000418
     SCF correction compared to forces is large: reduce conv_thr to get better values

     entering subroutine stress ...

     negative rho (up, down):  1.444E-02 0.000E+00
          total   stress  (Ry/bohr**3)                   (kbar)     P=   -9.60
  -0.00009623   0.00000000   0.00000000        -14.16      0.00      0.00
   0.00000000  -0.00009623   0.00000000          0.00    -14.16      0.00
   0.00000000   0.00000000  -0.00000337          0.00      0.00     -0.50

     bfgs converged in  11 scf cycles and  10 bfgs steps
     (criteria: energy <  1.0E+00, force <  1.9E-03)

     End of BFGS Geometry Optimization

     Final energy   =   -1760.4380190140 Ry
Begin final coordinates

ATOMIC_POSITIONS (crystal)
V1       0.166666667   0.166666667   0.409694847    0   0   0
V1       0.666666667   0.166666667   0.409694847    0   0   0
V1       0.166666667   0.666666667   0.409694847    0   0   0
V1       0.666666667   0.666666667   0.409694847    0   0   0
V1       0.833333333   0.333333333   0.500000000    0   0   0
V1       0.333333333   0.333333333   0.500000000    0   0   0
V1       0.833333333   0.833333333   0.500000000    0   0   0
V1       0.333333333   0.833333333   0.500000000    0   0   0
V1      -0.004638308  -0.004636544   0.592075610
V1       0.509276454  -0.004633176   0.592075795
V1      -0.004634098   0.509277293   0.592076025
V1       0.500000667   0.499998193   0.584213271
C1       0.166666358   0.166665733   0.633172294
End final coordinates

     Writing output data file calc.save

     General routines

     Parallel routines

   This run was terminated on:  18:55:42   2May2018

   JOB DONE.
Job  /afs/slac/g/suncat/bin/suncat-tsmpirun -x LD_LIBRARY_PATH -wdir /scratch/qe811250_Uu4fb pw.x -npool 4 -in pw.inp

TID   HOST_NAME   COMMAND_LINE            STATUS            TERMINATION_TIME
00000 suncat0170 pw.x -npool 4 -i  Done                     05/02/2018 18:55:42
00001 suncat0170 pw.x -npool 4 -i  Done                     05/02/2018 18:55:42
00002 suncat0170 pw.x -npool 4 -i  Done                     05/02/2018 18:55:42
00003 suncat0170 pw.x -npool 4 -i  Done                     05/02/2018 18:55:42
00004 suncat0170 pw.x -npool 4 -i  Done                     05/02/2018 18:55:42
00005 suncat0170 pw.x -npool 4 -i  Done                     05/02/2018 18:55:42
00006 suncat0170 pw.x -npool 4 -i  Done                     05/02/2018 18:55:42
00007 suncat0170 pw.x -npool 4 -i  Done                     05/02/2018 18:55:42
00008 suncat0155 pw.x -npool 4 -i  Done                     05/02/2018 18:55:42
00009 suncat0155 pw.x -npool 4 -i  Done                     05/02/2018 18:55:42
00010 suncat0155 pw.x -npool 4 -i  Done                     05/02/2018 18:55:42
00011 suncat0155 pw.x -npool 4 -i  Done                     05/02/2018 18:55:42
00012 suncat0155 pw.x -npool 4 -i  Done                     05/02/2018 18:55:42
00013 suncat0155 pw.x -npool 4 -i  Done                     05/02/2018 18:55:42
00014 suncat0155 pw.x -npool 4 -i  Done                     05/02/2018 18:55:42
00015 suncat0155 pw.x -npool 4 -i  Done                     05/02/2018 18:55:42
00016 suncat0246 pw.x -npool 4 -i  Done                     05/02/2018 18:55:42
00017 suncat0246 pw.x -npool 4 -i  Done                     05/02/2018 18:55:42
00018 suncat0246 pw.x -npool 4 -i  Done                     05/02/2018 18:55:42
00019 suncat0246 pw.x -npool 4 -i  Done                     05/02/2018 18:55:42
00020 suncat0246 pw.x -npool 4 -i  Done                     05/02/2018 18:55:42
00021 suncat0246 pw.x -npool 4 -i  Done                     05/02/2018 18:55:42
00022 suncat0246 pw.x -npool 4 -i  Done                     05/02/2018 18:55:42
00023 suncat0246 pw.x -npool 4 -i  Done                     05/02/2018 18:55:42
00024 suncat0217 pw.x -npool 4 -i  Done                     05/02/2018 18:55:42
00025 suncat0217 pw.x -npool 4 -i  Done                     05/02/2018 18:55:42
00026 suncat0217 pw.x -npool 4 -i  Done                     05/02/2018 18:55:42
00027 suncat0217 pw.x -npool 4 -i  Done                     05/02/2018 18:55:42
00028 suncat0217 pw.x -npool 4 -i  Done                     05/02/2018 18:55:42
00029 suncat0217 pw.x -npool 4 -i  Done                     05/02/2018 18:55:42
00030 suncat0217 pw.x -npool 4 -i  Done                     05/02/2018 18:55:42
00031 suncat0217 pw.x -npool 4 -i  Done                     05/02/2018 18:55:42