     Program PWSCF v.5.1rc2 (svn rev. 11289) starts on 23Apr2018 at  8:41:38

     Current dimensions of program PWSCF are:
     Max number of different atomic species (ntypx) = 10
     Max number of k-points (npk) =  40000
     Max angular momentum in pseudopotentials (lmaxx) =  3
     Presently stress not available with electric field

     IMPORTANT: XC functional enforced from input :
     Exchange-correlation      = BEEF-VDW ( 1  4 27 13 2)
     Any further DFT definition will be discarded
     Please, verify this is what you really want

     Subspace diagonalization in iterative solution of the eigenvalue problem:
     a serial algorithm will be used

     bravais-lattice index     =            0
     lattice parameter (alat)  =       1.8897  a.u.
     unit-cell volume          =    5185.0501 (a.u.)^3
     number of atoms/cell      =           14
     number of atomic types    =            3
     number of electrons       =       163.00
     number of Kohn-Sham states=           91
     kinetic-energy cutoff     =      36.7493  Ry
     charge density cutoff     =     367.4932  Ry
     convergence threshold     =      1.0E-05
     mixing beta               =       0.3000
     number of iterations used =           10  plain     mixing
     Exchange-correlation      = BEEF-VDW ( 1  4 27 13 2)
     nstep                     =           50

     celldm(1)=   1.889726  celldm(2)=   0.000000  celldm(3)=   0.000000
     celldm(4)=   0.000000  celldm(5)=   0.000000  celldm(6)=   0.000000

     crystal axes: (cart. coord. in units of alat)
               a(1) = (   5.972022   0.000000   0.000000 )
               a(2) = (   2.986011   5.171923   0.000000 )
               a(3) = (   0.000000   0.000000  24.876136 )

     reciprocal axes: (cart. coord. in units 2 pi/alat)
               b(1) = (  0.167447 -0.096676  0.000000 )
               b(2) = (  0.000000  0.193352  0.000000 )
               b(3) = (  0.000000  0.000000  0.040199 )

     PseudoPot. # 1 for Ta read from file:
     /u/if/mamunm/psp/gbrv1.5pbe/Ta.UPF
     MD5 check sum: f8bbe9446314a3b8ea5d9f3e3836c939
     Pseudo is Ultrasoft + core correction, Zval = 13.0
     Generated by new atomic code, or converted to UPF format
     Using radial grid of  921 points,  7 beta functions with:
                l(1) =   0
                l(2) =   0
                l(3) =   1
                l(4) =   1
                l(5) =   2
                l(6) =   2
                l(7) =   3
     Q(r) pseudized with  6 coefficients,  rinner =    1.300   1.300   1.300
                                                       1.300   1.300   1.300
                                                       1.300

     PseudoPot. # 2 for S  read from file:
     /u/if/mamunm/psp/gbrv1.5pbe/S.UPF
     MD5 check sum: 88d86576ff6df21479756cfb9bdac1df
     Pseudo is Ultrasoft + core correction, Zval =  6.0
     Generated by new atomic code, or converted to UPF format
     Using radial grid of  907 points,  6 beta functions with:
                l(1) =   0
                l(2) =   0
                l(3) =   1
                l(4) =   1
                l(5) =   2
                l(6) =   2
     Q(r) pseudized with  8 coefficients,  rinner =    1.300   1.300   1.300
                                                       1.300   1.300

     PseudoPot. # 3 for H  read from file:
     /u/if/mamunm/psp/gbrv1.5pbe/H.UPF
     MD5 check sum: 761ae9a214b05c3daf00ab9f6b793d6f
     Pseudo is Ultrasoft, Zval =  1.0
     Generated by new atomic code, or converted to UPF format
     Using radial grid of  615 points,  2 beta functions with:
                l(1) =   0
                l(2) =   0
     Q(r) pseudized with  8 coefficients,  rinner =    0.700

     vdW kernel table read from file vdW_kernel_table
     MD5 check sum: 095c7af220d748ca6e76c0b4c6cfb241

     atomic species   valence    mass     pseudopotential
        Ta1           13.00   180.94788     Ta( 1.00)
        S1             6.00    32.06000     S ( 1.00)
        H1             1.00     1.00800     H ( 1.00)

     No symmetry found

   Cartesian axes

     site n.     atom                  positions (alat units)
         1           Ta1 tau(   1) = (   1.4930055   0.8619871  10.0000000  )
         2           Ta1 tau(   2) = (   4.4790165   0.8619871  10.0000000  )
         3           Ta1 tau(   3) = (   2.9860110   3.4479485  10.0000000  )
         4           Ta1 tau(   4) = (   5.9720221   3.4479485  10.0000000  )
         5           Ta1 tau(   5) = (   5.9720221   1.7239743  12.4380678  )
         6           Ta1 tau(   6) = (   2.9860110   1.7239743  12.4380678  )
         7           Ta1 tau(   7) = (   7.4650276   4.3099357  12.4380678  )
         8           Ta1 tau(   8) = (   4.4790165   4.3099357  12.4380678  )
         9           Ta1 tau(   9) = (   0.0000000   0.0000000  14.8761356  )
        10           Ta1 tau(  10) = (   2.9860110   0.0000000  14.8761356  )
        11           Ta1 tau(  11) = (   1.4930055   2.5859614  14.8761356  )
        12           Ta1 tau(  12) = (   4.4790165   2.5859614  14.8761356  )
        13           S1  tau(  13) = (   0.0000000   0.0000000  17.2136356  )
        14           H1  tau(  14) = (   0.0000000   0.0000000  18.4636356  )

     number of k points=    20  Fermi-Dirac smearing, width (Ry)=  0.0110
                       cart. coord. in units 2pi/alat
        k(    1) = (   0.0000000   0.0000000   0.0000000), wk =   0.0555556
        k(    2) = (   0.0000000   0.0322253   0.0000000), wk =   0.1111111
        k(    3) = (   0.0000000   0.0644506   0.0000000), wk =   0.1111111
        k(    4) = (   0.0000000  -0.0966758   0.0000000), wk =   0.0555556
        k(    5) = (   0.0279079  -0.0161126   0.0000000), wk =   0.1111111
        k(    6) = (   0.0279079   0.0161126   0.0000000), wk =   0.1111111
        k(    7) = (   0.0279079   0.0483379   0.0000000), wk =   0.1111111
        k(    8) = (   0.0279079  -0.1127885   0.0000000), wk =   0.1111111
        k(    9) = (   0.0279079  -0.0805632   0.0000000), wk =   0.1111111
        k(   10) = (   0.0279079  -0.0483379   0.0000000), wk =   0.1111111
        k(   11) = (   0.0558158  -0.0322253   0.0000000), wk =   0.1111111
        k(   12) = (   0.0558158   0.0000000   0.0000000), wk =   0.1111111
        k(   13) = (   0.0558158   0.0322253   0.0000000), wk =   0.1111111
        k(   14) = (   0.0558158  -0.1289011   0.0000000), wk =   0.1111111
        k(   15) = (   0.0558158  -0.0966758   0.0000000), wk =   0.1111111
        k(   16) = (   0.0558158  -0.0644506   0.0000000), wk =   0.1111111
        k(   17) = (  -0.0837237   0.0483379   0.0000000), wk =   0.0555556
        k(   18) = (  -0.0837237   0.0805632   0.0000000), wk =   0.1111111
        k(   19) = (  -0.0837237   0.1127885   0.0000000), wk =   0.1111111
        k(   20) = (  -0.0837237  -0.0483379   0.0000000), wk =   0.0555556

     Largest allocated arrays     est. size (Mb)     dimensions
     Largest temporary arrays     est. size (Mb)     dimensions

     Initial potential from superposition of free atoms
     Check: negative starting charge=   -1.121525

     starting charge  162.98661, renormalised to  163.00000

     negative rho (up, down):  1.122E+00 0.000E+00

     *
     * You are using vdW-DF for exchange-correlation in this calculation.
     * Please cite the following three references that made this development
     * possible:
     *
     *   M. Dion, H. Rydberg, E. Schroder, D. C. Langreth, and
     *   B. I. Lundqvist, Phys. Rev. Lett. 92, 246401 (2004).
     *
     *   T. Thonhauser, V. R. Cooper, S. Li, A. Puzder, P. Hyldgaard, and
     *   D. C. Langreth, Phys. Rev. B 76, 125112 (2007).
     *
     *   G. Roman-Perez and J. M. Soler, Phys. Rev. Lett. 103, 096102 (2009).
     *
     *
     * If you are using vdW-DF2, please also cite:
     *
     *   K. Lee, E. D. Murray, L. Kong, B. I. Lundqvist, and
     *   D. C. Langreth, Phys. Rev. B 82, 081101(R) (2010).
     *
     *
     * If you are calculating the stress with vdW-DF, please also cite:
     *
     *   R. Sabatini, E. Kucukbenli, B. Kolb, T. Thonhauser, and
     *   S. de Gironcoli, J. Phys.: Condens. Matter 24, 424209 (2012).
     *

     Carrying out vdW-DF run using the following parameters:

     Nqs =      20    Nr_points =    1024   r_max =   100.000
     q_mesh =
               0.00001000     0.04494208     0.09755937     0.15916263
               0.23128650     0.31572767     0.41458969     0.53033537
               0.66584808     0.82450364     1.01025438     1.22772762
               1.48234092     1.78043706     2.12944203     2.53805004
               3.01644009     3.57652955     4.23227104     5.00000000

     Gradients computed in reciprocal space

     Adding external electric field

     Computed dipole along edir(3) :
        Dipole               -0.0050 Ry au,         -0.0126 Debye
        Dipole field         -0.0000 Ry au

        Potential amp.        0.0011 Ry
        Total length         45.8339 bohr

     Starting wfc are  161 randomized atomic wfcs

     Self-consistent Calculation

     iteration #  1     ecut=    36.75 Ry     beta=0.30
     Davidson diagonalization with overlap
     ethr =  1.00E-02,  avg # of iterations =  2.0

[...]

     total energy              =   -1741.82268213 Ry
     Harris-Foulkes estimate   =   -1744.33673386 Ry
     estimated scf accuracy    <       5.36621326 Ry

[...]

     End of self-consistent calculation

          k = 0.0000 0.0000 0.0000 ( 19447 PWs)   bands (ev):

   -65.7467 -65.6889 -65.6608 -65.6584 -65.6566 -65.6018 -65.6014 -65.5905
   -65.5449 -65.4961 -65.4715 -65.4708 -32.4308 -32.4274 -32.4265 -32.3761
   -32.3503 -32.3497 -32.3492 -32.3006 -32.3004 -32.2951 -32.1675 -32.0937
   -32.0384 -32.0368 -31.9336 -31.9332 -31.9281 -31.8394 -31.8232 -31.8229
   -31.7504 -31.7485 -31.7484 -31.7228 -31.6908 -31.6903 -31.6624 -31.6420
   -31.6420 -31.6235 -31.6163 -31.6158 -31.5651 -31.5651 -31.4778 -31.4777
   -11.8613  -5.2075  -4.5014  -3.0900  -2.1432  -1.4928  -1.4926  -1.3870
    -1.2840  -1.2840  -1.1825  -0.7601  -0.7600  -0.5999  -0.5997  -0.5341
    -0.2796  -0.1807  -0.1807   0.8791   1.1469   1.1472   2.0190   2.1446
     2.2894   2.2895   2.4068   2.5802   2.7195   2.7200   2.8116   3.0211
     3.0211   3.3008   3.3008   3.3816   3.3816   3.3909   3.4106   3.4656
     3.4656   3.5970   3.8262

[...]

          k =-0.0837 0.0483 0.0000 ( 19532 PWs)   bands (ev):

[...]

     the Fermi energy is     2.6605 ev

!    total energy              =   -1743.90619406 Ry
     Harris-Foulkes estimate   =   -1743.90618084 Ry
     estimated scf accuracy    <       0.00000706 Ry

     The total energy is the sum of the following terms:

     one-electron contribution =  -11580.07769893 Ry
     hartree contribution      =    5777.72870008 Ry
     xc contribution           =    -532.34757817 Ry
     ewald contribution        =    4590.89775476 Ry
     electric field correction =       0.00032177 Ry
     smearing contrib. (-TS)   =      -0.10769357 Ry

     convergence has been achieved in  13 iterations

 BEEF-vdW xc energy contributions
           1 :   -468.389160902682
           2 :    431.978172208706
           3 :   -368.500877816965
           4 :    292.710467227029
           5 :   -219.331872242625
           6 :    158.586359612921
           7 :   -114.180336815220
           8 :    84.1194295578371
           9 :   -63.4499493224237
          10 :    47.3355162495646
          11 :   -33.0399053095496
          12 :    20.2140957609981
          13 :   -9.85327776398339
          14 :    2.86151067437254
          15 :   0.880827114672229
          16 :   -2.54716875656658
          17 :    3.67714125242048
          18 :   -5.31787983422117
          19 :    7.54353269589069
          20 :   -9.60438080459977
          21 :    10.5567647652674
          22 :   -9.95168163469606
          23 :    8.15965795395510
          24 :   -6.16137363512865
          25 :    4.96992211117970
          26 :   -5.06087812475681
          27 :    6.15078197021546
          28 :   -7.42831285690130
          29 :    8.06473209593241
          30 :   -7.68039535045335
          31 :   -42.0711673433588
          32 :   -31.1593606372567

     Forces acting on atoms (Ry/au):

     negative rho (up, down):  1.175E+00 0.000E+00
     atom    1 type  1   force =    -0.00096707   -0.00060461    0.00333074
     atom    2 type  1   force =     0.00096402   -0.00055737    0.00331883
     atom    3 type  1   force =     0.00003744    0.00113750    0.00332572
     atom    4 type  1   force =    -0.00004640    0.00003172    0.00168176
     atom    5 type  1   force =    -0.00009692    0.00230274   -0.00198207
     atom    6 type  1   force =     0.00009721   -0.00006614    0.00526907
     atom    7 type  1   force =    -0.00203996   -0.00106380   -0.00198035
     atom    8 type  1   force =     0.00203899   -0.00117605   -0.00183911
     atom    9 type  1   force =     0.00003492   -0.00002549    0.02884460
     atom   10 type  1   force =    -0.00002870    0.00366383   -0.02210973
     atom   11 type  1   force =     0.00319948   -0.00183807   -0.02193978
     atom   12 type  1   force =    -0.00319321   -0.00180356   -0.02210692
     atom   13 type  2   force =    -0.00000055   -0.00000067   -0.09683492
     atom   14 type  3   force =     0.00000076   -0.00000004    0.12302216

     Total force =     0.163838     Total SCF correction =     0.007039

     entering subroutine stress ...

     negative rho (up, down):  1.175E+00 0.000E+00
          total   stress  (Ry/bohr**3)                   (kbar)     P=  -26.76
  -0.00027952   0.00000004   0.00000000        -41.12      0.01      0.00
   0.00000004  -0.00027947  -0.00000000          0.01    -41.11     -0.00
   0.00000000  -0.00000000   0.00001325          0.00     -0.00      1.95

     BFGS Geometry Optimization

     number of scf cycles    =   1
     number of bfgs steps    =   0

     energy   new            =   -1743.9061940556 Ry

     new trust radius        =       0.1230221644 bohr
     new conv_thr            =       0.0000099958 Ry

ATOMIC_POSITIONS (crystal)
Ta1      0.166666667   0.166666667   0.401991699    0   0   0
Ta1      0.666666667   0.166666667   0.401991699    0   0   0
Ta1      0.166666667   0.666666667   0.401991699    0   0   0
Ta1      0.666666667   0.666666667   0.401991699    0   0   0
Ta1      0.833333333   0.333333333   0.500000000    0   0   0
Ta1      0.333333333   0.333333333   0.500000000    0   0   0
Ta1      0.833333333   0.833333333   0.500000000    0   0   0
Ta1      0.333333333   0.833333333   0.500000000    0   0   0
Ta1      0.000004399  -0.000002608   0.598621898
Ta1      0.499810020   0.000374873   0.597537973
Ta1      0.000377537   0.499811934   0.597541588
Ta1      0.499809319   0.499815465   0.597538032
S1      -0.000000015  -0.000000068   0.689913942
H1       0.000000069  -0.000000004   0.744839810

     Writing output data file calc.save
     Check: negative starting charge=   -1.121525
     NEW-OLD atomic charge density approx. for the potential
     Check: negative starting charge=   -1.121150

[...]

     energy   old            =   -1743.9061940556 Ry
     energy   new            =   -1743.9149627071 Ry

     CASE: energy  _new < energy  _old

[...]

     iteration #  1     ecut=    36.75 Ry     beta=0.30
     Davidson diagonalization with overlap
     c_bands:  1 eigenvalues not converged
     ethr =  1.00E-06,  avg # of iterations =  8.2

[...]

     Total force =     0.007531     Total SCF correction =     0.000907
     SCF correction compared to forces is large: reduce conv_thr to get better values

[...]

     Total force =     0.005857     Total SCF correction =     0.000312

[...]

     Threshold (ethr) on eigenvalues was too large:
     Diagonalizing with lowered threshold

     Davidson diagonalization with overlap
     ethr =  4.92E-08,  avg # of iterations =  2.8

[...]

     number of scf cycles    =  15
     number of bfgs steps    =  14

     energy   old            =   -1743.9451315415 Ry
     energy   new            =   -1743.9451670466 Ry

     CASE: energy  _new < energy  _old

     new trust radius        =       0.0038694828 bohr
     new conv_thr            =       0.0000001000 Ry

ATOMIC_POSITIONS (crystal)
Ta1      0.166666667   0.166666667   0.401991699    0   0   0
Ta1      0.666666667   0.166666667   0.401991699    0   0   0
Ta1      0.166666667   0.666666667   0.401991699    0   0   0
Ta1      0.666666667   0.666666667   0.401991699    0   0   0
Ta1      0.833333333   0.333333333   0.500000000    0   0   0
Ta1      0.333333333   0.333333333   0.500000000    0   0   0
Ta1      0.833333333   0.833333333   0.500000000    0   0   0
Ta1      0.333333333   0.833333333   0.500000000    0   0   0
Ta1     -0.000000553   0.000000606   0.610733051
Ta1      0.499591478   0.000818357   0.592614656
Ta1      0.000815425   0.499592629   0.592614225
Ta1      0.499591595   0.499590629   0.592614642
S1      -0.000016209   0.000009055   0.704368557
H1       0.000009994  -0.000005150   0.758354446

     Writing output data file calc.save
     Check: negative starting charge=   -1.119860
     NEW-OLD atomic charge density approx. for the potential
     Check: negative starting charge=   -1.120311

[...]

     Self-consistent Calculation

[...]

     Threshold (ethr) on eigenvalues was too large:
     Diagonalizing with lowered threshold

     Davidson diagonalization with overlap
     ethr =  2.26E-08,  avg # of iterations =  4.7

[...]

     total energy              =   -1743.94517958 Ry
     Harris-Foulkes estimate   =   -1743.94517970 Ry
     estimated scf accuracy    <       0.00000012 Ry

     iteration #  8     ecut=    36.75 Ry     beta=0.30
     Davidson diagonalization with overlap
     ethr =  7.06E-11,  avg # of iterations =  4.0

[...]

     negative rho (up, down):  1.175E+00 0.000E+00

     Adding external electric field

     Computed dipole along edir(3) :
        Dipole                0.3201 Ry au,          0.8137 Debye
        Dipole field          0.0008 Ry au

        Potential amp.       -0.0711 Ry
        Total length         45.8339 bohr

     End of self-consistent calculation

[...]

          k = 0.0558-0.0645 0.0000 ( 19521 PWs)   bands (ev):

[...]

          k =-0.0837-0.0483 0.0000 ( 19532 PWs)   bands (ev):

   -65.9367 -65.6965 -65.6942 -65.6896 -65.6769 -65.6655 -65.6624 -65.6614
   -65.5890 -65.5799 -65.5656 -65.5316 -32.5273 -32.3751 -32.3613 -32.3432
   -32.3302 -32.3203 -32.2588 -32.2492 -32.2202 -32.2152 -32.1824 -32.1688
   -32.1497 -32.0577 -32.0205 -32.0055 -31.9944 -31.9911 -31.9896 -31.9554
   -31.9191 -31.9137 -31.8796 -31.8695 -31.8434 -31.8114 -31.7989 -31.7737
   -31.7334 -31.7314 -31.7101 -31.6946 -31.6855 -31.6611 -31.6255 -31.5987
   -11.3853  -4.5975  -3.1080  -2.9481  -1.6907  -1.4958  -0.7898  -0.7833
    -0.6682  -0.5725  -0.4703  -0.4628  -0.4122  -0.3349   0.4104   0.4476
     0.5985   0.6889   0.8247   0.8426   1.0390   1.1966   1.2225   1.3428
     1.4277   1.4294   1.5996   1.7836   1.9642   1.9761   2.0232   2.0972
     2.1445   2.3110   2.3325   2.4150   2.6318   2.8435   2.8692   3.0472
     3.2434   3.6271   3.6674

     the Fermi energy is     2.5867 ev

!    total energy              =   -1743.94517952 Ry
     Harris-Foulkes estimate   =   -1743.94518013 Ry
     estimated scf accuracy    <       0.00000009 Ry

     The total energy is the sum of the following terms:

     one-electron contribution =  -11519.27978306 Ry
     hartree contribution      =    5746.98633376 Ry
     xc contribution           =    -532.32031321 Ry
     ewald contribution        =    4560.77050321 Ry
     electric field correction =       0.00024839 Ry
     smearing contrib. (-TS)   =      -0.10216862 Ry

     convergence has been achieved in   8 iterations

 BEEF-vdW xc energy contributions
           1 :   -468.364945509072
           2 :    431.938138348663
           3 :   -368.451877426634
           4 :    292.662180065661
           5 :   -219.280120912568
           6 :    158.522482895200
           7 :   -114.105159509124
           8 :    84.0464985856099
           9 :   -63.3965908799250
          10 :    47.3109435611942
          11 :   -33.0392346142983
          12 :    20.2196193680821
          13 :   -9.83900077752872
          14 :    2.79945251786143
          15 :    1.01117465124173
          16 :   -2.74785987943716
          17 :    3.92597272325384
          18 :   -5.57495856114116
          19 :    7.77080885230453
          20 :   -9.78815600424701
          21 :    10.7165997016955
          22 :   -10.1261946831563
          23 :    8.37664946929942
          24 :   -6.41277540456241
          25 :    5.21104231644540
          26 :   -5.23741171804340
          27 :    6.23713277280416
          28 :   -7.45058487839282
          29 :    8.08980809212147
          30 :   -7.77588406102774
          31 :   -42.0684920725726
          32 :   -31.1507192548299

     Forces acting on atoms (Ry/au):

     negative rho (up, down):  1.175E+00 0.000E+00
     atom    1 type  1   force =    -0.00275153   -0.00158874    0.00470049
     atom    2 type  1   force =     0.00275144   -0.00158864    0.00470080
     atom    3 type  1   force =     0.00000005    0.00317730    0.00470051
     atom    4 type  1   force =    -0.00000014    0.00000007    0.00200496
     atom    5 type  1   force =    -0.00000025   -0.01749557    0.00200215
     atom    6 type  1   force =     0.00000031   -0.00000018   -0.02357582
     atom    7 type  1   force =     0.01515145    0.00874800    0.00200219
     atom    8 type  1   force =    -0.01515136    0.00874759    0.00200611
     atom    9 type  1   force =     0.00000287   -0.00000181    0.00138314
     atom   10 type  1   force =    -0.00000238    0.00036805    0.00036273
     atom   11 type  1   force =     0.00032071   -0.00018506    0.00036368
     atom   12 type  1   force =    -0.00031992   -0.00018177    0.00036275
     atom   13 type  2   force =    -0.00000657    0.00000421   -0.00126247
     atom   14 type  3   force =     0.00000531   -0.00000344    0.00024879

     Total force =     0.002091     Total SCF correction =     0.001180
     SCF correction compared to forces is large: reduce conv_thr to get better values

     entering subroutine stress ...

     negative rho (up, down):  1.175E+00 0.000E+00
          total   stress  (Ry/bohr**3)                   (kbar)     P=  -27.60
  -0.00025039   0.00000000   0.00000000        -36.83      0.00      0.00
   0.00000000  -0.00025038  -0.00000000          0.00    -36.83     -0.00
   0.00000000  -0.00000000  -0.00006218          0.00     -0.00     -9.15

     bfgs converged in  16 scf cycles and  15 bfgs steps
     (criteria: energy <  1.0E+00, force <  1.9E-03)

     End of BFGS Geometry Optimization

     Final energy   =   -1743.9451795213 Ry
Begin final coordinates

ATOMIC_POSITIONS (crystal)
Ta1      0.166666667   0.166666667   0.401991699    0   0   0
Ta1      0.666666667   0.166666667   0.401991699    0   0   0
Ta1      0.166666667   0.666666667   0.401991699    0   0   0
Ta1      0.666666667   0.666666667   0.401991699    0   0   0
Ta1      0.833333333   0.333333333   0.500000000    0   0   0
Ta1      0.333333333   0.333333333   0.500000000    0   0   0
Ta1      0.833333333   0.833333333   0.500000000    0   0   0
Ta1      0.333333333   0.833333333   0.500000000    0   0   0
Ta1     -0.000000553   0.000000606   0.610733051
Ta1      0.499591478   0.000818357   0.592614656
Ta1      0.000815425   0.499592629   0.592614225
Ta1      0.499591595   0.499590629   0.592614642
S1      -0.000016209   0.000009055   0.704368557
H1       0.000009994  -0.000005150   0.758354446
End final coordinates

     Writing output data file calc.save

     General routines

     Parallel routines

   This run was terminated on:  10:10:27  23Apr2018

   JOB DONE.
Job  /afs/slac/g/suncat/bin/suncat-tsmpirun -x LD_LIBRARY_PATH -wdir /scratch/qe998758_GaTQx pw.x -npool 3 -in pw.inp

TID   HOST_NAME   COMMAND_LINE            STATUS            TERMINATION_TIME
00000 suncat2035 pw.x -npool 3 -i  Done                     04/23/2018 10:10:27
00001 suncat2035 pw.x -npool 3 -i  Done                     04/23/2018 10:10:27
00002 suncat2035 pw.x -npool 3 -i  Done                     04/23/2018 10:10:27
00003 suncat2035 pw.x -npool 3 -i  Done                     04/23/2018 10:10:27
00004 suncat2038 pw.x -npool 3 -i  Done                     04/23/2018 10:10:27
00005 suncat2038 pw.x -npool 3 -i  Done                     04/23/2018 10:10:27
00006 suncat2038 pw.x -npool 3 -i  Done                     04/23/2018 10:10:27
00007 suncat2038 pw.x -npool 3 -i  Done                     04/23/2018 10:10:27
00008 suncat2038 pw.x -npool 3 -i  Done                     04/23/2018 10:10:27
00009 suncat2038 pw.x -npool 3 -i  Done                     04/23/2018 10:10:27
00010 suncat2038 pw.x -npool 3 -i  Done                     04/23/2018 10:10:27
00011 suncat2038 pw.x -npool 3 -i  Done                     04/23/2018 10:10:27
00012 suncat2038 pw.x -npool 3 -i  Done                     04/23/2018 10:10:27
00013 suncat2038 pw.x -npool 3 -i  Done                     04/23/2018 10:10:27
00014 suncat2038 pw.x -npool 3 -i  Done                     04/23/2018 10:10:27
00015 suncat2038 pw.x -npool 3 -i  Done                     04/23/2018 10:10:27
00016 suncat2038 pw.x -npool 3 -i  Done                     04/23/2018 10:10:27
00017 suncat2038 pw.x -npool 3 -i  Done                     04/23/2018 10:10:27
00018 suncat2038 pw.x -npool 3 -i  Done                     04/23/2018 10:10:27
00019 suncat2038 pw.x -npool 3 -i  Done                     04/23/2018 10:10:27
00020 suncat2019 pw.x -npool 3 -i  Done                     04/23/2018 10:10:27
00021 suncat2019 pw.x -npool 3 -i  Done                     04/23/2018 10:10:27
00022 suncat2019 pw.x -npool 3 -i  Done                     04/23/2018 10:10:27
00023 suncat2019 pw.x -npool 3 -i  Done                     04/23/2018 10:10:27
00024 suncat2019 pw.x -npool 3 -i  Done                     04/23/2018 10:10:27
00025 suncat2019 pw.x -npool 3 -i  Done                     04/23/2018 10:10:27
00026 suncat2019 pw.x -npool 3 -i  Done                     04/23/2018 10:10:27
00027 suncat2019 pw.x -npool 3 -i  Done                     04/23/2018 10:10:27
00028 suncat2019 pw.x -npool 3 -i  Done                     04/23/2018 10:10:27
00029 suncat2019 pw.x -npool 3 -i  Done                     04/23/2018 10:10:27
00030 suncat2019 pw.x -npool 3 -i  Done                     04/23/2018 10:10:27
00031 suncat2019 pw.x -npool 3 -i  Done                     04/23/2018 10:10:27
00032 suncat2019 pw.x -npool 3 -i  Done                     04/23/2018 10:10:27
00033 suncat2019 pw.x -npool 3 -i  Done                     04/23/2018 10:10:27
00034 suncat2019 pw.x -npool 3 -i  Done                     04/23/2018 10:10:27
00035 suncat2019 pw.x -npool 3 -i  Done                     04/23/2018 10:10:27