     Program PWSCF v.5.1rc2 (svn rev. 11289) starts on 17Apr2018 at  0:38:17

     Current dimensions of program PWSCF are:
     Max number of different atomic species (ntypx) = 10
     Max number of k-points (npk) =  40000
     Max angular momentum in pseudopotentials (lmaxx) =  3
     Presently stress not available with electric field

     IMPORTANT: XC functional enforced from input :
     Exchange-correlation      = BEEF-VDW ( 1  4 27 13 2)
     Any further DFT definition will be discarded
     Please, verify this is what you really want

     Subspace diagonalization in iterative solution of the eigenvalue problem:
     a serial algorithm will be used

     bravais-lattice index     =            0
     lattice parameter (alat)  =       1.8897  a.u.
     unit-cell volume          =    3724.3394 (a.u.)^3
     number of atoms/cell      =           14
     number of atomic types    =            3
     number of electrons       =       175.00
     number of Kohn-Sham states=           97
     kinetic-energy cutoff     =      36.7493  Ry
     charge density cutoff     =     367.4932  Ry
     convergence threshold     =      1.0E-05
     mixing beta               =       0.3000
     number of iterations used =           10  plain     mixing
     Exchange-correlation      = BEEF-VDW ( 1  4 27 13 2)
     nstep                     =           50

     celldm(1)=   1.889726  celldm(2)=   0.000000  celldm(3)=   0.000000
     celldm(4)=   0.000000  celldm(5)=   0.000000  celldm(6)=   0.000000

     crystal axes: (cart. coord. in units of alat)
               a(1) = (   5.132588   0.000000   0.000000 )
               a(2) = (   2.566294   4.444952   0.000000 )
               a(3) = (   0.000000   0.000000  24.190741 )

     reciprocal axes: (cart. coord. in units 2 pi/alat)
               b(1) = (  0.194833 -0.112487  0.000000 )
               b(2) = (  0.000000  0.224974  0.000000 )
               b(3) = (  0.000000  0.000000  0.041338 )

     PseudoPot. # 1 for Cr read from file:
     /u/if/mamunm/psp/gbrv1.5pbe/Cr.UPF
     MD5 check sum: 0d52af634a40206e4dee301ad30da4bf
     Pseudo is Ultrasoft + core correction, Zval = 14.0
     Generated by new atomic code, or converted to UPF format
     Using radial grid of  857 points,  6 beta functions with:
                l(1) =   0
                l(2) =   0
                l(3) =   1
                l(4) =   1
                l(5) =   2
                l(6) =   2
     Q(r) pseudized with  8 coefficients,  rinner =    0.950   0.950   0.950
                                                       0.950   0.950

     PseudoPot. # 2 for S  read from file:
     /u/if/mamunm/psp/gbrv1.5pbe/S.UPF
     MD5 check sum: 88d86576ff6df21479756cfb9bdac1df
     Pseudo is Ultrasoft + core correction, Zval =  6.0
     Generated by new atomic code, or converted to UPF format
     Using radial grid of  907 points,  6 beta functions with:
                l(1) =   0
                l(2) =   0
                l(3) =   1
                l(4) =   1
                l(5) =   2
                l(6) =   2
     Q(r) pseudized with  8 coefficients,  rinner =    1.300   1.300   1.300
                                                       1.300   1.300

     PseudoPot. # 3 for H  read from file:
     /u/if/mamunm/psp/gbrv1.5pbe/H.UPF
     MD5 check sum: 761ae9a214b05c3daf00ab9f6b793d6f
     Pseudo is Ultrasoft, Zval =  1.0
     Generated by new atomic code, or converted to UPF format
     Using radial grid of  615 points,  2 beta functions with:
                l(1) =   0
                l(2) =   0
     Q(r) pseudized with  8 coefficients,  rinner =    0.700

     vdW kernel table read from file vdW_kernel_table
     MD5 check sum: 095c7af220d748ca6e76c0b4c6cfb241

     atomic species   valence    mass     pseudopotential
        Cr1           14.00    51.99610     Cr( 1.00)
        S1             6.00    32.06000     S ( 1.00)
        H1             1.00     1.00800     H ( 1.00)

     No symmetry found

   Cartesian axes

     site n.     atom                  positions (alat units)
         1           Cr1 tau(   1) = (   1.2831471   0.7408253  10.0000000  )
         2           Cr1 tau(   2) = (   3.8494412   0.7408253  10.0000000  )
         3           Cr1 tau(   3) = (   2.5662941   2.9633012  10.0000000  )
         4           Cr1 tau(   4) = (   5.1325882   2.9633012  10.0000000  )
         5           Cr1 tau(   5) = (   5.1325882   1.4816506  12.0953704  )
         6           Cr1 tau(   6) = (   2.5662941   1.4816506  12.0953704  )
         7           Cr1 tau(   7) = (   6.4157353   3.7041265  12.0953704  )
         8           Cr1 tau(   8) = (   3.8494412   3.7041265  12.0953704  )
         9           Cr1 tau(   9) = (   0.0000000   0.0000000  14.1907408  )
        10           Cr1 tau(  10) = (   2.5662941   0.0000000  14.1907408  )
        11           Cr1 tau(  11) = (   1.2831471   2.2224759  14.1907408  )
        12           Cr1 tau(  12) = (   3.8494412   2.2224759  14.1907408  )
        13           S1  tau(  13) = (   1.2831471   0.7408253  15.7767408  )
        14           H1  tau(  14) = (   1.2831471   0.7408253  17.0267408  )

     number of k points=    20  Fermi-Dirac smearing, width (Ry)=  0.0110
                       cart. coord. in units 2pi/alat
        k(    1) = (   0.0000000   0.0000000   0.0000000), wk =   0.0555556
        k(    2) = (   0.0000000   0.0374957   0.0000000), wk =   0.1111111
        k(    3) = (   0.0000000   0.0749914   0.0000000), wk =   0.1111111
        k(    4) = (   0.0000000  -0.1124872   0.0000000), wk =   0.0555556
        k(    5) = (   0.0324722  -0.0187479   0.0000000), wk =   0.1111111
        k(    6) = (   0.0324722   0.0187479   0.0000000), wk =   0.1111111
        k(    7) = (   0.0324722   0.0562436   0.0000000), wk =   0.1111111
        k(    8) = (   0.0324722  -0.1312350   0.0000000), wk =   0.1111111
        k(    9) = (   0.0324722  -0.0937393   0.0000000), wk =   0.1111111
        k(   10) = (   0.0324722  -0.0562436   0.0000000), wk =   0.1111111
        k(   11) = (   0.0649445  -0.0374957   0.0000000), wk =   0.1111111
        k(   12) = (   0.0649445   0.0000000   0.0000000), wk =   0.1111111
        k(   13) = (   0.0649445   0.0374957   0.0000000), wk =   0.1111111
        k(   14) = (   0.0649445  -0.1499829   0.0000000), wk =   0.1111111
        k(   15) = (   0.0649445  -0.1124872   0.0000000), wk =   0.1111111
        k(   16) = (   0.0649445  -0.0749914   0.0000000), wk =   0.1111111
        k(   17) = (  -0.0974167   0.0562436   0.0000000), wk =   0.0555556
        k(   18) = (  -0.0974167   0.0937393   0.0000000), wk =   0.1111111
        k(   19) = (  -0.0974167   0.1312350   0.0000000), wk =   0.1111111
        k(   20) = (  -0.0974167  -0.0562436   0.0000000), wk =   0.0555556

     Largest allocated arrays     est. size (Mb)     dimensions
     Largest temporary arrays     est. size (Mb)     dimensions

     Check: negative/imaginary core charge=   -0.000004    0.000000

     Initial potential from superposition of free atoms
     Check: negative starting charge=   -0.014775

     starting charge  162.99977, renormalised to  175.00000

     negative rho (up, down):  1.586E-02 0.000E+00

     *
     * You are using vdW-DF for exchange-correlation in this calculation.
     * Please cite the following three references that made this development
     * possible:
     *
     *   M. Dion, H. Rydberg, E. Schroder, D. C. Langreth, and
     *   B. I. Lundqvist, Phys. Rev. Lett. 92, 246401 (2004).
     *
     *   T. Thonhauser, V. R. Cooper, S. Li, A. Puzder, P. Hyldgaard, and
     *   D. C. Langreth, Phys. Rev. B 76, 125112 (2007).
     *
     *   G. Roman-Perez and J. M. Soler, Phys. Rev. Lett. 103, 096102 (2009).
     *
     *
     * If you are using vdW-DF2, please also cite:
     *
     *   K. Lee, E. D. Murray, L. Kong, B. I. Lundqvist, and
     *   D. C. Langreth, Phys. Rev. B 82, 081101(R) (2010).
     *
     *
     * If you are calculating the stress with vdW-DF, please also cite:
     *
     *   R. Sabatini, E. Kucukbenli, B. Kolb, T. Thonhauser, and
     *   S. de Gironcoli, J. Phys.: Condens. Matter 24, 424209 (2012).
     *

     Carrying out vdW-DF run using the following parameters:

     Nqs =      20    Nr_points =    1024   r_max =   100.000
     q_mesh =
               0.00001000     0.04494208     0.09755937     0.15916263
               0.23128650     0.31572767     0.41458969     0.53033537
               0.66584808     0.82450364     1.01025438     1.22772762
               1.48234092     1.78043706     2.12944203     2.53805004
               3.01644009     3.57652955     4.23227104     5.00000000

     Gradients computed in reciprocal space

     Adding external electric field

     Computed dipole along edir(3) :
        Dipole               -3.7587 Ry au,         -9.5537 Debye
        Dipole field         -0.0127 Ry au

        Potential amp.        1.1305 Ry
        Total length         44.5710 bohr

     Starting wfc are  125 randomized atomic wfcs

     Self-consistent Calculation

     iteration #  1     ecut=    36.75 Ry     beta=0.30
     Davidson diagonalization with overlap
     ethr =  1.00E-02,  avg # of iterations =  8.8

[...]

     total energy              =   -1824.83868481 Ry
     Harris-Foulkes estimate   =   -2139.35251867 Ry
     estimated scf accuracy    <     655.35768550 Ry

[...]

     iteration #  3     ecut=    36.75 Ry     beta=0.30
     Davidson diagonalization with overlap
     c_bands:  1 eigenvalues not converged
     ethr =  1.00E-02,  avg # of iterations = 18.6

[...]

     End of self-consistent calculation

          k = 0.0000 0.0000 0.0000 ( 14081 PWs)   bands (ev):

   -69.6660 -69.5841 -69.5234 -69.5226 -69.5218 -69.5150 -69.4959 -69.4717
   -69.4713 -69.4225 -69.4218 -69.4191 -41.2781 -41.2492 -41.2490 -41.2397
   -41.1880 -41.1741 -41.1740 -41.0868 -41.0827 -41.0825 -40.9337 -40.8614
   -40.8522 -40.8518 -40.8101 -40.8098 -40.8082 -40.7521 -40.7517 -40.7298
   -40.6867 -40.6860 -40.6857 -40.6423 -40.6422 -40.6268 -40.6246 -40.5806
   -40.5806 -40.5653 -40.5650 -40.5625 -40.5082 -40.5082 -40.4334 -40.4333
   -13.2954  -6.5710  -4.4541  -2.8432  -2.8432  -2.6309  -1.7870  -1.6034
    -1.5272  -1.5271  -1.2068  -1.1477  -1.1477  -0.8566  -0.8565  -0.7893
    -0.7718  -0.5654  -0.5654   0.2642   0.2816   0.2816   1.0216   1.0691
     1.0691   1.1859   1.3111   1.6192   1.6192   1.7633   1.7634   1.7646
     1.8694   1.8695   1.8996   1.9219   1.9220   1.9853   1.9853   2.0447
     2.5130   2.7388   2.7390   2.9529   2.9906   2.9906   3.2313   3.2313
     3.4268

[...]

          k =-0.0974 0.0562 0.0000 ( 14010 PWs)   bands (ev):

[...]

     the Fermi energy is     2.0474 ev

!    total energy              =   -2140.59908226 Ry
     Harris-Foulkes estimate   =   -2140.59904560 Ry
     estimated scf accuracy    <       0.00000858 Ry

     The total energy is the sum of the following terms:

     one-electron contribution =  -20088.66954411 Ry
     hartree contribution      =   10042.13322568 Ry
     xc contribution           =    -288.98897040 Ry
     ewald contribution        =    8195.05764894 Ry
     electric field correction =       0.00045036 Ry
     smearing contrib. (-TS)   =      -0.13189273 Ry

     convergence has been achieved in  43 iterations

 BEEF-vdW xc energy contributions
           1 :   -250.043557048977
           2 :    225.043594120816
           3 :   -183.248211449078
           4 :    137.136523422471
           5 :   -98.1029473050828
           6 :    72.3606326050586
           7 :   -59.7383434393974
           8 :    55.4585919493636
           9 :   -53.5537244053058
          10 :    49.9646378518753
          11 :   -43.8799424758672
          12 :    37.0388761359595
          13 :   -31.8455092928729
          14 :    29.5949324484967
          15 :   -29.7824979371391
          16 :    30.6674323975887
          17 :   -30.5201168369334
          18 :    28.6775680903438
          19 :   -25.7846930485855
          20 :    23.1791977595807
          21 :   -21.9169090930513
          22 :    22.0997686588439
          23 :   -22.9035130002257
          24 :    23.2077408276545
          25 :   -22.3545400355812
          26 :    20.5290953392131
          27 :   -18.5570487969439
          28 :    17.3084831589977
          29 :   -17.1297252151070
          30 :    17.6611892489854
          31 :   -24.9034564185568
          32 :   -17.9029010917950

     Forces acting on atoms (Ry/au):

     negative rho (up, down):  1.454E-02 0.000E+00
     atom    1 type  1   force =     0.00000776    0.00000726    0.00085478
     atom    2 type  1   force =    -0.00000606   -0.00007489   -0.00047494
     atom    3 type  1   force =    -0.00006917    0.00003022   -0.00047189
     atom    4 type  1   force =     0.00006575    0.00004192   -0.00046705
     atom    5 type  1   force =     0.00368275   -0.00211599    0.00359461
     atom    6 type  1   force =    -0.00370135   -0.00212744    0.00361089
     atom    7 type  1   force =    -0.00000571   -0.00000282   -0.01498510
     atom    8 type  1   force =     0.00000521    0.00425484    0.00359448
     atom    9 type  1   force =    -0.04131088   -0.02384737   -0.01244769
     atom   10 type  1   force =     0.04131999   -0.02385849   -0.01242626
     atom   11 type  1   force =    -0.00000287    0.04770210   -0.01241718
     atom   12 type  1   force =    -0.00000388   -0.00000145   -0.03091945
     atom   13 type  2   force =     0.00001574   -0.00000514   -0.06732134
     atom   14 type  3   force =     0.00000272   -0.00000275    0.14027613

     Total force =     0.180157     Total SCF correction =     0.008739

     entering subroutine stress ...

     negative rho (up, down):  1.454E-02 0.000E+00
          total   stress  (Ry/bohr**3)                   (kbar)     P=   -8.24
  -0.00016221   0.00000004   0.00000009        -23.86      0.01      0.01
   0.00000004  -0.00016220  -0.00000002          0.01    -23.86     -0.00
   0.00000009  -0.00000002   0.00015628          0.01     -0.00     22.99

     BFGS Geometry Optimization

     number of scf cycles    =   1
     number of bfgs steps    =   0

     energy   new            =   -2140.5990822636 Ry

     new trust radius        =       0.1402761316 bohr
     new conv_thr            =       0.0000099958 Ry

ATOMIC_POSITIONS (crystal)
Cr1      0.166666667   0.166666667   0.413381306    0   0   0
Cr1      0.666666667   0.166666667   0.413381306    0   0   0
Cr1      0.166666667   0.666666667   0.413381306    0   0   0
Cr1      0.666666667   0.666666667   0.413381306    0   0   0
Cr1      0.833333333   0.333333333   0.500000000    0   0   0
Cr1      0.333333333   0.333333333   0.500000000    0   0   0
Cr1      0.833333333   0.833333333   0.500000000    0   0   0
Cr1      0.333333333   0.833333333   0.500000000    0   0   0
Cr1     -0.002839681  -0.002839060   0.586346399
Cr1      0.505680342  -0.002840384   0.586346867
Cr1     -0.002839794   0.505678996   0.586347066
Cr1      0.499999686   0.499999828   0.585942325
S1       0.166668595   0.166666054   0.650708302
H1       0.166667111   0.166666340   0.706922201

     Writing output data file calc.save
     Check: negative starting charge=   -0.014775
     NEW-OLD atomic charge density approx. for the potential

     Check: negative/imaginary core charge=   -0.000004    0.000000
     Check: negative starting charge=   -0.013958

[...]

     energy   old            =   -2140.5990822636 Ry
     energy   new            =   -2140.6162578560 Ry

     CASE: energy  _new < energy  _old

[...]

     number of scf cycles    =  11
     number of bfgs steps    =  10

     energy   old            =   -2140.6438188600 Ry
     energy   new            =   -2140.6443037418 Ry

     CASE: energy  _new < energy  _old

     new trust radius        =       0.0099301166 bohr
     new conv_thr            =       0.0000001000 Ry

ATOMIC_POSITIONS (crystal)
Cr1      0.166666667   0.166666667   0.413381306    0   0   0
Cr1      0.666666667   0.166666667   0.413381306    0   0   0
Cr1      0.166666667   0.666666667   0.413381306    0   0   0
Cr1      0.666666667   0.666666667   0.413381306    0   0   0
Cr1      0.833333333   0.333333333   0.500000000    0   0   0
Cr1      0.333333333   0.333333333   0.500000000    0   0   0
Cr1      0.833333333   0.833333333   0.500000000    0   0   0
Cr1      0.333333333   0.833333333   0.500000000    0   0   0
Cr1     -0.008345573  -0.008345602   0.590206760
Cr1      0.516697818  -0.008342368   0.590205912
Cr1     -0.008338200   0.516677401   0.590207486
Cr1      0.499998849   0.500006644   0.570971804
S1       0.166678128   0.166651698   0.658397077
H1       0.166667855   0.166665507   0.715321548

     Writing output data file calc.save
     Check: negative starting charge=   -0.014871
     NEW-OLD atomic charge density approx. for the potential

     Check: negative/imaginary core charge=   -0.000004    0.000000
     Check: negative starting charge=   -0.014912

[...]

     Self-consistent Calculation

[...]

     total energy              =   -2140.64434503 Ry
     Harris-Foulkes estimate   =   -2140.64434510 Ry
     estimated scf accuracy    <       0.00000011 Ry

     iteration # 20     ecut=    36.75 Ry     beta=0.30
     Davidson diagonalization with overlap
     ethr =  6.00E-11,  avg # of iterations =  1.1

[...]

     negative rho (up, down):  1.474E-02 0.000E+00

     Adding external electric field

     Computed dipole along edir(3) :
        Dipole                0.3333 Ry au,          0.8471 Debye
        Dipole field          0.0011 Ry au

        Potential amp.       -0.1002 Ry
        Total length         44.5710 bohr

     End of self-consistent calculation

[...]

          k = 0.0649-0.0750 0.0000 ( 13990 PWs)   bands (ev):

[...]

          k =-0.0974-0.0562 0.0000 ( 14010 PWs)   bands (ev):

   -69.7086 -69.6841 -69.6448 -69.6094 -69.5934 -69.5879 -69.5669 -69.5278
   -69.5205 -69.4855 -69.4714 -69.4674 -41.4089 -41.2841 -41.2544 -41.2290
   -41.1963 -41.1438 -41.1095 -41.0854 -41.0336 -41.0316 -41.0111 -40.9968
   -40.9787 -40.9356 -40.9222 -40.8984 -40.8794 -40.8788 -40.8400 -40.8079
   -40.8033 -40.7914 -40.7897 -40.7713 -40.7487 -40.7473 -40.7374 -40.7285
   -40.7123 -40.6916 -40.6375 -40.6090 -40.5766 -40.5477 -40.5395 -40.5122
   -12.6931  -5.7871  -3.2216  -2.7695  -2.4326  -2.3747  -1.3829  -1.2194
    -0.9776  -0.9758  -0.8666  -0.8500  -0.7857  -0.4711  -0.3054  -0.1729
    -0.1150  -0.0465   0.0665   0.1767   0.2905   0.4117   0.5703   0.6107
     0.6321   0.6848   0.7734   0.9155   0.9506   1.1159   1.1560   1.2726
     1.2743   1.3346   1.4683   1.5917   1.6231   1.6899   1.7340   1.8089
     2.0313   2.0781   2.1982   2.3103   2.5015   2.5793   2.6148   2.7414
     2.8577

     the Fermi energy is     2.0125 ev

!    total energy              =   -2140.64434503 Ry
     Harris-Foulkes estimate   =   -2140.64434523 Ry
     estimated scf accuracy    <       0.00000002 Ry

     The total energy is the sum of the following terms:

     one-electron contribution =  -20070.72844165 Ry
     hartree contribution      =   10032.77034536 Ry
     xc contribution           =    -288.91050540 Ry
     ewald contribution        =    8186.34834925 Ry
     electric field correction =       0.00037478 Ry
     smearing contrib. (-TS)   =      -0.12446739 Ry

     convergence has been achieved in  20 iterations

 BEEF-vdW xc energy contributions
           1 :   -249.970681850180
           2 :    224.939868995636
           3 :   -183.097027784476
           4 :    136.932215805937
           5 :   -97.8437740356257
           6 :    72.0485459627365
           7 :   -59.3826273443524
           8 :    55.0805937856078
           9 :   -53.1893465685641
          10 :    49.6582750881504
          11 :   -43.6656605331221
          12 :    36.9154052809165
          13 :   -31.7644413014045
          14 :    29.4800390824845
          15 :   -29.5764357112779
          16 :    30.3755948771339
          17 :   -30.2151898954144
          18 :    28.4538798862023
          19 :   -25.6906004445550
          20 :    23.1768910315955
          21 :   -21.9016797956383
          22 :    21.9675408549469
          23 :   -22.6204193344457
          24 :    22.8333423417302
          25 :   -22.0037164624615
          26 :    20.2998628955536
          27 :   -18.4725766109914
          28 :    17.3090857570906
          29 :   -17.1167338791701
          30 :    17.5628521845626
          31 :   -24.8974935890325
          32 :   -17.8842905582555

     Forces acting on atoms (Ry/au):

     negative rho (up, down):  1.474E-02 0.000E+00
     atom    1 type  1   force =    -0.00000017    0.00000084    0.00823478
     atom    2 type  1   force =    -0.00000038   -0.00019418   -0.00229503
     atom    3 type  1   force =    -0.00016833    0.00009686   -0.00229504
     atom    4 type  1   force =     0.00016827    0.00009663   -0.00229677
     atom    5 type  1   force =     0.02241434   -0.01294152   -0.00178726
     atom    6 type  1   force =    -0.02241500   -0.01293861   -0.00178810
     atom    7 type  1   force =     0.00000194   -0.00000445    0.00657113
     atom    8 type  1   force =    -0.00000097    0.02588228   -0.00178956
     atom    9 type  1   force =    -0.00029263   -0.00016871   -0.00021775
     atom   10 type  1   force =     0.00028980   -0.00017061   -0.00021442
     atom   11 type  1   force =     0.00000114    0.00033702   -0.00021824
     atom   12 type  1   force =     0.00000036    0.00000158   -0.00077083
     atom   13 type  2   force =     0.00000143    0.00000375   -0.00032591
     atom   14 type  3   force =     0.00000020   -0.00000089   -0.00080701

     Total force =     0.001354     Total SCF correction =     0.000105

     entering subroutine stress ...

     negative rho (up, down):  1.474E-02 0.000E+00
          total   stress  (Ry/bohr**3)                   (kbar)     P=  -16.05
  -0.00015648  -0.00000000  -0.00000000        -23.02     -0.00     -0.00
  -0.00000000  -0.00015646   0.00000001         -0.00    -23.02      0.00
  -0.00000000   0.00000001  -0.00001446         -0.00      0.00     -2.13

     bfgs converged in  12 scf cycles and  11 bfgs steps
     (criteria: energy <  1.0E+00, force <  1.9E-03)

     End of BFGS Geometry Optimization

     Final energy   =   -2140.6443450309 Ry
Begin final coordinates

ATOMIC_POSITIONS (crystal)
Cr1      0.166666667   0.166666667   0.413381306    0   0   0
Cr1      0.666666667   0.166666667   0.413381306    0   0   0
Cr1      0.166666667   0.666666667   0.413381306    0   0   0
Cr1      0.666666667   0.666666667   0.413381306    0   0   0
Cr1      0.833333333   0.333333333   0.500000000    0   0   0
Cr1      0.333333333   0.333333333   0.500000000    0   0   0
Cr1      0.833333333   0.833333333   0.500000000    0   0   0
Cr1      0.333333333   0.833333333   0.500000000    0   0   0
Cr1     -0.008345573  -0.008345602   0.590206760
Cr1      0.516697818  -0.008342368   0.590205912
Cr1     -0.008338200   0.516677401   0.590207486
Cr1      0.499998849   0.500006644   0.570971804
S1       0.166678128   0.166651698   0.658397077
H1       0.166667855   0.166665507   0.715321548
End final coordinates

     Writing output data file calc.save

     General routines

     Parallel routines

   This run was terminated on:   2:31: 6  17Apr2018

   JOB DONE.
Job  /afs/slac/g/suncat/bin/suncat-tsmpirun -x LD_LIBRARY_PATH -wdir /scratch/qe159191_RJmYM pw.x -npool 4 -in pw.inp

TID   HOST_NAME   COMMAND_LINE            STATUS            TERMINATION_TIME
00000 suncat0043 pw.x -npool 4 -i  Done                     04/17/2018 02:31:06
00001 suncat0043 pw.x -npool 4 -i  Done                     04/17/2018 02:31:06
00002 suncat0043 pw.x -npool 4 -i  Done                     04/17/2018 02:31:06
00003 suncat0043 pw.x -npool 4 -i  Done                     04/17/2018 02:31:06
00004 suncat0043 pw.x -npool 4 -i  Done                     04/17/2018 02:31:06
00005 suncat0043 pw.x -npool 4 -i  Done                     04/17/2018 02:31:06
00006 suncat0043 pw.x -npool 4 -i  Done                     04/17/2018 02:31:06
00007 suncat0043 pw.x -npool 4 -i  Done                     04/17/2018 02:31:06
00008 suncat0035 pw.x -npool 4 -i  Done                     04/17/2018 02:31:06
00009 suncat0035 pw.x -npool 4 -i  Done                     04/17/2018 02:31:06
00010 suncat0035 pw.x -npool 4 -i  Done                     04/17/2018 02:31:06
00011 suncat0035 pw.x -npool 4 -i  Done                     04/17/2018 02:31:06
00012 suncat0035 pw.x -npool 4 -i  Done                     04/17/2018 02:31:06
00013 suncat0035 pw.x -npool 4 -i  Done                     04/17/2018 02:31:06
00014 suncat0035 pw.x -npool 4 -i  Done                     04/17/2018 02:31:06
00015 suncat0035 pw.x -npool 4 -i  Done                     04/17/2018 02:31:06
00016 suncat0002 pw.x -npool 4 -i  Done                     04/17/2018 02:31:06
00017 suncat0002 pw.x -npool 4 -i  Done                     04/17/2018 02:31:06
00018 suncat0002 pw.x -npool 4 -i  Done                     04/17/2018 02:31:06
00019 suncat0002 pw.x -npool 4 -i  Done                     04/17/2018 02:31:06
00020 suncat0002 pw.x -npool 4 -i  Done                     04/17/2018 02:31:06
00021 suncat0002 pw.x -npool 4 -i  Done                     04/17/2018 02:31:06
00022 suncat0002 pw.x -npool 4 -i  Done                     04/17/2018 02:31:06
00023 suncat0002 pw.x -npool 4 -i  Done                     04/17/2018 02:31:06
00024 suncat0283 pw.x -npool 4 -i  Done                     04/17/2018 02:31:06
00025 suncat0283 pw.x -npool 4 -i  Done                     04/17/2018 02:31:06
00026 suncat0283 pw.x -npool 4 -i  Done                     04/17/2018 02:31:06
00027 suncat0283 pw.x -npool 4 -i  Done                     04/17/2018 02:31:06
00028 suncat0283 pw.x -npool 4 -i  Done                     04/17/2018 02:31:06
00029 suncat0283 pw.x -npool 4 -i  Done                     04/17/2018 02:31:06
00030 suncat0283 pw.x -npool 4 -i  Done                     04/17/2018 02:31:06
00031 suncat0283 pw.x -npool 4 -i  Done                     04/17/2018 02:31:06