     Program PWSCF v.5.1rc2 (svn rev. 11289) starts on  3May2018 at  9:12:24

     Current dimensions of program PWSCF are:
     Max number of different atomic species (ntypx) = 10
     Max number of k-points (npk) =  40000
     Max angular momentum in pseudopotentials (lmaxx) =  3
     Presently stress not available with electric field

     IMPORTANT: XC functional enforced from input :
     Exchange-correlation      = BEEF-VDW ( 1  4 27 13 2)
     Any further DFT definition will be discarded
     Please, verify this is what you really want

     Subspace diagonalization in iterative solution of the eigenvalue problem:
     a serial algorithm will be used

     bravais-lattice index     =            0
     lattice parameter (alat)  =       1.8897  a.u.
     unit-cell volume          =    5182.3421 (a.u.)^3
     number of atoms/cell      =           13
     number of atomic types    =            2
     number of electrons       =       157.00
     number of Kohn-Sham states=           88
     kinetic-energy cutoff     =      36.7493  Ry
     charge density cutoff     =     367.4932  Ry
     convergence threshold     =      1.0E-05
     mixing beta               =       0.3000
     number of iterations used =           10  plain     mixing
     Exchange-correlation      = BEEF-VDW ( 1  4 27 13 2)
     nstep                     =           50

     celldm(1)=   1.889726  celldm(2)=   0.000000  celldm(3)=   0.000000
     celldm(4)=   0.000000  celldm(5)=   0.000000  celldm(6)=   0.000000

     crystal axes: (cart. coord. in units of alat)
               a(1) = (   5.970602   0.000000   0.000000 )
               a(2) = (   2.985301   5.170693   0.000000 )
               a(3) = (   0.000000   0.000000  24.874976 )

     reciprocal axes: (cart. coord. in units 2 pi/alat)
               b(1) = (  0.167487 -0.096699  0.000000 )
               b(2) = (  0.000000  0.193398  0.000000 )
               b(3) = (  0.000000  0.000000  0.040201 )

     PseudoPot. # 1 for Nb read from file:
     /u/if/mamunm/psp/gbrv1.5pbe/Nb.UPF
     MD5 check sum: 573aab8a2fa660278ed4a62cd769473f
     Pseudo is Ultrasoft + core correction, Zval = 13.0
     Generated by new atomic code, or converted to UPF format
     Using radial grid of  887 points,  6 beta functions with:
                l(1) =   0
                l(2) =   0
                l(3) =   1
                l(4) =   1
                l(5) =   2
                l(6) =   2
     Q(r) pseudized with  6 coefficients,  rinner =    1.000   1.000   1.000
                                                       1.000   1.000

     PseudoPot. # 2 for H  read from file:
     /u/if/mamunm/psp/gbrv1.5pbe/H.UPF
     MD5 check sum: 761ae9a214b05c3daf00ab9f6b793d6f
     Pseudo is Ultrasoft, Zval =  1.0
     Generated by new atomic code, or converted to UPF format
     Using radial grid of  615 points,  2 beta functions with:
                l(1) =   0
                l(2) =   0
     Q(r) pseudized with  8 coefficients,  rinner =    0.700

     vdW kernel table read from file vdW_kernel_table
     MD5 check sum: 095c7af220d748ca6e76c0b4c6cfb241

     atomic species   valence    mass     pseudopotential
        Nb1           13.00    92.90637     Nb( 1.00)
        H1             1.00     1.00800     H ( 1.00)

     No symmetry found

   Cartesian axes

     site n.     atom                  positions (alat units)
         1           Nb1 tau(   1) = (   1.4926504   0.8617821  10.0000000  )
         2           Nb1 tau(   2) = (   4.4779512   0.8617821  10.0000000  )
         3           Nb1 tau(   3) = (   2.9853008   3.4471284  10.0000000  )
         4           Nb1 tau(   4) = (   5.9706016   3.4471284  10.0000000  )
         5           Nb1 tau(   5) = (   5.9706016   1.7235642  12.4374879  )
         6           Nb1 tau(   6) = (   2.9853008   1.7235642  12.4374879  )
         7           Nb1 tau(   7) = (   7.4632520   4.3089105  12.4374879  )
         8           Nb1 tau(   8) = (   4.4779512   4.3089105  12.4374879  )
         9           Nb1 tau(   9) = (   0.0000000   0.0000000  14.8749758  )
        10           Nb1 tau(  10) = (   2.9853008   0.0000000  14.8749758  )
        11           Nb1 tau(  11) = (   1.4926504   2.5853463  14.8749758  )
        12           Nb1 tau(  12) = (   4.4779512   2.5853463  14.8749758  )
        13           H1  tau(  13) = (   2.9853008   1.7235642  16.1424758  )

     number of k points=    20  Fermi-Dirac smearing, width (Ry)=  0.0110
                       cart. coord. in units 2pi/alat
        k(    1) = (   0.0000000   0.0000000   0.0000000), wk =   0.0555556
        k(    2) = (   0.0000000   0.0322329   0.0000000), wk =   0.1111111
        k(    3) = (   0.0000000   0.0644659   0.0000000), wk =   0.1111111
        k(    4) = (   0.0000000  -0.0966988   0.0000000), wk =   0.0555556
        k(    5) = (   0.0279146  -0.0161165   0.0000000), wk =   0.1111111
        k(    6) = (   0.0279146   0.0161165   0.0000000), wk =   0.1111111
        k(    7) = (   0.0279146   0.0483494   0.0000000), wk =   0.1111111
        k(    8) = (   0.0279146  -0.1128153   0.0000000), wk =   0.1111111
        k(    9) = (   0.0279146  -0.0805824   0.0000000), wk =   0.1111111
        k(   10) = (   0.0279146  -0.0483494   0.0000000), wk =   0.1111111
        k(   11) = (   0.0558291  -0.0322329   0.0000000), wk =   0.1111111
        k(   12) = (   0.0558291   0.0000000   0.0000000), wk =   0.1111111
        k(   13) = (   0.0558291   0.0322329   0.0000000), wk =   0.1111111
        k(   14) = (   0.0558291  -0.1289318   0.0000000), wk =   0.1111111
        k(   15) = (   0.0558291  -0.0966988   0.0000000), wk =   0.1111111
        k(   16) = (   0.0558291  -0.0644659   0.0000000), wk =   0.1111111
        k(   17) = (  -0.0837437   0.0483494   0.0000000), wk =   0.0555556
        k(   18) = (  -0.0837437   0.0805824   0.0000000), wk =   0.1111111
        k(   19) = (  -0.0837437   0.1128153   0.0000000), wk =   0.1111111
        k(   20) = (  -0.0837437  -0.0483494   0.0000000), wk =   0.0555556

     Largest allocated arrays     est. size (Mb)     dimensions
     Largest temporary arrays     est. size (Mb)     dimensions

     Initial potential from superposition of free atoms
     Check: negative starting charge=   -0.005246

     starting charge  156.96719, renormalised to  157.00000

     negative rho (up, down):  5.247E-03 0.000E+00

     *
     * You are using vdW-DF for exchange-correlation in this calculation.
     * Please cite the following three references that made this development
     * possible:
     *
     *   M. Dion, H. Rydberg, E. Schroder, D. C. Langreth, and
     *   B. I. Lundqvist, Phys. Rev. Lett. 92, 246401 (2004).
     *
     *   T. Thonhauser, V. R. Cooper, S. Li, A. Puzder, P. Hyldgaard, and
     *   D. C. Langreth, Phys. Rev. B 76, 125112 (2007).
     *
     *   G. Roman-Perez and J. M. Soler, Phys. Rev. Lett. 103, 096102 (2009).
     *
     *
     * If you are using vdW-DF2, please also cite:
     *
     *   K. Lee, E. D. Murray, L. Kong, B. I. Lundqvist, and
     *   D. C. Langreth, Phys. Rev. B 82, 081101(R) (2010).
     *
     *
     * If you are calculating the stress with vdW-DF, please also cite:
     *
     *   R. Sabatini, E. Kucukbenli, B. Kolb, T. Thonhauser, and
     *   S. de Gironcoli, J. Phys.: Condens. Matter 24, 424209 (2012).
     *

     Carrying out vdW-DF run using the following parameters:

     Nqs =      20    Nr_points =    1024   r_max =   100.000
     q_mesh =
               0.00001000     0.04494208     0.09755937     0.15916263
               0.23128650     0.31572767     0.41458969     0.53033537
               0.66584808     0.82450364     1.01025438     1.22772762
               1.48234092     1.78043706     2.12944203     2.53805004
               3.01644009     3.57652955     4.23227104     5.00000000

     Gradients computed in reciprocal space

     Adding external electric field

     Computed dipole along edir(3) :
        Dipole               -0.0014 Ry au,         -0.0036 Debye
        Dipole field         -0.0000 Ry au

        Potential amp.        0.0003 Ry
        Total length         45.8317 bohr

     Starting wfc are  157 randomized atomic wfcs

     Self-consistent Calculation

     iteration #  1     ecut=    36.75 Ry     beta=0.30
     Davidson diagonalization with overlap
     ethr =  1.00E-02,  avg # of iterations =  2.0

[...]

     total energy              =   -1421.40335425 Ry
     Harris-Foulkes estimate   =   -1423.86213660 Ry
     estimated scf accuracy    <       5.44665683 Ry

[...]

     End of self-consistent calculation

          k = 0.0000 0.0000 0.0000 ( 19435 PWs)   bands (ev):

   -53.2845 -53.2297 -53.1455 -53.1454 -53.1297 -53.1236 -53.0955 -53.0945
   -53.0944 -53.0449 -53.0363 -53.0362 -29.7277 -29.7073 -29.7072 -29.6604
   -29.6461 -29.6380 -29.6380 -29.5933 -29.5837 -29.5836 -29.3246 -29.2010
   -29.2009 -29.1950 -29.1389 -29.1337 -29.1336 -29.0167 -29.0167 -29.0082
   -28.9360 -28.9359 -28.9297 -28.9202 -28.9130 -28.9129 -28.8500 -28.8272
   -28.8271 -28.8238 -28.7758 -28.7758 -28.7284 -28.7284 -28.6603 -28.6603
    -3.9083  -3.1090  -2.0737  -1.7706  -1.6620  -1.6620  -1.4297  -1.3600
    -1.3600  -1.1958  -0.9788  -0.9714  -0.9713  -0.8779  -0.8779  -0.4342
     0.2206   0.2206   0.6112   1.1740   1.2829   1.2829   1.5214   1.6443
     1.9827   1.9827   2.2224   2.2224   2.2247   2.2308   2.2308   2.3124
     2.3124   2.3243   2.3695   2.3695   2.3821   2.9163   3.1228   3.1228

[...]

          k =-0.0837 0.0483 0.0000 ( 19524 PWs)   bands (ev):

[...]

     the Fermi energy is     1.8950 ev

!    total energy              =   -1423.36614124 Ry
     Harris-Foulkes estimate   =   -1423.36615067 Ry
     estimated scf accuracy    <       0.00000834 Ry

     The total energy is the sum of the following terms:

     one-electron contribution =  -11456.40569758 Ry
     hartree contribution      =    5720.25364852 Ry
     xc contribution           =    -228.89914233 Ry
     ewald contribution        =    4541.80516468 Ry
     electric field correction =       0.00000007 Ry
     smearing contrib. (-TS)   =      -0.12011461 Ry

     convergence has been achieved in  16 iterations

 BEEF-vdW xc energy contributions
           1 :   -196.281416766336
           2 :    178.497095040918
           3 :   -148.167546083199
           4 :    113.434692321353
           5 :   -82.1533952762298
           6 :    59.2327717078177
           7 :   -45.5753878199351
           8 :    38.7454420502554
           9 :   -34.7995885143474
          10 :    30.2764007838000
          11 :   -23.5022491101418
          12 :    14.8085362237031
          13 :   -5.82392430378982
          14 :   -1.66194049740506
          15 :    6.65594155414470
          16 :   -9.33683293432381
          17 :    10.7606777826895
          18 :   -12.1548362868770
          19 :    14.2145277061778
          20 :   -16.7810959958427
          21 :    19.0275319686800
          22 :   -20.0001971860571
          23 :    19.1799178213698
          24 :   -16.7595889450426
          25 :    13.5185074932815
          26 :   -10.4099148841407
          27 :    8.10764748430557
          28 :   -6.75180762931296
          29 :    5.99431885126063
          30 :   -5.28686658143920
          31 :   -22.6250386342509
          32 :   -17.0971857001350

     Forces acting on atoms (Ry/au):

     negative rho (up, down):  4.870E-03 0.000E+00
     atom    1 type  1   force =     0.00012546    0.00007237   -0.00347673
     atom    2 type  1   force =    -0.00012701    0.00007554   -0.00349817
     atom    3 type  1   force =     0.00000533   -0.00014719   -0.00348610
     atom    4 type  1   force =    -0.00000530    0.00000139   -0.00414590
     atom    5 type  1   force =    -0.00000151   -0.00145579   -0.00156562
     atom    6 type  1   force =     0.00000180   -0.00000065   -0.00285438
     atom    7 type  1   force =     0.00126020    0.00072901   -0.00157281
     atom    8 type  1   force =    -0.00126066    0.00072719   -0.00156497
     atom    9 type  1   force =     0.00000596   -0.00000107   -0.00481894
     atom   10 type  1   force =    -0.00000277   -0.00037745    0.01641815
     atom   11 type  1   force =    -0.00032520    0.00018744    0.01641814
     atom   12 type  1   force =     0.00032369    0.00018914    0.01641958
     atom   13 type  2   force =    -0.00000001    0.00000005   -0.02227225

     Total force =     0.036447     Total SCF correction =     0.008569
     SCF correction compared to forces is large: reduce conv_thr to get better values

     entering subroutine stress ...

     negative rho (up, down):  4.870E-03 0.000E+00
          total   stress  (Ry/bohr**3)                   (kbar)     P=  -21.51
  -0.00023125   0.00000000   0.00000000        -34.02      0.00      0.00
   0.00000000  -0.00023126  -0.00000000          0.00    -34.02     -0.00
   0.00000000  -0.00000000   0.00002381          0.00     -0.00      3.50

     BFGS Geometry Optimization

     number of scf cycles    =   1
     number of bfgs steps    =   0

     energy   new            =   -1423.3661412432 Ry

     new trust radius        =       0.0222722503 bohr
     new conv_thr            =       0.0000099958 Ry

ATOMIC_POSITIONS (crystal)
Nb1      0.166666667   0.166666667   0.402010442    0   0   0
Nb1      0.666666667   0.166666667   0.402010442    0   0   0
Nb1      0.166666667   0.666666667   0.402010442    0   0   0
Nb1      0.666666667   0.666666667   0.402010442    0   0   0
Nb1      0.833333333   0.333333333   0.500000000    0   0   0
Nb1      0.333333333   0.333333333   0.500000000    0   0   0
Nb1      0.833333333   0.833333333   0.500000000    0   0   0
Nb1      0.333333333   0.833333333   0.500000000    0   0   0
Nb1      0.000000583  -0.000000109   0.597887042
Nb1      0.500019069  -0.000038628   0.598338829
Nb1     -0.000038414   0.500019183   0.598338829
Nb1      0.500019010   0.500019357   0.598338860
H1       0.333333329   0.333333339   0.648470573

     Writing output data file calc.save
     Check: negative starting charge=   -0.005246
     NEW-OLD atomic charge density approx. for the potential
     Check: negative starting charge=   -0.005237

[...]

     energy   old            =   -1423.3661412432 Ry
     energy   new            =   -1423.3673829247 Ry

     CASE: energy  _new < energy  _old

     WARNING: bfgs curvature condition failed, Theta= 0.926
     new trust radius        =       0.0244994754 bohr
     new conv_thr            =       0.0000001000 Ry

[...]

     Total force =     0.026306     Total SCF correction =     0.001271

[...]

     Threshold (ethr) on eigenvalues was too large:
     Diagonalizing with lowered threshold

     Davidson diagonalization with overlap
     ethr =  3.59E-08,  avg # of iterations =  5.3

[...]

     Total force =     0.004988     Total SCF correction =     0.000260

[...]

     Threshold (ethr) on eigenvalues was too large:
     Diagonalizing with lowered threshold

     Davidson diagonalization with overlap
     ethr =  8.05E-08,  avg # of iterations =  3.6

[...]

     number of scf cycles    =  12
     number of bfgs steps    =  11

     energy   old            =   -1423.3717659637 Ry
     energy   new            =   -1423.3717966481 Ry

     CASE: energy  _new < energy  _old

     new trust radius        =       0.0220857654 bohr
     new conv_thr            =       0.0000001000 Ry

ATOMIC_POSITIONS (crystal)
Nb1      0.166666667   0.166666667   0.402010442    0   0   0
Nb1      0.666666667   0.166666667   0.402010442    0   0   0
Nb1      0.166666667   0.666666667   0.402010442    0   0   0
Nb1      0.666666667   0.666666667   0.402010442    0   0   0
Nb1      0.833333333   0.333333333   0.500000000    0   0   0
Nb1      0.333333333   0.333333333   0.500000000    0   0   0
Nb1      0.833333333   0.833333333   0.500000000    0   0   0
Nb1      0.333333333   0.833333333   0.500000000    0   0   0
Nb1      0.000000578   0.000000750   0.593633148
Nb1      0.502314789  -0.004626885   0.600283957
Nb1     -0.004626930   0.502314376   0.600283848
Nb1      0.502312778   0.502311675   0.600283880
H1       0.333333281   0.333333533   0.644073024

     Writing output data file calc.save
     Check: negative starting charge=   -0.005241
     NEW-OLD atomic charge density approx. for the potential
     Check: negative starting charge=   -0.005235

[...]

     Self-consistent Calculation

[...]

     total energy              =   -1423.37184119 Ry
     Harris-Foulkes estimate   =   -1423.37184129 Ry
     estimated scf accuracy    <       0.00000079 Ry

     iteration #  9     ecut=    36.75 Ry     beta=0.30
     Davidson diagonalization with overlap
     ethr =  5.01E-10,  avg # of iterations =  3.2

[...]

     negative rho (up, down):  4.853E-03 0.000E+00

     Adding external electric field

     Computed dipole along edir(3) :
        Dipole               -0.0088 Ry au,         -0.0223 Debye
        Dipole field         -0.0000 Ry au

        Potential amp.        0.0019 Ry
        Total length         45.8317 bohr

     End of self-consistent calculation

[...]

          k = 0.0558-0.0645 0.0000 ( 19505 PWs)   bands (ev):

[...]

          k =-0.0837-0.0483 0.0000 ( 19524 PWs)   bands (ev):

   -53.2147 -53.1946 -53.1550 -53.1514 -53.1436 -53.0998 -53.0882 -53.0794
   -53.0760 -53.0540 -53.0260 -53.0215 -29.5329 -29.5306 -29.5190 -29.5076
   -29.5041 -29.5030 -29.4249 -29.3994 -29.3579 -29.3559 -29.3054 -29.2971
   -29.2192 -29.1885 -29.1648 -29.1463 -29.1258 -29.1254 -29.1111 -29.0961
   -29.0452 -29.0312 -29.0239 -29.0116 -28.9961 -28.9847 -28.8957 -28.8827
   -28.8734 -28.8614 -28.8274 -28.8263 -28.8036 -28.7898 -28.7369 -28.7175
    -3.3465  -2.0355  -1.9221  -1.0817  -0.9146  -0.6921  -0.6862  -0.6025
    -0.5955  -0.5182  -0.3031   0.0163   0.0494   0.1329   0.1877   0.2011
     0.3558   0.6215   0.7400   0.7756   0.7790   0.8393   0.8576   1.2016
     1.2782   1.3669   1.4560   1.5409   1.5542   1.6131   1.6470   1.6940
     1.8154   1.9950   2.0190   2.0768   2.1192   2.1763   2.7324   2.8327

     the Fermi energy is     1.9105 ev

!    total energy              =   -1423.37184123 Ry
     Harris-Foulkes estimate   =   -1423.37184125 Ry
     estimated scf accuracy    <       0.00000007 Ry

     The total energy is the sum of the following terms:

     one-electron contribution =  -11435.42212800 Ry
     hartree contribution      =    5709.79212558 Ry
     xc contribution           =    -228.90658879 Ry
     ewald contribution        =    4531.28321472 Ry
     electric field correction =       0.00000019 Ry
     smearing contrib. (-TS)   =      -0.11846493 Ry

     convergence has been achieved in   9 iterations

 BEEF-vdW xc energy contributions
           1 :   -196.288692800721
           2 :    178.500001216877
           3 :   -148.160428599346
           4 :    113.413781554553
           5 :   -82.1197743642099
           6 :    59.1897851876961
           7 :   -45.5244410912194
           8 :    38.6858302900485
           9 :   -34.7311690225068
          10 :    30.2019042151378
          11 :   -23.4284238392020
          12 :    14.7439697844906
          13 :   -5.77337223741611
          14 :   -1.70095777073459
          15 :    6.69139085844506
          16 :   -9.37797144891314
          17 :    10.8140456357891
          18 :   -12.2209480399358
          19 :    14.2864642101810
          20 :   -16.8465229814225
          21 :    19.0743641501490
          22 :   -20.0236778625084
          23 :    19.1861589134689
          24 :   -16.7634088541131
          25 :    13.5359159499000
          26 :   -10.4495668275426
          27 :    8.16694069330853
          28 :   -6.81982607917186
          29 :    6.05994706114254
          30 :   -5.34576564662527
          31 :   -22.6253789915838
          32 :   -17.0958242069929

     Forces acting on atoms (Ry/au):

     negative rho (up, down):  4.853E-03 0.000E+00
     atom    1 type  1   force =     0.00130578    0.00075539   -0.00374607
     atom    2 type  1   force =    -0.00130280    0.00075308   -0.00374792
     atom    3 type  1   force =    -0.00000035   -0.00150457   -0.00374862
     atom    4 type  1   force =    -0.00000003   -0.00000156   -0.00361098
     atom    5 type  1   force =    -0.00000034    0.00622986   -0.00042336
     atom    6 type  1   force =    -0.00000021   -0.00000094    0.01514407
     atom    7 type  1   force =    -0.00539553   -0.00311434   -0.00042467
     atom    8 type  1   force =     0.00539596   -0.00311538   -0.00042183
     atom    9 type  1   force =     0.00000117    0.00000227   -0.00085157
     atom   10 type  1   force =    -0.00000079    0.00162751    0.00048651
     atom   11 type  1   force =     0.00140742   -0.00081524    0.00048577
     atom   12 type  1   force =    -0.00140788   -0.00081457    0.00048715
     atom   13 type  2   force =    -0.00000239   -0.00000151    0.00037150

     Total force =     0.003084     Total SCF correction =     0.000495
     SCF correction compared to forces is large: reduce conv_thr to get better values

     entering subroutine stress ...

     negative rho (up, down):  4.853E-03 0.000E+00
          total   stress  (Ry/bohr**3)                   (kbar)     P=  -21.84
  -0.00022865   0.00000000  -0.00000000        -33.64      0.00     -0.00
   0.00000000  -0.00022865  -0.00000000          0.00    -33.64     -0.00
  -0.00000000  -0.00000000   0.00001196         -0.00     -0.00      1.76

     bfgs converged in  13 scf cycles and  12 bfgs steps
     (criteria: energy <  1.0E+00, force <  1.9E-03)

     End of BFGS Geometry Optimization

     Final energy   =   -1423.3718412322 Ry
Begin final coordinates

ATOMIC_POSITIONS (crystal)
Nb1      0.166666667   0.166666667   0.402010442    0   0   0
Nb1      0.666666667   0.166666667   0.402010442    0   0   0
Nb1      0.166666667   0.666666667   0.402010442    0   0   0
Nb1      0.666666667   0.666666667   0.402010442    0   0   0
Nb1      0.833333333   0.333333333   0.500000000    0   0   0
Nb1      0.333333333   0.333333333   0.500000000    0   0   0
Nb1      0.833333333   0.833333333   0.500000000    0   0   0
Nb1      0.333333333   0.833333333   0.500000000    0   0   0
Nb1      0.000000578   0.000000750   0.593633148
Nb1      0.502314789  -0.004626885   0.600283957
Nb1     -0.004626930   0.502314376   0.600283848
Nb1      0.502312778   0.502311675   0.600283880
H1       0.333333281   0.333333533   0.644073024
End final coordinates

     Writing output data file calc.save

     General routines

     Parallel routines

   This run was terminated on:  10:30:31   3May2018

   JOB DONE.
Job  /afs/slac/g/suncat/bin/suncat-tsmpirun -x LD_LIBRARY_PATH -wdir /scratch/qe700019_cHtBm pw.x -npool 4 -in pw.inp

TID   HOST_NAME   COMMAND_LINE            STATUS            TERMINATION_TIME
00000 suncat0123 pw.x -npool 4 -i  Done                     05/03/2018 10:30:31
00001 suncat0123 pw.x -npool 4 -i  Done                     05/03/2018 10:30:31
00002 suncat0123 pw.x -npool 4 -i  Done                     05/03/2018 10:30:31
00003 suncat0123 pw.x -npool 4 -i  Done                     05/03/2018 10:30:31
00004 suncat0123 pw.x -npool 4 -i  Done                     05/03/2018 10:30:31
00005 suncat0123 pw.x -npool 4 -i  Done                     05/03/2018 10:30:31
00006 suncat0123 pw.x -npool 4 -i  Done                     05/03/2018 10:30:31
00007 suncat0123 pw.x -npool 4 -i  Done                     05/03/2018 10:30:31
00008 suncat0121 pw.x -npool 4 -i  Done                     05/03/2018 10:30:31
00009 suncat0121 pw.x -npool 4 -i  Done                     05/03/2018 10:30:31
00010 suncat0121 pw.x -npool 4 -i  Done                     05/03/2018 10:30:31
00011 suncat0121 pw.x -npool 4 -i  Done                     05/03/2018 10:30:31
00012 suncat0121 pw.x -npool 4 -i  Done                     05/03/2018 10:30:31
00013 suncat0121 pw.x -npool 4 -i  Done                     05/03/2018 10:30:31
00014 suncat0121 pw.x -npool 4 -i  Done                     05/03/2018 10:30:31
00015 suncat0121 pw.x -npool 4 -i  Done                     05/03/2018 10:30:31
00016 suncat0105 pw.x -npool 4 -i  Done                     05/03/2018 10:30:31
00017 suncat0105 pw.x -npool 4 -i  Done                     05/03/2018 10:30:31
00018 suncat0105 pw.x -npool 4 -i  Done                     05/03/2018 10:30:31
00019 suncat0105 pw.x -npool 4 -i  Done                     05/03/2018 10:30:31
00020 suncat0105 pw.x -npool 4 -i  Done                     05/03/2018 10:30:31
00021 suncat0105 pw.x -npool 4 -i  Done                     05/03/2018 10:30:31
00022 suncat0105 pw.x -npool 4 -i  Done                     05/03/2018 10:30:31
00023 suncat0105 pw.x -npool 4 -i  Done                     05/03/2018 10:30:31
00024 suncat0100 pw.x -npool 4 -i  Done                     05/03/2018 10:30:31
00025 suncat0100 pw.x -npool 4 -i  Done                     05/03/2018 10:30:31
00026 suncat0100 pw.x -npool 4 -i  Done                     05/03/2018 10:30:31
00027 suncat0100 pw.x -npool 4 -i  Done                     05/03/2018 10:30:31
00028 suncat0100 pw.x -npool 4 -i  Done                     05/03/2018 10:30:31
00029 suncat0100 pw.x -npool 4 -i  Done                     05/03/2018 10:30:31
00030 suncat0100 pw.x -npool 4 -i  Done                     05/03/2018 10:30:31
00031 suncat0100 pw.x -npool 4 -i  Done                     05/03/2018 10:30:31