     Program PWSCF v.5.1rc2 (svn rev. 11289) starts on  3May2018 at 15:51:48

     Current dimensions of program PWSCF are:
     Max number of different atomic species (ntypx) = 10
     Max number of k-points (npk) =  40000
     Max angular momentum in pseudopotentials (lmaxx) =  3
     Presently stress not available with electric field

     IMPORTANT: XC functional enforced from input :
     Exchange-correlation      = BEEF-VDW ( 1  4 27 13 2)
     Any further DFT definition will be discarded
     Please, verify this is what you really want

     Subspace diagonalization in iterative solution of the eigenvalue problem:
     a serial algorithm will be used

     bravais-lattice index     =            0
     lattice parameter (alat)  =       1.8897  a.u.
     unit-cell volume          =    6024.3322 (a.u.)^3
     number of atoms/cell      =           13
     number of atomic types    =            2
     number of electrons       =       150.00
     number of Kohn-Sham states=           85
     kinetic-energy cutoff     =      36.7493  Ry
     charge density cutoff     =     367.4932  Ry
     convergence threshold     =      1.0E-05
     mixing beta               =       0.3000
     number of iterations used =           10  plain     mixing
     Exchange-correlation      = BEEF-VDW ( 1  4 27 13 2)
     nstep                     =           50

     celldm(1)=   1.889726  celldm(2)=   0.000000  celldm(3)=   0.000000
     celldm(4)=   0.000000  celldm(5)=   0.000000  celldm(6)=   0.000000

     crystal axes: (cart. coord. in units of alat)
               a(1) = (   6.393197   0.000000   0.000000 )
               a(2) = (   3.196599   5.536671   0.000000 )
               a(3) = (   0.000000   0.000000  25.220024 )

     reciprocal axes: (cart. coord. in units 2 pi/alat)
               b(1) = (  0.156416 -0.090307  0.000000 )
               b(2) = (  0.000000  0.180614  0.000000 )
               b(3) = (  0.000000  0.000000  0.039651 )

     PseudoPot. # 1 for Hf read from file:
     /u/if/mamunm/psp/gbrv1.5pbe/Hf.UPF
     MD5 check sum: 8ee9378dfe14276e333edf04c5e4aa26
     Pseudo is Ultrasoft + core correction, Zval = 12.0
     Generated by new atomic code, or converted to UPF format
     Using radial grid of  921 points,  8 beta functions with:
                l(1) =   0
                l(2) =   0
                l(3) =   0
                l(4) =   1
                l(5) =   1
                l(6) =   2
                l(7) =   2
                l(8) =   3
     Q(r) pseudized with  6 coefficients,  rinner =    1.200   1.200   1.200
                                                       1.200   1.200   1.200
                                                       1.200

     PseudoPot. # 2 for O  read from file:
     /u/if/mamunm/psp/gbrv1.5pbe/O.UPF
     MD5 check sum: 734c27235a0248c51dbae37a1fbe46ec
     Pseudo is Ultrasoft + core correction, Zval =  6.0
     Generated by new atomic code, or converted to UPF format
     Using radial grid of  737 points,  5 beta functions with:
                l(1) =   0
                l(2) =   0
                l(3) =   1
                l(4) =   1
                l(5) =   2
     Q(r) pseudized with  8 coefficients,  rinner =    0.900   0.900   0.900
                                                       0.900   0.900

     vdW kernel table read from file vdW_kernel_table
     MD5 check sum: 095c7af220d748ca6e76c0b4c6cfb241

     atomic species   valence    mass     pseudopotential
        Hf1           12.00   178.49000     Hf( 1.00)
        O1             6.00    15.99900     O ( 1.00)

     No symmetry found

   Cartesian axes

     site n.     atom                  positions (alat units)
         1           Hf1 tau(   1) = (   1.5982993   0.9227785  10.0000000  )
         2           Hf1 tau(   2) = (   4.7948978   0.9227785  10.0000000  )
         3           Hf1 tau(   3) = (   3.1965986   3.6911141  10.0000000  )
         4           Hf1 tau(   4) = (   6.3931971   3.6911141  10.0000000  )
         5           Hf1 tau(   5) = (   6.3931971   1.8455570  12.6100118  )
         6           Hf1 tau(   6) = (   3.1965986   1.8455570  12.6100118  )
         7           Hf1 tau(   7) = (   7.9914964   4.6138926  12.6100118  )
         8           Hf1 tau(   8) = (   4.7948978   4.6138926  12.6100118  )
         9           Hf1 tau(   9) = (   0.0000000   0.0000000  15.2200236  )
        10           Hf1 tau(  10) = (   3.1965986   0.0000000  15.2200236  )
        11           Hf1 tau(  11) = (   1.5982993   2.7683356  15.2200236  )
        12           Hf1 tau(  12) = (   4.7948978   2.7683356  15.2200236  )
        13           O1  tau(  13) = (   0.0000000   0.0000000  17.2685236  )

     number of k points=    20  Fermi-Dirac smearing, width (Ry)=  0.0110
                       cart. coord. in units 2pi/alat
        k(    1) = (   0.0000000   0.0000000   0.0000000), wk =   0.0555556
        k(    2) = (   0.0000000   0.0301023   0.0000000), wk =   0.1111111
        k(    3) = (   0.0000000   0.0602046   0.0000000), wk =   0.1111111
        k(    4) = (   0.0000000  -0.0903070   0.0000000), wk =   0.0555556
        k(    5) = (   0.0260694  -0.0150512   0.0000000), wk =   0.1111111
        k(    6) = (   0.0260694   0.0150512   0.0000000), wk =   0.1111111
        k(    7) = (   0.0260694   0.0451535   0.0000000), wk =   0.1111111
        k(    8) = (   0.0260694  -0.1053581   0.0000000), wk =   0.1111111
        k(    9) = (   0.0260694  -0.0752558   0.0000000), wk =   0.1111111
        k(   10) = (   0.0260694  -0.0451535   0.0000000), wk =   0.1111111
        k(   11) = (   0.0521388  -0.0301023   0.0000000), wk =   0.1111111
        k(   12) = (   0.0521388   0.0000000   0.0000000), wk =   0.1111111
        k(   13) = (   0.0521388   0.0301023   0.0000000), wk =   0.1111111
        k(   14) = (   0.0521388  -0.1204093   0.0000000), wk =   0.1111111
        k(   15) = (   0.0521388  -0.0903070   0.0000000), wk =   0.1111111
        k(   16) = (   0.0521388  -0.0602046   0.0000000), wk =   0.1111111
        k(   17) = (  -0.0782081   0.0451535   0.0000000), wk =   0.0555556
        k(   18) = (  -0.0782081   0.0752558   0.0000000), wk =   0.1111111
        k(   19) = (  -0.0782081   0.1053581   0.0000000), wk =   0.1111111
        k(   20) = (  -0.0782081  -0.0451535   0.0000000), wk =   0.0555556

     Largest allocated arrays     est. size (Mb)     dimensions
     Largest temporary arrays     est. size (Mb)     dimensions

     Check: negative/imaginary core charge=   -0.000003    0.000000

     Initial potential from superposition of free atoms
     Check: negative starting charge=   -1.301638

     starting charge  125.99997, renormalised to  150.00000

     negative rho (up, down):  1.550E+00 0.000E+00

     *
     * You are using vdW-DF for exchange-correlation in this calculation.
     * Please cite the following three references that made this development
     * possible:
     *
     *   M. Dion, H. Rydberg, E. Schroder, D. C. Langreth, and
     *   B. I. Lundqvist, Phys. Rev. Lett. 92, 246401 (2004).
     *
     *   T. Thonhauser, V. R. Cooper, S. Li, A. Puzder, P. Hyldgaard, and
     *   D. C. Langreth, Phys. Rev. B 76, 125112 (2007).
     *
     *   G. Roman-Perez and J. M. Soler, Phys. Rev. Lett. 103, 096102 (2009).
     *
     *
     * If you are using vdW-DF2, please also cite:
     *
     *   K. Lee, E. D. Murray, L. Kong, B. I. Lundqvist, and
     *   D. C. Langreth, Phys. Rev. B 82, 081101(R) (2010).
     *
     *
     * If you are calculating the stress with vdW-DF, please also cite:
     *
     *   R. Sabatini, E. Kucukbenli, B. Kolb, T. Thonhauser, and
     *   S. de Gironcoli, J. Phys.: Condens. Matter 24, 424209 (2012).
     *

     Carrying out vdW-DF run using the following parameters:

     Nqs =      20    Nr_points =    1024   r_max =   100.000
     q_mesh =
               0.00001000     0.04494208     0.09755937     0.15916263
               0.23128650     0.31572767     0.41458969     0.53033537
               0.66584808     0.82450364     1.01025438     1.22772762
               1.48234092     1.78043706     2.12944203     2.53805004
               3.01644009     3.57652955     4.23227104     5.00000000

     Gradients computed in reciprocal space

     Adding external electric field

     Computed dipole along edir(3) :
        Dipole              -10.0609 Ry au,        -25.5723 Debye
        Dipole field         -0.0210 Ry au

        Potential amp.        1.9504 Ry
        Total length         46.4675 bohr

     Starting wfc are  160 randomized atomic wfcs

     Self-consistent Calculation

     iteration #  1     ecut=    36.75 Ry     beta=0.30
     Davidson diagonalization with overlap
     ethr =  1.00E-02,  avg # of iterations =  9.6

[...]

     total energy              =   -1275.52616324 Ry
     Harris-Foulkes estimate   =   -1950.83369299 Ry
     estimated scf accuracy    <    1450.83218320 Ry

[...]

     iteration # 28     ecut=    36.75 Ry     beta=0.30
     Davidson diagonalization with overlap
     c_bands:  1 eigenvalues not converged
     ethr =  2.46E-05,  avg # of iterations =  7.5

[...]

     End of self-consistent calculation

          k = 0.0000 0.0000 0.0000 ( 22729 PWs)   bands (ev):

   -61.8537 -61.8283 -61.8276 -61.7040 -61.6739 -61.6611 -61.6602 -61.3102
   -61.2788 -61.2783 -61.2678 -61.1981 -30.5390 -30.5212 -30.5209 -30.5172
   -30.4487 -30.4483 -30.4427 -30.4425 -30.4423 -30.3389 -30.2723 -30.2419
   -30.2412 -30.2193 -30.0707 -30.0703 -30.0585 -30.0398 -30.0395 -30.0339
   -30.0066 -30.0062 -29.9096 -29.9096 -29.8260 -29.7920 -29.7917 -29.7560
   -29.7163 -29.7161 -29.6616 -29.6608 -29.6606 -29.6083 -29.5424 -29.5423
   -15.2738  -5.5851  -4.2699  -2.9840  -2.2013  -2.1321  -2.1321  -1.8875
    -1.8873  -1.8600  -1.5353  -1.4495  -1.4495  -1.2238  -1.2238  -1.1636
    -0.7221  -0.7221  -0.6577  -0.0462   0.1954   0.1954   0.9327   1.1305
     1.2677   1.3613   1.3613   1.4762   1.5908   1.5909   1.6692   1.9384
     2.0409   2.1284   2.1285   2.1864   2.1867

[...]

          k =-0.0782 0.0452 0.0000 ( 22668 PWs)   bands (ev):

[...]

     the Fermi energy is     0.9361 ev

!    total energy              =   -1959.21553802 Ry
     Harris-Foulkes estimate   =   -1959.21556426 Ry
     estimated scf accuracy    <       0.00000208 Ry

     The total energy is the sum of the following terms:

     one-electron contribution =   -8534.75137570 Ry
     hartree contribution      =    4251.26433078 Ry
     xc contribution           =    -935.16326781 Ry
     ewald contribution        =    3259.54662142 Ry
     electric field correction =       0.00045293 Ry
     smearing contrib. (-TS)   =      -0.11229964 Ry

     convergence has been achieved in  35 iterations

 BEEF-vdW xc energy contributions
           1 :   -845.352710643468
           2 :    785.335378712394
           3 :   -679.147866026812
           4 :    548.896151060028
           5 :   -417.278222926977
           6 :    301.265441462535
           7 :   -209.425008884374
           8 :    142.886348486250
           9 :   -98.3784483929917
          10 :    71.1916853387189
          11 :   -56.7607264942333
          12 :    50.7929174312137
          13 :   -48.8658506507145
          14 :    46.4777003132724
          15 :   -39.9308344498013
          16 :    27.5584334026887
          17 :   -10.4453515532086
          18 :   -7.97627304671028
          19 :    23.3769315491679
          20 :   -32.3404756287912
          21 :    33.6341707756874
          22 :   -28.4017826124227
          23 :    19.3593666193785
          24 :   -9.59006456148950
          25 :    1.58692776221142
          26 :    3.12442307724245
          27 :   -3.90394788760750
          28 :   0.798700598782830
          29 :    5.50592919218025
          30 :   -13.6121821734120
          31 :   -60.9027315001836
          32 :   -43.7294918830341

     Forces acting on atoms (Ry/au):

     negative rho (up, down):  1.379E+00 0.000E+00
     atom    1 type  1   force =     0.00106864    0.00065395    0.02606945
     atom    2 type  1   force =    -0.00106658    0.00071277    0.02602271
     atom    3 type  1   force =     0.00005258   -0.00128633    0.02599955
     atom    4 type  1   force =    -0.00004882   -0.00006458    0.02692217
     atom    5 type  1   force =    -0.00000382    0.01231491   -0.01227747
     atom    6 type  1   force =     0.00000185   -0.00003714    0.00027071
     atom    7 type  1   force =    -0.01071439   -0.00614106   -0.01225846
     atom    8 type  1   force =     0.01071274   -0.00613879   -0.01226662
     atom    9 type  1   force =     0.00005781    0.00006289    0.14401079
     atom   10 type  1   force =    -0.00004357   -0.00282281   -0.01860823
     atom   11 type  1   force =    -0.00248705    0.00135585   -0.01860473
     atom   12 type  1   force =     0.00247008    0.00139390   -0.01861165
     atom   13 type  2   force =     0.00000052   -0.00000355   -0.15666822

     Total force =     0.215283     Total SCF correction =     0.003361

     entering subroutine stress ...

     negative rho (up, down):  1.379E+00 0.000E+00
          total   stress  (Ry/bohr**3)                   (kbar)     P=  -26.97
  -0.00014119  -0.00000000   0.00000000        -20.77     -0.00      0.00
  -0.00000000  -0.00014119  -0.00000001         -0.00    -20.77     -0.00
   0.00000000  -0.00000001  -0.00026770          0.00     -0.00    -39.38

     BFGS Geometry Optimization

     number of scf cycles    =   1
     number of bfgs steps    =   0

     energy   new            =   -1959.2155380222 Ry

     new trust radius        =       0.1566682157 bohr
     new conv_thr            =       0.0000099958 Ry

ATOMIC_POSITIONS (crystal)
Hf1      0.166666667   0.166666667   0.396510335    0   0   0
Hf1      0.666666667   0.166666667   0.396510335    0   0   0
Hf1      0.166666667   0.666666667   0.396510335    0   0   0
Hf1      0.666666667   0.666666667   0.396510335    0   0   0
Hf1      0.833333333   0.333333333   0.500000000    0   0   0
Hf1      0.333333333   0.333333333   0.500000000    0   0   0
Hf1      0.833333333   0.833333333   0.500000000    0   0   0
Hf1      0.333333333   0.833333333   0.500000000    0   0   0
Hf1      0.000001779   0.000006011   0.606511361
Hf1      0.500131291  -0.000269795   0.603099219
Hf1     -0.000270652   0.500129588   0.603099293
Hf1      0.500137841   0.500133224   0.603099148
O1       0.000000212  -0.000000339   0.681427528

     Writing output data file calc.save
     Check: negative starting charge=   -1.301638
     NEW-OLD atomic charge density approx. for the potential

     Check: negative/imaginary core charge=   -0.000003    0.000000
     Check: negative starting charge=   -1.301305

[...]

     energy   old            =   -1959.2155380222 Ry
     energy   new            =   -1959.2502695896 Ry

     CASE: energy  _new < energy  _old

[...]

     WARNING: bfgs curvature condition failed, Theta= 0.884
     new trust radius        =       0.0285495557 bohr
     new conv_thr            =       0.0000001000 Ry

[...]

     iteration #  1     ecut=    36.75 Ry     beta=0.30
     Davidson diagonalization with overlap
     c_bands:  1 eigenvalues not converged
     ethr =  1.00E-06,  avg # of iterations = 17.5

[...]

     Total force =     0.007395     Total SCF correction =     0.000912
     SCF correction compared to forces is large: reduce conv_thr to get better values

[...]

     Total force =     0.005810     Total SCF correction =     0.000358

[...]

     number of scf cycles    =  14
     number of bfgs steps    =  13

     energy   old            =   -1959.2652534081 Ry
     energy   new            =   -1959.2654292517 Ry

     CASE: energy  _new < energy  _old

     new trust radius        =       0.0241077122 bohr
     new conv_thr            =       0.0000001000 Ry

ATOMIC_POSITIONS (crystal)
Hf1      0.166666667   0.166666667   0.396510335    0   0   0
Hf1      0.666666667   0.166666667   0.396510335    0   0   0
Hf1      0.166666667   0.666666667   0.396510335    0   0   0
Hf1      0.666666667   0.666666667   0.396510335    0   0   0
Hf1      0.833333333   0.333333333   0.500000000    0   0   0
Hf1      0.333333333   0.333333333   0.500000000    0   0   0
Hf1      0.833333333   0.833333333   0.500000000    0   0   0
Hf1      0.333333333   0.833333333   0.500000000    0   0   0
Hf1     -0.000005143   0.000005258   0.602617708
Hf1      0.499761242   0.000484807   0.596624809
Hf1      0.000479940   0.499757429   0.596622512
Hf1      0.499764889   0.499752274   0.596622419
O1       0.000000040   0.000000504   0.675000631

     Writing output data file calc.save
     Check: negative starting charge=   -1.301164
     NEW-OLD atomic charge density approx. for the potential

     Check: negative/imaginary core charge=   -0.000003    0.000000
     Check: negative starting charge=   -1.301504

[...]

     Self-consistent Calculation

[...]

     total energy              =   -1959.26547417 Ry
     Harris-Foulkes estimate   =   -1959.26547389 Ry
     estimated scf accuracy    <       0.00000023 Ry

     iteration # 10     ecut=    36.75 Ry     beta=0.30
     Davidson diagonalization with overlap
     ethr =  1.52E-10,  avg # of iterations =  3.1

[...]

     negative rho (up, down):  1.377E+00 0.000E+00

     Adding external electric field

     Computed dipole along edir(3) :
        Dipole               -0.3849 Ry au,         -0.9784 Debye
        Dipole field         -0.0008 Ry au

        Potential amp.        0.0746 Ry
        Total length         46.4675 bohr

     End of self-consistent calculation

[...]

          k = 0.0521-0.0602 0.0000 ( 22643 PWs)   bands (ev):

[...]

          k =-0.0782-0.0452 0.0000 ( 22668 PWs)   bands (ev):

   -61.6185 -61.6041 -61.6005 -61.5924 -61.5918 -61.5870 -61.5830 -61.1212
   -61.1136 -61.1041 -61.0367 -60.7678 -30.3039 -30.2932 -30.2802 -30.2800
   -30.2575 -30.2416 -30.2216 -30.2040 -30.1866 -30.1703 -30.1613 -30.1306
   -30.1082 -30.1043 -30.0986 -30.0687 -30.0627 -30.0585 -29.9009 -29.8936
   -29.8756 -29.8386 -29.7246 -29.7077 -29.6383 -29.6278 -29.6149 -29.5922
   -29.5740 -29.5424 -29.5192 -29.4901 -29.4606 -29.4212 -29.4007 -29.3757
   -15.5682  -3.9564  -3.9413  -2.7457  -2.6604  -1.9789  -1.9727  -1.9283
    -1.6497  -1.5257  -1.3192  -1.2521  -1.0975  -0.9369  -0.1831  -0.1414
    -0.0582  -0.0163   0.1336   0.1794   0.2886   0.4263   0.4991   0.5349
     0.5593   0.6973   0.7255   0.9044   0.9128   0.9913   1.0721   1.2244
     1.3371   1.4017   1.4158   1.4391   1.9075

     the Fermi energy is     1.0124 ev

!    total energy              =   -1959.26547416 Ry
     Harris-Foulkes estimate   =   -1959.26547341 Ry
     estimated scf accuracy    <       0.00000005 Ry

     The total energy is the sum of the following terms:

     one-electron contribution =   -8739.65648571 Ry
     hartree contribution      =    4354.47878378 Ry
     xc contribution           =    -935.59838357 Ry
     ewald contribution        =    3361.62148457 Ry
     electric field correction =       0.00030910 Ry
     smearing contrib. (-TS)   =      -0.11118232 Ry

     convergence has been achieved in  10 iterations

 BEEF-vdW xc energy contributions
           1 :   -845.789494873219
           2 :    785.883750857070
           3 :   -679.795257306065
           4 :    549.492442948978
           5 :   -417.638881913173
           6 :    301.301900579417
           7 :   -209.200245886816
           8 :    142.566297405385
           9 :   -98.1269619242590
          10 :    71.0830699204835
          11 :   -56.7598378560482
          12 :    50.8045419393039
          13 :   -48.8144668425841
          14 :    46.3652046516144
          15 :   -39.8310341751433
          16 :    27.5507411747699
          17 :   -10.5401657504561
          18 :   -7.85868112533092
          19 :    23.3547189018969
          20 :   -32.4828194907785
          21 :    33.9059096947511
          22 :   -28.6824173277606
          23 :    19.5230580776075
          24 :   -9.58819601124844
          25 :    1.47288547220421
          26 :    3.24349587103109
          27 :   -3.94928136794385
          28 :   0.774158988370914
          29 :    5.52644873442068
          30 :   -13.5522881657342
          31 :   -60.9313135446305
          32 :   -43.7746986244669

     Forces acting on atoms (Ry/au):

     negative rho (up, down):  1.377E+00 0.000E+00
     atom    1 type  1   force =     0.00117851    0.00067936    0.02048828
     atom    2 type  1   force =    -0.00117865    0.00068005    0.02048806
     atom    3 type  1   force =     0.00000053   -0.00135996    0.02048901
     atom    4 type  1   force =     0.00000005   -0.00000004    0.02344770
     atom    5 type  1   force =     0.00000006    0.01441276   -0.02413056
     atom    6 type  1   force =    -0.00000019   -0.00000210   -0.01424919
     atom    7 type  1   force =    -0.01248438   -0.00720540   -0.02412230
     atom    8 type  1   force =     0.01248517   -0.00720582   -0.02411805
     atom    9 type  1   force =     0.00000484   -0.00000769   -0.00042294
     atom   10 type  1   force =    -0.00000589   -0.00110526    0.00054465
     atom   11 type  1   force =    -0.00095181    0.00055438    0.00055582
     atom   12 type  1   force =     0.00095101    0.00056084    0.00055666
     atom   13 type  2   force =     0.00000075   -0.00000111    0.00047287

     Total force =     0.002230     Total SCF correction =     0.000432
     SCF correction compared to forces is large: reduce conv_thr to get better values

     entering subroutine stress ...

     negative rho (up, down):  1.377E+00 0.000E+00
          total   stress  (Ry/bohr**3)                   (kbar)     P=  -14.92
  -0.00010523  -0.00000000   0.00000000        -15.48     -0.00      0.00
  -0.00000000  -0.00010523  -0.00000000         -0.00    -15.48     -0.00
   0.00000000  -0.00000000  -0.00009372          0.00     -0.00    -13.79

     bfgs converged in  15 scf cycles and  14 bfgs steps
     (criteria: energy <  1.0E+00, force <  1.9E-03)

     End of BFGS Geometry Optimization

     Final energy   =   -1959.2654741558 Ry
Begin final coordinates

ATOMIC_POSITIONS (crystal)
Hf1      0.166666667   0.166666667   0.396510335    0   0   0
Hf1      0.666666667   0.166666667   0.396510335    0   0   0
Hf1      0.166666667   0.666666667   0.396510335    0   0   0
Hf1      0.666666667   0.666666667   0.396510335    0   0   0
Hf1      0.833333333   0.333333333   0.500000000    0   0   0
Hf1      0.333333333   0.333333333   0.500000000    0   0   0
Hf1      0.833333333   0.833333333   0.500000000    0   0   0
Hf1      0.333333333   0.833333333   0.500000000    0   0   0
Hf1     -0.000005143   0.000005258   0.602617708
Hf1      0.499761242   0.000484807   0.596624809
Hf1      0.000479940   0.499757429   0.596622512
Hf1      0.499764889   0.499752274   0.596622419
O1       0.000000040   0.000000504   0.675000631
End final coordinates

     Writing output data file calc.save

     General routines

     Parallel routines

   This run was terminated on:  19:34:24   3May2018

   JOB DONE.
Job  /afs/slac/g/suncat/bin/suncat-tsmpirun -x LD_LIBRARY_PATH -wdir /scratch/qe790616_T0Mrn pw.x -npool 4 -in pw.inp

TID   HOST_NAME   COMMAND_LINE            STATUS            TERMINATION_TIME
00000 suncat0153 pw.x -npool 4 -i  Done                     05/03/2018 19:34:24
00001 suncat0153 pw.x -npool 4 -i  Done                     05/03/2018 19:34:24
00002 suncat0153 pw.x -npool 4 -i  Done                     05/03/2018 19:34:24
00003 suncat0153 pw.x -npool 4 -i  Done                     05/03/2018 19:34:24
00004 suncat0153 pw.x -npool 4 -i  Done                     05/03/2018 19:34:24
00005 suncat0153 pw.x -npool 4 -i  Done                     05/03/2018 19:34:24
00006 suncat0153 pw.x -npool 4 -i  Done                     05/03/2018 19:34:24
00007 suncat0153 pw.x -npool 4 -i  Done                     05/03/2018 19:34:24
00008 suncat0252 pw.x -npool 4 -i  Done                     05/03/2018 19:34:24
00009 suncat0252 pw.x -npool 4 -i  Done                     05/03/2018 19:34:24
00010 suncat0252 pw.x -npool 4 -i  Done                     05/03/2018 19:34:24
00011 suncat0252 pw.x -npool 4 -i  Done                     05/03/2018 19:34:24
00012 suncat0252 pw.x -npool 4 -i  Done                     05/03/2018 19:34:24
00013 suncat0252 pw.x -npool 4 -i  Done                     05/03/2018 19:34:24
00014 suncat0252 pw.x -npool 4 -i  Done                     05/03/2018 19:34:24
00015 suncat0252 pw.x -npool 4 -i  Done                     05/03/2018 19:34:24
00016 suncat0250 pw.x -npool 4 -i  Done                     05/03/2018 19:34:24
00017 suncat0250 pw.x -npool 4 -i  Done                     05/03/2018 19:34:24
00018 suncat0250 pw.x -npool 4 -i  Done                     05/03/2018 19:34:24
00019 suncat0250 pw.x -npool 4 -i  Done                     05/03/2018 19:34:24
00020 suncat0250 pw.x -npool 4 -i  Done                     05/03/2018 19:34:24
00021 suncat0250 pw.x -npool 4 -i  Done                     05/03/2018 19:34:24
00022 suncat0250 pw.x -npool 4 -i  Done                     05/03/2018 19:34:24
00023 suncat0250 pw.x -npool 4 -i  Done                     05/03/2018 19:34:24
00024 suncat0247 pw.x -npool 4 -i  Done                     05/03/2018 19:34:24
00025 suncat0247 pw.x -npool 4 -i  Done                     05/03/2018 19:34:24
00026 suncat0247 pw.x -npool 4 -i  Done                     05/03/2018 19:34:24
00027 suncat0247 pw.x -npool 4 -i  Done                     05/03/2018 19:34:24
00028 suncat0247 pw.x -npool 4 -i  Done                     05/03/2018 19:34:24
00029 suncat0247 pw.x -npool 4 -i  Done                     05/03/2018 19:34:24
00030 suncat0247 pw.x -npool 4 -i  Done                     05/03/2018 19:34:24
00031 suncat0247 pw.x -npool 4 -i  Done                     05/03/2018 19:34:24