     Program PWSCF v.5.1rc2 (svn rev. ) starts on 17Apr2018 at 23:54:21

     Current dimensions of program PWSCF are:
     Max number of different atomic species (ntypx) = 10
     Max number of k-points (npk) =  40000
     Max angular momentum in pseudopotentials (lmaxx) =  3
     Presently stress not available with electric field

     IMPORTANT: XC functional enforced from input :
     Exchange-correlation      = BEEF-VDW ( 1  4 27 13 2)
     Any further DFT definition will be discarded
     Please, verify this is what you really want

     Subspace diagonalization in iterative solution of the eigenvalue problem:
     a serial algorithm will be used

     bravais-lattice index     =            0
     lattice parameter (alat)  =       1.8897  a.u.
     unit-cell volume          =    5409.9593 (a.u.)^3
     number of atoms/cell      =           14
     number of atomic types    =            3
     number of electrons       =       235.00
     number of Kohn-Sham states=          127
     kinetic-energy cutoff     =      36.7493  Ry
     charge density cutoff     =     367.4932  Ry
     convergence threshold     =      1.0E-05
     mixing beta               =       0.3000
     number of iterations used =           10  plain     mixing
     Exchange-correlation      = BEEF-VDW ( 1  4 27 13 2)
     nstep                     =           50

     celldm(1)=   1.889726  celldm(2)=   0.000000  celldm(3)=   0.000000
     celldm(4)=   0.000000  celldm(5)=   0.000000  celldm(6)=   0.000000

     crystal axes: (cart. coord. in units of alat)
               a(1) = (   6.088539   0.000000   0.000000 )
               a(2) = (   3.044269   5.272829   0.000000 )
               a(3) = (   0.000000   0.000000  24.971271 )

     reciprocal axes: (cart. coord. in units 2 pi/alat)
               b(1) = (  0.164243 -0.094826  0.000000 )
               b(2) = (  0.000000  0.189652  0.000000 )
               b(3) = (  0.000000  0.000000  0.040046 )

     PseudoPot. # 1 for Ga read from file:
     /home/mamunm/src/pseudo/gbrv1.5pbe/Ga.UPF
     MD5 check sum: ccd671392a58a050fbb373893b4fcd66
     Pseudo is Ultrasoft + core correction, Zval = 19.0
     Generated by new atomic code, or converted to UPF format
     Using radial grid of  871 points,  6 beta functions with:
                l(1) =   0
                l(2) =   0
                l(3) =   1
                l(4) =   1
                l(5) =   2
                l(6) =   2
     Q(r) pseudized with  8 coefficients,  rinner =    1.250   1.250   1.250
                                                       1.250   1.250

     PseudoPot. # 2 for S  read from file:
     /home/mamunm/src/pseudo/gbrv1.5pbe/S.UPF
     MD5 check sum: 88d86576ff6df21479756cfb9bdac1df
     Pseudo is Ultrasoft + core correction, Zval =  6.0
     Generated by new atomic code, or converted to UPF format
     Using radial grid of  907 points,  6 beta functions with:
                l(1) =   0
                l(2) =   0
                l(3) =   1
                l(4) =   1
                l(5) =   2
                l(6) =   2
     Q(r) pseudized with  8 coefficients,  rinner =    1.300   1.300   1.300
                                                       1.300   1.300

     PseudoPot. # 3 for H  read from file:
     /home/mamunm/src/pseudo/gbrv1.5pbe/H.UPF
     MD5 check sum: 761ae9a214b05c3daf00ab9f6b793d6f
     Pseudo is Ultrasoft, Zval =  1.0
     Generated by new atomic code, or converted to UPF format
     Using radial grid of  615 points,  2 beta functions with:
                l(1) =   0
                l(2) =   0
     Q(r) pseudized with  8 coefficients,  rinner =    0.700

     vdW kernel table read from file vdW_kernel_table
     MD5 check sum: 095c7af220d748ca6e76c0b4c6cfb241

     atomic species   valence    mass     pseudopotential
        Ga1           19.00    69.72300     Ga( 1.00)
        S1             6.00    32.06000     S ( 1.00)
        H1             1.00     1.00800     H ( 1.00)

     No symmetry found

   Cartesian axes

     site n.     atom                  positions (alat units)
         1           Ga1 tau(   1) = (   1.5221346   0.8788048  10.0000000  )
         2           Ga1 tau(   2) = (   4.5664039   0.8788048  10.0000000  )
         3           Ga1 tau(   3) = (   3.0442693   3.5152194  10.0000000  )
         4           Ga1 tau(   4) = (   6.0885386   3.5152194  10.0000000  )
         5           Ga1 tau(   5) = (   6.0885386   1.7576097  12.4856355  )
         6           Ga1 tau(   6) = (   3.0442693   1.7576097  12.4856355  )
         7           Ga1 tau(   7) = (   7.6106732   4.3940242  12.4856355  )
         8           Ga1 tau(   8) = (   4.5664039   4.3940242  12.4856355  )
         9           Ga1 tau(   9) = (   0.0000000   0.0000000  14.9712709  )
        10           Ga1 tau(  10) = (   3.0442693   0.0000000  14.9712709  )
        11           Ga1 tau(  11) = (   1.5221346   2.6364145  14.9712709  )
        12           Ga1 tau(  12) = (   4.5664039   2.6364145  14.9712709  )
        13           S1  tau(  13) = (   3.0442693   1.7576097  16.4467709  )
        14           H1  tau(  14) = (   3.0442693   1.7576097  17.6967709  )

     number of k points=    20  Fermi-Dirac smearing, width (Ry)=  0.0110
                       cart. coord. in units 2pi/alat
        k(    1) = (   0.0000000   0.0000000   0.0000000), wk =   0.0555556
        k(    2) = (   0.0000000   0.0316086   0.0000000), wk =   0.1111111
        k(    3) = (   0.0000000   0.0632172   0.0000000), wk =   0.1111111
        k(    4) = (   0.0000000  -0.0948258   0.0000000), wk =   0.0555556
        k(    5) = (   0.0273738  -0.0158043   0.0000000), wk =   0.1111111
        k(    6) = (   0.0273738   0.0158043   0.0000000), wk =   0.1111111
        k(    7) = (   0.0273738   0.0474129   0.0000000), wk =   0.1111111
        k(    8) = (   0.0273738  -0.1106300   0.0000000), wk =   0.1111111
        k(    9) = (   0.0273738  -0.0790215   0.0000000), wk =   0.1111111
        k(   10) = (   0.0273738  -0.0474129   0.0000000), wk =   0.1111111
        k(   11) = (   0.0547477  -0.0316086   0.0000000), wk =   0.1111111
        k(   12) = (   0.0547477   0.0000000   0.0000000), wk =   0.1111111
        k(   13) = (   0.0547477   0.0316086   0.0000000), wk =   0.1111111
        k(   14) = (   0.0547477  -0.1264343   0.0000000), wk =   0.1111111
        k(   15) = (   0.0547477  -0.0948258   0.0000000), wk =   0.1111111
        k(   16) = (   0.0547477  -0.0632172   0.0000000), wk =   0.1111111
        k(   17) = (  -0.0821215   0.0474129   0.0000000), wk =   0.0555556
        k(   18) = (  -0.0821215   0.0790215   0.0000000), wk =   0.1111111
        k(   19) = (  -0.0821215   0.1106300   0.0000000), wk =   0.1111111
        k(   20) = (  -0.0821215  -0.0474129   0.0000000), wk =   0.0555556

     Largest allocated arrays     est. size (Mb)     dimensions
     Largest temporary arrays     est. size (Mb)     dimensions

     Initial potential from superposition of free atoms
     Check: negative starting charge=   -0.001082

     starting charge  222.99994, renormalised to  235.00000

     negative rho (up, down):  1.140E-03 0.000E+00

     *
     * You are using vdW-DF for exchange-correlation in this calculation.
     * Please cite the following three references that made this development
     * possible:
     *
     *   M. Dion, H. Rydberg, E. Schroder, D. C. Langreth, and
     *   B. I. Lundqvist, Phys. Rev. Lett. 92, 246401 (2004).
     *
     *   T. Thonhauser, V. R. Cooper, S. Li, A. Puzder, P. Hyldgaard, and
     *   D. C. Langreth, Phys. Rev. B 76, 125112 (2007).
     *
     *   G. Roman-Perez and J. M. Soler, Phys. Rev. Lett. 103, 096102 (2009).
     *
     *
     * If you are using vdW-DF2, please also cite:
     *
     *   K. Lee, E. D. Murray, L. Kong, B. I. Lundqvist, and
     *   D. C. Langreth, Phys. Rev. B 82, 081101(R) (2010).
     *
     *
     * If you are calculating the stress with vdW-DF, please also cite:
     *
     *   R. Sabatini, E. Kucukbenli, B. Kolb, T. Thonhauser, and
     *   S. de Gironcoli, J. Phys.: Condens. Matter 24, 424209 (2012).
     *

     Carrying out vdW-DF run using the following parameters:

     Nqs =      20    Nr_points =    1024   r_max =   100.000
     q_mesh =
               0.00001000     0.04494208     0.09755937     0.15916263
               0.23128650     0.31572767     0.41458969     0.53033537
               0.66584808     0.82450364     1.01025438     1.22772762
               1.48234092     1.78043706     2.12944203     2.53805004
               3.01644009     3.57652955     4.23227104     5.00000000

     Gradients computed in reciprocal space

     Adding external electric field

     Computed dipole along edir(3) :
        Dipole               -2.9464 Ry au,         -7.4890 Debye
        Dipole field         -0.0068 Ry au

        Potential amp.        0.6298 Ry
        Total length         46.0091 bohr

     Starting wfc are  149 randomized atomic wfcs

     Self-consistent Calculation

     iteration #  1     ecut=    36.75 Ry     beta=0.30
     Davidson diagonalization with overlap
     ethr =  1.00E-02,  avg # of iterations =  6.8

[...]

     total energy              =   -4670.81228739 Ry
     Harris-Foulkes estimate   =   -5032.10045780 Ry
     estimated scf accuracy    <     762.07528690 Ry

     iteration #  2     ecut=    36.75 Ry     beta=0.30
     Davidson diagonalization with overlap
     c_bands:  5 eigenvalues not converged
     c_bands:  1 eigenvalues not converged
     c_bands:  1 eigenvalues not converged
     c_bands:  2 eigenvalues not converged
     c_bands:  1 eigenvalues not converged
     c_bands:  1 eigenvalues not converged
     c_bands:  1 eigenvalues not converged
     c_bands:  3 eigenvalues not converged
     ethr =  1.00E-02,  avg # of iterations = 20.0

[...]

     End of self-consistent calculation

          k = 0.0000 0.0000 0.0000 ( 20347 PWs)   bands (ev):

   -94.1806 -94.1796 -94.1796 -94.1560 -94.1554 -94.1554 -94.1526 -94.1526
   -94.1521 -94.0582 -94.0290 -94.0290 -94.0117 -94.0117 -94.0090 -93.9915
   -93.9913 -93.9913 -93.9764 -93.9758 -93.9758 -93.9708 -93.9708 -93.9703
   -93.9698 -93.9694 -93.9694 -93.9687 -93.9682 -93.9682 -93.9664 -93.9654
   -93.9654 -93.9199 -93.8982 -93.8982 -15.7721 -14.6528 -14.6299 -14.6299
   -14.5839 -14.5839 -14.5492 -14.5186 -14.5186 -14.4929 -14.4929 -14.4782
   -14.4754 -14.4723 -14.4723 -14.4665 -14.4665 -14.4342 -14.4282 -14.4282
   -14.4175 -14.4165 -14.4165 -14.4114 -14.3976 -14.3737 -14.3717 -14.3683
   -14.3683 -14.3602 -14.3602 -14.3558 -14.3558 -14.3357 -14.3357 -14.3172
   -14.2846 -14.2846 -14.2721 -14.2721 -14.2670 -14.2643 -14.2399 -14.2399
   -14.2267 -14.2267 -14.2241 -14.2172 -14.2172 -14.2027 -14.1917 -14.1917
   -14.1898 -14.1898 -14.1800 -14.1800 -14.1755 -14.1755 -14.1747 -14.1652
   -14.0888  -9.5767  -8.6890  -7.0478  -5.5511  -5.5511  -5.1436  -4.1346
    -4.1346  -4.0018  -3.6472  -3.4280  -3.4280  -2.5203  -2.0808  -2.0808
    -1.9351  -1.6729  -1.6729  -1.1063  -0.2776  -0.1976  -0.1976   0.6280
     0.6280   0.6500   1.8233   3.0396   3.5543   3.5544   3.5777

[...]

          k =-0.0821 0.0474 0.0000 ( 20384 PWs)   bands (ev):

[...]

     the Fermi energy is     0.7842 ev

!    total energy              =   -5024.57467339 Ry
     Harris-Foulkes estimate   =   -5024.57469479 Ry
     estimated scf accuracy    <       0.00000207 Ry

     The total energy is the sum of the following terms:

     one-electron contribution =  -27662.30279613 Ry
     hartree contribution      =   13841.05124288 Ry
     xc contribution           =    -606.29671700 Ry
     ewald contribution        =    9403.00812139 Ry
     electric field correction =       0.00018859 Ry
     smearing contrib. (-TS)   =      -0.03471312 Ry

     convergence has been achieved in  21 iterations

 BEEF-vdW xc energy contributions
           1 :   -541.683443983291
           2 :    491.606206830114
           3 :   -407.583749375242
           4 :    313.945620803399
           5 :   -232.301869465985
           6 :    173.488642271644
           7 :   -135.967392857554
           8 :    110.491775563452
           9 :   -87.5272239307064
          10 :    62.8315962331845
          11 :   -38.3789274897684
          12 :    19.0459789746781
          13 :   -8.04787427841325
          14 :    4.40358479411975
          15 :   -3.83184736038311
          16 :    1.92200274135632
          17 :    2.97815144230253
          18 :   -9.17887756054074
          19 :    13.5054084459464
          20 :   -13.9803759958569
          21 :    11.2984383532371
          22 :   -8.14784580583193
          23 :    7.08990107546890
          24 :   -8.70147444837164
          25 :    11.3423973047206
          26 :   -12.5994304145906
          27 :    11.2062258243589
          28 :   -7.97151006463105
          29 :    5.08288856854301
          30 :   -4.40651857518890
          31 :   -40.3033504429646
          32 :   -27.3867593883181

     Forces acting on atoms (Ry/au):

     negative rho (up, down):  8.677E-04 0.000E+00
     atom    1 type  1   force =    -0.00210819   -0.00121570    0.00089719
     atom    2 type  1   force =     0.00213167   -0.00123025    0.00093072
     atom    3 type  1   force =    -0.00001563    0.00241899    0.00084983
     atom    4 type  1   force =     0.00000491    0.00001603    0.00259063
     atom    5 type  1   force =     0.00000473   -0.00595318   -0.00181351
     atom    6 type  1   force =    -0.00001050   -0.00000206    0.00868461
     atom    7 type  1   force =     0.00515826    0.00297506   -0.00184104
     atom    8 type  1   force =    -0.00515915    0.00297466   -0.00183234
     atom    9 type  1   force =    -0.00000166    0.00000700   -0.01020367
     atom   10 type  1   force =    -0.00000160   -0.07525058   -0.05257858
     atom   11 type  1   force =    -0.06517704    0.03762781   -0.05254442
     atom   12 type  1   force =     0.06517696    0.03763076   -0.05264611
     atom   13 type  2   force =    -0.00000109    0.00000078    0.00689835
     atom   14 type  3   force =    -0.00000166    0.00000068    0.15260831

     Total force =     0.220746     Total SCF correction =     0.002201

     entering subroutine stress ...

     negative rho (up, down):  8.677E-04 0.000E+00
          total   stress  (Ry/bohr**3)                   (kbar)     P=    0.94
  -0.00003284  -0.00000000  -0.00000000         -4.83     -0.00     -0.00
  -0.00000000  -0.00003284  -0.00000000         -0.00     -4.83     -0.00
  -0.00000000  -0.00000000   0.00008489         -0.00     -0.00     12.49

     BFGS Geometry Optimization

     number of scf cycles    =   1
     number of bfgs steps    =   0

     energy   new            =   -5024.5746733851 Ry

     new trust radius        =       0.1526083145 bohr
     new conv_thr            =       0.0000099958 Ry

ATOMIC_POSITIONS (crystal)
Ga1      0.166666667   0.166666667   0.400460194    0   0   0
Ga1      0.666666667   0.166666667   0.400460194    0   0   0
Ga1      0.166666667   0.666666667   0.400460194    0   0   0
Ga1      0.666666667   0.666666667   0.400460194    0   0   0
Ga1      0.833333333   0.333333333   0.500000000    0   0   0
Ga1      0.333333333   0.333333333   0.500000000    0   0   0
Ga1      0.833333333   0.833333333   0.500000000    0   0   0
Ga1      0.333333333   0.833333333   0.500000000    0   0   0
Ga1     -0.000000496   0.000000703   0.599323575
Ga1      0.503775907  -0.007552092   0.598425590
Ga1     -0.007552925   0.503776299   0.598426314
Ga1      0.503776471   0.503776595   0.598424159
S1       0.333333200   0.333333412   0.658773894
H1       0.333333155   0.333333402   0.711919222

     Writing output data file calc.save
     Check: negative starting charge=   -0.001082
     NEW-OLD atomic charge density approx. for the potential
     Check: negative starting charge=   -0.001087

[...]

     energy   old            =   -5024.5746733851 Ry
     energy   new            =   -5024.6126046631 Ry

     CASE: energy  _new < energy  _old

[...]

     Total force =     0.017351     Total SCF correction =     0.001263

[...]

     Total force =     0.009460     Total SCF correction =     0.002567
     SCF correction compared to forces is large: reduce conv_thr to get better values

[...]

     number of scf cycles    =  18
     number of bfgs steps    =  17

     energy   old            =   -5024.6812837820 Ry
     energy   new            =   -5024.6814660876 Ry

     CASE: energy  _new < energy  _old

     new trust radius        =       0.0230762740 bohr
     new conv_thr            =       0.0000001000 Ry

ATOMIC_POSITIONS (crystal)
Ga1      0.166666667   0.166666667   0.400460194    0   0   0
Ga1      0.666666667   0.166666667   0.400460194    0   0   0
Ga1      0.166666667   0.666666667   0.400460194    0   0   0
Ga1      0.666666667   0.666666667   0.400460194    0   0   0
Ga1      0.833333333   0.333333333   0.500000000    0   0   0
Ga1      0.333333333   0.333333333   0.500000000    0   0   0
Ga1      0.833333333   0.833333333   0.500000000    0   0   0
Ga1      0.333333333   0.833333333   0.500000000    0   0   0
Ga1      0.000002527  -0.000002062   0.594970814
Ga1      0.506779013  -0.013562815   0.604667758
Ga1     -0.013564071   0.506781220   0.604666889
Ga1      0.506787264   0.506801280   0.604667500
S1       0.333322158   0.333341199   0.687778166
H1       0.333333861   0.333319659   0.742353896

     Writing output data file calc.save
     Check: negative starting charge=   -0.000975
     NEW-OLD atomic charge density approx. for the potential
     Check: negative starting charge=   -0.000981

[...]

     Self-consistent Calculation

[...]

     total energy              =   -5024.68149017 Ry
     Harris-Foulkes estimate   =   -5024.68149023 Ry
     estimated scf accuracy    <       0.00000074 Ry

     iteration #  7     ecut=    36.75 Ry     beta=0.30
     Davidson diagonalization with overlap
     ethr =  3.13E-10,  avg # of iterations =  2.2

[...]

     negative rho (up, down):  8.565E-04 0.000E+00

     Adding external electric field

     Computed dipole along edir(3) :
        Dipole               -0.1161 Ry au,         -0.2951 Debye
        Dipole field         -0.0003 Ry au

        Potential amp.        0.0248 Ry
        Total length         46.0091 bohr

     End of self-consistent calculation

[...]

          k = 0.0547-0.0632 0.0000 ( 20377 PWs)   bands (ev):

[...]

          k =-0.0821-0.0474 0.0000 ( 20384 PWs)   bands (ev):

   -94.5938 -94.5937 -94.5936 -94.5879 -94.5767 -94.5763 -94.5763 -94.5760
   -94.5757 -94.5752 -94.5692 -94.5654 -94.5654 -94.5606 -94.5606 -94.5545
   -94.5545 -94.5544 -94.5366 -94.5363 -94.5361 -94.5353 -94.5351 -94.5349
   -94.5346 -94.5343 -94.5342 -94.5340 -94.5338 -94.5337 -94.5293 -94.5291
   -94.5288 -94.5028 -94.4864 -94.4864 -15.0185 -15.0015 -14.9964 -14.9900
   -14.9835 -14.9795 -14.9769 -14.9759 -14.9666 -14.9562 -14.9531 -14.9496
   -14.9460 -14.9436 -14.9398 -14.9394 -14.9384 -14.9300 -14.9272 -14.9241
   -14.9228 -14.9176 -14.9091 -14.9029 -14.8986 -14.8969 -14.8941 -14.8897
   -14.8875 -14.8871 -14.8855 -14.8773 -14.8740 -14.8629 -14.8546 -14.8546
   -14.8528 -14.8473 -14.8449 -14.8365 -14.8336 -14.8314 -14.8288 -14.8243
   -14.8224 -14.8204 -14.8172 -14.8153 -14.8081 -14.7956 -14.7922 -14.7899
   -14.7869 -14.7857 -14.7801 -14.7718 -14.7581 -14.7525 -14.7395 -14.7388
   -12.8989  -8.5484  -8.4597  -7.2691  -7.1500  -6.0617  -5.7562  -5.5962
    -5.1188  -4.5933  -4.5477  -3.7492  -2.9489  -2.4894  -2.1055  -1.3672
    -0.5067  -0.4140  -0.2136  -0.1478   0.1216   0.2474   1.2020   1.2827
     1.3595   1.5675   2.2370   2.3995   2.4226   2.6610   2.7796

     the Fermi energy is     0.1829 ev

!    total energy              =   -5024.68149018 Ry
     Harris-Foulkes estimate   =   -5024.68149087 Ry
     estimated scf accuracy    <       0.00000007 Ry

     The total energy is the sum of the following terms:

     one-electron contribution =  -27131.92180859 Ry
     hartree contribution      =   13572.56416598 Ry
     xc contribution           =    -605.93080050 Ry
     ewald contribution        =    9140.64299171 Ry
     electric field correction =       0.00003131 Ry
     smearing contrib. (-TS)   =      -0.03607009 Ry

     convergence has been achieved in   7 iterations

 BEEF-vdW xc energy contributions
           1 :   -541.303451411067
           2 :    491.056237253839
           3 :   -406.852638807951
           4 :    313.185160793594
           5 :   -231.717324162632
           6 :    173.211339120114
           7 :   -135.982342823724
           8 :    110.664511622588
           9 :   -87.7009984622204
          10 :    62.9238692577956
          11 :   -38.4127251795292
          12 :    19.1006617411308
          13 :   -8.17416315935714
          14 :    4.57279813674666
          15 :   -3.95839807511788
          16 :    1.93769336969058
          17 :    3.06171036803994
          18 :   -9.27281332820496
          19 :    13.5102428295720
          20 :   -13.8636141032273
          21 :    11.1217456751704
          22 :   -8.02103011995791
          23 :    7.08697045531244
          24 :   -8.80463412025711
          25 :    11.4578898310656
          26 :   -12.6318944793836
          27 :    11.1321696777934
          28 :   -7.85307913969530
          29 :    5.01114422939440
          30 :   -4.42063321496255
          31 :   -40.2742243950865
          32 :   -27.3166565795193

     Forces acting on atoms (Ry/au):

     negative rho (up, down):  8.565E-04 0.000E+00
     atom    1 type  1   force =    -0.00202548   -0.00116974   -0.00131581
     atom    2 type  1   force =     0.00202562   -0.00116903   -0.00131611
     atom    3 type  1   force =     0.00000067    0.00233865   -0.00131655
     atom    4 type  1   force =    -0.00000025   -0.00000028    0.00203237
     atom    5 type  1   force =    -0.00000059    0.00037197   -0.00174925
     atom    6 type  1   force =     0.00000086    0.00000003    0.00719188
     atom    7 type  1   force =    -0.00032169   -0.00018581   -0.00175016
     atom    8 type  1   force =     0.00032171   -0.00018648   -0.00175000
     atom    9 type  1   force =    -0.00000327    0.00000073    0.00095651
     atom   10 type  1   force =     0.00000426   -0.00043099   -0.00036312
     atom   11 type  1   force =    -0.00037834    0.00022034   -0.00036547
     atom   12 type  1   force =     0.00037294    0.00021247   -0.00036539
     atom   13 type  2   force =     0.00000536   -0.00000074   -0.00029255
     atom   14 type  3   force =    -0.00000181   -0.00000112    0.00040362

     Total force =     0.001457     Total SCF correction =     0.001909
     SCF correction compared to forces is large: reduce conv_thr to get better values

     entering subroutine stress ...

     negative rho (up, down):  8.565E-04 0.000E+00
          total   stress  (Ry/bohr**3)                   (kbar)     P=   -5.71
  -0.00005777  -0.00000000   0.00000000         -8.50     -0.00      0.00
  -0.00000000  -0.00005777  -0.00000000         -0.00     -8.50     -0.00
   0.00000000  -0.00000000  -0.00000081          0.00     -0.00     -0.12

     bfgs converged in  19 scf cycles and  18 bfgs steps
     (criteria: energy <  1.0E+00, force <  1.9E-03)

     End of BFGS Geometry Optimization

     Final energy   =   -5024.6814901800 Ry
Begin final coordinates

ATOMIC_POSITIONS (crystal)
Ga1      0.166666667   0.166666667   0.400460194    0   0   0
Ga1      0.666666667   0.166666667   0.400460194    0   0   0
Ga1      0.166666667   0.666666667   0.400460194    0   0   0
Ga1      0.666666667   0.666666667   0.400460194    0   0   0
Ga1      0.833333333   0.333333333   0.500000000    0   0   0
Ga1      0.333333333   0.333333333   0.500000000    0   0   0
Ga1      0.833333333   0.833333333   0.500000000    0   0   0
Ga1      0.333333333   0.833333333   0.500000000    0   0   0
Ga1      0.000002527  -0.000002062   0.594970814
Ga1      0.506779013  -0.013562815   0.604667758
Ga1     -0.013564071   0.506781220   0.604666889
Ga1      0.506787264   0.506801280   0.604667500
S1       0.333322158   0.333341199   0.687778166
H1       0.333333861   0.333319659   0.742353896
End final coordinates

     Writing output data file calc.save

     General routines

     Parallel routines

   This run was terminated on:   1:24: 0  18Apr2018

   JOB DONE.