     Program PWSCF v.5.1rc2 (svn rev. 11289) starts on 23Apr2018 at 13:19: 0

     Current dimensions of program PWSCF are:
     Max number of different atomic species (ntypx) = 10
     Max number of k-points (npk) =  40000
     Max angular momentum in pseudopotentials (lmaxx) =  3
     Presently stress not available with electric field

     IMPORTANT: XC functional enforced from input :
     Exchange-correlation      = BEEF-VDW ( 1  4 27 13 2)
     Any further DFT definition will be discarded
     Please, verify this is what you really want

     Subspace diagonalization in iterative solution of the eigenvalue problem:
     a serial algorithm will be used

     bravais-lattice index     =            0
     lattice parameter (alat)  =       1.8897  a.u.
     unit-cell volume          =    4301.6107 (a.u.)^3
     number of atoms/cell      =           14
     number of atomic types    =            3
     number of electrons       =       186.00
     number of Kohn-Sham states=          103
     kinetic-energy cutoff     =      36.7493  Ry
     charge density cutoff     =     367.4932  Ry
     convergence threshold     =      1.0E-05
     mixing beta               =       0.3000
     number of iterations used =           10  plain     mixing
     Exchange-correlation      = BEEF-VDW ( 1  4 27 13 2)
     nstep                     =           50

     celldm(1)=   1.889726  celldm(2)=   0.000000  celldm(3)=   0.000000
     celldm(4)=   0.000000  celldm(5)=   0.000000  celldm(6)=   0.000000

     crystal axes: (cart. coord. in units of alat)
               a(1) = (   5.483647   0.000000   0.000000 )
               a(2) = (   2.741823   4.748977   0.000000 )
               a(3) = (   0.000000   0.000000  24.477379 )

     reciprocal axes: (cart. coord. in units 2 pi/alat)
               b(1) = (  0.182360 -0.105286  0.000000 )
               b(2) = (  0.000000  0.210572  0.000000 )
               b(3) = (  0.000000  0.000000  0.040854 )

     PseudoPot. # 1 for Tc read from file:
     /u/if/mamunm/psp/gbrv1.5pbe/Tc.UPF
     MD5 check sum: 9eb49e5b028550b2339a02317eb7b844
     Pseudo is Ultrasoft + core correction, Zval = 15.0
     Generated by new atomic code, or converted to UPF format
     Using radial grid of  965 points,  6 beta functions with:
                l(1) =   0
                l(2) =   0
                l(3) =   1
                l(4) =   1
                l(5) =   2
                l(6) =   2
     Q(r) pseudized with  8 coefficients,  rinner =    1.300   1.300   1.300
                                                       1.300   1.300

     PseudoPot. # 2 for N  read from file:
     /u/if/mamunm/psp/gbrv1.5pbe/N.UPF
     MD5 check sum: 95339753478d7afb44899504a8723017
     Pseudo is Ultrasoft + core correction, Zval =  5.0
     Generated by new atomic code, or converted to UPF format
     Using radial grid of  729 points,  4 beta functions with:
                l(1) =   0
                l(2) =   0
                l(3) =   1
                l(4) =   1
     Q(r) pseudized with  8 coefficients,  rinner =    0.900   0.900   0.900

     PseudoPot. # 3 for H  read from file:
     /u/if/mamunm/psp/gbrv1.5pbe/H.UPF
     MD5 check sum: 761ae9a214b05c3daf00ab9f6b793d6f
     Pseudo is Ultrasoft, Zval =  1.0
     Generated by new atomic code, or converted to UPF format
     Using radial grid of  615 points,  2 beta functions with:
                l(1) =   0
                l(2) =   0
     Q(r) pseudized with  8 coefficients,  rinner =    0.700

     vdW kernel table read from file vdW_kernel_table
     MD5 check sum: 095c7af220d748ca6e76c0b4c6cfb241

     atomic species   valence    mass     pseudopotential
        Tc1           15.00    97.90721     Tc( 1.00)
        N1             5.00    14.00700     N ( 1.00)
        H1             1.00     1.00800     H ( 1.00)

     No symmetry found

   Cartesian axes

     site n.     atom                  positions (alat units)
         1           Tc1 tau(   1) = (   1.3709117   0.7914962  10.0000000  )
         2           Tc1 tau(   2) = (   4.1127351   0.7914962  10.0000000  )
         3           Tc1 tau(   3) = (   2.7418234   3.1659850  10.0000000  )
         4           Tc1 tau(   4) = (   5.4836469   3.1659850  10.0000000  )
         5           Tc1 tau(   5) = (   5.4836469   1.5829925  12.2386895  )
         6           Tc1 tau(   6) = (   2.7418234   1.5829925  12.2386895  )
         7           Tc1 tau(   7) = (   6.8545586   3.9574812  12.2386895  )
         8           Tc1 tau(   8) = (   4.1127351   3.9574812  12.2386895  )
         9           Tc1 tau(   9) = (   0.0000000   0.0000000  14.4773789  )
        10           Tc1 tau(  10) = (   2.7418234   0.0000000  14.4773789  )
        11           Tc1 tau(  11) = (   1.3709117   2.3744887  14.4773789  )
        12           Tc1 tau(  12) = (   4.1127351   2.3744887  14.4773789  )
        13           N1  tau(  13) = (   2.7418234   1.5829925  15.8943789  )
        14           H1  tau(  14) = (   2.7418234   1.5829925  16.9443789  )

     number of k points=    20  Fermi-Dirac smearing, width (Ry)=  0.0110
                       cart. coord. in units 2pi/alat
        k(    1) = (   0.0000000   0.0000000   0.0000000), wk =   0.0555556
        k(    2) = (   0.0000000   0.0350953   0.0000000), wk =   0.1111111
        k(    3) = (   0.0000000   0.0701905   0.0000000), wk =   0.1111111
        k(    4) = (   0.0000000  -0.1052858   0.0000000), wk =   0.0555556
        k(    5) = (   0.0303934  -0.0175476   0.0000000), wk =   0.1111111
        k(    6) = (   0.0303934   0.0175476   0.0000000), wk =   0.1111111
        k(    7) = (   0.0303934   0.0526429   0.0000000), wk =   0.1111111
        k(    8) = (   0.0303934  -0.1228335   0.0000000), wk =   0.1111111
        k(    9) = (   0.0303934  -0.0877382   0.0000000), wk =   0.1111111
        k(   10) = (   0.0303934  -0.0526429   0.0000000), wk =   0.1111111
        k(   11) = (   0.0607868  -0.0350953   0.0000000), wk =   0.1111111
        k(   12) = (   0.0607868   0.0000000   0.0000000), wk =   0.1111111
        k(   13) = (   0.0607868   0.0350953   0.0000000), wk =   0.1111111
        k(   14) = (   0.0607868  -0.1403811   0.0000000), wk =   0.1111111
        k(   15) = (   0.0607868  -0.1052858   0.0000000), wk =   0.1111111
        k(   16) = (   0.0607868  -0.0701905   0.0000000), wk =   0.1111111
        k(   17) = (  -0.0911802   0.0526429   0.0000000), wk =   0.0555556
        k(   18) = (  -0.0911802   0.0877382   0.0000000), wk =   0.1111111
        k(   19) = (  -0.0911802   0.1228335   0.0000000), wk =   0.1111111
        k(   20) = (  -0.0911802  -0.0526429   0.0000000), wk =   0.0555556

     Largest allocated arrays     est. size (Mb)     dimensions
     Largest temporary arrays     est. size (Mb)     dimensions

     Check: negative/imaginary core charge=   -0.000022    0.000000

     Initial potential from superposition of free atoms
     Check: negative starting charge=   -1.504848

     starting charge  173.99965, renormalised to  186.00000

     negative rho (up, down):  1.609E+00 0.000E+00

     *
     * You are using vdW-DF for exchange-correlation in this calculation.
     * Please cite the following three references that made this development
     * possible:
     *
     *   M. Dion, H. Rydberg, E. Schroder, D. C. Langreth, and
     *   B. I. Lundqvist, Phys. Rev. Lett. 92, 246401 (2004).
     *
     *   T. Thonhauser, V. R. Cooper, S. Li, A. Puzder, P. Hyldgaard, and
     *   D. C. Langreth, Phys. Rev. B 76, 125112 (2007).
     *
     *   G. Roman-Perez and J. M. Soler, Phys. Rev. Lett. 103, 096102 (2009).
     *
     *
     * If you are using vdW-DF2, please also cite:
     *
     *   K. Lee, E. D. Murray, L. Kong, B. I. Lundqvist, and
     *   D. C. Langreth, Phys. Rev. B 82, 081101(R) (2010).
     *
     *
     * If you are calculating the stress with vdW-DF, please also cite:
     *
     *   R. Sabatini, E. Kucukbenli, B. Kolb, T. Thonhauser, and
     *   S. de Gironcoli, J. Phys.: Condens. Matter 24, 424209 (2012).
     *

     Carrying out vdW-DF run using the following parameters:

     Nqs =      20    Nr_points =    1024   r_max =   100.000
     q_mesh =
               0.00001000     0.04494208     0.09755937     0.15916263
               0.23128650     0.31572767     0.41458969     0.53033537
               0.66584808     0.82450364     1.01025438     1.22772762
               1.48234092     1.78043706     2.12944203     2.53805004
               3.01644009     3.57652955     4.23227104     5.00000000

     Gradients computed in reciprocal space

     Adding external electric field

     Computed dipole along edir(3) :
        Dipole               -2.9954 Ry au,         -7.6135 Debye
        Dipole field         -0.0088 Ry au

        Potential amp.        0.7893 Ry
        Total length         45.0992 bohr

     Starting wfc are  161 randomized atomic wfcs

     Self-consistent Calculation

     iteration #  1     ecut=    36.75 Ry     beta=0.30
     Davidson diagonalization with overlap
     ethr =  1.00E-02,  avg # of iterations =  8.1

[...]

     total energy              =   -1913.37778753 Ry
     Harris-Foulkes estimate   =   -2122.27400158 Ry
     estimated scf accuracy    <     439.23208398 Ry

[...]

     End of self-consistent calculation

          k = 0.0000 0.0000 0.0000 ( 16073 PWs)   bands (ev):

   -64.3627 -64.2656 -64.1979 -64.1977 -64.1957 -64.1625 -64.1622 -64.1054
   -64.0013 -63.9869 -63.9865 -63.9762 -36.8427 -36.7866 -36.7865 -36.7349
   -36.6842 -36.6645 -36.6645 -36.5300 -36.5059 -36.5057 -36.2444 -36.1943
   -36.1942 -36.1439 -36.1158 -36.1157 -36.0663 -36.0573 -36.0573 -36.0396
   -35.9448 -35.9448 -35.9203 -35.9102 -35.9101 -35.9040 -35.8386 -35.8133
   -35.8133 -35.7724 -35.7682 -35.7680 -35.6909 -35.6908 -35.5728 -35.5728
   -12.6377  -4.8490  -3.4714  -2.2914  -2.2913  -2.2703  -2.1688  -2.1561
    -2.1560  -1.9596  -1.7552  -1.7551  -1.7020  -1.6869  -1.4020  -1.4019
    -0.9642  -0.7307  -0.7306   0.1647   0.1647   0.2263   0.7598   0.7598
     0.9422   0.9898   1.2697   1.2697   1.4404   1.5199   1.5199   1.6239
     1.6996   1.6997   1.8010   1.8010   2.1755   2.4994   2.4995   2.9044
     3.2289   3.2716   3.2716   3.5106   3.5106   3.7274   3.7275   3.7537
     4.1009   4.1009   4.3091   4.7233   4.8435   4.8436   4.9480

[...]

          k =-0.0912 0.0526 0.0000 ( 16164 PWs)   bands (ev):

[...]

     the Fermi energy is     2.9291 ev

!    total energy              =   -2124.97832305 Ry
     Harris-Foulkes estimate   =   -2124.97832541 Ry
     estimated scf accuracy    <       0.00000100 Ry

     The total energy is the sum of the following terms:

     one-electron contribution =  -19156.18321465 Ry
     hartree contribution      =    9581.78257704 Ry
     xc contribution           =    -403.25730224 Ry
     ewald contribution        =    7852.76709851 Ry
     electric field correction =       0.00022551 Ry
     smearing contrib. (-TS)   =      -0.08770722 Ry

     convergence has been achieved in  27 iterations

 BEEF-vdW xc energy contributions
           1 :   -353.198186425307
           2 :    324.629683243624
           3 :   -273.865823826665
           4 :    211.133549099708
           5 :   -147.305918773425
           6 :    90.9220016194965
           7 :   -46.5327746320262
           8 :    14.5851351962742
           9 :    7.30996506206429
          10 :   -22.5066025277499
          11 :    33.6249925331336
          12 :   -41.6822467769399
          13 :    46.1698300421470
          14 :   -45.8799277802921
          15 :    39.9690709853816
          16 :   -28.7739715705479
          17 :    14.0313859791545
          18 :    1.52540874351564
          19 :   -14.9895248065438
          20 :    24.1428884962140
          21 :   -28.0197698307323
          22 :    26.9687415398241
          23 :   -22.2618537208236
          24 :    15.4694094246236
          25 :   -7.90762517372326
          26 :   0.373908769008210
          27 :    6.77557624947593
          28 :   -13.3351886861592
          29 :    18.9525711363716
          30 :   -23.0114618030672
          31 :   -33.7311431206534
          32 :   -24.7436175956548

     Forces acting on atoms (Ry/au):

     negative rho (up, down):  1.591E+00 0.000E+00
     atom    1 type  1   force =    -0.00194743   -0.00112371    0.03038539
     atom    2 type  1   force =     0.00195601   -0.00112271    0.03033377
     atom    3 type  1   force =     0.00000840    0.00224124    0.03038113
     atom    4 type  1   force =    -0.00000445   -0.00000077    0.02987667
     atom    5 type  1   force =     0.00002797   -0.01072017   -0.01487236
     atom    6 type  1   force =    -0.00003143   -0.00002473    0.00347391
     atom    7 type  1   force =     0.00927140    0.00536123   -0.01484296
     atom    8 type  1   force =    -0.00927117    0.00538986   -0.01486379
     atom    9 type  1   force =     0.00000485    0.00000697   -0.04503132
     atom   10 type  1   force =    -0.00000414   -0.02600184    0.02087936
     atom   11 type  1   force =    -0.02252538    0.01299723    0.02088422
     atom   12 type  1   force =     0.02251747    0.01299807    0.02087136
     atom   13 type  2   force =    -0.00000078   -0.00000137   -0.05099427
     atom   14 type  3   force =    -0.00000133    0.00000070   -0.04648112

     Total force =     0.100622     Total SCF correction =     0.000876

     entering subroutine stress ...

     negative rho (up, down):  1.591E+00 0.000E+00
          total   stress  (Ry/bohr**3)                   (kbar)     P=  -36.06
  -0.00021887   0.00000000  -0.00000002        -32.20      0.00     -0.00
   0.00000000  -0.00021888  -0.00000000          0.00    -32.20     -0.00
  -0.00000002  -0.00000000  -0.00029767         -0.00     -0.00    -43.79

     BFGS Geometry Optimization

     number of scf cycles    =   1
     number of bfgs steps    =   0

     energy   new            =   -2124.9783230512 Ry

     new trust radius        =       0.0509942676 bohr
     new conv_thr            =       0.0000099958 Ry

ATOMIC_POSITIONS (crystal)
Tc1      0.166666667   0.166666667   0.408540475    0   0   0
Tc1      0.666666667   0.166666667   0.408540475    0   0   0
Tc1      0.166666667   0.666666667   0.408540475    0   0   0
Tc1      0.666666667   0.666666667   0.408540475    0   0   0
Tc1      0.833333333   0.333333333   0.500000000    0   0   0
Tc1      0.333333333   0.333333333   0.500000000    0   0   0
Tc1      0.833333333   0.833333333   0.500000000    0   0   0
Tc1      0.333333333   0.833333333   0.500000000    0   0   0
Tc1      0.000000080   0.000000777   0.590485992
Tc1      0.501448289  -0.002897377   0.591910917
Tc1     -0.002897860   0.501448278   0.591911022
Tc1      0.501448772   0.501448371   0.591910744
N1       0.333333335   0.333333180   0.648247264
H1       0.333333166   0.333333411   0.691241584

     Writing output data file calc.save
     Check: negative starting charge=   -1.504848
     NEW-OLD atomic charge density approx. for the potential

     Check: negative/imaginary core charge=   -0.000022    0.000000
     Check: negative starting charge=   -1.507081

[...]

     Total force =     0.083167     Total SCF correction =     0.008900
     SCF correction compared to forces is large: reduce conv_thr to get better values

[...]

     energy   old            =   -2124.9783230512 Ry
     energy   new            =   -2124.9875205600 Ry

     CASE: energy  _new < energy  _old

     WARNING: bfgs curvature condition failed, Theta= 0.984
     new trust radius        =       0.0764914015 bohr
     new conv_thr            =       0.0000001000 Ry

[...]

     iteration #  1     ecut=    36.75 Ry     beta=0.30
     Davidson diagonalization with overlap
     c_bands:  1 eigenvalues not converged
     c_bands:  1 eigenvalues not converged
     ethr =  1.00E-06,  avg # of iterations = 12.9

[...]

     Total force =     0.009877     Total SCF correction =     0.000821

[...]

     number of scf cycles    =  11
     number of bfgs steps    =  10

     energy   old            =   -2125.0126339042 Ry
     energy   new            =   -2125.0127086682 Ry

     CASE: energy  _new < energy  _old

     new trust radius        =       0.0073029778 bohr
     new conv_thr            =       0.0000001000 Ry

ATOMIC_POSITIONS (crystal)
Tc1      0.166666667   0.166666667   0.408540475    0   0   0
Tc1      0.666666667   0.166666667   0.408540475    0   0   0
Tc1      0.166666667   0.666666667   0.408540475    0   0   0
Tc1      0.666666667   0.666666667   0.408540475    0   0   0
Tc1      0.833333333   0.333333333   0.500000000    0   0   0
Tc1      0.333333333   0.333333333   0.500000000    0   0   0
Tc1      0.833333333   0.833333333   0.500000000    0   0   0
Tc1      0.333333333   0.833333333   0.500000000    0   0   0
Tc1      0.000000565   0.000000578   0.585905474
Tc1      0.506790914  -0.013583724   0.589669245
Tc1     -0.013583188   0.506790928   0.589669357
Tc1      0.506790388   0.506790741   0.589668797
N1       0.333332675   0.333333560   0.639205046
H1       0.333333971   0.333333498   0.680962467

     Writing output data file calc.save
     Check: negative starting charge=   -1.499142
     NEW-OLD atomic charge density approx. for the potential

     Check: negative/imaginary core charge=   -0.000022    0.000000
     Check: negative starting charge=   -1.499466

[...]

     Self-consistent Calculation

[...]

     total energy              =   -2125.01273088 Ry
     Harris-Foulkes estimate   =   -2125.01273107 Ry
     estimated scf accuracy    <       0.00000142 Ry

     iteration # 11     ecut=    36.75 Ry     beta=0.30
     Davidson diagonalization with overlap
     ethr =  7.62E-10,  avg # of iterations =  3.7

[...]

     negative rho (up, down):  1.586E+00 0.000E+00

     Adding external electric field

     Computed dipole along edir(3) :
        Dipole                0.2984 Ry au,          0.7583 Debye
        Dipole field          0.0009 Ry au

        Potential amp.       -0.0786 Ry
        Total length         45.0992 bohr

     End of self-consistent calculation

[...]

          k = 0.0608-0.0702 0.0000 ( 16203 PWs)   bands (ev):

[...]

          k =-0.0912-0.0526 0.0000 ( 16164 PWs)   bands (ev):

   -64.2646 -64.2473 -64.1808 -64.1559 -64.1530 -64.1316 -64.1020 -64.0264
   -64.0225 -63.9653 -63.9610 -63.9168 -36.6884 -36.6105 -36.6089 -36.5820
   -36.5387 -36.5377 -36.4028 -36.3729 -36.3692 -36.3207 -36.3027 -36.2938
   -36.2676 -36.1337 -36.0908 -36.0611 -36.0437 -36.0431 -36.0235 -36.0122
   -35.9875 -35.9839 -35.9653 -35.9391 -35.9309 -35.9263 -35.9142 -35.9129
   -35.8473 -35.8183 -35.7932 -35.7712 -35.7329 -35.6737 -35.6496 -35.6375
   -13.1324  -4.8697  -2.5698  -1.9949  -1.8103  -1.7838  -1.4153  -1.3379
    -1.2883  -1.0868  -1.0570  -0.9375  -0.7865  -0.6567  -0.5882  -0.5759
    -0.4238  -0.3363  -0.3076   0.0718   0.1954   0.2954   0.3722   0.4223
     0.5467   0.6139   0.8963   1.0264   1.1661   1.1872   1.4568   1.5136
     1.5584   1.5727   1.5948   1.6459   1.6868   1.7792   1.8547   1.8697
     1.9693   2.2358   2.2615   2.7191   2.7500   2.8280   2.8701   3.0912
     3.1465   3.2856   3.3510   3.4662   3.5858   3.6371   3.8864

     the Fermi energy is     2.9565 ev

!    total energy              =   -2125.01273095 Ry
     Harris-Foulkes estimate   =   -2125.01273084 Ry
     estimated scf accuracy    <       0.00000005 Ry

     The total energy is the sum of the following terms:

     one-electron contribution =  -19415.46515333 Ry
     hartree contribution      =    9711.55695566 Ry
     xc contribution           =    -403.56859349 Ry
     ewald contribution        =    7982.55024857 Ry
     electric field correction =       0.00026004 Ry
     smearing contrib. (-TS)   =      -0.08644840 Ry

     convergence has been achieved in  11 iterations

 BEEF-vdW xc energy contributions
           1 :   -353.513973232273
           2 :    325.041647895865
           3 :   -274.396071756020
           4 :    211.710607394082
           5 :   -147.799527312889
           6 :    91.2060716997275
           7 :   -46.5464160570463
           8 :    14.3639837813865
           9 :    7.64477565913046
          10 :   -22.7975027567714
          11 :    33.7464695969392
          12 :   -41.5950273760009
          13 :    45.9360759249915
          14 :   -45.6311174907072
          15 :    39.8413282696809
          16 :   -28.8428963359419
          17 :    14.2753567762015
          18 :    1.21446638412141
          19 :   -14.7538202208418
          20 :    24.0907983762214
          21 :   -28.1734192913252
          22 :    27.2528431715779
          23 :   -22.5395793869004
          24 :    15.6065706177567
          25 :   -7.83407232426413
          26 :   0.115174078473899
          27 :    7.11133244012575
          28 :   -13.6086017163573
          29 :    19.0552728682592
          30 :   -22.9099365996226
          31 :   -33.7511618435673
          32 :   -24.7842707340448

     Forces acting on atoms (Ry/au):

     negative rho (up, down):  1.586E+00 0.000E+00
     atom    1 type  1   force =     0.00078756    0.00045377    0.02255743
     atom    2 type  1   force =    -0.00078781    0.00045342    0.02255114
     atom    3 type  1   force =     0.00000007   -0.00090698    0.02255296
     atom    4 type  1   force =     0.00000019    0.00000103    0.02586512
     atom    5 type  1   force =    -0.00000189   -0.00199448   -0.02549324
     atom    6 type  1   force =    -0.00000008    0.00000054   -0.01678744
     atom    7 type  1   force =     0.00173191    0.00099605   -0.02549561
     atom    8 type  1   force =    -0.00173298    0.00099476   -0.02549529
     atom    9 type  1   force =    -0.00000262   -0.00000291   -0.00025673
     atom   10 type  1   force =     0.00000312   -0.00021130    0.00046843
     atom   11 type  1   force =    -0.00018255    0.00011003    0.00047432
     atom   12 type  1   force =     0.00018418    0.00010715    0.00047661
     atom   13 type  2   force =     0.00000078   -0.00000121   -0.00104831
     atom   14 type  3   force =     0.00000012    0.00000013   -0.00036940

     Total force =     0.001452     Total SCF correction =     0.000518
     SCF correction compared to forces is large: reduce conv_thr to get better values

     entering subroutine stress ...

     negative rho (up, down):  1.586E+00 0.000E+00
          total   stress  (Ry/bohr**3)                   (kbar)     P=  -20.14
  -0.00015019  -0.00000000   0.00000000        -22.09     -0.00      0.00
  -0.00000000  -0.00015019  -0.00000000         -0.00    -22.09     -0.00
   0.00000000  -0.00000000  -0.00011039          0.00     -0.00    -16.24

     bfgs converged in  12 scf cycles and  11 bfgs steps
     (criteria: energy <  1.0E+00, force <  1.9E-03)

     End of BFGS Geometry Optimization

     Final energy   =   -2125.0127309480 Ry
Begin final coordinates

ATOMIC_POSITIONS (crystal)
Tc1      0.166666667   0.166666667   0.408540475    0   0   0
Tc1      0.666666667   0.166666667   0.408540475    0   0   0
Tc1      0.166666667   0.666666667   0.408540475    0   0   0
Tc1      0.666666667   0.666666667   0.408540475    0   0   0
Tc1      0.833333333   0.333333333   0.500000000    0   0   0
Tc1      0.333333333   0.333333333   0.500000000    0   0   0
Tc1      0.833333333   0.833333333   0.500000000    0   0   0
Tc1      0.333333333   0.833333333   0.500000000    0   0   0
Tc1      0.000000565   0.000000578   0.585905474
Tc1      0.506790914  -0.013583724   0.589669245
Tc1     -0.013583188   0.506790928   0.589669357
Tc1      0.506790388   0.506790741   0.589668797
N1       0.333332675   0.333333560   0.639205046
H1       0.333333971   0.333333498   0.680962467
End final coordinates

     Writing output data file calc.save

     General routines

     Parallel routines

   This run was terminated on:  14: 7:59  23Apr2018

   JOB DONE.
Job  /afs/slac/g/suncat/bin/suncat-tsmpirun -x LD_LIBRARY_PATH -wdir /scratch/qe15503_ugsKK pw.x -npool 3 -in pw.inp

TID   HOST_NAME   COMMAND_LINE            STATUS            TERMINATION_TIME
00000 suncat2065 pw.x -npool 3 -i  Done                     04/23/2018 14:07:59
00001 suncat2065 pw.x -npool 3 -i  Done                     04/23/2018 14:07:59
00002 suncat2065 pw.x -npool 3 -i  Done                     04/23/2018 14:07:59
00003 suncat2065 pw.x -npool 3 -i  Done                     04/23/2018 14:07:59
00004 suncat2043 pw.x -npool 3 -i  Done                     04/23/2018 14:07:59
00005 suncat2043 pw.x -npool 3 -i  Done                     04/23/2018 14:07:59
00006 suncat2043 pw.x -npool 3 -i  Done                     04/23/2018 14:07:59
00007 suncat2043 pw.x -npool 3 -i  Done                     04/23/2018 14:07:59
00008 suncat2043 pw.x -npool 3 -i  Done                     04/23/2018 14:07:59
00009 suncat2043 pw.x -npool 3 -i  Done                     04/23/2018 14:07:59
00010 suncat2043 pw.x -npool 3 -i  Done                     04/23/2018 14:07:59
00011 suncat2043 pw.x -npool 3 -i  Done                     04/23/2018 14:07:59
00012 suncat2043 pw.x -npool 3 -i  Done                     04/23/2018 14:07:59
00013 suncat2043 pw.x -npool 3 -i  Done                     04/23/2018 14:07:59
00014 suncat2043 pw.x -npool 3 -i  Done                     04/23/2018 14:07:59
00015 suncat2043 pw.x -npool 3 -i  Done                     04/23/2018 14:07:59
00016 suncat2043 pw.x -npool 3 -i  Done                     04/23/2018 14:07:59
00017 suncat2043 pw.x -npool 3 -i  Done                     04/23/2018 14:07:59
00018 suncat2043 pw.x -npool 3 -i  Done                     04/23/2018 14:07:59
00019 suncat2043 pw.x -npool 3 -i  Done                     04/23/2018 14:07:59
00020 suncat2013 pw.x -npool 3 -i  Done                     04/23/2018 14:07:59
00021 suncat2013 pw.x -npool 3 -i  Done                     04/23/2018 14:07:59
00022 suncat2013 pw.x -npool 3 -i  Done                     04/23/2018 14:07:59
00023 suncat2013 pw.x -npool 3 -i  Done                     04/23/2018 14:07:59
00024 suncat2013 pw.x -npool 3 -i  Done                     04/23/2018 14:07:59
00025 suncat2013 pw.x -npool 3 -i  Done                     04/23/2018 14:07:59
00026 suncat2013 pw.x -npool 3 -i  Done                     04/23/2018 14:07:59
00027 suncat2013 pw.x -npool 3 -i  Done                     04/23/2018 14:07:59
00028 suncat2013 pw.x -npool 3 -i  Done                     04/23/2018 14:07:59
00029 suncat2013 pw.x -npool 3 -i  Done                     04/23/2018 14:07:59
00030 suncat2013 pw.x -npool 3 -i  Done                     04/23/2018 14:07:59
00031 suncat2013 pw.x -npool 3 -i  Done                     04/23/2018 14:07:59
00032 suncat2013 pw.x -npool 3 -i  Done                     04/23/2018 14:07:59
00033 suncat2013 pw.x -npool 3 -i  Done                     04/23/2018 14:07:59
00034 suncat2013 pw.x -npool 3 -i  Done                     04/23/2018 14:07:59
00035 suncat2013 pw.x -npool 3 -i  Done                     04/23/2018 14:07:59