     Program PWSCF v.5.1rc2 (svn rev. 11289) starts on 16Apr2018 at 10: 2:31

     Current dimensions of program PWSCF are:
     Max number of different atomic species (ntypx) = 10
     Max number of k-points (npk) =  40000
     Max angular momentum in pseudopotentials (lmaxx) =  3
     Presently stress not available with electric field

     IMPORTANT: XC functional enforced from input :
     Exchange-correlation      = BEEF-VDW ( 1  4 27 13 2)
     Any further DFT definition will be discarded
     Please, verify this is what you really want

     Subspace diagonalization in iterative solution of the eigenvalue problem:
     a serial algorithm will be used

     bravais-lattice index     =            0
     lattice parameter (alat)  =       1.8897  a.u.
     unit-cell volume          =    5174.6160 (a.u.)^3
     number of atoms/cell      =           14
     number of atomic types    =            3
     number of electrons       =       234.00
     number of Kohn-Sham states=          127
     kinetic-energy cutoff     =      36.7493  Ry
     charge density cutoff     =     367.4932  Ry
     convergence threshold     =      1.0E-05
     mixing beta               =       0.3000
     number of iterations used =           10  plain     mixing
     Exchange-correlation      = BEEF-VDW ( 1  4 27 13 2)
     nstep                     =           50

     celldm(1)=   1.889726  celldm(2)=   0.000000  celldm(3)=   0.000000
     celldm(4)=   0.000000  celldm(5)=   0.000000  celldm(6)=   0.000000

     crystal axes: (cart. coord. in units of alat)
               a(1) = (   5.966546   0.000000   0.000000 )
               a(2) = (   2.983273   5.167181   0.000000 )
               a(3) = (   0.000000   0.000000  24.871665 )

     reciprocal axes: (cart. coord. in units 2 pi/alat)
               b(1) = (  0.167601 -0.096765  0.000000 )
               b(2) = (  0.000000  0.193529  0.000000 )
               b(3) = (  0.000000  0.000000  0.040206 )

     PseudoPot. # 1 for Ag read from file:
     /u/if/mamunm/psp/gbrv1.5pbe/Ag.UPF
     MD5 check sum: d66d668201baa78d5eb5b04ef7011058
     Pseudo is Ultrasoft + core correction, Zval = 19.0
     Generated by new atomic code, or converted to UPF format
     Using radial grid of  887 points,  6 beta functions with:
                l(1) =   0
                l(2) =   0
                l(3) =   1
                l(4) =   1
                l(5) =   2
                l(6) =   2
     Q(r) pseudized with  6 coefficients,  rinner =    1.300   1.300   1.300
                                                       1.300   1.300

     PseudoPot. # 2 for N  read from file:
     /u/if/mamunm/psp/gbrv1.5pbe/N.UPF
     MD5 check sum: 95339753478d7afb44899504a8723017
     Pseudo is Ultrasoft + core correction, Zval =  5.0
     Generated by new atomic code, or converted to UPF format
     Using radial grid of  729 points,  4 beta functions with:
                l(1) =   0
                l(2) =   0
                l(3) =   1
                l(4) =   1
     Q(r) pseudized with  8 coefficients,  rinner =    0.900   0.900   0.900

     PseudoPot. # 3 for H  read from file:
     /u/if/mamunm/psp/gbrv1.5pbe/H.UPF
     MD5 check sum: 761ae9a214b05c3daf00ab9f6b793d6f
     Pseudo is Ultrasoft, Zval =  1.0
     Generated by new atomic code, or converted to UPF format
     Using radial grid of  615 points,  2 beta functions with:
                l(1) =   0
                l(2) =   0
     Q(r) pseudized with  8 coefficients,  rinner =    0.700

     vdW kernel table read from file vdW_kernel_table
     MD5 check sum: 095c7af220d748ca6e76c0b4c6cfb241

     atomic species   valence    mass     pseudopotential
        Ag1           19.00   107.86820     Ag( 1.00)
        N1             5.00    14.00700     N ( 1.00)
        H1             1.00     1.00800     H ( 1.00)

     No symmetry found

   Cartesian axes

     site n.     atom                  positions (alat units)
         1           Ag1 tau(   1) = (   1.4916366   0.8611968  10.0000000  )
         2           Ag1 tau(   2) = (   4.4749098   0.8611968  10.0000000  )
         3           Ag1 tau(   3) = (   2.9832732   3.4447871  10.0000000  )
         4           Ag1 tau(   4) = (   5.9665464   3.4447871  10.0000000  )
         5           Ag1 tau(   5) = (   5.9665464   1.7223936  12.4358324  )
         6           Ag1 tau(   6) = (   2.9832732   1.7223936  12.4358324  )
         7           Ag1 tau(   7) = (   7.4581830   4.3059839  12.4358324  )
         8           Ag1 tau(   8) = (   4.4749098   4.3059839  12.4358324  )
         9           Ag1 tau(   9) = (   0.0000000   0.0000000  14.8716647  )
        10           Ag1 tau(  10) = (   2.9832732   0.0000000  14.8716647  )
        11           Ag1 tau(  11) = (   1.4916366   2.5835904  14.8716647  )
        12           Ag1 tau(  12) = (   4.4749098   2.5835904  14.8716647  )
        13           N1  tau(  13) = (   1.4916366   0.8611968  16.2756647  )
        14           H1  tau(  14) = (   1.4916366   0.8611968  17.3256647  )

     number of k points=    20  Fermi-Dirac smearing, width (Ry)=  0.0110
                       cart. coord. in units 2pi/alat
        k(    1) = (   0.0000000   0.0000000   0.0000000), wk =   0.0555556
        k(    2) = (   0.0000000   0.0322549   0.0000000), wk =   0.1111111
        k(    3) = (   0.0000000   0.0645097   0.0000000), wk =   0.1111111
        k(    4) = (   0.0000000  -0.0967646   0.0000000), wk =   0.0555556
        k(    5) = (   0.0279335  -0.0161274   0.0000000), wk =   0.1111111
        k(    6) = (   0.0279335   0.0161274   0.0000000), wk =   0.1111111
        k(    7) = (   0.0279335   0.0483823   0.0000000), wk =   0.1111111
        k(    8) = (   0.0279335  -0.1128920   0.0000000), wk =   0.1111111
        k(    9) = (   0.0279335  -0.0806371   0.0000000), wk =   0.1111111
        k(   10) = (   0.0279335  -0.0483823   0.0000000), wk =   0.1111111
        k(   11) = (   0.0558670  -0.0322549   0.0000000), wk =   0.1111111
        k(   12) = (   0.0558670   0.0000000   0.0000000), wk =   0.1111111
        k(   13) = (   0.0558670   0.0322549   0.0000000), wk =   0.1111111
        k(   14) = (   0.0558670  -0.1290194   0.0000000), wk =   0.1111111
        k(   15) = (   0.0558670  -0.0967646   0.0000000), wk =   0.1111111
        k(   16) = (   0.0558670  -0.0645097   0.0000000), wk =   0.1111111
        k(   17) = (  -0.0838006   0.0483823   0.0000000), wk =   0.0555556
        k(   18) = (  -0.0838006   0.0806371   0.0000000), wk =   0.1111111
        k(   19) = (  -0.0838006   0.1128920   0.0000000), wk =   0.1111111
        k(   20) = (  -0.0838006  -0.0483823   0.0000000), wk =   0.0555556

     Largest allocated arrays     est. size (Mb)     dimensions
     Largest temporary arrays     est. size (Mb)     dimensions

     Initial potential from superposition of free atoms
     Check: negative starting charge=   -0.002049

     starting charge  227.99941, renormalised to  234.00000

     negative rho (up, down):  2.103E-03 0.000E+00

     *
     * You are using vdW-DF for exchange-correlation in this calculation.
     * Please cite the following three references that made this development
     * possible:
     *
     *   M. Dion, H. Rydberg, E. Schroder, D. C. Langreth, and
     *   B. I. Lundqvist, Phys. Rev. Lett. 92, 246401 (2004).
     *
     *   T. Thonhauser, V. R. Cooper, S. Li, A. Puzder, P. Hyldgaard, and
     *   D. C. Langreth, Phys. Rev. B 76, 125112 (2007).
     *
     *   G. Roman-Perez and J. M. Soler, Phys. Rev. Lett. 103, 096102 (2009).
     *
     *
     * If you are using vdW-DF2, please also cite:
     *
     *   K. Lee, E. D. Murray, L. Kong, B. I. Lundqvist, and
     *   D. C. Langreth, Phys. Rev. B 82, 081101(R) (2010).
     *
     *
     * If you are calculating the stress with vdW-DF, please also cite:
     *
     *   R. Sabatini, E. Kucukbenli, B. Kolb, T. Thonhauser, and
     *   S. de Gironcoli, J. Phys.: Condens. Matter 24, 424209 (2012).
     *

     Carrying out vdW-DF run using the following parameters:

     Nqs =      20    Nr_points =    1024   r_max =   100.000
     q_mesh =
               0.00001000     0.04494208     0.09755937     0.15916263
               0.23128650     0.31572767     0.41458969     0.53033537
               0.66584808     0.82450364     1.01025438     1.22772762
               1.48234092     1.78043706     2.12944203     2.53805004
               3.01644009     3.57652955     4.23227104     5.00000000

     Gradients computed in reciprocal space

     Adding external electric field

     Computed dipole along edir(3) :
        Dipole               -1.1979 Ry au,         -3.0448 Debye
        Dipole field         -0.0029 Ry au

        Potential amp.        0.2666 Ry
        Total length         45.8256 bohr

     Starting wfc are  161 randomized atomic wfcs

     Self-consistent Calculation

     iteration #  1     ecut=    36.75 Ry     beta=0.30
     Davidson diagonalization with overlap
     ethr =  1.00E-02,  avg # of iterations =  5.7

[...]

     total energy              =   -3569.33158244 Ry
     Harris-Foulkes estimate   =   -3584.51541634 Ry
     estimated scf accuracy    <      32.76221267 Ry

[...]

     End of self-consistent calculation

          k = 0.0000 0.0000 0.0000 ( 19435 PWs)   bands (ev):

   -90.7903 -90.7662 -90.7613 -90.7613 -90.5915 -90.5829 -90.5818 -90.5777
   -90.5776 -90.5181 -90.5130 -90.5130 -54.3135 -54.3135 -54.3079 -54.2811
   -54.2651 -54.2583 -54.2583 -54.2515 -54.2515 -54.2386 -54.2255 -54.2255
   -54.1317 -54.1316 -54.1254 -54.1115 -54.1115 -54.0713 -54.0713 -54.0674
   -54.0665 -54.0620 -54.0568 -54.0529 -54.0527 -54.0484 -54.0484 -54.0478
   -54.0309 -54.0309 -54.0166 -53.9848 -53.9822 -53.9822 -53.9735 -53.9735
   -13.0358  -5.5442  -5.0790  -4.5080  -4.5076  -4.5076  -4.4665  -4.3905
    -4.3905  -4.3595  -4.2833  -4.2675  -4.2675  -4.1650  -4.1138  -4.1138
    -3.6433  -3.5873  -3.5872  -3.4260  -3.4260  -3.4098  -3.3316  -3.3288
    -3.3288  -3.2523  -3.2523  -3.1523  -3.1523  -3.1147  -3.0817  -3.0817
    -2.7817  -2.6929  -2.6929  -2.5995  -2.5163  -2.5163  -2.4920  -2.4919
    -2.4406  -2.4047  -2.3118  -2.3118  -2.2127  -2.2127  -2.0730  -2.0730
    -1.9854  -1.9810  -1.9629  -1.9629  -1.9020  -1.9019  -1.8552  -1.8552
    -1.8462  -1.6861  -1.6861  -1.6791  -1.6608  -1.6608  -1.6054  -1.3371
     0.4315   0.4315   0.4565   1.8437   1.8437   1.8473   2.1768   2.6150
     2.6150   2.7595   3.1711   3.1712   3.8114   4.8748   5.0304

[...]

          k =-0.0838 0.0484 0.0000 ( 19500 PWs)   bands (ev):

[...]

     the Fermi energy is     1.2836 ev

!    total energy              =   -3581.24227829 Ry
     Harris-Foulkes estimate   =   -3581.24228388 Ry
     estimated scf accuracy    <       0.00000746 Ry

     The total energy is the sum of the following terms:

     one-electron contribution =  -26257.99299528 Ry
     hartree contribution      =   13122.71488178 Ry
     xc contribution           =    -367.21326080 Ry
     ewald contribution        =    9921.27370523 Ry
     electric field correction =       0.00000170 Ry
     smearing contrib. (-TS)   =      -0.02461092 Ry

     convergence has been achieved in  15 iterations

 BEEF-vdW xc energy contributions
           1 :   -318.086852199986
           2 :    287.847430168660
           3 :   -237.443822942809
           4 :    182.124127798994
           5 :   -135.692446365489
           6 :    105.542360636413
           7 :   -91.3087444011154
           8 :    87.1005483903283
           9 :   -85.6247350824767
          10 :    81.8617641122523
          11 :   -74.6167084109986
          12 :    65.6765112842746
          13 :   -57.6501106114218
          14 :    52.0441792135908
          15 :   -48.6224728859083
          16 :    46.0757894092704
          17 :   -43.2270490252664
          18 :    39.8228762829521
          19 :   -36.4600138515570
          20 :    33.8867920348003
          21 :   -32.3160122594413
          22 :    31.2582324750496
          23 :   -29.9326982773834
          24 :    27.8834390559019
          25 :   -25.3245044729287
          26 :    22.9748858796853
          27 :   -21.5336461339311
          28 :    21.1880543859430
          29 :   -21.4990809317167
          30 :    21.7211535689547
          31 :   -31.8401849284191
          32 :   -23.1328876920333

     Forces acting on atoms (Ry/au):

     negative rho (up, down):  2.199E-03 0.000E+00
     atom    1 type  1   force =     0.00000058   -0.00000140    0.00322015
     atom    2 type  1   force =    -0.00000063    0.00038042    0.00003319
     atom    3 type  1   force =     0.00033178   -0.00019163    0.00001465
     atom    4 type  1   force =    -0.00033378   -0.00018887   -0.00002635
     atom    5 type  1   force =    -0.00029418    0.00019531   -0.00143042
     atom    6 type  1   force =     0.00029429    0.00017954   -0.00143923
     atom    7 type  1   force =    -0.00001341   -0.00001547    0.01344021
     atom    8 type  1   force =     0.00001493   -0.00035743   -0.00142663
     atom    9 type  1   force =    -0.01171490   -0.00676312    0.01114352
     atom   10 type  1   force =     0.01171489   -0.00676240    0.01113663
     atom   11 type  1   force =     0.00000099    0.01352574    0.01113243
     atom   12 type  1   force =    -0.00000077   -0.00000069   -0.00676180
     atom   13 type  2   force =     0.00000008   -0.00000003    0.00239433
     atom   14 type  3   force =     0.00000012    0.00000003   -0.04143068

     Total force =     0.051855     Total SCF correction =     0.007949
     SCF correction compared to forces is large: reduce conv_thr to get better values

     entering subroutine stress ...

     negative rho (up, down):  2.199E-03 0.000E+00
          total   stress  (Ry/bohr**3)                   (kbar)     P=   -7.72
  -0.00004942  -0.00000000  -0.00000000         -7.27     -0.00     -0.00
  -0.00000000  -0.00004942  -0.00000000         -0.00     -7.27     -0.00
  -0.00000000  -0.00000000  -0.00005861         -0.00     -0.00     -8.62

     BFGS Geometry Optimization

     number of scf cycles    =   1
     number of bfgs steps    =   0

     energy   new            =   -3581.2422782870 Ry

     new trust radius        =       0.0414306830 bohr
     new conv_thr            =       0.0000099958 Ry

ATOMIC_POSITIONS (crystal)
Ag1      0.166666667   0.166666667   0.402063960    0   0   0
Ag1      0.666666667   0.166666667   0.402063960    0   0   0
Ag1      0.166666667   0.666666667   0.402063960    0   0   0
Ag1      0.666666667   0.666666667   0.402063960    0   0   0
Ag1      0.833333333   0.333333333   0.500000000    0   0   0
Ag1      0.333333333   0.333333333   0.500000000    0   0   0
Ag1      0.833333333   0.833333333   0.500000000    0   0   0
Ag1      0.333333333   0.833333333   0.500000000    0   0   0
Ag1     -0.000692693  -0.000692619   0.598173133
Ag1      0.501385275  -0.000692546   0.598172987
Ag1     -0.000692506   0.501385188   0.598172897
Ag1      0.499999967   0.499999929   0.597792174
N1       0.166666675   0.166666663   0.654436763
H1       0.166666676   0.166666670   0.695721044

     Writing output data file calc.save
     Check: negative starting charge=   -0.002049
     NEW-OLD atomic charge density approx. for the potential
     Check: negative starting charge=   -0.002054

[...]

     energy   old            =   -3581.2422782869 Ry
     energy   new            =   -3581.2441769656 Ry

     CASE: energy  _new < energy  _old

[...]

     Total force =     0.060619     Total SCF correction =     0.000660

[...]

     Threshold (ethr) on eigenvalues was too large:
     Diagonalizing with lowered threshold

     Davidson diagonalization with overlap
     ethr =  3.91E-08,  avg # of iterations =  1.0

[...]

     Total force =     0.006353     Total SCF correction =     0.000316

[...]

     number of scf cycles    =  14
     number of bfgs steps    =  13

     energy   old            =   -3581.2573769906 Ry
     energy   new            =   -3581.2573909981 Ry

     CASE: energy  _new < energy  _old

     new trust radius        =       0.0068950355 bohr
     new conv_thr            =       0.0000001000 Ry

ATOMIC_POSITIONS (crystal)
Ag1      0.166666667   0.166666667   0.402063960    0   0   0
Ag1      0.666666667   0.166666667   0.402063960    0   0   0
Ag1      0.166666667   0.666666667   0.402063960    0   0   0
Ag1      0.666666667   0.666666667   0.402063960    0   0   0
Ag1      0.833333333   0.333333333   0.500000000    0   0   0
Ag1      0.333333333   0.333333333   0.500000000    0   0   0
Ag1      0.833333333   0.833333333   0.500000000    0   0   0
Ag1      0.333333333   0.833333333   0.500000000    0   0   0
Ag1     -0.009710847  -0.009711927   0.599712561
Ag1      0.519422849  -0.009712668   0.599712622
Ag1     -0.009712129   0.519422711   0.599712618
Ag1      0.500000122   0.499999637   0.593860027
N1       0.166666705   0.166666775   0.645568490
H1       0.166667162   0.166668917   0.686742551

     Writing output data file calc.save
     Check: negative starting charge=   -0.002215
     NEW-OLD atomic charge density approx. for the potential
     Check: negative starting charge=   -0.002213

[...]

     Self-consistent Calculation

[...]

     Threshold (ethr) on eigenvalues was too large:
     Diagonalizing with lowered threshold

     Davidson diagonalization with overlap
     ethr =  8.83E-09,  avg # of iterations =  1.0

[...]

     total energy              =   -3581.25740389 Ry
     Harris-Foulkes estimate   =   -3581.25740388 Ry
     estimated scf accuracy    <       0.00000013 Ry

     iteration #  6     ecut=    36.75 Ry     beta=0.30
     Davidson diagonalization with overlap
     ethr =  5.73E-11,  avg # of iterations =  2.0

[...]

     negative rho (up, down):  2.344E-03 0.000E+00

     Adding external electric field

     Computed dipole along edir(3) :
        Dipole                0.0312 Ry au,          0.0792 Debye
        Dipole field          0.0001 Ry au

        Potential amp.       -0.0069 Ry
        Total length         45.8256 bohr

     End of self-consistent calculation

[...]

          k = 0.0559-0.0645 0.0000 ( 19479 PWs)   bands (ev):

[...]

          k =-0.0838-0.0484 0.0000 ( 19500 PWs)   bands (ev):

   -90.7384 -90.6884 -90.6866 -90.6849 -90.5701 -90.5245 -90.4945 -90.4926
   -90.4910 -90.4728 -90.4671 -90.4662 -54.2455 -54.2329 -54.2283 -54.2171
   -54.1911 -54.1881 -54.1848 -54.1834 -54.1816 -54.1794 -54.1698 -54.1581
   -54.0829 -54.0763 -54.0581 -54.0458 -54.0300 -54.0250 -54.0127 -54.0012
   -53.9976 -53.9970 -53.9968 -53.9965 -53.9886 -53.9832 -53.9698 -53.9688
   -53.9669 -53.9652 -53.9630 -53.9514 -53.9382 -53.9348 -53.9271 -53.9236
   -13.4232  -5.3121  -4.2744  -4.1860  -4.1153  -4.0267  -4.0055  -3.9689
    -3.9062  -3.8750  -3.8069  -3.8052  -3.7559  -3.7330  -3.6985  -3.6549
    -3.6041  -3.5424  -3.4553  -3.3916  -3.3540  -3.3366  -3.3124  -3.2968
    -3.2562  -3.2130  -3.1953  -3.1108  -3.0289  -3.0213  -2.9394  -2.9125
    -2.8875  -2.8001  -2.7713  -2.7309  -2.7219  -2.7056  -2.6694  -2.6533
    -2.6140  -2.6057  -2.5200  -2.4943  -2.4719  -2.4687  -2.4197  -2.4080
    -2.3841  -2.3596  -2.3429  -2.3173  -2.3051  -2.1831  -2.1458  -2.1312
    -2.0960  -1.9194  -1.8736  -1.8495  -1.8377  -1.7879  -1.7032  -1.3014
    -1.1383  -0.1007   0.1998   0.4993   1.2121   1.3202   1.9913   2.3561
     3.0025   3.3449   4.3293   4.4777   5.2842   5.4477   6.1101

     the Fermi energy is     1.3728 ev

!    total energy              =   -3581.25740389 Ry
     Harris-Foulkes estimate   =   -3581.25740389 Ry
     estimated scf accuracy    <       0.00000001 Ry

     The total energy is the sum of the following terms:

     one-electron contribution =  -26314.77441671 Ry
     hartree contribution      =   13151.49565837 Ry
     xc contribution           =    -367.29658249 Ry
     ewald contribution        =    9949.34124549 Ry
     electric field correction =       0.00000236 Ry
     smearing contrib. (-TS)   =      -0.02331091 Ry

     convergence has been achieved in   6 iterations

 BEEF-vdW xc energy contributions
           1 :   -318.179104353162
           2 :    287.981882014239
           3 :   -237.611028576904
           4 :    182.263637594282
           5 :   -135.738252607806
           6 :    105.471449843432
           7 :   -91.1600776699280
           8 :    86.9530901735772
           9 :   -85.5502555329783
          10 :    81.8837111572296
          11 :   -74.7007281657972
          12 :    65.7568264919367
          13 :   -57.6740153873319
          14 :    52.0046036884273
          15 :   -48.5585303678023
          16 :    46.0432111371379
          17 :   -43.2590583248756
          18 :    39.9077208665746
          19 :   -36.5492281846274
          20 :    33.9268862394125
          21 :   -32.2815541698477
          22 :    31.1663588234441
          23 :   -29.8319060171555
          24 :    27.8245857544937
          25 :   -25.3322499323526
          26 :    23.0361803895831
          27 :   -21.6086983860573
          28 :    21.2359697175306
          29 :   -21.5012140751888
          30 :    21.6873431880471
          31 :   -31.8471645753200
          32 :   -23.1462371742604

     Forces acting on atoms (Ry/au):

     negative rho (up, down):  2.344E-03 0.000E+00
     atom    1 type  1   force =     0.00000000    0.00000000    0.00281796
     atom    2 type  1   force =     0.00000000    0.00055870   -0.00176371
     atom    3 type  1   force =     0.00048385   -0.00027935   -0.00176373
     atom    4 type  1   force =    -0.00048384   -0.00027935   -0.00176375
     atom    5 type  1   force =     0.00231856   -0.00133868   -0.00255251
     atom    6 type  1   force =    -0.00231863   -0.00133869   -0.00255226
     atom    7 type  1   force =    -0.00000001   -0.00000000    0.00990073
     atom    8 type  1   force =    -0.00000002    0.00267719   -0.00255257
     atom    9 type  1   force =     0.00082192    0.00047503    0.00011837
     atom   10 type  1   force =    -0.00082193    0.00047598    0.00011786
     atom   11 type  1   force =     0.00000085   -0.00095001    0.00011760
     atom   12 type  1   force =    -0.00000059   -0.00000060    0.00189294
     atom   13 type  2   force =     0.00000034    0.00000036   -0.00016880
     atom   14 type  3   force =    -0.00000050   -0.00000059   -0.00184813

     Total force =     0.003126     Total SCF correction =     0.000411
     SCF correction compared to forces is large: reduce conv_thr to get better values

     entering subroutine stress ...

     negative rho (up, down):  2.344E-03 0.000E+00
          total   stress  (Ry/bohr**3)                   (kbar)     P=   -3.70
  -0.00002737  -0.00000000  -0.00000000         -4.03     -0.00     -0.00
  -0.00000000  -0.00002736  -0.00000000         -0.00     -4.03     -0.00
  -0.00000000  -0.00000000  -0.00002070         -0.00     -0.00     -3.04

     bfgs converged in  15 scf cycles and  14 bfgs steps
     (criteria: energy <  1.0E+00, force <  1.9E-03)

     End of BFGS Geometry Optimization

     Final energy   =   -3581.2574038948 Ry
Begin final coordinates

ATOMIC_POSITIONS (crystal)
Ag1      0.166666667   0.166666667   0.402063960    0   0   0
Ag1      0.666666667   0.166666667   0.402063960    0   0   0
Ag1      0.166666667   0.666666667   0.402063960    0   0   0
Ag1      0.666666667   0.666666667   0.402063960    0   0   0
Ag1      0.833333333   0.333333333   0.500000000    0   0   0
Ag1      0.333333333   0.333333333   0.500000000    0   0   0
Ag1      0.833333333   0.833333333   0.500000000    0   0   0
Ag1      0.333333333   0.833333333   0.500000000    0   0   0
Ag1     -0.009710847  -0.009711927   0.599712561
Ag1      0.519422849  -0.009712668   0.599712622
Ag1     -0.009712129   0.519422711   0.599712618
Ag1      0.500000122   0.499999637   0.593860027
N1       0.166666705   0.166666775   0.645568490
H1       0.166667162   0.166668917   0.686742551
End final coordinates

     Writing output data file calc.save

     General routines

     Parallel routines

   This run was terminated on:  11:27:16  16Apr2018

   JOB DONE.
Job  /afs/slac/g/suncat/bin/suncat-tsmpirun -x LD_LIBRARY_PATH -wdir /scratch/qe103512_buuNs pw.x -npool 4 -in pw.inp

TID   HOST_NAME   COMMAND_LINE            STATUS            TERMINATION_TIME
00000 suncat0095 pw.x -npool 4 -i  Done                     04/16/2018 11:27:16
00001 suncat0095 pw.x -npool 4 -i  Done                     04/16/2018 11:27:16
00002 suncat0095 pw.x -npool 4 -i  Done                     04/16/2018 11:27:16
00003 suncat0095 pw.x -npool 4 -i  Done                     04/16/2018 11:27:16
00004 suncat0095 pw.x -npool 4 -i  Done                     04/16/2018 11:27:16
00005 suncat0095 pw.x -npool 4 -i  Done                     04/16/2018 11:27:16
00006 suncat0095 pw.x -npool 4 -i  Done                     04/16/2018 11:27:16
00007 suncat0095 pw.x -npool 4 -i  Done                     04/16/2018 11:27:16
00008 suncat0092 pw.x -npool 4 -i  Done                     04/16/2018 11:27:16
00009 suncat0092 pw.x -npool 4 -i  Done                     04/16/2018 11:27:16
00010 suncat0092 pw.x -npool 4 -i  Done                     04/16/2018 11:27:16
00011 suncat0092 pw.x -npool 4 -i  Done                     04/16/2018 11:27:16
00012 suncat0092 pw.x -npool 4 -i  Done                     04/16/2018 11:27:16
00013 suncat0092 pw.x -npool 4 -i  Done                     04/16/2018 11:27:16
00014 suncat0092 pw.x -npool 4 -i  Done                     04/16/2018 11:27:16
00015 suncat0092 pw.x -npool 4 -i  Done                     04/16/2018 11:27:16
00016 suncat0047 pw.x -npool 4 -i  Done                     04/16/2018 11:27:16
00017 suncat0047 pw.x -npool 4 -i  Done                     04/16/2018 11:27:16
00018 suncat0047 pw.x -npool 4 -i  Done                     04/16/2018 11:27:16
00019 suncat0047 pw.x -npool 4 -i  Done                     04/16/2018 11:27:16
00020 suncat0047 pw.x -npool 4 -i  Done                     04/16/2018 11:27:16
00021 suncat0047 pw.x -npool 4 -i  Done                     04/16/2018 11:27:16
00022 suncat0047 pw.x -npool 4 -i  Done                     04/16/2018 11:27:16
00023 suncat0047 pw.x -npool 4 -i  Done                     04/16/2018 11:27:16
00024 suncat0042 pw.x -npool 4 -i  Done                     04/16/2018 11:27:16
00025 suncat0042 pw.x -npool 4 -i  Done                     04/16/2018 11:27:16
00026 suncat0042 pw.x -npool 4 -i  Done                     04/16/2018 11:27:16
00027 suncat0042 pw.x -npool 4 -i  Done                     04/16/2018 11:27:16
00028 suncat0042 pw.x -npool 4 -i  Done                     04/16/2018 11:27:16
00029 suncat0042 pw.x -npool 4 -i  Done                     04/16/2018 11:27:16
00030 suncat0042 pw.x -npool 4 -i  Done                     04/16/2018 11:27:16
00031 suncat0042 pw.x -npool 4 -i  Done                     04/16/2018 11:27:16