     Program PWSCF v.5.1rc2 (svn rev. 11289) starts on  2May2018 at 17:28: 9

     Current dimensions of program PWSCF are:
     Max number of different atomic species (ntypx) = 10
     Max number of k-points (npk) =  40000
     Max angular momentum in pseudopotentials (lmaxx) =  3
     Presently stress not available with electric field

     IMPORTANT: XC functional enforced from input :
     Exchange-correlation      = BEEF-VDW ( 1  4 27 13 2)
     Any further DFT definition will be discarded
     Please, verify this is what you really want

     Subspace diagonalization in iterative solution of the eigenvalue problem:
     a serial algorithm will be used

     bravais-lattice index     =            0
     lattice parameter (alat)  =       1.8897  a.u.
     unit-cell volume          =    4158.3597 (a.u.)^3
     number of atoms/cell      =           13
     number of atomic types    =            2
     number of electrons       =       160.00
     number of Kohn-Sham states=           90
     kinetic-energy cutoff     =      36.7493  Ry
     charge density cutoff     =     367.4932  Ry
     convergence threshold     =      1.0E-05
     mixing beta               =       0.3000
     number of iterations used =           10  plain     mixing
     Exchange-correlation      = BEEF-VDW ( 1  4 27 13 2)
     nstep                     =           50

     celldm(1)=   1.889726  celldm(2)=   0.000000  celldm(3)=   0.000000
     celldm(4)=   0.000000  celldm(5)=   0.000000  celldm(6)=   0.000000

     crystal axes: (cart. coord. in units of alat)
               a(1) = (   5.399178   0.000000   0.000000 )
               a(2) = (   2.699589   4.675825   0.000000 )
               a(3) = (   0.000000   0.000000  24.408411 )

     reciprocal axes: (cart. coord. in units 2 pi/alat)
               b(1) = (  0.185213 -0.106933  0.000000 )
               b(2) = (  0.000000  0.213866  0.000000 )
               b(3) = (  0.000000  0.000000  0.040969 )

     PseudoPot. # 1 for V  read from file:
     /u/if/mamunm/psp/gbrv1.5pbe/V.UPF
     MD5 check sum: 22b79981416ebb76fdaf5b1b8640f6fb
     Pseudo is Ultrasoft + core correction, Zval = 13.0
     Generated by new atomic code, or converted to UPF format
     Using radial grid of  853 points,  6 beta functions with:
                l(1) =   0
                l(2) =   0
                l(3) =   1
                l(4) =   1
                l(5) =   2
                l(6) =   2
     Q(r) pseudized with  8 coefficients,  rinner =    1.100   1.100   1.100
                                                       1.100   1.100

     PseudoPot. # 2 for C  read from file:
     /u/if/mamunm/psp/gbrv1.5pbe/C.UPF
     MD5 check sum: d1aef80898a10debaa0f26306b886e00
     Pseudo is Ultrasoft + core correction, Zval =  4.0
     Generated by new atomic code, or converted to UPF format
     Using radial grid of  721 points,  4 beta functions with:
                l(1) =   0
                l(2) =   0
                l(3) =   1
                l(4) =   1
     Q(r) pseudized with  8 coefficients,  rinner =    1.100   1.100   1.100

     vdW kernel table read from file vdW_kernel_table
     MD5 check sum: 095c7af220d748ca6e76c0b4c6cfb241

     atomic species   valence    mass     pseudopotential
        V1            13.00    50.94150     V ( 1.00)
        C1             4.00    12.01100     C ( 1.00)

     No symmetry found

   Cartesian axes

     site n.     atom                  positions (alat units)
         1           V1  tau(   1) = (   1.3497945   0.7793042  10.0000000  )
         2           V1  tau(   2) = (   4.0493836   0.7793042  10.0000000  )
         3           V1  tau(   3) = (   2.6995891   3.1172170  10.0000000  )
         4           V1  tau(   4) = (   5.3991782   3.1172170  10.0000000  )
         5           V1  tau(   5) = (   5.3991782   1.5586085  12.2042053  )
         6           V1  tau(   6) = (   2.6995891   1.5586085  12.2042053  )
         7           V1  tau(   7) = (   6.7489727   3.8965212  12.2042053  )
         8           V1  tau(   8) = (   4.0493836   3.8965212  12.2042053  )
         9           V1  tau(   9) = (   0.0000000   0.0000000  14.4084105  )
        10           V1  tau(  10) = (   2.6995891   0.0000000  14.4084105  )
        11           V1  tau(  11) = (   1.3497945   2.3379127  14.4084105  )
        12           V1  tau(  12) = (   4.0493836   2.3379127  14.4084105  )
        13           C1  tau(  13) = (   2.6995891   1.5586085  15.8969105  )

     number of k points=    20  Fermi-Dirac smearing, width (Ry)=  0.0110
                       cart. coord. in units 2pi/alat
        k(    1) = (   0.0000000   0.0000000   0.0000000), wk =   0.0555556
        k(    2) = (   0.0000000   0.0356443   0.0000000), wk =   0.1111111
        k(    3) = (   0.0000000   0.0712887   0.0000000), wk =   0.1111111
        k(    4) = (   0.0000000  -0.1069330   0.0000000), wk =   0.0555556
        k(    5) = (   0.0308689  -0.0178222   0.0000000), wk =   0.1111111
        k(    6) = (   0.0308689   0.0178222   0.0000000), wk =   0.1111111
        k(    7) = (   0.0308689   0.0534665   0.0000000), wk =   0.1111111
        k(    8) = (   0.0308689  -0.1247552   0.0000000), wk =   0.1111111
        k(    9) = (   0.0308689  -0.0891108   0.0000000), wk =   0.1111111
        k(   10) = (   0.0308689  -0.0534665   0.0000000), wk =   0.1111111
        k(   11) = (   0.0617378  -0.0356443   0.0000000), wk =   0.1111111
        k(   12) = (   0.0617378   0.0000000   0.0000000), wk =   0.1111111
        k(   13) = (   0.0617378   0.0356443   0.0000000), wk =   0.1111111
        k(   14) = (   0.0617378  -0.1425773   0.0000000), wk =   0.1111111
        k(   15) = (   0.0617378  -0.1069330   0.0000000), wk =   0.1111111
        k(   16) = (   0.0617378  -0.0712887   0.0000000), wk =   0.1111111
        k(   17) = (  -0.0926067   0.0534665   0.0000000), wk =   0.0555556
        k(   18) = (  -0.0926067   0.0891108   0.0000000), wk =   0.1111111
        k(   19) = (  -0.0926067   0.1247552   0.0000000), wk =   0.1111111
        k(   20) = (  -0.0926067  -0.0534665   0.0000000), wk =   0.0555556

     Largest allocated arrays     est. size (Mb)     dimensions
     Largest temporary arrays     est. size (Mb)     dimensions

     Check: negative/imaginary core charge=   -0.000001    0.000000

     Initial potential from superposition of free atoms
     Check: negative starting charge=   -0.011640

     starting charge  159.98523, renormalised to  160.00000

     negative rho (up, down):  1.164E-02 0.000E+00

     *
     * You are using vdW-DF for exchange-correlation in this calculation.
     * Please cite the following three references that made this development
     * possible:
     *
     *   M. Dion, H. Rydberg, E. Schroder, D. C. Langreth, and
     *   B. I. Lundqvist, Phys. Rev. Lett. 92, 246401 (2004).
     *
     *   T. Thonhauser, V. R. Cooper, S. Li, A. Puzder, P. Hyldgaard, and
     *   D. C. Langreth, Phys. Rev. B 76, 125112 (2007).
     *
     *   G. Roman-Perez and J. M. Soler, Phys. Rev. Lett. 103, 096102 (2009).
     *
     *
     * If you are using vdW-DF2, please also cite:
     *
     *   K. Lee, E. D. Murray, L. Kong, B. I. Lundqvist, and
     *   D. C. Langreth, Phys. Rev. B 82, 081101(R) (2010).
     *
     *
     * If you are calculating the stress with vdW-DF, please also cite:
     *
     *   R. Sabatini, E. Kucukbenli, B. Kolb, T. Thonhauser, and
     *   S. de Gironcoli, J. Phys.: Condens. Matter 24, 424209 (2012).
     *

     Carrying out vdW-DF run using the following parameters:

     Nqs =      20    Nr_points =    1024   r_max =   100.000
     q_mesh =
               0.00001000     0.04494208     0.09755937     0.15916263
               0.23128650     0.31572767     0.41458969     0.53033537
               0.66584808     0.82450364     1.01025438     1.22772762
               1.48234092     1.78043706     2.12944203     2.53805004
               3.01644009     3.57652955     4.23227104     5.00000000

     Gradients computed in reciprocal space

     Adding external electric field

     Computed dipole along edir(3) :
        Dipole               -0.0023 Ry au,         -0.0058 Debye
        Dipole field         -0.0000 Ry au

        Potential amp.        0.0006 Ry
        Total length         44.9721 bohr

     Starting wfc are  124 randomized atomic wfcs

     Self-consistent Calculation

     iteration #  1     ecut=    36.75 Ry     beta=0.30
     Davidson diagonalization with overlap
     ethr =  1.00E-02,  avg # of iterations =  2.2

[...]

     total energy              =   -1755.04459938 Ry
     Harris-Foulkes estimate   =   -1760.93858748 Ry
     estimated scf accuracy    <      12.17054512 Ry

[...]

     End of self-consistent calculation

          k = 0.0000 0.0000 0.0000 ( 15569 PWs)   bands (ev):

   -63.6733 -63.6130 -63.5557 -63.5381 -63.5213 -63.5211 -63.4977 -63.4943
   -63.4941 -63.4656 -63.4654 -63.4613 -37.7535 -37.7534 -37.7508 -37.7114
   -37.7025 -37.7024 -37.6756 -37.6254 -37.6253 -37.6132 -37.4854 -37.4014
   -37.3471 -37.3469 -37.3337 -37.3337 -37.3300 -37.2666 -37.2554 -37.2554
   -37.1922 -37.1918 -37.1916 -37.1869 -37.1774 -37.1773 -37.1409 -37.1169
   -37.1147 -37.1146 -37.0896 -37.0895 -37.0380 -37.0379 -36.9932 -36.9932
    -8.3889  -5.3226  -3.6531  -2.6980  -2.4176  -2.4175  -2.3829  -2.3202
    -2.3201  -2.1965  -1.8009  -1.7822  -1.7822  -1.6512  -1.6512  -1.6232
    -0.9746  -0.9746  -0.7926  -0.2398  -0.2397  -0.1523   0.1613   0.3361
     0.3362   0.4769   0.7616   0.7914   0.7914   0.8258   0.9412   0.9413
     0.9888   0.9888   1.0380   1.0646   1.0646   1.2018   1.2994   1.2995
     1.7466   1.7467

[...]

          k =-0.0926 0.0535 0.0000 ( 15660 PWs)   bands (ev):

[...]

     the Fermi energy is     0.6376 ev

!    total energy              =   -1760.34260892 Ry
     Harris-Foulkes estimate   =   -1760.34258594 Ry
     estimated scf accuracy    <       0.00000613 Ry

     The total energy is the sum of the following terms:

     one-electron contribution =  -15211.44022211 Ry
     hartree contribution      =    7592.32095394 Ry
     xc contribution           =    -247.67695769 Ry
     ewald contribution        =    6106.59267413 Ry
     electric field correction =       0.00034103 Ry
     smearing contrib. (-TS)   =      -0.13939823 Ry

     convergence has been achieved in  29 iterations

 BEEF-vdW xc energy contributions
           1 :   -213.377693189642
           2 :    191.519661174749
           3 :   -155.422013642956
           4 :    116.442178469075
           5 :   -84.4707936365951
           6 :    64.1973917715355
           7 :   -54.4744602503108
           8 :    50.5226146890863
           9 :   -47.3102651849451
          10 :    42.1283242755850
          11 :   -35.2262611856503
          12 :    28.6418878713521
          13 :   -24.3150185361144
          14 :    22.7307960937475
          15 :   -22.7928905220719
          16 :    22.7570934105028
          17 :   -21.4469025095088
          18 :    18.9173250743424
          19 :   -16.2112471570341
          20 :    14.4854608743861
          21 :   -14.1722453916094
          22 :    14.7395263597964
          23 :   -15.1476977605456
          24 :    14.6117513236000
          25 :   -13.1136016239060
          26 :    11.3374300323472
          27 :   -10.1312532245455
          28 :    9.90701422675929
          29 :   -10.3956906750061
          30 :    10.8907896689524
          31 :   -22.1852132479609
          32 :   -16.0199159222452

     Forces acting on atoms (Ry/au):

     negative rho (up, down):  1.548E-02 0.000E+00
     atom    1 type  1   force =     0.00041186    0.00024962   -0.00203605
     atom    2 type  1   force =    -0.00041505    0.00025590   -0.00201959
     atom    3 type  1   force =    -0.00000486   -0.00048513   -0.00202360
     atom    4 type  1   force =    -0.00000065   -0.00001223   -0.00276416
     atom    5 type  1   force =    -0.00001159   -0.00147649   -0.00160223
     atom    6 type  1   force =     0.00002165   -0.00002880   -0.00185640
     atom    7 type  1   force =     0.00128363    0.00076756   -0.00161808
     atom    8 type  1   force =    -0.00128642    0.00074103   -0.00157501
     atom    9 type  1   force =    -0.00001890    0.00001659   -0.00181896
     atom   10 type  1   force =     0.00000199    0.04221803    0.05934643
     atom   11 type  1   force =     0.03656258   -0.02112085    0.05931752
     atom   12 type  1   force =    -0.03656143   -0.02112108    0.05930102
     atom   13 type  2   force =     0.00001719   -0.00000415   -0.16065090

     Total force =     0.204248     Total SCF correction =     0.011997

     entering subroutine stress ...

     negative rho (up, down):  1.548E-02 0.000E+00
          total   stress  (Ry/bohr**3)                   (kbar)     P=  -24.62
  -0.00020242  -0.00000001   0.00000001        -29.78     -0.00      0.00
  -0.00000001  -0.00020244   0.00000000         -0.00    -29.78      0.00
   0.00000001   0.00000000  -0.00009716          0.00      0.00    -14.29

     BFGS Geometry Optimization

     number of scf cycles    =   1
     number of bfgs steps    =   0

     energy   new            =   -1760.3426089234 Ry

     new trust radius        =       0.1606509024 bohr
     new conv_thr            =       0.0000099958 Ry

ATOMIC_POSITIONS (crystal)
V1       0.166666667   0.166666667   0.409694847    0   0   0
V1       0.666666667   0.166666667   0.409694847    0   0   0
V1       0.166666667   0.666666667   0.409694847    0   0   0
V1       0.666666667   0.666666667   0.409694847    0   0   0
V1       0.833333333   0.333333333   0.500000000    0   0   0
V1       0.333333333   0.333333333   0.500000000    0   0   0
V1       0.833333333   0.833333333   0.500000000    0   0   0
V1       0.333333333   0.833333333   0.500000000    0   0   0
V1      -0.000002791   0.000001877   0.590265718
V1       0.497611225   0.004777941   0.591591791
V1       0.004778679   0.497609690   0.591591164
V1       0.497611756   0.497609664   0.591590807
C1       0.333335253   0.333332864   0.647805301

     Writing output data file calc.save
     Check: negative starting charge=   -0.011640
     NEW-OLD atomic charge density approx. for the potential

     Check: negative/imaginary core charge=   -0.000001    0.000000
     Check: negative starting charge=   -0.011122

[...]

     energy   old            =   -1760.3426089234 Ry
     energy   new            =   -1760.3794214806 Ry

     CASE: energy  _new < energy  _old

[...]

     WARNING: bfgs curvature condition failed, Theta= 0.952
     new trust radius        =       0.0373907781 bohr
     new conv_thr            =       0.0000001000 Ry

[...]

     Total force =     0.004156     Total SCF correction =     0.000238

[...]

     number of scf cycles    =  14
     number of bfgs steps    =  13

     energy   old            =   -1760.4287292081 Ry
     energy   new            =   -1760.4287716290 Ry

     CASE: energy  _new < energy  _old

     new trust radius        =       0.0059210612 bohr
     new conv_thr            =       0.0000001000 Ry

ATOMIC_POSITIONS (crystal)
V1       0.166666667   0.166666667   0.409694847    0   0   0
V1       0.666666667   0.166666667   0.409694847    0   0   0
V1       0.166666667   0.666666667   0.409694847    0   0   0
V1       0.666666667   0.666666667   0.409694847    0   0   0
V1       0.833333333   0.333333333   0.500000000    0   0   0
V1       0.333333333   0.333333333   0.500000000    0   0   0
V1       0.833333333   0.833333333   0.500000000    0   0   0
V1       0.333333333   0.833333333   0.500000000    0   0   0
V1      -0.000006504   0.000007338   0.576648831
V1       0.507439866  -0.014873574   0.595368161
V1      -0.014875904   0.507442583   0.595368578
V1       0.507437014   0.507439403   0.595368560
C1       0.333336830   0.333331774   0.634909061

     Writing output data file calc.save
     Check: negative starting charge=   -0.010095
     NEW-OLD atomic charge density approx. for the potential

     Check: negative/imaginary core charge=   -0.000001    0.000000
     Check: negative starting charge=   -0.010063

[...]

     Self-consistent Calculation

[...]

     total energy              =   -1760.42878886 Ry
     Harris-Foulkes estimate   =   -1760.42878911 Ry
     estimated scf accuracy    <       0.00000473 Ry

     iteration # 16     ecut=    36.75 Ry     beta=0.30
     Davidson diagonalization with overlap
     ethr =  9.90E-11,  avg # of iterations =  5.0

[...]

     negative rho (up, down):  1.521E-02 0.000E+00

     Adding external electric field

     Computed dipole along edir(3) :
        Dipole               -0.2053 Ry au,         -0.5218 Debye
        Dipole field         -0.0006 Ry au

        Potential amp.        0.0558 Ry
        Total length         44.9721 bohr

     End of self-consistent calculation

[...]

          k = 0.0617-0.0713 0.0000 ( 15642 PWs)   bands (ev):

[...]

          k =-0.0926-0.0535 0.0000 ( 15660 PWs)   bands (ev):

   -63.4630 -63.4247 -63.3913 -63.3843 -63.3688 -63.3448 -63.3439 -63.3380
   -63.3256 -63.3243 -63.3089 -63.1790 -37.5408 -37.4720 -37.4601 -37.4488
   -37.4482 -37.4357 -37.4029 -37.3575 -37.3366 -37.3356 -37.3021 -37.2651
   -37.2614 -37.1915 -37.1845 -37.1717 -37.1643 -37.1528 -37.1494 -37.1437
   -37.1327 -37.1325 -37.0968 -37.0873 -37.0803 -37.0615 -37.0375 -37.0327
   -37.0145 -37.0002 -36.9326 -36.9253 -36.9098 -36.8585 -36.7957 -36.7702
    -8.6473  -3.6682  -3.4801  -2.6785  -2.2058  -1.8603  -1.8296  -1.6369
    -1.5885  -1.4855  -1.4133  -1.3598  -1.0834  -0.9425  -0.8327  -0.7971
    -0.6922  -0.6857  -0.4922  -0.3780  -0.3198  -0.1283  -0.0862  -0.0415
     0.0847   0.0923   0.1476   0.3272   0.3371   0.3697   0.4186   0.4780
     0.5646   0.7043   0.8647   0.9428   0.9845   1.1009   1.1781   1.2549
     1.4816   1.6595

     the Fermi energy is     0.7650 ev

!    total energy              =   -1760.42878885 Ry
     Harris-Foulkes estimate   =   -1760.42878747 Ry
     estimated scf accuracy    <       0.00000006 Ry

     The total energy is the sum of the following terms:

     one-electron contribution =  -15272.63564274 Ry
     hartree contribution      =    7623.84572451 Ry
     xc contribution           =    -248.01833468 Ry
     ewald contribution        =    6136.50916362 Ry
     electric field correction =       0.00012738 Ry
     smearing contrib. (-TS)   =      -0.12982694 Ry

     convergence has been achieved in  16 iterations

 BEEF-vdW xc energy contributions
           1 :   -213.718669480518
           2 :    191.919464758373
           3 :   -155.863306364234
           4 :    116.829940581502
           5 :   -84.6892447597670
           6 :    64.1714425286482
           7 :   -54.2046816211700
           8 :    50.0848995879255
           9 :   -46.8256773682812
          10 :    41.7127171409553
          11 :   -34.9349835666692
          12 :    28.4382193979248
          13 :   -24.0922898604654
          14 :    22.3852657111105
          15 :   -22.3010180410945
          16 :    22.2013562784398
          17 :   -20.9687470799252
          18 :    18.6270590151504
          19 :   -16.1153498972485
          20 :    14.4792798800729
          21 :   -14.1029938160134
          22 :    14.5002442751969
          23 :   -14.7444271276496
          24 :    14.1608520752782
          25 :   -12.7680068759208
          26 :    11.1868779309317
          27 :   -10.1428258216388
          28 :    9.94879440484502
          29 :   -10.3291047308456
          30 :    10.6654091701489
          31 :   -22.2066925747705
          32 :   -16.0483521396835

     Forces acting on atoms (Ry/au):

     negative rho (up, down):  1.521E-02 0.000E+00
     atom    1 type  1   force =    -0.00023631   -0.00013443   -0.00195497
     atom    2 type  1   force =     0.00023782   -0.00013796   -0.00194897
     atom    3 type  1   force =    -0.00000223    0.00027245   -0.00194997
     atom    4 type  1   force =     0.00000297   -0.00000105    0.00060840
     atom    5 type  1   force =     0.00000476    0.02240962   -0.00701565
     atom    6 type  1   force =    -0.00000416    0.00000052    0.02488213
     atom    7 type  1   force =    -0.01940498   -0.01120811   -0.00701698
     atom    8 type  1   force =     0.01940419   -0.01120203   -0.00701750
     atom    9 type  1   force =    -0.00000155   -0.00000072   -0.00010618
     atom   10 type  1   force =    -0.00000007    0.00019771    0.00049809
     atom   11 type  1   force =     0.00017919   -0.00010396    0.00049752
     atom   12 type  1   force =    -0.00016624   -0.00009623    0.00049849
     atom   13 type  2   force =    -0.00001340    0.00000421    0.00002559

     Total force =     0.000935     Total SCF correction =     0.000302
     SCF correction compared to forces is large: reduce conv_thr to get better values

     entering subroutine stress ...

     negative rho (up, down):  1.521E-02 0.000E+00
          total   stress  (Ry/bohr**3)                   (kbar)     P=   -9.52
  -0.00009725   0.00000000  -0.00000001        -14.31      0.00     -0.00
   0.00000000  -0.00009725   0.00000000          0.00    -14.31      0.00
  -0.00000001   0.00000000   0.00000026         -0.00      0.00      0.04

     bfgs converged in  15 scf cycles and  14 bfgs steps
     (criteria: energy <  1.0E+00, force <  1.9E-03)

     End of BFGS Geometry Optimization

     Final energy   =   -1760.4287888484 Ry
Begin final coordinates

ATOMIC_POSITIONS (crystal)
V1       0.166666667   0.166666667   0.409694847    0   0   0
V1       0.666666667   0.166666667   0.409694847    0   0   0
V1       0.166666667   0.666666667   0.409694847    0   0   0
V1       0.666666667   0.666666667   0.409694847    0   0   0
V1       0.833333333   0.333333333   0.500000000    0   0   0
V1       0.333333333   0.333333333   0.500000000    0   0   0
V1       0.833333333   0.833333333   0.500000000    0   0   0
V1       0.333333333   0.833333333   0.500000000    0   0   0
V1      -0.000006504   0.000007338   0.576648831
V1       0.507439866  -0.014873574   0.595368161
V1      -0.014875904   0.507442583   0.595368578
V1       0.507437014   0.507439403   0.595368560
C1       0.333336830   0.333331774   0.634909061
End final coordinates

     Writing output data file calc.save

     General routines

     Parallel routines

   This run was terminated on:  19:25:34   2May2018

   JOB DONE.
Job  /afs/slac/g/suncat/bin/suncat-tsmpirun -x LD_LIBRARY_PATH -wdir /scratch/qe812841_mDott pw.x -npool 4 -in pw.inp

TID   HOST_NAME   COMMAND_LINE            STATUS            TERMINATION_TIME
00000 suncat0129 pw.x -npool 4 -i  Done                     05/02/2018 19:25:34
00001 suncat0129 pw.x -npool 4 -i  Done                     05/02/2018 19:25:34
00002 suncat0129 pw.x -npool 4 -i  Done                     05/02/2018 19:25:34
00003 suncat0129 pw.x -npool 4 -i  Done                     05/02/2018 19:25:34
00004 suncat0129 pw.x -npool 4 -i  Done                     05/02/2018 19:25:34
00005 suncat0129 pw.x -npool 4 -i  Done                     05/02/2018 19:25:34
00006 suncat0129 pw.x -npool 4 -i  Done                     05/02/2018 19:25:34
00007 suncat0129 pw.x -npool 4 -i  Done                     05/02/2018 19:25:34
00008 suncat0248 pw.x -npool 4 -i  Done                     05/02/2018 19:25:34
00009 suncat0248 pw.x -npool 4 -i  Done                     05/02/2018 19:25:34
00010 suncat0248 pw.x -npool 4 -i  Done                     05/02/2018 19:25:34
00011 suncat0248 pw.x -npool 4 -i  Done                     05/02/2018 19:25:34
00012 suncat0248 pw.x -npool 4 -i  Done                     05/02/2018 19:25:34
00013 suncat0248 pw.x -npool 4 -i  Done                     05/02/2018 19:25:34
00014 suncat0248 pw.x -npool 4 -i  Done                     05/02/2018 19:25:34
00015 suncat0248 pw.x -npool 4 -i  Done                     05/02/2018 19:25:34
00016 suncat0242 pw.x -npool 4 -i  Done                     05/02/2018 19:25:34
00017 suncat0242 pw.x -npool 4 -i  Done                     05/02/2018 19:25:34
00018 suncat0242 pw.x -npool 4 -i  Done                     05/02/2018 19:25:34
00019 suncat0242 pw.x -npool 4 -i  Done                     05/02/2018 19:25:34
00020 suncat0242 pw.x -npool 4 -i  Done                     05/02/2018 19:25:34
00021 suncat0242 pw.x -npool 4 -i  Done                     05/02/2018 19:25:34
00022 suncat0242 pw.x -npool 4 -i  Done                     05/02/2018 19:25:34
00023 suncat0242 pw.x -npool 4 -i  Done                     05/02/2018 19:25:34
00024 suncat0232 pw.x -npool 4 -i  Done                     05/02/2018 19:25:34
00025 suncat0232 pw.x -npool 4 -i  Done                     05/02/2018 19:25:34
00026 suncat0232 pw.x -npool 4 -i  Done                     05/02/2018 19:25:34
00027 suncat0232 pw.x -npool 4 -i  Done                     05/02/2018 19:25:34
00028 suncat0232 pw.x -npool 4 -i  Done                     05/02/2018 19:25:34
00029 suncat0232 pw.x -npool 4 -i  Done                     05/02/2018 19:25:34
00030 suncat0232 pw.x -npool 4 -i  Done                     05/02/2018 19:25:34
00031 suncat0232 pw.x -npool 4 -i  Done                     05/02/2018 19:25:34