     Program PWSCF v.5.1rc2 (svn rev. 11289) starts on  3May2018 at 20: 7:33

     Current dimensions of program PWSCF are:
     Max number of different atomic species (ntypx) = 10
     Max number of k-points (npk) =  40000
     Max angular momentum in pseudopotentials (lmaxx) =  3
     Presently stress not available with electric field

     IMPORTANT: XC functional enforced from input :
     Exchange-correlation      = BEEF-VDW ( 1  4 27 13 2)
     Any further DFT definition will be discarded
     Please, verify this is what you really want

     Subspace diagonalization in iterative solution of the eigenvalue problem:
     a serial algorithm will be used

     bravais-lattice index     =            0
     lattice parameter (alat)  =       1.8897  a.u.
     unit-cell volume          =    5409.9593 (a.u.)^3
     number of atoms/cell      =           13
     number of atomic types    =            2
     number of electrons       =       234.00
     number of Kohn-Sham states=          127
     kinetic-energy cutoff     =      36.7493  Ry
     charge density cutoff     =     367.4932  Ry
     convergence threshold     =      1.0E-05
     mixing beta               =       0.3000
     number of iterations used =           10  plain     mixing
     Exchange-correlation      = BEEF-VDW ( 1  4 27 13 2)
     nstep                     =           50

     celldm(1)=   1.889726  celldm(2)=   0.000000  celldm(3)=   0.000000
     celldm(4)=   0.000000  celldm(5)=   0.000000  celldm(6)=   0.000000

     crystal axes: (cart. coord. in units of alat)
               a(1) = (   6.088539   0.000000   0.000000 )
               a(2) = (   3.044269   5.272829   0.000000 )
               a(3) = (   0.000000   0.000000  24.971271 )

     reciprocal axes: (cart. coord. in units 2 pi/alat)
               b(1) = (  0.164243 -0.094826  0.000000 )
               b(2) = (  0.000000  0.189652  0.000000 )
               b(3) = (  0.000000  0.000000  0.040046 )

     PseudoPot. # 1 for Ga read from file:
     /u/if/mamunm/psp/gbrv1.5pbe/Ga.UPF
     MD5 check sum: ccd671392a58a050fbb373893b4fcd66
     Pseudo is Ultrasoft + core correction, Zval = 19.0
     Generated by new atomic code, or converted to UPF format
     Using radial grid of  871 points,  6 beta functions with:
                l(1) =   0
                l(2) =   0
                l(3) =   1
                l(4) =   1
                l(5) =   2
                l(6) =   2
     Q(r) pseudized with  8 coefficients,  rinner =    1.250   1.250   1.250
                                                       1.250   1.250

     PseudoPot. # 2 for O  read from file:
     /u/if/mamunm/psp/gbrv1.5pbe/O.UPF
     MD5 check sum: 734c27235a0248c51dbae37a1fbe46ec
     Pseudo is Ultrasoft + core correction, Zval =  6.0
     Generated by new atomic code, or converted to UPF format
     Using radial grid of  737 points,  5 beta functions with:
                l(1) =   0
                l(2) =   0
                l(3) =   1
                l(4) =   1
                l(5) =   2
     Q(r) pseudized with  8 coefficients,  rinner =    0.900   0.900   0.900
                                                       0.900   0.900

     vdW kernel table read from file vdW_kernel_table
     MD5 check sum: 095c7af220d748ca6e76c0b4c6cfb241

     atomic species   valence    mass     pseudopotential
        Ga1           19.00    69.72300     Ga( 1.00)
        O1             6.00    15.99900     O ( 1.00)

     No symmetry found

   Cartesian axes

     site n.     atom                  positions (alat units)
         1           Ga1 tau(   1) = (   1.5221346   0.8788048  10.0000000  )
         2           Ga1 tau(   2) = (   4.5664039   0.8788048  10.0000000  )
         3           Ga1 tau(   3) = (   3.0442693   3.5152194  10.0000000  )
         4           Ga1 tau(   4) = (   6.0885386   3.5152194  10.0000000  )
         5           Ga1 tau(   5) = (   6.0885386   1.7576097  12.4856355  )
         6           Ga1 tau(   6) = (   3.0442693   1.7576097  12.4856355  )
         7           Ga1 tau(   7) = (   7.6106732   4.3940242  12.4856355  )
         8           Ga1 tau(   8) = (   4.5664039   4.3940242  12.4856355  )
         9           Ga1 tau(   9) = (   0.0000000   0.0000000  14.9712709  )
        10           Ga1 tau(  10) = (   3.0442693   0.0000000  14.9712709  )
        11           Ga1 tau(  11) = (   1.5221346   2.6364145  14.9712709  )
        12           Ga1 tau(  12) = (   4.5664039   2.6364145  14.9712709  )
        13           O1  tau(  13) = (   3.0442693   1.7576097  16.1932709  )

     number of k points=    20  Fermi-Dirac smearing, width (Ry)=  0.0110
                       cart. coord. in units 2pi/alat
        k(    1) = (   0.0000000   0.0000000   0.0000000), wk =   0.0555556
        k(    2) = (   0.0000000   0.0316086   0.0000000), wk =   0.1111111
        k(    3) = (   0.0000000   0.0632172   0.0000000), wk =   0.1111111
        k(    4) = (   0.0000000  -0.0948258   0.0000000), wk =   0.0555556
        k(    5) = (   0.0273738  -0.0158043   0.0000000), wk =   0.1111111
        k(    6) = (   0.0273738   0.0158043   0.0000000), wk =   0.1111111
        k(    7) = (   0.0273738   0.0474129   0.0000000), wk =   0.1111111
        k(    8) = (   0.0273738  -0.1106300   0.0000000), wk =   0.1111111
        k(    9) = (   0.0273738  -0.0790215   0.0000000), wk =   0.1111111
        k(   10) = (   0.0273738  -0.0474129   0.0000000), wk =   0.1111111
        k(   11) = (   0.0547477  -0.0316086   0.0000000), wk =   0.1111111
        k(   12) = (   0.0547477   0.0000000   0.0000000), wk =   0.1111111
        k(   13) = (   0.0547477   0.0316086   0.0000000), wk =   0.1111111
        k(   14) = (   0.0547477  -0.1264343   0.0000000), wk =   0.1111111
        k(   15) = (   0.0547477  -0.0948258   0.0000000), wk =   0.1111111
        k(   16) = (   0.0547477  -0.0632172   0.0000000), wk =   0.1111111
        k(   17) = (  -0.0821215   0.0474129   0.0000000), wk =   0.0555556
        k(   18) = (  -0.0821215   0.0790215   0.0000000), wk =   0.1111111
        k(   19) = (  -0.0821215   0.1106300   0.0000000), wk =   0.1111111
        k(   20) = (  -0.0821215  -0.0474129   0.0000000), wk =   0.0555556

     Largest allocated arrays     est. size (Mb)     dimensions
     Largest temporary arrays     est. size (Mb)     dimensions

     Initial potential from superposition of free atoms
     Check: negative starting charge=   -0.001356

     starting charge  221.99999, renormalised to  234.00000

     negative rho (up, down):  1.429E-03 0.000E+00

     *
     * You are using vdW-DF for exchange-correlation in this calculation.
     * Please cite the following three references that made this development
     * possible:
     *
     *   M. Dion, H. Rydberg, E. Schroder, D. C. Langreth, and
     *   B. I. Lundqvist, Phys. Rev. Lett. 92, 246401 (2004).
     *
     *   T. Thonhauser, V. R. Cooper, S. Li, A. Puzder, P. Hyldgaard, and
     *   D. C. Langreth, Phys. Rev. B 76, 125112 (2007).
     *
     *   G. Roman-Perez and J. M. Soler, Phys. Rev. Lett. 103, 096102 (2009).
     *
     *
     * If you are using vdW-DF2, please also cite:
     *
     *   K. Lee, E. D. Murray, L. Kong, B. I. Lundqvist, and
     *   D. C. Langreth, Phys. Rev. B 82, 081101(R) (2010).
     *
     *
     * If you are calculating the stress with vdW-DF, please also cite:
     *
     *   R. Sabatini, E. Kucukbenli, B. Kolb, T. Thonhauser, and
     *   S. de Gironcoli, J. Phys.: Condens. Matter 24, 424209 (2012).
     *

     Carrying out vdW-DF run using the following parameters:

     Nqs =      20    Nr_points =    1024   r_max =   100.000
     q_mesh =
               0.00001000     0.04494208     0.09755937     0.15916263
               0.23128650     0.31572767     0.41458969     0.53033537
               0.66584808     0.82450364     1.01025438     1.22772762
               1.48234092     1.78043706     2.12944203     2.53805004
               3.01644009     3.57652955     4.23227104     5.00000000

     Gradients computed in reciprocal space

     Adding external electric field

     Computed dipole along edir(3) :
        Dipole               -2.2723 Ry au,         -5.7757 Debye
        Dipole field         -0.0053 Ry au

        Potential amp.        0.4857 Ry
        Total length         46.0091 bohr

     Starting wfc are  148 randomized atomic wfcs

     Self-consistent Calculation

     iteration #  1     ecut=    36.75 Ry     beta=0.30
     Davidson diagonalization with overlap
     ethr =  1.00E-02,  avg # of iterations =  7.1

[...]

     total energy              =   -4722.91506636 Ry
     Harris-Foulkes estimate   =   -5040.79221009 Ry
     estimated scf accuracy    <     671.70634968 Ry

     iteration #  2     ecut=    36.75 Ry     beta=0.30
     Davidson diagonalization with overlap
     c_bands:  5 eigenvalues not converged
     c_bands:  3 eigenvalues not converged
     ethr =  1.00E-02,  avg # of iterations = 21.0

[...]

     End of self-consistent calculation

          k = 0.0000 0.0000 0.0000 ( 20347 PWs)   bands (ev):

   -95.0125 -94.9838 -94.9838 -94.9689 -94.9689 -94.9619 -94.9564 -94.9555
   -94.9555 -94.9527 -94.9527 -94.9523 -94.9469 -94.9463 -94.9463 -94.9463
   -94.9461 -94.9461 -94.9414 -94.9408 -94.9408 -94.9325 -94.9325 -94.9320
   -94.9279 -94.9269 -94.9269 -94.9259 -94.9259 -94.9258 -94.9243 -94.9061
   -94.9061 -94.8754 -94.8744 -94.8743 -18.0484 -15.4576 -15.4576 -15.4570
   -15.4124 -15.4124 -15.4005 -15.4005 -15.4004 -15.3989 -15.3872 -15.3771
   -15.3770 -15.3758 -15.3613 -15.3529 -15.3529 -15.3420 -15.3420 -15.3361
   -15.3294 -15.3294 -15.3249 -15.3191 -15.3191 -15.3112 -15.3107 -15.3107
   -15.3004 -15.3004 -15.2484 -15.2484 -15.2389 -15.2389 -15.2345 -15.2269
   -15.2225 -15.2086 -15.2086 -15.2003 -15.2002 -15.1861 -15.1861 -15.1811
   -15.1776 -15.1776 -15.1696 -15.1696 -15.1632 -15.1601 -15.1601 -15.1569
   -15.1489 -15.1489 -15.1390 -15.1390 -15.1248 -15.1144 -15.1144 -15.1144
   -15.0086 -10.2830  -8.6801  -6.4179  -5.3687  -5.3687  -5.1836  -5.0667
    -5.0667  -4.7465  -4.1905  -4.1905  -3.6362  -3.4485  -2.9579  -2.9579
    -2.4115  -2.3980  -2.3980  -1.9715  -1.1696  -1.0022  -1.0022  -0.1270
    -0.1270   0.6856   1.1267   2.8392   2.8392   2.8459   3.0271

[...]

          k =-0.0821 0.0474 0.0000 ( 20384 PWs)   bands (ev):

[...]

     the Fermi energy is    -0.1925 ev

!    total energy              =   -5031.60439464 Ry
     Harris-Foulkes estimate   =   -5031.60442438 Ry
     estimated scf accuracy    <       0.00000315 Ry

     The total energy is the sum of the following terms:

     one-electron contribution =  -27733.55206657 Ry
     hartree contribution      =   13871.05002215 Ry
     xc contribution           =    -604.03452069 Ry
     ewald contribution        =    9434.96708761 Ry
     electric field correction =       0.00030001 Ry
     smearing contrib. (-TS)   =      -0.03521715 Ry

     convergence has been achieved in  19 iterations

 BEEF-vdW xc energy contributions
           1 :   -539.802929920150
           2 :    489.860064463133
           3 :   -406.160032633905
           4 :    313.065992510929
           5 :   -232.113354533950
           6 :    173.942024460183
           7 :   -136.800025471258
           8 :    111.353911289353
           9 :   -88.1717239840606
          10 :    63.2351205115017
          11 :   -38.7096175699741
          12 :    19.5038589193277
          13 :   -8.69362294759151
          14 :    5.09926386515906
          15 :   -4.33689224600926
          16 :    2.06833543009100
          17 :    3.16960719714143
          18 :   -9.52360280090522
          19 :    13.7924609145824
          20 :   -14.1124738494210
          21 :    11.3327594172720
          22 :   -8.21649278961797
          23 :    7.27313903926131
          24 :   -8.95940790960765
          25 :    11.5579209935921
          26 :   -12.6903645433096
          27 :    11.2048683525178
          28 :   -7.99978414187706
          29 :    5.24453412084279
          30 :   -4.68792140964240
          31 :   -39.9931461468751
          32 :   -27.1347495891995

     Forces acting on atoms (Ry/au):

     negative rho (up, down):  1.090E-03 0.000E+00
     atom    1 type  1   force =     0.00190792    0.00109619    0.00118698
     atom    2 type  1   force =    -0.00191545    0.00110685    0.00124417
     atom    3 type  1   force =    -0.00001047   -0.00221770    0.00122363
     atom    4 type  1   force =    -0.00000789    0.00000901    0.00374322
     atom    5 type  1   force =    -0.00002116   -0.00310513    0.00194102
     atom    6 type  1   force =     0.00000309    0.00001054    0.00173785
     atom    7 type  1   force =     0.00268650    0.00155107    0.00188337
     atom    8 type  1   force =    -0.00268106    0.00154614    0.00190898
     atom    9 type  1   force =     0.00000125   -0.00000076   -0.00534101
     atom   10 type  1   force =     0.00000559    0.01210121    0.02165730
     atom   11 type  1   force =     0.01047974   -0.00605396    0.02170078
     atom   12 type  1   force =    -0.01045209   -0.00603998    0.02176359
     atom   13 type  2   force =     0.00000404   -0.00000347   -0.07464987

     Total force =     0.086333     Total SCF correction =     0.004919

     entering subroutine stress ...

     negative rho (up, down):  1.090E-03 0.000E+00
          total   stress  (Ry/bohr**3)                   (kbar)     P=  -10.05
  -0.00007632  -0.00000000   0.00000000        -11.23     -0.00      0.00
  -0.00000000  -0.00007631   0.00000000         -0.00    -11.23      0.00
   0.00000000   0.00000000  -0.00005235          0.00      0.00     -7.70

     BFGS Geometry Optimization

     number of scf cycles    =   1
     number of bfgs steps    =   0

     energy   new            =   -5031.6043946435 Ry

     new trust radius        =       0.0746498710 bohr
     new conv_thr            =       0.0000099958 Ry

ATOMIC_POSITIONS (crystal)
Ga1      0.166666667   0.166666667   0.400460194    0   0   0
Ga1      0.666666667   0.166666667   0.400460194    0   0   0
Ga1      0.166666667   0.666666667   0.400460194    0   0   0
Ga1      0.666666667   0.666666667   0.400460194    0   0   0
Ga1      0.833333333   0.333333333   0.500000000    0   0   0
Ga1      0.333333333   0.333333333   0.500000000    0   0   0
Ga1      0.833333333   0.833333333   0.500000000    0   0   0
Ga1      0.333333333   0.833333333   0.500000000    0   0   0
Ga1      0.000000147  -0.000000076   0.599426622
Ga1      0.499393251   0.001214468   0.599998755
Ga1      0.001214618   0.499392429   0.599999677
Ga1      0.499394654   0.499393832   0.600001008
O1       0.333333858   0.333332985   0.646894103

     Writing output data file calc.save
     Check: negative starting charge=   -0.001356
     NEW-OLD atomic charge density approx. for the potential
     Check: negative starting charge=   -0.001347

[...]

     energy   old            =   -5031.6043946435 Ry
     energy   new            =   -5031.6110858357 Ry

     CASE: energy  _new < energy  _old

     WARNING: bfgs curvature condition failed, Theta= 0.984
     new trust radius        =       0.1119748065 bohr
     new conv_thr            =       0.0000001000 Ry

[...]

     Total force =     0.005626     Total SCF correction =     0.000326

[...]

     Total force =     0.005796     Total SCF correction =     0.000903
     SCF correction compared to forces is large: reduce conv_thr to get better values

[...]

     WARNING: bfgs curvature condition failed, Theta= 0.836
     new trust radius        =       0.0114449378 bohr
     new conv_thr            =       0.0000001000 Ry

[...]

     number of scf cycles    =  15
     number of bfgs steps    =  14

     energy   old            =   -5031.6308474433 Ry
     energy   new            =   -5031.6309154760 Ry

     CASE: energy  _new < energy  _old

     new trust radius        =       0.0200370057 bohr
     new conv_thr            =       0.0000001000 Ry

ATOMIC_POSITIONS (crystal)
Ga1      0.166666667   0.166666667   0.400460194    0   0   0
Ga1      0.666666667   0.166666667   0.400460194    0   0   0
Ga1      0.166666667   0.666666667   0.400460194    0   0   0
Ga1      0.666666667   0.666666667   0.400460194    0   0   0
Ga1      0.833333333   0.333333333   0.500000000    0   0   0
Ga1      0.333333333   0.333333333   0.500000000    0   0   0
Ga1      0.833333333   0.833333333   0.500000000    0   0   0
Ga1      0.333333333   0.833333333   0.500000000    0   0   0
Ga1      0.000001978  -0.000001458   0.593712823
Ga1      0.508184311  -0.016362503   0.602497586
Ga1     -0.016356617   0.508179782   0.602501342
Ga1      0.508178702   0.508179013   0.602500314
O1       0.333335255   0.333333053   0.633136220

     Writing output data file calc.save
     Check: negative starting charge=   -0.001354
     NEW-OLD atomic charge density approx. for the potential
     Check: negative starting charge=   -0.001358

[...]

     Self-consistent Calculation

[...]

     total energy              =   -5031.63092690 Ry
     Harris-Foulkes estimate   =   -5031.63092685 Ry
     estimated scf accuracy    <       0.00000011 Ry

     iteration #  7     ecut=    36.75 Ry     beta=0.30
     Davidson diagonalization with overlap
     ethr =  4.75E-11,  avg # of iterations =  3.5

[...]

     negative rho (up, down):  1.069E-03 0.000E+00

     Adding external electric field

     Computed dipole along edir(3) :
        Dipole               -0.1214 Ry au,         -0.3085 Debye
        Dipole field         -0.0003 Ry au

        Potential amp.        0.0259 Ry
        Total length         46.0091 bohr

     End of self-consistent calculation

[...]

          k = 0.0547-0.0632 0.0000 ( 20377 PWs)   bands (ev):

[...]

          k =-0.0821-0.0474 0.0000 ( 20384 PWs)   bands (ev):

   -94.7510 -94.7508 -94.7507 -94.7422 -94.7420 -94.7416 -94.7194 -94.7093
   -94.7093 -94.7014 -94.6776 -94.6768 -94.6764 -94.6764 -94.6763 -94.6730
   -94.6730 -94.6729 -94.6604 -94.6599 -94.6596 -94.6581 -94.6579 -94.6577
   -94.6517 -94.6512 -94.6511 -94.6511 -94.6510 -94.6504 -94.6487 -94.6486
   -94.6485 -94.6391 -94.6367 -94.6366 -19.0289 -15.1859 -15.1603 -15.1480
   -15.1382 -15.1354 -15.1266 -15.1241 -15.1158 -15.1031 -15.1007 -15.1003
   -15.0978 -15.0915 -15.0826 -15.0790 -15.0782 -15.0737 -15.0653 -15.0653
   -15.0554 -15.0554 -15.0531 -15.0470 -15.0455 -15.0374 -15.0370 -15.0239
   -15.0211 -15.0168 -15.0128 -15.0079 -15.0037 -14.9998 -14.9885 -14.9839
   -14.9839 -14.9815 -14.9755 -14.9623 -14.9614 -14.9570 -14.9564 -14.9532
   -14.9508 -14.9426 -14.9416 -14.9405 -14.9360 -14.9310 -14.9295 -14.9176
   -14.9165 -14.9162 -14.9052 -14.8927 -14.8925 -14.8758 -14.8729 -14.8624
   -14.6789  -8.8051  -8.5520  -7.5422  -6.9178  -6.5091  -5.9525  -5.6213
    -5.4778  -4.8228  -4.4562  -3.9144  -3.6699  -2.9464  -1.9910  -1.5129
    -0.8292  -0.6169  -0.4005  -0.1527  -0.0404   0.4367   1.1147   1.1687
     1.7332   1.7908   2.0173   2.2040   2.2327   2.6324   2.7771

     the Fermi energy is     0.0862 ev

!    total energy              =   -5031.63092693 Ry
     Harris-Foulkes estimate   =   -5031.63092689 Ry
     estimated scf accuracy    <       0.00000003 Ry

     The total energy is the sum of the following terms:

     one-electron contribution =  -27807.20746320 Ry
     hartree contribution      =   13909.74916894 Ry
     xc contribution           =    -604.18268360 Ry
     ewald contribution        =    9470.04455591 Ry
     electric field correction =       0.00003421 Ry
     smearing contrib. (-TS)   =      -0.03453920 Ry

     convergence has been achieved in   7 iterations

 BEEF-vdW xc energy contributions
           1 :   -539.956240653924
           2 :    490.053218549251
           3 :   -406.369295150784
           4 :    313.222037089629
           5 :   -232.161579869344
           6 :    173.879874607107
           7 :   -136.675584515284
           8 :    111.236254882274
           9 :   -88.1124985624826
          10 :    63.2432720873618
          11 :   -38.7527063373179
          12 :    19.5351181661315
          13 :   -8.68749914168757
          14 :    5.06821630696481
          15 :   -4.31556960398098
          16 :    2.08142587849761
          17 :    3.12787085588593
          18 :   -9.48524780436412
          19 :    13.7913384525548
          20 :   -14.1561909996907
          21 :    11.3920827888193
          22 :   -8.24252538924520
          23 :    7.23200182358232
          24 :   -8.86020485528888
          25 :    11.4526382768498
          26 :   -12.6439179645856
          27 :    11.2561228823304
          28 :   -8.13738368061377
          29 :    5.40823630798002
          30 :   -4.79363490301898
          31 :   -40.0023594228703
          32 :   -27.1484478812093

     Forces acting on atoms (Ry/au):

     negative rho (up, down):  1.069E-03 0.000E+00
     atom    1 type  1   force =     0.00048561    0.00028047   -0.00135456
     atom    2 type  1   force =    -0.00048540    0.00028020   -0.00135472
     atom    3 type  1   force =    -0.00000013   -0.00056125   -0.00135437
     atom    4 type  1   force =     0.00000010   -0.00000049    0.00125111
     atom    5 type  1   force =     0.00000029    0.00169941    0.00184948
     atom    6 type  1   force =    -0.00000033    0.00000093   -0.00147067
     atom    7 type  1   force =    -0.00146983   -0.00085021    0.00185089
     atom    8 type  1   force =     0.00146967   -0.00084990    0.00185189
     atom    9 type  1   force =    -0.00000017    0.00000153    0.00088360
     atom   10 type  1   force =    -0.00000068   -0.00006227   -0.00054109
     atom   11 type  1   force =    -0.00006337    0.00003364   -0.00054793
     atom   12 type  1   force =     0.00006419    0.00003488   -0.00054673
     atom   13 type  2   force =     0.00000007   -0.00000694   -0.00051691

     Total force =     0.001398     Total SCF correction =     0.000736
     SCF correction compared to forces is large: reduce conv_thr to get better values

     entering subroutine stress ...

     negative rho (up, down):  1.069E-03 0.000E+00
          total   stress  (Ry/bohr**3)                   (kbar)     P=   -4.13
  -0.00003924  -0.00000000   0.00000000         -5.77     -0.00      0.00
  -0.00000000  -0.00003924  -0.00000000         -0.00     -5.77     -0.00
   0.00000000  -0.00000000  -0.00000570          0.00     -0.00     -0.84

     bfgs converged in  16 scf cycles and  15 bfgs steps
     (criteria: energy <  1.0E+00, force <  1.9E-03)

     End of BFGS Geometry Optimization

     Final energy   =   -5031.6309269280 Ry
Begin final coordinates

ATOMIC_POSITIONS (crystal)
Ga1      0.166666667   0.166666667   0.400460194    0   0   0
Ga1      0.666666667   0.166666667   0.400460194    0   0   0
Ga1      0.166666667   0.666666667   0.400460194    0   0   0
Ga1      0.666666667   0.666666667   0.400460194    0   0   0
Ga1      0.833333333   0.333333333   0.500000000    0   0   0
Ga1      0.333333333   0.333333333   0.500000000    0   0   0
Ga1      0.833333333   0.833333333   0.500000000    0   0   0
Ga1      0.333333333   0.833333333   0.500000000    0   0   0
Ga1      0.000001978  -0.000001458   0.593712823
Ga1      0.508184311  -0.016362503   0.602497586
Ga1     -0.016356617   0.508179782   0.602501342
Ga1      0.508178702   0.508179013   0.602500314
O1       0.333335255   0.333333053   0.633136220
End final coordinates

     Writing output data file calc.save

     General routines

     Parallel routines

   This run was terminated on:  21:53:58   3May2018

   JOB DONE.
Job  /afs/slac/g/suncat/bin/suncat-tsmpirun -x LD_LIBRARY_PATH -wdir /scratch/qe832006_CafyM pw.x -npool 4 -in pw.inp

TID   HOST_NAME   COMMAND_LINE            STATUS            TERMINATION_TIME
00000 suncat0049 pw.x -npool 4 -i  Done                     05/03/2018 21:53:58
00001 suncat0049 pw.x -npool 4 -i  Done                     05/03/2018 21:53:58
00002 suncat0049 pw.x -npool 4 -i  Done                     05/03/2018 21:53:58
00003 suncat0049 pw.x -npool 4 -i  Done                     05/03/2018 21:53:58
00004 suncat0049 pw.x -npool 4 -i  Done                     05/03/2018 21:53:58
00005 suncat0049 pw.x -npool 4 -i  Done                     05/03/2018 21:53:58
00006 suncat0049 pw.x -npool 4 -i  Done                     05/03/2018 21:53:58
00007 suncat0049 pw.x -npool 4 -i  Done                     05/03/2018 21:53:58
00008 suncat0037 pw.x -npool 4 -i  Done                     05/03/2018 21:53:58
00009 suncat0037 pw.x -npool 4 -i  Done                     05/03/2018 21:53:58
00010 suncat0037 pw.x -npool 4 -i  Done                     05/03/2018 21:53:58
00011 suncat0037 pw.x -npool 4 -i  Done                     05/03/2018 21:53:58
00012 suncat0037 pw.x -npool 4 -i  Done                     05/03/2018 21:53:58
00013 suncat0037 pw.x -npool 4 -i  Done                     05/03/2018 21:53:58
00014 suncat0037 pw.x -npool 4 -i  Done                     05/03/2018 21:53:58
00015 suncat0037 pw.x -npool 4 -i  Done                     05/03/2018 21:53:58
00016 suncat0182 pw.x -npool 4 -i  Done                     05/03/2018 21:53:58
00017 suncat0182 pw.x -npool 4 -i  Done                     05/03/2018 21:53:58
00018 suncat0182 pw.x -npool 4 -i  Done                     05/03/2018 21:53:58
00019 suncat0182 pw.x -npool 4 -i  Done                     05/03/2018 21:53:58
00020 suncat0182 pw.x -npool 4 -i  Done                     05/03/2018 21:53:58
00021 suncat0182 pw.x -npool 4 -i  Done                     05/03/2018 21:53:58
00022 suncat0182 pw.x -npool 4 -i  Done                     05/03/2018 21:53:58
00023 suncat0182 pw.x -npool 4 -i  Done                     05/03/2018 21:53:58
00024 suncat0173 pw.x -npool 4 -i  Done                     05/03/2018 21:53:58
00025 suncat0173 pw.x -npool 4 -i  Done                     05/03/2018 21:53:58
00026 suncat0173 pw.x -npool 4 -i  Done                     05/03/2018 21:53:58
00027 suncat0173 pw.x -npool 4 -i  Done                     05/03/2018 21:53:58
00028 suncat0173 pw.x -npool 4 -i  Done                     05/03/2018 21:53:58
00029 suncat0173 pw.x -npool 4 -i  Done                     05/03/2018 21:53:58
00030 suncat0173 pw.x -npool 4 -i  Done                     05/03/2018 21:53:58
00031 suncat0173 pw.x -npool 4 -i  Done                     05/03/2018 21:53:58