     Program PWSCF v.5.1rc2 (svn rev. 11289) starts on 23Apr2018 at 13:18:17

     Current dimensions of program PWSCF are:
     Max number of different atomic species (ntypx) = 10
     Max number of k-points (npk) =  40000
     Max angular momentum in pseudopotentials (lmaxx) =  3
     Presently stress not available with electric field

     IMPORTANT: XC functional enforced from input :
     Exchange-correlation      = BEEF-VDW ( 1  4 27 13 2)
     Any further DFT definition will be discarded
     Please, verify this is what you really want

     Subspace diagonalization in iterative solution of the eigenvalue problem:
     a serial algorithm will be used

     bravais-lattice index     =            0
     lattice parameter (alat)  =       1.8897  a.u.
     unit-cell volume          =    4301.6107 (a.u.)^3
     number of atoms/cell      =           14
     number of atomic types    =            3
     number of electrons       =       186.00
     number of Kohn-Sham states=          103
     kinetic-energy cutoff     =      36.7493  Ry
     charge density cutoff     =     367.4932  Ry
     convergence threshold     =      1.0E-05
     mixing beta               =       0.3000
     number of iterations used =           10  plain     mixing
     Exchange-correlation      = BEEF-VDW ( 1  4 27 13 2)
     nstep                     =           50

     celldm(1)=   1.889726  celldm(2)=   0.000000  celldm(3)=   0.000000
     celldm(4)=   0.000000  celldm(5)=   0.000000  celldm(6)=   0.000000

     crystal axes: (cart. coord. in units of alat)
               a(1) = (   5.483647   0.000000   0.000000 )
               a(2) = (   2.741823   4.748977   0.000000 )
               a(3) = (   0.000000   0.000000  24.477379 )

     reciprocal axes: (cart. coord. in units 2 pi/alat)
               b(1) = (  0.182360 -0.105286  0.000000 )
               b(2) = (  0.000000  0.210572  0.000000 )
               b(3) = (  0.000000  0.000000  0.040854 )

     PseudoPot. # 1 for Tc read from file:
     /u/if/mamunm/psp/gbrv1.5pbe/Tc.UPF
     MD5 check sum: 9eb49e5b028550b2339a02317eb7b844
     Pseudo is Ultrasoft + core correction, Zval = 15.0
     Generated by new atomic code, or converted to UPF format
     Using radial grid of  965 points,  6 beta functions with:
                l(1) =   0
                l(2) =   0
                l(3) =   1
                l(4) =   1
                l(5) =   2
                l(6) =   2
     Q(r) pseudized with  8 coefficients,  rinner =    1.300   1.300   1.300
                                                       1.300   1.300

     PseudoPot. # 2 for N  read from file:
     /u/if/mamunm/psp/gbrv1.5pbe/N.UPF
     MD5 check sum: 95339753478d7afb44899504a8723017
     Pseudo is Ultrasoft + core correction, Zval =  5.0
     Generated by new atomic code, or converted to UPF format
     Using radial grid of  729 points,  4 beta functions with:
                l(1) =   0
                l(2) =   0
                l(3) =   1
                l(4) =   1
     Q(r) pseudized with  8 coefficients,  rinner =    0.900   0.900   0.900

     PseudoPot. # 3 for H  read from file:
     /u/if/mamunm/psp/gbrv1.5pbe/H.UPF
     MD5 check sum: 761ae9a214b05c3daf00ab9f6b793d6f
     Pseudo is Ultrasoft, Zval =  1.0
     Generated by new atomic code, or converted to UPF format
     Using radial grid of  615 points,  2 beta functions with:
                l(1) =   0
                l(2) =   0
     Q(r) pseudized with  8 coefficients,  rinner =    0.700

     vdW kernel table read from file vdW_kernel_table
     MD5 check sum: 095c7af220d748ca6e76c0b4c6cfb241

     atomic species   valence    mass     pseudopotential
        Tc1           15.00    97.90721     Tc( 1.00)
        N1             5.00    14.00700     N ( 1.00)
        H1             1.00     1.00800     H ( 1.00)

     No symmetry found

   Cartesian axes

     site n.     atom                  positions (alat units)
         1           Tc1 tau(   1) = (   1.3709117   0.7914962  10.0000000  )
         2           Tc1 tau(   2) = (   4.1127351   0.7914962  10.0000000  )
         3           Tc1 tau(   3) = (   2.7418234   3.1659850  10.0000000  )
         4           Tc1 tau(   4) = (   5.4836469   3.1659850  10.0000000  )
         5           Tc1 tau(   5) = (   5.4836469   1.5829925  12.2386895  )
         6           Tc1 tau(   6) = (   2.7418234   1.5829925  12.2386895  )
         7           Tc1 tau(   7) = (   6.8545586   3.9574812  12.2386895  )
         8           Tc1 tau(   8) = (   4.1127351   3.9574812  12.2386895  )
         9           Tc1 tau(   9) = (   0.0000000   0.0000000  14.4773789  )
        10           Tc1 tau(  10) = (   2.7418234   0.0000000  14.4773789  )
        11           Tc1 tau(  11) = (   1.3709117   2.3744887  14.4773789  )
        12           Tc1 tau(  12) = (   4.1127351   2.3744887  14.4773789  )
        13           N1  tau(  13) = (   1.3709117   0.7914962  15.8943789  )
        14           H1  tau(  14) = (   1.3709117   0.7914962  16.9443789  )

     number of k points=    20  Fermi-Dirac smearing, width (Ry)=  0.0110
                       cart. coord. in units 2pi/alat
        k(    1) = (   0.0000000   0.0000000   0.0000000), wk =   0.0555556
        k(    2) = (   0.0000000   0.0350953   0.0000000), wk =   0.1111111
        k(    3) = (   0.0000000   0.0701905   0.0000000), wk =   0.1111111
        k(    4) = (   0.0000000  -0.1052858   0.0000000), wk =   0.0555556
        k(    5) = (   0.0303934  -0.0175476   0.0000000), wk =   0.1111111
        k(    6) = (   0.0303934   0.0175476   0.0000000), wk =   0.1111111
        k(    7) = (   0.0303934   0.0526429   0.0000000), wk =   0.1111111
        k(    8) = (   0.0303934  -0.1228335   0.0000000), wk =   0.1111111
        k(    9) = (   0.0303934  -0.0877382   0.0000000), wk =   0.1111111
        k(   10) = (   0.0303934  -0.0526429   0.0000000), wk =   0.1111111
        k(   11) = (   0.0607868  -0.0350953   0.0000000), wk =   0.1111111
        k(   12) = (   0.0607868   0.0000000   0.0000000), wk =   0.1111111
        k(   13) = (   0.0607868   0.0350953   0.0000000), wk =   0.1111111
        k(   14) = (   0.0607868  -0.1403811   0.0000000), wk =   0.1111111
        k(   15) = (   0.0607868  -0.1052858   0.0000000), wk =   0.1111111
        k(   16) = (   0.0607868  -0.0701905   0.0000000), wk =   0.1111111
        k(   17) = (  -0.0911802   0.0526429   0.0000000), wk =   0.0555556
        k(   18) = (  -0.0911802   0.0877382   0.0000000), wk =   0.1111111
        k(   19) = (  -0.0911802   0.1228335   0.0000000), wk =   0.1111111
        k(   20) = (  -0.0911802  -0.0526429   0.0000000), wk =   0.0555556

     Largest allocated arrays     est. size (Mb)     dimensions
     Largest temporary arrays     est. size (Mb)     dimensions

     Check: negative/imaginary core charge=   -0.000022    0.000000

     Initial potential from superposition of free atoms
     Check: negative starting charge=   -1.504849

     starting charge  173.99965, renormalised to  186.00000

     negative rho (up, down):  1.609E+00 0.000E+00

     *
     * You are using vdW-DF for exchange-correlation in this calculation.
     * Please cite the following three references that made this development
     * possible:
     *
     *   M. Dion, H. Rydberg, E. Schroder, D. C. Langreth, and
     *   B. I. Lundqvist, Phys. Rev. Lett. 92, 246401 (2004).
     *
     *   T. Thonhauser, V. R. Cooper, S. Li, A. Puzder, P. Hyldgaard, and
     *   D. C. Langreth, Phys. Rev. B 76, 125112 (2007).
     *
     *   G. Roman-Perez and J. M. Soler, Phys. Rev. Lett. 103, 096102 (2009).
     *
     *
     * If you are using vdW-DF2, please also cite:
     *
     *   K. Lee, E. D. Murray, L. Kong, B. I. Lundqvist, and
     *   D. C. Langreth, Phys. Rev. B 82, 081101(R) (2010).
     *
     *
     * If you are calculating the stress with vdW-DF, please also cite:
     *
     *   R. Sabatini, E. Kucukbenli, B. Kolb, T. Thonhauser, and
     *   S. de Gironcoli, J. Phys.: Condens. Matter 24, 424209 (2012).
     *

     Carrying out vdW-DF run using the following parameters:

     Nqs =      20    Nr_points =    1024   r_max =   100.000
     q_mesh =
               0.00001000     0.04494208     0.09755937     0.15916263
               0.23128650     0.31572767     0.41458969     0.53033537
               0.66584808     0.82450364     1.01025438     1.22772762
               1.48234092     1.78043706     2.12944203     2.53805004
               3.01644009     3.57652955     4.23227104     5.00000000

     Gradients computed in reciprocal space

     Adding external electric field

     Computed dipole along edir(3) :
        Dipole               -2.9954 Ry au,         -7.6135 Debye
        Dipole field         -0.0088 Ry au

        Potential amp.        0.7893 Ry
        Total length         45.0992 bohr

     Starting wfc are  161 randomized atomic wfcs

     Self-consistent Calculation

     iteration #  1     ecut=    36.75 Ry     beta=0.30
     Davidson diagonalization with overlap
     ethr =  1.00E-02,  avg # of iterations =  8.1

[...]

     total energy              =   -1912.89391336 Ry
     Harris-Foulkes estimate   =   -2122.22511931 Ry
     estimated scf accuracy    <     440.16676875 Ry

[...]

     End of self-consistent calculation

          k = 0.0000 0.0000 0.0000 ( 16073 PWs)   bands (ev):

   -64.3883 -64.2930 -64.2322 -64.2321 -64.1986 -64.1985 -64.1842 -64.1163
   -64.0176 -64.0057 -63.9842 -63.9838 -36.8635 -36.8030 -36.8029 -36.7978
   -36.7032 -36.6854 -36.6854 -36.5348 -36.5346 -36.5249 -36.2436 -36.2366
   -36.2366 -36.1417 -36.1192 -36.1191 -36.0930 -36.0807 -36.0806 -36.0695
   -35.9612 -35.9611 -35.9569 -35.9238 -35.9236 -35.9209 -35.8587 -35.8353
   -35.8352 -35.7831 -35.7829 -35.7827 -35.7194 -35.7194 -35.5847 -35.5847
   -12.5968  -4.8259  -3.4868  -2.4496  -2.4496  -2.3207  -2.1941  -2.1344
    -2.0092  -2.0092  -1.8382  -1.7095  -1.7094  -1.5038  -1.5038  -1.4609
    -0.8720  -0.7724  -0.7724   0.2191   0.2191   0.5153   0.7045   0.7045
     0.7460   0.9228   1.1617   1.2210   1.2210   1.5283   1.5283   1.6066
     1.7007   1.7007   1.7914   1.7914   2.1912   2.3443   2.3444   2.9014
     3.2131   3.2473   3.2473   3.5870   3.5870   3.6760   3.6761   3.7747
     4.0961   4.0961   4.2539   4.7826   4.7827   4.9016   4.9179

[...]

          k =-0.0912 0.0526 0.0000 ( 16164 PWs)   bands (ev):

[...]

     the Fermi energy is     2.9041 ev

!    total energy              =   -2124.96301196 Ry
     Harris-Foulkes estimate   =   -2124.96301018 Ry
     estimated scf accuracy    <       0.00000072 Ry

     The total energy is the sum of the following terms:

     one-electron contribution =  -19155.97048637 Ry
     hartree contribution      =    9581.60751220 Ry
     xc contribution           =    -403.26372966 Ry
     ewald contribution        =    7852.75054057 Ry
     electric field correction =       0.00018846 Ry
     smearing contrib. (-TS)   =      -0.08703715 Ry

     convergence has been achieved in  29 iterations

 BEEF-vdW xc energy contributions
           1 :   -353.204446768432
           2 :    324.635780474758
           3 :   -273.870448591312
           4 :    211.134828969778
           5 :   -147.302805770459
           6 :    90.9160167506302
           7 :   -46.5281016703654
           8 :    14.5866908806797
           9 :    7.29963686043834
          10 :   -22.4903909938990
          11 :    33.6105599008709
          12 :   -41.6774614822523
          13 :    46.1775697211374
          14 :   -45.8950335020245
          15 :    39.9808080693912
          16 :   -28.7723136437234
          17 :    14.0132563893691
          18 :    1.55350492743020
          19 :   -15.0160796029160
          20 :    24.1586765591759
          21 :   -28.0239135683692
          22 :    26.9691293724054
          23 :   -22.2697046860328
          24 :    15.4922262789985
          25 :   -7.94448823420805
          26 :   0.415289619595910
          27 :    6.74351468406144
          28 :   -13.3234171877391
          29 :    18.9644972509509
          30 :   -23.0411481947700
          31 :   -33.7314761183183
          32 :   -24.7435974238534

     Forces acting on atoms (Ry/au):

     negative rho (up, down):  1.591E+00 0.000E+00
     atom    1 type  1   force =     0.00000475   -0.00001019    0.03063714
     atom    2 type  1   force =    -0.00000682   -0.00656633    0.03206248
     atom    3 type  1   force =    -0.00567773    0.00328750    0.03209710
     atom    4 type  1   force =     0.00568463    0.00329293    0.03208609
     atom    5 type  1   force =    -0.00173962    0.00100172    0.00066551
     atom    6 type  1   force =     0.00173668    0.00100083    0.00067272
     atom    7 type  1   force =     0.00000256    0.00000267   -0.08047950
     atom    8 type  1   force =    -0.00000330   -0.00199853    0.00067637
     atom    9 type  1   force =     0.00799647    0.00460845    0.02387555
     atom   10 type  1   force =    -0.00799456    0.00461276    0.02385888
     atom   11 type  1   force =     0.00000685   -0.00924000    0.02387899
     atom   12 type  1   force =    -0.00000588    0.00000298   -0.05047523
     atom   13 type  2   force =    -0.00000364    0.00000487   -0.02330994
     atom   14 type  3   force =    -0.00000038    0.00000033   -0.04624615

     Total force =     0.084824     Total SCF correction =     0.000748

     entering subroutine stress ...

     negative rho (up, down):  1.591E+00 0.000E+00
          total   stress  (Ry/bohr**3)                   (kbar)     P=  -35.34
  -0.00023393   0.00000001   0.00000000        -34.41      0.00      0.00
   0.00000001  -0.00023392  -0.00000000          0.00    -34.41     -0.00
   0.00000000  -0.00000000  -0.00025292          0.00     -0.00    -37.21

     BFGS Geometry Optimization

     number of scf cycles    =   1
     number of bfgs steps    =   0

     energy   new            =   -2124.9630119628 Ry

     new trust radius        =       0.0504752338 bohr
     new conv_thr            =       0.0000099958 Ry

ATOMIC_POSITIONS (crystal)
Tc1      0.166666667   0.166666667   0.408540475    0   0   0
Tc1      0.666666667   0.166666667   0.408540475    0   0   0
Tc1      0.166666667   0.666666667   0.408540475    0   0   0
Tc1      0.666666667   0.666666667   0.408540475    0   0   0
Tc1      0.833333333   0.333333333   0.500000000    0   0   0
Tc1      0.333333333   0.333333333   0.500000000    0   0   0
Tc1      0.833333333   0.833333333   0.500000000    0   0   0
Tc1      0.333333333   0.833333333   0.500000000    0   0   0
Tc1      0.000514907   0.000513519   0.591975692
Tc1      0.498971518   0.000513999   0.591975331
Tc1      0.000515466   0.498970390   0.591975766
Tc1      0.499999266   0.500000332   0.590368300
N1       0.166666044   0.166667209   0.648845772
H1       0.166666612   0.166666704   0.691246663

     Writing output data file calc.save
     Check: negative starting charge=   -1.504849
     NEW-OLD atomic charge density approx. for the potential

     Check: negative/imaginary core charge=   -0.000022    0.000000
     Check: negative starting charge=   -1.509430

[...]

     energy   old            =   -2124.9630119627 Ry
     energy   new            =   -2124.9694039671 Ry

     CASE: energy  _new < energy  _old

[...]

     Total force =     0.005510     Total SCF correction =     0.000658
     SCF correction compared to forces is large: reduce conv_thr to get better values

[...]

     Total force =     0.004530     Total SCF correction =     0.000333

[...]

     number of scf cycles    =  11
     number of bfgs steps    =  10

     energy   old            =   -2124.9820897651 Ry
     energy   new            =   -2124.9821264919 Ry

     CASE: energy  _new < energy  _old

     new trust radius        =       0.0131039424 bohr
     new conv_thr            =       0.0000001000 Ry

ATOMIC_POSITIONS (crystal)
Tc1      0.166666667   0.166666667   0.408540475    0   0   0
Tc1      0.666666667   0.166666667   0.408540475    0   0   0
Tc1      0.166666667   0.666666667   0.408540475    0   0   0
Tc1      0.666666667   0.666666667   0.408540475    0   0   0
Tc1      0.833333333   0.333333333   0.500000000    0   0   0
Tc1      0.333333333   0.333333333   0.500000000    0   0   0
Tc1      0.833333333   0.833333333   0.500000000    0   0   0
Tc1      0.333333333   0.833333333   0.500000000    0   0   0
Tc1     -0.001648301  -0.001659624   0.592781402
Tc1      0.503305439  -0.001654717   0.592781078
Tc1     -0.001650830   0.503309795   0.592780915
Tc1      0.500003497   0.499996468   0.584323082
N1       0.166664054   0.166668665   0.645340218
H1       0.166670618   0.166663548   0.687055205

     Writing output data file calc.save
     Check: negative starting charge=   -1.505154
     NEW-OLD atomic charge density approx. for the potential

     Check: negative/imaginary core charge=   -0.000022    0.000000
     Check: negative starting charge=   -1.505198

[...]

     Self-consistent Calculation

[...]

     total energy              =   -2124.98214895 Ry
     Harris-Foulkes estimate   =   -2124.98214900 Ry
     estimated scf accuracy    <       0.00000022 Ry

     iteration # 13     ecut=    36.75 Ry     beta=0.30
     Davidson diagonalization with overlap
     ethr =  1.21E-10,  avg # of iterations =  1.1

[...]

     negative rho (up, down):  1.591E+00 0.000E+00

     Adding external electric field

     Computed dipole along edir(3) :
        Dipole                0.2789 Ry au,          0.7088 Debye
        Dipole field          0.0008 Ry au

        Potential amp.       -0.0735 Ry
        Total length         45.0992 bohr

     End of self-consistent calculation

[...]

          k = 0.0608-0.0702 0.0000 ( 16203 PWs)   bands (ev):

[...]

          k =-0.0912-0.0526 0.0000 ( 16164 PWs)   bands (ev):

   -64.2838 -64.2791 -64.2132 -64.1988 -64.1971 -64.1740 -64.1603 -64.0404
   -64.0284 -63.9890 -63.9445 -63.9270 -36.6870 -36.6692 -36.6044 -36.5664
   -36.5528 -36.5478 -36.4408 -36.4056 -36.3604 -36.3315 -36.3175 -36.2916
   -36.2280 -36.2080 -36.2068 -36.0863 -36.0818 -36.0734 -36.0529 -36.0384
   -36.0293 -36.0135 -35.9638 -35.9527 -35.9437 -35.9313 -35.9114 -35.9100
   -35.8567 -35.8416 -35.8415 -35.8147 -35.7709 -35.7577 -35.6516 -35.6207
   -13.0988  -4.9267  -2.4207  -2.0047  -1.7721  -1.7440  -1.4082  -1.3004
    -1.2617  -1.1794  -1.0195  -0.9085  -0.8090  -0.6484  -0.5217  -0.4568
    -0.4055  -0.3204  -0.2062  -0.0792   0.1361   0.2614   0.4099   0.4581
     0.4802   0.5655   0.8377   1.0603   1.1664   1.2013   1.4780   1.5004
     1.5082   1.5760   1.6256   1.7076   1.7571   1.7585   1.8458   1.9757
     2.0068   2.4192   2.4591   2.6588   2.7472   2.8048   2.8372   2.9194
     3.2124   3.2835   3.3797   3.4862   3.5696   3.6239   3.6538

     the Fermi energy is     2.9446 ev

!    total energy              =   -2124.98214891 Ry
     Harris-Foulkes estimate   =   -2124.98214838 Ry
     estimated scf accuracy    <       0.00000006 Ry

     The total energy is the sum of the following terms:

     one-electron contribution =  -19240.84695652 Ry
     hartree contribution      =    9624.14797445 Ry
     xc contribution           =    -403.42448414 Ry
     ewald contribution        =    7895.22748773 Ry
     electric field correction =       0.00022718 Ry
     smearing contrib. (-TS)   =      -0.08639762 Ry

     convergence has been achieved in  13 iterations

 BEEF-vdW xc energy contributions
           1 :   -353.366278983121
           2 :    324.840501584009
           3 :   -274.128024028089
           4 :    211.413597136381
           5 :   -147.544892840623
           6 :    91.0655199364463
           7 :   -46.5560038812561
           8 :    14.5026746913101
           9 :    7.45042781964048
          10 :   -22.6447573909018
          11 :    33.7129682653007
          12 :   -41.7007449285969
          13 :    46.1313885501640
          14 :   -45.8195732990631
          15 :    39.9264210723161
          16 :   -28.7755615130526
          17 :    14.0795541331624
          18 :    1.45289229570216
          19 :   -14.9300302955741
          20 :    24.1316766651954
          21 :   -28.0731074606620
          22 :    27.0753029777163
          23 :   -22.3859006067364
          24 :    15.5651254302368
          25 :   -7.93920889058990
          26 :   0.332142349561366
          27 :    6.86946266163000
          28 :   -13.4400357327809
          29 :    19.0248664201365
          30 :   -23.0215287046321
          31 :   -33.7413302492739
          32 :   -24.7628508325687

     Forces acting on atoms (Ry/au):

     negative rho (up, down):  1.591E+00 0.000E+00
     atom    1 type  1   force =     0.00000132   -0.00000500    0.02981507
     atom    2 type  1   force =    -0.00000107   -0.00697321    0.02951712
     atom    3 type  1   force =    -0.00603644    0.00348766    0.02953060
     atom    4 type  1   force =     0.00603557    0.00348995    0.02952308
     atom    5 type  1   force =     0.00424783   -0.00244871   -0.01134647
     atom    6 type  1   force =    -0.00424867   -0.00244442   -0.01134795
     atom    7 type  1   force =     0.00000212   -0.00000304   -0.08331980
     atom    8 type  1   force =    -0.00000526    0.00489888   -0.01134863
     atom    9 type  1   force =     0.00031686    0.00017714    0.00007746
     atom   10 type  1   force =    -0.00031541    0.00017814    0.00007511
     atom   11 type  1   force =     0.00000095   -0.00036180    0.00008818
     atom   12 type  1   force =    -0.00000111    0.00000591   -0.00071840
     atom   13 type  2   force =     0.00000439   -0.00000353   -0.00083688
     atom   14 type  3   force =    -0.00000110    0.00000203    0.00029154

     Total force =     0.001310     Total SCF correction =     0.000704
     SCF correction compared to forces is large: reduce conv_thr to get better values

     entering subroutine stress ...

     negative rho (up, down):  1.591E+00 0.000E+00
          total   stress  (Ry/bohr**3)                   (kbar)     P=  -26.81
  -0.00020592  -0.00000000  -0.00000001        -30.29     -0.00     -0.00
  -0.00000000  -0.00020594   0.00000001         -0.00    -30.29      0.00
  -0.00000001   0.00000001  -0.00013487         -0.00      0.00    -19.84

     bfgs converged in  12 scf cycles and  11 bfgs steps
     (criteria: energy <  1.0E+00, force <  1.9E-03)

     End of BFGS Geometry Optimization

     Final energy   =   -2124.9821489089 Ry
Begin final coordinates

ATOMIC_POSITIONS (crystal)
Tc1      0.166666667   0.166666667   0.408540475    0   0   0
Tc1      0.666666667   0.166666667   0.408540475    0   0   0
Tc1      0.166666667   0.666666667   0.408540475    0   0   0
Tc1      0.666666667   0.666666667   0.408540475    0   0   0
Tc1      0.833333333   0.333333333   0.500000000    0   0   0
Tc1      0.333333333   0.333333333   0.500000000    0   0   0
Tc1      0.833333333   0.833333333   0.500000000    0   0   0
Tc1      0.333333333   0.833333333   0.500000000    0   0   0
Tc1     -0.001648301  -0.001659624   0.592781402
Tc1      0.503305439  -0.001654717   0.592781078
Tc1     -0.001650830   0.503309795   0.592780915
Tc1      0.500003497   0.499996468   0.584323082
N1       0.166664054   0.166668665   0.645340218
H1       0.166670618   0.166663548   0.687055205
End final coordinates

     Writing output data file calc.save

     General routines

     Parallel routines

   This run was terminated on:  14: 3: 9  23Apr2018

   JOB DONE.
Job  /afs/slac/g/suncat/bin/suncat-tsmpirun -x LD_LIBRARY_PATH -wdir /scratch/qe13681_es6lu pw.x -npool 3 -in pw.inp

TID   HOST_NAME   COMMAND_LINE            STATUS            TERMINATION_TIME
00000 suncat2006 pw.x -npool 3 -i  Done                     04/23/2018 14:03:09
00001 suncat2006 pw.x -npool 3 -i  Done                     04/23/2018 14:03:09
00002 suncat2006 pw.x -npool 3 -i  Done                     04/23/2018 14:03:09
00003 suncat2006 pw.x -npool 3 -i  Done                     04/23/2018 14:03:09
00004 suncat2058 pw.x -npool 3 -i  Done                     04/23/2018 14:03:09
00005 suncat2058 pw.x -npool 3 -i  Done                     04/23/2018 14:03:09
00006 suncat2058 pw.x -npool 3 -i  Done                     04/23/2018 14:03:09
00007 suncat2058 pw.x -npool 3 -i  Done                     04/23/2018 14:03:09
00008 suncat2058 pw.x -npool 3 -i  Done                     04/23/2018 14:03:09
00009 suncat2058 pw.x -npool 3 -i  Done                     04/23/2018 14:03:09
00010 suncat2058 pw.x -npool 3 -i  Done                     04/23/2018 14:03:09
00011 suncat2058 pw.x -npool 3 -i  Done                     04/23/2018 14:03:09
00012 suncat2058 pw.x -npool 3 -i  Done                     04/23/2018 14:03:09
00013 suncat2058 pw.x -npool 3 -i  Done                     04/23/2018 14:03:09
00014 suncat2058 pw.x -npool 3 -i  Done                     04/23/2018 14:03:09
00015 suncat2058 pw.x -npool 3 -i  Done                     04/23/2018 14:03:09
00016 suncat2058 pw.x -npool 3 -i  Done                     04/23/2018 14:03:09
00017 suncat2058 pw.x -npool 3 -i  Done                     04/23/2018 14:03:09
00018 suncat2058 pw.x -npool 3 -i  Done                     04/23/2018 14:03:09
00019 suncat2058 pw.x -npool 3 -i  Done                     04/23/2018 14:03:09
00020 suncat2050 pw.x -npool 3 -i  Done                     04/23/2018 14:03:09
00021 suncat2050 pw.x -npool 3 -i  Done                     04/23/2018 14:03:09
00022 suncat2050 pw.x -npool 3 -i  Done                     04/23/2018 14:03:09
00023 suncat2050 pw.x -npool 3 -i  Done                     04/23/2018 14:03:09
00024 suncat2050 pw.x -npool 3 -i  Done                     04/23/2018 14:03:09
00025 suncat2050 pw.x -npool 3 -i  Done                     04/23/2018 14:03:09
00026 suncat2050 pw.x -npool 3 -i  Done                     04/23/2018 14:03:09
00027 suncat2050 pw.x -npool 3 -i  Done                     04/23/2018 14:03:09
00028 suncat2050 pw.x -npool 3 -i  Done                     04/23/2018 14:03:09
00029 suncat2050 pw.x -npool 3 -i  Done                     04/23/2018 14:03:09
00030 suncat2050 pw.x -npool 3 -i  Done                     04/23/2018 14:03:09
00031 suncat2050 pw.x -npool 3 -i  Done                     04/23/2018 14:03:09
00032 suncat2050 pw.x -npool 3 -i  Done                     04/23/2018 14:03:09
00033 suncat2050 pw.x -npool 3 -i  Done                     04/23/2018 14:03:09
00034 suncat2050 pw.x -npool 3 -i  Done                     04/23/2018 14:03:09
00035 suncat2050 pw.x -npool 3 -i  Done                     04/23/2018 14:03:09