     Program PWSCF v.5.1rc2 (svn rev. ) starts on 17Apr2018 at  8:30:35

     Current dimensions of program PWSCF are:
     Max number of different atomic species (ntypx) = 10
     Max number of k-points (npk) =  40000
     Max angular momentum in pseudopotentials (lmaxx) =  3
     Presently stress not available with electric field

     IMPORTANT: XC functional enforced from input :
     Exchange-correlation      = BEEF-VDW ( 1  4 27 13 2)
     Any further DFT definition will be discarded
     Please, verify this is what you really want

     Subspace diagonalization in iterative solution of the eigenvalue problem:
     a serial algorithm will be used

     bravais-lattice index     =            0
     lattice parameter (alat)  =       1.8897  a.u.
     unit-cell volume          =    3807.2308 (a.u.)^3
     number of atoms/cell      =           14
     number of atomic types    =            3
     number of electrons       =       233.00
     number of Kohn-Sham states=          126
     kinetic-energy cutoff     =      36.7493  Ry
     charge density cutoff     =     367.4932  Ry
     convergence threshold     =      1.0E-05
     mixing beta               =       0.3000
     number of iterations used =           10  plain     mixing
     Exchange-correlation      = BEEF-VDW ( 1  4 27 13 2)
     nstep                     =           50

     celldm(1)=   1.889726  celldm(2)=   0.000000  celldm(3)=   0.000000
     celldm(4)=   0.000000  celldm(5)=   0.000000  celldm(6)=   0.000000

     crystal axes: (cart. coord. in units of alat)
               a(1) = (   5.184823   0.000000   0.000000 )
               a(2) = (   2.592411   4.490188   0.000000 )
               a(3) = (   0.000000   0.000000  24.233390 )

     reciprocal axes: (cart. coord. in units 2 pi/alat)
               b(1) = (  0.192871 -0.111354  0.000000 )
               b(2) = (  0.000000  0.222708  0.000000 )
               b(3) = (  0.000000  0.000000  0.041265 )

     PseudoPot. # 1 for Cu read from file:
     /home/mamunm/src/pseudo/gbrv1.5pbe/Cu.UPF
     MD5 check sum: 6e991ff952a84172a2a52a1c1e996048
     Pseudo is Ultrasoft + core correction, Zval = 19.0
     Generated by new atomic code, or converted to UPF format
     Using radial grid of  867 points,  6 beta functions with:
                l(1) =   0
                l(2) =   0
                l(3) =   1
                l(4) =   1
                l(5) =   2
                l(6) =   2
     Q(r) pseudized with  8 coefficients,  rinner =    1.150   1.150   1.150
                                                       1.150   1.150

     PseudoPot. # 2 for C  read from file:
     /home/mamunm/src/pseudo/gbrv1.5pbe/C.UPF
     MD5 check sum: d1aef80898a10debaa0f26306b886e00
     Pseudo is Ultrasoft + core correction, Zval =  4.0
     Generated by new atomic code, or converted to UPF format
     Using radial grid of  721 points,  4 beta functions with:
                l(1) =   0
                l(2) =   0
                l(3) =   1
                l(4) =   1
     Q(r) pseudized with  8 coefficients,  rinner =    1.100   1.100   1.100

     PseudoPot. # 3 for H  read from file:
     /home/mamunm/src/pseudo/gbrv1.5pbe/H.UPF
     MD5 check sum: 761ae9a214b05c3daf00ab9f6b793d6f
     Pseudo is Ultrasoft, Zval =  1.0
     Generated by new atomic code, or converted to UPF format
     Using radial grid of  615 points,  2 beta functions with:
                l(1) =   0
                l(2) =   0
     Q(r) pseudized with  8 coefficients,  rinner =    0.700

     vdW kernel table read from file vdW_kernel_table
     MD5 check sum: 095c7af220d748ca6e76c0b4c6cfb241

     atomic species   valence    mass     pseudopotential
        Cu1           19.00    63.54600     Cu( 1.00)
        C1             4.00    12.01100     C ( 1.00)
        H1             1.00     1.00800     H ( 1.00)

     No symmetry found

   Cartesian axes

     site n.     atom                  positions (alat units)
         1           Cu1 tau(   1) = (   1.2962057   0.7483647  10.0000000  )
         2           Cu1 tau(   2) = (   3.8886170   0.7483647  10.0000000  )
         3           Cu1 tau(   3) = (   2.5924113   2.9934587  10.0000000  )
         4           Cu1 tau(   4) = (   5.1848226   2.9934587  10.0000000  )
         5           Cu1 tau(   5) = (   5.1848226   1.4967294  12.1166950  )
         6           Cu1 tau(   6) = (   2.5924113   1.4967294  12.1166950  )
         7           Cu1 tau(   7) = (   6.4810283   3.7418234  12.1166950  )
         8           Cu1 tau(   8) = (   3.8886170   3.7418234  12.1166950  )
         9           Cu1 tau(   9) = (   0.0000000   0.0000000  14.2333899  )
        10           Cu1 tau(  10) = (   2.5924113   0.0000000  14.2333899  )
        11           Cu1 tau(  11) = (   1.2962057   2.2450940  14.2333899  )
        12           Cu1 tau(  12) = (   3.8886170   2.2450940  14.2333899  )
        13           C1  tau(  13) = (   0.0000000   0.0000000  16.0013899  )
        14           H1  tau(  14) = (   0.0000000   0.0000000  17.1013899  )

     number of k points=    20  Fermi-Dirac smearing, width (Ry)=  0.0110
                       cart. coord. in units 2pi/alat
        k(    1) = (   0.0000000   0.0000000   0.0000000), wk =   0.0555556
        k(    2) = (   0.0000000   0.0371180   0.0000000), wk =   0.1111111
        k(    3) = (   0.0000000   0.0742359   0.0000000), wk =   0.1111111
        k(    4) = (   0.0000000  -0.1113539   0.0000000), wk =   0.0555556
        k(    5) = (   0.0321451  -0.0185590   0.0000000), wk =   0.1111111
        k(    6) = (   0.0321451   0.0185590   0.0000000), wk =   0.1111111
        k(    7) = (   0.0321451   0.0556770   0.0000000), wk =   0.1111111
        k(    8) = (   0.0321451  -0.1299129   0.0000000), wk =   0.1111111
        k(    9) = (   0.0321451  -0.0927949   0.0000000), wk =   0.1111111
        k(   10) = (   0.0321451  -0.0556770   0.0000000), wk =   0.1111111
        k(   11) = (   0.0642902  -0.0371180   0.0000000), wk =   0.1111111
        k(   12) = (   0.0642902  -0.0000000   0.0000000), wk =   0.1111111
        k(   13) = (   0.0642902   0.0371180   0.0000000), wk =   0.1111111
        k(   14) = (   0.0642902  -0.1484719   0.0000000), wk =   0.1111111
        k(   15) = (   0.0642902  -0.1113539   0.0000000), wk =   0.1111111
        k(   16) = (   0.0642902  -0.0742359   0.0000000), wk =   0.1111111
        k(   17) = (  -0.0964353   0.0556770   0.0000000), wk =   0.0555556
        k(   18) = (  -0.0964353   0.0927949   0.0000000), wk =   0.1111111
        k(   19) = (  -0.0964353   0.1299129   0.0000000), wk =   0.1111111
        k(   20) = (  -0.0964353  -0.0556770   0.0000000), wk =   0.0555556

     Largest allocated arrays     est. size (Mb)     dimensions
     Largest temporary arrays     est. size (Mb)     dimensions

     Initial potential from superposition of free atoms
     Check: negative starting charge=   -0.000133

     starting charge  220.99993, renormalised to  233.00000

     negative rho (up, down):  1.397E-04 0.000E+00

     *
     * You are using vdW-DF for exchange-correlation in this calculation.
     * Please cite the following three references that made this development
     * possible:
     *
     *   M. Dion, H. Rydberg, E. Schroder, D. C. Langreth, and
     *   B. I. Lundqvist, Phys. Rev. Lett. 92, 246401 (2004).
     *
     *   T. Thonhauser, V. R. Cooper, S. Li, A. Puzder, P. Hyldgaard, and
     *   D. C. Langreth, Phys. Rev. B 76, 125112 (2007).
     *
     *   G. Roman-Perez and J. M. Soler, Phys. Rev. Lett. 103, 096102 (2009).
     *
     *
     * If you are using vdW-DF2, please also cite:
     *
     *   K. Lee, E. D. Murray, L. Kong, B. I. Lundqvist, and
     *   D. C. Langreth, Phys. Rev. B 82, 081101(R) (2010).
     *
     *
     * If you are calculating the stress with vdW-DF, please also cite:
     *
     *   R. Sabatini, E. Kucukbenli, B. Kolb, T. Thonhauser, and
     *   S. de Gironcoli, J. Phys.: Condens. Matter 24, 424209 (2012).
     *

     Carrying out vdW-DF run using the following parameters:

     Nqs =      20    Nr_points =    1024   r_max =   100.000
     q_mesh =
               0.00001000     0.04494208     0.09755937     0.15916263
               0.23128650     0.31572767     0.41458969     0.53033537
               0.66584808     0.82450364     1.01025438     1.22772762
               1.48234092     1.78043706     2.12944203     2.53805004
               3.01644009     3.57652955     4.23227104     5.00000000

     Gradients computed in reciprocal space

     Adding external electric field

     Computed dipole along edir(3) :
        Dipole               -2.1055 Ry au,         -5.3517 Debye
        Dipole field         -0.0069 Ry au

        Potential amp.        0.6206 Ry
        Total length         44.6496 bohr

     Starting wfc are  161 randomized atomic wfcs

     Self-consistent Calculation

     iteration #  1     ecut=    36.75 Ry     beta=0.30
     Davidson diagonalization with overlap
     ethr =  1.00E-02,  avg # of iterations =  6.4

[...]

     total energy              =   -4669.27890510 Ry
     Harris-Foulkes estimate   =   -4877.73196822 Ry
     estimated scf accuracy    <     435.53780026 Ry

     iteration #  2     ecut=    36.75 Ry     beta=0.30
     Davidson diagonalization with overlap
     c_bands:  1 eigenvalues not converged
     c_bands:  1 eigenvalues not converged
     c_bands:  1 eigenvalues not converged
     c_bands:  1 eigenvalues not converged
     c_bands:  1 eigenvalues not converged
     c_bands:  3 eigenvalues not converged
     ethr =  1.00E-02,  avg # of iterations = 19.2

[...]

     End of self-consistent calculation

          k = 0.0000 0.0000 0.0000 ( 14321 PWs)   bands (ev):

  -112.8417-111.9654-111.9592-111.9592-111.9475-111.7200-111.7091-111.7047
  -111.7045-111.5600-111.5545-111.5542 -70.4020 -70.1119 -70.1119 -69.3970
   -69.3922 -69.3922 -69.3578 -69.3512 -69.3512 -69.3480 -69.3453 -69.3376
   -69.3376 -69.3209 -69.3209 -69.1674 -69.1673 -69.1658 -69.1173 -69.1173
   -69.1127 -69.0980 -69.0980 -69.0786 -69.0598 -69.0551 -69.0549 -69.0440
   -68.9958 -68.9956 -68.9480 -68.9478 -68.9325 -68.9305 -68.9250 -68.9247
   -10.4929  -7.6401  -5.9321  -5.0620  -4.3510  -3.9758  -3.9758  -3.8481
    -3.7990  -3.7990  -3.6470  -3.5087  -3.5087  -3.3979  -3.3979  -3.3396
    -3.2695  -3.1158  -3.1158  -2.6276  -2.4631  -2.4631  -2.3626  -2.3044
    -2.2660  -2.2660  -2.1793  -2.1792  -2.1018  -2.1018  -2.0941  -2.0512
    -2.0087  -2.0087  -1.8803  -1.8802  -1.7371  -1.7370  -1.6947  -1.4993
    -1.4993  -1.4426  -1.4426  -1.4194  -1.3750  -1.2248  -1.2247  -1.1056
    -1.1056  -1.0401  -1.0232  -1.0052  -1.0051  -1.0017  -1.0016  -0.9617
    -0.9616  -0.9563  -0.8821  -0.8820  -0.7758  -0.7757  -0.7733  -0.6401
    -0.0696  -0.0223  -0.0223   0.7588   1.1323   1.1324   1.8274   1.8874
     2.0588   2.0588   2.2233   3.0249   3.0249   4.1619

[...]

          k =-0.0964 0.0557 0.0000 ( 14294 PWs)   bands (ev):

[...]

     the Fermi energy is     0.6383 ev

!    total energy              =   -4871.77873309 Ry
     Harris-Foulkes estimate   =   -4871.77873101 Ry
     estimated scf accuracy    <       0.00000092 Ry

     The total energy is the sum of the following terms:

     one-electron contribution =  -37546.05098162 Ry
     hartree contribution      =   18790.06532746 Ry
     xc contribution           =    -484.23353031 Ry
     ewald contribution        =   14368.47013702 Ry
     electric field correction =       0.00003668 Ry
     smearing contrib. (-TS)   =      -0.02972231 Ry

     convergence has been achieved in  23 iterations

 BEEF-vdW xc energy contributions
           1 :   -429.024634180753
           2 :    388.882443294648
           3 :   -320.917648510336
           4 :    243.857046645080
           5 :   -174.708554678043
           6 :    122.680454294644
           7 :   -87.7596477150410
           8 :    63.8804016296813
           9 :   -44.2131599450291
          10 :    25.3076940450598
          11 :   -8.02370517968620
          12 :   -4.58569477664435
          13 :    10.4475866131413
          14 :   -10.4030929019125
          15 :    7.78277090541729
          16 :   -6.23512981555228
          17 :    7.50784192316206
          18 :   -10.7028120945278
          19 :    13.3495766104179
          20 :   -13.3914578842003
          21 :    10.6578894040791
          22 :   -6.87612056956863
          23 :    4.34931057445988
          24 :   -4.32949649105683
          25 :    6.23389676575692
          26 :   -8.18638610302924
          27 :    8.41815191278027
          28 :   -6.50286399861898
          29 :    3.57909320925086
          30 :   -1.46357852453411
          31 :   -34.3331337821137
          32 :   -23.4611570220724

     Forces acting on atoms (Ry/au):

     negative rho (up, down):  9.592E-04 0.000E+00
     atom    1 type  1   force =    -0.00016218   -0.00008963    0.00179412
     atom    2 type  1   force =     0.00015668   -0.00008973    0.00180513
     atom    3 type  1   force =    -0.00000306    0.00018261    0.00179675
     atom    4 type  1   force =     0.00000060   -0.00000070    0.00472928
     atom    5 type  1   force =    -0.00001173   -0.00147064    0.00112334
     atom    6 type  1   force =     0.00001335   -0.00000847    0.00206241
     atom    7 type  1   force =     0.00126882    0.00074618    0.00112075
     atom    8 type  1   force =    -0.00126934    0.00073085    0.00113517
     atom    9 type  1   force =     0.00000183    0.00000440    0.00032176
     atom   10 type  1   force =     0.00000530   -0.00075116    0.00508358
     atom   11 type  1   force =    -0.00065404    0.00037458    0.00508646
     atom   12 type  1   force =     0.00065231    0.00037398    0.00508155
     atom   13 type  2   force =     0.00000070   -0.00000118   -0.02148932
     atom   14 type  3   force =     0.00000074   -0.00000110   -0.00965098

     Total force =     0.025185     Total SCF correction =     0.000848

     entering subroutine stress ...

     negative rho (up, down):  9.592E-04 0.000E+00
          total   stress  (Ry/bohr**3)                   (kbar)     P=  -29.20
  -0.00021019  -0.00000000  -0.00000000        -30.92     -0.00     -0.00
  -0.00000000  -0.00021019  -0.00000000         -0.00    -30.92     -0.00
  -0.00000000  -0.00000000  -0.00017509         -0.00     -0.00    -25.76

     BFGS Geometry Optimization

     number of scf cycles    =   1
     number of bfgs steps    =   0

     energy   new            =   -4871.7787330878 Ry

     new trust radius        =       0.0214893152 bohr
     new conv_thr            =       0.0000099958 Ry

ATOMIC_POSITIONS (crystal)
Cu1      0.166666667   0.166666667   0.412653782    0   0   0
Cu1      0.666666667   0.166666667   0.412653782    0   0   0
Cu1      0.166666667   0.666666667   0.412653782    0   0   0
Cu1      0.666666667   0.666666667   0.412653782    0   0   0
Cu1      0.833333333   0.333333333   0.500000000    0   0   0
Cu1      0.333333333   0.333333333   0.500000000    0   0   0
Cu1      0.833333333   0.833333333   0.500000000    0   0   0
Cu1      0.333333333   0.833333333   0.500000000    0   0   0
Cu1     -0.000000073   0.000000519   0.587353244
Cu1      0.500044804  -0.000088525   0.587457227
Cu1     -0.000088826   0.500044145   0.587457290
Cu1      0.500044540   0.500044074   0.587457183
C1       0.000000141  -0.000000139   0.659834151
H1       0.000000140  -0.000000130   0.705484577

     Writing output data file calc.save
     Check: negative starting charge=   -0.000133
     NEW-OLD atomic charge density approx. for the potential
     Check: negative starting charge=   -0.000133

[...]

     Total force =     0.021912     Total SCF correction =     0.012337
     SCF correction compared to forces is large: reduce conv_thr to get better values

[...]

     energy   old            =   -4871.7787330878 Ry
     energy   new            =   -4871.7792197964 Ry

     CASE: energy  _new < energy  _old

[...]

     Total force =     0.013754     Total SCF correction =     0.000956

[...]

     number of scf cycles    =   7
     number of bfgs steps    =   6

     energy   old            =   -4871.7851022514 Ry
     energy   new            =   -4871.7855071328 Ry

     CASE: energy  _new < energy  _old

     new trust radius        =       0.0323853238 bohr
     new conv_thr            =       0.0000001000 Ry

ATOMIC_POSITIONS (crystal)
Cu1      0.166666667   0.166666667   0.412653782    0   0   0
Cu1      0.666666667   0.166666667   0.412653782    0   0   0
Cu1      0.166666667   0.666666667   0.412653782    0   0   0
Cu1      0.666666667   0.666666667   0.412653782    0   0   0
Cu1      0.833333333   0.333333333   0.500000000    0   0   0
Cu1      0.333333333   0.333333333   0.500000000    0   0   0
Cu1      0.833333333   0.833333333   0.500000000    0   0   0
Cu1      0.333333333   0.833333333   0.500000000    0   0   0
Cu1      0.000000801   0.000005183   0.580657223
Cu1      0.500630959  -0.001251007   0.590160087
Cu1     -0.001244560   0.500621549   0.590174754
Cu1      0.500623843   0.500622399   0.590171902
C1       0.000003107  -0.000004005   0.652573103
H1       0.000002592  -0.000002690   0.697584938

     Writing output data file calc.save
     Check: negative starting charge=   -0.000138
     NEW-OLD atomic charge density approx. for the potential
     Check: negative starting charge=   -0.000138

[...]

     Self-consistent Calculation

[...]

     total energy              =   -4871.78568402 Ry
     Harris-Foulkes estimate   =   -4871.78568393 Ry
     estimated scf accuracy    <       0.00000011 Ry

     iteration # 10     ecut=    36.75 Ry     beta=0.30
     Davidson diagonalization with overlap
     ethr =  4.90E-11,  avg # of iterations =  2.8

[...]

     negative rho (up, down):  1.028E-03 0.000E+00

     Adding external electric field

     Computed dipole along edir(3) :
        Dipole                0.1123 Ry au,          0.2855 Debye
        Dipole field          0.0004 Ry au

        Potential amp.       -0.0331 Ry
        Total length         44.6496 bohr

     End of self-consistent calculation

[...]

          k = 0.0643-0.0742 0.0000 ( 14299 PWs)   bands (ev):

[...]

          k =-0.0964-0.0557 0.0000 ( 14294 PWs)   bands (ev):

  -112.9023-111.9425-111.9407-111.9388-111.8872-111.6889-111.6740-111.6720
  -111.6703-111.5222-111.5203-111.5185 -70.4876 -70.1647 -70.1643 -69.3701
   -69.3525 -69.3450 -69.3437 -69.3412 -69.3283 -69.3265 -69.3218 -69.3093
   -69.2876 -69.2841 -69.2747 -69.1246 -69.1194 -69.1066 -69.0971 -69.0960
   -69.0932 -69.0762 -69.0724 -69.0484 -69.0224 -69.0206 -69.0190 -68.9957
   -68.9760 -68.9594 -68.9174 -68.9106 -68.9019 -68.8918 -68.8898 -68.8879
   -10.5683  -6.1410  -5.7775  -5.2727  -4.2727  -4.1790  -3.8061  -3.6832
    -3.5762  -3.4305  -3.4202  -3.3112  -3.2138  -3.1984  -3.1301  -2.9956
    -2.9258  -2.8583  -2.7923  -2.7015  -2.6800  -2.6323  -2.5337  -2.5090
    -2.4664  -2.4397  -2.3079  -2.2689  -2.2118  -2.1238  -2.0797  -2.0519
    -2.0288  -1.9934  -1.9841  -1.9269  -1.9253  -1.9235  -1.9073  -1.8811
    -1.8491  -1.8047  -1.7051  -1.6645  -1.5825  -1.5508  -1.5478  -1.4834
    -1.4743  -1.4188  -1.4023  -1.3902  -1.3406  -1.3337  -1.2435  -1.2292
    -1.2151  -1.1632  -1.1334  -1.0239  -1.0175  -0.9722  -0.9474  -0.9070
    -0.8731  -0.2467   0.2093   0.3030   0.5537   0.9322   1.4341   1.9559
     2.4226   2.4619   3.8111   4.1349   4.8853   5.2357

     the Fermi energy is     0.6767 ev

!    total energy              =   -4871.78568404 Ry
     Harris-Foulkes estimate   =   -4871.78568396 Ry
     estimated scf accuracy    <       0.00000001 Ry

     The total energy is the sum of the following terms:

     one-electron contribution =  -37565.36431456 Ry
     hartree contribution      =   18799.95949460 Ry
     xc contribution           =    -484.28423475 Ry
     ewald contribution        =   14377.93116837 Ry
     electric field correction =       0.00004163 Ry
     smearing contrib. (-TS)   =      -0.02783934 Ry

     convergence has been achieved in  10 iterations

 BEEF-vdW xc energy contributions
           1 :   -429.075429025657
           2 :    388.948867737774
           3 :   -320.999511491141
           4 :    243.940856177701
           5 :   -174.777861940094
           6 :    122.721320184450
           7 :   -87.7637281824262
           8 :    63.8485453176928
           9 :   -44.1576429832689
          10 :    25.2492021347750
          11 :   -7.98190691146874
          12 :   -4.60352511654736
          13 :    10.4511506120169
          14 :   -10.4116023505982
          15 :    7.80981532732864
          16 :   -6.27700537307260
          17 :    7.54453551352628
          18 :   -10.7125692201658
          19 :    13.3274181083642
          20 :   -13.3569810440997
          21 :    10.6435660470086
          22 :   -6.90290279610974
          23 :    4.40842931005989
          24 :   -4.38548998042495
          25 :    6.24790454160757
          26 :   -8.14351411924815
          27 :    8.33924013231717
          28 :   -6.43098811248717
          29 :    3.54917814066704
          30 :   -1.47792373064169
          31 :   -34.3364727997587
          32 :   -23.4684776502184

     Forces acting on atoms (Ry/au):

     negative rho (up, down):  1.028E-03 0.000E+00
     atom    1 type  1   force =    -0.00020979   -0.00012106    0.00116799
     atom    2 type  1   force =     0.00020989   -0.00012109    0.00116792
     atom    3 type  1   force =    -0.00000000    0.00024201    0.00116824
     atom    4 type  1   force =     0.00000003   -0.00000022    0.00439285
     atom    5 type  1   force =     0.00000097    0.00779205   -0.00549952
     atom    6 type  1   force =    -0.00000101    0.00000497    0.00883535
     atom    7 type  1   force =    -0.00674118   -0.00389868   -0.00550546
     atom    8 type  1   force =     0.00674295   -0.00389776   -0.00550863
     atom    9 type  1   force =    -0.00000042   -0.00000453    0.00057779
     atom   10 type  1   force =    -0.00000292    0.00103197   -0.00013060
     atom   11 type  1   force =     0.00089360   -0.00051300   -0.00015802
     atom   12 type  1   force =    -0.00089120   -0.00051202   -0.00015263
     atom   13 type  2   force =    -0.00000072   -0.00000198   -0.00082491
     atom   14 type  3   force =    -0.00000018   -0.00000066    0.00046962

     Total force =     0.002117     Total SCF correction =     0.000322
     SCF correction compared to forces is large: reduce conv_thr to get better values

     entering subroutine stress ...

     negative rho (up, down):  1.028E-03 0.000E+00
          total   stress  (Ry/bohr**3)                   (kbar)     P=  -22.90
  -0.00018651  -0.00000000  -0.00000000        -27.44     -0.00     -0.00
  -0.00000000  -0.00018653  -0.00000000         -0.00    -27.44     -0.00
  -0.00000000  -0.00000000  -0.00009402         -0.00     -0.00    -13.83

     bfgs converged in   8 scf cycles and   7 bfgs steps
     (criteria: energy <  1.0E+00, force <  1.9E-03)

     End of BFGS Geometry Optimization

     Final energy   =   -4871.7856840412 Ry
Begin final coordinates

ATOMIC_POSITIONS (crystal)
Cu1      0.166666667   0.166666667   0.412653782    0   0   0
Cu1      0.666666667   0.166666667   0.412653782    0   0   0
Cu1      0.166666667   0.666666667   0.412653782    0   0   0
Cu1      0.666666667   0.666666667   0.412653782    0   0   0
Cu1      0.833333333   0.333333333   0.500000000    0   0   0
Cu1      0.333333333   0.333333333   0.500000000    0   0   0
Cu1      0.833333333   0.833333333   0.500000000    0   0   0
Cu1      0.333333333   0.833333333   0.500000000    0   0   0
Cu1      0.000000801   0.000005183   0.580657223
Cu1      0.500630959  -0.001251007   0.590160087
Cu1     -0.001244560   0.500621549   0.590174754
Cu1      0.500623843   0.500622399   0.590171902
C1       0.000003107  -0.000004005   0.652573103
H1       0.000002592  -0.000002690   0.697584938
End final coordinates

     Writing output data file calc.save

     General routines

     Parallel routines

   This run was terminated on:   9: 0: 1  17Apr2018

   JOB DONE.