     Program PWSCF v.5.1rc2 (svn rev. 11289) starts on 16Jan2018 at  9:13:15

     Current dimensions of program PWSCF are:
     Max number of different atomic species (ntypx) = 10
     Max number of k-points (npk) =  40000
     Max angular momentum in pseudopotentials (lmaxx) =  3
     Presently stress not available with electric field

     IMPORTANT: XC functional enforced from input :
     Exchange-correlation      = BEEF-VDW ( 1  4 27 13 2)
     Any further DFT definition will be discarded
     Please, verify this is what you really want

     Subspace diagonalization in iterative solution of the eigenvalue problem:
     a serial algorithm will be used

     bravais-lattice index     =            0
     lattice parameter (alat)  =       1.8897  a.u.
     unit-cell volume          =    4228.3700 (a.u.)^3
     number of atoms/cell      =           13
     number of atomic types    =            2
     number of electrons       =       193.00
     number of Kohn-Sham states=          106
     kinetic-energy cutoff     =      36.7493  Ry
     charge density cutoff     =     367.4932  Ry
     convergence threshold     =      1.0E-05
     mixing beta               =       0.3000
     number of iterations used =           10  plain     mixing
     Exchange-correlation      = BEEF-VDW ( 1  4 27 13 2)
     nstep                     =           50

     celldm(1)=   1.889726  celldm(2)=   0.000000  celldm(3)=   0.000000
     celldm(4)=   0.000000  celldm(5)=   0.000000  celldm(6)=   0.000000

     crystal axes: (cart. coord. in units of alat)
               a(1) = (   5.440665   0.000000   0.000000 )
               a(2) = (   2.720332   4.711754   0.000000 )
               a(3) = (   0.000000   0.000000  24.442284 )

     reciprocal axes: (cart. coord. in units 2 pi/alat)
               b(1) = (  0.183801 -0.106118  0.000000 )
               b(2) = (  0.000000  0.212235  0.000000 )
               b(3) = (  0.000000  0.000000  0.040913 )

     PseudoPot. # 1 for Os read from file:
     /afs/slac.stanford.edu/u/if/mamunm/psp/gbrv1.5pbe/Os.UPF
     MD5 check sum: a3fb40a04f0c37c25c34bbc47164c9a8
     Pseudo is Ultrasoft + core correction, Zval = 16.0
     Generated by new atomic code, or converted to UPF format
     Using radial grid of  983 points,  8 beta functions with:
                l(1) =   0
                l(2) =   0
                l(3) =   1
                l(4) =   1
                l(5) =   2
                l(6) =   2
                l(7) =   3
                l(8) =   3
     Q(r) pseudized with  8 coefficients,  rinner =    1.150   1.150   1.150
                                                       1.150   1.150   1.150
                                                       1.150

     PseudoPot. # 2 for H  read from file:
     /afs/slac.stanford.edu/u/if/mamunm/psp/gbrv1.5pbe/H.UPF
     MD5 check sum: 761ae9a214b05c3daf00ab9f6b793d6f
     Pseudo is Ultrasoft, Zval =  1.0
     Generated by new atomic code, or converted to UPF format
     Using radial grid of  615 points,  2 beta functions with:
                l(1) =   0
                l(2) =   0
     Q(r) pseudized with  8 coefficients,  rinner =    0.700

     vdW kernel table read from file vdW_kernel_table
     MD5 check sum: 095c7af220d748ca6e76c0b4c6cfb241

     atomic species   valence    mass     pseudopotential
        Os1           16.00   190.23000     Os( 1.00)
        H1             1.00     1.00800     H ( 1.00)

     No symmetry found

   Cartesian axes

     site n.     atom                  positions (alat units)
         1           Os1 tau(   1) = (   1.3601662   0.7852923  10.0000000  )
         2           Os1 tau(   2) = (   4.0804987   0.7852923  10.0000000  )
         3           Os1 tau(   3) = (   2.7203325   3.1411694  10.0000000  )
         4           Os1 tau(   4) = (   5.4406649   3.1411694  10.0000000  )
         5           Os1 tau(   5) = (   5.4406649   1.5705847  12.2211422  )
         6           Os1 tau(   6) = (   2.7203325   1.5705847  12.2211422  )
         7           Os1 tau(   7) = (   6.8008312   3.9264617  12.2211422  )
         8           Os1 tau(   8) = (   4.0804987   3.9264617  12.2211422  )
         9           Os1 tau(   9) = (   0.0000000   0.0000000  14.4422843  )
        10           Os1 tau(  10) = (   2.7203325   0.0000000  14.4422843  )
        11           Os1 tau(  11) = (   1.3601662   2.3558770  14.4422843  )
        12           Os1 tau(  12) = (   4.0804987   2.3558770  14.4422843  )
        13           H1  tau(  13) = (   1.3601662   0.0000000  16.1922843  )

     number of k points=    20  Fermi-Dirac smearing, width (Ry)=  0.0110
                       cart. coord. in units 2pi/alat
        k(    1) = (   0.0000000   0.0000000   0.0000000), wk =   0.0555556
        k(    2) = (   0.0000000   0.0353725   0.0000000), wk =   0.1111111
        k(    3) = (   0.0000000   0.0707451   0.0000000), wk =   0.1111111
        k(    4) = (   0.0000000  -0.1061176   0.0000000), wk =   0.0555556
        k(    5) = (   0.0306335  -0.0176863   0.0000000), wk =   0.1111111
        k(    6) = (   0.0306335   0.0176863   0.0000000), wk =   0.1111111
        k(    7) = (   0.0306335   0.0530588   0.0000000), wk =   0.1111111
        k(    8) = (   0.0306335  -0.1238039   0.0000000), wk =   0.1111111
        k(    9) = (   0.0306335  -0.0884313   0.0000000), wk =   0.1111111
        k(   10) = (   0.0306335  -0.0530588   0.0000000), wk =   0.1111111
        k(   11) = (   0.0612670  -0.0353725   0.0000000), wk =   0.1111111
        k(   12) = (   0.0612670   0.0000000   0.0000000), wk =   0.1111111
        k(   13) = (   0.0612670   0.0353725   0.0000000), wk =   0.1111111
        k(   14) = (   0.0612670  -0.1414901   0.0000000), wk =   0.1111111
        k(   15) = (   0.0612670  -0.1061176   0.0000000), wk =   0.1111111
        k(   16) = (   0.0612670  -0.0707451   0.0000000), wk =   0.1111111
        k(   17) = (  -0.0919005   0.0530588   0.0000000), wk =   0.0555556
        k(   18) = (  -0.0919005   0.0884313   0.0000000), wk =   0.1111111
        k(   19) = (  -0.0919005   0.1238039   0.0000000), wk =   0.1111111
        k(   20) = (  -0.0919005  -0.0530588   0.0000000), wk =   0.0555556

     Largest allocated arrays     est. size (Mb)     dimensions
     Largest temporary arrays     est. size (Mb)     dimensions

     Initial potential from superposition of free atoms
     Check: negative starting charge=   -1.495827

     starting charge  186.99955, renormalised to  193.00000

     negative rho (up, down):  1.544E+00 0.000E+00

     *
     * You are using vdW-DF for exchange-correlation in this calculation.
     * Please cite the following three references that made this development
     * possible:
     *
     *   M. Dion, H. Rydberg, E. Schroder, D. C. Langreth, and
     *   B. I. Lundqvist, Phys. Rev. Lett. 92, 246401 (2004).
     *
     *   T. Thonhauser, V. R. Cooper, S. Li, A. Puzder, P. Hyldgaard, and
     *   D. C. Langreth, Phys. Rev. B 76, 125112 (2007).
     *
     *   G. Roman-Perez and J. M. Soler, Phys. Rev. Lett. 103, 096102 (2009).
     *
     *
     * If you are using vdW-DF2, please also cite:
     *
     *   K. Lee, E. D. Murray, L. Kong, B. I. Lundqvist, and
     *   D. C. Langreth, Phys. Rev. B 82, 081101(R) (2010).
     *
     *
     * If you are calculating the stress with vdW-DF, please also cite:
     *
     *   R. Sabatini, E. Kucukbenli, B. Kolb, T. Thonhauser, and
     *   S. de Gironcoli, J. Phys.: Condens. Matter 24, 424209 (2012).
     *

     Carrying out vdW-DF run using the following parameters:

     Nqs =      20    Nr_points =    1024   r_max =   100.000
     q_mesh =
               0.00001000     0.04494208     0.09755937     0.15916263
               0.23128650     0.31572767     0.41458969     0.53033537
               0.66584808     0.82450364     1.01025438     1.22772762
               1.48234092     1.78043706     2.12944203     2.53805004
               3.01644009     3.57652955     4.23227104     5.00000000

     Gradients computed in reciprocal space

     Adding external electric field

     Computed dipole along edir(3) :
        Dipole               -0.2407 Ry au,         -0.6119 Debye
        Dipole field         -0.0007 Ry au

        Potential amp.        0.0644 Ry
        Total length         45.0345 bohr

     Starting wfc are  157 randomized atomic wfcs

     Self-consistent Calculation

     iteration #  1     ecut=    36.75 Ry     beta=0.30
     Davidson diagonalization with overlap
     ethr =  1.00E-02,  avg # of iterations =  2.0

[...]

     total energy              =   -2397.57288292 Ry
     Harris-Foulkes estimate   =   -2399.16684203 Ry
     estimated scf accuracy    <       3.67957133 Ry

[...]

     End of self-consistent calculation

          k = 0.0000 0.0000 0.0000 ( 15845 PWs)   bands (ev):

   -84.0620 -84.0126 -84.0040 -83.9378 -83.6156 -83.5757 -83.5620 -83.5258
   -83.5094 -83.5026 -83.5023 -83.4956 -43.7310 -43.7117 -43.7101 -43.5484
   -43.4418 -43.4302 -43.4078 -43.2129 -43.1867 -43.1773 -43.1341 -43.1134
   -43.1060 -43.0467 -43.0349 -43.0222 -42.9250 -42.9227 -42.8945 -42.8234
   -42.7889 -42.7686 -42.7276 -42.7182 -42.7010 -42.6900 -42.6482 -42.6391
   -42.6275 -42.6016 -42.5960 -42.5948 -42.4587 -42.4539 -42.4228 -42.4215
    -6.6676  -4.7297  -4.2514  -3.9052  -3.8885  -3.8863  -3.5862  -3.5600
    -3.5514  -3.0065  -2.9609  -2.9572  -2.7188  -2.6863  -2.6704  -1.4679
    -1.1308  -1.1217  -0.5271  -0.3302  -0.3292  -0.1948  -0.0678   0.1497
     0.1503   0.5045   0.6726   0.6780   0.6826   0.6935   0.7261   1.0016
     1.0022   1.0120   1.0397   1.1328   2.3565   2.5403   2.5552   2.7159
     2.7195   2.7263   2.9633   3.0104   3.0155   3.7219   3.7346   3.9764
     4.1993   4.2450   4.3357   4.4233   4.4373   4.6303   4.6400   4.6426
     4.8658   4.8720

[...]

          k =-0.0919 0.0531 0.0000 ( 15968 PWs)   bands (ev):

[...]

     the Fermi energy is     3.0395 ev

!    total energy              =   -2398.45176218 Ry
     Harris-Foulkes estimate   =   -2398.45176316 Ry
     estimated scf accuracy    <       0.00000127 Ry

     The total energy is the sum of the following terms:

     one-electron contribution =  -21520.18239420 Ry
     hartree contribution      =   10742.46478261 Ry
     xc contribution           =    -464.94279449 Ry
     ewald contribution        =    8844.27436816 Ry
     electric field correction =       0.00000113 Ry
     smearing contrib. (-TS)   =      -0.06572537 Ry

     convergence has been achieved in  14 iterations

 BEEF-vdW xc energy contributions
           1 :   -407.377561190675
           2 :    377.585575961363
           3 :   -324.928792489708
           4 :    260.823505488854
           5 :   -197.627045584728
           6 :    145.244609618228
           7 :   -108.895940030688
           8 :    88.5696982098969
           9 :   -80.1506811497175
          10 :    77.6177561460054
          11 :   -75.4148282595114
          12 :    70.1482554860952
          13 :   -61.1576873270971
          14 :    49.9882932489168
          15 :   -39.1890765966672
          16 :    31.0056205414373
          17 :   -26.4739420906442
[...]
00030 suncat2040 pw.x -in pw.inp   Done                     01/16/2018 09:17:36
00031 suncat2040 pw.x -in pw.inp   Done                     01/16/2018 09:17:36

[...]

     Total force =     0.091622     Total SCF correction =     0.011196
     SCF correction compared to forces is large: reduce conv_thr to get better values

[...]

   This run was terminated on:   9:31: 9  16Jan2018

[...]

     Total force =     0.078375     Total SCF correction =     0.005372

[...]

     Program PWSCF v.5.1rc2 (svn rev. 11289) starts on 16Jan2018 at  9:35:57

     Current dimensions of program PWSCF are:
     Max number of different atomic species (ntypx) = 10
     Max number of k-points (npk) =  40000
     Max angular momentum in pseudopotentials (lmaxx) =  3
     Presently stress not available with electric field

     IMPORTANT: XC functional enforced from input :
     Exchange-correlation      = BEEF-VDW ( 1  4 27 13 2)
     Any further DFT definition will be discarded
     Please, verify this is what you really want

     Subspace diagonalization in iterative solution of the eigenvalue problem:
     a serial algorithm will be used

     bravais-lattice index     =            0
     lattice parameter (alat)  =       1.8897  a.u.
     unit-cell volume          =    4228.3700 (a.u.)^3
     number of atoms/cell      =           13
     number of atomic types    =            2
     number of electrons       =       193.00
     number of Kohn-Sham states=          106
     kinetic-energy cutoff     =      36.7493  Ry
     charge density cutoff     =     367.4932  Ry
     convergence threshold     =      1.0E-05
     mixing beta               =       0.3000
     number of iterations used =           10  plain     mixing
     Exchange-correlation      = BEEF-VDW ( 1  4 27 13 2)
     nstep                     =           50

     celldm(1)=   1.889726  celldm(2)=   0.000000  celldm(3)=   0.000000
     celldm(4)=   0.000000  celldm(5)=   0.000000  celldm(6)=   0.000000

     crystal axes: (cart. coord. in units of alat)
               a(1) = (   5.440665   0.000000   0.000000 )
               a(2) = (   2.720332   4.711754   0.000000 )
               a(3) = (   0.000000   0.000000  24.442284 )

     reciprocal axes: (cart. coord. in units 2 pi/alat)
               b(1) = (  0.183801 -0.106118  0.000000 )
               b(2) = (  0.000000  0.212235  0.000000 )
               b(3) = (  0.000000  0.000000  0.040913 )

     PseudoPot. # 1 for Os read from file:
     /afs/slac.stanford.edu/u/if/mamunm/psp/gbrv1.5pbe/Os.UPF
     MD5 check sum: a3fb40a04f0c37c25c34bbc47164c9a8
     Pseudo is Ultrasoft + core correction, Zval = 16.0
     Generated by new atomic code, or converted to UPF format
     Using radial grid of  983 points,  8 beta functions with:
                l(1) =   0
                l(2) =   0
                l(3) =   1
                l(4) =   1
                l(5) =   2
                l(6) =   2
                l(7) =   3
                l(8) =   3
     Q(r) pseudized with  8 coefficients,  rinner =    1.150   1.150   1.150
                                                       1.150   1.150   1.150
                                                       1.150

     PseudoPot. # 2 for H  read from file:
     /afs/slac.stanford.edu/u/if/mamunm/psp/gbrv1.5pbe/H.UPF
     MD5 check sum: 761ae9a214b05c3daf00ab9f6b793d6f
     Pseudo is Ultrasoft, Zval =  1.0
     Generated by new atomic code, or converted to UPF format
     Using radial grid of  615 points,  2 beta functions with:
                l(1) =   0
                l(2) =   0
     Q(r) pseudized with  8 coefficients,  rinner =    0.700

     vdW kernel table read from file vdW_kernel_table
     MD5 check sum: 095c7af220d748ca6e76c0b4c6cfb241

     atomic species   valence    mass     pseudopotential
        Os1           16.00   190.23000     Os( 1.00)
        H1             1.00     1.00800     H ( 1.00)

     No symmetry found

   Cartesian axes

     site n.     atom                  positions (alat units)
         1           Os1 tau(   1) = (   1.3601662   0.7852923  10.0000000  )
         2           Os1 tau(   2) = (   4.0804987   0.7852923  10.0000000  )
         3           Os1 tau(   3) = (   2.7203325   3.1411694  10.0000000  )
         4           Os1 tau(   4) = (   5.4406649   3.1411694  10.0000000  )
         5           Os1 tau(   5) = (   5.4406649   1.5705847  12.2211422  )
         6           Os1 tau(   6) = (   2.7203325   1.5705847  12.2211422  )
         7           Os1 tau(   7) = (   6.8008312   3.9264617  12.2211422  )
         8           Os1 tau(   8) = (   4.0804987   3.9264617  12.2211422  )
         9           Os1 tau(   9) = (   5.4200882   0.0055631  14.3902577  )
        10           Os1 tau(  10) = (   2.7408968   0.0055745  14.3902515  )
        11           Os1 tau(  11) = (   6.8008393   2.3693571  14.3430016  )
        12           Os1 tau(  12) = (   4.0804958   2.3404409  14.3465312  )
        13           H1  tau(  13) = (   1.3601584   0.0237656  15.6019512  )

     number of k points=    20  Fermi-Dirac smearing, width (Ry)=  0.0110
                       cart. coord. in units 2pi/alat
        k(    1) = (   0.0000000   0.0000000   0.0000000), wk =   0.0555556
        k(    2) = (   0.0000000   0.0353725   0.0000000), wk =   0.1111111
        k(    3) = (   0.0000000   0.0707451   0.0000000), wk =   0.1111111
        k(    4) = (   0.0000000  -0.1061176   0.0000000), wk =   0.0555556
        k(    5) = (   0.0306335  -0.0176863   0.0000000), wk =   0.1111111
        k(    6) = (   0.0306335   0.0176863   0.0000000), wk =   0.1111111
        k(    7) = (   0.0306335   0.0530588   0.0000000), wk =   0.1111111
        k(    8) = (   0.0306335  -0.1238039   0.0000000), wk =   0.1111111
        k(    9) = (   0.0306335  -0.0884313   0.0000000), wk =   0.1111111
        k(   10) = (   0.0306335  -0.0530588   0.0000000), wk =   0.1111111
        k(   11) = (   0.0612670  -0.0353725   0.0000000), wk =   0.1111111
        k(   12) = (   0.0612670   0.0000000   0.0000000), wk =   0.1111111
        k(   13) = (   0.0612670   0.0353725   0.0000000), wk =   0.1111111
        k(   14) = (   0.0612670  -0.1414901   0.0000000), wk =   0.1111111
        k(   15) = (   0.0612670  -0.1061176   0.0000000), wk =   0.1111111
        k(   16) = (   0.0612670  -0.0707451   0.0000000), wk =   0.1111111
        k(   17) = (  -0.0919005   0.0530588   0.0000000), wk =   0.0555556
        k(   18) = (  -0.0919005   0.0884313   0.0000000), wk =   0.1111111
        k(   19) = (  -0.0919005   0.1238039   0.0000000), wk =   0.1111111
        k(   20) = (  -0.0919005  -0.0530588   0.0000000), wk =   0.0555556

     Largest allocated arrays     est. size (Mb)     dimensions
     Largest temporary arrays     est. size (Mb)     dimensions

     Initial potential from superposition of free atoms
     Check: negative starting charge=   -1.491063

     starting charge  186.99955, renormalised to  193.00000

[...]

     *
     * You are using vdW-DF for exchange-correlation in this calculation.
     * Please cite the following three references that made this development
     * possible:
     *
     *   M. Dion, H. Rydberg, E. Schroder, D. C. Langreth, and
     *   B. I. Lundqvist, Phys. Rev. Lett. 92, 246401 (2004).
     *
     *   T. Thonhauser, V. R. Cooper, S. Li, A. Puzder, P. Hyldgaard, and
     *   D. C. Langreth, Phys. Rev. B 76, 125112 (2007).
     *
     *   G. Roman-Perez and J. M. Soler, Phys. Rev. Lett. 103, 096102 (2009).
     *
     *
     * If you are using vdW-DF2, please also cite:
     *
     *   K. Lee, E. D. Murray, L. Kong, B. I. Lundqvist, and
     *   D. C. Langreth, Phys. Rev. B 82, 081101(R) (2010).
     *
     *
     * If you are calculating the stress with vdW-DF, please also cite:
     *
     *   R. Sabatini, E. Kucukbenli, B. Kolb, T. Thonhauser, and
     *   S. de Gironcoli, J. Phys.: Condens. Matter 24, 424209 (2012).
     *

     Carrying out vdW-DF run using the following parameters:

     Nqs =      20    Nr_points =    1024   r_max =   100.000
     q_mesh =
               0.00001000     0.04494208     0.09755937     0.15916263
               0.23128650     0.31572767     0.41458969     0.53033537
               0.66584808     0.82450364     1.01025438     1.22772762
               1.48234092     1.78043706     2.12944203     2.53805004
               3.01644009     3.57652955     4.23227104     5.00000000

     Gradients computed in reciprocal space

[...]

     Starting wfc are  157 randomized atomic wfcs

     Self-consistent Calculation

[...]

     total energy              =   -2398.50853202 Ry
     Harris-Foulkes estimate   =   -2398.50853323 Ry
     estimated scf accuracy    <       0.00001243 Ry

     iteration # 14     ecut=    36.75 Ry     beta=0.30
     Davidson diagonalization with overlap
     ethr =  6.44E-09,  avg # of iterations =  2.3

[...]

     negative rho (up, down):  1.510E+00 0.000E+00

     Adding external electric field

     Computed dipole along edir(3) :
        Dipole                0.0482 Ry au,          0.1226 Debye
        Dipole field          0.0001 Ry au

        Potential amp.       -0.0129 Ry
        Total length         45.0345 bohr

     End of self-consistent calculation

[...]

          k = 0.0613-0.0707 0.0000 ( 15922 PWs)   bands (ev):

[...]

          k =-0.0919-0.0531 0.0000 ( 15968 PWs)   bands (ev):

   -84.0087 -84.0032 -83.9724 -83.9276 -83.5592 -83.5523 -83.5136 -83.5016
   -83.4570 -83.4564 -83.4238 -83.4222 -43.5796 -43.5649 -43.4681 -43.4634
   -43.3844 -43.3813 -43.3466 -43.3400 -43.2839 -43.2603 -43.0240 -43.0211
   -43.0188 -42.9980 -42.9067 -42.8995 -42.8732 -42.8590 -42.7816 -42.7755
   -42.7568 -42.7507 -42.7288 -42.7205 -42.7147 -42.7134 -42.6627 -42.6613
   -42.6392 -42.6383 -42.6172 -42.6140 -42.5402 -42.5230 -42.4355 -42.4349
    -4.7912  -4.7331  -3.6881  -3.1512  -2.8584  -2.7989  -2.7645  -2.6890
    -2.6690  -2.6247  -2.3535  -2.0241  -1.9816  -1.6282  -1.5459  -1.4796
    -1.4377  -1.1291  -1.1023  -1.0555  -0.9641  -0.5521  -0.5124  -0.0143
     0.0575   0.2439   0.3252   0.3844   0.3987   0.4492   0.5024   0.6519
     0.7232   0.7736   0.8707   0.8962   0.9395   0.9947   1.0130   1.0557
     1.9126   1.9433   1.9903   2.1023   2.2943   2.3330   2.5744   2.6305
     2.8958   2.9505   3.0886   3.1831   3.2173   3.2431   3.5122   3.5598
     3.8237   3.8405

     the Fermi energy is     3.0932 ev

!    total energy              =   -2398.50853033 Ry
     Harris-Foulkes estimate   =   -2398.50853573 Ry
     estimated scf accuracy    <       0.00000302 Ry

     The total energy is the sum of the following terms:

     one-electron contribution =  -21788.70188258 Ry
     hartree contribution      =   10876.88952455 Ry
     xc contribution           =    -465.29905305 Ry
     ewald contribution        =    8978.66508147 Ry
     electric field correction =       0.00000691 Ry
     smearing contrib. (-TS)   =      -0.06220762 Ry

     convergence has been achieved in  14 iterations

 BEEF-vdW xc energy contributions
           1 :   -407.735614551543
           2 :    378.050344874225
           3 :   -325.534906184193
           4 :    261.509351520853
           5 :   -198.261608224429
           6 :    145.687904114500
           7 :   -109.066561231353
           8 :    88.4868416943849
           9 :   -79.9289423030359
          10 :    77.4169056475225
          11 :   -75.3693615062094
          12 :    70.3096441370740
          13 :   -61.4760972061166
          14 :    50.3408131770369
          15 :   -39.4392407545889
          16 :    31.0664638126211
          17 :   -26.3457967723147
          18 :    24.9446286059505
          19 :   -25.4317847558972
          20 :    26.0217286180877
          21 :   -25.3449145404911
          22 :    22.9239775711143
          23 :   -19.2095273195048
          24 :    15.2251225419579
          25 :   -12.0273504185518
          26 :    10.2318674303606
          27 :   -9.80044093560139
          28 :    10.1440862330923
          29 :   -10.4582022884020
          30 :    10.1121255387621
          31 :   -38.6223638950110
          32 :   -29.5224622260232

     Forces acting on atoms (Ry/au):

     negative rho (up, down):  1.510E+00 0.000E+00
     atom    1 type  1   force =     0.00000800   -0.00003650    0.02725536
     atom    2 type  1   force =    -0.00000526    0.00159394    0.02234461
     atom    3 type  1   force =     0.00185082   -0.00067173    0.03020665
     atom    4 type  1   force =    -0.00185128   -0.00066193    0.03019675
     atom    5 type  1   force =    -0.00074846   -0.00090426   -0.02634187
     atom    6 type  1   force =     0.00074706   -0.00090329   -0.02633851
     atom    7 type  1   force =    -0.00000345   -0.00505315   -0.03206451
     atom    8 type  1   force =    -0.00000227    0.00290494   -0.02464673
     atom    9 type  1   force =     0.00022499    0.00038001    0.00010788
     atom   10 type  1   force =    -0.00022281    0.00038180    0.00010827
     atom   11 type  1   force =     0.00000524    0.00121462   -0.00074126
     atom   12 type  1   force =    -0.00000336    0.00062852    0.00046981
     atom   13 type  2   force =     0.00000079    0.00112702   -0.00055645

     Total force =     0.078366     Total SCF correction =     0.012357
     SCF correction compared to forces is large: reduce conv_thr to get better values

     entering subroutine stress ...

     negative rho (up, down):  1.510E+00 0.000E+00
          total   stress  (Ry/bohr**3)                   (kbar)     P=  -22.03
  -0.00017078   0.00000000  -0.00000000        -25.12      0.00     -0.00
   0.00000000  -0.00015553   0.00000395          0.00    -22.88      0.58
  -0.00000000   0.00000395  -0.00012291         -0.00      0.58    -18.08

 !ASE

     Writing output data file calc.save

     General routines

     Parallel routines

   This run was terminated on:   9:40:18  16Jan2018

   JOB DONE.
Job  /afs/slac/g/suncat/bin/suncat-tsmpirun -x LD_LIBRARY_PATH -wdir /scratch/qe842464_gRBLL pw.x -in pw.inp

TID   HOST_NAME   COMMAND_LINE            STATUS            TERMINATION_TIME
00000 suncat2041 pw.x -in pw.inp   Done                     01/16/2018 09:40:18
00001 suncat2041 pw.x -in pw.inp   Done                     01/16/2018 09:40:18
00002 suncat2041 pw.x -in pw.inp   Done                     01/16/2018 09:40:18
00003 suncat2041 pw.x -in pw.inp   Done                     01/16/2018 09:40:18
00004 suncat2041 pw.x -in pw.inp   Done                     01/16/2018 09:40:18
00005 suncat2041 pw.x -in pw.inp   Done                     01/16/2018 09:40:18
00006 suncat2041 pw.x -in pw.inp   Done                     01/16/2018 09:40:18
00007 suncat2041 pw.x -in pw.inp   Done                     01/16/2018 09:40:18
00008 suncat2041 pw.x -in pw.inp   Done                     01/16/2018 09:40:18
00009 suncat2041 pw.x -in pw.inp   Done                     01/16/2018 09:40:18
00010 suncat2041 pw.x -in pw.inp   Done                     01/16/2018 09:40:18
00011 suncat2041 pw.x -in pw.inp   Done                     01/16/2018 09:40:18
00012 suncat2041 pw.x -in pw.inp   Done                     01/16/2018 09:40:18
00013 suncat2041 pw.x -in pw.inp   Done                     01/16/2018 09:40:18
00014 suncat2041 pw.x -in pw.inp   Done                     01/16/2018 09:40:18
00015 suncat2041 pw.x -in pw.inp   Done                     01/16/2018 09:40:18
00016 suncat2040 pw.x -in pw.inp   Done                     01/16/2018 09:40:18
00017 suncat2040 pw.x -in pw.inp   Done                     01/16/2018 09:40:18
00018 suncat2040 pw.x -in pw.inp   Done                     01/16/2018 09:40:18
00019 suncat2040 pw.x -in pw.inp   Done                     01/16/2018 09:40:18
00020 suncat2040 pw.x -in pw.inp   Done                     01/16/2018 09:40:18
00021 suncat2040 pw.x -in pw.inp   Done                     01/16/2018 09:40:18
00022 suncat2040 pw.x -in pw.inp   Done                     01/16/2018 09:40:18
00023 suncat2040 pw.x -in pw.inp   Done                     01/16/2018 09:40:18
00024 suncat2040 pw.x -in pw.inp   Done                     01/16/2018 09:40:18
00025 suncat2040 pw.x -in pw.inp   Done                     01/16/2018 09:40:18
00026 suncat2040 pw.x -in pw.inp   Done                     01/16/2018 09:40:18
00027 suncat2040 pw.x -in pw.inp   Done                     01/16/2018 09:40:18
00028 suncat2040 pw.x -in pw.inp   Done                     01/16/2018 09:40:18
00029 suncat2040 pw.x -in pw.inp   Done                     01/16/2018 09:40:18
00030 suncat2040 pw.x -in pw.inp   Done                     01/16/2018 09:40:18
00031 suncat2040 pw.x -in pw.inp   Done                     01/16/2018 09:40:18