     Program PWSCF v.5.1rc2 (svn rev. ) starts on 18Apr2018 at 22:27:24

     Current dimensions of program PWSCF are:
     Max number of different atomic species (ntypx) = 10
     Max number of k-points (npk) =  40000
     Max angular momentum in pseudopotentials (lmaxx) =  3
     Presently stress not available with electric field

     IMPORTANT: XC functional enforced from input :
     Exchange-correlation      = BEEF-VDW ( 1  4 27 13 2)
     Any further DFT definition will be discarded
     Please, verify this is what you really want

     Subspace diagonalization in iterative solution of the eigenvalue problem:
     a serial algorithm will be used

     bravais-lattice index     =            0
     lattice parameter (alat)  =       1.8897  a.u.
     unit-cell volume          =    8507.0471 (a.u.)^3
     number of atoms/cell      =           15
     number of atomic types    =            3
     number of electrons       =       138.00
     number of Kohn-Sham states=           79
     kinetic-energy cutoff     =      36.7493  Ry
     charge density cutoff     =     367.4932  Ry
     convergence threshold     =      1.0E-05
     mixing beta               =       0.3000
     number of iterations used =           10  plain     mixing
     Exchange-correlation      = BEEF-VDW ( 1  4 27 13 2)
     nstep                     =           50

     celldm(1)=   1.889726  celldm(2)=   0.000000  celldm(3)=   0.000000
     celldm(4)=   0.000000  celldm(5)=   0.000000  celldm(6)=   0.000000

     crystal axes: (cart. coord. in units of alat)
               a(1) = (   7.468327   0.000000   0.000000 )
               a(2) = (   3.734164   6.467761   0.000000 )
               a(3) = (   0.000000   0.000000  26.097863 )

     reciprocal axes: (cart. coord. in units 2 pi/alat)
               b(1) = (  0.133899 -0.077307  0.000000 )
               b(2) = (  0.000000  0.154613  0.000000 )
               b(3) = (  0.000000  0.000000  0.038317 )

     PseudoPot. # 1 for La read from file:
     /home/mamunm/src/pseudo/gbrv1.5pbe/La.UPF
     MD5 check sum: 5937b0c7494ba0601a847275249473aa
     Pseudo is Ultrasoft + core correction, Zval = 11.0
     Generated by new atomic code, or converted to UPF format
     Using radial grid of  995 points,  8 beta functions with:
                l(1) =   0
                l(2) =   0
                l(3) =   1
                l(4) =   1
                l(5) =   2
                l(6) =   2
                l(7) =   3
                l(8) =   3
     Q(r) pseudized with  8 coefficients,  rinner =    1.700   1.700   1.700
                                                       1.700   1.700   1.700
                                                       1.700

     PseudoPot. # 2 for C  read from file:
     /home/mamunm/src/pseudo/gbrv1.5pbe/C.UPF
     MD5 check sum: d1aef80898a10debaa0f26306b886e00
     Pseudo is Ultrasoft + core correction, Zval =  4.0
     Generated by new atomic code, or converted to UPF format
     Using radial grid of  721 points,  4 beta functions with:
                l(1) =   0
                l(2) =   0
                l(3) =   1
                l(4) =   1
     Q(r) pseudized with  8 coefficients,  rinner =    1.100   1.100   1.100

     PseudoPot. # 3 for H  read from file:
     /home/mamunm/src/pseudo/gbrv1.5pbe/H.UPF
     MD5 check sum: 761ae9a214b05c3daf00ab9f6b793d6f
     Pseudo is Ultrasoft, Zval =  1.0
     Generated by new atomic code, or converted to UPF format
     Using radial grid of  615 points,  2 beta functions with:
                l(1) =   0
                l(2) =   0
     Q(r) pseudized with  8 coefficients,  rinner =    0.700

     vdW kernel table read from file vdW_kernel_table
     MD5 check sum: 095c7af220d748ca6e76c0b4c6cfb241

     atomic species   valence    mass     pseudopotential
        La1           11.00   138.90547     La( 1.00)
        C1             4.00    12.01100     C ( 1.00)
        H1             1.00     1.00800     H ( 1.00)

     No symmetry found

   Cartesian axes

     site n.     atom                  positions (alat units)
         1           La1 tau(   1) = (   1.8670818   1.0779602  10.0000000  )
         2           La1 tau(   2) = (   5.6012453   1.0779602  10.0000000  )
         3           La1 tau(   3) = (   3.7341635   4.3118406  10.0000000  )
         4           La1 tau(   4) = (   7.4683270   4.3118406  10.0000000  )
         5           La1 tau(   5) = (   7.4683270   2.1559203  13.0489317  )
         6           La1 tau(   6) = (   3.7341635   2.1559203  13.0489317  )
         7           La1 tau(   7) = (   9.3354088   5.3898008  13.0489317  )
         8           La1 tau(   8) = (   5.6012453   5.3898008  13.0489317  )
         9           La1 tau(   9) = (   0.0000000   0.0000000  16.0978635  )
        10           La1 tau(  10) = (   3.7341635   0.0000000  16.0978635  )
        11           La1 tau(  11) = (   1.8670818   3.2338805  16.0978635  )
        12           La1 tau(  12) = (   5.6012453   3.2338805  16.0978635  )
        13           C1  tau(  13) = (   1.8670818   1.0779602  17.9373635  )
        14           H1  tau(  14) = (   2.4970818   1.7079602  18.5673635  )
        15           H1  tau(  15) = (   1.2370818   0.4479602  18.5673635  )

     number of k points=    20  Fermi-Dirac smearing, width (Ry)=  0.0110
                       cart. coord. in units 2pi/alat
        k(    1) = (   0.0000000   0.0000000   0.0000000), wk =   0.0555556
        k(    2) = (   0.0000000   0.0257688   0.0000000), wk =   0.1111111
        k(    3) = (   0.0000000   0.0515377   0.0000000), wk =   0.1111111
        k(    4) = (   0.0000000  -0.0773065   0.0000000), wk =   0.0555556
        k(    5) = (   0.0223165  -0.0128844   0.0000000), wk =   0.1111111
        k(    6) = (   0.0223165   0.0128844   0.0000000), wk =   0.1111111
        k(    7) = (   0.0223165   0.0386533   0.0000000), wk =   0.1111111
        k(    8) = (   0.0223165  -0.0901909   0.0000000), wk =   0.1111111
        k(    9) = (   0.0223165  -0.0644221   0.0000000), wk =   0.1111111
        k(   10) = (   0.0223165  -0.0386533   0.0000000), wk =   0.1111111
        k(   11) = (   0.0446329  -0.0257688   0.0000000), wk =   0.1111111
        k(   12) = (   0.0446329   0.0000000   0.0000000), wk =   0.1111111
        k(   13) = (   0.0446329   0.0257688   0.0000000), wk =   0.1111111
        k(   14) = (   0.0446329  -0.1030753   0.0000000), wk =   0.1111111
        k(   15) = (   0.0446329  -0.0773065   0.0000000), wk =   0.1111111
        k(   16) = (   0.0446329  -0.0515377   0.0000000), wk =   0.1111111
        k(   17) = (  -0.0669494   0.0386533   0.0000000), wk =   0.0555556
        k(   18) = (  -0.0669494   0.0644221   0.0000000), wk =   0.1111111
        k(   19) = (  -0.0669494   0.0901909   0.0000000), wk =   0.1111111
        k(   20) = (  -0.0669494  -0.0386533   0.0000000), wk =   0.0555556

     Largest allocated arrays     est. size (Mb)     dimensions
     Largest temporary arrays     est. size (Mb)     dimensions

     Initial potential from superposition of free atoms
     Check: negative starting charge=   -0.830963

     starting charge  137.61512, renormalised to  138.00000

     negative rho (up, down):  8.333E-01 0.000E+00

     *
     * You are using vdW-DF for exchange-correlation in this calculation.
     * Please cite the following three references that made this development
     * possible:
     *
     *   M. Dion, H. Rydberg, E. Schroder, D. C. Langreth, and
     *   B. I. Lundqvist, Phys. Rev. Lett. 92, 246401 (2004).
     *
     *   T. Thonhauser, V. R. Cooper, S. Li, A. Puzder, P. Hyldgaard, and
     *   D. C. Langreth, Phys. Rev. B 76, 125112 (2007).
     *
     *   G. Roman-Perez and J. M. Soler, Phys. Rev. Lett. 103, 096102 (2009).
     *
     *
     * If you are using vdW-DF2, please also cite:
     *
     *   K. Lee, E. D. Murray, L. Kong, B. I. Lundqvist, and
     *   D. C. Langreth, Phys. Rev. B 82, 081101(R) (2010).
     *
     *
     * If you are calculating the stress with vdW-DF, please also cite:
     *
     *   R. Sabatini, E. Kucukbenli, B. Kolb, T. Thonhauser, and
     *   S. de Gironcoli, J. Phys.: Condens. Matter 24, 424209 (2012).
     *

     Carrying out vdW-DF run using the following parameters:

     Nqs =      20    Nr_points =    1024   r_max =   100.000
     q_mesh =
               0.00001000     0.04494208     0.09755937     0.15916263
               0.23128650     0.31572767     0.41458969     0.53033537
               0.66584808     0.82450364     1.01025438     1.22772762
               1.48234092     1.78043706     2.12944203     2.53805004
               3.01644009     3.57652955     4.23227104     5.00000000

     Gradients computed in reciprocal space

     Adding external electric field

     Computed dipole along edir(3) :
        Dipole               -0.1611 Ry au,         -0.4095 Debye
        Dipole field         -0.0002 Ry au

        Potential amp.        0.0229 Ry
        Total length         48.0849 bohr

     Starting wfc are  246 randomized atomic wfcs

     Self-consistent Calculation

     iteration #  1     ecut=    36.75 Ry     beta=0.30
     Davidson diagonalization with overlap
     ethr =  1.00E-02,  avg # of iterations =  2.0

[...]

     total energy              =   -1259.58928118 Ry
     Harris-Foulkes estimate   =   -1263.15204840 Ry
     estimated scf accuracy    <       7.59304882 Ry

[...]

     iteration # 11     ecut=    36.75 Ry     beta=0.30
     Davidson diagonalization with overlap
     c_bands:  2 eigenvalues not converged
     ethr =  1.49E-05,  avg # of iterations = 10.6

[...]

     End of self-consistent calculation

          k = 0.0000 0.0000 0.0000 ( 31997 PWs)   bands (ev):

   -31.5347 -31.5268 -31.3988 -31.3974 -31.3951 -31.3769 -31.3065 -31.2641
   -31.0689 -30.9580 -30.9429 -30.9397 -15.6284 -15.6267 -15.6192 -15.5571
   -15.5548 -15.5204 -15.4789 -15.3888 -15.3694 -15.3638 -15.1911 -15.0465
   -14.9909 -14.9698 -14.8616 -14.8266 -14.8065 -14.7913 -14.7866 -14.7853
   -14.7559 -14.7279 -14.6962 -14.5342 -14.5341 -14.4766 -14.4702 -14.4631
   -14.4375 -14.4357 -14.4161 -14.3480 -14.3448 -14.3396 -14.1185 -14.1177
    -9.7910  -4.1648  -1.2538  -0.8199  -0.1545   0.0746   0.1588   0.1870
     0.2071   0.4279   0.4615   0.5331   0.5676   0.6879   0.7496   0.7615
     0.8122   1.1294   1.1732   1.5813   1.7623   2.0137   2.1658   2.3317
     2.4086   2.4679   2.5876   2.7209   2.9503   3.0213   3.0568

[...]

          k =-0.0669 0.0387 0.0000 ( 31970 PWs)   bands (ev):

[...]

     the Fermi energy is     1.8249 ev

!    total energy              =   -1262.18290829 Ry
     Harris-Foulkes estimate   =   -1262.18291824 Ry
     estimated scf accuracy    <       0.00000228 Ry

     The total energy is the sum of the following terms:

     one-electron contribution =   -4778.18556857 Ry
     hartree contribution      =    2402.48624425 Ry
     xc contribution           =    -613.75950570 Ry
     ewald contribution        =    1727.39774223 Ry
     electric field correction =       0.00005484 Ry
     smearing contrib. (-TS)   =      -0.12187534 Ry

     convergence has been achieved in  19 iterations

 BEEF-vdW xc energy contributions
           1 :   -543.650841267465
           2 :    500.023652944455
           3 :   -422.897371717388
           4 :    328.738936635962
           5 :   -235.010301049464
           6 :    155.533404529279
           7 :   -97.8864779639683
           8 :    63.0947714092015
           9 :   -47.1137964514116
          10 :    43.2117547195855
          11 :   -44.3553166656109
          12 :    44.9349993203634
          13 :   -41.5812174806929
          14 :    33.2128281203884
          15 :   -20.6522227671678
          16 :    6.06050784693434
          17 :    7.72494042193853
          18 :   -17.9558472760018
          19 :    22.7633588448087
          20 :   -21.7633256474564
          21 :    16.2238930017691
          22 :   -8.66473959850850
          23 :    1.97918072606058
          24 :    1.60071533809059
          25 :   -1.27353367223782
          26 :   -2.16139564681555
          27 :    6.79733863129013
          28 :   -10.5306725453895
          29 :    11.9545800055605
          30 :   -10.8445918167681
          31 :   -46.3684728557234
          32 :   -33.2776465856268

     Forces acting on atoms (Ry/au):

     negative rho (up, down):  5.846E-01 0.000E+00
     atom    1 type  1   force =     0.00015843   -0.00001012    0.00308719
     atom    2 type  1   force =    -0.00007180   -0.00245659    0.00429685
     atom    3 type  1   force =    -0.00193055    0.00106694    0.00408727
     atom    4 type  1   force =     0.00235087    0.00139259    0.00449022
     atom    5 type  1   force =    -0.00321519    0.00122335   -0.00279392
     atom    6 type  1   force =     0.00314319    0.00247241   -0.00287702
     atom    7 type  1   force =    -0.00017222   -0.00005271   -0.00651053
     atom    8 type  1   force =    -0.00113416   -0.00364246   -0.00288289
     atom    9 type  1   force =     0.03366434    0.02205507    0.02511361
     atom   10 type  1   force =    -0.02093555    0.00951931    0.01521847
     atom   11 type  1   force =    -0.00452067   -0.03146378    0.02061842
     atom   12 type  1   force =     0.00528762    0.00010124   -0.00250309
     atom   13 type  2   force =    -0.01263630   -0.00103684   -0.08459442
     atom   14 type  3   force =     0.00656976    0.00699461    0.01231174
     atom   15 type  3   force =    -0.00655777   -0.00616301    0.01293810

     Total force =     0.110859     Total SCF correction =     0.000555

     entering subroutine stress ...

     negative rho (up, down):  5.846E-01 0.000E+00
          total   stress  (Ry/bohr**3)                   (kbar)     P=   -2.83
  -0.00001180  -0.00000165  -0.00000488         -1.74     -0.24     -0.72
  -0.00000165  -0.00001208   0.00000004         -0.24     -1.78      0.01
  -0.00000488   0.00000004  -0.00003389         -0.72      0.01     -4.98

     BFGS Geometry Optimization

     number of scf cycles    =   1
     number of bfgs steps    =   0

     energy   new            =   -1262.1829082890 Ry

     new trust radius        =       0.0855392738 bohr
     new conv_thr            =       0.0000099958 Ry

ATOMIC_POSITIONS (crystal)
La1      0.166666667   0.166666667   0.383173129    0   0   0
La1      0.666666667   0.166666667   0.383173129    0   0   0
La1      0.166666667   0.666666667   0.383173129    0   0   0
La1      0.666666667   0.666666667   0.383173129    0   0   0
La1      0.833333333   0.333333333   0.500000000    0   0   0
La1      0.333333333   0.333333333   0.500000000    0   0   0
La1      0.833333333   0.833333333   0.500000000    0   0   0
La1      0.333333333   0.833333333   0.500000000    0   0   0
La1      0.001483080   0.001804495   0.617336091
La1      0.498127163   0.000778848   0.617135451
La1      0.000966829   0.497425706   0.617244944
La1      0.500370519   0.500008283   0.616776117
C1       0.165813723   0.166581834   0.685596277
H1       0.202499176   0.264645147   0.711701116
H1       0.130800987   0.068756225   0.711713817

     Writing output data file calc.save
     Check: negative starting charge=   -0.830963
     NEW-OLD atomic charge density approx. for the potential
     Check: negative starting charge=   -0.831365

[...]

     energy   old            =   -1262.1829082890 Ry
     energy   new            =   -1262.1919219930 Ry

     CASE: energy  _new < energy  _old

[...]

     Threshold (ethr) on eigenvalues was too large:
     Diagonalizing with lowered threshold

     Davidson diagonalization with overlap
     c_bands:  1 eigenvalues not converged
     ethr =  9.27E-08,  avg # of iterations =  9.8

[...]

     Davidson diagonalization with overlap
     c_bands:  1 eigenvalues not converged
     ethr =  9.70E-08,  avg # of iterations =  9.4

[...]

     Davidson diagonalization with overlap
     ethr =  2.37E-08,  avg # of iterations = 10.1

[...]

     Threshold (ethr) on eigenvalues was too large:
     Diagonalizing with lowered threshold

     Davidson diagonalization with overlap
     ethr =  8.55E-08,  avg # of iterations =  7.7

[...]

     Total force =     0.005374     Total SCF correction =     0.000772
     SCF correction compared to forces is large: reduce conv_thr to get better values

[...]

     number of scf cycles    =  25
     number of bfgs steps    =  24

     energy   old            =   -1262.2185240777 Ry
     energy   new            =   -1262.2185836314 Ry

     CASE: energy  _new < energy  _old

     new trust radius        =       0.0191593972 bohr
     new conv_thr            =       0.0000001000 Ry

ATOMIC_POSITIONS (crystal)
La1      0.166666667   0.166666667   0.383173129    0   0   0
La1      0.666666667   0.166666667   0.383173129    0   0   0
La1      0.166666667   0.666666667   0.383173129    0   0   0
La1      0.666666667   0.666666667   0.383173129    0   0   0
La1      0.833333333   0.333333333   0.500000000    0   0   0
La1      0.333333333   0.333333333   0.500000000    0   0   0
La1      0.833333333   0.833333333   0.500000000    0   0   0
La1      0.333333333   0.833333333   0.500000000    0   0   0
La1      0.006546718   0.010081500   0.620548426
La1      0.495331246  -0.000128704   0.616814635
La1      0.002708508   0.487147836   0.620137893
La1      0.507062818   0.496745479   0.612441966
C1       0.142257990   0.177259077   0.677643660
H1       0.187292897   0.273055889   0.700923586
H1       0.148872455   0.060975262   0.705278413

     Writing output data file calc.save
     Check: negative starting charge=   -0.832607
     NEW-OLD atomic charge density approx. for the potential
     Check: negative starting charge=   -0.832640

[...]

     Self-consistent Calculation

[...]

     iteration #  9     ecut=    36.75 Ry     beta=0.30
     Davidson diagonalization with overlap
     ethr =  5.14E-10,  avg # of iterations =  5.2

[...]

     total energy              =   -1262.21861812 Ry
     Harris-Foulkes estimate   =   -1262.21861815 Ry
     estimated scf accuracy    <       0.00000020 Ry

     iteration # 10     ecut=    36.75 Ry     beta=0.30
     Davidson diagonalization with overlap
     c_bands:  1 eigenvalues not converged
     ethr =  1.45E-10,  avg # of iterations =  7.2

[...]

     negative rho (up, down):  5.844E-01 0.000E+00

     Adding external electric field

     Computed dipole along edir(3) :
        Dipole               -0.0496 Ry au,         -0.1260 Debye
        Dipole field         -0.0001 Ry au

        Potential amp.        0.0070 Ry
        Total length         48.0849 bohr

     End of self-consistent calculation

[...]

          k = 0.0446-0.0515 0.0000 ( 31991 PWs)   bands (ev):

[...]

          k =-0.0669-0.0387 0.0000 ( 31970 PWs)   bands (ev):

   -31.3507 -31.3482 -31.3133 -31.2839 -31.2812 -31.2657 -31.1704 -31.1371
   -30.9427 -30.8798 -30.8400 -30.8188 -15.4064 -15.3218 -15.3000 -15.2439
   -15.2325 -15.2008 -15.1344 -15.1168 -15.0993 -15.0540 -15.0375 -14.9830
   -14.9679 -14.9623 -14.9389 -14.8934 -14.8750 -14.8630 -14.8146 -14.7269
   -14.6451 -14.6143 -14.5501 -14.5475 -14.5360 -14.5090 -14.4720 -14.4458
   -14.4326 -14.4190 -14.3594 -14.2934 -14.2791 -14.2624 -14.1416 -14.1064
   -10.0960  -4.5009  -1.5245  -0.0068   0.3569   0.4029   0.8004   0.8597
     1.1040   1.1152   1.1888   1.1933   1.2103   1.3747   1.5742   1.5991
     1.7433   1.7546   1.7927   1.8517   2.0284   2.0611   2.0912   2.1410
     2.1610   2.2081   2.2475   2.4077   2.4417   2.5011   2.5144

     the Fermi energy is     1.9394 ev

!    total energy              =   -1262.21861813 Ry
     Harris-Foulkes estimate   =   -1262.21861803 Ry
     estimated scf accuracy    <       0.00000004 Ry

     The total energy is the sum of the following terms:

     one-electron contribution =   -4802.67199532 Ry
     hartree contribution      =    2415.14277713 Ry
     xc contribution           =    -613.88072975 Ry
     ewald contribution        =    1739.31204115 Ry
     electric field correction =       0.00000363 Ry
     smearing contrib. (-TS)   =      -0.12071497 Ry

     convergence has been achieved in  10 iterations

 BEEF-vdW xc energy contributions
           1 :   -543.779304056328
           2 :    500.211696987776
           3 :   -423.149507303185
           4 :    329.005978301823
           5 :   -235.227277504896
           6 :    155.651462096970
           7 :   -97.8845988541517
           8 :    62.9800642400305
           9 :   -46.9207157498743
          10 :    42.9970873903153
          11 :   -44.1813842136818
          12 :    44.8448127587194
          13 :   -41.5801468559252
          14 :    33.2686312031096
          15 :   -20.7136092546699
          16 :    6.08419315685410
          17 :    7.75325395378854
          18 :   -18.0187058052078
          19 :    22.8284992301966
          20 :   -21.8084641465186
          21 :    16.2512180484796
          22 :   -8.69516985341261
          23 :    2.03252175214027
          24 :    1.52366097386948
          25 :   -1.19383656037439
          26 :   -2.21466511574681
          27 :    6.80775598718617
          28 :   -10.5076264666134
          29 :    11.9292280865055
          30 :   -10.8506046223857
          31 :   -46.3777657316150
          32 :   -33.3011250891227

     Forces acting on atoms (Ry/au):

     negative rho (up, down):  5.844E-01 0.000E+00
     atom    1 type  1   force =    -0.00003657   -0.00004046    0.00275348
     atom    2 type  1   force =     0.00013049   -0.00233104    0.00495336
     atom    3 type  1   force =    -0.00162316    0.00099229    0.00423625
     atom    4 type  1   force =     0.00204712    0.00104428    0.00508737
     atom    5 type  1   force =    -0.00134698    0.00088843   -0.00480115
     atom    6 type  1   force =     0.00132122    0.00081573   -0.00338745
     atom    7 type  1   force =    -0.00031509   -0.00012445   -0.00588250
     atom    8 type  1   force =    -0.00001244   -0.00185645   -0.00438571
     atom    9 type  1   force =    -0.00077383   -0.00112978    0.00052516
     atom   10 type  1   force =    -0.00015620    0.00070956    0.00060671
     atom   11 type  1   force =     0.00054026   -0.00093274    0.00074434
     atom   12 type  1   force =    -0.00086530    0.00032619    0.00110939
     atom   13 type  2   force =     0.00093210    0.00060770   -0.00076976
     atom   14 type  3   force =     0.00066986    0.00187708    0.00079785
     atom   15 type  3   force =    -0.00051150   -0.00084634   -0.00158734

     Total force =     0.004097     Total SCF correction =     0.000366

     entering subroutine stress ...

     negative rho (up, down):  5.844E-01 0.000E+00
          total   stress  (Ry/bohr**3)                   (kbar)     P=   -0.09
   0.00000579  -0.00000163  -0.00000007          0.85     -0.24     -0.01
  -0.00000163   0.00000461   0.00000126         -0.24      0.68      0.18
  -0.00000007   0.00000126  -0.00001225         -0.01      0.18     -1.80

     bfgs converged in  26 scf cycles and  25 bfgs steps
     (criteria: energy <  1.0E+00, force <  1.9E-03)

     End of BFGS Geometry Optimization

     Final energy   =   -1262.2186181331 Ry
Begin final coordinates

ATOMIC_POSITIONS (crystal)
La1      0.166666667   0.166666667   0.383173129    0   0   0
La1      0.666666667   0.166666667   0.383173129    0   0   0
La1      0.166666667   0.666666667   0.383173129    0   0   0
La1      0.666666667   0.666666667   0.383173129    0   0   0
La1      0.833333333   0.333333333   0.500000000    0   0   0
La1      0.333333333   0.333333333   0.500000000    0   0   0
La1      0.833333333   0.833333333   0.500000000    0   0   0
La1      0.333333333   0.833333333   0.500000000    0   0   0
La1      0.006546718   0.010081500   0.620548426
La1      0.495331246  -0.000128704   0.616814635
La1      0.002708508   0.487147836   0.620137893
La1      0.507062818   0.496745479   0.612441966
C1       0.142257990   0.177259077   0.677643660
H1       0.187292897   0.273055889   0.700923586
H1       0.148872455   0.060975262   0.705278413
End final coordinates

     Writing output data file calc.save

     General routines

     Parallel routines

   This run was terminated on:   2:44:34  19Apr2018

   JOB DONE.