     Program PWSCF v.5.1rc2 (svn rev. 11289) starts on 13Jan2018 at 20:45: 5

     Current dimensions of program PWSCF are:
     Max number of different atomic species (ntypx) = 10
     Max number of k-points (npk) =  40000
     Max angular momentum in pseudopotentials (lmaxx) =  3
     Presently stress not available with electric field

     IMPORTANT: XC functional enforced from input :
     Exchange-correlation      = BEEF-VDW ( 1  4 27 13 2)
     Any further DFT definition will be discarded
     Please, verify this is what you really want

     Subspace diagonalization in iterative solution of the eigenvalue problem:
     a serial algorithm will be used

     bravais-lattice index     =            0
     lattice parameter (alat)  =       1.8897  a.u.
     unit-cell volume          =    4299.0717 (a.u.)^3
     number of atoms/cell      =           13
     number of atomic types    =            2
     number of electrons       =       181.00
     number of Kohn-Sham states=          100
     kinetic-energy cutoff     =      36.7493  Ry
     charge density cutoff     =     367.4932  Ry
     convergence threshold     =      1.0E-05
     mixing beta               =       0.3000
     number of iterations used =           10  plain     mixing
     Exchange-correlation      = BEEF-VDW ( 1  4 27 13 2)
     nstep                     =           50

     celldm(1)=   1.889726  celldm(2)=   0.000000  celldm(3)=   0.000000
     celldm(4)=   0.000000  celldm(5)=   0.000000  celldm(6)=   0.000000

     crystal axes: (cart. coord. in units of alat)
               a(1) = (   5.482164   0.000000   0.000000 )
               a(2) = (   2.741082   4.747693   0.000000 )
               a(3) = (   0.000000   0.000000  24.476168 )

     reciprocal axes: (cart. coord. in units 2 pi/alat)
               b(1) = (  0.182410 -0.105314  0.000000 )
               b(2) = (  0.000000  0.210629  0.000000 )
               b(3) = (  0.000000  0.000000  0.040856 )

     PseudoPot. # 1 for Ir read from file:
     /afs/slac.stanford.edu/u/if/mamunm/psp/gbrv1.5pbe/Ir.UPF
     MD5 check sum: 8836f839c3459d2b385c504ce6d91f2c
     Pseudo is Ultrasoft + core correction, Zval = 15.0
     Generated by new atomic code, or converted to UPF format
     Using radial grid of  983 points,  7 beta functions with:
                l(1) =   0
                l(2) =   0
                l(3) =   1
                l(4) =   1
                l(5) =   1
                l(6) =   2
                l(7) =   2
     Q(r) pseudized with  8 coefficients,  rinner =    1.400   1.400   1.400
                                                       1.400   1.400

     PseudoPot. # 2 for H  read from file:
     /afs/slac.stanford.edu/u/if/mamunm/psp/gbrv1.5pbe/H.UPF
     MD5 check sum: 761ae9a214b05c3daf00ab9f6b793d6f
     Pseudo is Ultrasoft, Zval =  1.0
     Generated by new atomic code, or converted to UPF format
     Using radial grid of  615 points,  2 beta functions with:
                l(1) =   0
                l(2) =   0
     Q(r) pseudized with  8 coefficients,  rinner =    0.700

     vdW kernel table read from file vdW_kernel_table
     MD5 check sum: 095c7af220d748ca6e76c0b4c6cfb241

     atomic species   valence    mass     pseudopotential
        Ir1           15.00   192.21700     Ir( 1.00)
        H1             1.00     1.00800     H ( 1.00)

     No symmetry found

   Cartesian axes

     site n.     atom                  positions (alat units)
         1           Ir1 tau(   1) = (   1.3705410   0.7912822  10.0000000  )
         2           Ir1 tau(   2) = (   4.1116229   0.7912822  10.0000000  )
         3           Ir1 tau(   3) = (   2.7410819   3.1651288  10.0000000  )
         4           Ir1 tau(   4) = (   5.4821639   3.1651288  10.0000000  )
         5           Ir1 tau(   5) = (   5.4821639   1.5825644  12.2380840  )
         6           Ir1 tau(   6) = (   2.7410819   1.5825644  12.2380840  )
         7           Ir1 tau(   7) = (   6.8527049   3.9564110  12.2380840  )
         8           Ir1 tau(   8) = (   4.1116229   3.9564110  12.2380840  )
         9           Ir1 tau(   9) = (   0.0000000   0.0000000  14.4761681  )
        10           Ir1 tau(  10) = (   2.7410819   0.0000000  14.4761681  )
        11           Ir1 tau(  11) = (   1.3705410   2.3738466  14.4761681  )
        12           Ir1 tau(  12) = (   4.1116229   2.3738466  14.4761681  )
        13           H1  tau(  13) = (   0.0000000   0.0000000  16.1961681  )

     number of k points=    20  Fermi-Dirac smearing, width (Ry)=  0.0110
                       cart. coord. in units 2pi/alat
        k(    1) = (   0.0000000   0.0000000   0.0000000), wk =   0.0555556
        k(    2) = (   0.0000000   0.0351048   0.0000000), wk =   0.1111111
        k(    3) = (   0.0000000   0.0702095   0.0000000), wk =   0.1111111
        k(    4) = (   0.0000000  -0.1053143   0.0000000), wk =   0.0555556
        k(    5) = (   0.0304016  -0.0175524   0.0000000), wk =   0.1111111
        k(    6) = (   0.0304016   0.0175524   0.0000000), wk =   0.1111111
        k(    7) = (   0.0304016   0.0526572   0.0000000), wk =   0.1111111
        k(    8) = (   0.0304016  -0.1228667   0.0000000), wk =   0.1111111
        k(    9) = (   0.0304016  -0.0877619   0.0000000), wk =   0.1111111
        k(   10) = (   0.0304016  -0.0526572   0.0000000), wk =   0.1111111
        k(   11) = (   0.0608032  -0.0351048   0.0000000), wk =   0.1111111
        k(   12) = (   0.0608032   0.0000000   0.0000000), wk =   0.1111111
        k(   13) = (   0.0608032   0.0351048   0.0000000), wk =   0.1111111
        k(   14) = (   0.0608032  -0.1404191   0.0000000), wk =   0.1111111
        k(   15) = (   0.0608032  -0.1053143   0.0000000), wk =   0.1111111
        k(   16) = (   0.0608032  -0.0702095   0.0000000), wk =   0.1111111
        k(   17) = (  -0.0912049   0.0526572   0.0000000), wk =   0.0555556
        k(   18) = (  -0.0912049   0.0877619   0.0000000), wk =   0.1111111
        k(   19) = (  -0.0912049   0.1228667   0.0000000), wk =   0.1111111
        k(   20) = (  -0.0912049  -0.0526572   0.0000000), wk =   0.0555556

     Largest allocated arrays     est. size (Mb)     dimensions
     Largest temporary arrays     est. size (Mb)     dimensions

     Initial potential from superposition of free atoms
     Check: negative starting charge=   -4.361677

     starting charge  174.99961, renormalised to  181.00000

     negative rho (up, down):  4.511E+00 0.000E+00

     *
     * You are using vdW-DF for exchange-correlation in this calculation.
     * Please cite the following three references that made this development
     * possible:
     *
     *   M. Dion, H. Rydberg, E. Schroder, D. C. Langreth, and
     *   B. I. Lundqvist, Phys. Rev. Lett. 92, 246401 (2004).
     *
     *   T. Thonhauser, V. R. Cooper, S. Li, A. Puzder, P. Hyldgaard, and
     *   D. C. Langreth, Phys. Rev. B 76, 125112 (2007).
     *
     *   G. Roman-Perez and J. M. Soler, Phys. Rev. Lett. 103, 096102 (2009).
     *
     *
     * If you are using vdW-DF2, please also cite:
     *
     *   K. Lee, E. D. Murray, L. Kong, B. I. Lundqvist, and
     *   D. C. Langreth, Phys. Rev. B 82, 081101(R) (2010).
     *
     *
     * If you are calculating the stress with vdW-DF, please also cite:
     *
     *   R. Sabatini, E. Kucukbenli, B. Kolb, T. Thonhauser, and
     *   S. de Gironcoli, J. Phys.: Condens. Matter 24, 424209 (2012).
     *

     Carrying out vdW-DF run using the following parameters:

     Nqs =      20    Nr_points =    1024   r_max =   100.000
     q_mesh =
               0.00001000     0.04494208     0.09755937     0.15916263
               0.23128650     0.31572767     0.41458969     0.53033537
               0.66584808     0.82450364     1.01025438     1.22772762
               1.48234092     1.78043706     2.12944203     2.53805004
               3.01644009     3.57652955     4.23227104     5.00000000

     Gradients computed in reciprocal space

     Adding external electric field

     Computed dipole along edir(3) :
        Dipole               -0.2564 Ry au,         -0.6517 Debye
        Dipole field         -0.0007 Ry au

        Potential amp.        0.0676 Ry
        Total length         45.0969 bohr

     Starting wfc are  145 randomized atomic wfcs

     Self-consistent Calculation

     iteration #  1     ecut=    36.75 Ry     beta=0.30
     Davidson diagonalization with overlap
     ethr =  1.00E-02,  avg # of iterations =  2.1

[...]

     total energy              =   -2197.55369933 Ry
     Harris-Foulkes estimate   =   -2204.09169598 Ry
     estimated scf accuracy    <      15.40262923 Ry

[...]

     End of self-consistent calculation

          k = 0.0000 0.0000 0.0000 ( 16073 PWs)   bands (ev):

   -47.6891 -47.6883 -47.6775 -47.5471 -47.4665 -47.4624 -47.4611 -47.2773
   -47.2705 -47.2699 -47.1945 -47.1941 -47.1781 -47.1388 -47.1387 -47.1145
   -47.1135 -47.1124 -46.9464 -46.8132 -46.8131 -46.8014 -46.7781 -46.7679
   -46.7665 -46.7623 -46.7522 -46.7503 -46.7266 -46.7135 -46.7131 -46.6649
   -46.6613 -46.6613 -46.6399 -46.6396  -7.1019  -5.1961  -4.8189  -4.5261
    -4.5065  -4.5063  -4.2443  -4.2045  -4.2044  -3.7206  -3.7082  -3.7079
    -3.4260  -3.4184  -3.4181  -2.0259  -1.9493  -1.9488  -1.8870  -1.3837
    -1.3836  -1.3386  -1.1309  -1.0475  -1.0475  -0.5842  -0.5842  -0.5437
    -0.5435  -0.5362  -0.5315  -0.2856  -0.2856   0.0268   0.0275   0.6504
     1.2878   1.2882   1.3196   1.3625   1.3703   1.3708   1.4042   1.4043
     2.0271   2.1298   2.1299   2.7360   2.7367   2.8053   2.8313   2.8313
     2.8448   3.0234   3.0234   3.3656   3.3661   3.3685   3.6105   3.6509
     3.6511   3.8503   3.8507   3.8625

[...]

          k =-0.0912 0.0527 0.0000 ( 16164 PWs)   bands (ev):

[...]

     the Fermi energy is     2.3972 ev

!    total energy              =   -2200.95893817 Ry
     Harris-Foulkes estimate   =   -2200.95894609 Ry
     estimated scf accuracy    <       0.00000998 Ry

     The total energy is the sum of the following terms:

     one-electron contribution =  -18451.76164320 Ry
     hartree contribution      =    9255.51657771 Ry
     xc contribution           =    -624.27005441 Ry
     ewald contribution        =    7619.65276806 Ry
     electric field correction =       0.00000019 Ry
     smearing contrib. (-TS)   =      -0.09658653 Ry

     convergence has been achieved in  16 iterations

 BEEF-vdW xc energy contributions
           1 :   -552.992612330729
           2 :    514.507923273836
           3 :   -445.649614620750
           4 :    359.903619354256
           5 :   -272.140670260968
           6 :    194.784377697263
           7 :   -135.172594179135
           8 :    94.7205545620735
           9 :   -69.9301779083602
          10 :    54.6758690908008
          11 :   -42.8338888925433
          12 :    30.3189606808725
          13 :   -15.9496333824696
          14 :    1.06937359554570
          15 :    11.6994651190909
          16 :   -19.9576275359831
          17 :    22.6747551042489
          18 :   -20.5964165944359
          19 :    15.8603599659651
          20 :   -11.0817342165968
          21 :    8.33274022602029
[...]
00030 suncat0247 pw.x -in pw.inp   Done                     01/13/2018 20:55:15
00031 suncat0247 pw.x -in pw.inp   Done                     01/13/2018 20:55:15

     Program PWSCF v.5.1rc2 (svn rev. 11289) starts on 13Jan2018 at 20:55:21

[...]

     Total force =     0.271126     Total SCF correction =     0.010490

[...]

   This run was terminated on:  21: 5:24  13Jan2018

[...]

     Program PWSCF v.5.1rc2 (svn rev. 11289) starts on 13Jan2018 at 21: 5:31

[...]

   This run was terminated on:  21:46: 3  13Jan2018

[...]

     Program PWSCF v.5.1rc2 (svn rev. 11289) starts on 13Jan2018 at 21:46: 9

[...]

   This run was terminated on:  21:56:48  13Jan2018

[...]

     Program PWSCF v.5.1rc2 (svn rev. 11289) starts on 13Jan2018 at 21:56:54

     Current dimensions of program PWSCF are:
     Max number of different atomic species (ntypx) = 10
     Max number of k-points (npk) =  40000
     Max angular momentum in pseudopotentials (lmaxx) =  3
     Presently stress not available with electric field

     IMPORTANT: XC functional enforced from input :
     Exchange-correlation      = BEEF-VDW ( 1  4 27 13 2)
     Any further DFT definition will be discarded
     Please, verify this is what you really want

     Subspace diagonalization in iterative solution of the eigenvalue problem:
     a serial algorithm will be used

     bravais-lattice index     =            0
     lattice parameter (alat)  =       1.8897  a.u.
     unit-cell volume          =    4299.0717 (a.u.)^3
     number of atoms/cell      =           13
     number of atomic types    =            2
     number of electrons       =       181.00
     number of Kohn-Sham states=          100
     kinetic-energy cutoff     =      36.7493  Ry
     charge density cutoff     =     367.4932  Ry
     convergence threshold     =      1.0E-05
     mixing beta               =       0.3000
     number of iterations used =           10  plain     mixing
     Exchange-correlation      = BEEF-VDW ( 1  4 27 13 2)
     nstep                     =           50

     celldm(1)=   1.889726  celldm(2)=   0.000000  celldm(3)=   0.000000
     celldm(4)=   0.000000  celldm(5)=   0.000000  celldm(6)=   0.000000

     crystal axes: (cart. coord. in units of alat)
               a(1) = (   5.482164   0.000000   0.000000 )
               a(2) = (   2.741082   4.747693   0.000000 )
               a(3) = (   0.000000   0.000000  24.476168 )

     reciprocal axes: (cart. coord. in units 2 pi/alat)
               b(1) = (  0.182410 -0.105314  0.000000 )
               b(2) = (  0.000000  0.210629  0.000000 )
               b(3) = (  0.000000  0.000000  0.040856 )

     PseudoPot. # 1 for Ir read from file:
     /afs/slac.stanford.edu/u/if/mamunm/psp/gbrv1.5pbe/Ir.UPF
     MD5 check sum: 8836f839c3459d2b385c504ce6d91f2c
     Pseudo is Ultrasoft + core correction, Zval = 15.0
     Generated by new atomic code, or converted to UPF format
     Using radial grid of  983 points,  7 beta functions with:
                l(1) =   0
                l(2) =   0
                l(3) =   1
                l(4) =   1
                l(5) =   1
                l(6) =   2
                l(7) =   2
     Q(r) pseudized with  8 coefficients,  rinner =    1.400   1.400   1.400
                                                       1.400   1.400

     PseudoPot. # 2 for H  read from file:
     /afs/slac.stanford.edu/u/if/mamunm/psp/gbrv1.5pbe/H.UPF
     MD5 check sum: 761ae9a214b05c3daf00ab9f6b793d6f
     Pseudo is Ultrasoft, Zval =  1.0
     Generated by new atomic code, or converted to UPF format
     Using radial grid of  615 points,  2 beta functions with:
                l(1) =   0
                l(2) =   0
     Q(r) pseudized with  8 coefficients,  rinner =    0.700

     vdW kernel table read from file vdW_kernel_table
     MD5 check sum: 095c7af220d748ca6e76c0b4c6cfb241

     atomic species   valence    mass     pseudopotential
        Ir1           15.00   192.21700     Ir( 1.00)
        H1             1.00     1.00800     H ( 1.00)

     No symmetry found

   Cartesian axes

     site n.     atom                  positions (alat units)
         1           Ir1 tau(   1) = (   1.3705410   0.7912822  10.0000000  )
         2           Ir1 tau(   2) = (   4.1116229   0.7912822  10.0000000  )
         3           Ir1 tau(   3) = (   2.7410819   3.1651288  10.0000000  )
         4           Ir1 tau(   4) = (   5.4821639   3.1651288  10.0000000  )
         5           Ir1 tau(   5) = (   5.4821639   1.5825644  12.2380840  )
         6           Ir1 tau(   6) = (   2.7410819   1.5825644  12.2380840  )
         7           Ir1 tau(   7) = (   6.8527049   3.9564110  12.2380840  )
         8           Ir1 tau(   8) = (   4.1116229   3.9564110  12.2380840  )
         9           Ir1 tau(   9) = (   5.4821364   0.0000266  14.5105317  )
        10           Ir1 tau(  10) = (   2.7411139   0.0028915  14.4110067  )
        11           Ir1 tau(  11) = (   1.3729190   2.3724442  14.4107402  )
        12           Ir1 tau(  12) = (   4.1091835   2.3723684  14.4104489  )
        13           H1  tau(  13) = (   5.4821643   0.0000040  16.1081027  )

     number of k points=    20  Fermi-Dirac smearing, width (Ry)=  0.0110
                       cart. coord. in units 2pi/alat
        k(    1) = (   0.0000000   0.0000000   0.0000000), wk =   0.0555556
        k(    2) = (   0.0000000   0.0351048   0.0000000), wk =   0.1111111
        k(    3) = (   0.0000000   0.0702095   0.0000000), wk =   0.1111111
        k(    4) = (   0.0000000  -0.1053143   0.0000000), wk =   0.0555556
        k(    5) = (   0.0304016  -0.0175524   0.0000000), wk =   0.1111111
        k(    6) = (   0.0304016   0.0175524   0.0000000), wk =   0.1111111
        k(    7) = (   0.0304016   0.0526572   0.0000000), wk =   0.1111111
        k(    8) = (   0.0304016  -0.1228667   0.0000000), wk =   0.1111111
        k(    9) = (   0.0304016  -0.0877619   0.0000000), wk =   0.1111111
        k(   10) = (   0.0304016  -0.0526572   0.0000000), wk =   0.1111111
        k(   11) = (   0.0608032  -0.0351048   0.0000000), wk =   0.1111111
        k(   12) = (   0.0608032   0.0000000   0.0000000), wk =   0.1111111
        k(   13) = (   0.0608032   0.0351048   0.0000000), wk =   0.1111111
        k(   14) = (   0.0608032  -0.1404191   0.0000000), wk =   0.1111111
        k(   15) = (   0.0608032  -0.1053143   0.0000000), wk =   0.1111111
        k(   16) = (   0.0608032  -0.0702095   0.0000000), wk =   0.1111111
        k(   17) = (  -0.0912049   0.0526572   0.0000000), wk =   0.0555556
        k(   18) = (  -0.0912049   0.0877619   0.0000000), wk =   0.1111111
        k(   19) = (  -0.0912049   0.1228667   0.0000000), wk =   0.1111111
        k(   20) = (  -0.0912049  -0.0526572   0.0000000), wk =   0.0555556

     Largest allocated arrays     est. size (Mb)     dimensions
     Largest temporary arrays     est. size (Mb)     dimensions

     Initial potential from superposition of free atoms
     Check: negative starting charge=   -4.362404

     starting charge  174.99961, renormalised to  181.00000

[...]

     *
     * You are using vdW-DF for exchange-correlation in this calculation.
     * Please cite the following three references that made this development
     * possible:
     *
     *   M. Dion, H. Rydberg, E. Schroder, D. C. Langreth, and
     *   B. I. Lundqvist, Phys. Rev. Lett. 92, 246401 (2004).
     *
     *   T. Thonhauser, V. R. Cooper, S. Li, A. Puzder, P. Hyldgaard, and
     *   D. C. Langreth, Phys. Rev. B 76, 125112 (2007).
     *
     *   G. Roman-Perez and J. M. Soler, Phys. Rev. Lett. 103, 096102 (2009).
     *
     *
     * If you are using vdW-DF2, please also cite:
     *
     *   K. Lee, E. D. Murray, L. Kong, B. I. Lundqvist, and
     *   D. C. Langreth, Phys. Rev. B 82, 081101(R) (2010).
     *
     *
     * If you are calculating the stress with vdW-DF, please also cite:
     *
     *   R. Sabatini, E. Kucukbenli, B. Kolb, T. Thonhauser, and
     *   S. de Gironcoli, J. Phys.: Condens. Matter 24, 424209 (2012).
     *

     Carrying out vdW-DF run using the following parameters:

     Nqs =      20    Nr_points =    1024   r_max =   100.000
     q_mesh =
               0.00001000     0.04494208     0.09755937     0.15916263
               0.23128650     0.31572767     0.41458969     0.53033537
               0.66584808     0.82450364     1.01025438     1.22772762
               1.48234092     1.78043706     2.12944203     2.53805004
               3.01644009     3.57652955     4.23227104     5.00000000

     Gradients computed in reciprocal space

[...]

     Starting wfc are  145 randomized atomic wfcs

     Self-consistent Calculation

[...]

     total energy              =   -2200.97150325 Ry
     Harris-Foulkes estimate   =   -2200.97150425 Ry
     estimated scf accuracy    <       0.00001027 Ry

     iteration # 17     ecut=    36.75 Ry     beta=0.30
     Davidson diagonalization with overlap
     ethr =  5.67E-09,  avg # of iterations =  5.1

[...]

     negative rho (up, down):  3.879E+00 0.000E+00

     Adding external electric field

     Computed dipole along edir(3) :
        Dipole                0.0045 Ry au,          0.0116 Debye
        Dipole field          0.0000 Ry au

        Potential amp.       -0.0012 Ry
        Total length         45.0969 bohr

     End of self-consistent calculation

[...]

          k = 0.0608-0.0702 0.0000 ( 16191 PWs)   bands (ev):

[...]

          k =-0.0912-0.0527 0.0000 ( 16164 PWs)   bands (ev):

   -47.6345 -47.5903 -47.5718 -47.5048 -47.4889 -47.4710 -47.4639 -47.4327
   -47.3982 -47.3759 -47.2497 -47.1972 -47.1069 -47.0999 -47.0333 -47.0185
   -46.9598 -46.9506 -46.9225 -46.9169 -46.9068 -46.8909 -46.8791 -46.8556
   -46.8342 -46.8164 -46.8087 -46.7998 -46.7634 -46.7572 -46.7305 -46.7225
   -46.7155 -46.6926 -46.6770 -46.6632  -5.3064  -5.2879  -3.8572  -3.8177
    -3.5612  -3.5026  -3.4575  -3.4265  -3.4055  -3.3688  -2.9245  -2.8682
    -2.5570  -2.5044  -2.3725  -2.2996  -2.2767  -2.0446  -2.0206  -1.9942
    -1.5838  -1.5628  -1.3826  -1.0772  -1.0076  -0.7330  -0.7256  -0.7012
    -0.6963  -0.5985  -0.5806  -0.3502  -0.3355  -0.3182  -0.2899  -0.2716
    -0.2667  -0.2030  -0.1565  -0.1411   0.0432   0.5145   0.5553   0.7695
     0.9058   0.9251   1.0499   1.1742   1.3808   1.4139   1.4289   1.5741
     1.6127   1.9497   2.0144   2.0360   2.1076   2.1325   2.5785   2.8175
     3.0950   3.1629   3.3496   3.4668

     the Fermi energy is     2.4076 ev

!    total energy              =   -2200.97150254 Ry
     Harris-Foulkes estimate   =   -2200.97150609 Ry
     estimated scf accuracy    <       0.00000415 Ry

     The total energy is the sum of the following terms:

     one-electron contribution =  -18563.70671117 Ry
     hartree contribution      =    9311.49363297 Ry
     xc contribution           =    -624.42136212 Ry
     ewald contribution        =    7675.75714571 Ry
     electric field correction =       0.00000006 Ry
     smearing contrib. (-TS)   =      -0.09420799 Ry

     convergence has been achieved in  17 iterations

 BEEF-vdW xc energy contributions
           1 :   -553.145239717270
           2 :    514.706866949170
           3 :   -445.913450337045
           4 :    360.208222359169
           5 :   -272.425954974806
           6 :    194.980779220455
           7 :   -135.234263182872
           8 :    94.6494202492597
           9 :   -69.7789261560117
          10 :    54.5275584268788
          11 :   -42.7674587609326
          12 :    30.3754887701037
          13 :   -16.1145711418679
          14 :    1.27844967489477
          15 :    11.5330874650397
          16 :   -19.9050486222059
          17 :    22.7592746587243
          18 :   -20.7832458718528
          19 :    16.0721311833516
          20 :   -11.2320203749987
          21 :    8.36288699834995
          22 :   -8.33729611193587
          23 :    10.6316697535528
          24 :   -13.7306203223111
          25 :    15.8892927313796
          26 :   -15.9122856017254
          27 :    13.6250815963940
          28 :   -9.86843730826331
          29 :    6.05854430751333
          30 :   -3.53701650286189
          31 :   -47.3617641465482
          32 :   -35.5215654969063

     Forces acting on atoms (Ry/au):

     negative rho (up, down):  3.879E+00 0.000E+00
     atom    1 type  1   force =    -0.00336458   -0.00190268    0.01711552
     atom    2 type  1   force =     0.00336722   -0.00191642    0.01713704
     atom    3 type  1   force =    -0.00001036    0.00385235    0.01711286
     atom    4 type  1   force =     0.00000625   -0.00003001    0.00595268
     atom    5 type  1   force =     0.00001669   -0.00246164   -0.01164679
     atom    6 type  1   force =    -0.00002186   -0.00005092   -0.02061197
     atom    7 type  1   force =     0.00208061    0.00125532   -0.01153809
     atom    8 type  1   force =    -0.00208144    0.00127571   -0.01155690
     atom    9 type  1   force =     0.00001430    0.00000068   -0.00011694
     atom   10 type  1   force =    -0.00001695    0.00017328   -0.00071502
     atom   11 type  1   force =     0.00015086   -0.00011285   -0.00061183
     atom   12 type  1   force =    -0.00013991   -0.00008633   -0.00046265
     atom   13 type  2   force =    -0.00000083    0.00000353   -0.00005790

     Total force =     0.042497     Total SCF correction =     0.010768
     SCF correction compared to forces is large: reduce conv_thr to get better values

     entering subroutine stress ...

     negative rho (up, down):  3.879E+00 0.000E+00
          total   stress  (Ry/bohr**3)                   (kbar)     P=  -27.58
  -0.00023044   0.00000000   0.00000000        -33.90      0.00      0.00
   0.00000000  -0.00023047  -0.00000000          0.00    -33.90     -0.00
   0.00000000  -0.00000000  -0.00010147          0.00     -0.00    -14.93

 !ASE

     Writing output data file calc.save

     General routines

     Parallel routines

   This run was terminated on:  22: 7:36  13Jan2018

   JOB DONE.
Job  /afs/slac/g/suncat/bin/suncat-tsmpirun -x LD_LIBRARY_PATH -wdir /scratch/qe842452_QAWlc pw.x -in pw.inp

TID   HOST_NAME   COMMAND_LINE            STATUS            TERMINATION_TIME
00000 suncat0253 pw.x -in pw.inp   Done                     01/13/2018 22:07:36
00001 suncat0253 pw.x -in pw.inp   Done                     01/13/2018 22:07:36
00002 suncat0253 pw.x -in pw.inp   Done                     01/13/2018 22:07:36
00003 suncat0253 pw.x -in pw.inp   Done                     01/13/2018 22:07:36
00004 suncat0253 pw.x -in pw.inp   Done                     01/13/2018 22:07:36
00005 suncat0253 pw.x -in pw.inp   Done                     01/13/2018 22:07:36
00006 suncat0253 pw.x -in pw.inp   Done                     01/13/2018 22:07:36
00007 suncat0253 pw.x -in pw.inp   Done                     01/13/2018 22:07:36
00008 suncat0249 pw.x -in pw.inp   Done                     01/13/2018 22:07:36
00009 suncat0249 pw.x -in pw.inp   Done                     01/13/2018 22:07:36
00010 suncat0249 pw.x -in pw.inp   Done                     01/13/2018 22:07:36
00011 suncat0249 pw.x -in pw.inp   Done                     01/13/2018 22:07:36
00012 suncat0249 pw.x -in pw.inp   Done                     01/13/2018 22:07:36
00013 suncat0249 pw.x -in pw.inp   Done                     01/13/2018 22:07:36
00014 suncat0249 pw.x -in pw.inp   Done                     01/13/2018 22:07:36
00015 suncat0249 pw.x -in pw.inp   Done                     01/13/2018 22:07:36
00016 suncat0248 pw.x -in pw.inp   Done                     01/13/2018 22:07:36
00017 suncat0248 pw.x -in pw.inp   Done                     01/13/2018 22:07:36
00018 suncat0248 pw.x -in pw.inp   Done                     01/13/2018 22:07:36
00019 suncat0248 pw.x -in pw.inp   Done                     01/13/2018 22:07:36
00020 suncat0248 pw.x -in pw.inp   Done                     01/13/2018 22:07:36
00021 suncat0248 pw.x -in pw.inp   Done                     01/13/2018 22:07:36
00022 suncat0248 pw.x -in pw.inp   Done                     01/13/2018 22:07:36
00023 suncat0248 pw.x -in pw.inp   Done                     01/13/2018 22:07:36
00024 suncat0247 pw.x -in pw.inp   Done                     01/13/2018 22:07:36
00025 suncat0247 pw.x -in pw.inp   Done                     01/13/2018 22:07:36
00026 suncat0247 pw.x -in pw.inp   Done                     01/13/2018 22:07:36
00027 suncat0247 pw.x -in pw.inp   Done                     01/13/2018 22:07:36
00028 suncat0247 pw.x -in pw.inp   Done                     01/13/2018 22:07:36
00029 suncat0247 pw.x -in pw.inp   Done                     01/13/2018 22:07:36
00030 suncat0247 pw.x -in pw.inp   Done                     01/13/2018 22:07:36
00031 suncat0247 pw.x -in pw.inp   Done                     01/13/2018 22:07:36