     Program PWSCF v.5.1rc2 (svn rev. ) starts on 19Oct2017 at 13:22:34

     Current dimensions of program PWSCF are:
     Max number of different atomic species (ntypx) = 10
     Max number of k-points (npk) =  40000
     Max angular momentum in pseudopotentials (lmaxx) =  3

     IMPORTANT: XC functional enforced from input :
     Exchange-correlation      = BEEF-VDW ( 1  4 27 13 2)
     Any further DFT definition will be discarded
     Please, verify this is what you really want

     Subspace diagonalization in iterative solution of the eigenvalue problem:
     a serial algorithm will be used

     Found symmetry operation: I + (  0.0000 -0.5000 -0.5000)
     This is a supercell, fractional translations are disabled

     bravais-lattice index     =            0
     lattice parameter (alat)  =       1.8897  a.u.
     unit-cell volume          =      89.8342 (a.u.)^3
     number of atoms/cell      =            4
     number of atomic types    =            1
     number of electrons       =        76.00
     number of Kohn-Sham states=           58
     kinetic-energy cutoff     =      58.7989  Ry
     charge density cutoff     =     587.9892  Ry
     convergence threshold     =      7.3E-08
     mixing beta               =       0.1000
     number of iterations used =           10  plain     mixing
     Exchange-correlation      = BEEF-VDW ( 1  4 27 13 2)

     celldm(1)=   1.889726  celldm(2)=   0.000000  celldm(3)=   0.000000
     celldm(4)=   0.000000  celldm(5)=   0.000000  celldm(6)=   0.000000

     crystal axes: (cart. coord. in units of alat)
               a(1) = (   2.370000   0.000000   0.000000 )
               a(2) = (   0.000000   2.370000   0.000000 )
               a(3) = (   0.000000   0.000000   2.370000 )

     reciprocal axes: (cart. coord. in units 2 pi/alat)
               b(1) = (  0.421941  0.000000  0.000000 )
               b(2) = (  0.000000  0.421941  0.000000 )
               b(3) = (  0.000000  0.000000  0.421941 )

     PseudoPot. # 1 for Cu read from file:
     /home/vossj/suncat/psp/gbrv1.5pbe/Cu.UPF
     MD5 check sum: 6e991ff952a84172a2a52a1c1e996048
     Pseudo is Ultrasoft + core correction, Zval = 19.0
     Generated by new atomic code, or converted to UPF format
     Using radial grid of  867 points,  6 beta functions with:
                l(1) =   0
                l(2) =   0
                l(3) =   1
                l(4) =   1
                l(5) =   2
                l(6) =   2
     Q(r) pseudized with  8 coefficients,  rinner =    1.150   1.150   1.150
                                                       1.150   1.150

     vdW kernel table read from file vdW_kernel_table
     MD5 check sum: 095c7af220d748ca6e76c0b4c6cfb241

     atomic species   valence    mass     pseudopotential
        Cu1           19.00    63.54600     Cu( 1.00)

     48 Sym. Ops., with inversion, found

   Cartesian axes

     site n.     atom                  positions (alat units)
         1           Cu1 tau(   1) = (   0.0000000   0.0000000   0.0000000  )
         2           Cu1 tau(   2) = (   0.0000000   1.1850000   1.1850000  )
         3           Cu1 tau(   3) = (   1.1850000   0.0000000   1.1850000  )
         4           Cu1 tau(   4) = (   1.1850000   1.1850000   0.0000000  )

     number of k points=    84  Fermi-Dirac smearing, width (Ry)=  0.0073
                       cart. coord. in units 2pi/alat
        k(    1) = (   0.0000000   0.0000000   0.0000000), wk =   0.0011574
        k(    2) = (   0.0000000   0.0000000   0.0351617), wk =   0.0069444
        k(    3) = (   0.0000000   0.0000000   0.0703235), wk =   0.0069444
        k(    4) = (   0.0000000   0.0000000   0.1054852), wk =   0.0069444
        k(    5) = (   0.0000000   0.0000000   0.1406470), wk =   0.0069444
        k(    6) = (   0.0000000   0.0000000   0.1758087), wk =   0.0069444
        k(    7) = (   0.0000000   0.0000000  -0.2109705), wk =   0.0034722
        k(    8) = (   0.0000000   0.0351617   0.0351617), wk =   0.0138889
        k(    9) = (   0.0000000   0.0351617   0.0703235), wk =   0.0277778
        k(   10) = (   0.0000000   0.0351617   0.1054852), wk =   0.0277778
        k(   11) = (   0.0000000   0.0351617   0.1406470), wk =   0.0277778
        k(   12) = (   0.0000000   0.0351617   0.1758087), wk =   0.0277778
        k(   13) = (   0.0000000   0.0351617  -0.2109705), wk =   0.0138889
        k(   14) = (   0.0000000   0.0703235   0.0703235), wk =   0.0138889
        k(   15) = (   0.0000000   0.0703235   0.1054852), wk =   0.0277778
        k(   16) = (   0.0000000   0.0703235   0.1406470), wk =   0.0277778
        k(   17) = (   0.0000000   0.0703235   0.1758087), wk =   0.0277778
        k(   18) = (   0.0000000   0.0703235  -0.2109705), wk =   0.0138889
        k(   19) = (   0.0000000   0.1054852   0.1054852), wk =   0.0138889
        k(   20) = (   0.0000000   0.1054852   0.1406470), wk =   0.0277778
        k(   21) = (   0.0000000   0.1054852   0.1758087), wk =   0.0277778
        k(   22) = (   0.0000000   0.1054852  -0.2109705), wk =   0.0138889
        k(   23) = (   0.0000000   0.1406470   0.1406470), wk =   0.0138889
        k(   24) = (   0.0000000   0.1406470   0.1758087), wk =   0.0277778
        k(   25) = (   0.0000000   0.1406470  -0.2109705), wk =   0.0138889
        k(   26) = (   0.0000000   0.1758087   0.1758087), wk =   0.0138889
        k(   27) = (   0.0000000   0.1758087  -0.2109705), wk =   0.0138889
        k(   28) = (   0.0000000  -0.2109705  -0.2109705), wk =   0.0034722
        k(   29) = (   0.0351617   0.0351617   0.0351617), wk =   0.0092593
        k(   30) = (   0.0351617   0.0351617   0.0703235), wk =   0.0277778
        k(   31) = (   0.0351617   0.0351617   0.1054852), wk =   0.0277778
        k(   32) = (   0.0351617   0.0351617   0.1406470), wk =   0.0277778
        k(   33) = (   0.0351617   0.0351617   0.1758087), wk =   0.0277778
        k(   34) = (   0.0351617   0.0351617  -0.2109705), wk =   0.0138889
        k(   35) = (   0.0351617   0.0703235   0.0703235), wk =   0.0277778
        k(   36) = (   0.0351617   0.0703235   0.1054852), wk =   0.0555556
        k(   37) = (   0.0351617   0.0703235   0.1406470), wk =   0.0555556
        k(   38) = (   0.0351617   0.0703235   0.1758087), wk =   0.0555556
        k(   39) = (   0.0351617   0.0703235  -0.2109705), wk =   0.0277778
        k(   40) = (   0.0351617   0.1054852   0.1054852), wk =   0.0277778
        k(   41) = (   0.0351617   0.1054852   0.1406470), wk =   0.0555556
        k(   42) = (   0.0351617   0.1054852   0.1758087), wk =   0.0555556
        k(   43) = (   0.0351617   0.1054852  -0.2109705), wk =   0.0277778
        k(   44) = (   0.0351617   0.1406470   0.1406470), wk =   0.0277778
        k(   45) = (   0.0351617   0.1406470   0.1758087), wk =   0.0555556
        k(   46) = (   0.0351617   0.1406470  -0.2109705), wk =   0.0277778
        k(   47) = (   0.0351617   0.1758087   0.1758087), wk =   0.0277778
        k(   48) = (   0.0351617   0.1758087  -0.2109705), wk =   0.0277778
        k(   49) = (   0.0351617  -0.2109705  -0.2109705), wk =   0.0069444
        k(   50) = (   0.0703235   0.0703235   0.0703235), wk =   0.0092593
        k(   51) = (   0.0703235   0.0703235   0.1054852), wk =   0.0277778
        k(   52) = (   0.0703235   0.0703235   0.1406470), wk =   0.0277778
        k(   53) = (   0.0703235   0.0703235   0.1758087), wk =   0.0277778
        k(   54) = (   0.0703235   0.0703235  -0.2109705), wk =   0.0138889
        k(   55) = (   0.0703235   0.1054852   0.1054852), wk =   0.0277778
        k(   56) = (   0.0703235   0.1054852   0.1406470), wk =   0.0555556
        k(   57) = (   0.0703235   0.1054852   0.1758087), wk =   0.0555556
        k(   58) = (   0.0703235   0.1054852  -0.2109705), wk =   0.0277778
        k(   59) = (   0.0703235   0.1406470   0.1406470), wk =   0.0277778
        k(   60) = (   0.0703235   0.1406470   0.1758087), wk =   0.0555556
[...]
        k(   70) = (   0.1054852   0.1406470   0.1758087), wk =   0.0555556
        k(   71) = (   0.1054852   0.1406470  -0.2109705), wk =   0.0277778
        k(   72) = (   0.1054852   0.1758087   0.1758087), wk =   0.0277778
        k(   73) = (   0.1054852   0.1758087  -0.2109705), wk =   0.0277778
        k(   74) = (   0.1054852  -0.2109705  -0.2109705), wk =   0.0069444
        k(   75) = (   0.1406470   0.1406470   0.1406470), wk =   0.0092593
        k(   76) = (   0.1406470   0.1406470   0.1758087), wk =   0.0277778
        k(   77) = (   0.1406470   0.1406470  -0.2109705), wk =   0.0138889
        k(   78) = (   0.1406470   0.1758087   0.1758087), wk =   0.0277778
        k(   79) = (   0.1406470   0.1758087  -0.2109705), wk =   0.0277778
        k(   80) = (   0.1406470  -0.2109705  -0.2109705), wk =   0.0069444
        k(   81) = (   0.1758087   0.1758087   0.1758087), wk =   0.0092593
        k(   82) = (   0.1758087   0.1758087  -0.2109705), wk =   0.0138889
        k(   83) = (   0.1758087  -0.2109705  -0.2109705), wk =   0.0069444
        k(   84) = (  -0.2109705  -0.2109705  -0.2109705), wk =   0.0011574

     Largest allocated arrays     est. size (Mb)     dimensions
     Largest temporary arrays     est. size (Mb)     dimensions

     Check: negative/imaginary core charge=   -0.000001    0.000000

     Initial potential from superposition of free atoms

     starting charge   71.99999, renormalised to   76.00000

     *
     * You are using vdW-DF for exchange-correlation in this calculation.
     * Please cite the following three references that made this development
     * possible:
     *
     *   M. Dion, H. Rydberg, E. Schroder, D. C. Langreth, and
     *   B. I. Lundqvist, Phys. Rev. Lett. 92, 246401 (2004).
     *
     *   T. Thonhauser, V. R. Cooper, S. Li, A. Puzder, P. Hyldgaard, and
     *   D. C. Langreth, Phys. Rev. B 76, 125112 (2007).
     *
     *   G. Roman-Perez and J. M. Soler, Phys. Rev. Lett. 103, 096102 (2009).
     *
     *
     * If you are using vdW-DF2, please also cite:
     *
     *   K. Lee, E. D. Murray, L. Kong, B. I. Lundqvist, and
     *   D. C. Langreth, Phys. Rev. B 82, 081101(R) (2010).
     *
     *
     * If you are calculating the stress with vdW-DF, please also cite:
     *
     *   R. Sabatini, E. Kucukbenli, B. Kolb, T. Thonhauser, and
     *   S. de Gironcoli, J. Phys.: Condens. Matter 24, 424209 (2012).
     *

     Carrying out vdW-DF run using the following parameters:

     Nqs =      20    Nr_points =    1024   r_max =   100.000
     q_mesh =
               0.00001000     0.04494208     0.09755937     0.15916263
               0.23128650     0.31572767     0.41458969     0.53033537
               0.66584808     0.82450364     1.01025438     1.22772762
               1.48234092     1.78043706     2.12944203     2.53805004
               3.01644009     3.57652955     4.23227104     5.00000000

     Gradients computed in reciprocal space

     Starting wfc are   52 randomized atomic wfcs +    6 random wfc

     Self-consistent Calculation

     iteration #  1     ecut=    58.80 Ry     beta=0.10
     Davidson diagonalization with overlap
     ethr =  1.00E-02,  avg # of iterations =  4.3

[...]
     atom    2 type  1   force =     0.00000000    0.00000000    0.00000000
     atom    3 type  1   force =     0.00000000    0.00000000    0.00000000
     atom    4 type  1   force =     0.00000000    0.00000000    0.00000000
  python dir          : /home/vossj/suncat/lib/python2.7/site-packages/espresso
  espresso dir        : /home/vossj/suncat/esdld/espresso-dynpy-beef/bin
  pseudo dir          : /home/vossj/suncat/psp/gbrv1.5pbe
  ase-espresso py git : ffa2778-git

     Total force =     0.000000     Total SCF correction =     0.000000

     General routines

     Parallel routines

   This run was terminated on:  13:23: 9  19Oct2017

   JOB DONE.

[...]

   This run was terminated on:  13:23:40  19Oct2017

[...]

     Program PWSCF v.5.1rc2 (svn rev. ) starts on 19Oct2017 at 13:25: 5

[...]

     Check: negative/imaginary core charge=   -0.000001    0.000000

[...]

   This run was terminated on:  14: 1:16  19Oct2017

[...]

     Program PWSCF v.5.1rc2 (svn rev. ) starts on 19Oct2017 at 14: 1:17

[...]

   This run was terminated on:  14: 8:40  19Oct2017

[...]

     Program PWSCF v.5.1rc2 (svn rev. ) starts on 19Oct2017 at 14: 8:41

[...]

     Program PWSCF v.5.1rc2 (svn rev. ) starts on 19Oct2017 at 14:32:55

[...]

     bravais-lattice index     =            0
     lattice parameter (alat)  =       1.8897  a.u.
     unit-cell volume          =    1141.2269 (a.u.)^3
     number of atoms/cell      =            4
     number of atomic types    =            1
     number of electrons       =        76.00
     number of Kohn-Sham states=           58
     kinetic-energy cutoff     =      58.7989  Ry
     charge density cutoff     =     587.9892  Ry
     convergence threshold     =      7.3E-08
     mixing beta               =       0.1000
     number of iterations used =           10  plain     mixing
     Exchange-correlation      = BEEF-VDW ( 1  4 27 13 2)

[...]

     atom    1 type  1   force =     0.00000000    0.00000000   -0.00000000
     atom    2 type  1   force =     0.00000000    0.00000000    0.00000000
     atom    3 type  1   force =     0.00000000    0.00000000   -0.00000000
     atom    4 type  1   force =     0.00000000    0.00000000    0.00000000
  python dir          : /home/vossj/suncat/lib/python2.7/site-packages/espresso
  espresso dir        : /home/vossj/suncat/esdld/espresso-dynpy-beef/bin
  pseudo dir          : /home/vossj/suncat/psp/gbrv1.5pbe
  ase-espresso py git : ffa2778-git

[...]

   This run was terminated on:  14:36: 3  19Oct2017

[...]

     Program PWSCF v.5.1rc2 (svn rev. ) starts on 19Oct2017 at 14:36: 4

     Current dimensions of program PWSCF are:
     Max number of different atomic species (ntypx) = 10
     Max number of k-points (npk) =  40000
     Max angular momentum in pseudopotentials (lmaxx) =  3

     IMPORTANT: XC functional enforced from input :
     Exchange-correlation      = BEEF-VDW ( 1  4 27 13 2)
     Any further DFT definition will be discarded
     Please, verify this is what you really want

     Subspace diagonalization in iterative solution of the eigenvalue problem:
     a serial algorithm will be used

     Found symmetry operation: I + (  0.0000 -0.5000 -0.5000)
     This is a supercell, fractional translations are disabled

     bravais-lattice index     =            0
     lattice parameter (alat)  =       1.8897  a.u.
     unit-cell volume          =     320.5056 (a.u.)^3
     number of atoms/cell      =            4
     number of atomic types    =            1
     number of electrons       =        76.00
     number of Kohn-Sham states=           58
     kinetic-energy cutoff     =      58.7989  Ry
     charge density cutoff     =     587.9892  Ry
     convergence threshold     =      7.3E-09
     mixing beta               =       0.1000
     number of iterations used =           10  local-TF  mixing
     Exchange-correlation      = BEEF-VDW ( 1  4 27 13 2)

     celldm(1)=   1.889726  celldm(2)=   0.000000  celldm(3)=   0.000000
     celldm(4)=   0.000000  celldm(5)=   0.000000  celldm(6)=   0.000000

     crystal axes: (cart. coord. in units of alat)
               a(1) = (   3.621426   0.000000   0.000000 )
               a(2) = (   0.000000   3.621426   0.000000 )
               a(3) = (   0.000000   0.000000   3.621426 )

     reciprocal axes: (cart. coord. in units 2 pi/alat)
               b(1) = (  0.276134  0.000000  0.000000 )
               b(2) = (  0.000000  0.276134  0.000000 )
               b(3) = (  0.000000  0.000000  0.276134 )

     PseudoPot. # 1 for Cu read from file:
     /home/vossj/suncat/psp/gbrv1.5pbe/Cu.UPF
     MD5 check sum: 6e991ff952a84172a2a52a1c1e996048
     Pseudo is Ultrasoft + core correction, Zval = 19.0
     Generated by new atomic code, or converted to UPF format
     Using radial grid of  867 points,  6 beta functions with:
                l(1) =   0
                l(2) =   0
                l(3) =   1
                l(4) =   1
                l(5) =   2
                l(6) =   2
     Q(r) pseudized with  8 coefficients,  rinner =    1.150   1.150   1.150
                                                       1.150   1.150

     vdW kernel table read from file vdW_kernel_table
     MD5 check sum: 095c7af220d748ca6e76c0b4c6cfb241

     atomic species   valence    mass     pseudopotential
        Cu1           19.00    63.54600     Cu( 1.00)

     48 Sym. Ops., with inversion, found

   Cartesian axes

     site n.     atom                  positions (alat units)
         1           Cu1 tau(   1) = (   0.0000000   0.0000000   0.0000000  )
         2           Cu1 tau(   2) = (   0.0000000   1.8107132   1.8107132  )
         3           Cu1 tau(   3) = (   1.8107132   0.0000000   1.8107132  )
         4           Cu1 tau(   4) = (   1.8107132   1.8107132   0.0000000  )

     number of k points=    84  Fermi-Dirac smearing, width (Ry)=  0.0073
                       cart. coord. in units 2pi/alat
        k(    1) = (   0.0000000   0.0000000   0.0000000), wk =   0.0011574
        k(    2) = (   0.0000000   0.0000000   0.0230112), wk =   0.0069444
        k(    3) = (   0.0000000   0.0000000   0.0460224), wk =   0.0069444
        k(    4) = (   0.0000000   0.0000000   0.0690336), wk =   0.0069444
        k(    5) = (   0.0000000   0.0000000   0.0920448), wk =   0.0069444
        k(    6) = (   0.0000000   0.0000000   0.1150560), wk =   0.0069444
        k(    7) = (   0.0000000   0.0000000  -0.1380671), wk =   0.0034722
        k(    8) = (   0.0000000   0.0230112   0.0230112), wk =   0.0138889
        k(    9) = (   0.0000000   0.0230112   0.0460224), wk =   0.0277778
        k(   10) = (   0.0000000   0.0230112   0.0690336), wk =   0.0277778
        k(   11) = (   0.0000000   0.0230112   0.0920448), wk =   0.0277778
        k(   12) = (   0.0000000   0.0230112   0.1150560), wk =   0.0277778
        k(   13) = (   0.0000000   0.0230112  -0.1380671), wk =   0.0138889
        k(   14) = (   0.0000000   0.0460224   0.0460224), wk =   0.0138889
        k(   15) = (   0.0000000   0.0460224   0.0690336), wk =   0.0277778
        k(   16) = (   0.0000000   0.0460224   0.0920448), wk =   0.0277778
        k(   17) = (   0.0000000   0.0460224   0.1150560), wk =   0.0277778
        k(   18) = (   0.0000000   0.0460224  -0.1380671), wk =   0.0138889
        k(   19) = (   0.0000000   0.0690336   0.0690336), wk =   0.0138889
        k(   20) = (   0.0000000   0.0690336   0.0920448), wk =   0.0277778
        k(   21) = (   0.0000000   0.0690336   0.1150560), wk =   0.0277778
        k(   22) = (   0.0000000   0.0690336  -0.1380671), wk =   0.0138889
        k(   23) = (   0.0000000   0.0920448   0.0920448), wk =   0.0138889
        k(   24) = (   0.0000000   0.0920448   0.1150560), wk =   0.0277778
        k(   25) = (   0.0000000   0.0920448  -0.1380671), wk =   0.0138889
        k(   26) = (   0.0000000   0.1150560   0.1150560), wk =   0.0138889
        k(   27) = (   0.0000000   0.1150560  -0.1380671), wk =   0.0138889
        k(   28) = (   0.0000000  -0.1380671  -0.1380671), wk =   0.0034722
        k(   29) = (   0.0230112   0.0230112   0.0230112), wk =   0.0092593
        k(   30) = (   0.0230112   0.0230112   0.0460224), wk =   0.0277778
        k(   31) = (   0.0230112   0.0230112   0.0690336), wk =   0.0277778
        k(   32) = (   0.0230112   0.0230112   0.0920448), wk =   0.0277778
        k(   33) = (   0.0230112   0.0230112   0.1150560), wk =   0.0277778
        k(   34) = (   0.0230112   0.0230112  -0.1380671), wk =   0.0138889
        k(   35) = (   0.0230112   0.0460224   0.0460224), wk =   0.0277778
        k(   36) = (   0.0230112   0.0460224   0.0690336), wk =   0.0555556
        k(   37) = (   0.0230112   0.0460224   0.0920448), wk =   0.0555556
        k(   38) = (   0.0230112   0.0460224   0.1150560), wk =   0.0555556
        k(   39) = (   0.0230112   0.0460224  -0.1380671), wk =   0.0277778
        k(   40) = (   0.0230112   0.0690336   0.0690336), wk =   0.0277778
        k(   41) = (   0.0230112   0.0690336   0.0920448), wk =   0.0555556
        k(   42) = (   0.0230112   0.0690336   0.1150560), wk =   0.0555556
        k(   43) = (   0.0230112   0.0690336  -0.1380671), wk =   0.0277778
        k(   44) = (   0.0230112   0.0920448   0.0920448), wk =   0.0277778
        k(   45) = (   0.0230112   0.0920448   0.1150560), wk =   0.0555556
        k(   46) = (   0.0230112   0.0920448  -0.1380671), wk =   0.0277778
        k(   47) = (   0.0230112   0.1150560   0.1150560), wk =   0.0277778
        k(   48) = (   0.0230112   0.1150560  -0.1380671), wk =   0.0277778
        k(   49) = (   0.0230112  -0.1380671  -0.1380671), wk =   0.0069444
        k(   50) = (   0.0460224   0.0460224   0.0460224), wk =   0.0092593
        k(   51) = (   0.0460224   0.0460224   0.0690336), wk =   0.0277778
        k(   52) = (   0.0460224   0.0460224   0.0920448), wk =   0.0277778
        k(   53) = (   0.0460224   0.0460224   0.1150560), wk =   0.0277778
        k(   54) = (   0.0460224   0.0460224  -0.1380671), wk =   0.0138889
        k(   55) = (   0.0460224   0.0690336   0.0690336), wk =   0.0277778
        k(   56) = (   0.0460224   0.0690336   0.0920448), wk =   0.0555556
        k(   57) = (   0.0460224   0.0690336   0.1150560), wk =   0.0555556
        k(   58) = (   0.0460224   0.0690336  -0.1380671), wk =   0.0277778
        k(   59) = (   0.0460224   0.0920448   0.0920448), wk =   0.0277778
        k(   60) = (   0.0460224   0.0920448   0.1150560), wk =   0.0555556
[...]
        k(   70) = (   0.0690336   0.0920448   0.1150560), wk =   0.0555556
        k(   71) = (   0.0690336   0.0920448  -0.1380671), wk =   0.0277778
        k(   72) = (   0.0690336   0.1150560   0.1150560), wk =   0.0277778
        k(   73) = (   0.0690336   0.1150560  -0.1380671), wk =   0.0277778
        k(   74) = (   0.0690336  -0.1380671  -0.1380671), wk =   0.0069444
        k(   75) = (   0.0920448   0.0920448   0.0920448), wk =   0.0092593
        k(   76) = (   0.0920448   0.0920448   0.1150560), wk =   0.0277778
        k(   77) = (   0.0920448   0.0920448  -0.1380671), wk =   0.0138889
        k(   78) = (   0.0920448   0.1150560   0.1150560), wk =   0.0277778
        k(   79) = (   0.0920448   0.1150560  -0.1380671), wk =   0.0277778
        k(   80) = (   0.0920448  -0.1380671  -0.1380671), wk =   0.0069444
        k(   81) = (   0.1150560   0.1150560   0.1150560), wk =   0.0092593
        k(   82) = (   0.1150560   0.1150560  -0.1380671), wk =   0.0138889
        k(   83) = (   0.1150560  -0.1380671  -0.1380671), wk =   0.0069444
        k(   84) = (  -0.1380671  -0.1380671  -0.1380671), wk =   0.0011574

     Largest allocated arrays     est. size (Mb)     dimensions
     Largest temporary arrays     est. size (Mb)     dimensions

     Initial potential from superposition of free atoms

     starting charge   71.99999, renormalised to   76.00000

     *
     * You are using vdW-DF for exchange-correlation in this calculation.
     * Please cite the following three references that made this development
     * possible:
     *
     *   M. Dion, H. Rydberg, E. Schroder, D. C. Langreth, and
     *   B. I. Lundqvist, Phys. Rev. Lett. 92, 246401 (2004).
     *
     *   T. Thonhauser, V. R. Cooper, S. Li, A. Puzder, P. Hyldgaard, and
     *   D. C. Langreth, Phys. Rev. B 76, 125112 (2007).
     *
     *   G. Roman-Perez and J. M. Soler, Phys. Rev. Lett. 103, 096102 (2009).
     *
     *
     * If you are using vdW-DF2, please also cite:
     *
     *   K. Lee, E. D. Murray, L. Kong, B. I. Lundqvist, and
     *   D. C. Langreth, Phys. Rev. B 82, 081101(R) (2010).
     *
     *
     * If you are calculating the stress with vdW-DF, please also cite:
     *
     *   R. Sabatini, E. Kucukbenli, B. Kolb, T. Thonhauser, and
     *   S. de Gironcoli, J. Phys.: Condens. Matter 24, 424209 (2012).
     *

     Carrying out vdW-DF run using the following parameters:

     Nqs =      20    Nr_points =    1024   r_max =   100.000
     q_mesh =
               0.00001000     0.04494208     0.09755937     0.15916263
               0.23128650     0.31572767     0.41458969     0.53033537
               0.66584808     0.82450364     1.01025438     1.22772762
               1.48234092     1.78043706     2.12944203     2.53805004
               3.01644009     3.57652955     4.23227104     5.00000000

     Gradients computed in reciprocal space

     Starting wfc are   52 randomized atomic wfcs +    6 random wfc

     Self-consistent Calculation

[...]

     total energy              =   -1619.83421420 Ry
     Harris-Foulkes estimate   =   -1619.83421402 Ry
     estimated scf accuracy    <       0.00000008 Ry

     iteration # 29     ecut=    58.80 Ry     beta=0.10
     Davidson diagonalization with overlap
     ethr =  1.38E-11,  avg # of iterations =  2.1

     End of self-consistent calculation

[...]

          k = 0.1151-0.1381-0.1381 (  2428 PWs)   bands (ev):

[...]

          k =-0.1381-0.1381-0.1381 (  2440 PWs)   bands (ev):

   -96.9424 -96.9424 -96.9424 -96.9424 -54.3946 -54.3946 -54.3946 -54.3946
   -54.3055 -54.3055 -54.3055 -54.3055 -54.3055 -54.3055 -54.3055 -54.3055
    10.6550  10.6550  10.6550  10.6550  12.6258  12.6258  12.6258  12.6258
    12.6258  12.6258  12.6258  12.6258  14.0458  14.0458  14.0458  14.0458
    14.0458  14.0458  14.0458  14.0458  14.7994  14.7994  14.7994  14.7994
    19.4973  19.4973  19.4973  19.4973  36.8496  36.8496  36.8496  36.8496
    37.7543  37.7543  37.7543  37.7543  37.7543  37.7543  37.7543  37.7543
    40.8655  40.8655

     the Fermi energy is    15.7579 ev

!    total energy              =   -1619.83421506 Ry
     Harris-Foulkes estimate   =   -1619.83421421 Ry
     estimated scf accuracy    <          1.1E-09 Ry

     The total energy is the sum of the following terms:

     one-electron contribution =   -1078.26422588 Ry
     hartree contribution      =     586.03871221 Ry
     xc contribution           =    -160.18646665 Ry
     ewald contribution        =    -967.41971763 Ry
     smearing contrib. (-TS)   =      -0.00251712 Ry

     convergence has been achieved in  29 iterations

 BEEF-vdW xc energy contributions
           1 :   -141.707223644059
           2 :    128.741616347694
           3 :   -106.613719708101
           4 :    81.2489021784597
           5 :   -58.2168982242156
           6 :    40.7189156767726
           7 :   -28.9676398808833
           8 :    21.0675396235249
           9 :   -14.6931040687148
          10 :    8.52788222518231
          11 :   -2.71940510979229
          12 :   -1.70884272303897
          13 :    3.91713857405935
          14 :   -4.01017656180804
          15 :    3.03286675378007
          16 :   -2.29705627479720
          17 :    2.56764204217481
          18 :   -3.67471978694502
          19 :    4.77686311885691
          20 :   -5.04105179575879
          21 :    4.24373153351206
          22 :   -2.89290924220387
          23 :    1.82974834655158
          24 :   -1.62669926846249
          25 :    2.21421652853365
          26 :   -2.97879175475308
          27 :    3.23216939069269
          28 :   -2.70094928561974
          29 :    1.69400006861858
          30 :  -0.850420646133216
          31 :   -11.2715718736652
          32 :   -7.76411671934983

     Forces acting on atoms (Ry/au):

     atom    1 type  1   force =     0.00000000    0.00000000    0.00000000
     atom    2 type  1   force =     0.00000000    0.00000000    0.00000000
     atom    3 type  1   force =     0.00000000    0.00000000    0.00000000
     atom    4 type  1   force =     0.00000000    0.00000000    0.00000000

     Total force =     0.000000     Total SCF correction =     0.000000

     General routines

     Parallel routines

   This run was terminated on:  14:38:18  19Oct2017

   JOB DONE.