     Program PWSCF v.5.1rc2 (svn rev. 11289) starts on  6Jul2018 at  4: 0:26

     Current dimensions of program PWSCF are:
     Max number of different atomic species (ntypx) = 10
     Max number of k-points (npk) =  40000
     Max angular momentum in pseudopotentials (lmaxx) =  3
     Presently stress not available with electric field

     IMPORTANT: XC functional enforced from input :
     Exchange-correlation      = BEEF-VDW ( 1  4 27 13 2)
     Any further DFT definition will be discarded
     Please, verify this is what you really want

     Subspace diagonalization in iterative solution of the eigenvalue problem:
     a serial algorithm will be used

     Generating pointlists ...
     new r_m :   0.4125 (alat units)  0.7795 (a.u.) for type    1
     new r_m :   0.4125 (alat units)  0.7795 (a.u.) for type    2

     bravais-lattice index     =            0
     lattice parameter (alat)  =       1.8897  a.u.
     unit-cell volume          =    3797.2497 (a.u.)^3
     number of atoms/cell      =           13
     number of atomic types    =            2
     number of electrons       =       198.00
     number of Kohn-Sham states=          109
     kinetic-energy cutoff     =      36.7493  Ry
     charge density cutoff     =     367.4932  Ry
     convergence threshold     =      1.0E-05
     mixing beta               =       0.3000
     number of iterations used =           10  plain     mixing
     Exchange-correlation      = BEEF-VDW ( 1  4 27 13 2)
     nstep                     =           50

     celldm(1)=   1.889726  celldm(2)=   0.000000  celldm(3)=   0.000000
     celldm(4)=   0.000000  celldm(5)=   0.000000  celldm(6)=   0.000000

     crystal axes: (cart. coord. in units of alat)
               a(1) = (   5.178568   0.000000   0.000000 )
               a(2) = (   2.589284   4.484771   0.000000 )
               a(3) = (   0.000000   0.000000  24.228283 )

     reciprocal axes: (cart. coord. in units 2 pi/alat)
               b(1) = (  0.193104 -0.111488  0.000000 )
               b(2) = (  0.000000  0.222977  0.000000 )
               b(3) = (  0.000000  0.000000  0.041274 )

     PseudoPot. # 1 for Fe read from file:
     /u/if/mamunm/psp/gbrv1.5pbe/Fe.UPF
     MD5 check sum: a130daea23fe5165f5d574ae7f82ed95
     Pseudo is Ultrasoft + core correction, Zval = 16.0
     Generated by new atomic code, or converted to UPF format
     Using radial grid of  861 points,  6 beta functions with:
                l(1) =   0
                l(2) =   0
                l(3) =   1
                l(4) =   1
                l(5) =   2
                l(6) =   2
     Q(r) pseudized with  8 coefficients,  rinner =    1.000   1.000   1.000
                                                       1.000   1.000

     PseudoPot. # 2 for O  read from file:
     /u/if/mamunm/psp/gbrv1.5pbe/O.UPF
     MD5 check sum: 734c27235a0248c51dbae37a1fbe46ec
     Pseudo is Ultrasoft + core correction, Zval =  6.0
     Generated by new atomic code, or converted to UPF format
     Using radial grid of  737 points,  5 beta functions with:
                l(1) =   0
                l(2) =   0
                l(3) =   1
                l(4) =   1
                l(5) =   2
     Q(r) pseudized with  8 coefficients,  rinner =    0.900   0.900   0.900
                                                       0.900   0.900

     vdW kernel table read from file vdW_kernel_table
     MD5 check sum: 095c7af220d748ca6e76c0b4c6cfb241

     atomic species   valence    mass     pseudopotential
        Fe1           16.00    55.84500     Fe( 1.00)
        O1             6.00    15.99900     O ( 1.00)

     Starting magnetic structure
     atomic species   magnetization
        Fe1          0.125
        O1           0.000

     No symmetry found

   Cartesian axes

     site n.     atom                  positions (alat units)
         1           Fe1 tau(   1) = (   1.2946419   0.7474618  10.0000000  )
         2           Fe1 tau(   2) = (   3.8839257   0.7474618  10.0000000  )
         3           Fe1 tau(   3) = (   2.5892838   2.9898474  10.0000000  )
         4           Fe1 tau(   4) = (   5.1785676   2.9898474  10.0000000  )
         5           Fe1 tau(   5) = (   5.1785676   1.4949237  12.1141414  )
         6           Fe1 tau(   6) = (   2.5892838   1.4949237  12.1141414  )
         7           Fe1 tau(   7) = (   6.4732095   3.7373092  12.1141414  )
         8           Fe1 tau(   8) = (   3.8839257   3.7373092  12.1141414  )
         9           Fe1 tau(   9) = (   0.0000000   0.0000000  14.2282827  )
        10           Fe1 tau(  10) = (   2.5892838   0.0000000  14.2282827  )
        11           Fe1 tau(  11) = (   1.2946419   2.2423855  14.2282827  )
        12           Fe1 tau(  12) = (   3.8839257   2.2423855  14.2282827  )
        13           O1  tau(  13) = (   0.0000000   0.0000000  15.9112827  )

     number of k points=    40  Fermi-Dirac smearing, width (Ry)=  0.0110
                       cart. coord. in units 2pi/alat
        k(    1) = (   0.0000000   0.0000000   0.0000000), wk =   0.0277778
        k(    2) = (   0.0000000   0.0371628   0.0000000), wk =   0.0555556
        k(    3) = (   0.0000000   0.0743256   0.0000000), wk =   0.0555556
        k(    4) = (   0.0000000  -0.1114884   0.0000000), wk =   0.0277778
        k(    5) = (   0.0321839  -0.0185814   0.0000000), wk =   0.0555556
        k(    6) = (   0.0321839   0.0185814   0.0000000), wk =   0.0555556
        k(    7) = (   0.0321839   0.0557442   0.0000000), wk =   0.0555556
        k(    8) = (   0.0321839  -0.1300698   0.0000000), wk =   0.0555556
        k(    9) = (   0.0321839  -0.0929070   0.0000000), wk =   0.0555556
        k(   10) = (   0.0321839  -0.0557442   0.0000000), wk =   0.0555556
        k(   11) = (   0.0643679  -0.0371628   0.0000000), wk =   0.0555556
        k(   12) = (   0.0643679   0.0000000   0.0000000), wk =   0.0555556
        k(   13) = (   0.0643679   0.0371628   0.0000000), wk =   0.0555556
        k(   14) = (   0.0643679  -0.1486512   0.0000000), wk =   0.0555556
        k(   15) = (   0.0643679  -0.1114884   0.0000000), wk =   0.0555556
        k(   16) = (   0.0643679  -0.0743256   0.0000000), wk =   0.0555556
        k(   17) = (  -0.0965518   0.0557442   0.0000000), wk =   0.0277778
        k(   18) = (  -0.0965518   0.0929070   0.0000000), wk =   0.0555556
        k(   19) = (  -0.0965518   0.1300698   0.0000000), wk =   0.0555556
        k(   20) = (  -0.0965518  -0.0557442   0.0000000), wk =   0.0277778
        k(   21) = (   0.0000000   0.0000000   0.0000000), wk =   0.0277778
        k(   22) = (   0.0000000   0.0371628   0.0000000), wk =   0.0555556
        k(   23) = (   0.0000000   0.0743256   0.0000000), wk =   0.0555556
        k(   24) = (   0.0000000  -0.1114884   0.0000000), wk =   0.0277778
        k(   25) = (   0.0321839  -0.0185814   0.0000000), wk =   0.0555556
        k(   26) = (   0.0321839   0.0185814   0.0000000), wk =   0.0555556
        k(   27) = (   0.0321839   0.0557442   0.0000000), wk =   0.0555556
        k(   28) = (   0.0321839  -0.1300698   0.0000000), wk =   0.0555556
        k(   29) = (   0.0321839  -0.0929070   0.0000000), wk =   0.0555556
        k(   30) = (   0.0321839  -0.0557442   0.0000000), wk =   0.0555556
        k(   31) = (   0.0643679  -0.0371628   0.0000000), wk =   0.0555556
        k(   32) = (   0.0643679   0.0000000   0.0000000), wk =   0.0555556
        k(   33) = (   0.0643679   0.0371628   0.0000000), wk =   0.0555556
        k(   34) = (   0.0643679  -0.1486512   0.0000000), wk =   0.0555556
        k(   35) = (   0.0643679  -0.1114884   0.0000000), wk =   0.0555556
        k(   36) = (   0.0643679  -0.0743256   0.0000000), wk =   0.0555556
        k(   37) = (  -0.0965518   0.0557442   0.0000000), wk =   0.0277778
        k(   38) = (  -0.0965518   0.0929070   0.0000000), wk =   0.0555556
        k(   39) = (  -0.0965518   0.1300698   0.0000000), wk =   0.0555556
        k(   40) = (  -0.0965518  -0.0557442   0.0000000), wk =   0.0277778

     Largest allocated arrays     est. size (Mb)     dimensions
     Largest temporary arrays     est. size (Mb)     dimensions

     Check: negative/imaginary core charge=   -0.000008    0.000000

     Initial potential from superposition of free atoms
     Check: negative starting charge=(component1):   -0.000179
     Check: negative starting charge=(component2):   -0.000164

     starting charge  185.99993, renormalised to  198.00000

     negative rho (up, down):  1.911E-04 1.742E-04

     *
     * You are using vdW-DF for exchange-correlation in this calculation.
     * Please cite the following three references that made this development
     * possible:
     *
     *   M. Dion, H. Rydberg, E. Schroder, D. C. Langreth, and
     *   B. I. Lundqvist, Phys. Rev. Lett. 92, 246401 (2004).
     *
     *   T. Thonhauser, V. R. Cooper, S. Li, A. Puzder, P. Hyldgaard, and
     *   D. C. Langreth, Phys. Rev. B 76, 125112 (2007).
     *
     *   G. Roman-Perez and J. M. Soler, Phys. Rev. Lett. 103, 096102 (2009).
     *
     *
     * If you are using vdW-DF2, please also cite:
     *
     *   K. Lee, E. D. Murray, L. Kong, B. I. Lundqvist, and
     *   D. C. Langreth, Phys. Rev. B 82, 081101(R) (2010).
     *
     *
     * If you are calculating the stress with vdW-DF, please also cite:
     *
     *   R. Sabatini, E. Kucukbenli, B. Kolb, T. Thonhauser, and
     *   S. de Gironcoli, J. Phys.: Condens. Matter 24, 424209 (2012).
     *

     Carrying out vdW-DF run using the following parameters:

     Nqs =      20    Nr_points =    1024   r_max =   100.000
     q_mesh =
               0.00001000     0.04494208     0.09755937     0.15916263
               0.23128650     0.31572767     0.41458969     0.53033537
               0.66584808     0.82450364     1.01025438     1.22772762
               1.48234092     1.78043706     2.12944203     2.53805004
               3.01644009     3.57652955     4.23227104     5.00000000

     Gradients computed in reciprocal space

     Adding external electric field

     Computed dipole along edir(3) :
        Dipole               -2.7776 Ry au,         -7.0601 Debye
        Dipole field         -0.0092 Ry au

        Potential amp.        0.8207 Ry
        Total length         44.6402 bohr

[...]

     Starting wfc are  160 randomized atomic wfcs

     Self-consistent Calculation

     iteration #  1     ecut=    36.75 Ry     beta=0.30
     Davidson diagonalization with overlap
     ethr =  1.00E-02,  avg # of iterations =  6.8

[...]

     Magnetic moment per site:
     atom:    1    charge:    7.4087    magn:    0.7507    constr:    0.0000
     atom:    2    charge:    7.4088    magn:    0.7506    constr:    0.0000
     atom:    3    charge:    7.4088    magn:    0.7506    constr:    0.0000
     atom:    4    charge:    7.4084    magn:    0.7511    constr:    0.0000
     atom:    5    charge:    7.1521    magn:    0.8388    constr:    0.0000
     atom:    6    charge:    7.1516    magn:    0.8369    constr:    0.0000
     atom:    7    charge:    7.1520    magn:    0.8389    constr:    0.0000
     atom:    8    charge:    7.1522    magn:    0.8388    constr:    0.0000
[...]
           3 :   -240.514824926867
           4 :    182.874064756742
           5 :   -133.664923526840
           6 :    99.7947620792468
           7 :   -80.4713025545926
           8 :    69.9392270030247
           9 :   -61.7279215534632
          10 :    51.9867231496735
          11 :   -40.5015933558374
          12 :    29.4478847146172
          13 :   -21.1659741069217
          14 :    16.4856200791425
          15 :   -14.4581206894119
          16 :    13.2747106120592
          17 :   -11.5139437064441
          18 :    8.85502616484712
          19 :   -5.95264628516850
          20 :    3.73759219826513
          21 :   -2.71471309475100
          22 :    2.68412666030690
          23 :   -2.96912090928743
          24 :    2.88895163601671
          25 :   -2.14593732365745
          26 :   0.913434341788843
          27 :   0.349404123086515
          28 :   -1.19790453352414
          29 :    1.43252146267980
          30 :   -1.17398049312487
          31 :   -28.7512819035368
          32 :   -20.2218907065046

     Forces acting on atoms (Ry/au):

     negative rho (up, down):  4.943E-04 8.782E-04
     atom    1 type  1   force =    -0.00112735    0.00046409    0.00430829
     atom    2 type  1   force =    -0.00014192    0.00010748    0.00152459
     atom    3 type  1   force =    -0.00094513    0.00073423    0.00435341
     atom    4 type  1   force =     0.00011933   -0.00009838    0.00009594
     atom    5 type  1   force =     0.00097082   -0.00080211    0.01447599
     atom    6 type  1   force =     0.00022462   -0.00004483    0.01619989
     atom    7 type  1   force =     0.00125377   -0.00048308    0.01436083
     atom    8 type  1   force =    -0.00297927    0.00162938    0.01176935
     atom    9 type  1   force =     0.00182435   -0.00104765    0.02030185
     atom   10 type  1   force =     0.00232253   -0.00018812   -0.03007827
     atom   11 type  1   force =    -0.00166258    0.00094898   -0.00618246
     atom   12 type  1   force =     0.00136555   -0.00192744   -0.02993543
     atom   13 type  2   force =    -0.00122473    0.00070744   -0.02119397

     Total force =     0.052168     Total SCF correction =     0.008337
     SCF correction compared to forces is large: reduce conv_thr to get better values

     entering subroutine stress ...

     negative rho (up, down):  4.943E-04 8.782E-04
          total   stress  (Ry/bohr**3)                   (kbar)     P=  -25.36
  -0.00018709  -0.00002185   0.00000410        -27.52     -3.21      0.60
  -0.00002185  -0.00021226  -0.00000237         -3.21    -31.22     -0.35
   0.00000410  -0.00000237  -0.00011788          0.60     -0.35    -17.34

     BFGS Geometry Optimization

     number of scf cycles    =   1
     number of bfgs steps    =   0

     energy   new            =   -3048.4039950625 Ry

     new trust radius        =       0.0301683963 bohr
     new conv_thr            =       0.0000099958 Ry

ATOMIC_POSITIONS (crystal)
Fe1      0.166666667   0.166666667   0.412740767    0   0   0
Fe1      0.666666667   0.166666667   0.412740767    0   0   0
Fe1      0.166666667   0.666666667   0.412740767    0   0   0
Fe1      0.666666667   0.666666667   0.412740767    0   0   0
Fe1      0.833333333   0.333333333   0.500000000    0   0   0
Fe1      0.333333333   0.333333333   0.500000000    0   0   0
Fe1      0.833333333   0.833333333   0.500000000    0   0   0
Fe1      0.333333333   0.833333333   0.500000000    0   0   0
Fe1      0.000248231  -0.000123617   0.587702652
Fe1      0.500248429  -0.000022196   0.586602284
Fe1     -0.000225880   0.500111975   0.587124200
Fe1      0.500253254   0.499772573   0.586605404
O1      -0.000166887   0.000083474   0.656260600

     Writing output data file calc.save
     Check: negative starting charge=(component1):   -0.000343
     NEW-OLD atomic charge density approx. for the potential

     Check: negative/imaginary core charge=   -0.000008    0.000000
     Check: negative starting charge=(component1):   -0.000342

[...]

     energy   old            =   -3048.4039950625 Ry
     energy   new            =   -3048.4062651546 Ry

     CASE: energy  _new < energy  _old

[...]

     Total force =     0.041269     Total SCF correction =     0.000828

[...]

     iteration #  1     ecut=    36.75 Ry     beta=0.30
     Davidson diagonalization with overlap
     c_bands:  1 eigenvalues not converged
     ethr =  1.00E-06,  avg # of iterations = 13.8

[...]

     iteration #  1     ecut=    36.75 Ry     beta=0.30
     Davidson diagonalization with overlap
     c_bands:  1 eigenvalues not converged
     ethr =  1.00E-06,  avg # of iterations = 16.2

[...]

     Threshold (ethr) on eigenvalues was too large:
     Diagonalizing with lowered threshold

     Davidson diagonalization with overlap
     ethr =  4.68E-08,  avg # of iterations =  1.9

[...]

     Total force =     0.005596     Total SCF correction =     0.000287

[...]

     number of scf cycles    =  14
     number of bfgs steps    =  13

     energy   old            =   -3048.4200028313 Ry
     energy   new            =   -3048.4200546624 Ry

     CASE: energy  _new < energy  _old

     new trust radius        =       0.0162931109 bohr
     new conv_thr            =       0.0000001000 Ry

ATOMIC_POSITIONS (crystal)
Fe1      0.166666667   0.166666667   0.412740767    0   0   0
Fe1      0.666666667   0.166666667   0.412740767    0   0   0
Fe1      0.166666667   0.666666667   0.412740767    0   0   0
Fe1      0.666666667   0.666666667   0.412740767    0   0   0
Fe1      0.833333333   0.333333333   0.500000000    0   0   0
Fe1      0.333333333   0.333333333   0.500000000    0   0   0
Fe1      0.833333333   0.833333333   0.500000000    0   0   0
Fe1      0.333333333   0.833333333   0.500000000    0   0   0
Fe1      0.003777465  -0.001887805   0.590728614
Fe1      0.500590959   0.001284681   0.577965260
Fe1      0.001778658   0.499125593   0.586014635
Fe1      0.500593991   0.498109468   0.577949075
O1      -0.009060127   0.004526957   0.658045895

     Writing output data file calc.save
     Check: negative starting charge=(component1):   -0.000347
     NEW-OLD atomic charge density approx. for the potential

     Check: negative/imaginary core charge=   -0.000008    0.000000
     Check: negative starting charge=(component1):   -0.000346

[...]

     Self-consistent Calculation

[...]

     total energy              =   -3048.42010870 Ry
     Harris-Foulkes estimate   =   -3048.42010882 Ry
     estimated scf accuracy    <       0.00000029 Ry

[...]

     iteration # 29     ecut=    36.75 Ry     beta=0.30
     Davidson diagonalization with overlap
     ethr =  8.06E-11,  avg # of iterations =  3.2

[...]

     negative rho (up, down):  5.000E-04 9.373E-04

[...]

     Adding external electric field

     Computed dipole along edir(3) :
        Dipole               -0.3894 Ry au,         -0.9897 Debye
        Dipole field         -0.0013 Ry au

        Potential amp.        0.1150 Ry
        Total length         44.6402 bohr

     Magnetic moment per site:
     atom:    1    charge:    7.0973    magn:    1.3131    constr:    0.0000
     atom:    2    charge:    7.0969    magn:    1.3056    constr:    0.0000
     atom:    3    charge:    7.0973    magn:    1.3131    constr:    0.0000
     atom:    4    charge:    7.0971    magn:    1.3112    constr:    0.0000
     atom:    5    charge:    7.0938    magn:    1.1496    constr:    0.0000
     atom:    6    charge:    7.0938    magn:    1.1279    constr:    0.0000
     atom:    7    charge:    7.0938    magn:    1.1496    constr:    0.0000
     atom:    8    charge:    7.0952    magn:    1.1877    constr:    0.0000
     atom:    9    charge:    6.8561    magn:   -0.9628    constr:    0.0000
     atom:   10    charge:    5.7705    magn:    0.8904    constr:    0.0000
     atom:   11    charge:    7.0674    magn:   -1.3689    constr:    0.0000
     atom:   12    charge:    5.7665    magn:    0.8895    constr:    0.0000
     atom:   13    charge:    2.0375    magn:   -0.1410    constr:    0.0000

     End of self-consistent calculation

 ------ SPIN UP ------------

[...]

 ------ SPIN DOWN ----------

[...]

          k = 0.0644-0.0743 0.0000 ( 14261 PWs)   bands (ev):

[...]

          k =-0.0966-0.0557 0.0000 ( 14254 PWs)   bands (ev):

   -89.2054 -88.6284 -85.2606 -85.2577 -85.1554 -85.1510 -85.1366 -85.0354
   -84.8539 -84.8479 -84.8324 -84.8292 -55.4636 -55.1423 -55.0382 -55.0114
   -54.5044 -54.3719 -51.4951 -51.4837 -51.4151 -51.3805 -51.3745 -51.3568
   -51.3426 -51.3229 -51.2947 -51.2447 -51.2175 -51.2004 -51.1874 -51.1580
   -51.1163 -51.1069 -51.0785 -51.0486 -51.0383 -51.0318 -50.9639 -50.9564
   -50.9414 -50.9378 -50.9242 -50.9147 -50.9093 -50.9051 -50.8623 -50.8602
   -17.5356  -5.4165  -5.3869  -4.3486  -4.1820  -4.0806  -3.8412  -3.7007
    -3.5055  -3.3277  -3.1247  -3.0899  -3.0333  -2.5441  -2.5014  -2.4596
    -2.3219  -2.1402  -2.0607  -1.7641  -1.5297  -1.3444  -1.3163  -1.0916
    -1.0439  -0.9705  -0.8534  -0.8012  -0.6852  -0.6070  -0.5743  -0.5232
    -0.3908  -0.2746  -0.2246  -0.1861  -0.1541  -0.1024  -0.0386   0.1927
     0.2264   0.3234   0.3340   0.4195   0.4815   0.5557   0.7917   0.9916
     1.0820   1.0981   1.1201   1.3093   1.3682   1.4520   1.5038   1.5111
     1.6093   1.7383   1.7686   1.8182   1.8295

     the Fermi energy is     0.3957 ev

!    total energy              =   -3048.42010866 Ry
     Harris-Foulkes estimate   =   -3048.42011340 Ry
     estimated scf accuracy    <       0.00000006 Ry

     The total energy is the sum of the following terms:

     one-electron contribution =  -26384.95990213 Ry
     hartree contribution      =   13190.18188613 Ry
     xc contribution           =    -370.80053222 Ry
     ewald contribution        =   10517.23768255 Ry
     electric field correction =       0.00050170 Ry
     smearing contrib. (-TS)   =      -0.07974469 Ry

     total magnetization       =    19.24 Bohr mag/cell
     absolute magnetization    =    31.53 Bohr mag/cell

     convergence has been achieved in  29 iterations

 BEEF-vdW xc energy contributions
           1 :   -324.333610062675
           2 :    292.998087375752
           3 :   -240.738043350661
           4 :    183.081167364998
           5 :   -133.732971511581
           6 :    99.6716082069075
           7 :   -80.2250523214383
           8 :    69.7142602535067
           9 :   -61.6470846788903
          10 :    52.0716960198534
          11 :   -40.6621638220527
          12 :    29.5403763280388
          13 :   -21.0850931162542
          14 :    16.2328601068094
          15 :   -14.1409125239947
          16 :    13.0361873050625
          17 :   -11.4438464026520
          18 :    8.94008001679180
          19 :   -6.09332828054886
          20 :    3.81438524680306
          21 :   -2.66134660969453
          22 :    2.52223262461752
          23 :   -2.78370476707113
          24 :    2.76425922834352
          25 :   -2.10979188376331
          26 :   0.927179707211053
          27 :   0.353619461868675
          28 :   -1.26399574505211
          29 :    1.54973440120727
          30 :   -1.28653497192136
          31 :   -28.7735111289387
          32 :   -20.2546946764064

     Forces acting on atoms (Ry/au):

     negative rho (up, down):  5.000E-04 9.373E-04
     atom    1 type  1   force =    -0.00056224    0.00002100    0.00582672
     atom    2 type  1   force =    -0.00011587    0.00005725    0.00126996
     atom    3 type  1   force =    -0.00030707    0.00048106    0.00583405
     atom    4 type  1   force =     0.00006466   -0.00002691   -0.00049633
     atom    5 type  1   force =     0.00635303   -0.00673698    0.00495138
     atom    6 type  1   force =    -0.00378311    0.00216336   -0.01103228
     atom    7 type  1   force =     0.00899226   -0.00212009    0.00498610
     atom    8 type  1   force =    -0.00916828    0.00531180   -0.01148523
     atom    9 type  1   force =    -0.00002734    0.00000818   -0.00166155
     atom   10 type  1   force =     0.00081115   -0.00101267    0.00013688
     atom   11 type  1   force =    -0.00188067    0.00108188   -0.00020523
     atom   12 type  1   force =     0.00127328   -0.00017876    0.00020463
     atom   13 type  2   force =    -0.00164978    0.00095089    0.00167091

     Total force =     0.004162     Total SCF correction =     0.001398
     SCF correction compared to forces is large: reduce conv_thr to get better values

     entering subroutine stress ...

     negative rho (up, down):  5.000E-04 9.373E-04
          total   stress  (Ry/bohr**3)                   (kbar)     P=  -15.66
  -0.00014458  -0.00000880  -0.00000210        -21.27     -1.29     -0.31
  -0.00000880  -0.00015474   0.00000120         -1.29    -22.76      0.18
  -0.00000210   0.00000120  -0.00001996         -0.31      0.18     -2.94

     bfgs converged in  15 scf cycles and  14 bfgs steps
     (criteria: energy <  1.0E+00, force <  1.9E-03)

     End of BFGS Geometry Optimization

     Final energy   =   -3048.4201086601 Ry
Begin final coordinates

ATOMIC_POSITIONS (crystal)
Fe1      0.166666667   0.166666667   0.412740767    0   0   0
Fe1      0.666666667   0.166666667   0.412740767    0   0   0
Fe1      0.166666667   0.666666667   0.412740767    0   0   0
Fe1      0.666666667   0.666666667   0.412740767    0   0   0
Fe1      0.833333333   0.333333333   0.500000000    0   0   0
Fe1      0.333333333   0.333333333   0.500000000    0   0   0
Fe1      0.833333333   0.833333333   0.500000000    0   0   0
Fe1      0.333333333   0.833333333   0.500000000    0   0   0
Fe1      0.003777465  -0.001887805   0.590728614
Fe1      0.500590959   0.001284681   0.577965260
Fe1      0.001778658   0.499125593   0.586014635
Fe1      0.500593991   0.498109468   0.577949075
O1      -0.009060127   0.004526957   0.658045895
End final coordinates

     Writing output data file calc.save

     General routines

     Parallel routines

   This run was terminated on:  10: 6: 2   6Jul2018

   JOB DONE.
Job  /afs/slac/g/suncat/bin/suncat-tsmpirun -x LD_LIBRARY_PATH -wdir /scratch/qe287677_3jFB4 pw.x -npool 4 -in pw.inp

TID   HOST_NAME   COMMAND_LINE            STATUS            TERMINATION_TIME
00000 suncat0094 pw.x -npool 4 -i  Done                     07/06/2018 10:06:02
00001 suncat0094 pw.x -npool 4 -i  Done                     07/06/2018 10:06:02
00002 suncat0094 pw.x -npool 4 -i  Done                     07/06/2018 10:06:02
00003 suncat0094 pw.x -npool 4 -i  Done                     07/06/2018 10:06:02
00004 suncat0094 pw.x -npool 4 -i  Done                     07/06/2018 10:06:02
00005 suncat0094 pw.x -npool 4 -i  Done                     07/06/2018 10:06:02
00006 suncat0094 pw.x -npool 4 -i  Done                     07/06/2018 10:06:02
00007 suncat0094 pw.x -npool 4 -i  Done                     07/06/2018 10:06:02
00008 suncat0079 pw.x -npool 4 -i  Done                     07/06/2018 10:06:02
00009 suncat0079 pw.x -npool 4 -i  Done                     07/06/2018 10:06:02
00010 suncat0079 pw.x -npool 4 -i  Done                     07/06/2018 10:06:02
00011 suncat0079 pw.x -npool 4 -i  Done                     07/06/2018 10:06:02
00012 suncat0079 pw.x -npool 4 -i  Done                     07/06/2018 10:06:02
00013 suncat0079 pw.x -npool 4 -i  Done                     07/06/2018 10:06:02
00014 suncat0079 pw.x -npool 4 -i  Done                     07/06/2018 10:06:02
00015 suncat0079 pw.x -npool 4 -i  Done                     07/06/2018 10:06:02
00016 suncat0078 pw.x -npool 4 -i  Done                     07/06/2018 10:06:02
00017 suncat0078 pw.x -npool 4 -i  Done                     07/06/2018 10:06:02
00018 suncat0078 pw.x -npool 4 -i  Done                     07/06/2018 10:06:02
00019 suncat0078 pw.x -npool 4 -i  Done                     07/06/2018 10:06:02
00020 suncat0078 pw.x -npool 4 -i  Done                     07/06/2018 10:06:02
00021 suncat0078 pw.x -npool 4 -i  Done                     07/06/2018 10:06:02
00022 suncat0078 pw.x -npool 4 -i  Done                     07/06/2018 10:06:02
00023 suncat0078 pw.x -npool 4 -i  Done                     07/06/2018 10:06:02
00024 suncat0002 pw.x -npool 4 -i  Done                     07/06/2018 10:06:02
00025 suncat0002 pw.x -npool 4 -i  Done                     07/06/2018 10:06:02
00026 suncat0002 pw.x -npool 4 -i  Done                     07/06/2018 10:06:02
00027 suncat0002 pw.x -npool 4 -i  Done                     07/06/2018 10:06:02
00028 suncat0002 pw.x -npool 4 -i  Done                     07/06/2018 10:06:02
00029 suncat0002 pw.x -npool 4 -i  Done                     07/06/2018 10:06:02
00030 suncat0002 pw.x -npool 4 -i  Done                     07/06/2018 10:06:02
00031 suncat0002 pw.x -npool 4 -i  Done                     07/06/2018 10:06:02