     Program PWSCF v.5.1rc2 (svn rev. 11289) starts on  2May2018 at 16:34:35

     Current dimensions of program PWSCF are:
     Max number of different atomic species (ntypx) = 10
     Max number of k-points (npk) =  40000
     Max angular momentum in pseudopotentials (lmaxx) =  3
     Presently stress not available with electric field

     IMPORTANT: XC functional enforced from input :
     Exchange-correlation      = BEEF-VDW ( 1  4 27 13 2)
     Any further DFT definition will be discarded
     Please, verify this is what you really want

     Subspace diagonalization in iterative solution of the eigenvalue problem:
     a serial algorithm will be used

     bravais-lattice index     =            0
     lattice parameter (alat)  =       1.8897  a.u.
     unit-cell volume          =    4301.6107 (a.u.)^3
     number of atoms/cell      =           13
     number of atomic types    =            2
     number of electrons       =       185.00
     number of Kohn-Sham states=          102
     kinetic-energy cutoff     =      36.7493  Ry
     charge density cutoff     =     367.4932  Ry
     convergence threshold     =      1.0E-05
     mixing beta               =       0.3000
     number of iterations used =           10  plain     mixing
     Exchange-correlation      = BEEF-VDW ( 1  4 27 13 2)
     nstep                     =           50

     celldm(1)=   1.889726  celldm(2)=   0.000000  celldm(3)=   0.000000
     celldm(4)=   0.000000  celldm(5)=   0.000000  celldm(6)=   0.000000

     crystal axes: (cart. coord. in units of alat)
               a(1) = (   5.483647   0.000000   0.000000 )
               a(2) = (   2.741823   4.748977   0.000000 )
               a(3) = (   0.000000   0.000000  24.477379 )

     reciprocal axes: (cart. coord. in units 2 pi/alat)
               b(1) = (  0.182360 -0.105286  0.000000 )
               b(2) = (  0.000000  0.210572  0.000000 )
               b(3) = (  0.000000  0.000000  0.040854 )

     PseudoPot. # 1 for Tc read from file:
     /u/if/mamunm/psp/gbrv1.5pbe/Tc.UPF
     MD5 check sum: 9eb49e5b028550b2339a02317eb7b844
     Pseudo is Ultrasoft + core correction, Zval = 15.0
     Generated by new atomic code, or converted to UPF format
     Using radial grid of  965 points,  6 beta functions with:
                l(1) =   0
                l(2) =   0
                l(3) =   1
                l(4) =   1
                l(5) =   2
                l(6) =   2
     Q(r) pseudized with  8 coefficients,  rinner =    1.300   1.300   1.300
                                                       1.300   1.300

     PseudoPot. # 2 for N  read from file:
     /u/if/mamunm/psp/gbrv1.5pbe/N.UPF
     MD5 check sum: 95339753478d7afb44899504a8723017
     Pseudo is Ultrasoft + core correction, Zval =  5.0
     Generated by new atomic code, or converted to UPF format
     Using radial grid of  729 points,  4 beta functions with:
                l(1) =   0
                l(2) =   0
                l(3) =   1
                l(4) =   1
     Q(r) pseudized with  8 coefficients,  rinner =    0.900   0.900   0.900

     vdW kernel table read from file vdW_kernel_table
     MD5 check sum: 095c7af220d748ca6e76c0b4c6cfb241

     atomic species   valence    mass     pseudopotential
        Tc1           15.00    97.90721     Tc( 1.00)
        N1             5.00    14.00700     N ( 1.00)

     No symmetry found

   Cartesian axes

     site n.     atom                  positions (alat units)
         1           Tc1 tau(   1) = (   1.3709117   0.7914962  10.0000000  )
         2           Tc1 tau(   2) = (   4.1127351   0.7914962  10.0000000  )
         3           Tc1 tau(   3) = (   2.7418234   3.1659850  10.0000000  )
         4           Tc1 tau(   4) = (   5.4836469   3.1659850  10.0000000  )
         5           Tc1 tau(   5) = (   5.4836469   1.5829925  12.2386895  )
         6           Tc1 tau(   6) = (   2.7418234   1.5829925  12.2386895  )
         7           Tc1 tau(   7) = (   6.8545586   3.9574812  12.2386895  )
         8           Tc1 tau(   8) = (   4.1127351   3.9574812  12.2386895  )
         9           Tc1 tau(   9) = (   0.0000000   0.0000000  14.4773789  )
        10           Tc1 tau(  10) = (   2.7418234   0.0000000  14.4773789  )
        11           Tc1 tau(  11) = (   1.3709117   2.3744887  14.4773789  )
        12           Tc1 tau(  12) = (   4.1127351   2.3744887  14.4773789  )
        13           N1  tau(  13) = (   1.3709117   0.7914962  15.8943789  )

     number of k points=    20  Fermi-Dirac smearing, width (Ry)=  0.0110
                       cart. coord. in units 2pi/alat
        k(    1) = (   0.0000000   0.0000000   0.0000000), wk =   0.0555556
        k(    2) = (   0.0000000   0.0350953   0.0000000), wk =   0.1111111
        k(    3) = (   0.0000000   0.0701905   0.0000000), wk =   0.1111111
        k(    4) = (   0.0000000  -0.1052858   0.0000000), wk =   0.0555556
        k(    5) = (   0.0303934  -0.0175476   0.0000000), wk =   0.1111111
        k(    6) = (   0.0303934   0.0175476   0.0000000), wk =   0.1111111
        k(    7) = (   0.0303934   0.0526429   0.0000000), wk =   0.1111111
        k(    8) = (   0.0303934  -0.1228335   0.0000000), wk =   0.1111111
        k(    9) = (   0.0303934  -0.0877382   0.0000000), wk =   0.1111111
        k(   10) = (   0.0303934  -0.0526429   0.0000000), wk =   0.1111111
        k(   11) = (   0.0607868  -0.0350953   0.0000000), wk =   0.1111111
        k(   12) = (   0.0607868   0.0000000   0.0000000), wk =   0.1111111
        k(   13) = (   0.0607868   0.0350953   0.0000000), wk =   0.1111111
        k(   14) = (   0.0607868  -0.1403811   0.0000000), wk =   0.1111111
        k(   15) = (   0.0607868  -0.1052858   0.0000000), wk =   0.1111111
        k(   16) = (   0.0607868  -0.0701905   0.0000000), wk =   0.1111111
        k(   17) = (  -0.0911802   0.0526429   0.0000000), wk =   0.0555556
        k(   18) = (  -0.0911802   0.0877382   0.0000000), wk =   0.1111111
        k(   19) = (  -0.0911802   0.1228335   0.0000000), wk =   0.1111111
        k(   20) = (  -0.0911802  -0.0526429   0.0000000), wk =   0.0555556

     Largest allocated arrays     est. size (Mb)     dimensions
     Largest temporary arrays     est. size (Mb)     dimensions

     Check: negative/imaginary core charge=   -0.000022    0.000000

     Initial potential from superposition of free atoms
     Check: negative starting charge=   -1.504918

     starting charge  172.99966, renormalised to  185.00000

     negative rho (up, down):  1.609E+00 0.000E+00

     *
     * You are using vdW-DF for exchange-correlation in this calculation.
     * Please cite the following three references that made this development
     * possible:
     *
     *   M. Dion, H. Rydberg, E. Schroder, D. C. Langreth, and
     *   B. I. Lundqvist, Phys. Rev. Lett. 92, 246401 (2004).
     *
     *   T. Thonhauser, V. R. Cooper, S. Li, A. Puzder, P. Hyldgaard, and
     *   D. C. Langreth, Phys. Rev. B 76, 125112 (2007).
     *
     *   G. Roman-Perez and J. M. Soler, Phys. Rev. Lett. 103, 096102 (2009).
     *
     *
     * If you are using vdW-DF2, please also cite:
     *
     *   K. Lee, E. D. Murray, L. Kong, B. I. Lundqvist, and
     *   D. C. Langreth, Phys. Rev. B 82, 081101(R) (2010).
     *
     *
     * If you are calculating the stress with vdW-DF, please also cite:
     *
     *   R. Sabatini, E. Kucukbenli, B. Kolb, T. Thonhauser, and
     *   S. de Gironcoli, J. Phys.: Condens. Matter 24, 424209 (2012).
     *

     Carrying out vdW-DF run using the following parameters:

     Nqs =      20    Nr_points =    1024   r_max =   100.000
     q_mesh =
               0.00001000     0.04494208     0.09755937     0.15916263
               0.23128650     0.31572767     0.41458969     0.53033537
               0.66584808     0.82450364     1.01025438     1.22772762
               1.48234092     1.78043706     2.12944203     2.53805004
               3.01644009     3.57652955     4.23227104     5.00000000

     Gradients computed in reciprocal space

     Adding external electric field

     Computed dipole along edir(3) :
        Dipole               -2.3959 Ry au,         -6.0899 Debye
        Dipole field         -0.0070 Ry au

        Potential amp.        0.6313 Ry
        Total length         45.0992 bohr

     Starting wfc are  160 randomized atomic wfcs

     Self-consistent Calculation

     iteration #  1     ecut=    36.75 Ry     beta=0.30
     Davidson diagonalization with overlap
     ethr =  1.00E-02,  avg # of iterations =  7.3

[...]

     total energy              =   -1979.86320452 Ry
     Harris-Foulkes estimate   =   -2123.81365858 Ry
     estimated scf accuracy    <     302.24901025 Ry

[...]

     End of self-consistent calculation

          k = 0.0000 0.0000 0.0000 ( 16073 PWs)   bands (ev):

   -65.1087 -65.0080 -64.9480 -64.9474 -64.9270 -64.9127 -64.9126 -64.8296
   -64.7543 -64.7150 -64.7007 -64.7000 -37.5665 -37.5309 -37.5305 -37.5084
   -37.4233 -37.4054 -37.4050 -37.2472 -37.2468 -37.2461 -36.9619 -36.9413
   -36.9411 -36.8718 -36.8318 -36.8316 -36.8138 -36.8085 -36.8083 -36.7898
   -36.6781 -36.6778 -36.6730 -36.6427 -36.6423 -36.6419 -36.5776 -36.5639
   -36.5638 -36.4982 -36.4980 -36.4980 -36.4451 -36.4448 -36.2998 -36.2998
   -11.3795  -4.2639  -3.1195  -3.1194  -3.1084  -2.9478  -2.8736  -2.6877
    -2.6875  -2.6490  -2.5113  -2.4239  -2.4236  -2.1816  -2.1815  -2.1626
    -1.2892  -1.2891  -0.9718  -0.3592  -0.3591  -0.0438   0.0405   0.0405
     0.1716   0.4496   0.5006   0.5006   0.8203   0.8205   0.8897   0.9935
     0.9935   1.1278   1.1278   1.3085   1.5487   1.6747   1.6750   2.3869
     2.5032   2.5450   2.5450   2.8725   2.8726   3.0272   3.0274   3.4047
     3.4047   3.4153   3.7408   4.0830   4.0833   4.2072

[...]

          k =-0.0912 0.0526 0.0000 ( 16164 PWs)   bands (ev):

[...]

     the Fermi energy is     2.1837 ev

!    total energy              =   -2123.68282046 Ry
     Harris-Foulkes estimate   =   -2123.68282088 Ry
     estimated scf accuracy    <       0.00000789 Ry

     The total energy is the sum of the following terms:

     one-electron contribution =  -19096.12748670 Ry
     hartree contribution      =    9547.34620642 Ry
     xc contribution           =    -402.35070627 Ry
     ewald contribution        =    7827.53750408 Ry
     electric field correction =       0.00016976 Ry
     smearing contrib. (-TS)   =      -0.08850774 Ry

     convergence has been achieved in  23 iterations

 BEEF-vdW xc energy contributions
           1 :   -352.444270044481
           2 :    323.968602912865
           3 :   -273.359347653803
           4 :    210.808400236971
           5 :   -147.155195395415
           6 :    90.9036778146778
           7 :   -46.5810853037439
           8 :    14.6390007619539
           9 :    7.28282521529377
          10 :   -22.5043961806402
          11 :    33.6250296743285
          12 :   -41.6612401868699
          13 :    46.1202510942004
          14 :   -45.8142095769347
          15 :    39.9070457563864
          16 :   -28.7240495244387
          17 :    13.9845941924475
          18 :    1.58495511368591
          19 :   -15.0698843989328
          20 :    24.2371714007837
          21 :   -28.1103539806852
          22 :    27.0368835646839
          23 :   -22.2959525740608
          24 :    15.4696292820882
          25 :   -7.88357554442780
          26 :   0.338656769239378
          27 :    6.81150211362535
          28 :   -13.3660038973834
          29 :    18.9763695888753
          30 :   -23.0269402937429
          31 :   -33.6239194703845
          32 :   -24.6676350753837

     Forces acting on atoms (Ry/au):

     negative rho (up, down):  1.591E+00 0.000E+00
     atom    1 type  1   force =    -0.00002233    0.00001110    0.03026138
     atom    2 type  1   force =     0.00003011   -0.00363894    0.02964300
     atom    3 type  1   force =    -0.00317380    0.00182559    0.02961456
     atom    4 type  1   force =     0.00315311    0.00179769    0.02971828
     atom    5 type  1   force =    -0.00169390    0.00096856   -0.00124978
     atom    6 type  1   force =     0.00168141    0.00091928   -0.00121634
     atom    7 type  1   force =    -0.00002925    0.00002876   -0.05788479
     atom    8 type  1   force =     0.00001653   -0.00191519   -0.00119492
     atom    9 type  1   force =     0.01913803    0.01106999    0.04422450
     atom   10 type  1   force =    -0.01912476    0.01103644    0.04431680
     atom   11 type  1   force =    -0.00003494   -0.02209595    0.04427104
     atom   12 type  1   force =     0.00005184   -0.00000225   -0.05367220
     atom   13 type  2   force =     0.00000797   -0.00000510   -0.13683154

     Total force =     0.170141     Total SCF correction =     0.001683

     entering subroutine stress ...

     negative rho (up, down):  1.591E+00 0.000E+00
          total   stress  (Ry/bohr**3)                   (kbar)     P=  -36.42
  -0.00023555  -0.00000002   0.00000001        -34.65     -0.00      0.00
  -0.00000002  -0.00023557  -0.00000001         -0.00    -34.65     -0.00
   0.00000001  -0.00000001  -0.00027171          0.00     -0.00    -39.97

     BFGS Geometry Optimization

     number of scf cycles    =   1
     number of bfgs steps    =   0

     energy   new            =   -2123.6828204565 Ry

     new trust radius        =       0.1368315383 bohr
     new conv_thr            =       0.0000099958 Ry

ATOMIC_POSITIONS (crystal)
Tc1      0.166666667   0.166666667   0.408540475    0   0   0
Tc1      0.666666667   0.166666667   0.408540475    0   0   0
Tc1      0.166666667   0.666666667   0.408540475    0   0   0
Tc1      0.666666667   0.666666667   0.408540475    0   0   0
Tc1      0.833333333   0.333333333   0.500000000    0   0   0
Tc1      0.333333333   0.333333333   0.500000000    0   0   0
Tc1      0.833333333   0.833333333   0.500000000    0   0   0
Tc1      0.333333333   0.833333333   0.500000000    0   0   0
Tc1      0.001230075   0.001233526   0.592415616
Tc1      0.497539548   0.001229787   0.592417612
Tc1      0.001227701   0.497537855   0.592416622
Tc1      0.500005128   0.499999749   0.590299184
N1       0.166667720   0.166666099   0.646391545

     Writing output data file calc.save
     Check: negative starting charge=   -1.504918
     NEW-OLD atomic charge density approx. for the potential

     Check: negative/imaginary core charge=   -0.000022    0.000000
     Check: negative starting charge=   -1.508218

[...]

     energy   old            =   -2123.6828204565 Ry
     energy   new            =   -2123.7073993046 Ry

     CASE: energy  _new < energy  _old

[...]

     Total force =     0.009297     Total SCF correction =     0.001086
     SCF correction compared to forces is large: reduce conv_thr to get better values

[...]

     Total force =     0.003769     Total SCF correction =     0.000248

[...]

     number of scf cycles    =  12
     number of bfgs steps    =  11

     energy   old            =   -2123.7355164061 Ry
     energy   new            =   -2123.7355395815 Ry

     CASE: energy  _new < energy  _old

     new trust radius        =       0.0102823012 bohr
     new conv_thr            =       0.0000001000 Ry

ATOMIC_POSITIONS (crystal)
Tc1      0.166666667   0.166666667   0.408540475    0   0   0
Tc1      0.666666667   0.166666667   0.408540475    0   0   0
Tc1      0.166666667   0.666666667   0.408540475    0   0   0
Tc1      0.666666667   0.666666667   0.408540475    0   0   0
Tc1      0.833333333   0.333333333   0.500000000    0   0   0
Tc1      0.333333333   0.333333333   0.500000000    0   0   0
Tc1      0.833333333   0.833333333   0.500000000    0   0   0
Tc1      0.333333333   0.833333333   0.500000000    0   0   0
Tc1     -0.003073694  -0.003074736   0.592617249
Tc1      0.506150298  -0.003074675   0.592616883
Tc1     -0.003073914   0.506148352   0.592616938
Tc1      0.500000283   0.499998492   0.583519960
N1       0.166669044   0.166665881   0.637695969

     Writing output data file calc.save
     Check: negative starting charge=   -1.502954
     NEW-OLD atomic charge density approx. for the potential

     Check: negative/imaginary core charge=   -0.000022    0.000000
     Check: negative starting charge=   -1.502741

[...]

     Self-consistent Calculation

[...]

     total energy              =   -2123.73556161 Ry
     Harris-Foulkes estimate   =   -2123.73556161 Ry
     estimated scf accuracy    <       0.00000015 Ry

     iteration # 11     ecut=    36.75 Ry     beta=0.30
     Davidson diagonalization with overlap
     ethr =  8.21E-11,  avg # of iterations =  4.2

[...]

     negative rho (up, down):  1.589E+00 0.000E+00

     Adding external electric field

     Computed dipole along edir(3) :
        Dipole               -0.0919 Ry au,         -0.2336 Debye
        Dipole field         -0.0003 Ry au

        Potential amp.        0.0242 Ry
        Total length         45.0992 bohr

     End of self-consistent calculation

[...]

          k = 0.0608-0.0702 0.0000 ( 16203 PWs)   bands (ev):

[...]

          k =-0.0912-0.0526 0.0000 ( 16164 PWs)   bands (ev):

   -64.8606 -64.8585 -64.7969 -64.7840 -64.7762 -64.7466 -64.7299 -64.5880
   -64.5714 -64.5381 -64.4921 -64.4759 -37.3234 -37.2543 -37.1848 -37.1513
   -37.1247 -37.1185 -37.0556 -36.9731 -36.9397 -36.9003 -36.8836 -36.8619
   -36.8199 -36.8081 -36.7830 -36.6615 -36.6603 -36.6365 -36.6176 -36.5978
   -36.5936 -36.5612 -36.5264 -36.5216 -36.5159 -36.4815 -36.4598 -36.4586
   -36.4361 -36.4015 -36.3889 -36.3656 -36.3174 -36.3119 -36.1984 -36.1734
   -12.2468  -3.2897  -2.6005  -2.4625  -2.4358  -2.2803  -1.9801  -1.9009
    -1.7531  -1.6259  -1.5853  -1.4598  -1.3459  -1.2142  -1.0997  -1.0670
    -0.9852  -0.8943  -0.6891  -0.5373  -0.3730  -0.2556  -0.1623  -0.1227
    -0.0906   0.0583   0.3353   0.5030   0.6112   0.6346   0.9515   0.9822
     0.9929   1.0144   1.1481   1.1921   1.1927   1.2991   1.3237   1.3815
     1.4092   1.9549   2.0633   2.1616   2.2267   2.2484   2.3822   2.5075
     2.6808   2.8070   2.9047   2.9415   3.0277   3.0620

     the Fermi energy is     2.3884 ev

!    total energy              =   -2123.73556155 Ry
     Harris-Foulkes estimate   =   -2123.73556171 Ry
     estimated scf accuracy    <       0.00000010 Ry

     The total energy is the sum of the following terms:

     one-electron contribution =  -19252.90735638 Ry
     hartree contribution      =    9626.63963245 Ry
     xc contribution           =    -402.66324418 Ry
     ewald contribution        =    7905.28264616 Ry
     electric field correction =       0.00002468 Ry
     smearing contrib. (-TS)   =      -0.08726428 Ry

     convergence has been achieved in  11 iterations

 BEEF-vdW xc energy contributions
           1 :   -352.761981575969
           2 :    324.377293948551
           3 :   -273.877094381643
           4 :    211.367660282549
           5 :   -147.640968645130
           6 :    91.2055787532767
           7 :   -46.6365875687929
           8 :    14.4581010634419
           9 :    7.61771428407064
          10 :   -22.8688627694997
          11 :    33.9013159795744
          12 :   -41.7824783950398
          13 :    46.0931760540903
          14 :   -45.7086787075737
          15 :    39.8177971413168
          16 :   -28.7250987812787
          17 :    14.0948439851387
          18 :    1.40857074316898
          19 :   -14.9102434725739
          20 :    24.1759446997449
          21 :   -28.1877169237047
          22 :    27.2319342819133
          23 :   -22.5354535473742
          24 :    15.6596384927359
          25 :   -7.95071659249277
          26 :   0.261125187419793
          27 :    6.99615006824774
          28 :   -13.5783478214147
          29 :    19.1289898904686
          30 :   -23.0614814152822
          31 :   -33.6430133730395
          32 :   -24.7059620128199

     Forces acting on atoms (Ry/au):

     negative rho (up, down):  1.589E+00 0.000E+00
     atom    1 type  1   force =    -0.00000494    0.00001103    0.02791099
     atom    2 type  1   force =     0.00000470   -0.00354511    0.02702695
     atom    3 type  1   force =    -0.00307967    0.00177017    0.02700881
     atom    4 type  1   force =     0.00308001    0.00176470    0.02701517
     atom    5 type  1   force =     0.00383902   -0.00221612   -0.01461624
     atom    6 type  1   force =    -0.00384009   -0.00221577   -0.01461666
     atom    7 type  1   force =     0.00000047   -0.00000038   -0.06525870
     atom    8 type  1   force =    -0.00000044    0.00443273   -0.01461451
     atom    9 type  1   force =    -0.00059558   -0.00032974   -0.00020497
     atom   10 type  1   force =     0.00059585   -0.00033602   -0.00019689
     atom   11 type  1   force =    -0.00000499    0.00067451   -0.00021337
     atom   12 type  1   force =     0.00000693   -0.00001171    0.00035032
     atom   13 type  2   force =    -0.00000128    0.00000170    0.00040911

     Total force =     0.001343     Total SCF correction =     0.000355
     SCF correction compared to forces is large: reduce conv_thr to get better values

     entering subroutine stress ...

     negative rho (up, down):  1.589E+00 0.000E+00
          total   stress  (Ry/bohr**3)                   (kbar)     P=  -21.51
  -0.00015703   0.00000000  -0.00000000        -23.10      0.00     -0.00
   0.00000000  -0.00015702  -0.00000000          0.00    -23.10     -0.00
  -0.00000000  -0.00000000  -0.00012461         -0.00     -0.00    -18.33

     bfgs converged in  13 scf cycles and  12 bfgs steps
     (criteria: energy <  1.0E+00, force <  1.9E-03)

     End of BFGS Geometry Optimization

     Final energy   =   -2123.7355615537 Ry
Begin final coordinates

ATOMIC_POSITIONS (crystal)
Tc1      0.166666667   0.166666667   0.408540475    0   0   0
Tc1      0.666666667   0.166666667   0.408540475    0   0   0
Tc1      0.166666667   0.666666667   0.408540475    0   0   0
Tc1      0.666666667   0.666666667   0.408540475    0   0   0
Tc1      0.833333333   0.333333333   0.500000000    0   0   0
Tc1      0.333333333   0.333333333   0.500000000    0   0   0
Tc1      0.833333333   0.833333333   0.500000000    0   0   0
Tc1      0.333333333   0.833333333   0.500000000    0   0   0
Tc1     -0.003073694  -0.003074736   0.592617249
Tc1      0.506150298  -0.003074675   0.592616883
Tc1     -0.003073914   0.506148352   0.592616938
Tc1      0.500000283   0.499998492   0.583519960
N1       0.166669044   0.166665881   0.637695969
End final coordinates

     Writing output data file calc.save

     General routines

     Parallel routines

   This run was terminated on:  17:57:11   2May2018

   JOB DONE.
Job  /afs/slac/g/suncat/bin/suncat-tsmpirun -x LD_LIBRARY_PATH -wdir /scratch/qe800453_bNHJH pw.x -npool 4 -in pw.inp

TID   HOST_NAME   COMMAND_LINE            STATUS            TERMINATION_TIME
00000 suncat0069 pw.x -npool 4 -i  Done                     05/02/2018 17:57:11
00001 suncat0069 pw.x -npool 4 -i  Done                     05/02/2018 17:57:11
00002 suncat0069 pw.x -npool 4 -i  Done                     05/02/2018 17:57:11
00003 suncat0069 pw.x -npool 4 -i  Done                     05/02/2018 17:57:11
00004 suncat0069 pw.x -npool 4 -i  Done                     05/02/2018 17:57:11
00005 suncat0069 pw.x -npool 4 -i  Done                     05/02/2018 17:57:11
00006 suncat0069 pw.x -npool 4 -i  Done                     05/02/2018 17:57:11
00007 suncat0069 pw.x -npool 4 -i  Done                     05/02/2018 17:57:11
00008 suncat0053 pw.x -npool 4 -i  Done                     05/02/2018 17:57:11
00009 suncat0053 pw.x -npool 4 -i  Done                     05/02/2018 17:57:11
00010 suncat0053 pw.x -npool 4 -i  Done                     05/02/2018 17:57:11
00011 suncat0053 pw.x -npool 4 -i  Done                     05/02/2018 17:57:11
00012 suncat0053 pw.x -npool 4 -i  Done                     05/02/2018 17:57:11
00013 suncat0053 pw.x -npool 4 -i  Done                     05/02/2018 17:57:11
00014 suncat0053 pw.x -npool 4 -i  Done                     05/02/2018 17:57:11
00015 suncat0053 pw.x -npool 4 -i  Done                     05/02/2018 17:57:11
00016 suncat0042 pw.x -npool 4 -i  Done                     05/02/2018 17:57:11
00017 suncat0042 pw.x -npool 4 -i  Done                     05/02/2018 17:57:11
00018 suncat0042 pw.x -npool 4 -i  Done                     05/02/2018 17:57:11
00019 suncat0042 pw.x -npool 4 -i  Done                     05/02/2018 17:57:11
00020 suncat0042 pw.x -npool 4 -i  Done                     05/02/2018 17:57:11
00021 suncat0042 pw.x -npool 4 -i  Done                     05/02/2018 17:57:11
00022 suncat0042 pw.x -npool 4 -i  Done                     05/02/2018 17:57:11
00023 suncat0042 pw.x -npool 4 -i  Done                     05/02/2018 17:57:11
00024 suncat0033 pw.x -npool 4 -i  Done                     05/02/2018 17:57:11
00025 suncat0033 pw.x -npool 4 -i  Done                     05/02/2018 17:57:11
00026 suncat0033 pw.x -npool 4 -i  Done                     05/02/2018 17:57:11
00027 suncat0033 pw.x -npool 4 -i  Done                     05/02/2018 17:57:11
00028 suncat0033 pw.x -npool 4 -i  Done                     05/02/2018 17:57:11
00029 suncat0033 pw.x -npool 4 -i  Done                     05/02/2018 17:57:11
00030 suncat0033 pw.x -npool 4 -i  Done                     05/02/2018 17:57:11
00031 suncat0033 pw.x -npool 4 -i  Done                     05/02/2018 17:57:11