     Program PWSCF v.5.1rc2 (svn rev. 11289) starts on  2May2018 at 20:18:38

     Current dimensions of program PWSCF are:
     Max number of different atomic species (ntypx) = 10
     Max number of k-points (npk) =  40000
     Max angular momentum in pseudopotentials (lmaxx) =  3
     Presently stress not available with electric field

     IMPORTANT: XC functional enforced from input :
     Exchange-correlation      = BEEF-VDW ( 1  4 27 13 2)
     Any further DFT definition will be discarded
     Please, verify this is what you really want

     Subspace diagonalization in iterative solution of the eigenvalue problem:
     a serial algorithm will be used

     bravais-lattice index     =            0
     lattice parameter (alat)  =       1.8897  a.u.
     unit-cell volume          =    6082.7792 (a.u.)^3
     number of atoms/cell      =           13
     number of atomic types    =            2
     number of electrons       =       150.00
     number of Kohn-Sham states=           85
     kinetic-energy cutoff     =      36.7493  Ry
     charge density cutoff     =     367.4932  Ry
     convergence threshold     =      1.0E-05
     mixing beta               =       0.3000
     number of iterations used =           10  plain     mixing
     Exchange-correlation      = BEEF-VDW ( 1  4 27 13 2)
     nstep                     =           50

     celldm(1)=   1.889726  celldm(2)=   0.000000  celldm(3)=   0.000000
     celldm(4)=   0.000000  celldm(5)=   0.000000  celldm(6)=   0.000000

     crystal axes: (cart. coord. in units of alat)
               a(1) = (   6.421223   0.000000   0.000000 )
               a(2) = (   3.210611   5.560942   0.000000 )
               a(3) = (   0.000000   0.000000  25.242906 )

     reciprocal axes: (cart. coord. in units 2 pi/alat)
               b(1) = (  0.155734 -0.089913  0.000000 )
               b(2) = (  0.000000  0.179826  0.000000 )
               b(3) = (  0.000000  0.000000  0.039615 )

     PseudoPot. # 1 for Zr read from file:
     /u/if/mamunm/psp/gbrv1.5pbe/Zr.UPF
     MD5 check sum: 5db81b1e868ab7776c4564c113de050b
     Pseudo is Ultrasoft + core correction, Zval = 12.0
     Generated by new atomic code, or converted to UPF format
     Using radial grid of  887 points,  6 beta functions with:
                l(1) =   0
                l(2) =   0
                l(3) =   1
                l(4) =   1
                l(5) =   2
                l(6) =   2
     Q(r) pseudized with  6 coefficients,  rinner =    1.200   1.200   1.200
                                                       1.200   1.200

     PseudoPot. # 2 for S  read from file:
     /u/if/mamunm/psp/gbrv1.5pbe/S.UPF
     MD5 check sum: 88d86576ff6df21479756cfb9bdac1df
     Pseudo is Ultrasoft + core correction, Zval =  6.0
     Generated by new atomic code, or converted to UPF format
     Using radial grid of  907 points,  6 beta functions with:
                l(1) =   0
                l(2) =   0
                l(3) =   1
                l(4) =   1
                l(5) =   2
                l(6) =   2
     Q(r) pseudized with  8 coefficients,  rinner =    1.300   1.300   1.300
                                                       1.300   1.300

     vdW kernel table read from file vdW_kernel_table
     MD5 check sum: 095c7af220d748ca6e76c0b4c6cfb241

     atomic species   valence    mass     pseudopotential
        Zr1           12.00    91.22400     Zr( 1.00)
        S1             6.00    32.06000     S ( 1.00)

     No symmetry found

   Cartesian axes

     site n.     atom                  positions (alat units)
         1           Zr1 tau(   1) = (   1.6053057   0.9268237  10.0000000  )
         2           Zr1 tau(   2) = (   4.8159170   0.9268237  10.0000000  )
         3           Zr1 tau(   3) = (   3.2106113   3.7072946  10.0000000  )
         4           Zr1 tau(   4) = (   6.4212227   3.7072946  10.0000000  )
         5           Zr1 tau(   5) = (   6.4212227   1.8536473  12.6214532  )
         6           Zr1 tau(   6) = (   3.2106113   1.8536473  12.6214532  )
         7           Zr1 tau(   7) = (   8.0265283   4.6341183  12.6214532  )
         8           Zr1 tau(   8) = (   4.8159170   4.6341183  12.6214532  )
         9           Zr1 tau(   9) = (   0.0000000   0.0000000  15.2429064  )
        10           Zr1 tau(  10) = (   3.2106113   0.0000000  15.2429064  )
        11           Zr1 tau(  11) = (   1.6053057   2.7804710  15.2429064  )
        12           Zr1 tau(  12) = (   4.8159170   2.7804710  15.2429064  )
        13           S1  tau(  13) = (   1.6053057   0.9268237  17.0629064  )

     number of k points=    20  Fermi-Dirac smearing, width (Ry)=  0.0110
                       cart. coord. in units 2pi/alat
        k(    1) = (   0.0000000   0.0000000   0.0000000), wk =   0.0555556
        k(    2) = (   0.0000000   0.0299709   0.0000000), wk =   0.1111111
        k(    3) = (   0.0000000   0.0599419   0.0000000), wk =   0.1111111
        k(    4) = (   0.0000000  -0.0899128   0.0000000), wk =   0.0555556
        k(    5) = (   0.0259556  -0.0149855   0.0000000), wk =   0.1111111
        k(    6) = (   0.0259556   0.0149855   0.0000000), wk =   0.1111111
        k(    7) = (   0.0259556   0.0449564   0.0000000), wk =   0.1111111
        k(    8) = (   0.0259556  -0.1048983   0.0000000), wk =   0.1111111
        k(    9) = (   0.0259556  -0.0749274   0.0000000), wk =   0.1111111
        k(   10) = (   0.0259556  -0.0449564   0.0000000), wk =   0.1111111
        k(   11) = (   0.0519112  -0.0299709   0.0000000), wk =   0.1111111
        k(   12) = (   0.0519112   0.0000000   0.0000000), wk =   0.1111111
        k(   13) = (   0.0519112   0.0299709   0.0000000), wk =   0.1111111
        k(   14) = (   0.0519112  -0.1198838   0.0000000), wk =   0.1111111
        k(   15) = (   0.0519112  -0.0899128   0.0000000), wk =   0.1111111
        k(   16) = (   0.0519112  -0.0599419   0.0000000), wk =   0.1111111
        k(   17) = (  -0.0778668   0.0449564   0.0000000), wk =   0.0555556
        k(   18) = (  -0.0778668   0.0749274   0.0000000), wk =   0.1111111
        k(   19) = (  -0.0778668   0.1048983   0.0000000), wk =   0.1111111
        k(   20) = (  -0.0778668  -0.0449564   0.0000000), wk =   0.0555556

     Largest allocated arrays     est. size (Mb)     dimensions
     Largest temporary arrays     est. size (Mb)     dimensions

     Initial potential from superposition of free atoms
     Check: negative starting charge=   -0.729003

     starting charge  149.97417, renormalised to  150.00000

     negative rho (up, down):  7.291E-01 0.000E+00

     *
     * You are using vdW-DF for exchange-correlation in this calculation.
     * Please cite the following three references that made this development
     * possible:
     *
     *   M. Dion, H. Rydberg, E. Schroder, D. C. Langreth, and
     *   B. I. Lundqvist, Phys. Rev. Lett. 92, 246401 (2004).
     *
     *   T. Thonhauser, V. R. Cooper, S. Li, A. Puzder, P. Hyldgaard, and
     *   D. C. Langreth, Phys. Rev. B 76, 125112 (2007).
     *
     *   G. Roman-Perez and J. M. Soler, Phys. Rev. Lett. 103, 096102 (2009).
     *
     *
     * If you are using vdW-DF2, please also cite:
     *
     *   K. Lee, E. D. Murray, L. Kong, B. I. Lundqvist, and
     *   D. C. Langreth, Phys. Rev. B 82, 081101(R) (2010).
     *
     *
     * If you are calculating the stress with vdW-DF, please also cite:
     *
     *   R. Sabatini, E. Kucukbenli, B. Kolb, T. Thonhauser, and
     *   S. de Gironcoli, J. Phys.: Condens. Matter 24, 424209 (2012).
     *

     Carrying out vdW-DF run using the following parameters:

     Nqs =      20    Nr_points =    1024   r_max =   100.000
     q_mesh =
               0.00001000     0.04494208     0.09755937     0.15916263
               0.23128650     0.31572767     0.41458969     0.53033537
               0.66584808     0.82450364     1.01025438     1.22772762
               1.48234092     1.78043706     2.12944203     2.53805004
               3.01644009     3.57652955     4.23227104     5.00000000

     Gradients computed in reciprocal space

     Adding external electric field

     Computed dipole along edir(3) :
        Dipole               -0.0084 Ry au,         -0.0213 Debye
        Dipole field         -0.0000 Ry au

        Potential amp.        0.0016 Ry
        Total length         46.5096 bohr

     Starting wfc are  160 randomized atomic wfcs

     Self-consistent Calculation

     iteration #  1     ecut=    36.75 Ry     beta=0.30
     Davidson diagonalization with overlap
     ethr =  1.00E-02,  avg # of iterations =  2.0

[...]

     total energy              =   -1218.62211832 Ry
     Harris-Foulkes estimate   =   -1222.03118516 Ry
     estimated scf accuracy    <       7.16388529 Ry

[...]

     End of self-consistent calculation

          k = 0.0000 0.0000 0.0000 ( 22923 PWs)   bands (ev):

   -47.8391 -47.7971 -47.7084 -47.7080 -47.7054 -47.7028 -47.6463 -47.6461
   -47.4774 -47.4050 -47.4048 -47.3566 -26.0999 -26.0998 -26.0789 -26.0517
   -26.0515 -26.0189 -26.0161 -25.9386 -25.9011 -25.9009 -25.8257 -25.7368
   -25.6883 -25.6880 -25.5833 -25.5569 -25.5567 -25.5370 -25.5369 -25.5347
   -25.5209 -25.5208 -25.4899 -25.3666 -25.3666 -25.3327 -25.3326 -25.3148
   -25.3147 -25.3079 -25.2533 -25.2211 -25.2061 -25.2060 -25.0589 -25.0589
   -11.0542  -3.4647  -2.5343  -2.0481  -2.0480  -1.9249  -1.4366  -1.0728
    -1.0181  -1.0181  -0.8592  -0.8591  -0.7915  -0.4160  -0.4160  -0.4018
    -0.2137  -0.2136   0.0690   0.6617   0.6617   1.1742   1.4043   1.6711
     1.6711   1.7129   1.8557   2.0670   2.1512   2.1513   2.1931   2.3869
     2.3869   2.4998   2.6299   2.6330   2.6481

[...]

          k =-0.0779 0.0450 0.0000 ( 22880 PWs)   bands (ev):

[...]

     the Fermi energy is     1.4802 ev

!    total energy              =   -1221.51617379 Ry
     Harris-Foulkes estimate   =   -1221.51616187 Ry
     estimated scf accuracy    <       0.00000890 Ry

     The total energy is the sum of the following terms:

     one-electron contribution =   -8449.12461324 Ry
     hartree contribution      =    4217.50066929 Ry
     xc contribution           =    -229.39091650 Ry
     ewald contribution        =    3239.61560274 Ry
     electric field correction =       0.00007764 Ry
     smearing contrib. (-TS)   =      -0.11699372 Ry

     convergence has been achieved in  16 iterations

 BEEF-vdW xc energy contributions
           1 :   -196.410116969418
           2 :    177.588864230113
           3 :   -145.859813392702
           4 :    110.132376689165
           5 :   -78.4691608428226
           6 :    55.2950724212346
           7 :   -40.6935146475747
           8 :    31.7214186646586
           9 :   -24.7177130672297
          10 :    17.2975741879957
          11 :   -9.14826435490599
          12 :    1.52426114522558
          13 :    3.98321774381657
          14 :   -6.57806507910055
          15 :    6.69149476318634
          16 :   -5.61193488811847
          17 :    4.67002364993166
          18 :   -4.52642685019163
          19 :    4.97035281043509
          20 :   -5.27532383401012
          21 :    4.81187151828598
          22 :   -3.49774988960004
          23 :    1.82249982550351
          24 :  -0.488418968789205
          25 :  -4.942584967051289E-002
          26 :  -0.165621849492766
          27 :   0.684577655891360
          28 :  -0.988139153328319
          29 :   0.822921385502525
          30 :  -0.325544764230870
          31 :   -22.7956439348279
          32 :   -16.9498959873978

     Forces acting on atoms (Ry/au):

     negative rho (up, down):  7.494E-01 0.000E+00
     atom    1 type  1   force =     0.00000756    0.00001621    0.01471735
     atom    2 type  1   force =    -0.00000665    0.00062403    0.01510894
     atom    3 type  1   force =     0.00052799   -0.00032737    0.01510073
     atom    4 type  1   force =    -0.00052755   -0.00031908    0.01507131
     atom    5 type  1   force =    -0.00226081    0.00128651   -0.00244135
     atom    6 type  1   force =     0.00225864    0.00130964   -0.00245409
     atom    7 type  1   force =     0.00001809    0.00000504   -0.00559384
     atom    8 type  1   force =    -0.00002020   -0.00260151   -0.00245383
     atom    9 type  1   force =    -0.00866201   -0.00499217   -0.00112156
     atom   10 type  1   force =     0.00866743   -0.00498362   -0.00112707
     atom   11 type  1   force =     0.00001012    0.00998965   -0.00113432
     atom   12 type  1   force =    -0.00001048   -0.00001525   -0.02209613
     atom   13 type  2   force =    -0.00000213    0.00000793   -0.02157616

     Total force =     0.035458     Total SCF correction =     0.005493
     SCF correction compared to forces is large: reduce conv_thr to get better values

     entering subroutine stress ...

     negative rho (up, down):  7.494E-01 0.000E+00
          total   stress  (Ry/bohr**3)                   (kbar)     P=   -9.52
  -0.00004748  -0.00000000   0.00000000         -6.98     -0.00      0.00
  -0.00000000  -0.00004749   0.00000001         -0.00     -6.99      0.00
   0.00000000   0.00000001  -0.00009926          0.00      0.00    -14.60

     BFGS Geometry Optimization

     number of scf cycles    =   1
     number of bfgs steps    =   0

     energy   new            =   -1221.5161737894 Ry

     new trust radius        =       0.0220961346 bohr
     new conv_thr            =       0.0000099958 Ry

ATOMIC_POSITIONS (crystal)
Zr1      0.166666667   0.166666667   0.396150897    0   0   0
Zr1      0.666666667   0.166666667   0.396150897    0   0   0
Zr1      0.166666667   0.666666667   0.396150897    0   0   0
Zr1      0.666666667   0.666666667   0.396150897    0   0   0
Zr1      0.833333333   0.333333333   0.500000000    0   0   0
Zr1      0.333333333   0.333333333   0.500000000    0   0   0
Zr1      0.833333333   0.833333333   0.500000000    0   0   0
Zr1      0.333333333   0.833333333   0.500000000    0   0   0
Zr1     -0.000476315  -0.000475053   0.603825591
Zr1      0.500951409  -0.000474239   0.603825476
Zr1     -0.000474472   0.500950611   0.603825324
Zr1      0.499999862   0.499998549   0.603385893
S1       0.166666114   0.166667421   0.675496256

     Writing output data file calc.save
     Check: negative starting charge=   -0.729003
     NEW-OLD atomic charge density approx. for the potential
     Check: negative starting charge=   -0.729127

[...]

     Total force =     0.031572     Total SCF correction =     0.003150

[...]

     energy   old            =   -1221.5161737894 Ry
     energy   new            =   -1221.5173649304 Ry

     CASE: energy  _new < energy  _old

     WARNING: bfgs curvature condition failed, Theta= 0.900
     new trust radius        =       0.0331442019 bohr
     new conv_thr            =       0.0000001000 Ry

[...]

     iteration #  1     ecut=    36.75 Ry     beta=0.30
     Davidson diagonalization with overlap
     c_bands:  1 eigenvalues not converged
     ethr =  1.00E-06,  avg # of iterations =  9.7

[...]

     Threshold (ethr) on eigenvalues was too large:
     Diagonalizing with lowered threshold

     Davidson diagonalization with overlap
     ethr =  3.96E-08,  avg # of iterations =  4.8

[...]

     Total force =     0.004372     Total SCF correction =     0.000403

[...]

     number of scf cycles    =  14
     number of bfgs steps    =  13

     energy   old            =   -1221.5252409132 Ry
     energy   new            =   -1221.5252564668 Ry

     CASE: energy  _new < energy  _old

     new trust radius        =       0.0096075366 bohr
     new conv_thr            =       0.0000001000 Ry

ATOMIC_POSITIONS (crystal)
Zr1      0.166666667   0.166666667   0.396150897    0   0   0
Zr1      0.666666667   0.166666667   0.396150897    0   0   0
Zr1      0.166666667   0.666666667   0.396150897    0   0   0
Zr1      0.666666667   0.666666667   0.396150897    0   0   0
Zr1      0.833333333   0.333333333   0.500000000    0   0   0
Zr1      0.333333333   0.333333333   0.500000000    0   0   0
Zr1      0.833333333   0.833333333   0.500000000    0   0   0
Zr1      0.333333333   0.833333333   0.500000000    0   0   0
Zr1     -0.003615380  -0.003615102   0.601032779
Zr1      0.507221993  -0.003609896   0.601035444
Zr1     -0.003610641   0.507223238   0.601035196
Zr1      0.500000879   0.500000503   0.596929661
S1       0.166653384   0.166656222   0.669306021

     Writing output data file calc.save
     Check: negative starting charge=   -0.727862
     NEW-OLD atomic charge density approx. for the potential
     Check: negative starting charge=   -0.727956

[...]

     Self-consistent Calculation

[...]

     Threshold (ethr) on eigenvalues was too large:
     Diagonalizing with lowered threshold

     Davidson diagonalization with overlap
     ethr =  4.42E-08,  avg # of iterations =  2.2

[...]

     total energy              =   -1221.52527242 Ry
     Harris-Foulkes estimate   =   -1221.52527255 Ry
     estimated scf accuracy    <       0.00000046 Ry

     iteration #  8     ecut=    36.75 Ry     beta=0.30
     Davidson diagonalization with overlap
     ethr =  3.05E-10,  avg # of iterations =  3.0

[...]

     negative rho (up, down):  7.483E-01 0.000E+00

     Adding external electric field

     Computed dipole along edir(3) :
        Dipole               -0.1653 Ry au,         -0.4201 Debye
        Dipole field         -0.0003 Ry au

        Potential amp.        0.0318 Ry
        Total length         46.5096 bohr

     End of self-consistent calculation

[...]

          k = 0.0519-0.0599 0.0000 ( 22856 PWs)   bands (ev):

[...]

          k =-0.0779-0.0450 0.0000 ( 22880 PWs)   bands (ev):

   -47.7605 -47.7575 -47.7175 -47.7155 -47.7120 -47.6453 -47.6120 -47.5950
   -47.3955 -47.3810 -47.3560 -47.2975 -25.9646 -25.9563 -25.9353 -25.9066
   -25.8943 -25.8676 -25.8426 -25.8058 -25.8019 -25.7770 -25.7502 -25.7337
   -25.7192 -25.7181 -25.6916 -25.6677 -25.6652 -25.6621 -25.6028 -25.5824
   -25.4576 -25.4554 -25.4430 -25.4262 -25.4075 -25.3396 -25.3331 -25.3199
   -25.3031 -25.2669 -25.2445 -25.2273 -25.2191 -25.1599 -25.1003 -25.0693
   -11.1183  -2.5055  -2.1932  -2.0048  -1.8367  -1.7673  -0.9502  -0.7941
    -0.4124  -0.3984  -0.3050  -0.2940  -0.2494  -0.0082   0.3782   0.4529
     0.4896   0.4976   0.5157   0.5791   0.9090   0.9539   0.9707   0.9858
     1.0506   1.1038   1.2695   1.3687   1.4164   1.4646   1.5249   1.5966
     1.6886   1.7694   1.8127   2.1600   2.2073

     the Fermi energy is     1.4668 ev

!    total energy              =   -1221.52527248 Ry
     Harris-Foulkes estimate   =   -1221.52527293 Ry
     estimated scf accuracy    <       0.00000008 Ry

     The total energy is the sum of the following terms:

     one-electron contribution =   -8588.67609469 Ry
     hartree contribution      =    4287.43694446 Ry
     xc contribution           =    -229.56999653 Ry
     ewald contribution        =    3309.39723038 Ry
     electric field correction =       0.00005643 Ry
     smearing contrib. (-TS)   =      -0.11341252 Ry

     convergence has been achieved in   8 iterations

 BEEF-vdW xc energy contributions
           1 :   -196.589985243282
           2 :    177.823316364945
           3 :   -146.146172912713
           4 :    110.403497892749
           5 :   -78.6381319224276
           6 :    55.3149585193356
           7 :   -40.5900374103098
           8 :    31.5789739292568
           9 :   -24.6305203670736
          10 :    17.3163885986324
          11 :   -9.25264797081246
          12 :    1.63615028644540
          13 :    3.95076085775611
          14 :   -6.66482602942301
          15 :    6.86294619986506
          16 :   -5.78113219602872
          17 :    4.75570145768205
          18 :   -4.50736983549325
          19 :    4.89757146995262
          20 :   -5.23436753282522
          21 :    4.86337656835047
          22 :   -3.63762239980372
          23 :    1.98692282454050
          24 :  -0.597535105521104
          25 :  -3.947037853615143E-002
          26 :  -9.544908779298567E-002
          27 :   0.601758660067276
          28 :  -0.963267397345362
          29 :   0.883657460606372
          30 :  -0.440367661424091
          31 :   -22.8094542028092
          32 :   -16.9736833659930

     Forces acting on atoms (Ry/au):

     negative rho (up, down):  7.483E-01 0.000E+00
     atom    1 type  1   force =     0.00000114    0.00000064    0.01122819
     atom    2 type  1   force =     0.00000063    0.00139389    0.01330404
     atom    3 type  1   force =     0.00120749   -0.00069638    0.01330418
     atom    4 type  1   force =    -0.00120565   -0.00069605    0.01330314
     atom    5 type  1   force =     0.00212820   -0.00122522   -0.01104890
     atom    6 type  1   force =    -0.00212326   -0.00122593   -0.01104483
     atom    7 type  1   force =    -0.00000294   -0.00000128   -0.01736798
     atom    8 type  1   force =     0.00000304    0.00245540   -0.01104847
     atom    9 type  1   force =     0.00067652    0.00039079    0.00024484
     atom   10 type  1   force =    -0.00067969    0.00039010    0.00024716
     atom   11 type  1   force =    -0.00000221   -0.00078444    0.00024792
     atom   12 type  1   force =    -0.00000043    0.00000027   -0.00004922
     atom   13 type  2   force =    -0.00000283   -0.00000179   -0.00132006

     Total force =     0.001941     Total SCF correction =     0.000434
     SCF correction compared to forces is large: reduce conv_thr to get better values

     entering subroutine stress ...

     negative rho (up, down):  7.483E-01 0.000E+00
          total   stress  (Ry/bohr**3)                   (kbar)     P=   -4.01
  -0.00001921  -0.00000000   0.00000000         -2.83     -0.00      0.00
  -0.00000000  -0.00001921   0.00000000         -0.00     -2.83      0.00
   0.00000000   0.00000000  -0.00004337          0.00      0.00     -6.38

     bfgs converged in  15 scf cycles and  14 bfgs steps
     (criteria: energy <  1.0E+00, force <  1.9E-03)

     End of BFGS Geometry Optimization

     Final energy   =   -1221.5252724797 Ry
Begin final coordinates

ATOMIC_POSITIONS (crystal)
Zr1      0.166666667   0.166666667   0.396150897    0   0   0
Zr1      0.666666667   0.166666667   0.396150897    0   0   0
Zr1      0.166666667   0.666666667   0.396150897    0   0   0
Zr1      0.666666667   0.666666667   0.396150897    0   0   0
Zr1      0.833333333   0.333333333   0.500000000    0   0   0
Zr1      0.333333333   0.333333333   0.500000000    0   0   0
Zr1      0.833333333   0.833333333   0.500000000    0   0   0
Zr1      0.333333333   0.833333333   0.500000000    0   0   0
Zr1     -0.003615380  -0.003615102   0.601032779
Zr1      0.507221993  -0.003609896   0.601035444
Zr1     -0.003610641   0.507223238   0.601035196
Zr1      0.500000879   0.500000503   0.596929661
S1       0.166653384   0.166656222   0.669306021
End final coordinates

     Writing output data file calc.save

     General routines

     Parallel routines

   This run was terminated on:  22:12:26   2May2018

   JOB DONE.
Job  /afs/slac/g/suncat/bin/suncat-tsmpirun -x LD_LIBRARY_PATH -wdir /scratch/qe135475_vn3EX pw.x -npool 4 -in pw.inp

TID   HOST_NAME   COMMAND_LINE            STATUS            TERMINATION_TIME
00000 suncat0182 pw.x -npool 4 -i  Done                     05/02/2018 22:12:26
00001 suncat0182 pw.x -npool 4 -i  Done                     05/02/2018 22:12:26
00002 suncat0182 pw.x -npool 4 -i  Done                     05/02/2018 22:12:26
00003 suncat0182 pw.x -npool 4 -i  Done                     05/02/2018 22:12:26
00004 suncat0182 pw.x -npool 4 -i  Done                     05/02/2018 22:12:26
00005 suncat0182 pw.x -npool 4 -i  Done                     05/02/2018 22:12:26
00006 suncat0182 pw.x -npool 4 -i  Done                     05/02/2018 22:12:26
00007 suncat0182 pw.x -npool 4 -i  Done                     05/02/2018 22:12:26
00008 suncat0173 pw.x -npool 4 -i  Done                     05/02/2018 22:12:26
00009 suncat0173 pw.x -npool 4 -i  Done                     05/02/2018 22:12:26
00010 suncat0173 pw.x -npool 4 -i  Done                     05/02/2018 22:12:26
00011 suncat0173 pw.x -npool 4 -i  Done                     05/02/2018 22:12:26
00012 suncat0173 pw.x -npool 4 -i  Done                     05/02/2018 22:12:26
00013 suncat0173 pw.x -npool 4 -i  Done                     05/02/2018 22:12:26
00014 suncat0173 pw.x -npool 4 -i  Done                     05/02/2018 22:12:26
00015 suncat0173 pw.x -npool 4 -i  Done                     05/02/2018 22:12:26
00016 suncat0244 pw.x -npool 4 -i  Done                     05/02/2018 22:12:26
00017 suncat0244 pw.x -npool 4 -i  Done                     05/02/2018 22:12:26
00018 suncat0244 pw.x -npool 4 -i  Done                     05/02/2018 22:12:26
00019 suncat0244 pw.x -npool 4 -i  Done                     05/02/2018 22:12:26
00020 suncat0244 pw.x -npool 4 -i  Done                     05/02/2018 22:12:26
00021 suncat0244 pw.x -npool 4 -i  Done                     05/02/2018 22:12:26
00022 suncat0244 pw.x -npool 4 -i  Done                     05/02/2018 22:12:26
00023 suncat0244 pw.x -npool 4 -i  Done                     05/02/2018 22:12:26
00024 suncat0243 pw.x -npool 4 -i  Done                     05/02/2018 22:12:26
00025 suncat0243 pw.x -npool 4 -i  Done                     05/02/2018 22:12:26
00026 suncat0243 pw.x -npool 4 -i  Done                     05/02/2018 22:12:26
00027 suncat0243 pw.x -npool 4 -i  Done                     05/02/2018 22:12:26
00028 suncat0243 pw.x -npool 4 -i  Done                     05/02/2018 22:12:26
00029 suncat0243 pw.x -npool 4 -i  Done                     05/02/2018 22:12:26
00030 suncat0243 pw.x -npool 4 -i  Done                     05/02/2018 22:12:26
00031 suncat0243 pw.x -npool 4 -i  Done                     05/02/2018 22:12:26