     Program PWSCF v.5.1rc2 (svn rev. 11289) starts on  3May2018 at 16:38:52

     Current dimensions of program PWSCF are:
     Max number of different atomic species (ntypx) = 10
     Max number of k-points (npk) =  40000
     Max angular momentum in pseudopotentials (lmaxx) =  3
     Presently stress not available with electric field

     IMPORTANT: XC functional enforced from input :
     Exchange-correlation      = BEEF-VDW ( 1  4 27 13 2)
     Any further DFT definition will be discarded
     Please, verify this is what you really want

     Subspace diagonalization in iterative solution of the eigenvalue problem:
     a serial algorithm will be used

     bravais-lattice index     =            0
     lattice parameter (alat)  =       1.8897  a.u.
     unit-cell volume          =    6024.3322 (a.u.)^3
     number of atoms/cell      =           13
     number of atomic types    =            2
     number of electrons       =       150.00
     number of Kohn-Sham states=           85
     kinetic-energy cutoff     =      36.7493  Ry
     charge density cutoff     =     367.4932  Ry
     convergence threshold     =      1.0E-05
     mixing beta               =       0.3000
     number of iterations used =           10  plain     mixing
     Exchange-correlation      = BEEF-VDW ( 1  4 27 13 2)
     nstep                     =           50

     celldm(1)=   1.889726  celldm(2)=   0.000000  celldm(3)=   0.000000
     celldm(4)=   0.000000  celldm(5)=   0.000000  celldm(6)=   0.000000

     crystal axes: (cart. coord. in units of alat)
               a(1) = (   6.393197   0.000000   0.000000 )
               a(2) = (   3.196599   5.536671   0.000000 )
               a(3) = (   0.000000   0.000000  25.220024 )

     reciprocal axes: (cart. coord. in units 2 pi/alat)
               b(1) = (  0.156416 -0.090307  0.000000 )
               b(2) = (  0.000000  0.180614  0.000000 )
               b(3) = (  0.000000  0.000000  0.039651 )

     PseudoPot. # 1 for Hf read from file:
     /u/if/mamunm/psp/gbrv1.5pbe/Hf.UPF
     MD5 check sum: 8ee9378dfe14276e333edf04c5e4aa26
     Pseudo is Ultrasoft + core correction, Zval = 12.0
     Generated by new atomic code, or converted to UPF format
     Using radial grid of  921 points,  8 beta functions with:
                l(1) =   0
                l(2) =   0
                l(3) =   0
                l(4) =   1
                l(5) =   1
                l(6) =   2
                l(7) =   2
                l(8) =   3
     Q(r) pseudized with  6 coefficients,  rinner =    1.200   1.200   1.200
                                                       1.200   1.200   1.200
                                                       1.200

     PseudoPot. # 2 for S  read from file:
     /u/if/mamunm/psp/gbrv1.5pbe/S.UPF
     MD5 check sum: 88d86576ff6df21479756cfb9bdac1df
     Pseudo is Ultrasoft + core correction, Zval =  6.0
     Generated by new atomic code, or converted to UPF format
     Using radial grid of  907 points,  6 beta functions with:
                l(1) =   0
                l(2) =   0
                l(3) =   1
                l(4) =   1
                l(5) =   2
                l(6) =   2
     Q(r) pseudized with  8 coefficients,  rinner =    1.300   1.300   1.300
                                                       1.300   1.300

     vdW kernel table read from file vdW_kernel_table
     MD5 check sum: 095c7af220d748ca6e76c0b4c6cfb241

     atomic species   valence    mass     pseudopotential
        Hf1           12.00   178.49000     Hf( 1.00)
        S1             6.00    32.06000     S ( 1.00)

     No symmetry found

   Cartesian axes

     site n.     atom                  positions (alat units)
         1           Hf1 tau(   1) = (   1.5982993   0.9227785  10.0000000  )
         2           Hf1 tau(   2) = (   4.7948978   0.9227785  10.0000000  )
         3           Hf1 tau(   3) = (   3.1965986   3.6911141  10.0000000  )
         4           Hf1 tau(   4) = (   6.3931971   3.6911141  10.0000000  )
         5           Hf1 tau(   5) = (   6.3931971   1.8455570  12.6100118  )
         6           Hf1 tau(   6) = (   3.1965986   1.8455570  12.6100118  )
         7           Hf1 tau(   7) = (   7.9914964   4.6138926  12.6100118  )
         8           Hf1 tau(   8) = (   4.7948978   4.6138926  12.6100118  )
         9           Hf1 tau(   9) = (   0.0000000   0.0000000  15.2200236  )
        10           Hf1 tau(  10) = (   3.1965986   0.0000000  15.2200236  )
        11           Hf1 tau(  11) = (   1.5982993   2.7683356  15.2200236  )
        12           Hf1 tau(  12) = (   4.7948978   2.7683356  15.2200236  )
        13           S1  tau(  13) = (   0.0000000   0.0000000  17.6000236  )

     number of k points=    20  Fermi-Dirac smearing, width (Ry)=  0.0110
                       cart. coord. in units 2pi/alat
        k(    1) = (   0.0000000   0.0000000   0.0000000), wk =   0.0555556
        k(    2) = (   0.0000000   0.0301023   0.0000000), wk =   0.1111111
        k(    3) = (   0.0000000   0.0602046   0.0000000), wk =   0.1111111
        k(    4) = (   0.0000000  -0.0903070   0.0000000), wk =   0.0555556
        k(    5) = (   0.0260694  -0.0150512   0.0000000), wk =   0.1111111
        k(    6) = (   0.0260694   0.0150512   0.0000000), wk =   0.1111111
        k(    7) = (   0.0260694   0.0451535   0.0000000), wk =   0.1111111
        k(    8) = (   0.0260694  -0.1053581   0.0000000), wk =   0.1111111
        k(    9) = (   0.0260694  -0.0752558   0.0000000), wk =   0.1111111
        k(   10) = (   0.0260694  -0.0451535   0.0000000), wk =   0.1111111
        k(   11) = (   0.0521388  -0.0301023   0.0000000), wk =   0.1111111
        k(   12) = (   0.0521388   0.0000000   0.0000000), wk =   0.1111111
        k(   13) = (   0.0521388   0.0301023   0.0000000), wk =   0.1111111
        k(   14) = (   0.0521388  -0.1204093   0.0000000), wk =   0.1111111
        k(   15) = (   0.0521388  -0.0903070   0.0000000), wk =   0.1111111
        k(   16) = (   0.0521388  -0.0602046   0.0000000), wk =   0.1111111
        k(   17) = (  -0.0782081   0.0451535   0.0000000), wk =   0.0555556
        k(   18) = (  -0.0782081   0.0752558   0.0000000), wk =   0.1111111
        k(   19) = (  -0.0782081   0.1053581   0.0000000), wk =   0.1111111
        k(   20) = (  -0.0782081  -0.0451535   0.0000000), wk =   0.0555556

     Largest allocated arrays     est. size (Mb)     dimensions
     Largest temporary arrays     est. size (Mb)     dimensions

     Check: negative/imaginary core charge=   -0.000003    0.000000

     Initial potential from superposition of free atoms
     Check: negative starting charge=   -1.301306

     starting charge  125.99994, renormalised to  150.00000

     negative rho (up, down):  1.549E+00 0.000E+00

     *
     * You are using vdW-DF for exchange-correlation in this calculation.
     * Please cite the following three references that made this development
     * possible:
     *
     *   M. Dion, H. Rydberg, E. Schroder, D. C. Langreth, and
     *   B. I. Lundqvist, Phys. Rev. Lett. 92, 246401 (2004).
     *
     *   T. Thonhauser, V. R. Cooper, S. Li, A. Puzder, P. Hyldgaard, and
     *   D. C. Langreth, Phys. Rev. B 76, 125112 (2007).
     *
     *   G. Roman-Perez and J. M. Soler, Phys. Rev. Lett. 103, 096102 (2009).
     *
     *
     * If you are using vdW-DF2, please also cite:
     *
     *   K. Lee, E. D. Murray, L. Kong, B. I. Lundqvist, and
     *   D. C. Langreth, Phys. Rev. B 82, 081101(R) (2010).
     *
     *
     * If you are calculating the stress with vdW-DF, please also cite:
     *
     *   R. Sabatini, E. Kucukbenli, B. Kolb, T. Thonhauser, and
     *   S. de Gironcoli, J. Phys.: Condens. Matter 24, 424209 (2012).
     *

     Carrying out vdW-DF run using the following parameters:

     Nqs =      20    Nr_points =    1024   r_max =   100.000
     q_mesh =
               0.00001000     0.04494208     0.09755937     0.15916263
               0.23128650     0.31572767     0.41458969     0.53033537
               0.66584808     0.82450364     1.01025438     1.22772762
               1.48234092     1.78043706     2.12944203     2.53805004
               3.01644009     3.57652955     4.23227104     5.00000000

     Gradients computed in reciprocal space

     Adding external electric field

     Computed dipole along edir(3) :
        Dipole              -10.7765 Ry au,        -27.3911 Debye
        Dipole field         -0.0225 Ry au

        Potential amp.        2.0891 Ry
        Total length         46.4675 bohr

     Starting wfc are  160 randomized atomic wfcs

     Self-consistent Calculation

     iteration #  1     ecut=    36.75 Ry     beta=0.30
     Davidson diagonalization with overlap
     ethr =  1.00E-02,  avg # of iterations =  9.8

[...]

     total energy              =   -1283.66393623 Ry
     Harris-Foulkes estimate   =   -1942.24225409 Ry
     estimated scf accuracy    <    1415.04635085 Ry

[...]

     End of self-consistent calculation

          k = 0.0000 0.0000 0.0000 ( 22729 PWs)   bands (ev):

   -61.5523 -61.5266 -61.5263 -61.3996 -61.3698 -61.3608 -61.3603 -61.0171
   -60.9839 -60.9836 -60.9806 -60.9573 -30.2371 -30.2180 -30.2178 -30.2178
   -30.1463 -30.1462 -30.1427 -30.1424 -30.1422 -30.0344 -29.9704 -29.9427
   -29.9424 -29.9117 -29.7693 -29.7691 -29.7656 -29.7374 -29.7372 -29.7341
   -29.7117 -29.7116 -29.6082 -29.6082 -29.5537 -29.5007 -29.5006 -29.4695
   -29.4370 -29.4369 -29.3851 -29.3712 -29.3711 -29.3658 -29.2498 -29.2498
   -10.4487  -5.2832  -3.9813  -2.6933  -1.9585  -1.8399  -1.8398  -1.5958
    -1.5957  -1.5915  -1.2978  -1.1568  -1.1568  -0.9994  -0.9993  -0.7825
    -0.4296  -0.4296  -0.3981   0.2457   0.4941   0.4941   1.2241   1.4253
     1.5519   1.6584   1.6585   1.6665   1.8894   1.8894   1.9760   2.2299
     2.3255   2.4301   2.4302   2.4834   2.4835

[...]

          k =-0.0782 0.0452 0.0000 ( 22668 PWs)   bands (ev):

[...]

     the Fermi energy is     1.2342 ev

!    total energy              =   -1951.13601442 Ry
     Harris-Foulkes estimate   =   -1951.13605752 Ry
     estimated scf accuracy    <       0.00000523 Ry

     The total energy is the sum of the following terms:

     one-electron contribution =   -8448.76232464 Ry
     hartree contribution      =    4208.57941948 Ry
     xc contribution           =    -936.41945847 Ry
     ewald contribution        =    3225.57728006 Ry
     electric field correction =       0.00019486 Ry
     smearing contrib. (-TS)   =      -0.11112571 Ry

     convergence has been achieved in  39 iterations

 BEEF-vdW xc energy contributions
           1 :   -846.052651088950
           2 :    785.939981458714
           3 :   -679.517785115250
           4 :    548.882503664231
           5 :   -416.812789386502
           6 :    300.415485846167
           7 :   -208.363059795082
           8 :    141.804319576808
           9 :   -97.4073832161944
          10 :    70.3660083710465
          11 :   -56.0321290189586
          12 :    50.0788974710920
          13 :   -48.1116925776735
          14 :    45.6987591737736
          15 :   -39.2074405010269
          16 :    26.9901402692010
          17 :   -10.0955020547950
          18 :   -8.11422684093839
          19 :    23.3769402691510
          20 :   -32.3095700792188
          21 :    33.6651703070820
          22 :   -28.5381295436919
          23 :    19.5879854230650
          24 :   -9.85989108177330
          25 :    1.83926728409085
          26 :    2.92700269605461
          27 :   -3.75876990725840
          28 :   0.663878179452695
          29 :    5.68898010648479
          30 :   -13.8876084549690
          31 :   -61.0795767917268
          32 :   -43.8674789663985

     Forces acting on atoms (Ry/au):

     negative rho (up, down):  1.379E+00 0.000E+00
     atom    1 type  1   force =     0.00081037    0.00051914    0.02551631
     atom    2 type  1   force =    -0.00080929    0.00045810    0.02557408
     atom    3 type  1   force =    -0.00005221   -0.00095962    0.02549316
     atom    4 type  1   force =     0.00004949   -0.00002020    0.02716493
     atom    5 type  1   force =     0.00003485    0.01065871   -0.01256720
     atom    6 type  1   force =    -0.00003803    0.00000332   -0.00140368
     atom    7 type  1   force =    -0.00923137   -0.00534946   -0.01256667
     atom    8 type  1   force =     0.00922878   -0.00531111   -0.01256572
     atom    9 type  1   force =    -0.00000852    0.00001709    0.02933174
     atom   10 type  1   force =     0.00001786   -0.00278009   -0.01493903
     atom   11 type  1   force =    -0.00241768    0.00139489   -0.01498235
     atom   12 type  1   force =     0.00241870    0.00136890   -0.01492664
     atom   13 type  2   force =    -0.00000295    0.00000032   -0.04912892

     Total force =     0.062990     Total SCF correction =     0.005443

     entering subroutine stress ...

     negative rho (up, down):  1.379E+00 0.000E+00
          total   stress  (Ry/bohr**3)                   (kbar)     P=  -24.94
  -0.00015292  -0.00000000   0.00000000        -22.49     -0.00      0.00
  -0.00000000  -0.00015291  -0.00000000         -0.00    -22.49     -0.00
   0.00000000  -0.00000000  -0.00020287          0.00     -0.00    -29.84

     BFGS Geometry Optimization

     number of scf cycles    =   1
     number of bfgs steps    =   0

     energy   new            =   -1951.1360144199 Ry

     new trust radius        =       0.0491289199 bohr
     new conv_thr            =       0.0000099958 Ry

ATOMIC_POSITIONS (crystal)
Hf1      0.166666667   0.166666667   0.396510335    0   0   0
Hf1      0.666666667   0.166666667   0.396510335    0   0   0
Hf1      0.166666667   0.666666667   0.396510335    0   0   0
Hf1      0.666666667   0.666666667   0.396510335    0   0   0
Hf1      0.833333333   0.333333333   0.500000000    0   0   0
Hf1      0.333333333   0.333333333   0.500000000    0   0   0
Hf1      0.833333333   0.833333333   0.500000000    0   0   0
Hf1      0.333333333   0.833333333   0.500000000    0   0   0
Hf1     -0.000001522   0.000001633   0.604105116
Hf1      0.500134334  -0.000265712   0.603176208
Hf1     -0.000266775   0.500133319   0.603175299
Hf1      0.500134783   0.500130835   0.603176468
S1      -0.000000259   0.000000030   0.696828281

     Writing output data file calc.save
     Check: negative starting charge=   -1.301306
     NEW-OLD atomic charge density approx. for the potential

     Check: negative/imaginary core charge=   -0.000003    0.000000
     Check: negative starting charge=   -1.301246

[...]

     Total force =     0.039061     Total SCF correction =     0.004556
     SCF correction compared to forces is large: reduce conv_thr to get better values

[...]

     energy   old            =   -1951.1360144199 Ry
     energy   new            =   -1951.1504644457 Ry

     CASE: energy  _new < energy  _old

[...]

     WARNING: bfgs curvature condition failed, Theta= 0.973
     new trust radius        =       0.0344526369 bohr
     new conv_thr            =       0.0000001000 Ry

[...]

     iteration #  1     ecut=    36.75 Ry     beta=0.30
     Davidson diagonalization with overlap
     c_bands:  1 eigenvalues not converged
     c_bands:  1 eigenvalues not converged
     ethr =  1.00E-06,  avg # of iterations = 16.6

[...]

     WARNING: bfgs curvature condition failed, Theta= 0.986
     new trust radius        =       0.0103234175 bohr
     new conv_thr            =       0.0000001000 Ry

[...]

     Total force =     0.005552     Total SCF correction =     0.000320

[...]

     number of scf cycles    =  13
     number of bfgs steps    =  12

     energy   old            =   -1951.1604203960 Ry
     energy   new            =   -1951.1604746446 Ry

     CASE: energy  _new < energy  _old

     new trust radius        =       0.0035776377 bohr
     new conv_thr            =       0.0000001000 Ry

ATOMIC_POSITIONS (crystal)
Hf1      0.166666667   0.166666667   0.396510335    0   0   0
Hf1      0.666666667   0.166666667   0.396510335    0   0   0
Hf1      0.166666667   0.666666667   0.396510335    0   0   0
Hf1      0.666666667   0.666666667   0.396510335    0   0   0
Hf1      0.833333333   0.333333333   0.500000000    0   0   0
Hf1      0.333333333   0.333333333   0.500000000    0   0   0
Hf1      0.833333333   0.833333333   0.500000000    0   0   0
Hf1      0.333333333   0.833333333   0.500000000    0   0   0
Hf1      0.000001690  -0.000001910   0.598418622
Hf1      0.501660453  -0.003314234   0.598129377
Hf1     -0.003312398   0.501660965   0.598130155
Hf1      0.501656094   0.501659513   0.598130408
S1      -0.000004246  -0.000003799   0.689558755

     Writing output data file calc.save
     Check: negative starting charge=   -1.298353
     NEW-OLD atomic charge density approx. for the potential

     Check: negative/imaginary core charge=   -0.000003    0.000000
     Check: negative starting charge=   -1.298386

[...]

     Self-consistent Calculation

[...]

     Threshold (ethr) on eigenvalues was too large:
     Diagonalizing with lowered threshold

     Davidson diagonalization with overlap
     ethr =  1.63E-08,  avg # of iterations =  2.0

[...]

     total energy              =   -1951.16047972 Ry
     Harris-Foulkes estimate   =   -1951.16048002 Ry
     estimated scf accuracy    <       0.00000074 Ry

     iteration #  6     ecut=    36.75 Ry     beta=0.30
     Davidson diagonalization with overlap
     ethr =  4.92E-10,  avg # of iterations =  2.8

[...]

     negative rho (up, down):  1.375E+00 0.000E+00

     Adding external electric field

     Computed dipole along edir(3) :
        Dipole               -0.2896 Ry au,         -0.7362 Debye
        Dipole field         -0.0006 Ry au

        Potential amp.        0.0561 Ry
        Total length         46.4675 bohr

     End of self-consistent calculation

[...]

          k = 0.0521-0.0602 0.0000 ( 22643 PWs)   bands (ev):

[...]

          k =-0.0782-0.0452 0.0000 ( 22668 PWs)   bands (ev):

   -61.4221 -61.4130 -61.4044 -61.3519 -61.3406 -61.3284 -61.3235 -60.8727
   -60.8640 -60.8509 -60.8457 -60.7941 -30.1048 -30.0835 -30.0776 -30.0515
   -30.0228 -30.0050 -29.9955 -29.9638 -29.9561 -29.9202 -29.9181 -29.9081
   -29.8812 -29.8563 -29.8478 -29.8402 -29.8078 -29.8019 -29.6794 -29.6372
   -29.6316 -29.6191 -29.5106 -29.5025 -29.4276 -29.4118 -29.3770 -29.3695
   -29.3557 -29.3437 -29.3313 -29.2938 -29.2907 -29.2298 -29.1873 -29.1836
   -10.5683  -3.7141  -3.7067  -2.5366  -2.4866  -1.6037  -1.4775  -1.4573
    -1.3329  -1.2170  -1.0812  -0.8334  -0.7805  -0.6537   0.1062   0.1108
     0.1998   0.2066   0.3769   0.4090   0.5491   0.6857   0.7525   0.7767
     0.8584   0.9194   0.9932   1.1719   1.1864   1.2269   1.3007   1.4453
     1.6067   1.6996   1.7246   1.7879   2.1752

     the Fermi energy is     1.2655 ev

!    total energy              =   -1951.16047974 Ry
     Harris-Foulkes estimate   =   -1951.16047837 Ry
     estimated scf accuracy    <       0.00000005 Ry

     The total energy is the sum of the following terms:

     one-electron contribution =   -8638.64940353 Ry
     hartree contribution      =    4303.97488696 Ry
     xc contribution           =    -936.71646296 Ry
     ewald contribution        =    3320.34001021 Ry
     electric field correction =       0.00017499 Ry
     smearing contrib. (-TS)   =      -0.10968543 Ry

     convergence has been achieved in   6 iterations

 BEEF-vdW xc energy contributions
           1 :   -846.672402393536
           2 :    786.642826759803
           3 :   -680.295604384004
           4 :    549.626932862808
           5 :   -417.390705634731
           6 :    300.767301528092
           7 :   -208.547074798197
           8 :    141.958733533977
           9 :   -97.6606317248909
          10 :    70.7598275251883
          11 :   -56.5054473120065
          12 :    50.5193322637822
          13 :   -48.4383792145924
          14 :    45.9199323395512
          15 :   -39.4115068455656
          16 :    27.2762285738869
          17 :   -10.4955919136022
          18 :   -7.66177870808690
          19 :    22.9807087480676
          20 :   -32.0392059550172
          21 :    33.4944566236311
          22 :   -28.3611299686095
          23 :    19.2961040816306
          24 :   -9.42043337365271
          25 :    1.31678885969609
          26 :    3.42117045880445
          27 :   -4.14941514480643
          28 :   0.963533471646542
          29 :    5.39927063500568
          30 :   -13.5319784524829
          31 :   -61.1160673706893
          32 :   -43.9174179869876

     Forces acting on atoms (Ry/au):

     negative rho (up, down):  1.375E+00 0.000E+00
     atom    1 type  1   force =     0.00090674    0.00052323    0.02076470
     atom    2 type  1   force =    -0.00090671    0.00052320    0.02076482
     atom    3 type  1   force =    -0.00000002   -0.00104671    0.02076534
     atom    4 type  1   force =     0.00000002    0.00000024    0.02306634
     atom    5 type  1   force =     0.00000023    0.01329956   -0.02630713
     atom    6 type  1   force =     0.00000084    0.00000138   -0.00685120
     atom    7 type  1   force =    -0.01151552   -0.00664976   -0.02631312
     atom    8 type  1   force =     0.01151693   -0.00665011   -0.02631116
     atom    9 type  1   force =     0.00000245    0.00000348    0.00111786
     atom   10 type  1   force =    -0.00000211   -0.00043316    0.00009037
     atom   11 type  1   force =    -0.00037838    0.00021389    0.00008784
     atom   12 type  1   force =     0.00037792    0.00021563    0.00008711
     atom   13 type  2   force =    -0.00000239   -0.00000087   -0.00096176

     Total force =     0.001663     Total SCF correction =     0.000377
     SCF correction compared to forces is large: reduce conv_thr to get better values

     entering subroutine stress ...

     negative rho (up, down):  1.375E+00 0.000E+00
          total   stress  (Ry/bohr**3)                   (kbar)     P=  -16.68
  -0.00012267  -0.00000000  -0.00000000        -18.05     -0.00     -0.00
  -0.00000000  -0.00012267  -0.00000000         -0.00    -18.05     -0.00
  -0.00000000  -0.00000000  -0.00009487         -0.00     -0.00    -13.96

     bfgs converged in  14 scf cycles and  13 bfgs steps
     (criteria: energy <  1.0E+00, force <  1.9E-03)

     End of BFGS Geometry Optimization

     Final energy   =   -1951.1604797429 Ry
Begin final coordinates

ATOMIC_POSITIONS (crystal)
Hf1      0.166666667   0.166666667   0.396510335    0   0   0
Hf1      0.666666667   0.166666667   0.396510335    0   0   0
Hf1      0.166666667   0.666666667   0.396510335    0   0   0
Hf1      0.666666667   0.666666667   0.396510335    0   0   0
Hf1      0.833333333   0.333333333   0.500000000    0   0   0
Hf1      0.333333333   0.333333333   0.500000000    0   0   0
Hf1      0.833333333   0.833333333   0.500000000    0   0   0
Hf1      0.333333333   0.833333333   0.500000000    0   0   0
Hf1      0.000001690  -0.000001910   0.598418622
Hf1      0.501660453  -0.003314234   0.598129377
Hf1     -0.003312398   0.501660965   0.598130155
Hf1      0.501656094   0.501659513   0.598130408
S1      -0.000004246  -0.000003799   0.689558755
End final coordinates

     Writing output data file calc.save

     General routines

     Parallel routines

   This run was terminated on:  20: 7:41   3May2018

   JOB DONE.
Job  /afs/slac/g/suncat/bin/suncat-tsmpirun -x LD_LIBRARY_PATH -wdir /scratch/qe794788_KXUgZ pw.x -npool 4 -in pw.inp

TID   HOST_NAME   COMMAND_LINE            STATUS            TERMINATION_TIME
00000 suncat0123 pw.x -npool 4 -i  Done                     05/03/2018 20:07:41
00001 suncat0123 pw.x -npool 4 -i  Done                     05/03/2018 20:07:41
00002 suncat0123 pw.x -npool 4 -i  Done                     05/03/2018 20:07:41
00003 suncat0123 pw.x -npool 4 -i  Done                     05/03/2018 20:07:41
00004 suncat0123 pw.x -npool 4 -i  Done                     05/03/2018 20:07:41
00005 suncat0123 pw.x -npool 4 -i  Done                     05/03/2018 20:07:41
00006 suncat0123 pw.x -npool 4 -i  Done                     05/03/2018 20:07:41
00007 suncat0123 pw.x -npool 4 -i  Done                     05/03/2018 20:07:41
00008 suncat0121 pw.x -npool 4 -i  Done                     05/03/2018 20:07:41
00009 suncat0121 pw.x -npool 4 -i  Done                     05/03/2018 20:07:41
00010 suncat0121 pw.x -npool 4 -i  Done                     05/03/2018 20:07:41
00011 suncat0121 pw.x -npool 4 -i  Done                     05/03/2018 20:07:41
00012 suncat0121 pw.x -npool 4 -i  Done                     05/03/2018 20:07:41
00013 suncat0121 pw.x -npool 4 -i  Done                     05/03/2018 20:07:41
00014 suncat0121 pw.x -npool 4 -i  Done                     05/03/2018 20:07:41
00015 suncat0121 pw.x -npool 4 -i  Done                     05/03/2018 20:07:41
00016 suncat0105 pw.x -npool 4 -i  Done                     05/03/2018 20:07:41
00017 suncat0105 pw.x -npool 4 -i  Done                     05/03/2018 20:07:41
00018 suncat0105 pw.x -npool 4 -i  Done                     05/03/2018 20:07:41
00019 suncat0105 pw.x -npool 4 -i  Done                     05/03/2018 20:07:41
00020 suncat0105 pw.x -npool 4 -i  Done                     05/03/2018 20:07:41
00021 suncat0105 pw.x -npool 4 -i  Done                     05/03/2018 20:07:41
00022 suncat0105 pw.x -npool 4 -i  Done                     05/03/2018 20:07:41
00023 suncat0105 pw.x -npool 4 -i  Done                     05/03/2018 20:07:41
00024 suncat0100 pw.x -npool 4 -i  Done                     05/03/2018 20:07:41
00025 suncat0100 pw.x -npool 4 -i  Done                     05/03/2018 20:07:41
00026 suncat0100 pw.x -npool 4 -i  Done                     05/03/2018 20:07:41
00027 suncat0100 pw.x -npool 4 -i  Done                     05/03/2018 20:07:41
00028 suncat0100 pw.x -npool 4 -i  Done                     05/03/2018 20:07:41
00029 suncat0100 pw.x -npool 4 -i  Done                     05/03/2018 20:07:41
00030 suncat0100 pw.x -npool 4 -i  Done                     05/03/2018 20:07:41
00031 suncat0100 pw.x -npool 4 -i  Done                     05/03/2018 20:07:41