     Program PWSCF v.5.1rc2 (svn rev. 11289) starts on 18Jan2018 at 10:44:39

     Current dimensions of program PWSCF are:
     Max number of different atomic species (ntypx) = 10
     Max number of k-points (npk) =  40000
     Max angular momentum in pseudopotentials (lmaxx) =  3
     Presently stress not available with electric field

     IMPORTANT: XC functional enforced from input :
     Exchange-correlation      = BEEF-VDW ( 1  4 27 13 2)
     Any further DFT definition will be discarded
     Please, verify this is what you really want

     Subspace diagonalization in iterative solution of the eigenvalue problem:
     a serial algorithm will be used

     bravais-lattice index     =            0
     lattice parameter (alat)  =       1.8897  a.u.
     unit-cell volume          =    4481.2752 (a.u.)^3
     number of atoms/cell      =           13
     number of atomic types    =            2
     number of electrons       =       196.00
     number of Kohn-Sham states=          108
     kinetic-energy cutoff     =      36.7493  Ry
     charge density cutoff     =     367.4932  Ry
     convergence threshold     =      1.0E-05
     mixing beta               =       0.3000
     number of iterations used =           10  plain     mixing
     Exchange-correlation      = BEEF-VDW ( 1  4 27 13 2)
     nstep                     =           50

     celldm(1)=   1.889726  celldm(2)=   0.000000  celldm(3)=   0.000000
     celldm(4)=   0.000000  celldm(5)=   0.000000  celldm(6)=   0.000000

     crystal axes: (cart. coord. in units of alat)
               a(1) = (   5.587338   0.000000   0.000000 )
               a(2) = (   2.793669   4.838777   0.000000 )
               a(3) = (   0.000000   0.000000  24.562042 )

     reciprocal axes: (cart. coord. in units 2 pi/alat)
               b(1) = (  0.178976 -0.103332  0.000000 )
               b(2) = (  0.000000  0.206664  0.000000 )
               b(3) = (  0.000000  0.000000  0.040713 )

     PseudoPot. # 1 for Pt read from file:
     /afs/slac.stanford.edu/u/if/mamunm/psp/gbrv1.5pbe/Pt.UPF
     MD5 check sum: f09d6de1a584b5a045c4fc126da2d0c4
     Pseudo is Ultrasoft + core correction, Zval = 16.0
     Generated by new atomic code, or converted to UPF format
     Using radial grid of  985 points,  6 beta functions with:
                l(1) =   0
                l(2) =   0
                l(3) =   1
                l(4) =   1
                l(5) =   2
                l(6) =   2
     Q(r) pseudized with  8 coefficients,  rinner =    1.300   1.300   1.300
                                                       1.300   1.300

     PseudoPot. # 2 for C  read from file:
     /afs/slac.stanford.edu/u/if/mamunm/psp/gbrv1.5pbe/C.UPF
     MD5 check sum: d1aef80898a10debaa0f26306b886e00
     Pseudo is Ultrasoft + core correction, Zval =  4.0
     Generated by new atomic code, or converted to UPF format
     Using radial grid of  721 points,  4 beta functions with:
                l(1) =   0
                l(2) =   0
                l(3) =   1
                l(4) =   1
     Q(r) pseudized with  8 coefficients,  rinner =    1.100   1.100   1.100

     vdW kernel table read from file vdW_kernel_table
     MD5 check sum: 095c7af220d748ca6e76c0b4c6cfb241

     atomic species   valence    mass     pseudopotential
        Pt1           16.00   195.08400     Pt( 1.00)
        C1             4.00    12.01100     C ( 1.00)

     No symmetry found

   Cartesian axes

     site n.     atom                  positions (alat units)
         1           Pt1 tau(   1) = (   1.3968345   0.8064628  10.0000000  )
         2           Pt1 tau(   2) = (   4.1905036   0.8064628  10.0000000  )
         3           Pt1 tau(   3) = (   2.7936691   3.2258512  10.0000000  )
         4           Pt1 tau(   4) = (   5.5873381   3.2258512  10.0000000  )
         5           Pt1 tau(   5) = (   5.5873381   1.6129256  12.2810212  )
         6           Pt1 tau(   6) = (   2.7936691   1.6129256  12.2810212  )
         7           Pt1 tau(   7) = (   6.9841727   4.0323140  12.2810212  )
         8           Pt1 tau(   8) = (   4.1905036   4.0323140  12.2810212  )
         9           Pt1 tau(   9) = (   0.0000000   0.0000000  14.5620425  )
        10           Pt1 tau(  10) = (   2.7936691   0.0000000  14.5620425  )
        11           Pt1 tau(  11) = (   1.3968345   2.4193884  14.5620425  )
        12           Pt1 tau(  12) = (   4.1905036   2.4193884  14.5620425  )
        13           C1  tau(  13) = (   2.7936691   1.6129256  16.6820425  )

     number of k points=    20  Fermi-Dirac smearing, width (Ry)=  0.0110
                       cart. coord. in units 2pi/alat
        k(    1) = (   0.0000000   0.0000000   0.0000000), wk =   0.0555556
        k(    2) = (   0.0000000   0.0344440   0.0000000), wk =   0.1111111
        k(    3) = (   0.0000000   0.0688879   0.0000000), wk =   0.1111111
        k(    4) = (   0.0000000  -0.1033319   0.0000000), wk =   0.0555556
        k(    5) = (   0.0298294  -0.0172220   0.0000000), wk =   0.1111111
        k(    6) = (   0.0298294   0.0172220   0.0000000), wk =   0.1111111
        k(    7) = (   0.0298294   0.0516660   0.0000000), wk =   0.1111111
        k(    8) = (   0.0298294  -0.1205539   0.0000000), wk =   0.1111111
        k(    9) = (   0.0298294  -0.0861099   0.0000000), wk =   0.1111111
        k(   10) = (   0.0298294  -0.0516660   0.0000000), wk =   0.1111111
        k(   11) = (   0.0596587  -0.0344440   0.0000000), wk =   0.1111111
        k(   12) = (   0.0596587   0.0000000   0.0000000), wk =   0.1111111
        k(   13) = (   0.0596587   0.0344440   0.0000000), wk =   0.1111111
        k(   14) = (   0.0596587  -0.1377759   0.0000000), wk =   0.1111111
        k(   15) = (   0.0596587  -0.1033319   0.0000000), wk =   0.1111111
        k(   16) = (   0.0596587  -0.0688879   0.0000000), wk =   0.1111111
        k(   17) = (  -0.0894881   0.0516660   0.0000000), wk =   0.0555556
        k(   18) = (  -0.0894881   0.0861099   0.0000000), wk =   0.1111111
        k(   19) = (  -0.0894881   0.1205539   0.0000000), wk =   0.1111111
        k(   20) = (  -0.0894881  -0.0516660   0.0000000), wk =   0.0555556

     Largest allocated arrays     est. size (Mb)     dimensions
     Largest temporary arrays     est. size (Mb)     dimensions

     Initial potential from superposition of free atoms
     Check: negative starting charge=   -2.200741

     starting charge  189.99982, renormalised to  196.00000

     negative rho (up, down):  2.270E+00 0.000E+00

     *
     * You are using vdW-DF for exchange-correlation in this calculation.
     * Please cite the following three references that made this development
     * possible:
     *
     *   M. Dion, H. Rydberg, E. Schroder, D. C. Langreth, and
     *   B. I. Lundqvist, Phys. Rev. Lett. 92, 246401 (2004).
     *
     *   T. Thonhauser, V. R. Cooper, S. Li, A. Puzder, P. Hyldgaard, and
     *   D. C. Langreth, Phys. Rev. B 76, 125112 (2007).
     *
     *   G. Roman-Perez and J. M. Soler, Phys. Rev. Lett. 103, 096102 (2009).
     *
     *
     * If you are using vdW-DF2, please also cite:
     *
     *   K. Lee, E. D. Murray, L. Kong, B. I. Lundqvist, and
     *   D. C. Langreth, Phys. Rev. B 82, 081101(R) (2010).
     *
     *
     * If you are calculating the stress with vdW-DF, please also cite:
     *
     *   R. Sabatini, E. Kucukbenli, B. Kolb, T. Thonhauser, and
     *   S. de Gironcoli, J. Phys.: Condens. Matter 24, 424209 (2012).
     *

     Carrying out vdW-DF run using the following parameters:

     Nqs =      20    Nr_points =    1024   r_max =   100.000
     q_mesh =
               0.00001000     0.04494208     0.09755937     0.15916263
               0.23128650     0.31572767     0.41458969     0.53033537
               0.66584808     0.82450364     1.01025438     1.22772762
               1.48234092     1.78043706     2.12944203     2.53805004
               3.01644009     3.57652955     4.23227104     5.00000000

     Gradients computed in reciprocal space

     Adding external electric field

     Computed dipole along edir(3) :
        Dipole               -1.0502 Ry au,         -2.6694 Debye
        Dipole field         -0.0029 Ry au

        Potential amp.        0.2666 Ry
        Total length         45.2551 bohr

     Starting wfc are  148 randomized atomic wfcs

     Self-consistent Calculation

     iteration #  1     ecut=    36.75 Ry     beta=0.30
     Davidson diagonalization with overlap
     ethr =  1.00E-02,  avg # of iterations =  2.3

[...]

     total energy              =   -2545.02997415 Ry
     Harris-Foulkes estimate   =   -2562.85906371 Ry
     estimated scf accuracy    <      38.11947617 Ry

[...]

     End of self-consistent calculation

          k = 0.0000 0.0000 0.0000 ( 16787 PWs)   bands (ev):

   -51.2432 -51.2411 -51.2410 -51.1832 -51.1262 -51.1260 -51.1227 -51.0400
   -51.0190 -51.0189 -50.9934 -50.9933 -50.9885 -50.9132 -50.9132 -50.8937
   -50.8936 -50.8834 -50.8833 -50.8810 -50.8703 -50.7782 -50.7431 -50.7430
   -50.6653 -50.6653 -50.6567 -50.6566 -50.6429 -50.5762 -50.5762 -50.5015
   -50.4357 -50.4263 -50.4161 -50.4159  -7.4438  -6.7759  -5.1905  -4.8528
    -4.5242  -4.5241  -4.5081  -4.3120  -4.3120  -4.3024  -3.8671  -3.8670
    -3.8563  -3.7057  -3.7019  -3.7018  -2.3347  -2.3269  -2.3268  -1.9314
    -1.9231  -1.9231  -1.7511  -1.6375  -1.6375  -1.3820  -1.3820  -1.3031
    -1.2163  -1.2163  -1.2128  -1.1321  -1.1321  -0.7586  -0.7585  -0.5635
     0.1890   0.1890   0.2577   0.2767   0.3437   0.3437   0.4779   0.4779
     0.8903   0.8903   1.0417   1.1398   1.1399   1.5075   1.5145   1.5145
     1.5419   1.6536   1.6536   1.9171   1.9173   1.9174   2.0208   2.0994
     2.1652   2.1652   2.2927   2.2928   2.3031   2.4971   2.4971   2.9229
     3.1046   3.1046   4.1793   4.7615

[...]

          k =-0.0895 0.0517 0.0000 ( 16880 PWs)   bands (ev):

[...]

     the Fermi energy is     1.7626 ev

!    total energy              =   -2559.40453210 Ry
     Harris-Foulkes estimate   =   -2559.40453379 Ry
     estimated scf accuracy    <       0.00000227 Ry

     The total energy is the sum of the following terms:

     one-electron contribution =  -20398.04486823 Ry
     hartree contribution      =   10236.96228902 Ry
     xc contribution           =    -706.59850421 Ry
     ewald contribution        =    8308.37888726 Ry
     electric field correction =       0.00002848 Ry
     smearing contrib. (-TS)   =      -0.10236442 Ry

     convergence has been achieved in  16 iterations

 BEEF-vdW xc energy contributions
           1 :   -629.049246609780
           2 :    585.484165458006
           3 :   -507.350174091100
           4 :    409.475715235440
           5 :   -308.094341493174
           6 :    216.734970090782
           7 :   -143.527886256617
           8 :    90.4773568416271
           9 :   -54.6652702006844
          10 :    30.6723623183249
          11 :   -13.1778628369644
          12 :   -1.23807422641551
          13 :    13.5651331601501
          14 :   -22.9993675023544
          15 :    28.1990619284451
          16 :   -28.4997211658027
          17 :    24.5520586380728
          18 :   -18.1981613005618
[...]

[...]

     Total force =     0.217789     Total SCF correction =     0.008574

[...]

     Total force =     0.077811     Total SCF correction =     0.010465
     SCF correction compared to forces is large: reduce conv_thr to get better values

[...]

     Check: negative/imaginary core charge=   -0.000001    0.000000

[...]

   This run was terminated on:  12:52: 5  18Jan2018

[...]

   This run was terminated on:  13: 6:30  18Jan2018

[...]

     Program PWSCF v.5.1rc2 (svn rev. 11289) starts on 18Jan2018 at 13: 6:36

[...]

     Program PWSCF v.5.1rc2 (svn rev. 11289) starts on 18Jan2018 at 13:20:57

     Current dimensions of program PWSCF are:
     Max number of different atomic species (ntypx) = 10
     Max number of k-points (npk) =  40000
     Max angular momentum in pseudopotentials (lmaxx) =  3
     Presently stress not available with electric field

     IMPORTANT: XC functional enforced from input :
     Exchange-correlation      = BEEF-VDW ( 1  4 27 13 2)
     Any further DFT definition will be discarded
     Please, verify this is what you really want

     Subspace diagonalization in iterative solution of the eigenvalue problem:
     a serial algorithm will be used

     bravais-lattice index     =            0
     lattice parameter (alat)  =       1.8897  a.u.
     unit-cell volume          =    4481.2752 (a.u.)^3
     number of atoms/cell      =           13
     number of atomic types    =            2
     number of electrons       =       196.00
     number of Kohn-Sham states=          108
     kinetic-energy cutoff     =      36.7493  Ry
     charge density cutoff     =     367.4932  Ry
     convergence threshold     =      1.0E-05
     mixing beta               =       0.3000
     number of iterations used =           10  plain     mixing
     Exchange-correlation      = BEEF-VDW ( 1  4 27 13 2)
     nstep                     =           50

     celldm(1)=   1.889726  celldm(2)=   0.000000  celldm(3)=   0.000000
     celldm(4)=   0.000000  celldm(5)=   0.000000  celldm(6)=   0.000000

     crystal axes: (cart. coord. in units of alat)
               a(1) = (   5.587338   0.000000   0.000000 )
               a(2) = (   2.793669   4.838777   0.000000 )
               a(3) = (   0.000000   0.000000  24.562042 )

     reciprocal axes: (cart. coord. in units 2 pi/alat)
               b(1) = (  0.178976 -0.103332  0.000000 )
               b(2) = (  0.000000  0.206664  0.000000 )
               b(3) = (  0.000000  0.000000  0.040713 )

     PseudoPot. # 1 for Pt read from file:
     /afs/slac.stanford.edu/u/if/mamunm/psp/gbrv1.5pbe/Pt.UPF
     MD5 check sum: f09d6de1a584b5a045c4fc126da2d0c4
     Pseudo is Ultrasoft + core correction, Zval = 16.0
     Generated by new atomic code, or converted to UPF format
     Using radial grid of  985 points,  6 beta functions with:
                l(1) =   0
                l(2) =   0
                l(3) =   1
                l(4) =   1
                l(5) =   2
                l(6) =   2
     Q(r) pseudized with  8 coefficients,  rinner =    1.300   1.300   1.300
                                                       1.300   1.300

     PseudoPot. # 2 for C  read from file:
     /afs/slac.stanford.edu/u/if/mamunm/psp/gbrv1.5pbe/C.UPF
     MD5 check sum: d1aef80898a10debaa0f26306b886e00
     Pseudo is Ultrasoft + core correction, Zval =  4.0
     Generated by new atomic code, or converted to UPF format
     Using radial grid of  721 points,  4 beta functions with:
                l(1) =   0
                l(2) =   0
                l(3) =   1
                l(4) =   1
     Q(r) pseudized with  8 coefficients,  rinner =    1.100   1.100   1.100

     vdW kernel table read from file vdW_kernel_table
     MD5 check sum: 095c7af220d748ca6e76c0b4c6cfb241

     atomic species   valence    mass     pseudopotential
        Pt1           16.00   195.08400     Pt( 1.00)
        C1             4.00    12.01100     C ( 1.00)

     No symmetry found

   Cartesian axes

     site n.     atom                  positions (alat units)
         1           Pt1 tau(   1) = (   1.3968345   0.8064628  10.0000000  )
         2           Pt1 tau(   2) = (   4.1905036   0.8064628  10.0000000  )
         3           Pt1 tau(   3) = (   2.7936691   3.2258512  10.0000000  )
         4           Pt1 tau(   4) = (   5.5873381   3.2258512  10.0000000  )
         5           Pt1 tau(   5) = (   5.5873381   1.6129256  12.2810212  )
         6           Pt1 tau(   6) = (   2.7936691   1.6129256  12.2810212  )
         7           Pt1 tau(   7) = (   6.9841727   4.0323140  12.2810212  )
         8           Pt1 tau(   8) = (   4.1905036   4.0323140  12.2810212  )
         9           Pt1 tau(   9) = (   2.7941908   4.8387107  14.5553823  )
        10           Pt1 tau(  10) = (   5.5867391   4.8065553  14.7309214  )
        11           Pt1 tau(  11) = (   6.9569784   2.4348100  14.7315262  )
        12           Pt1 tau(  12) = (   4.2187774   2.4361174  14.7305689  )
        13           C1  tau(  13) = (   2.7929437   1.6129889  15.7307551  )

     number of k points=    20  Fermi-Dirac smearing, width (Ry)=  0.0110
                       cart. coord. in units 2pi/alat
        k(    1) = (   0.0000000   0.0000000   0.0000000), wk =   0.0555556
        k(    2) = (   0.0000000   0.0344440   0.0000000), wk =   0.1111111
        k(    3) = (   0.0000000   0.0688879   0.0000000), wk =   0.1111111
        k(    4) = (   0.0000000  -0.1033319   0.0000000), wk =   0.0555556
        k(    5) = (   0.0298294  -0.0172220   0.0000000), wk =   0.1111111
        k(    6) = (   0.0298294   0.0172220   0.0000000), wk =   0.1111111
        k(    7) = (   0.0298294   0.0516660   0.0000000), wk =   0.1111111
        k(    8) = (   0.0298294  -0.1205539   0.0000000), wk =   0.1111111
        k(    9) = (   0.0298294  -0.0861099   0.0000000), wk =   0.1111111
        k(   10) = (   0.0298294  -0.0516660   0.0000000), wk =   0.1111111
        k(   11) = (   0.0596587  -0.0344440   0.0000000), wk =   0.1111111
        k(   12) = (   0.0596587   0.0000000   0.0000000), wk =   0.1111111
        k(   13) = (   0.0596587   0.0344440   0.0000000), wk =   0.1111111
        k(   14) = (   0.0596587  -0.1377759   0.0000000), wk =   0.1111111
        k(   15) = (   0.0596587  -0.1033319   0.0000000), wk =   0.1111111
        k(   16) = (   0.0596587  -0.0688879   0.0000000), wk =   0.1111111
        k(   17) = (  -0.0894881   0.0516660   0.0000000), wk =   0.0555556
        k(   18) = (  -0.0894881   0.0861099   0.0000000), wk =   0.1111111
        k(   19) = (  -0.0894881   0.1205539   0.0000000), wk =   0.1111111
        k(   20) = (  -0.0894881  -0.0516660   0.0000000), wk =   0.0555556

     Largest allocated arrays     est. size (Mb)     dimensions
     Largest temporary arrays     est. size (Mb)     dimensions

     Initial potential from superposition of free atoms
     Check: negative starting charge=   -2.201077

     starting charge  189.99982, renormalised to  196.00000

[...]

     *
     * You are using vdW-DF for exchange-correlation in this calculation.
     * Please cite the following three references that made this development
     * possible:
     *
     *   M. Dion, H. Rydberg, E. Schroder, D. C. Langreth, and
     *   B. I. Lundqvist, Phys. Rev. Lett. 92, 246401 (2004).
     *
     *   T. Thonhauser, V. R. Cooper, S. Li, A. Puzder, P. Hyldgaard, and
     *   D. C. Langreth, Phys. Rev. B 76, 125112 (2007).
     *
     *   G. Roman-Perez and J. M. Soler, Phys. Rev. Lett. 103, 096102 (2009).
     *
     *
     * If you are using vdW-DF2, please also cite:
     *
     *   K. Lee, E. D. Murray, L. Kong, B. I. Lundqvist, and
     *   D. C. Langreth, Phys. Rev. B 82, 081101(R) (2010).
     *
     *
     * If you are calculating the stress with vdW-DF, please also cite:
     *
     *   R. Sabatini, E. Kucukbenli, B. Kolb, T. Thonhauser, and
     *   S. de Gironcoli, J. Phys.: Condens. Matter 24, 424209 (2012).
     *

     Carrying out vdW-DF run using the following parameters:

     Nqs =      20    Nr_points =    1024   r_max =   100.000
     q_mesh =
               0.00001000     0.04494208     0.09755937     0.15916263
               0.23128650     0.31572767     0.41458969     0.53033537
               0.66584808     0.82450364     1.01025438     1.22772762
               1.48234092     1.78043706     2.12944203     2.53805004
               3.01644009     3.57652955     4.23227104     5.00000000

     Gradients computed in reciprocal space

[...]

     Starting wfc are  148 randomized atomic wfcs

     Self-consistent Calculation

[...]

     total energy              =   -2559.68033968 Ry
     Harris-Foulkes estimate   =   -2559.68034820 Ry
     estimated scf accuracy    <       0.00003135 Ry

     iteration # 18     ecut=    36.75 Ry     beta=0.30
     Davidson diagonalization with overlap
     ethr =  1.60E-08,  avg # of iterations =  1.1

[...]

     negative rho (up, down):  2.118E+00 0.000E+00

     Adding external electric field

     Computed dipole along edir(3) :
        Dipole               -0.0165 Ry au,         -0.0419 Debye
        Dipole field         -0.0000 Ry au

        Potential amp.        0.0042 Ry
        Total length         45.2551 bohr

     End of self-consistent calculation

[...]

          k = 0.0597-0.0689 0.0000 ( 16875 PWs)   bands (ev):

[...]

          k =-0.0895-0.0517 0.0000 ( 16880 PWs)   bands (ev):

   -51.6806 -51.5883 -51.5198 -51.1673 -51.1492 -51.0922 -51.0211 -50.9924
   -50.9762 -50.9610 -50.9224 -50.9128 -50.9057 -50.8892 -50.8734 -50.8607
   -50.8563 -50.7908 -50.7908 -50.7313 -50.7293 -50.7194 -50.6731 -50.6576
   -50.5928 -50.5777 -50.5757 -50.5139 -50.4891 -50.4776 -50.4706 -50.4151
   -50.2953 -50.2887 -50.2826 -50.2671 -10.3420  -5.3539  -4.9689  -4.5333
    -3.8370  -3.7901  -3.7170  -3.5013  -3.3883  -3.3853  -3.3524  -3.1933
    -2.9128  -2.8941  -2.8092  -2.7538  -2.7172  -2.5020  -2.4785  -2.2119
    -2.1171  -2.0821  -2.0343  -1.9325  -1.9120  -1.7928  -1.6836  -1.5849
    -1.4752  -1.3575  -1.2874  -1.1286  -1.1042  -0.9567  -0.9255  -0.8514
    -0.8199  -0.7980  -0.7536  -0.6822  -0.6764  -0.5395  -0.2584  -0.2074
    -0.0726  -0.0451  -0.0193   0.1460   0.1968   0.2503   0.3380   0.4434
     0.5259   0.7577   0.8343   0.9301   0.9636   1.0349   1.3889   1.4511
     1.6639   1.7486   1.9180   1.9685   2.0561   2.6180   3.1563   3.6785
     3.8204   4.2927   4.5165   4.9418

     the Fermi energy is     1.8624 ev

!    total energy              =   -2559.68034054 Ry
     Harris-Foulkes estimate   =   -2559.68034150 Ry
     estimated scf accuracy    <       0.00000135 Ry

     The total energy is the sum of the following terms:

     one-electron contribution =  -20286.64496943 Ry
     hartree contribution      =   10181.33692155 Ry
     xc contribution           =    -707.10037548 Ry
     ewald contribution        =    8252.82174003 Ry
     electric field correction =       0.00000076 Ry
     smearing contrib. (-TS)   =      -0.09365797 Ry

     convergence has been achieved in  18 iterations

 BEEF-vdW xc energy contributions
           1 :   -629.551761431943
           2 :    586.104389253070
           3 :   -508.108283051205
           4 :    410.296801928399
           5 :   -308.861594687889
           6 :    217.331580799073
           7 :   -143.865671443774
           8 :    90.5189204753341
           9 :   -54.4362788898501
          10 :    30.2581916747530
          11 :   -12.7019835071429
          12 :   -1.64748877232830
          13 :    13.8104096449318
          14 :   -23.0435809760885
          15 :    28.0807460360742
          16 :   -28.3188815749987
          17 :    24.4293751853216
          18 :   -18.2230960348819
          19 :    11.9523649928271
          20 :   -7.46184555981120
          21 :    5.58858250818719
          22 :   -6.04269738220944
          23 :    7.74834801951522
          24 :   -9.43507062830315
          25 :    10.1906490323851
          26 :   -9.75420654519610
          27 :    8.47135150308384
          28 :   -6.99863748242342
          29 :    5.93451000425762
          30 :   -5.55464038198272
          31 :   -51.7187766909905
          32 :   -38.3041964454916

     Forces acting on atoms (Ry/au):

     negative rho (up, down):  2.118E+00 0.000E+00
     atom    1 type  1   force =     0.00044146    0.00024830   -0.02051714
     atom    2 type  1   force =    -0.00045299    0.00026641   -0.02059286
     atom    3 type  1   force =     0.00000847   -0.00050683   -0.02066229
     atom    4 type  1   force =    -0.00001532    0.00000773   -0.00862189
     atom    5 type  1   force =     0.00000822    0.00702468    0.02144542
     atom    6 type  1   force =     0.00002128   -0.00000320    0.00535833
     atom    7 type  1   force =    -0.00606704   -0.00351459    0.02137887
     atom    8 type  1   force =     0.00610127   -0.00351923    0.02125516
     atom    9 type  1   force =    -0.00041690    0.00006570    0.00064251
     atom   10 type  1   force =     0.00056572   -0.00006251    0.00039374
     atom   11 type  1   force =    -0.00075925    0.00067710   -0.00004474
     atom   12 type  1   force =    -0.00030628   -0.00058967    0.00063854
     atom   13 type  2   force =     0.00087139   -0.00009388   -0.00067367

     Total force =     0.053822     Total SCF correction =     0.006640
     SCF correction compared to forces is large: reduce conv_thr to get better values

     entering subroutine stress ...

     negative rho (up, down):  2.118E+00 0.000E+00
          total   stress  (Ry/bohr**3)                   (kbar)     P=   -4.39
  -0.00007006  -0.00000028   0.00000036        -10.31     -0.04      0.05
  -0.00000028  -0.00007012  -0.00000004         -0.04    -10.31     -0.01
   0.00000036  -0.00000004   0.00005065          0.05     -0.01      7.45

 !ASE

     Writing output data file calc.save

     General routines

     Parallel routines

   This run was terminated on:  13:35:10  18Jan2018

   JOB DONE.
Job  /afs/slac/g/suncat/bin/suncat-tsmpirun -x LD_LIBRARY_PATH -wdir /scratch/qe842471_rtTFm pw.x -in pw.inp

TID   HOST_NAME   COMMAND_LINE            STATUS            TERMINATION_TIME
00000 suncat0264 pw.x -in pw.inp   Done                     01/18/2018 13:35:10
00001 suncat0264 pw.x -in pw.inp   Done                     01/18/2018 13:35:10
00002 suncat0264 pw.x -in pw.inp   Done                     01/18/2018 13:35:10
00003 suncat0264 pw.x -in pw.inp   Done                     01/18/2018 13:35:10
00004 suncat0264 pw.x -in pw.inp   Done                     01/18/2018 13:35:10
00005 suncat0264 pw.x -in pw.inp   Done                     01/18/2018 13:35:10
00006 suncat0264 pw.x -in pw.inp   Done                     01/18/2018 13:35:10
00007 suncat0264 pw.x -in pw.inp   Done                     01/18/2018 13:35:10
00008 suncat0259 pw.x -in pw.inp   Done                     01/18/2018 13:35:10
00009 suncat0259 pw.x -in pw.inp   Done                     01/18/2018 13:35:10
00010 suncat0259 pw.x -in pw.inp   Done                     01/18/2018 13:35:10
00011 suncat0259 pw.x -in pw.inp   Done                     01/18/2018 13:35:10
00012 suncat0259 pw.x -in pw.inp   Done                     01/18/2018 13:35:10
00013 suncat0259 pw.x -in pw.inp   Done                     01/18/2018 13:35:10
00014 suncat0259 pw.x -in pw.inp   Done                     01/18/2018 13:35:10
00015 suncat0259 pw.x -in pw.inp   Done                     01/18/2018 13:35:10
00016 suncat0258 pw.x -in pw.inp   Done                     01/18/2018 13:35:10
00017 suncat0258 pw.x -in pw.inp   Done                     01/18/2018 13:35:10
00018 suncat0258 pw.x -in pw.inp   Done                     01/18/2018 13:35:10
00019 suncat0258 pw.x -in pw.inp   Done                     01/18/2018 13:35:10
00020 suncat0258 pw.x -in pw.inp   Done                     01/18/2018 13:35:10
00021 suncat0258 pw.x -in pw.inp   Done                     01/18/2018 13:35:10
00022 suncat0258 pw.x -in pw.inp   Done                     01/18/2018 13:35:10
00023 suncat0258 pw.x -in pw.inp   Done                     01/18/2018 13:35:10
00024 suncat0256 pw.x -in pw.inp   Done                     01/18/2018 13:35:10
00025 suncat0256 pw.x -in pw.inp   Done                     01/18/2018 13:35:10
00026 suncat0256 pw.x -in pw.inp   Done                     01/18/2018 13:35:10
00027 suncat0256 pw.x -in pw.inp   Done                     01/18/2018 13:35:10
00028 suncat0256 pw.x -in pw.inp   Done                     01/18/2018 13:35:10
00029 suncat0256 pw.x -in pw.inp   Done                     01/18/2018 13:35:10
00030 suncat0256 pw.x -in pw.inp   Done                     01/18/2018 13:35:10
00031 suncat0256 pw.x -in pw.inp   Done                     01/18/2018 13:35:10