     Program PWSCF v.5.1rc2 (svn rev. 11289) starts on 24Apr2018 at 18:55:52

     Current dimensions of program PWSCF are:
     Max number of different atomic species (ntypx) = 10
     Max number of k-points (npk) =  40000
     Max angular momentum in pseudopotentials (lmaxx) =  3
     Presently stress not available with electric field

     IMPORTANT: XC functional enforced from input :
     Exchange-correlation      = BEEF-VDW ( 1  4 27 13 2)
     Any further DFT definition will be discarded
     Please, verify this is what you really want

     Subspace diagonalization in iterative solution of the eigenvalue problem:
     a serial algorithm will be used

     bravais-lattice index     =            0
     lattice parameter (alat)  =       1.8897  a.u.
     unit-cell volume          =    7725.1200 (a.u.)^3
     number of atoms/cell      =           14
     number of atomic types    =            3
     number of electrons       =       137.00
     number of Kohn-Sham states=           78
     kinetic-energy cutoff     =      36.7493  Ry
     charge density cutoff     =     367.4932  Ry
     convergence threshold     =      1.0E-05
     mixing beta               =       0.3000
     number of iterations used =           10  plain     mixing
     Exchange-correlation      = BEEF-VDW ( 1  4 27 13 2)
     nstep                     =           50

     celldm(1)=   1.889726  celldm(2)=   0.000000  celldm(3)=   0.000000
     celldm(4)=   0.000000  celldm(5)=   0.000000  celldm(6)=   0.000000

     crystal axes: (cart. coord. in units of alat)
               a(1) = (   7.152277   0.000000   0.000000 )
               a(2) = (   3.576139   6.194054   0.000000 )
               a(3) = (   0.000000   0.000000  25.839810 )

     reciprocal axes: (cart. coord. in units 2 pi/alat)
               b(1) = (  0.139816 -0.080723  0.000000 )
               b(2) = (  0.000000  0.161445  0.000000 )
               b(3) = (  0.000000  0.000000  0.038700 )

     PseudoPot. # 1 for Y  read from file:
     /u/if/mamunm/psp/gbrv1.5pbe/Y.UPF
     MD5 check sum: d034151ed7554c50b6e82763ed42c788
     Pseudo is Ultrasoft + core correction, Zval = 11.0
     Generated by new atomic code, or converted to UPF format
     Using radial grid of  885 points,  6 beta functions with:
                l(1) =   0
                l(2) =   0
                l(3) =   1
                l(4) =   1
                l(5) =   2
                l(6) =   2
     Q(r) pseudized with  8 coefficients,  rinner =    1.200   1.200   1.200
                                                       1.200   1.200

     PseudoPot. # 2 for C  read from file:
     /u/if/mamunm/psp/gbrv1.5pbe/C.UPF
     MD5 check sum: d1aef80898a10debaa0f26306b886e00
     Pseudo is Ultrasoft + core correction, Zval =  4.0
     Generated by new atomic code, or converted to UPF format
     Using radial grid of  721 points,  4 beta functions with:
                l(1) =   0
                l(2) =   0
                l(3) =   1
                l(4) =   1
     Q(r) pseudized with  8 coefficients,  rinner =    1.100   1.100   1.100

     PseudoPot. # 3 for H  read from file:
     /u/if/mamunm/psp/gbrv1.5pbe/H.UPF
     MD5 check sum: 761ae9a214b05c3daf00ab9f6b793d6f
     Pseudo is Ultrasoft, Zval =  1.0
     Generated by new atomic code, or converted to UPF format
     Using radial grid of  615 points,  2 beta functions with:
                l(1) =   0
                l(2) =   0
     Q(r) pseudized with  8 coefficients,  rinner =    0.700

     vdW kernel table read from file vdW_kernel_table
     MD5 check sum: 095c7af220d748ca6e76c0b4c6cfb241

     atomic species   valence    mass     pseudopotential
        Y1            11.00    88.90584     Y ( 1.00)
        C1             4.00    12.01100     C ( 1.00)
        H1             1.00     1.00800     H ( 1.00)

     No symmetry found

   Cartesian axes

     site n.     atom                  positions (alat units)
         1           Y1  tau(   1) = (   1.7880693   1.0323423  10.0000000  )
         2           Y1  tau(   2) = (   5.3642080   1.0323423  10.0000000  )
         3           Y1  tau(   3) = (   3.5761386   4.1293692  10.0000000  )
         4           Y1  tau(   4) = (   7.1522773   4.1293692  10.0000000  )
         5           Y1  tau(   5) = (   7.1522773   2.0646846  12.9199050  )
         6           Y1  tau(   6) = (   3.5761386   2.0646846  12.9199050  )
         7           Y1  tau(   7) = (   8.9403466   5.1617115  12.9199050  )
         8           Y1  tau(   8) = (   5.3642080   5.1617115  12.9199050  )
         9           Y1  tau(   9) = (   0.0000000   0.0000000  15.8398100  )
        10           Y1  tau(  10) = (   3.5761386   0.0000000  15.8398100  )
        11           Y1  tau(  11) = (   1.7880693   3.0970269  15.8398100  )
        12           Y1  tau(  12) = (   5.3642080   3.0970269  15.8398100  )
        13           C1  tau(  13) = (   1.7880693   1.0323423  17.5688100  )
        14           H1  tau(  14) = (   1.7880693   1.0323423  18.6688100  )

     number of k points=    20  Fermi-Dirac smearing, width (Ry)=  0.0110
                       cart. coord. in units 2pi/alat
        k(    1) = (   0.0000000   0.0000000   0.0000000), wk =   0.0555556
        k(    2) = (   0.0000000   0.0269075   0.0000000), wk =   0.1111111
        k(    3) = (   0.0000000   0.0538151   0.0000000), wk =   0.1111111
        k(    4) = (   0.0000000  -0.0807226   0.0000000), wk =   0.0555556
        k(    5) = (   0.0233026  -0.0134538   0.0000000), wk =   0.1111111
        k(    6) = (   0.0233026   0.0134538   0.0000000), wk =   0.1111111
        k(    7) = (   0.0233026   0.0403613   0.0000000), wk =   0.1111111
        k(    8) = (   0.0233026  -0.0941763   0.0000000), wk =   0.1111111
        k(    9) = (   0.0233026  -0.0672688   0.0000000), wk =   0.1111111
        k(   10) = (   0.0233026  -0.0403613   0.0000000), wk =   0.1111111
        k(   11) = (   0.0466052  -0.0269075   0.0000000), wk =   0.1111111
        k(   12) = (   0.0466052   0.0000000   0.0000000), wk =   0.1111111
        k(   13) = (   0.0466052   0.0269075   0.0000000), wk =   0.1111111
        k(   14) = (   0.0466052  -0.1076301   0.0000000), wk =   0.1111111
        k(   15) = (   0.0466052  -0.0807226   0.0000000), wk =   0.1111111
        k(   16) = (   0.0466052  -0.0538151   0.0000000), wk =   0.1111111
        k(   17) = (  -0.0699078   0.0403613   0.0000000), wk =   0.0555556
        k(   18) = (  -0.0699078   0.0672688   0.0000000), wk =   0.1111111
        k(   19) = (  -0.0699078   0.0941763   0.0000000), wk =   0.1111111
        k(   20) = (  -0.0699078  -0.0403613   0.0000000), wk =   0.0555556

     Largest allocated arrays     est. size (Mb)     dimensions
     Largest temporary arrays     est. size (Mb)     dimensions

     Initial potential from superposition of free atoms
     Check: negative starting charge=   -0.000530

     starting charge  136.94632, renormalised to  137.00000

     negative rho (up, down):  5.297E-04 0.000E+00

     *
     * You are using vdW-DF for exchange-correlation in this calculation.
     * Please cite the following three references that made this development
     * possible:
     *
     *   M. Dion, H. Rydberg, E. Schroder, D. C. Langreth, and
     *   B. I. Lundqvist, Phys. Rev. Lett. 92, 246401 (2004).
     *
     *   T. Thonhauser, V. R. Cooper, S. Li, A. Puzder, P. Hyldgaard, and
     *   D. C. Langreth, Phys. Rev. B 76, 125112 (2007).
     *
     *   G. Roman-Perez and J. M. Soler, Phys. Rev. Lett. 103, 096102 (2009).
     *
     *
     * If you are using vdW-DF2, please also cite:
     *
     *   K. Lee, E. D. Murray, L. Kong, B. I. Lundqvist, and
     *   D. C. Langreth, Phys. Rev. B 82, 081101(R) (2010).
     *
     *
     * If you are calculating the stress with vdW-DF, please also cite:
     *
     *   R. Sabatini, E. Kucukbenli, B. Kolb, T. Thonhauser, and
     *   S. de Gironcoli, J. Phys.: Condens. Matter 24, 424209 (2012).
     *

     Carrying out vdW-DF run using the following parameters:

     Nqs =      20    Nr_points =    1024   r_max =   100.000
     q_mesh =
               0.00001000     0.04494208     0.09755937     0.15916263
               0.23128650     0.31572767     0.41458969     0.53033537
               0.66584808     0.82450364     1.01025438     1.22772762
               1.48234092     1.78043706     2.12944203     2.53805004
               3.01644009     3.57652955     4.23227104     5.00000000

     Gradients computed in reciprocal space

     Adding external electric field

     Computed dipole along edir(3) :
        Dipole               -0.0176 Ry au,         -0.0447 Debye
        Dipole field         -0.0000 Ry au

        Potential amp.        0.0027 Ry
        Total length         47.6094 bohr

     Starting wfc are  161 randomized atomic wfcs

     Self-consistent Calculation

     iteration #  1     ecut=    36.75 Ry     beta=0.30
     Davidson diagonalization with overlap
     ethr =  1.00E-02,  avg # of iterations =  2.0

[...]

     total energy              =   -1134.62931411 Ry
     Harris-Foulkes estimate   =   -1137.55490730 Ry
     estimated scf accuracy    <       6.39718971 Ry

[...]

     End of self-consistent calculation

          k = 0.0000 0.0000 0.0000 ( 28997 PWs)   bands (ev):

   -42.5943 -42.5296 -42.4874 -42.4867 -42.4865 -42.2810 -42.2497 -42.2496
   -41.9818 -41.9408 -41.9201 -41.9200 -22.6407 -22.6352 -22.6343 -22.6343
   -22.5837 -22.5837 -22.5614 -22.4910 -22.4909 -22.4895 -22.4368 -22.3107
   -22.3107 -22.3087 -22.2785 -22.2784 -22.2519 -22.2109 -22.2109 -22.1830
   -22.1830 -22.1047 -22.0809 -22.0793 -22.0792 -21.9650 -21.9649 -21.8803
   -21.8598 -21.8409 -21.8408 -21.7970 -21.7970 -21.7839 -21.6941 -21.6941
    -9.0958  -3.5403  -2.9485  -2.1395  -1.3247  -0.8377  -0.8377  -0.7147
    -0.7147  -0.7070  -0.6473  -0.4794  -0.4794  -0.1689   0.1403   0.1403
     0.2418   0.4067   0.4067   0.7992   0.7992   0.8174   1.0081   1.4272
     1.5333   1.5468   1.5486   1.5486   1.8664   1.8664

[...]

          k =-0.0699 0.0404 0.0000 ( 29048 PWs)   bands (ev):

[...]

     the Fermi energy is     0.8203 ev

!    total energy              =   -1136.98287604 Ry
     Harris-Foulkes estimate   =   -1136.98290108 Ry
     estimated scf accuracy    <       0.00000707 Ry

     The total energy is the sum of the following terms:

     one-electron contribution =   -5506.10943492 Ry
     hartree contribution      =    2746.26072215 Ry
     xc contribution           =    -343.12890937 Ry
     ewald contribution        =    1966.12318417 Ry
     electric field correction =       0.00011873 Ry
     smearing contrib. (-TS)   =      -0.12855680 Ry

     convergence has been achieved in  17 iterations

 BEEF-vdW xc energy contributions
           1 :   -299.181016232630
           2 :    268.624112912612
           3 :   -216.043876985941
           4 :    154.376353792895
           5 :   -95.6323101185709
           6 :    47.3470177223602
           7 :   -12.0603237546978
           8 :   -10.9168664005342
           9 :    23.2502091258915
          10 :   -26.3444983917776
          11 :    21.4824767970288
          12 :   -10.6689293158913
          13 :   -2.86076709192957
          14 :    15.1061577353814
          15 :   -22.5804258492795
          16 :    23.5997742953979
          17 :   -18.7584013052090
          18 :    10.3296770458041
          19 :   -1.05507065038699
          20 :   -6.90513476884115
          21 :    12.3647452197345
          22 :   -14.9175029920100
          23 :    14.5823673795580
          24 :   -11.6569814352599
          25 :    6.81273723183114
          26 :   -1.18520512270936
          27 :   -3.80130724959872
          28 :    6.89815181194570
          29 :   -7.53571627908212
          30 :    6.03386507518252
          31 :   -28.7500322291663
          32 :   -19.6711125893241

     Forces acting on atoms (Ry/au):

     negative rho (up, down):  1.510E-04 0.000E+00
     atom    1 type  1   force =    -0.00000651    0.00002617    0.00421391
     atom    2 type  1   force =     0.00000272   -0.00107682    0.00515843
     atom    3 type  1   force =    -0.00095511    0.00052768    0.00514459
     atom    4 type  1   force =     0.00096020    0.00052318    0.00514021
     atom    5 type  1   force =    -0.00257236    0.00146480   -0.00207954
     atom    6 type  1   force =     0.00257590    0.00146614   -0.00207833
     atom    7 type  1   force =     0.00001288    0.00002359   -0.01192193
     atom    8 type  1   force =    -0.00000963   -0.00295466   -0.00205602
     atom    9 type  1   force =     0.04612222    0.02664937    0.03281234
     atom   10 type  1   force =    -0.04612841    0.02665394    0.03281834
     atom   11 type  1   force =     0.00000326   -0.05327990    0.03279794
     atom   12 type  1   force =    -0.00000509   -0.00002775    0.00121081
     atom   13 type  2   force =     0.00000038    0.00000231   -0.10091932
     atom   14 type  3   force =    -0.00000045    0.00000195   -0.00024143

     Total force =     0.148088     Total SCF correction =     0.001885

     entering subroutine stress ...

     negative rho (up, down):  1.510E-04 0.000E+00
          total   stress  (Ry/bohr**3)                   (kbar)     P=   -6.27
  -0.00003269  -0.00000000   0.00000000         -4.81     -0.00      0.00
  -0.00000000  -0.00003269  -0.00000000         -0.00     -4.81     -0.00
   0.00000000  -0.00000000  -0.00006256          0.00     -0.00     -9.20

     BFGS Geometry Optimization

     number of scf cycles    =   1
     number of bfgs steps    =   0

     energy   new            =   -1136.9828760358 Ry

     new trust radius        =       0.1009193211 bohr
     new conv_thr            =       0.0000099958 Ry

ATOMIC_POSITIONS (crystal)
Y1       0.166666667   0.166666667   0.386999750    0   0   0
Y1       0.666666667   0.166666667   0.386999750    0   0   0
Y1       0.166666667   0.666666667   0.386999750    0   0   0
Y1       0.666666667   0.666666667   0.386999750    0   0   0
Y1       0.833333333   0.333333333   0.500000000    0   0   0
Y1       0.333333333   0.333333333   0.500000000    0   0   0
Y1       0.833333333   0.833333333   0.500000000    0   0   0
Y1       0.333333333   0.833333333   0.500000000    0   0   0
Y1       0.002274087   0.002276738   0.613672218
Y1       0.495448522   0.002277128   0.613672341
Y1       0.002276174   0.495448133   0.613671924
Y1       0.500000809   0.499997629   0.613025046
C1       0.166666596   0.166666864   0.677845765
H1       0.166666550   0.166666833   0.722477535

     Writing output data file calc.save
     Check: negative starting charge=   -0.000530
     NEW-OLD atomic charge density approx. for the potential
     Check: negative starting charge=   -0.000532

[...]

     energy   old            =   -1136.9828760358 Ry
     energy   new            =   -1137.0008604998 Ry

     CASE: energy  _new < energy  _old

[...]

     iteration #  1     ecut=    36.75 Ry     beta=0.30
     Davidson diagonalization with overlap
     c_bands:  2 eigenvalues not converged
     c_bands:  4 eigenvalues not converged
     ethr =  1.00E-06,  avg # of iterations = 17.7

[...]

     iteration #  9     ecut=    36.75 Ry     beta=0.30
     Davidson diagonalization with overlap
     c_bands:  1 eigenvalues not converged
     ethr =  3.65E-08,  avg # of iterations =  8.1

[...]

     Total force =     0.008659     Total SCF correction =     0.000470

[...]

     number of scf cycles    =  16
     number of bfgs steps    =  15

     energy   old            =   -1137.0603164248 Ry
     energy   new            =   -1137.0605192489 Ry

     CASE: energy  _new < energy  _old

     new trust radius        =       0.0171278142 bohr
     new conv_thr            =       0.0000001000 Ry

ATOMIC_POSITIONS (crystal)
Y1       0.166666667   0.166666667   0.386999750    0   0   0
Y1       0.666666667   0.166666667   0.386999750    0   0   0
Y1       0.166666667   0.666666667   0.386999750    0   0   0
Y1       0.666666667   0.666666667   0.386999750    0   0   0
Y1       0.833333333   0.333333333   0.500000000    0   0   0
Y1       0.333333333   0.333333333   0.500000000    0   0   0
Y1       0.833333333   0.833333333   0.500000000    0   0   0
Y1       0.333333333   0.833333333   0.500000000    0   0   0
Y1       0.006593673   0.006600173   0.616203216
Y1       0.486802436   0.006603315   0.616202683
Y1       0.006596970   0.486804445   0.616203326
Y1       0.500001958   0.499993901   0.608807315
C1       0.166669235   0.166664588   0.661777478
H1       0.166665790   0.166667977   0.704669123

     Writing output data file calc.save
     Check: negative starting charge=   -0.000562
     NEW-OLD atomic charge density approx. for the potential
     Check: negative starting charge=   -0.000562

[...]

     Self-consistent Calculation

[...]

     total energy              =   -1137.06056839 Ry
     Harris-Foulkes estimate   =   -1137.06056841 Ry
     estimated scf accuracy    <       0.00000040 Ry

     iteration #  9     ecut=    36.75 Ry     beta=0.30
     Davidson diagonalization with overlap
     ethr =  2.94E-10,  avg # of iterations =  6.0

[...]

     negative rho (up, down):  1.534E-04 0.000E+00

     Adding external electric field

     Computed dipole along edir(3) :
        Dipole               -0.0705 Ry au,         -0.1791 Debye
        Dipole field         -0.0001 Ry au

        Potential amp.        0.0109 Ry
        Total length         47.6094 bohr

     End of self-consistent calculation

[...]

          k = 0.0466-0.0538 0.0000 ( 29098 PWs)   bands (ev):

[...]

          k =-0.0699-0.0404 0.0000 ( 29048 PWs)   bands (ev):

   -42.3350 -42.3182 -42.3095 -42.3033 -42.2968 -41.8981 -41.8675 -41.8457
   -41.8379 -41.7503 -41.7391 -41.7293 -22.3842 -22.3775 -22.3673 -22.3490
   -22.3345 -22.3053 -22.2969 -22.2598 -22.2509 -22.2402 -22.2137 -22.2105
   -22.2057 -22.0819 -22.0715 -22.0328 -21.9539 -21.9506 -21.9253 -21.8800
   -21.8753 -21.8417 -21.8101 -21.8095 -21.7995 -21.7590 -21.7033 -21.6833
   -21.6729 -21.6632 -21.6466 -21.6446 -21.6353 -21.6050 -21.5728 -21.5426
    -9.1706  -3.0529  -2.1201  -1.9818  -1.3706  -1.0238  -0.6078  -0.5454
    -0.3041  -0.2824  -0.1007   0.1048   0.1582   0.3079   0.7234   0.7506
     0.8142   0.8499   0.8609   0.9108   1.0403   1.0772   1.1398   1.1892
     1.2027   1.2730   1.4059   1.5188   1.5444   1.5555

     the Fermi energy is     0.9994 ev

!    total energy              =   -1137.06056840 Ry
     Harris-Foulkes estimate   =   -1137.06056865 Ry
     estimated scf accuracy    <       0.00000008 Ry

     The total energy is the sum of the following terms:

     one-electron contribution =   -5543.03661967 Ry
     hartree contribution      =    2765.77795670 Ry
     xc contribution           =    -343.43164290 Ry
     ewald contribution        =    1983.75562734 Ry
     electric field correction =       0.00000808 Ry
     smearing contrib. (-TS)   =      -0.12589794 Ry

     convergence has been achieved in   9 iterations

 BEEF-vdW xc energy contributions
           1 :   -299.480017733413
           2 :    268.985609204126
           3 :   -216.470709377873
           4 :    154.806538728509
           5 :   -95.9704180952110
           6 :    47.5066293544801
           7 :   -12.0058174575233
           8 :   -11.1488295260521
           9 :    23.5651112162894
          10 :   -26.6376662635694
          11 :    21.6938302244192
          12 :   -10.8079229379693
          13 :   -2.73861616874404
          14 :    14.9545270649032
          15 :   -22.4078368117229
          16 :    23.4684095163622
          17 :   -18.7341764827006
          18 :    10.4249246370943
          19 :   -1.21190483028545
          20 :   -6.77887588759870
          21 :    12.3354970707188
          22 :   -14.9863932672154
          23 :    14.6939390607827
          24 :   -11.7472762902198
          25 :    6.85829710399696
          26 :   -1.21435382582962
          27 :   -3.74129812852163
          28 :    6.78592005136045
          29 :   -7.39179300671447
          30 :    5.89587288540304
          31 :   -28.7709869020574
          32 :   -19.7050832226809

     Forces acting on atoms (Ry/au):

     negative rho (up, down):  1.534E-04 0.000E+00
     atom    1 type  1   force =     0.00000007   -0.00000063    0.00499057
     atom    2 type  1   force =     0.00000008   -0.00212053    0.00597934
     atom    3 type  1   force =    -0.00183616    0.00106062    0.00597881
     atom    4 type  1   force =     0.00183598    0.00106052    0.00597915
     atom    5 type  1   force =    -0.00208248    0.00120096   -0.00465885
     atom    6 type  1   force =     0.00208218    0.00120196   -0.00465957
     atom    7 type  1   force =     0.00000019    0.00000083   -0.01020729
     atom    8 type  1   force =    -0.00000088   -0.00240456   -0.00465908
     atom    9 type  1   force =    -0.00020638   -0.00012605   -0.00009777
     atom   10 type  1   force =     0.00021036   -0.00013049   -0.00010026
     atom   11 type  1   force =    -0.00000018    0.00024533   -0.00009863
     atom   12 type  1   force =     0.00000178    0.00000943    0.00178176
     atom   13 type  2   force =    -0.00000401    0.00000315    0.00021262
     atom   14 type  3   force =    -0.00000056   -0.00000054   -0.00044079

     Total force =     0.001904     Total SCF correction =     0.000322
     SCF correction compared to forces is large: reduce conv_thr to get better values

     entering subroutine stress ...

     negative rho (up, down):  1.534E-04 0.000E+00
          total   stress  (Ry/bohr**3)                   (kbar)     P=   -0.53
   0.00000336  -0.00000000  -0.00000000          0.49     -0.00     -0.00
  -0.00000000   0.00000336   0.00000000         -0.00      0.49      0.00
  -0.00000000   0.00000000  -0.00001754         -0.00      0.00     -2.58

     bfgs converged in  17 scf cycles and  16 bfgs steps
     (criteria: energy <  1.0E+00, force <  1.9E-03)

     End of BFGS Geometry Optimization

     Final energy   =   -1137.0605683977 Ry
Begin final coordinates

ATOMIC_POSITIONS (crystal)
Y1       0.166666667   0.166666667   0.386999750    0   0   0
Y1       0.666666667   0.166666667   0.386999750    0   0   0
Y1       0.166666667   0.666666667   0.386999750    0   0   0
Y1       0.666666667   0.666666667   0.386999750    0   0   0
Y1       0.833333333   0.333333333   0.500000000    0   0   0
Y1       0.333333333   0.333333333   0.500000000    0   0   0
Y1       0.833333333   0.833333333   0.500000000    0   0   0
Y1       0.333333333   0.833333333   0.500000000    0   0   0
Y1       0.006593673   0.006600173   0.616203216
Y1       0.486802436   0.006603315   0.616202683
Y1       0.006596970   0.486804445   0.616203326
Y1       0.500001958   0.499993901   0.608807315
C1       0.166669235   0.166664588   0.661777478
H1       0.166665790   0.166667977   0.704669123
End final coordinates

     Writing output data file calc.save

     General routines

     Parallel routines

   This run was terminated on:  22: 8: 2  24Apr2018

   JOB DONE.
Job  /afs/slac/g/suncat/bin/suncat-tsmpirun -x LD_LIBRARY_PATH -wdir /scratch/qe184344_Ot46p pw.x -npool 4 -in pw.inp

TID   HOST_NAME   COMMAND_LINE            STATUS            TERMINATION_TIME
00000 suncat0182 pw.x -npool 4 -i  Done                     04/24/2018 22:08:02
00001 suncat0182 pw.x -npool 4 -i  Done                     04/24/2018 22:08:02
00002 suncat0182 pw.x -npool 4 -i  Done                     04/24/2018 22:08:02
00003 suncat0182 pw.x -npool 4 -i  Done                     04/24/2018 22:08:02
00004 suncat0182 pw.x -npool 4 -i  Done                     04/24/2018 22:08:02
00005 suncat0182 pw.x -npool 4 -i  Done                     04/24/2018 22:08:02
00006 suncat0182 pw.x -npool 4 -i  Done                     04/24/2018 22:08:02
00007 suncat0182 pw.x -npool 4 -i  Done                     04/24/2018 22:08:02
00008 suncat0159 pw.x -npool 4 -i  Done                     04/24/2018 22:08:02
00009 suncat0159 pw.x -npool 4 -i  Done                     04/24/2018 22:08:02
00010 suncat0159 pw.x -npool 4 -i  Done                     04/24/2018 22:08:02
00011 suncat0159 pw.x -npool 4 -i  Done                     04/24/2018 22:08:02
00012 suncat0159 pw.x -npool 4 -i  Done                     04/24/2018 22:08:02
00013 suncat0159 pw.x -npool 4 -i  Done                     04/24/2018 22:08:02
00014 suncat0159 pw.x -npool 4 -i  Done                     04/24/2018 22:08:02
00015 suncat0159 pw.x -npool 4 -i  Done                     04/24/2018 22:08:02
00016 suncat0128 pw.x -npool 4 -i  Done                     04/24/2018 22:08:02
00017 suncat0128 pw.x -npool 4 -i  Done                     04/24/2018 22:08:02
00018 suncat0128 pw.x -npool 4 -i  Done                     04/24/2018 22:08:02
00019 suncat0128 pw.x -npool 4 -i  Done                     04/24/2018 22:08:02
00020 suncat0128 pw.x -npool 4 -i  Done                     04/24/2018 22:08:02
00021 suncat0128 pw.x -npool 4 -i  Done                     04/24/2018 22:08:02
00022 suncat0128 pw.x -npool 4 -i  Done                     04/24/2018 22:08:02
00023 suncat0128 pw.x -npool 4 -i  Done                     04/24/2018 22:08:02
00024 suncat0110 pw.x -npool 4 -i  Done                     04/24/2018 22:08:02
00025 suncat0110 pw.x -npool 4 -i  Done                     04/24/2018 22:08:02
00026 suncat0110 pw.x -npool 4 -i  Done                     04/24/2018 22:08:02
00027 suncat0110 pw.x -npool 4 -i  Done                     04/24/2018 22:08:02
00028 suncat0110 pw.x -npool 4 -i  Done                     04/24/2018 22:08:02
00029 suncat0110 pw.x -npool 4 -i  Done                     04/24/2018 22:08:02
00030 suncat0110 pw.x -npool 4 -i  Done                     04/24/2018 22:08:02
00031 suncat0110 pw.x -npool 4 -i  Done                     04/24/2018 22:08:02