     Program PWSCF v.5.1rc2 (svn rev. 11289) starts on  2May2018 at 18: 2:57

     Current dimensions of program PWSCF are:
     Max number of different atomic species (ntypx) = 10
     Max number of k-points (npk) =  40000
     Max angular momentum in pseudopotentials (lmaxx) =  3
     Presently stress not available with electric field

     IMPORTANT: XC functional enforced from input :
     Exchange-correlation      = BEEF-VDW ( 1  4 27 13 2)
     Any further DFT definition will be discarded
     Please, verify this is what you really want

     Subspace diagonalization in iterative solution of the eigenvalue problem:
     a serial algorithm will be used

     bravais-lattice index     =            0
     lattice parameter (alat)  =       1.8897  a.u.
     unit-cell volume          =    6082.7792 (a.u.)^3
     number of atoms/cell      =           13
     number of atomic types    =            2
     number of electrons       =       148.00
     number of Kohn-Sham states=           84
     kinetic-energy cutoff     =      36.7493  Ry
     charge density cutoff     =     367.4932  Ry
     convergence threshold     =      1.0E-05
     mixing beta               =       0.3000
     number of iterations used =           10  plain     mixing
     Exchange-correlation      = BEEF-VDW ( 1  4 27 13 2)
     nstep                     =           50

     celldm(1)=   1.889726  celldm(2)=   0.000000  celldm(3)=   0.000000
     celldm(4)=   0.000000  celldm(5)=   0.000000  celldm(6)=   0.000000

     crystal axes: (cart. coord. in units of alat)
               a(1) = (   6.421223   0.000000   0.000000 )
               a(2) = (   3.210611   5.560942   0.000000 )
               a(3) = (   0.000000   0.000000  25.242906 )

     reciprocal axes: (cart. coord. in units 2 pi/alat)
               b(1) = (  0.155734 -0.089913  0.000000 )
               b(2) = (  0.000000  0.179826  0.000000 )
               b(3) = (  0.000000  0.000000  0.039615 )

     PseudoPot. # 1 for Zr read from file:
     /u/if/mamunm/psp/gbrv1.5pbe/Zr.UPF
     MD5 check sum: 5db81b1e868ab7776c4564c113de050b
     Pseudo is Ultrasoft + core correction, Zval = 12.0
     Generated by new atomic code, or converted to UPF format
     Using radial grid of  887 points,  6 beta functions with:
                l(1) =   0
                l(2) =   0
                l(3) =   1
                l(4) =   1
                l(5) =   2
                l(6) =   2
     Q(r) pseudized with  6 coefficients,  rinner =    1.200   1.200   1.200
                                                       1.200   1.200

     PseudoPot. # 2 for C  read from file:
     /u/if/mamunm/psp/gbrv1.5pbe/C.UPF
     MD5 check sum: d1aef80898a10debaa0f26306b886e00
     Pseudo is Ultrasoft + core correction, Zval =  4.0
     Generated by new atomic code, or converted to UPF format
     Using radial grid of  721 points,  4 beta functions with:
                l(1) =   0
                l(2) =   0
                l(3) =   1
                l(4) =   1
     Q(r) pseudized with  8 coefficients,  rinner =    1.100   1.100   1.100

     vdW kernel table read from file vdW_kernel_table
     MD5 check sum: 095c7af220d748ca6e76c0b4c6cfb241

     atomic species   valence    mass     pseudopotential
        Zr1           12.00    91.22400     Zr( 1.00)
        C1             4.00    12.01100     C ( 1.00)

     No symmetry found

   Cartesian axes

     site n.     atom                  positions (alat units)
         1           Zr1 tau(   1) = (   1.6053057   0.9268237  10.0000000  )
         2           Zr1 tau(   2) = (   4.8159170   0.9268237  10.0000000  )
         3           Zr1 tau(   3) = (   3.2106113   3.7072946  10.0000000  )
         4           Zr1 tau(   4) = (   6.4212227   3.7072946  10.0000000  )
         5           Zr1 tau(   5) = (   6.4212227   1.8536473  12.6214532  )
         6           Zr1 tau(   6) = (   3.2106113   1.8536473  12.6214532  )
         7           Zr1 tau(   7) = (   8.0265283   4.6341183  12.6214532  )
         8           Zr1 tau(   8) = (   4.8159170   4.6341183  12.6214532  )
         9           Zr1 tau(   9) = (   0.0000000   0.0000000  15.2429064  )
        10           Zr1 tau(  10) = (   3.2106113   0.0000000  15.2429064  )
        11           Zr1 tau(  11) = (   1.6053057   2.7804710  15.2429064  )
        12           Zr1 tau(  12) = (   4.8159170   2.7804710  15.2429064  )
        13           C1  tau(  13) = (   0.0000000   0.0000000  17.3764064  )

     number of k points=    20  Fermi-Dirac smearing, width (Ry)=  0.0110
                       cart. coord. in units 2pi/alat
        k(    1) = (   0.0000000   0.0000000   0.0000000), wk =   0.0555556
        k(    2) = (   0.0000000   0.0299709   0.0000000), wk =   0.1111111
        k(    3) = (   0.0000000   0.0599419   0.0000000), wk =   0.1111111
        k(    4) = (   0.0000000  -0.0899128   0.0000000), wk =   0.0555556
        k(    5) = (   0.0259556  -0.0149855   0.0000000), wk =   0.1111111
        k(    6) = (   0.0259556   0.0149855   0.0000000), wk =   0.1111111
        k(    7) = (   0.0259556   0.0449564   0.0000000), wk =   0.1111111
        k(    8) = (   0.0259556  -0.1048983   0.0000000), wk =   0.1111111
        k(    9) = (   0.0259556  -0.0749274   0.0000000), wk =   0.1111111
        k(   10) = (   0.0259556  -0.0449564   0.0000000), wk =   0.1111111
        k(   11) = (   0.0519112  -0.0299709   0.0000000), wk =   0.1111111
        k(   12) = (   0.0519112   0.0000000   0.0000000), wk =   0.1111111
        k(   13) = (   0.0519112   0.0299709   0.0000000), wk =   0.1111111
        k(   14) = (   0.0519112  -0.1198838   0.0000000), wk =   0.1111111
        k(   15) = (   0.0519112  -0.0899128   0.0000000), wk =   0.1111111
        k(   16) = (   0.0519112  -0.0599419   0.0000000), wk =   0.1111111
        k(   17) = (  -0.0778668   0.0449564   0.0000000), wk =   0.0555556
        k(   18) = (  -0.0778668   0.0749274   0.0000000), wk =   0.1111111
        k(   19) = (  -0.0778668   0.1048983   0.0000000), wk =   0.1111111
        k(   20) = (  -0.0778668  -0.0449564   0.0000000), wk =   0.0555556

     Largest allocated arrays     est. size (Mb)     dimensions
     Largest temporary arrays     est. size (Mb)     dimensions

     Initial potential from superposition of free atoms
     Check: negative starting charge=   -0.729075

     starting charge  147.97417, renormalised to  148.00000

     negative rho (up, down):  7.292E-01 0.000E+00

     *
     * You are using vdW-DF for exchange-correlation in this calculation.
     * Please cite the following three references that made this development
     * possible:
     *
     *   M. Dion, H. Rydberg, E. Schroder, D. C. Langreth, and
     *   B. I. Lundqvist, Phys. Rev. Lett. 92, 246401 (2004).
     *
     *   T. Thonhauser, V. R. Cooper, S. Li, A. Puzder, P. Hyldgaard, and
     *   D. C. Langreth, Phys. Rev. B 76, 125112 (2007).
     *
     *   G. Roman-Perez and J. M. Soler, Phys. Rev. Lett. 103, 096102 (2009).
     *
     *
     * If you are using vdW-DF2, please also cite:
     *
     *   K. Lee, E. D. Murray, L. Kong, B. I. Lundqvist, and
     *   D. C. Langreth, Phys. Rev. B 82, 081101(R) (2010).
     *
     *
     * If you are calculating the stress with vdW-DF, please also cite:
     *
     *   R. Sabatini, E. Kucukbenli, B. Kolb, T. Thonhauser, and
     *   S. de Gironcoli, J. Phys.: Condens. Matter 24, 424209 (2012).
     *

     Carrying out vdW-DF run using the following parameters:

     Nqs =      20    Nr_points =    1024   r_max =   100.000
     q_mesh =
               0.00001000     0.04494208     0.09755937     0.15916263
               0.23128650     0.31572767     0.41458969     0.53033537
               0.66584808     0.82450364     1.01025438     1.22772762
               1.48234092     1.78043706     2.12944203     2.53805004
               3.01644009     3.57652955     4.23227104     5.00000000

     Gradients computed in reciprocal space

     Adding external electric field

     Computed dipole along edir(3) :
        Dipole               -0.0059 Ry au,         -0.0150 Debye
        Dipole field         -0.0000 Ry au

        Potential amp.        0.0011 Ry
        Total length         46.5096 bohr

     Starting wfc are  160 randomized atomic wfcs

     Self-consistent Calculation

     iteration #  1     ecut=    36.75 Ry     beta=0.30
     Davidson diagonalization with overlap
     ethr =  1.00E-02,  avg # of iterations =  2.0

[...]

     total energy              =   -1204.87467025 Ry
     Harris-Foulkes estimate   =   -1208.65068119 Ry
     estimated scf accuracy    <       8.06011472 Ry

[...]

     End of self-consistent calculation

          k = 0.0000 0.0000 0.0000 ( 22923 PWs)   bands (ev):

   -48.3190 -48.2509 -48.2505 -48.2318 -48.1426 -48.1415 -48.1407 -47.9552
   -47.8820 -47.8817 -47.8286 -47.3857 -26.5717 -26.5159 -26.5154 -26.4982
   -26.4916 -26.4507 -26.4504 -26.4094 -26.4090 -26.3565 -26.2860 -26.2175
   -26.2168 -26.0698 -26.0615 -26.0410 -26.0405 -25.9675 -25.9670 -25.9646
   -25.9418 -25.9415 -25.8278 -25.8042 -25.8040 -25.7995 -25.7995 -25.7418
   -25.6873 -25.6872 -25.6871 -25.5292 -25.5291 -25.3728 -25.3727 -25.2886
    -6.9541  -3.8664  -2.7127  -1.9536  -1.5213  -1.5212  -1.5203  -1.3862
    -1.3856  -1.3855  -0.9394  -0.9214  -0.9212  -0.8005  -0.7833  -0.7833
    -0.1362  -0.1360   0.0652   0.6645   0.8449   0.8450   1.0105   1.2508
     1.4506   1.5384   1.5385   1.6011   1.8328   1.8330   1.9673   1.9674
     2.1509   2.1994   2.2407   2.2456

[...]

          k =-0.0779 0.0450 0.0000 ( 22880 PWs)   bands (ev):

[...]

     the Fermi energy is     1.0498 ev

!    total energy              =   -1208.17774854 Ry
     Harris-Foulkes estimate   =   -1208.17774114 Ry
     estimated scf accuracy    <       0.00000502 Ry

     The total energy is the sum of the following terms:

     one-electron contribution =   -8309.69309830 Ry
     hartree contribution      =    4145.31064623 Ry
     xc contribution           =    -223.83782885 Ry
     ewald contribution        =    3180.16029597 Ry
     electric field correction =       0.00048722 Ry
     smearing contrib. (-TS)   =      -0.11825082 Ry

     convergence has been achieved in  18 iterations

 BEEF-vdW xc energy contributions
           1 :   -191.672624718880
           2 :    173.430110117691
           3 :   -142.723087586158
           4 :    108.222274348407
           5 :   -77.7089243593206
           6 :    55.3766937288836
           7 :   -41.2154091926163
           8 :    32.3434548470866
           9 :   -25.2513741810195
          10 :    17.7033455463656
          11 :   -9.47700061096566
          12 :    1.85340042339442
          13 :    3.59677230932678
          14 :   -6.13074593060344
          15 :    6.24544516493043
          16 :   -5.26997556025034
          17 :    4.51946887139616
          18 :   -4.58713699115631
          19 :    5.18075613117458
          20 :   -5.52488797727125
          21 :    4.99809123868135
          22 :   -3.57297438962749
          23 :    1.80812810768333
          24 :  -0.453899058503453
          25 :  -2.924008430284175E-002
          26 :  -0.278901828904480
          27 :   0.873314935426492
          28 :   -1.19151924242607
          29 :   0.973218024814656
          30 :  -0.384134977483171
          31 :   -22.2642595040750
          32 :   -16.5891138036235

     Forces acting on atoms (Ry/au):

     negative rho (up, down):  7.484E-01 0.000E+00
     atom    1 type  1   force =     0.00067814    0.00042542    0.01580835
     atom    2 type  1   force =    -0.00067761    0.00040969    0.01582536
     atom    3 type  1   force =    -0.00001359   -0.00080852    0.01578649
     atom    4 type  1   force =     0.00001303   -0.00002437    0.01474415
     atom    5 type  1   force =    -0.00003952    0.00986164   -0.00831059
     atom    6 type  1   force =     0.00004196   -0.00004581    0.00081749
     atom    7 type  1   force =    -0.00858837   -0.00488217   -0.00829291
     atom    8 type  1   force =     0.00859216   -0.00493780   -0.00824150
     atom    9 type  1   force =    -0.00001018    0.00001594    0.03489568
     atom   10 type  1   force =     0.00000800   -0.00081481    0.00692044
     atom   11 type  1   force =    -0.00072316    0.00040409    0.00690361
     atom   12 type  1   force =     0.00071963    0.00039475    0.00691809
     atom   13 type  2   force =    -0.00000049    0.00000195   -0.09377466

     Total force =     0.100781     Total SCF correction =     0.004589

     entering subroutine stress ...

     negative rho (up, down):  7.484E-01 0.000E+00
          total   stress  (Ry/bohr**3)                   (kbar)     P=  -14.70
  -0.00007655  -0.00000000  -0.00000000        -11.26     -0.00     -0.00
  -0.00000000  -0.00007656  -0.00000000         -0.00    -11.26     -0.00
  -0.00000000  -0.00000000  -0.00014675         -0.00     -0.00    -21.59

     BFGS Geometry Optimization

     number of scf cycles    =   1
     number of bfgs steps    =   0

     energy   new            =   -1208.1777485376 Ry

     new trust radius        =       0.0937746649 bohr
     new conv_thr            =       0.0000099958 Ry

ATOMIC_POSITIONS (crystal)
Zr1      0.166666667   0.166666667   0.396150897    0   0   0
Zr1      0.666666667   0.166666667   0.396150897    0   0   0
Zr1      0.166666667   0.666666667   0.396150897    0   0   0
Zr1      0.666666667   0.666666667   0.396150897    0   0   0
Zr1      0.833333333   0.333333333   0.500000000    0   0   0
Zr1      0.333333333   0.333333333   0.500000000    0   0   0
Zr1      0.833333333   0.833333333   0.500000000    0   0   0
Zr1      0.333333333   0.833333333   0.500000000    0   0   0
Zr1     -0.000001597   0.000001517   0.604580635
Zr1      0.500039428  -0.000077537   0.603994179
Zr1     -0.000078823   0.500038453   0.603993826
Zr1      0.500040523   0.500037564   0.603994129
C1      -0.000000133   0.000000185   0.686402061

     Writing output data file calc.save
     Check: negative starting charge=   -0.729075
     NEW-OLD atomic charge density approx. for the potential
     Check: negative starting charge=   -0.728388

[...]

     energy   old            =   -1208.1777485376 Ry
     energy   new            =   -1208.1866720658 Ry

     CASE: energy  _new < energy  _old

[...]

     WARNING: bfgs curvature condition failed, Theta= 0.986
     new trust radius        =       0.1608773491 bohr
     new conv_thr            =       0.0000001000 Ry

[...]

     iteration #  6     ecut=    36.75 Ry     beta=0.30
     Davidson diagonalization with overlap
     c_bands:  1 eigenvalues not converged
     c_bands:  1 eigenvalues not converged
     ethr =  2.08E-06,  avg # of iterations =  8.3

[...]

     iteration #  4     ecut=    36.75 Ry     beta=0.30
     Davidson diagonalization with overlap
     c_bands:  1 eigenvalues not converged
     ethr =  6.64E-06,  avg # of iterations =  6.8

[...]

     Threshold (ethr) on eigenvalues was too large:
     Diagonalizing with lowered threshold

     Davidson diagonalization with overlap
     ethr =  6.06E-08,  avg # of iterations =  2.1

[...]

     Total force =     0.007424     Total SCF correction =     0.000829
     SCF correction compared to forces is large: reduce conv_thr to get better values

[...]

     Total force =     0.006783     Total SCF correction =     0.000151

[...]

     number of scf cycles    =  13
     number of bfgs steps    =  12

     energy   old            =   -1208.2167410988 Ry
     energy   new            =   -1208.2168514203 Ry

     CASE: energy  _new < energy  _old

     new trust radius        =       0.0062825821 bohr
     new conv_thr            =       0.0000001000 Ry

ATOMIC_POSITIONS (crystal)
Zr1      0.166666667   0.166666667   0.396150897    0   0   0
Zr1      0.666666667   0.166666667   0.396150897    0   0   0
Zr1      0.166666667   0.666666667   0.396150897    0   0   0
Zr1      0.666666667   0.666666667   0.396150897    0   0   0
Zr1      0.833333333   0.333333333   0.500000000    0   0   0
Zr1      0.333333333   0.333333333   0.500000000    0   0   0
Zr1      0.833333333   0.833333333   0.500000000    0   0   0
Zr1      0.333333333   0.833333333   0.500000000    0   0   0
Zr1      0.000001270  -0.000000621   0.592732402
Zr1      0.502847859  -0.005706124   0.604785703
Zr1     -0.005709613   0.502857294   0.604785774
Zr1      0.502846067   0.502861233   0.604785703
C1       0.000008276  -0.000008020   0.669537643

     Writing output data file calc.save
     Check: negative starting charge=   -0.727827
     NEW-OLD atomic charge density approx. for the potential
     Check: negative starting charge=   -0.727958

[...]

     Self-consistent Calculation

[...]

     Threshold (ethr) on eigenvalues was too large:
     Diagonalizing with lowered threshold

     Davidson diagonalization with overlap
     ethr =  4.13E-08,  avg # of iterations =  3.4

[...]

     total energy              =   -1208.21686345 Ry
     Harris-Foulkes estimate   =   -1208.21686343 Ry
     estimated scf accuracy    <       0.00000017 Ry

     iteration #  8     ecut=    36.75 Ry     beta=0.30
     Davidson diagonalization with overlap
     ethr =  1.12E-10,  avg # of iterations =  3.4

[...]

     negative rho (up, down):  7.470E-01 0.000E+00

     Adding external electric field

     Computed dipole along edir(3) :
        Dipole               -0.2521 Ry au,         -0.6407 Debye
        Dipole field         -0.0005 Ry au

        Potential amp.        0.0484 Ry
        Total length         46.5096 bohr

     End of self-consistent calculation

[...]

          k = 0.0519-0.0599 0.0000 ( 22856 PWs)   bands (ev):

[...]

          k =-0.0779-0.0450 0.0000 ( 22880 PWs)   bands (ev):

   -48.1468 -48.1216 -48.1004 -47.9694 -47.9656 -47.9241 -47.9196 -47.6812
   -47.6692 -47.6346 -47.6254 -46.8029 -26.2790 -26.2653 -26.2310 -26.2019
   -26.1699 -26.1574 -26.1234 -26.1201 -26.0691 -26.0604 -26.0476 -26.0273
   -25.9929 -25.9846 -25.9489 -25.9391 -25.9117 -25.8954 -25.8239 -25.7791
   -25.7531 -25.6920 -25.6653 -25.6632 -25.6151 -25.6136 -25.5970 -25.5685
   -25.5651 -25.5436 -25.5356 -25.3876 -25.3718 -24.9361 -24.8672 -24.8240
    -6.7884  -2.2503  -2.1974  -1.3880  -1.1731  -0.7582  -0.6764  -0.6378
    -0.5258  -0.5237  -0.4746  -0.2522  -0.0982   0.0823   0.2657   0.2798
     0.3435   0.3741   0.4138   0.6143   0.7523   0.8094   0.8298   0.8591
     0.9590   1.0532   1.1538   1.2439   1.2755   1.2859   1.5173   1.5508
     1.6675   1.8243   1.9241   1.9685

     the Fermi energy is     1.2655 ev

!    total energy              =   -1208.21686345 Ry
     Harris-Foulkes estimate   =   -1208.21686249 Ry
     estimated scf accuracy    <       0.00000003 Ry

     The total energy is the sum of the following terms:

     one-electron contribution =   -8430.26964105 Ry
     hartree contribution      =    4206.76102509 Ry
     xc contribution           =    -224.07931011 Ry
     ewald contribution        =    3239.48132414 Ry
     electric field correction =       0.00013125 Ry
     smearing contrib. (-TS)   =      -0.11039277 Ry

     convergence has been achieved in   8 iterations

 BEEF-vdW xc energy contributions
           1 :   -191.907848519877
           2 :    173.719927861825
           3 :   -143.076159902008
           4 :    108.595758575099
           5 :   -78.0282789941816
           6 :    55.5691205669073
           7 :   -41.2524865695003
           8 :    32.2657805347172
           9 :   -25.1497272435905
          10 :    17.6631795444297
          11 :   -9.52584049782791
          12 :    1.95014999561965
          13 :    3.52513153635945
          14 :   -6.13502203489554
          15 :    6.32283540043250
          16 :   -5.37310104249383
          17 :    4.59212543677023
          18 :   -4.60151239470667
          19 :    5.15382469731193
          20 :   -5.50305986754461
          21 :    5.02138624719635
          22 :   -3.64465744468359
          23 :    1.89090907640991
          24 :  -0.494976815657594
          25 :  -6.268066148754770E-002
          26 :  -0.179314607277831
          27 :   0.750819104548725
          28 :   -1.09588781459777
          29 :   0.929520634742801
          30 :  -0.379197684368421
          31 :   -22.2816704622590
          32 :   -16.6190152621338

     Forces acting on atoms (Ry/au):

     negative rho (up, down):  7.470E-01 0.000E+00
     atom    1 type  1   force =     0.00066377    0.00038137    0.01575227
     atom    2 type  1   force =    -0.00066372    0.00038169    0.01575163
     atom    3 type  1   force =     0.00000033   -0.00076486    0.01575393
     atom    4 type  1   force =    -0.00000035    0.00000210    0.01504906
     atom    5 type  1   force =    -0.00000025    0.02724255   -0.02500064
     atom    6 type  1   force =    -0.00000037    0.00000089    0.01341844
     atom    7 type  1   force =    -0.02359275   -0.01362133   -0.02500298
     atom    8 type  1   force =     0.02359262   -0.01362159   -0.02500671
     atom    9 type  1   force =    -0.00000618    0.00000495    0.00124727
     atom   10 type  1   force =     0.00000292    0.00038217   -0.00005724
     atom   11 type  1   force =     0.00032943   -0.00018971   -0.00005391
     atom   12 type  1   force =    -0.00032938   -0.00019293   -0.00005521
     atom   13 type  2   force =     0.00000393   -0.00000531   -0.00179591

     Total force =     0.002286     Total SCF correction =     0.000607
     SCF correction compared to forces is large: reduce conv_thr to get better values

     entering subroutine stress ...

     negative rho (up, down):  7.470E-01 0.000E+00
          total   stress  (Ry/bohr**3)                   (kbar)     P=   -9.52
  -0.00007051   0.00000000   0.00000000        -10.37      0.00      0.00
   0.00000000  -0.00007051  -0.00000000          0.00    -10.37     -0.00
   0.00000000  -0.00000000  -0.00005314          0.00     -0.00     -7.82

     bfgs converged in  14 scf cycles and  13 bfgs steps
     (criteria: energy <  1.0E+00, force <  1.9E-03)

     End of BFGS Geometry Optimization

     Final energy   =   -1208.2168634502 Ry
Begin final coordinates

ATOMIC_POSITIONS (crystal)
Zr1      0.166666667   0.166666667   0.396150897    0   0   0
Zr1      0.666666667   0.166666667   0.396150897    0   0   0
Zr1      0.166666667   0.666666667   0.396150897    0   0   0
Zr1      0.666666667   0.666666667   0.396150897    0   0   0
Zr1      0.833333333   0.333333333   0.500000000    0   0   0
Zr1      0.333333333   0.333333333   0.500000000    0   0   0
Zr1      0.833333333   0.833333333   0.500000000    0   0   0
Zr1      0.333333333   0.833333333   0.500000000    0   0   0
Zr1      0.000001270  -0.000000621   0.592732402
Zr1      0.502847859  -0.005706124   0.604785703
Zr1     -0.005709613   0.502857294   0.604785774
Zr1      0.502846067   0.502861233   0.604785703
C1       0.000008276  -0.000008020   0.669537643
End final coordinates

     Writing output data file calc.save

     General routines

     Parallel routines

   This run was terminated on:  19:53:45   2May2018

   JOB DONE.
Job  /afs/slac/g/suncat/bin/suncat-tsmpirun -x LD_LIBRARY_PATH -wdir /scratch/qe829511_LM0Q1 pw.x -npool 4 -in pw.inp

TID   HOST_NAME   COMMAND_LINE            STATUS            TERMINATION_TIME
00000 suncat0077 pw.x -npool 4 -i  Done                     05/02/2018 19:53:45
00001 suncat0077 pw.x -npool 4 -i  Done                     05/02/2018 19:53:45
00002 suncat0077 pw.x -npool 4 -i  Done                     05/02/2018 19:53:45
00003 suncat0077 pw.x -npool 4 -i  Done                     05/02/2018 19:53:45
00004 suncat0077 pw.x -npool 4 -i  Done                     05/02/2018 19:53:45
00005 suncat0077 pw.x -npool 4 -i  Done                     05/02/2018 19:53:45
00006 suncat0077 pw.x -npool 4 -i  Done                     05/02/2018 19:53:45
00007 suncat0077 pw.x -npool 4 -i  Done                     05/02/2018 19:53:45
00008 suncat0074 pw.x -npool 4 -i  Done                     05/02/2018 19:53:45
00009 suncat0074 pw.x -npool 4 -i  Done                     05/02/2018 19:53:45
00010 suncat0074 pw.x -npool 4 -i  Done                     05/02/2018 19:53:45
00011 suncat0074 pw.x -npool 4 -i  Done                     05/02/2018 19:53:45
00012 suncat0074 pw.x -npool 4 -i  Done                     05/02/2018 19:53:45
00013 suncat0074 pw.x -npool 4 -i  Done                     05/02/2018 19:53:45
00014 suncat0074 pw.x -npool 4 -i  Done                     05/02/2018 19:53:45
00015 suncat0074 pw.x -npool 4 -i  Done                     05/02/2018 19:53:45
00016 suncat0064 pw.x -npool 4 -i  Done                     05/02/2018 19:53:45
00017 suncat0064 pw.x -npool 4 -i  Done                     05/02/2018 19:53:45
00018 suncat0064 pw.x -npool 4 -i  Done                     05/02/2018 19:53:45
00019 suncat0064 pw.x -npool 4 -i  Done                     05/02/2018 19:53:45
00020 suncat0064 pw.x -npool 4 -i  Done                     05/02/2018 19:53:45
00021 suncat0064 pw.x -npool 4 -i  Done                     05/02/2018 19:53:45
00022 suncat0064 pw.x -npool 4 -i  Done                     05/02/2018 19:53:45
00023 suncat0064 pw.x -npool 4 -i  Done                     05/02/2018 19:53:45
00024 suncat0252 pw.x -npool 4 -i  Done                     05/02/2018 19:53:45
00025 suncat0252 pw.x -npool 4 -i  Done                     05/02/2018 19:53:45
00026 suncat0252 pw.x -npool 4 -i  Done                     05/02/2018 19:53:45
00027 suncat0252 pw.x -npool 4 -i  Done                     05/02/2018 19:53:45
00028 suncat0252 pw.x -npool 4 -i  Done                     05/02/2018 19:53:45
00029 suncat0252 pw.x -npool 4 -i  Done                     05/02/2018 19:53:45
00030 suncat0252 pw.x -npool 4 -i  Done                     05/02/2018 19:53:45
00031 suncat0252 pw.x -npool 4 -i  Done                     05/02/2018 19:53:45