     Program PWSCF v.5.1rc2 (svn rev. 11289) starts on  3May2018 at  7:20:33

     Current dimensions of program PWSCF are:
     Max number of different atomic species (ntypx) = 10
     Max number of k-points (npk) =  40000
     Max angular momentum in pseudopotentials (lmaxx) =  3
     Presently stress not available with electric field

     IMPORTANT: XC functional enforced from input :
     Exchange-correlation      = BEEF-VDW ( 1  4 27 13 2)
     Any further DFT definition will be discarded
     Please, verify this is what you really want

     Subspace diagonalization in iterative solution of the eigenvalue problem:
     a serial algorithm will be used

     bravais-lattice index     =            0
     lattice parameter (alat)  =       1.8897  a.u.
     unit-cell volume          =    5185.0501 (a.u.)^3
     number of atoms/cell      =           13
     number of atomic types    =            2
     number of electrons       =       162.00
     number of Kohn-Sham states=           91
     kinetic-energy cutoff     =      36.7493  Ry
     charge density cutoff     =     367.4932  Ry
     convergence threshold     =      1.0E-05
     mixing beta               =       0.3000
     number of iterations used =           10  plain     mixing
     Exchange-correlation      = BEEF-VDW ( 1  4 27 13 2)
     nstep                     =           50

     celldm(1)=   1.889726  celldm(2)=   0.000000  celldm(3)=   0.000000
     celldm(4)=   0.000000  celldm(5)=   0.000000  celldm(6)=   0.000000

     crystal axes: (cart. coord. in units of alat)
               a(1) = (   5.972022   0.000000   0.000000 )
               a(2) = (   2.986011   5.171923   0.000000 )
               a(3) = (   0.000000   0.000000  24.876136 )

     reciprocal axes: (cart. coord. in units 2 pi/alat)
               b(1) = (  0.167447 -0.096676  0.000000 )
               b(2) = (  0.000000  0.193352  0.000000 )
               b(3) = (  0.000000  0.000000  0.040199 )

     PseudoPot. # 1 for Ta read from file:
     /u/if/mamunm/psp/gbrv1.5pbe/Ta.UPF
     MD5 check sum: f8bbe9446314a3b8ea5d9f3e3836c939
     Pseudo is Ultrasoft + core correction, Zval = 13.0
     Generated by new atomic code, or converted to UPF format
     Using radial grid of  921 points,  7 beta functions with:
                l(1) =   0
                l(2) =   0
                l(3) =   1
                l(4) =   1
                l(5) =   2
                l(6) =   2
                l(7) =   3
     Q(r) pseudized with  6 coefficients,  rinner =    1.300   1.300   1.300
                                                       1.300   1.300   1.300
                                                       1.300

     PseudoPot. # 2 for O  read from file:
     /u/if/mamunm/psp/gbrv1.5pbe/O.UPF
     MD5 check sum: 734c27235a0248c51dbae37a1fbe46ec
     Pseudo is Ultrasoft + core correction, Zval =  6.0
     Generated by new atomic code, or converted to UPF format
     Using radial grid of  737 points,  5 beta functions with:
                l(1) =   0
                l(2) =   0
                l(3) =   1
                l(4) =   1
                l(5) =   2
     Q(r) pseudized with  8 coefficients,  rinner =    0.900   0.900   0.900
                                                       0.900   0.900

     vdW kernel table read from file vdW_kernel_table
     MD5 check sum: 095c7af220d748ca6e76c0b4c6cfb241

     atomic species   valence    mass     pseudopotential
        Ta1           13.00   180.94788     Ta( 1.00)
        O1             6.00    15.99900     O ( 1.00)

     No symmetry found

   Cartesian axes

     site n.     atom                  positions (alat units)
         1           Ta1 tau(   1) = (   1.4930055   0.8619871  10.0000000  )
         2           Ta1 tau(   2) = (   4.4790165   0.8619871  10.0000000  )
         3           Ta1 tau(   3) = (   2.9860110   3.4479485  10.0000000  )
         4           Ta1 tau(   4) = (   5.9720221   3.4479485  10.0000000  )
         5           Ta1 tau(   5) = (   5.9720221   1.7239743  12.4380678  )
         6           Ta1 tau(   6) = (   2.9860110   1.7239743  12.4380678  )
         7           Ta1 tau(   7) = (   7.4650276   4.3099357  12.4380678  )
         8           Ta1 tau(   8) = (   4.4790165   4.3099357  12.4380678  )
         9           Ta1 tau(   9) = (   0.0000000   0.0000000  14.8761356  )
        10           Ta1 tau(  10) = (   2.9860110   0.0000000  14.8761356  )
        11           Ta1 tau(  11) = (   1.4930055   2.5859614  14.8761356  )
        12           Ta1 tau(  12) = (   4.4790165   2.5859614  14.8761356  )
        13           O1  tau(  13) = (   2.9860110   1.7239743  16.4101356  )

     number of k points=    20  Fermi-Dirac smearing, width (Ry)=  0.0110
                       cart. coord. in units 2pi/alat
        k(    1) = (   0.0000000   0.0000000   0.0000000), wk =   0.0555556
        k(    2) = (   0.0000000   0.0322253   0.0000000), wk =   0.1111111
        k(    3) = (   0.0000000   0.0644506   0.0000000), wk =   0.1111111
        k(    4) = (   0.0000000  -0.0966758   0.0000000), wk =   0.0555556
        k(    5) = (   0.0279079  -0.0161126   0.0000000), wk =   0.1111111
        k(    6) = (   0.0279079   0.0161126   0.0000000), wk =   0.1111111
        k(    7) = (   0.0279079   0.0483379   0.0000000), wk =   0.1111111
        k(    8) = (   0.0279079  -0.1127885   0.0000000), wk =   0.1111111
        k(    9) = (   0.0279079  -0.0805632   0.0000000), wk =   0.1111111
        k(   10) = (   0.0279079  -0.0483379   0.0000000), wk =   0.1111111
        k(   11) = (   0.0558158  -0.0322253   0.0000000), wk =   0.1111111
        k(   12) = (   0.0558158   0.0000000   0.0000000), wk =   0.1111111
        k(   13) = (   0.0558158   0.0322253   0.0000000), wk =   0.1111111
        k(   14) = (   0.0558158  -0.1289011   0.0000000), wk =   0.1111111
        k(   15) = (   0.0558158  -0.0966758   0.0000000), wk =   0.1111111
        k(   16) = (   0.0558158  -0.0644506   0.0000000), wk =   0.1111111
        k(   17) = (  -0.0837237   0.0483379   0.0000000), wk =   0.0555556
        k(   18) = (  -0.0837237   0.0805632   0.0000000), wk =   0.1111111
        k(   19) = (  -0.0837237   0.1127885   0.0000000), wk =   0.1111111
        k(   20) = (  -0.0837237  -0.0483379   0.0000000), wk =   0.0555556

     Largest allocated arrays     est. size (Mb)     dimensions
     Largest temporary arrays     est. size (Mb)     dimensions

     Initial potential from superposition of free atoms
     Check: negative starting charge=   -1.121800

     starting charge  161.98665, renormalised to  162.00000

     negative rho (up, down):  1.122E+00 0.000E+00

     *
     * You are using vdW-DF for exchange-correlation in this calculation.
     * Please cite the following three references that made this development
     * possible:
     *
     *   M. Dion, H. Rydberg, E. Schroder, D. C. Langreth, and
     *   B. I. Lundqvist, Phys. Rev. Lett. 92, 246401 (2004).
     *
     *   T. Thonhauser, V. R. Cooper, S. Li, A. Puzder, P. Hyldgaard, and
     *   D. C. Langreth, Phys. Rev. B 76, 125112 (2007).
     *
     *   G. Roman-Perez and J. M. Soler, Phys. Rev. Lett. 103, 096102 (2009).
     *
     *
     * If you are using vdW-DF2, please also cite:
     *
     *   K. Lee, E. D. Murray, L. Kong, B. I. Lundqvist, and
     *   D. C. Langreth, Phys. Rev. B 82, 081101(R) (2010).
     *
     *
     * If you are calculating the stress with vdW-DF, please also cite:
     *
     *   R. Sabatini, E. Kucukbenli, B. Kolb, T. Thonhauser, and
     *   S. de Gironcoli, J. Phys.: Condens. Matter 24, 424209 (2012).
     *

     Carrying out vdW-DF run using the following parameters:

     Nqs =      20    Nr_points =    1024   r_max =   100.000
     q_mesh =
               0.00001000     0.04494208     0.09755937     0.15916263
               0.23128650     0.31572767     0.41458969     0.53033537
               0.66584808     0.82450364     1.01025438     1.22772762
               1.48234092     1.78043706     2.12944203     2.53805004
               3.01644009     3.57652955     4.23227104     5.00000000

     Gradients computed in reciprocal space

     Adding external electric field

     Computed dipole along edir(3) :
        Dipole               -0.0037 Ry au,         -0.0094 Debye
        Dipole field         -0.0000 Ry au

        Potential amp.        0.0008 Ry
        Total length         45.8339 bohr

     Starting wfc are  160 randomized atomic wfcs

     Self-consistent Calculation

     iteration #  1     ecut=    36.75 Ry     beta=0.30
     Davidson diagonalization with overlap
     ethr =  1.00E-02,  avg # of iterations =  2.0

[...]

     total energy              =   -1749.11070536 Ry
     Harris-Foulkes estimate   =   -1751.44716972 Ry
     estimated scf accuracy    <       5.07787160 Ry

[...]

     End of self-consistent calculation

          k = 0.0000 0.0000 0.0000 ( 19447 PWs)   bands (ev):

   -66.6172 -66.5704 -66.5703 -66.4747 -66.4712 -66.4163 -66.4162 -66.4134
   -66.3707 -66.3229 -66.3195 -66.3194 -33.3202 -33.2613 -33.2613 -33.2132
   -33.1896 -33.1896 -33.1745 -33.1225 -33.1225 -33.1218 -32.9651 -32.8875
   -32.8874 -32.8407 -32.7593 -32.7592 -32.7529 -32.7096 -32.6931 -32.6930
   -32.5774 -32.5754 -32.5754 -32.5271 -32.5257 -32.5257 -32.5035 -32.5035
   -32.4857 -32.4657 -32.4613 -32.4613 -32.3880 -32.3880 -32.3172 -32.3172
   -15.7972  -5.5979  -4.0213  -3.0341  -2.5945  -2.5945  -2.4553  -2.2485
    -2.1521  -2.1521  -1.7361  -1.7361  -1.6992  -1.1624  -1.1624  -1.1090
    -0.9306  -0.9306  -0.5280   0.2084   0.2085   0.3557   1.2069   1.3995
     1.3995   1.6417   1.7807   1.8653   1.9987   1.9987   2.1472   2.2238
     2.2238   2.4703   2.4703   2.5643   2.5676   2.5992   2.5992   2.6718
     2.6718   2.9960   2.9960

[...]

          k =-0.0837 0.0483 0.0000 ( 19532 PWs)   bands (ev):

[...]

     the Fermi energy is     1.8443 ev

!    total energy              =   -1750.98626185 Ry
     Harris-Foulkes estimate   =   -1750.98626085 Ry
     estimated scf accuracy    <       0.00000444 Ry

     The total energy is the sum of the following terms:

     one-electron contribution =  -11802.66876606 Ry
     hartree contribution      =    5885.67943542 Ry
     xc contribution           =    -530.23333727 Ry
     ewald contribution        =    4696.34013692 Ry
     electric field correction =       0.00008001 Ry
     smearing contrib. (-TS)   =      -0.10381088 Ry

     convergence has been achieved in  14 iterations

 BEEF-vdW xc energy contributions
           1 :   -466.673086687325
           2 :    430.513511418207
           3 :   -367.472146856651
           4 :    292.220462383441
           5 :   -219.393267375575
           6 :    159.101909042454
           7 :   -114.960798438037
           8 :    84.9492717930065
           9 :   -64.1723903406830
          10 :    47.9058015286593
          11 :   -33.5177117417464
          12 :    20.7004926693772
          13 :   -10.4091502170472
          14 :    3.45813302865008
          15 :   0.349291187277515
          16 :   -2.20445340675872
          17 :    3.59835467724508
          18 :   -5.49038437614001
          19 :    7.87102802819720
          20 :   -9.94995932314305
          21 :    10.8022318395438
          22 :   -10.0448675185442
          23 :    8.12809337345766
          24 :   -6.08922103727014
          25 :    4.95205169172368
          26 :   -5.15474475771612
          27 :    6.34762781661493
          28 :   -7.66003141546099
          29 :    8.24197822663581
          30 :   -7.73937920488288
          31 :   -41.7764647368721
          32 :   -30.9493971170454

     Forces acting on atoms (Ry/au):

     negative rho (up, down):  1.177E+00 0.000E+00
     atom    1 type  1   force =    -0.00020279   -0.00012295    0.00379652
     atom    2 type  1   force =     0.00020229   -0.00011656    0.00379018
     atom    3 type  1   force =     0.00000577    0.00023712    0.00379628
     atom    4 type  1   force =    -0.00000488    0.00000319    0.00224245
     atom    5 type  1   force =    -0.00000022    0.00273157   -0.00171091
     atom    6 type  1   force =     0.00000269   -0.00000170    0.00808493
     atom    7 type  1   force =    -0.00236759   -0.00136552   -0.00171015
     atom    8 type  1   force =     0.00236716   -0.00136584   -0.00170858
     atom    9 type  1   force =     0.00000476   -0.00000364   -0.04723368
     atom   10 type  1   force =    -0.00000487    0.02616931    0.06392934
     atom   11 type  1   force =     0.02266741   -0.01308715    0.06393751
     atom   12 type  1   force =    -0.02266667   -0.01308019    0.06392875
     atom   13 type  2   force =    -0.00000307    0.00000236   -0.16114266

     Total force =     0.206191     Total SCF correction =     0.001945

     entering subroutine stress ...

     negative rho (up, down):  1.177E+00 0.000E+00
          total   stress  (Ry/bohr**3)                   (kbar)     P=  -37.63
  -0.00030149  -0.00000000   0.00000000        -44.35     -0.00      0.00
  -0.00000000  -0.00030149   0.00000000         -0.00    -44.35      0.00
   0.00000000   0.00000000  -0.00016440          0.00      0.00    -24.18

     BFGS Geometry Optimization

     number of scf cycles    =   1
     number of bfgs steps    =   0

     energy   new            =   -1750.9862618508 Ry

     new trust radius        =       0.1611426556 bohr
     new conv_thr            =       0.0000099958 Ry

ATOMIC_POSITIONS (crystal)
Ta1      0.166666667   0.166666667   0.401991699    0   0   0
Ta1      0.666666667   0.166666667   0.401991699    0   0   0
Ta1      0.166666667   0.666666667   0.401991699    0   0   0
Ta1      0.666666667   0.666666667   0.401991699    0   0   0
Ta1      0.833333333   0.333333333   0.500000000    0   0   0
Ta1      0.333333333   0.333333333   0.500000000    0   0   0
Ta1      0.833333333   0.833333333   0.500000000    0   0   0
Ta1      0.333333333   0.833333333   0.500000000    0   0   0
Ta1      0.000000608  -0.000000373   0.597003524
Ta1      0.498660782   0.002677574   0.599368237
Ta1      0.002678067   0.498660958   0.599368411
Ta1      0.498660685   0.498661671   0.599368225
O1       0.333332941   0.333333575   0.656245923

     Writing output data file calc.save
     Check: negative starting charge=   -1.121800
     NEW-OLD atomic charge density approx. for the potential
     Check: negative starting charge=   -1.122750

[...]

     energy   old            =   -1750.9862618508 Ry
     energy   new            =   -1751.0247082542 Ry

     CASE: energy  _new < energy  _old

[...]

     Total force =     0.004897     Total SCF correction =     0.000361

[...]

     number of scf cycles    =  10
     number of bfgs steps    =   9

     energy   old            =   -1751.0795421019 Ry
     energy   new            =   -1751.0796808419 Ry

     CASE: energy  _new < energy  _old

     new trust radius        =       0.0067349292 bohr
     new conv_thr            =       0.0000001000 Ry

ATOMIC_POSITIONS (crystal)
Ta1      0.166666667   0.166666667   0.401991699    0   0   0
Ta1      0.666666667   0.166666667   0.401991699    0   0   0
Ta1      0.166666667   0.666666667   0.401991699    0   0   0
Ta1      0.666666667   0.666666667   0.401991699    0   0   0
Ta1      0.833333333   0.333333333   0.500000000    0   0   0
Ta1      0.333333333   0.333333333   0.500000000    0   0   0
Ta1      0.833333333   0.833333333   0.500000000    0   0   0
Ta1      0.333333333   0.833333333   0.500000000    0   0   0
Ta1      0.000000203  -0.000000136   0.585961653
Ta1      0.500291374  -0.000582810   0.601086269
Ta1     -0.000583282   0.500291605   0.601086308
Ta1      0.500291316   0.500291380   0.601086266
O1       0.333333498   0.333333232   0.646318795

     Writing output data file calc.save
     Check: negative starting charge=   -1.122002
     NEW-OLD atomic charge density approx. for the potential
     Check: negative starting charge=   -1.122099

[...]

     Self-consistent Calculation

[...]

     Threshold (ethr) on eigenvalues was too large:
     Diagonalizing with lowered threshold

     Davidson diagonalization with overlap
     ethr =  2.13E-08,  avg # of iterations =  3.5

[...]

     total energy              =   -1751.07971647 Ry
     Harris-Foulkes estimate   =   -1751.07971649 Ry
     estimated scf accuracy    <       0.00000032 Ry

     iteration #  8     ecut=    36.75 Ry     beta=0.30
     Davidson diagonalization with overlap
     ethr =  1.98E-10,  avg # of iterations =  3.0

[...]

     negative rho (up, down):  1.178E+00 0.000E+00

     Adding external electric field

     Computed dipole along edir(3) :
        Dipole                0.0600 Ry au,          0.1524 Debye
        Dipole field          0.0001 Ry au

        Potential amp.       -0.0133 Ry
        Total length         45.8339 bohr

     End of self-consistent calculation

[...]

          k = 0.0558-0.0645 0.0000 ( 19521 PWs)   bands (ev):

[...]

          k =-0.0837-0.0483 0.0000 ( 19532 PWs)   bands (ev):

   -66.3826 -66.3685 -66.3538 -66.1484 -66.1431 -66.1184 -66.1123 -66.0840
   -66.0034 -65.9844 -65.9708 -65.8479 -33.0433 -32.8773 -32.8634 -32.8417
   -32.7965 -32.7870 -32.7467 -32.7197 -32.7127 -32.6950 -32.6711 -32.6628
   -32.6495 -32.6100 -32.6061 -32.4894 -32.4832 -32.4797 -32.4121 -32.4083
   -32.3994 -32.3865 -32.3649 -32.3358 -32.3205 -32.3030 -32.2632 -32.2325
   -32.2168 -32.1885 -32.1804 -32.1029 -32.0870 -32.0290 -31.9651 -31.9296
   -17.3917  -4.2378  -3.7252  -3.6127  -3.2905  -3.1665  -1.9996  -1.7082
    -1.1744  -1.1380  -0.9848  -0.8234  -0.7837  -0.6950  -0.0722   0.0089
     0.1975   0.2349   0.3929   0.5341   0.6119   0.7934   0.8388   0.9491
     1.0668   1.0814   1.2788   1.2962   1.4746   1.5474   1.5536   1.6121
     1.7372   1.7999   1.9878   2.2101   2.3968   2.4042   2.4900   2.8353
     2.9970   3.1500   3.5388

     the Fermi energy is     2.1297 ev

!    total energy              =   -1751.07971650 Ry
     Harris-Foulkes estimate   =   -1751.07971654 Ry
     estimated scf accuracy    <       0.00000007 Ry

     The total energy is the sum of the following terms:

     one-electron contribution =  -11917.53603588 Ry
     hartree contribution      =    5944.34973122 Ry
     xc contribution           =    -530.54796617 Ry
     ewald contribution        =    4752.75015644 Ry
     electric field correction =       0.00000871 Ry
     smearing contrib. (-TS)   =      -0.09561082 Ry

     convergence has been achieved in   8 iterations

 BEEF-vdW xc energy contributions
           1 :   -466.994979419806
           2 :    430.923642461855
           3 :   -367.966912504213
           4 :    292.701344109066
           5 :   -219.727721157768
           6 :    159.193121935979
           7 :   -114.795658636774
           8 :    84.6054466381881
           9 :   -63.7826184718552
          10 :    47.5970143488064
          11 :   -33.3546057671818
          12 :    20.6640106838383
          13 :   -10.4205988235931
          14 :    3.43023294528524
          15 :   0.465199248609849
          16 :   -2.39826366700964
          17 :    3.81616702270009
          18 :   -5.67357879283333
          19 :    7.99422172934879
          20 :   -10.0344133190620
          21 :    10.8982796845253
          22 :   -10.1963054642279
          23 :    8.34136774050273
          24 :   -6.32546161083923
          25 :    5.14641433857940
          26 :   -5.25376720749688
          27 :    6.34326680165833
          28 :   -7.59822908950952
          29 :    8.20002734560347
          30 :   -7.78489121149784
          31 :   -41.7950652759899
          32 :   -30.9836577245417

     Forces acting on atoms (Ry/au):

     negative rho (up, down):  1.178E+00 0.000E+00
     atom    1 type  1   force =     0.00186340    0.00107585    0.00228039
     atom    2 type  1   force =    -0.00186340    0.00107582    0.00228041
     atom    3 type  1   force =    -0.00000003   -0.00215165    0.00228041
     atom    4 type  1   force =     0.00000003    0.00000000    0.00197695
     atom    5 type  1   force =     0.00000005    0.02995341   -0.01296238
     atom    6 type  1   force =    -0.00000004    0.00000003    0.03391257
     atom    7 type  1   force =    -0.02594038   -0.01497675   -0.01296240
     atom    8 type  1   force =     0.02594053   -0.01497677   -0.01296274
     atom    9 type  1   force =    -0.00000019    0.00000011    0.00119488
     atom   10 type  1   force =    -0.00000018   -0.00082074   -0.00110236
     atom   11 type  1   force =    -0.00071014    0.00040998   -0.00110248
     atom   12 type  1   force =     0.00071079    0.00041052   -0.00110234
     atom   13 type  2   force =    -0.00000042    0.00000019   -0.00173093

     Total force =     0.003176     Total SCF correction =     0.000534
     SCF correction compared to forces is large: reduce conv_thr to get better values

     entering subroutine stress ...

     negative rho (up, down):  1.178E+00 0.000E+00
          total   stress  (Ry/bohr**3)                   (kbar)     P=  -26.40
  -0.00023866   0.00000000  -0.00000000        -35.11      0.00     -0.00
   0.00000000  -0.00023866   0.00000000          0.00    -35.11      0.00
  -0.00000000   0.00000000  -0.00006111         -0.00      0.00     -8.99

     bfgs converged in  11 scf cycles and  10 bfgs steps
     (criteria: energy <  1.0E+00, force <  1.9E-03)

     End of BFGS Geometry Optimization

     Final energy   =   -1751.0797164963 Ry
Begin final coordinates

ATOMIC_POSITIONS (crystal)
Ta1      0.166666667   0.166666667   0.401991699    0   0   0
Ta1      0.666666667   0.166666667   0.401991699    0   0   0
Ta1      0.166666667   0.666666667   0.401991699    0   0   0
Ta1      0.666666667   0.666666667   0.401991699    0   0   0
Ta1      0.833333333   0.333333333   0.500000000    0   0   0
Ta1      0.333333333   0.333333333   0.500000000    0   0   0
Ta1      0.833333333   0.833333333   0.500000000    0   0   0
Ta1      0.333333333   0.833333333   0.500000000    0   0   0
Ta1      0.000000203  -0.000000136   0.585961653
Ta1      0.500291374  -0.000582810   0.601086269
Ta1     -0.000583282   0.500291605   0.601086308
Ta1      0.500291316   0.500291380   0.601086266
O1       0.333333498   0.333333232   0.646318795
End final coordinates

     Writing output data file calc.save

     General routines

     Parallel routines

   This run was terminated on:   9: 0:22   3May2018

   JOB DONE.
Job  /afs/slac/g/suncat/bin/suncat-tsmpirun -x LD_LIBRARY_PATH -wdir /scratch/qe660275_LIIbp pw.x -npool 4 -in pw.inp

TID   HOST_NAME   COMMAND_LINE            STATUS            TERMINATION_TIME
00000 suncat0179 pw.x -npool 4 -i  Done                     05/03/2018 09:00:22
00001 suncat0179 pw.x -npool 4 -i  Done                     05/03/2018 09:00:22
00002 suncat0179 pw.x -npool 4 -i  Done                     05/03/2018 09:00:22
00003 suncat0179 pw.x -npool 4 -i  Done                     05/03/2018 09:00:22
00004 suncat0179 pw.x -npool 4 -i  Done                     05/03/2018 09:00:22
00005 suncat0179 pw.x -npool 4 -i  Done                     05/03/2018 09:00:22
00006 suncat0179 pw.x -npool 4 -i  Done                     05/03/2018 09:00:22
00007 suncat0179 pw.x -npool 4 -i  Done                     05/03/2018 09:00:22
00008 suncat0174 pw.x -npool 4 -i  Done                     05/03/2018 09:00:22
00009 suncat0174 pw.x -npool 4 -i  Done                     05/03/2018 09:00:22
00010 suncat0174 pw.x -npool 4 -i  Done                     05/03/2018 09:00:22
00011 suncat0174 pw.x -npool 4 -i  Done                     05/03/2018 09:00:22
00012 suncat0174 pw.x -npool 4 -i  Done                     05/03/2018 09:00:22
00013 suncat0174 pw.x -npool 4 -i  Done                     05/03/2018 09:00:22
00014 suncat0174 pw.x -npool 4 -i  Done                     05/03/2018 09:00:22
00015 suncat0174 pw.x -npool 4 -i  Done                     05/03/2018 09:00:22
00016 suncat0135 pw.x -npool 4 -i  Done                     05/03/2018 09:00:22
00017 suncat0135 pw.x -npool 4 -i  Done                     05/03/2018 09:00:22
00018 suncat0135 pw.x -npool 4 -i  Done                     05/03/2018 09:00:22
00019 suncat0135 pw.x -npool 4 -i  Done                     05/03/2018 09:00:22
00020 suncat0135 pw.x -npool 4 -i  Done                     05/03/2018 09:00:22
00021 suncat0135 pw.x -npool 4 -i  Done                     05/03/2018 09:00:22
00022 suncat0135 pw.x -npool 4 -i  Done                     05/03/2018 09:00:22
00023 suncat0135 pw.x -npool 4 -i  Done                     05/03/2018 09:00:22
00024 suncat0282 pw.x -npool 4 -i  Done                     05/03/2018 09:00:22
00025 suncat0282 pw.x -npool 4 -i  Done                     05/03/2018 09:00:22
00026 suncat0282 pw.x -npool 4 -i  Done                     05/03/2018 09:00:22
00027 suncat0282 pw.x -npool 4 -i  Done                     05/03/2018 09:00:22
00028 suncat0282 pw.x -npool 4 -i  Done                     05/03/2018 09:00:22
00029 suncat0282 pw.x -npool 4 -i  Done                     05/03/2018 09:00:22
00030 suncat0282 pw.x -npool 4 -i  Done                     05/03/2018 09:00:22
00031 suncat0282 pw.x -npool 4 -i  Done                     05/03/2018 09:00:22