     Program PWSCF v.5.1rc2 (svn rev. 11289) starts on 17Jan2019 at 13: 2:36

     Current dimensions of program PWSCF are:
     Max number of different atomic species (ntypx) = 10
     Max number of k-points (npk) =  40000
     Max angular momentum in pseudopotentials (lmaxx) =  3

     IMPORTANT: XC functional enforced from input :
     Exchange-correlation      = BEEF-VDW ( 1  4 27 13 2)
     Any further DFT definition will be discarded
     Please, verify this is what you really want

     Subspace diagonalization in iterative solution of the eigenvalue problem:
     a serial algorithm will be used

     bravais-lattice index     =            0
     lattice parameter (alat)  =      10.3598  a.u.
     unit-cell volume          =    4299.0717 (a.u.)^3
     number of atoms/cell      =           14
     number of atomic types    =            3
     number of electrons       =       187.00
     number of Kohn-Sham states=          103
     kinetic-energy cutoff     =      36.7493  Ry
     charge density cutoff     =     367.4933  Ry
     convergence threshold     =      1.0E-04
     mixing beta               =       0.2000
     number of iterations used =            8  plain     mixing
     Exchange-correlation      = BEEF-VDW ( 1  4 27 13 2)
     nstep                     =           50

     celldm(1)=  10.359788  celldm(2)=   0.000000  celldm(3)=   0.000000
     celldm(4)=   0.000000  celldm(5)=   0.000000  celldm(6)=   0.000000

     crystal axes: (cart. coord. in units of alat)
               a(1) = (   1.000000   0.000000   0.000000 )
               a(2) = (   0.500000   0.866025   0.000000 )
               a(3) = (   0.000000   0.000000   4.464691 )

     reciprocal axes: (cart. coord. in units 2 pi/alat)
               b(1) = (  1.000000 -0.577350  0.000000 )
               b(2) = (  0.000000  1.154701  0.000000 )
               b(3) = (  0.000000  0.000000  0.223980 )

     PseudoPot. # 1 for Ir read from file:
     /nfs/slac/g/suncatfs/mamunm/src/decaf-espresso/gbrv15pbe/Ir.UPF
     MD5 check sum: 8836f839c3459d2b385c504ce6d91f2c
     Pseudo is Ultrasoft + core correction, Zval = 15.0
     Generated by new atomic code, or converted to UPF format
     Using radial grid of  983 points,  7 beta functions with:
                l(1) =   0
                l(2) =   0
                l(3) =   1
                l(4) =   1
                l(5) =   1
                l(6) =   2
                l(7) =   2
     Q(r) pseudized with  8 coefficients,  rinner =    1.400   1.400   1.400
                                                       1.400   1.400

     PseudoPot. # 2 for O  read from file:
     /nfs/slac/g/suncatfs/mamunm/src/decaf-espresso/gbrv15pbe/O.UPF
     MD5 check sum: 734c27235a0248c51dbae37a1fbe46ec
     Pseudo is Ultrasoft + core correction, Zval =  6.0
     Generated by new atomic code, or converted to UPF format
     Using radial grid of  737 points,  5 beta functions with:
                l(1) =   0
                l(2) =   0
                l(3) =   1
                l(4) =   1
                l(5) =   2
     Q(r) pseudized with  8 coefficients,  rinner =    0.900   0.900   0.900
                                                       0.900   0.900

     PseudoPot. # 3 for H  read from file:
     /nfs/slac/g/suncatfs/mamunm/src/decaf-espresso/gbrv15pbe/H.UPF
     MD5 check sum: 761ae9a214b05c3daf00ab9f6b793d6f
     Pseudo is Ultrasoft, Zval =  1.0
     Generated by new atomic code, or converted to UPF format
     Using radial grid of  615 points,  2 beta functions with:
                l(1) =   0
                l(2) =   0
     Q(r) pseudized with  8 coefficients,  rinner =    0.700

     vdW kernel table read from file vdW_kernel_table
     MD5 check sum: 095c7af220d748ca6e76c0b4c6cfb241

     atomic species   valence    mass     pseudopotential
        Ir            15.00   192.21700     Ir( 1.00)
        O              6.00    15.99900     O ( 1.00)
        H              1.00     1.00800     H ( 1.00)

     No symmetry found

   Cartesian axes

     site n.     atom                  positions (alat units)
         1           Ir  tau(   1) = (   0.2500000   0.1443376   1.8240972  )
         2           Ir  tau(   2) = (   0.7500000   0.1443376   1.8240972  )
         3           Ir  tau(   3) = (   0.5000000   0.5773503   1.8240972  )
         4           Ir  tau(   4) = (   1.0000000   0.5773503   1.8240972  )
         5           Ir  tau(   5) = (   1.0000000   0.2886751   2.2323455  )
         6           Ir  tau(   6) = (   0.5000000   0.2886751   2.2323455  )
         7           Ir  tau(   7) = (   1.2500000   0.7216878   2.2323455  )
         8           Ir  tau(   8) = (   0.7500000   0.7216878   2.2323455  )
         9           Ir  tau(   9) = (   0.0000000   0.0000000   2.6405938  )
        10           Ir  tau(  10) = (   0.5000000   0.0000000   2.6405938  )
        11           Ir  tau(  11) = (   0.2500000   0.4330127   2.6405938  )
        12           Ir  tau(  12) = (   0.7500000   0.4330127   2.6405938  )
        13           O   tau(  13) = (   0.0000000   0.0000000   2.9615437  )
        14           H   tau(  14) = (   0.0000000   0.0000000   3.1348330  )

     number of k points=    20  Fermi-Dirac smearing, width (Ry)=  0.0110
                       cart. coord. in units 2pi/alat
        k(    1) = (   0.0000000   0.0000000   0.0000000), wk =   0.0555556
        k(    2) = (   0.0000000   0.1924501   0.0000000), wk =   0.1111111
        k(    3) = (   0.0000000   0.3849002   0.0000000), wk =   0.1111111
        k(    4) = (   0.0000000  -0.5773503   0.0000000), wk =   0.0555556
        k(    5) = (   0.1666667  -0.0962250   0.0000000), wk =   0.1111111
        k(    6) = (   0.1666667   0.0962250   0.0000000), wk =   0.1111111
        k(    7) = (   0.1666667   0.2886751   0.0000000), wk =   0.1111111
        k(    8) = (   0.1666667  -0.6735753   0.0000000), wk =   0.1111111
        k(    9) = (   0.1666667  -0.4811252   0.0000000), wk =   0.1111111
        k(   10) = (   0.1666667  -0.2886751   0.0000000), wk =   0.1111111
        k(   11) = (   0.3333333  -0.1924501   0.0000000), wk =   0.1111111
        k(   12) = (   0.3333333   0.0000000   0.0000000), wk =   0.1111111
        k(   13) = (   0.3333333   0.1924501   0.0000000), wk =   0.1111111
        k(   14) = (   0.3333333  -0.7698004   0.0000000), wk =   0.1111111
        k(   15) = (   0.3333333  -0.5773503   0.0000000), wk =   0.1111111
        k(   16) = (   0.3333333  -0.3849002   0.0000000), wk =   0.1111111
        k(   17) = (  -0.5000000   0.2886751   0.0000000), wk =   0.0555556
        k(   18) = (  -0.5000000   0.4811252   0.0000000), wk =   0.1111111
        k(   19) = (  -0.5000000   0.6735753   0.0000000), wk =   0.1111111
        k(   20) = (  -0.5000000  -0.2886751   0.0000000), wk =   0.0555556

     Largest allocated arrays     est. size (Mb)     dimensions
     Largest temporary arrays     est. size (Mb)     dimensions

     Initial potential from superposition of free atoms
     Check: negative starting charge=   -4.361186

     starting charge  180.99961, renormalised to  187.00000

     negative rho (up, down):  4.506E+00 0.000E+00

     *
     * You are using vdW-DF for exchange-correlation in this calculation.
     * Please cite the following three references that made this development
     * possible:
     *
     *   M. Dion, H. Rydberg, E. Schroder, D. C. Langreth, and
     *   B. I. Lundqvist, Phys. Rev. Lett. 92, 246401 (2004).
     *
     *   T. Thonhauser, V. R. Cooper, S. Li, A. Puzder, P. Hyldgaard, and
     *   D. C. Langreth, Phys. Rev. B 76, 125112 (2007).
     *
     *   G. Roman-Perez and J. M. Soler, Phys. Rev. Lett. 103, 096102 (2009).
     *
     *
     * If you are using vdW-DF2, please also cite:
     *
     *   K. Lee, E. D. Murray, L. Kong, B. I. Lundqvist, and
     *   D. C. Langreth, Phys. Rev. B 82, 081101(R) (2010).
     *
     *
     * If you are calculating the stress with vdW-DF, please also cite:
     *
     *   R. Sabatini, E. Kucukbenli, B. Kolb, T. Thonhauser, and
     *   S. de Gironcoli, J. Phys.: Condens. Matter 24, 424209 (2012).
     *

     Carrying out vdW-DF run using the following parameters:

     Nqs =      20    Nr_points =    1024   r_max =   100.000
     q_mesh =
               0.00001000     0.04494208     0.09755937     0.15916263
               0.23128650     0.31572767     0.41458969     0.53033537
               0.66584808     0.82450364     1.01025438     1.22772762
               1.48234092     1.78043706     2.12944203     2.53805004
               3.01644009     3.57652955     4.23227104     5.00000000

     Gradients computed in reciprocal space

     Adding external electric field

     Computed dipole along edir(3) :
        Dipole               -1.8125 Ry au,         -4.6069 Debye
        Dipole field         -0.0053 Ry au

        Potential amp.        0.4411 Ry
        Total length         41.6279 bohr

     Starting wfc are  149 randomized atomic wfcs

     Self-consistent Calculation

     iteration #  1     ecut=    36.75 Ry     beta=0.20
     Davidson diagonalization with overlap
     ethr =  1.00E-02,  avg # of iterations =  3.0

[...]

     total energy              =   -2197.16708338 Ry
     Harris-Foulkes estimate   =   -2236.77590234 Ry
     estimated scf accuracy    <     115.78901944 Ry

[...]

     iteration #  3     ecut=    36.75 Ry     beta=0.20
     Davidson diagonalization with overlap
     c_bands:  1 eigenvalues not converged
     ethr =  1.00E-02,  avg # of iterations =  9.4

[...]

     End of self-consistent calculation

          k = 0.0000 0.0000 0.0000 ( 16073 PWs)   bands (ev):

   -47.3589 -46.8677 -46.8675 -46.8643 -46.8265 -46.8264 -46.6979 -46.6079
   -46.6076 -46.5860 -46.4462 -46.4427 -46.4424 -46.3153 -46.3021 -46.3020
   -46.2810 -46.2803 -46.2415 -46.0356 -46.0347 -45.9434 -45.9341 -45.9103
   -45.9095 -45.8975 -45.8962 -45.8539 -45.8445 -45.8247 -45.8225 -45.8020
   -45.7936 -45.7925 -45.7854 -45.7852 -17.3524  -6.9586  -6.1213  -4.3953
    -4.0109  -3.7383  -3.7383  -3.6481  -3.4156  -3.4156  -3.3226  -3.0680
    -3.0679  -2.8513  -2.6484  -2.6484  -2.5970  -2.1108  -2.1108  -1.0938
    -0.6998  -0.6995  -0.5311  -0.3430  -0.2449  -0.2446  -0.1434  -0.1433
     0.1073   0.2085   0.2086   0.2980   0.3838   0.3839   0.5151   0.5152
     0.8959   0.8962   1.2085   2.0956   2.0959   2.1675   2.1872   2.2298
     2.2301   2.5692   2.6022   2.6026   2.9779   2.9781   3.5561   3.5564
     3.5918   3.6722   3.6723   3.6780   3.8480   3.8481   4.1912   4.1952
     4.1952   4.3413   4.5422   4.5432   4.7184   4.7580   4.7583

[...]

          k =-0.5000 0.2887 0.0000 ( 16164 PWs)   bands (ev):

[...]

     the Fermi energy is     3.2485 ev

!    total energy              =   -2233.42689888 Ry
     Harris-Foulkes estimate   =   -2233.42686662 Ry
     estimated scf accuracy    <       0.00002330 Ry

     The total energy is the sum of the following terms:

     one-electron contribution =  -18966.12298201 Ry
     hartree contribution      =    9520.11642948 Ry
     xc contribution           =    -632.11345479 Ry
     ewald contribution        =    7844.79189665 Ry
     electric field correction =       0.00062822 Ry
     smearing contrib. (-TS)   =      -0.09941643 Ry

     convergence has been achieved in  18 iterations

     Forces acting on atoms (Ry/au):

     negative rho (up, down):  3.880E+00 0.000E+00
     atom    1 type  1   force =    -0.00205498   -0.00116911    0.02084567
     atom    2 type  1   force =     0.00204945   -0.00117230    0.02066867
     atom    3 type  1   force =    -0.00000926    0.00237062    0.02097697
     atom    4 type  1   force =    -0.00000082   -0.00001798    0.00484438
     atom    5 type  1   force =     0.00005900   -0.00580230    0.00400162
     atom    6 type  1   force =    -0.00004256    0.00010404   -0.00047667
     atom    7 type  1   force =     0.00515600    0.00279282    0.00388197
     atom    8 type  1   force =    -0.00515443    0.00286376    0.00379860
     atom    9 type  1   force =     0.00000104    0.00000578   -0.22425231
     atom   10 type  1   force =     0.00000578    0.00164872   -0.03336262
     atom   11 type  1   force =     0.00139673   -0.00080895   -0.03339895
     atom   12 type  1   force =    -0.00140358   -0.00081551   -0.03335586
     atom   13 type  2   force =    -0.00000361   -0.00000074    0.21707966
     atom   14 type  3   force =     0.00000124    0.00000114    0.02874887

     Total force =     0.318729     Total SCF correction =     0.009283

     BFGS Geometry Optimization

     number of scf cycles    =   1
     number of bfgs steps    =   0

     energy   new            =   -2233.4268988835 Ry

     new trust radius        =       0.2242523117 bohr
     new conv_thr            =       0.0001000000 Ry

ATOMIC_POSITIONS (angstrom)
Ir       1.370540971   0.791282198  10.000000000    0   0   0
Ir       4.111622912   0.791282198  10.000000000    0   0   0
Ir       2.741081941   3.165128793  10.000000000    0   0   0
Ir       5.482163883   3.165128793  10.000000000    0   0   0
Ir       5.482163883   1.582564397  12.238084033    0   0   0
Ir       2.741081941   1.582564397  12.238084033    0   0   0
Ir       6.852704853   3.956410992  12.238084033    0   0   0
Ir       4.111622912   3.956410992  12.238084033    0   0   0
Ir       0.000000549   0.000003058  14.357498854
Ir       2.741085000   0.000872468  14.458513329
Ir       1.371280089   2.373418517  14.458494103
Ir       4.110880168   2.373415046  14.458516906
O       -0.000001911  -0.000000392  16.350541676
H        0.000000657   0.000000605  17.200881315

     Writing output data file calc.save
     Check: negative starting charge=   -4.361186
     NEW-OLD atomic charge density approx. for the potential
     Check: negative starting charge=   -4.369081

[...]

     iteration #  1     ecut=    36.75 Ry     beta=0.20
     Davidson diagonalization with overlap
     c_bands:  1 eigenvalues not converged
     c_bands:  1 eigenvalues not converged
     c_bands:  1 eigenvalues not converged
     ethr =  1.00E-06,  avg # of iterations = 14.1

[...]

     energy   old            =   -2233.4268988835 Ry
     energy   new            =   -2233.4318081160 Ry

     CASE: energy  _new < energy  _old

[...]

     Total force =     0.015683     Total SCF correction =     0.004516
     SCF correction compared to forces is large: reduce conv_thr to get better values

[...]

     Total force =     0.015192     Total SCF correction =     0.001511

[...]

     number of scf cycles    =  12
     number of bfgs steps    =  11

     energy   old            =   -2233.4775041139 Ry
     energy   new            =   -2233.4775716058 Ry

     CASE: energy  _new < energy  _old

     new trust radius        =       0.0047232639 bohr
     new conv_thr            =       0.0000010000 Ry

ATOMIC_POSITIONS (angstrom)
Ir       1.370540971   0.791282198  10.000000000    0   0   0
Ir       4.111622912   0.791282198  10.000000000    0   0   0
Ir       2.741081941   3.165128793  10.000000000    0   0   0
Ir       5.482163883   3.165128793  10.000000000    0   0   0
Ir       5.482163883   1.582564397  12.238084033    0   0   0
Ir       2.741081941   1.582564397  12.238084033    0   0   0
Ir       6.852704853   3.956410992  12.238084033    0   0   0
Ir       4.111622912   3.956410992  12.238084033    0   0   0
Ir       0.000010601   0.000011368  14.470675759
Ir       2.741082106   0.001739586  14.395092437
Ir       1.372052551   2.372978131  14.395097165
Ir       4.110114741   2.372979699  14.395093982
O       -0.000064428  -0.000045901  16.451709590
H        0.000042411   0.000030942  17.416251058

     Writing output data file calc.save
     Check: negative starting charge=   -4.361968
     NEW-OLD atomic charge density approx. for the potential
     Check: negative starting charge=   -4.361925

[...]

     Self-consistent Calculation

[...]

     total energy              =   -2233.47758356 Ry
     Harris-Foulkes estimate   =   -2233.47758326 Ry
     estimated scf accuracy    <       0.00000147 Ry

     iteration #  6     ecut=    36.75 Ry     beta=0.20
     Davidson diagonalization with overlap
     ethr =  7.87E-10,  avg # of iterations =  2.3

     negative rho (up, down):  3.882E+00 0.000E+00

     Adding external electric field

     Computed dipole along edir(3) :
        Dipole                0.2568 Ry au,          0.6527 Debye
        Dipole field          0.0008 Ry au

        Potential amp.       -0.0625 Ry
        Total length         41.6279 bohr

     End of self-consistent calculation

[...]

          k = 0.3333-0.3849 0.0000 ( 16191 PWs)   bands (ev):

[...]

          k =-0.5000-0.2887 0.0000 ( 16164 PWs)   bands (ev):

   -47.2262 -47.1361 -47.1312 -47.0859 -47.0603 -47.0268 -47.0061 -46.9803
   -46.9508 -46.9362 -46.9118 -46.8664 -46.8376 -46.7652 -46.7460 -46.5737
   -46.5106 -46.5009 -46.4127 -46.4049 -46.3737 -46.3697 -46.3575 -46.3352
   -46.3195 -46.3027 -46.2881 -46.2784 -46.2703 -46.2253 -46.2098 -46.2036
   -46.1942 -46.1708 -46.1494 -46.1380 -16.0266  -5.3439  -4.8241  -4.5928
    -3.3505  -3.3294  -3.0922  -3.0229  -2.9723  -2.9664  -2.9337  -2.8549
    -2.4222  -2.3478  -2.0730  -2.0129  -1.8904  -1.8751  -1.6450  -1.5893
    -1.5498  -1.4074  -1.1676  -1.0788  -0.8690  -0.7052  -0.6578  -0.4705
    -0.3582  -0.2608  -0.2430  -0.2114  -0.0660   0.1218   0.1238   0.1706
     0.1796   0.1820   0.2070   0.2285   0.3294   0.4037   0.9272   0.9875
     1.0643   1.1839   1.3924   1.4710   1.5171   1.6770   1.7093   1.8331
     1.9308   1.9426   2.0803   2.1586   2.5320   2.5850   2.6376   2.7221
     2.7356   2.9892   3.3522   3.6121   3.6856   3.6909   3.9508

     the Fermi energy is     2.9335 ev

!    total energy              =   -2233.47758310 Ry
     Harris-Foulkes estimate   =   -2233.47757820 Ry
     estimated scf accuracy    <       0.00000074 Ry

     The total energy is the sum of the following terms:

     one-electron contribution =  -19025.16164739 Ry
     hartree contribution      =    9548.10662240 Ry
     xc contribution           =    -632.08609078 Ry
     ewald contribution        =    7875.76020445 Ry
     electric field correction =       0.00019274 Ry
     smearing contrib. (-TS)   =      -0.09686452 Ry

     convergence has been achieved in   6 iterations

     Forces acting on atoms (Ry/au):

     negative rho (up, down):  3.882E+00 0.000E+00
     atom    1 type  1   force =    -0.00219302   -0.00126617    0.01757029
     atom    2 type  1   force =     0.00219301   -0.00126598    0.01756995
     atom    3 type  1   force =     0.00000016    0.00253230    0.01756969
     atom    4 type  1   force =    -0.00000032   -0.00000021    0.00977134
     atom    5 type  1   force =     0.00000022   -0.01024581   -0.01185381
     atom    6 type  1   force =    -0.00000025    0.00000002   -0.02743065
     atom    7 type  1   force =     0.00887435    0.00512343   -0.01185341
     atom    8 type  1   force =    -0.00887383    0.00512341   -0.01185470
     atom    9 type  1   force =     0.00000459    0.00000253    0.00091585
     atom   10 type  1   force =     0.00000157   -0.00037668    0.00008129
     atom   11 type  1   force =    -0.00032774    0.00018976    0.00007813
     atom   12 type  1   force =     0.00032835    0.00018841    0.00007940
     atom   13 type  2   force =    -0.00002189   -0.00001590   -0.00016668
     atom   14 type  3   force =     0.00001479    0.00001089   -0.00047667

     Total force =     0.001242     Total SCF correction =     0.003596
     SCF correction compared to forces is large: reduce conv_thr to get better values

     bfgs converged in  13 scf cycles and  12 bfgs steps
     (criteria: energy <  1.0E+12, force <  1.9E-03)

     End of BFGS Geometry Optimization

     Final energy   =   -2233.4775830988 Ry
Begin final coordinates

ATOMIC_POSITIONS (angstrom)
Ir       1.370540971   0.791282198  10.000000000    0   0   0
Ir       4.111622912   0.791282198  10.000000000    0   0   0
Ir       2.741081941   3.165128793  10.000000000    0   0   0
Ir       5.482163883   3.165128793  10.000000000    0   0   0
Ir       5.482163883   1.582564397  12.238084033    0   0   0
Ir       2.741081941   1.582564397  12.238084033    0   0   0
Ir       6.852704853   3.956410992  12.238084033    0   0   0
Ir       4.111622912   3.956410992  12.238084033    0   0   0
Ir       0.000010601   0.000011368  14.470675759
Ir       2.741082106   0.001739586  14.395092437
Ir       1.372052551   2.372978131  14.395097165
Ir       4.110114741   2.372979699  14.395093982
O       -0.000064428  -0.000045901  16.451709590
H        0.000042411   0.000030942  17.416251058
End final coordinates

     Writing output data file calc.save

     General routines

     Parallel routines

   This run was terminated on:  13:28:16  17Jan2019

   JOB DONE.
Job  /afs/slac/g/suncat/bin/suncat-tsmpirun -x LD_LIBRARY_PATH -wdir /tmp/qe_693716c5kpivsw_scratch pw.x -npool 2 -in pw.pwi

TID   HOST_NAME   COMMAND_LINE            STATUS            TERMINATION_TIME
00000 suncat2067 pw.x -npool 2 -i  Done                     01/17/2019 13:28:16
00001 suncat2067 pw.x -npool 2 -i  Done                     01/17/2019 13:28:16
00002 suncat2067 pw.x -npool 2 -i  Done                     01/17/2019 13:28:16
00003 suncat2067 pw.x -npool 2 -i  Done                     01/17/2019 13:28:16
00004 suncat2067 pw.x -npool 2 -i  Done                     01/17/2019 13:28:16
00005 suncat2067 pw.x -npool 2 -i  Done                     01/17/2019 13:28:16
00006 suncat2067 pw.x -npool 2 -i  Done                     01/17/2019 13:28:16
00007 suncat2067 pw.x -npool 2 -i  Done                     01/17/2019 13:28:16
00008 suncat2067 pw.x -npool 2 -i  Done                     01/17/2019 13:28:16
00009 suncat2067 pw.x -npool 2 -i  Done                     01/17/2019 13:28:16
00010 suncat2067 pw.x -npool 2 -i  Done                     01/17/2019 13:28:16
00011 suncat2067 pw.x -npool 2 -i  Done                     01/17/2019 13:28:16
00012 suncat2067 pw.x -npool 2 -i  Done                     01/17/2019 13:28:16
00013 suncat2067 pw.x -npool 2 -i  Done                     01/17/2019 13:28:16
00014 suncat2067 pw.x -npool 2 -i  Done                     01/17/2019 13:28:16
00015 suncat2067 pw.x -npool 2 -i  Done                     01/17/2019 13:28:16
00016 suncat2065 pw.x -npool 2 -i  Done                     01/17/2019 13:28:16
00017 suncat2065 pw.x -npool 2 -i  Done                     01/17/2019 13:28:16
00018 suncat2065 pw.x -npool 2 -i  Done                     01/17/2019 13:28:16
00019 suncat2065 pw.x -npool 2 -i  Done                     01/17/2019 13:28:16
00020 suncat2065 pw.x -npool 2 -i  Done                     01/17/2019 13:28:16
00021 suncat2065 pw.x -npool 2 -i  Done                     01/17/2019 13:28:16
00022 suncat2065 pw.x -npool 2 -i  Done                     01/17/2019 13:28:16
00023 suncat2065 pw.x -npool 2 -i  Done                     01/17/2019 13:28:16
00024 suncat2065 pw.x -npool 2 -i  Done                     01/17/2019 13:28:16
00025 suncat2065 pw.x -npool 2 -i  Done                     01/17/2019 13:28:16
00026 suncat2065 pw.x -npool 2 -i  Done                     01/17/2019 13:28:16
00027 suncat2065 pw.x -npool 2 -i  Done                     01/17/2019 13:28:16
00028 suncat2065 pw.x -npool 2 -i  Done                     01/17/2019 13:28:16
00029 suncat2065 pw.x -npool 2 -i  Done                     01/17/2019 13:28:16
00030 suncat2065 pw.x -npool 2 -i  Done                     01/17/2019 13:28:16
00031 suncat2065 pw.x -npool 2 -i  Done                     01/17/2019 13:28:16