     Program PWSCF v.5.1rc2 (svn rev. 11289) starts on 19Apr2018 at  8:59: 9

     Current dimensions of program PWSCF are:
     Max number of different atomic species (ntypx) = 10
     Max number of k-points (npk) =  40000
     Max angular momentum in pseudopotentials (lmaxx) =  3
     Presently stress not available with electric field

     IMPORTANT: XC functional enforced from input :
     Exchange-correlation      = BEEF-VDW ( 1  4 27 13 2)
     Any further DFT definition will be discarded
     Please, verify this is what you really want

     Subspace diagonalization in iterative solution of the eigenvalue problem:
     a serial algorithm will be used

     bravais-lattice index     =            0
     lattice parameter (alat)  =       1.8897  a.u.
     unit-cell volume          =    5182.3421 (a.u.)^3
     number of atoms/cell      =           14
     number of atomic types    =            3
     number of electrons       =       163.00
     number of Kohn-Sham states=           91
     kinetic-energy cutoff     =      36.7493  Ry
     charge density cutoff     =     367.4932  Ry
     convergence threshold     =      1.0E-05
     mixing beta               =       0.3000
     number of iterations used =           10  plain     mixing
     Exchange-correlation      = BEEF-VDW ( 1  4 27 13 2)
     nstep                     =           50

     celldm(1)=   1.889726  celldm(2)=   0.000000  celldm(3)=   0.000000
     celldm(4)=   0.000000  celldm(5)=   0.000000  celldm(6)=   0.000000

     crystal axes: (cart. coord. in units of alat)
               a(1) = (   5.970602   0.000000   0.000000 )
               a(2) = (   2.985301   5.170693   0.000000 )
               a(3) = (   0.000000   0.000000  24.874976 )

     reciprocal axes: (cart. coord. in units 2 pi/alat)
               b(1) = (  0.167487 -0.096699  0.000000 )
               b(2) = (  0.000000  0.193398  0.000000 )
               b(3) = (  0.000000  0.000000  0.040201 )

     PseudoPot. # 1 for Nb read from file:
     /u/if/mamunm/psp/gbrv1.5pbe/Nb.UPF
     MD5 check sum: 573aab8a2fa660278ed4a62cd769473f
     Pseudo is Ultrasoft + core correction, Zval = 13.0
     Generated by new atomic code, or converted to UPF format
     Using radial grid of  887 points,  6 beta functions with:
                l(1) =   0
                l(2) =   0
                l(3) =   1
                l(4) =   1
                l(5) =   2
                l(6) =   2
     Q(r) pseudized with  6 coefficients,  rinner =    1.000   1.000   1.000
                                                       1.000   1.000

     PseudoPot. # 2 for O  read from file:
     /u/if/mamunm/psp/gbrv1.5pbe/O.UPF
     MD5 check sum: 734c27235a0248c51dbae37a1fbe46ec
     Pseudo is Ultrasoft + core correction, Zval =  6.0
     Generated by new atomic code, or converted to UPF format
     Using radial grid of  737 points,  5 beta functions with:
                l(1) =   0
                l(2) =   0
                l(3) =   1
                l(4) =   1
                l(5) =   2
     Q(r) pseudized with  8 coefficients,  rinner =    0.900   0.900   0.900
                                                       0.900   0.900

     PseudoPot. # 3 for H  read from file:
     /u/if/mamunm/psp/gbrv1.5pbe/H.UPF
     MD5 check sum: 761ae9a214b05c3daf00ab9f6b793d6f
     Pseudo is Ultrasoft, Zval =  1.0
     Generated by new atomic code, or converted to UPF format
     Using radial grid of  615 points,  2 beta functions with:
                l(1) =   0
                l(2) =   0
     Q(r) pseudized with  8 coefficients,  rinner =    0.700

     vdW kernel table read from file vdW_kernel_table
     MD5 check sum: 095c7af220d748ca6e76c0b4c6cfb241

     atomic species   valence    mass     pseudopotential
        Nb1           13.00    92.90637     Nb( 1.00)
        O1             6.00    15.99900     O ( 1.00)
        H1             1.00     1.00800     H ( 1.00)

     No symmetry found

   Cartesian axes

     site n.     atom                  positions (alat units)
         1           Nb1 tau(   1) = (   1.4926504   0.8617821  10.0000000  )
         2           Nb1 tau(   2) = (   4.4779512   0.8617821  10.0000000  )
         3           Nb1 tau(   3) = (   2.9853008   3.4471284  10.0000000  )
         4           Nb1 tau(   4) = (   5.9706016   3.4471284  10.0000000  )
         5           Nb1 tau(   5) = (   5.9706016   1.7235642  12.4374879  )
         6           Nb1 tau(   6) = (   2.9853008   1.7235642  12.4374879  )
         7           Nb1 tau(   7) = (   7.4632520   4.3089105  12.4374879  )
         8           Nb1 tau(   8) = (   4.4779512   4.3089105  12.4374879  )
         9           Nb1 tau(   9) = (   0.0000000   0.0000000  14.8749758  )
        10           Nb1 tau(  10) = (   2.9853008   0.0000000  14.8749758  )
        11           Nb1 tau(  11) = (   1.4926504   2.5853463  14.8749758  )
        12           Nb1 tau(  12) = (   4.4779512   2.5853463  14.8749758  )
        13           O1  tau(  13) = (   2.9853008   1.7235642  16.3699758  )
        14           H1  tau(  14) = (   2.9853008   1.7235642  17.3199758  )

     number of k points=    20  Fermi-Dirac smearing, width (Ry)=  0.0110
                       cart. coord. in units 2pi/alat
        k(    1) = (   0.0000000   0.0000000   0.0000000), wk =   0.0555556
        k(    2) = (   0.0000000   0.0322329   0.0000000), wk =   0.1111111
        k(    3) = (   0.0000000   0.0644659   0.0000000), wk =   0.1111111
        k(    4) = (   0.0000000  -0.0966988   0.0000000), wk =   0.0555556
        k(    5) = (   0.0279146  -0.0161165   0.0000000), wk =   0.1111111
        k(    6) = (   0.0279146   0.0161165   0.0000000), wk =   0.1111111
        k(    7) = (   0.0279146   0.0483494   0.0000000), wk =   0.1111111
        k(    8) = (   0.0279146  -0.1128153   0.0000000), wk =   0.1111111
        k(    9) = (   0.0279146  -0.0805824   0.0000000), wk =   0.1111111
        k(   10) = (   0.0279146  -0.0483494   0.0000000), wk =   0.1111111
        k(   11) = (   0.0558291  -0.0322329   0.0000000), wk =   0.1111111
        k(   12) = (   0.0558291   0.0000000   0.0000000), wk =   0.1111111
        k(   13) = (   0.0558291   0.0322329   0.0000000), wk =   0.1111111
        k(   14) = (   0.0558291  -0.1289318   0.0000000), wk =   0.1111111
        k(   15) = (   0.0558291  -0.0966988   0.0000000), wk =   0.1111111
        k(   16) = (   0.0558291  -0.0644659   0.0000000), wk =   0.1111111
        k(   17) = (  -0.0837437   0.0483494   0.0000000), wk =   0.0555556
        k(   18) = (  -0.0837437   0.0805824   0.0000000), wk =   0.1111111
        k(   19) = (  -0.0837437   0.1128153   0.0000000), wk =   0.1111111
        k(   20) = (  -0.0837437  -0.0483494   0.0000000), wk =   0.0555556

     Largest allocated arrays     est. size (Mb)     dimensions
     Largest temporary arrays     est. size (Mb)     dimensions

     Initial potential from superposition of free atoms
     Check: negative starting charge=   -0.005035

     starting charge  162.96719, renormalised to  163.00000

     negative rho (up, down):  5.036E-03 0.000E+00

     *
     * You are using vdW-DF for exchange-correlation in this calculation.
     * Please cite the following three references that made this development
     * possible:
     *
     *   M. Dion, H. Rydberg, E. Schroder, D. C. Langreth, and
     *   B. I. Lundqvist, Phys. Rev. Lett. 92, 246401 (2004).
     *
     *   T. Thonhauser, V. R. Cooper, S. Li, A. Puzder, P. Hyldgaard, and
     *   D. C. Langreth, Phys. Rev. B 76, 125112 (2007).
     *
     *   G. Roman-Perez and J. M. Soler, Phys. Rev. Lett. 103, 096102 (2009).
     *
     *
     * If you are using vdW-DF2, please also cite:
     *
     *   K. Lee, E. D. Murray, L. Kong, B. I. Lundqvist, and
     *   D. C. Langreth, Phys. Rev. B 82, 081101(R) (2010).
     *
     *
     * If you are calculating the stress with vdW-DF, please also cite:
     *
     *   R. Sabatini, E. Kucukbenli, B. Kolb, T. Thonhauser, and
     *   S. de Gironcoli, J. Phys.: Condens. Matter 24, 424209 (2012).
     *

     Carrying out vdW-DF run using the following parameters:

     Nqs =      20    Nr_points =    1024   r_max =   100.000
     q_mesh =
               0.00001000     0.04494208     0.09755937     0.15916263
               0.23128650     0.31572767     0.41458969     0.53033537
               0.66584808     0.82450364     1.01025438     1.22772762
               1.48234092     1.78043706     2.12944203     2.53805004
               3.01644009     3.57652955     4.23227104     5.00000000

     Gradients computed in reciprocal space

     Adding external electric field

     Computed dipole along edir(3) :
        Dipole               -0.0108 Ry au,         -0.0273 Debye
        Dipole field         -0.0000 Ry au

        Potential amp.        0.0024 Ry
        Total length         45.8317 bohr

     Starting wfc are  161 randomized atomic wfcs

     Self-consistent Calculation

     iteration #  1     ecut=    36.75 Ry     beta=0.30
     Davidson diagonalization with overlap
     ethr =  1.00E-02,  avg # of iterations =  2.0

[...]

     total energy              =   -1453.93920010 Ry
     Harris-Foulkes estimate   =   -1456.70271718 Ry
     estimated scf accuracy    <       6.10860633 Ry

[...]

     End of self-consistent calculation

          k = 0.0000 0.0000 0.0000 ( 19435 PWs)   bands (ev):

   -52.7792 -52.6636 -52.6633 -52.6530 -52.5533 -52.5326 -52.5122 -52.5115
   -52.5078 -52.4557 -52.4473 -52.4471 -29.2852 -29.1530 -29.1528 -29.0947
   -29.0913 -29.0912 -29.0753 -29.0167 -29.0127 -29.0124 -28.7810 -28.6947
   -28.6944 -28.6018 -28.5553 -28.5548 -28.5544 -28.4916 -28.4914 -28.4871
   -28.3739 -28.3737 -28.3729 -28.3318 -28.3268 -28.3266 -28.2665 -28.2594
   -28.2593 -28.2494 -28.2352 -28.2351 -28.1532 -28.1532 -28.0791 -28.0791
   -18.8913  -6.9881  -3.1100  -3.1100  -2.9658  -1.6639  -1.2455  -1.0896
    -1.0896  -0.9524  -0.7374  -0.6750  -0.6750  -0.4152  -0.3835  -0.3834
    -0.2577  -0.2576  -0.1146   0.8668   0.8669   1.0330   1.7311   1.8796
     1.8796   2.1061   2.1743   2.5570   2.5571   2.6003   2.7644   2.7644
     2.8313   2.8553   2.8554   2.8900   2.9216   2.9216   3.0674   3.0675
     3.3360   3.7240   3.7240

[...]

          k =-0.0837 0.0483 0.0000 ( 19524 PWs)   bands (ev):

[...]

     the Fermi energy is     2.4772 ev

!    total energy              =   -1456.04699571 Ry
     Harris-Foulkes estimate   =   -1456.04701151 Ry
     estimated scf accuracy    <       0.00000800 Ry

     The total energy is the sum of the following terms:

     one-electron contribution =  -11883.53888369 Ry
     hartree contribution      =    5939.30236631 Ry
     xc contribution           =    -236.63872570 Ry
     ewald contribution        =    4724.94633895 Ry
     electric field correction =       0.00032993 Ry
     smearing contrib. (-TS)   =      -0.11842151 Ry

     convergence has been achieved in  13 iterations

 BEEF-vdW xc energy contributions
           1 :   -202.848578954854
           2 :    184.202466136902
           3 :   -152.493030268520
           4 :    116.295899860792
           5 :   -83.7800916078120
           6 :    60.0008589584616
           7 :   -45.8645040977538
           8 :    38.8392576494331
           9 :   -34.8462884411239
          10 :    30.3100019645436
          11 :   -23.5015270235104
          12 :    14.7526562025246
          13 :   -5.71438406452091
          14 :   -1.81296783473957
          15 :    6.84192341764094
          16 :   -9.55532897021644
          17 :    10.9991886618550
          18 :   -12.3845441090276
          19 :    14.4006977122580
          20 :   -16.9022673344692
          21 :    19.0878173038198
          22 :   -20.0258253209932
          23 :    19.2026844715770
          24 :   -16.7998365626509
          25 :    13.5774583433397
          26 :   -10.4739686681535
          27 :    8.15944224863748
          28 :   -6.78127519564816
          29 :    6.00436253780967
          30 :   -5.29114745512538
          31 :   -23.3891431660199
          32 :   -17.6042239516640

     Forces acting on atoms (Ry/au):

     negative rho (up, down):  4.545E-03 0.000E+00
     atom    1 type  1   force =    -0.00019683   -0.00010250   -0.00267543
     atom    2 type  1   force =     0.00019597   -0.00008984   -0.00267230
     atom    3 type  1   force =     0.00000641    0.00021576   -0.00267200
     atom    4 type  1   force =    -0.00001380    0.00000103   -0.00547650
     atom    5 type  1   force =     0.00000590   -0.00116532   -0.00448444
     atom    6 type  1   force =    -0.00000731   -0.00001080    0.00287627
     atom    7 type  1   force =     0.00101215    0.00058510   -0.00446755
     atom    8 type  1   force =    -0.00100835    0.00059016   -0.00446213
     atom    9 type  1   force =     0.00000387    0.00002821   -0.02637361
     atom   10 type  1   force =    -0.00000547   -0.02210154    0.03010663
     atom   11 type  1   force =    -0.01916235    0.01103111    0.03011020
     atom   12 type  1   force =     0.01915491    0.01103299    0.03009341
     atom   13 type  2   force =     0.00001561   -0.00001292   -0.08653233
     atom   14 type  3   force =    -0.00000072   -0.00000145    0.04662978

     Total force =     0.120592     Total SCF correction =     0.004474

     entering subroutine stress ...

     negative rho (up, down):  4.545E-03 0.000E+00
          total   stress  (Ry/bohr**3)                   (kbar)     P=  -20.95
  -0.00022508   0.00000001  -0.00000001        -33.11      0.00     -0.00
   0.00000001  -0.00022507  -0.00000000          0.00    -33.11     -0.00
  -0.00000001  -0.00000000   0.00002296         -0.00     -0.00      3.38

     BFGS Geometry Optimization

     number of scf cycles    =   1
     number of bfgs steps    =   0

     energy   new            =   -1456.0469957103 Ry

     new trust radius        =       0.0865323352 bohr
     new conv_thr            =       0.0000099958 Ry

ATOMIC_POSITIONS (crystal)
Nb1      0.166666667   0.166666667   0.402010442    0   0   0
Nb1      0.666666667   0.166666667   0.402010442    0   0   0
Nb1      0.166666667   0.666666667   0.402010442    0   0   0
Nb1      0.666666667   0.666666667   0.402010442    0   0   0
Nb1      0.833333333   0.333333333   0.500000000    0   0   0
Nb1      0.333333333   0.333333333   0.500000000    0   0   0
Nb1      0.833333333   0.833333333   0.500000000    0   0   0
Nb1      0.333333333   0.833333333   0.500000000    0   0   0
Nb1     -0.000001101   0.000002887   0.597428500
Nb1      0.501130470  -0.002261908   0.598630031
Nb1     -0.002262839   0.501128942   0.598630107
Nb1      0.501133142   0.501129134   0.598629750
O1       0.333335378   0.333332012   0.656249276
H1       0.333333343   0.333333185   0.697273089

     Writing output data file calc.save
     Check: negative starting charge=   -0.005035
     NEW-OLD atomic charge density approx. for the potential
     Check: negative starting charge=   -0.005021

[...]

     energy   old            =   -1456.0469957103 Ry
     energy   new            =   -1456.0505783828 Ry

     CASE: energy  _new < energy  _old

[...]

     Total force =     0.016784     Total SCF correction =     0.000308

[...]

     Total force =     0.007187     Total SCF correction =     0.000779
     SCF correction compared to forces is large: reduce conv_thr to get better values

[...]

     Threshold (ethr) on eigenvalues was too large:
     Diagonalizing with lowered threshold

     Davidson diagonalization with overlap
     ethr =  3.52E-08,  avg # of iterations =  4.0

[...]

     number of scf cycles    =  12
     number of bfgs steps    =  11

     energy   old            =   -1456.0751217497 Ry
     energy   new            =   -1456.0751719229 Ry

     CASE: energy  _new < energy  _old

     new trust radius        =       0.0034494073 bohr
     new conv_thr            =       0.0000001000 Ry

ATOMIC_POSITIONS (crystal)
Nb1      0.166666667   0.166666667   0.402010442    0   0   0
Nb1      0.666666667   0.166666667   0.402010442    0   0   0
Nb1      0.166666667   0.666666667   0.402010442    0   0   0
Nb1      0.666666667   0.666666667   0.402010442    0   0   0
Nb1      0.833333333   0.333333333   0.500000000    0   0   0
Nb1      0.333333333   0.333333333   0.500000000    0   0   0
Nb1      0.833333333   0.833333333   0.500000000    0   0   0
Nb1      0.333333333   0.833333333   0.500000000    0   0   0
Nb1     -0.000000869  -0.000001631   0.582137084
Nb1      0.506091758  -0.012179179   0.602117565
Nb1     -0.012168591   0.506084120   0.602116773
Nb1      0.506088646   0.506084082   0.602117987
O1       0.333342554   0.333327653   0.656373343
H1       0.333336227   0.333331743   0.695532533

     Writing output data file calc.save
     Check: negative starting charge=   -0.005077
     NEW-OLD atomic charge density approx. for the potential
     Check: negative starting charge=   -0.005080

[...]

     Self-consistent Calculation

[...]

     Threshold (ethr) on eigenvalues was too large:
     Diagonalizing with lowered threshold

     Davidson diagonalization with overlap
     ethr =  1.97E-08,  avg # of iterations =  5.0

[...]

     total energy              =   -1456.07518807 Ry
     Harris-Foulkes estimate   =   -1456.07518791 Ry
     estimated scf accuracy    <       0.00000016 Ry

     iteration #  8     ecut=    36.75 Ry     beta=0.30
     Davidson diagonalization with overlap
     ethr =  1.01E-10,  avg # of iterations =  3.9

[...]

     negative rho (up, down):  4.520E-03 0.000E+00

     Adding external electric field

     Computed dipole along edir(3) :
        Dipole                0.4287 Ry au,          1.0896 Debye
        Dipole field          0.0010 Ry au

        Potential amp.       -0.0953 Ry
        Total length         45.8317 bohr

     End of self-consistent calculation

[...]

          k = 0.0558-0.0645 0.0000 ( 19505 PWs)   bands (ev):

[...]

          k =-0.0837-0.0483 0.0000 ( 19524 PWs)   bands (ev):

   -52.7166 -52.6694 -52.6394 -52.5382 -52.5176 -52.4811 -52.4493 -52.4441
   -52.4263 -52.3629 -52.3332 -52.2152 -29.0678 -29.0090 -28.9547 -28.9181
   -28.9069 -28.8788 -28.8346 -28.7850 -28.7763 -28.7621 -28.7351 -28.7252
   -28.7164 -28.6286 -28.6105 -28.5522 -28.5326 -28.5271 -28.4731 -28.4653
   -28.4363 -28.4271 -28.4235 -28.3718 -28.3534 -28.3467 -28.3073 -28.2702
   -28.2567 -28.2116 -28.2004 -28.1207 -28.1018 -28.0199 -27.9459 -27.8644
   -19.1205  -7.0940  -3.5923  -3.4582  -1.3693  -1.3190  -0.5090  -0.3221
    -0.1277  -0.0753  -0.0296   0.0854   0.1227   0.2701   0.4667   0.6289
     0.6664   0.7583   0.8503   1.0193   1.0721   1.3302   1.3737   1.4375
     1.4636   1.5591   1.7164   1.8200   1.8991   2.0037   2.1690   2.1743
     2.1920   2.2639   2.4367   2.4787   2.6357   2.6644   2.8000   2.8648
     3.0784   3.2017   3.5322

     the Fermi energy is     2.5288 ev

!    total energy              =   -1456.07518803 Ry
     Harris-Foulkes estimate   =   -1456.07518725 Ry
     estimated scf accuracy    <       0.00000010 Ry

     The total energy is the sum of the following terms:

     one-electron contribution =  -11919.63950821 Ry
     hartree contribution      =    5957.66739496 Ry
     xc contribution           =    -236.73698013 Ry
     ewald contribution        =    4742.74141955 Ry
     electric field correction =       0.00044560 Ry
     smearing contrib. (-TS)   =      -0.10795981 Ry

     convergence has been achieved in   8 iterations

 BEEF-vdW xc energy contributions
           1 :   -202.950482622668
           2 :    184.327670007709
           3 :   -152.640099591884
           4 :    116.433799624735
           5 :   -83.8603997429429
           6 :    59.9761864143039
           7 :   -45.7082998757560
           8 :    38.5617042398474
           9 :   -34.4991438167727
          10 :    29.9727723351576
          11 :   -23.2498473184202
          12 :    14.6211048760502
          13 :   -5.67477106126407
          14 :   -1.84105870510189
          15 :    6.95127154753843
          16 :   -9.80100096083325
          17 :    11.3651976577796
          18 :   -12.7879209423381
          19 :    14.7332592477670
          20 :   -17.0862783245406
          21 :    19.1152271153784
          22 :   -19.9612395699628
          23 :    19.1499311231889
          24 :   -16.8506237067910
          25 :    13.7670330038874
          26 :   -10.7638605636593
          27 :    8.45545344564349
          28 :   -6.97911226627662
          29 :    6.04200792706627
          30 :   -5.18078937849722
          31 :   -23.3953942202356
          32 :   -17.6130054293461

     Forces acting on atoms (Ry/au):

     negative rho (up, down):  4.520E-03 0.000E+00
     atom    1 type  1   force =     0.00172325    0.00099847   -0.00195113
     atom    2 type  1   force =    -0.00172361    0.00099742   -0.00195173
     atom    3 type  1   force =    -0.00000031   -0.00199533   -0.00195989
     atom    4 type  1   force =     0.00000010    0.00000095    0.00174729
     atom    5 type  1   force =     0.00000158    0.02500862   -0.01437919
     atom    6 type  1   force =    -0.00000187   -0.00000459    0.04701403
     atom    7 type  1   force =    -0.02166503   -0.01250336   -0.01437892
     atom    8 type  1   force =     0.02166382   -0.01250058   -0.01437938
     atom    9 type  1   force =     0.00000350    0.00000549   -0.00010266
     atom   10 type  1   force =    -0.00000227   -0.00099390    0.00004069
     atom   11 type  1   force =    -0.00085638    0.00049022    0.00004389
     atom   12 type  1   force =     0.00086112    0.00049554    0.00003497
     atom   13 type  2   force =    -0.00000425    0.00000143   -0.00015138
     atom   14 type  3   force =     0.00000033   -0.00000037    0.00037338

     Total force =     0.001768     Total SCF correction =     0.000341
     SCF correction compared to forces is large: reduce conv_thr to get better values

     entering subroutine stress ...

     negative rho (up, down):  4.520E-03 0.000E+00
          total   stress  (Ry/bohr**3)                   (kbar)     P=  -17.45
  -0.00017905   0.00000000  -0.00000000        -26.34      0.00     -0.00
   0.00000000  -0.00017913   0.00000000          0.00    -26.35      0.00
  -0.00000000   0.00000000   0.00000226         -0.00      0.00      0.33

     bfgs converged in  13 scf cycles and  12 bfgs steps
     (criteria: energy <  1.0E+00, force <  1.9E-03)

     End of BFGS Geometry Optimization

     Final energy   =   -1456.0751880312 Ry
Begin final coordinates

ATOMIC_POSITIONS (crystal)
Nb1      0.166666667   0.166666667   0.402010442    0   0   0
Nb1      0.666666667   0.166666667   0.402010442    0   0   0
Nb1      0.166666667   0.666666667   0.402010442    0   0   0
Nb1      0.666666667   0.666666667   0.402010442    0   0   0
Nb1      0.833333333   0.333333333   0.500000000    0   0   0
Nb1      0.333333333   0.333333333   0.500000000    0   0   0
Nb1      0.833333333   0.833333333   0.500000000    0   0   0
Nb1      0.333333333   0.833333333   0.500000000    0   0   0
Nb1     -0.000000869  -0.000001631   0.582137084
Nb1      0.506091758  -0.012179179   0.602117565
Nb1     -0.012168591   0.506084120   0.602116773
Nb1      0.506088646   0.506084082   0.602117987
O1       0.333342554   0.333327653   0.656373343
H1       0.333336227   0.333331743   0.695532533
End final coordinates

     Writing output data file calc.save

     General routines

     Parallel routines

   This run was terminated on:  10:31:45  19Apr2018

   JOB DONE.
Job  /afs/slac/g/suncat/bin/suncat-tsmpirun -x LD_LIBRARY_PATH -wdir /scratch/qe720536_3G2eF pw.x -npool 4 -in pw.inp

TID   HOST_NAME   COMMAND_LINE            STATUS            TERMINATION_TIME
00000 suncat0070 pw.x -npool 4 -i  Done                     04/19/2018 10:31:45
00001 suncat0070 pw.x -npool 4 -i  Done                     04/19/2018 10:31:45
00002 suncat0070 pw.x -npool 4 -i  Done                     04/19/2018 10:31:45
00003 suncat0070 pw.x -npool 4 -i  Done                     04/19/2018 10:31:45
00004 suncat0070 pw.x -npool 4 -i  Done                     04/19/2018 10:31:45
00005 suncat0070 pw.x -npool 4 -i  Done                     04/19/2018 10:31:45
00006 suncat0070 pw.x -npool 4 -i  Done                     04/19/2018 10:31:45
00007 suncat0070 pw.x -npool 4 -i  Done                     04/19/2018 10:31:45
00008 suncat0060 pw.x -npool 4 -i  Done                     04/19/2018 10:31:45
00009 suncat0060 pw.x -npool 4 -i  Done                     04/19/2018 10:31:45
00010 suncat0060 pw.x -npool 4 -i  Done                     04/19/2018 10:31:45
00011 suncat0060 pw.x -npool 4 -i  Done                     04/19/2018 10:31:45
00012 suncat0060 pw.x -npool 4 -i  Done                     04/19/2018 10:31:45
00013 suncat0060 pw.x -npool 4 -i  Done                     04/19/2018 10:31:45
00014 suncat0060 pw.x -npool 4 -i  Done                     04/19/2018 10:31:45
00015 suncat0060 pw.x -npool 4 -i  Done                     04/19/2018 10:31:45
00016 suncat0165 pw.x -npool 4 -i  Done                     04/19/2018 10:31:45
00017 suncat0165 pw.x -npool 4 -i  Done                     04/19/2018 10:31:45
00018 suncat0165 pw.x -npool 4 -i  Done                     04/19/2018 10:31:45
00019 suncat0165 pw.x -npool 4 -i  Done                     04/19/2018 10:31:45
00020 suncat0165 pw.x -npool 4 -i  Done                     04/19/2018 10:31:45
00021 suncat0165 pw.x -npool 4 -i  Done                     04/19/2018 10:31:45
00022 suncat0165 pw.x -npool 4 -i  Done                     04/19/2018 10:31:45
00023 suncat0165 pw.x -npool 4 -i  Done                     04/19/2018 10:31:45
00024 suncat0136 pw.x -npool 4 -i  Done                     04/19/2018 10:31:45
00025 suncat0136 pw.x -npool 4 -i  Done                     04/19/2018 10:31:45
00026 suncat0136 pw.x -npool 4 -i  Done                     04/19/2018 10:31:45
00027 suncat0136 pw.x -npool 4 -i  Done                     04/19/2018 10:31:45
00028 suncat0136 pw.x -npool 4 -i  Done                     04/19/2018 10:31:45
00029 suncat0136 pw.x -npool 4 -i  Done                     04/19/2018 10:31:45
00030 suncat0136 pw.x -npool 4 -i  Done                     04/19/2018 10:31:45
00031 suncat0136 pw.x -npool 4 -i  Done                     04/19/2018 10:31:45