     Program PWSCF v.5.1rc2 starts on 27Apr2018 at 11:24:42

     Current dimensions of program PWSCF are:
     Max number of different atomic species (ntypx) = 10
     Max number of k-points (npk) =  40000
     Max angular momentum in pseudopotentials (lmaxx) =  3
     Presently stress not available with electric field

     IMPORTANT: XC functional enforced from input :
     Exchange-correlation      = BEEF-VDW ( 1  4 27 13 2)
     Any further DFT definition will be discarded
     Please, verify this is what you really want

     bravais-lattice index     =            0
     lattice parameter (alat)  =       1.8897  a.u.
     unit-cell volume          =    6082.7792 (a.u.)^3
     number of atoms/cell      =           16
     number of atomic types    =            3
     number of electrons       =       151.00
     number of Kohn-Sham states=           85
     kinetic-energy cutoff     =      36.7493  Ry
     charge density cutoff     =     367.4932  Ry
     convergence threshold     =      1.0E-05
     mixing beta               =       0.3000
     number of iterations used =           10  plain     mixing
     Exchange-correlation      = BEEF-VDW ( 1  4 27 13 2)
     nstep                     =           50

     celldm(1)=   1.889726  celldm(2)=   0.000000  celldm(3)=   0.000000
     celldm(4)=   0.000000  celldm(5)=   0.000000  celldm(6)=   0.000000

     crystal axes: (cart. coord. in units of alat)
               a(1) = (   6.421223   0.000000   0.000000 )
               a(2) = (   3.210611   5.560942   0.000000 )
               a(3) = (   0.000000   0.000000  25.242906 )

     reciprocal axes: (cart. coord. in units 2 pi/alat)
               b(1) = (  0.155734 -0.089913  0.000000 )
               b(2) = (  0.000000  0.179826  0.000000 )
               b(3) = (  0.000000  0.000000  0.039615 )

     PseudoPot. # 1 for Zr read from file:
     /home/users/mamunm/src/pseudo/gbrv1.5pbe/Zr.UPF
     MD5 check sum: 5db81b1e868ab7776c4564c113de050b
     Pseudo is Ultrasoft + core correction, Zval = 12.0
     Generated by new atomic code, or converted to UPF format
     Using radial grid of  887 points,  6 beta functions with:
                l(1) =   0
                l(2) =   0
                l(3) =   1
                l(4) =   1
                l(5) =   2
                l(6) =   2
     Q(r) pseudized with  6 coefficients,  rinner =    1.200   1.200   1.200
                                                       1.200   1.200

     PseudoPot. # 2 for C  read from file:
     /home/users/mamunm/src/pseudo/gbrv1.5pbe/C.UPF
     MD5 check sum: d1aef80898a10debaa0f26306b886e00
     Pseudo is Ultrasoft + core correction, Zval =  4.0
     Generated by new atomic code, or converted to UPF format
     Using radial grid of  721 points,  4 beta functions with:
                l(1) =   0
                l(2) =   0
                l(3) =   1
                l(4) =   1
     Q(r) pseudized with  8 coefficients,  rinner =    1.100   1.100   1.100

     PseudoPot. # 3 for H  read from file:
     /home/users/mamunm/src/pseudo/gbrv1.5pbe/H.UPF
     MD5 check sum: 761ae9a214b05c3daf00ab9f6b793d6f
     Pseudo is Ultrasoft, Zval =  1.0
     Generated by new atomic code, or converted to UPF format
     Using radial grid of  615 points,  2 beta functions with:
                l(1) =   0
                l(2) =   0
     Q(r) pseudized with  8 coefficients,  rinner =    0.700

     vdW kernel table read from file vdW_kernel_table
     MD5 check sum: 095c7af220d748ca6e76c0b4c6cfb241

     atomic species   valence    mass     pseudopotential
        Zr1           12.00    91.22400     Zr( 1.00)
        C1             4.00    12.01100     C ( 1.00)
        H1             1.00     1.00800     H ( 1.00)

     No symmetry found

   Cartesian axes

     site n.     atom                  positions (alat units)
         1           Zr1 tau(   1) = (   1.6053057   0.9268237  10.0000000  )
         2           Zr1 tau(   2) = (   4.8159170   0.9268237  10.0000000  )
         3           Zr1 tau(   3) = (   3.2106113   3.7072946  10.0000000  )
         4           Zr1 tau(   4) = (   6.4212227   3.7072946  10.0000000  )
         5           Zr1 tau(   5) = (   6.4212227   1.8536473  12.6214532  )
         6           Zr1 tau(   6) = (   3.2106113   1.8536473  12.6214532  )
         7           Zr1 tau(   7) = (   8.0265283   4.6341183  12.6214532  )
         8           Zr1 tau(   8) = (   4.8159170   4.6341183  12.6214532  )
         9           Zr1 tau(   9) = (   0.0000000   0.0000000  15.2429064  )
        10           Zr1 tau(  10) = (   3.2106113   0.0000000  15.2429064  )
        11           Zr1 tau(  11) = (   1.6053057   2.7804710  15.2429064  )
        12           Zr1 tau(  12) = (   4.8159170   2.7804710  15.2429064  )
        13           C1  tau(  13) = (   0.0000000   0.0000000  17.3764064  )
        14           H1  tau(  14) = (   1.0900000   0.0000000  18.0064064  )
        15           H1  tau(  15) = (   5.9712227   0.8895000  18.0064064  )
        16           H1  tau(  16) = (   2.7606113   4.6714420  18.0064064  )

     number of k points=    20  Fermi-Dirac smearing, width (Ry)=  0.0110
                       cart. coord. in units 2pi/alat
        k(    1) = (   0.0000000   0.0000000   0.0000000), wk =   0.0555556
        k(    2) = (   0.0000000   0.0299709   0.0000000), wk =   0.1111111
        k(    3) = (   0.0000000   0.0599419   0.0000000), wk =   0.1111111
        k(    4) = (   0.0000000  -0.0899128   0.0000000), wk =   0.0555556
        k(    5) = (   0.0259556  -0.0149855   0.0000000), wk =   0.1111111
        k(    6) = (   0.0259556   0.0149855   0.0000000), wk =   0.1111111
        k(    7) = (   0.0259556   0.0449564   0.0000000), wk =   0.1111111
        k(    8) = (   0.0259556  -0.1048983   0.0000000), wk =   0.1111111
        k(    9) = (   0.0259556  -0.0749274   0.0000000), wk =   0.1111111
        k(   10) = (   0.0259556  -0.0449564   0.0000000), wk =   0.1111111
        k(   11) = (   0.0519112  -0.0299709   0.0000000), wk =   0.1111111
        k(   12) = (   0.0519112   0.0000000   0.0000000), wk =   0.1111111
        k(   13) = (   0.0519112   0.0299709   0.0000000), wk =   0.1111111
        k(   14) = (   0.0519112  -0.1198838   0.0000000), wk =   0.1111111
        k(   15) = (   0.0519112  -0.0899128   0.0000000), wk =   0.1111111
        k(   16) = (   0.0519112  -0.0599419   0.0000000), wk =   0.1111111
        k(   17) = (  -0.0778668   0.0449564   0.0000000), wk =   0.0555556
        k(   18) = (  -0.0778668   0.0749274   0.0000000), wk =   0.1111111
        k(   19) = (  -0.0778668   0.1048983   0.0000000), wk =   0.1111111
        k(   20) = (  -0.0778668  -0.0449564   0.0000000), wk =   0.0555556

     Largest allocated arrays     est. size (Mb)     dimensions
     Largest temporary arrays     est. size (Mb)     dimensions

     Initial potential from superposition of free atoms
     Check: negative starting charge=   -0.729038

     starting charge  150.97414, renormalised to  151.00000

     negative rho (up, down):  7.292E-01 0.000E+00

     *
     * You are using vdW-DF for exchange-correlation in this calculation.
     * Please cite the following three references that made this development
     * possible:
     *
     *   M. Dion, H. Rydberg, E. Schroder, D. C. Langreth, and
     *   B. I. Lundqvist, Phys. Rev. Lett. 92, 246401 (2004).
     *
     *   T. Thonhauser, V. R. Cooper, S. Li, A. Puzder, P. Hyldgaard, and
     *   D. C. Langreth, Phys. Rev. B 76, 125112 (2007).
     *
     *   G. Roman-Perez and J. M. Soler, Phys. Rev. Lett. 103, 096102 (2009).
     *
     *
     * If you are using vdW-DF2, please also cite:
     *
     *   K. Lee, E. D. Murray, L. Kong, B. I. Lundqvist, and
     *   D. C. Langreth, Phys. Rev. B 82, 081101(R) (2010).
     *
     *
     * If you are calculating the stress with vdW-DF, please also cite:
     *
     *   R. Sabatini, E. Kucukbenli, B. Kolb, T. Thonhauser, and
     *   S. de Gironcoli, J. Phys.: Condens. Matter 24, 424209 (2012).
     *

     Carrying out vdW-DF run using the following parameters:

     Nqs =      20    Nr_points =    1024   r_max =   100.000
     q_mesh =
               0.00001000     0.04494208     0.09755937     0.15916263
               0.23128650     0.31572767     0.41458969     0.53033537
               0.66584808     0.82450364     1.01025438     1.22772762
               1.48234092     1.78043706     2.12944203     2.53805004
               3.01644009     3.57652955     4.23227104     5.00000000

     Gradients computed in reciprocal space

     Adding external electric field

     Computed dipole along edir(3) :
        Dipole               -0.0107 Ry au,         -0.0273 Debye
        Dipole field         -0.0000 Ry au

        Potential amp.        0.0021 Ry
        Total length         46.5096 bohr

     Starting wfc are  163 randomized atomic wfcs

     Self-consistent Calculation

     iteration #  1     ecut=    36.75 Ry     beta=0.30
     Davidson diagonalization with overlap
     ethr =  1.00E-02,  avg # of iterations =  2.0

[...]

     total energy              =   -1209.14775249 Ry
     Harris-Foulkes estimate   =   -1212.80446675 Ry
     estimated scf accuracy    <       7.77627227 Ry

[...]

     End of self-consistent calculation

          k = 0.0000 0.0000 0.0000 ( 22923 PWs)   bands (ev):

   -47.5583 -47.5349 -47.4866 -47.4852 -47.4540 -47.4390 -47.4383 -47.2439
   -47.2177 -47.1502 -47.1493 -47.1488 -25.8321 -25.8312 -25.8293 -25.7837
   -25.7827 -25.7806 -25.7568 -25.6741 -25.6732 -25.6601 -25.5617 -25.4789
   -25.4779 -25.4002 -25.3351 -25.3253 -25.3248 -25.2715 -25.2712 -25.2635
   -25.2414 -25.2224 -25.2217 -25.1028 -25.1027 -25.0850 -25.0847 -25.0592
   -25.0488 -25.0481 -25.0299 -24.9679 -24.9677 -24.9604 -24.8169 -24.8167
   -10.5396  -3.5740  -3.2629  -3.1662  -2.2008  -1.5825  -1.2978  -0.8202
    -0.8176  -0.8174  -0.7088  -0.7058  -0.5989  -0.3012  -0.3008  -0.2583
    -0.0634  -0.0616  -0.0056   0.7482   0.8617   0.8705   1.6717   1.8631
     1.9435   1.9699   1.9775   2.2918   2.4249   2.4288   2.4737   2.6282
     2.6284   2.7698   2.8771   2.8775   2.8945

[...]

          k =-0.0779 0.0450 0.0000 ( 22880 PWs)   bands (ev):

[...]

     the Fermi energy is     1.7507 ev

!    total energy              =   -1212.04443969 Ry
     Harris-Foulkes estimate   =   -1212.04443726 Ry
     estimated scf accuracy    <       0.00000091 Ry

     The total energy is the sum of the following terms:

     one-electron contribution =   -8372.46458834 Ry
     hartree contribution      =    4180.58322179 Ry
     xc contribution           =    -226.44423169 Ry
     ewald contribution        =    3206.40199174 Ry
     electric field correction =       0.00004957 Ry
     smearing contrib. (-TS)   =      -0.12088275 Ry

     convergence has been achieved in  19 iterations

 BEEF-vdW xc energy contributions
           1 :   -193.800042647235
           2 :    175.192231845710
           3 :   -143.951445687757
           4 :    108.956531182048
           5 :   -78.0958203804118
           6 :    55.5798932947079
           7 :   -41.3562293542206
           8 :    32.4719020059797
           9 :   -25.3579907150442
          10 :    17.7603501104987
          11 :   -9.47334000615186
          12 :    1.79796460429120
          13 :    3.69040428402408
          14 :   -6.24785425019815
          15 :    6.36121223380857
          16 :   -5.35192233925923
          17 :    4.54432104213507
          18 :   -4.55480340273505
          19 :    5.11511310643056
          20 :   -5.46132614867147
          21 :    4.96607842451127
          22 :   -3.58317830841818
          23 :    1.84842427311767
          24 :  -0.497142126831335
          25 :  -7.260997841001426E-003
          26 :  -0.276182981193415
          27 :   0.866703905434207
          28 :   -1.20916034880113
          29 :    1.02471822758184
          30 :  -0.448247266015670
          31 :   -22.5823767341416
          32 :   -16.7956183364741

     Forces acting on atoms (Ry/au):

     negative rho (up, down):  7.483E-01 0.000E+00
     atom    1 type  1   force =     0.00029189    0.00019392    0.01527880
     atom    2 type  1   force =    -0.00037947    0.00013988    0.01527773
     atom    3 type  1   force =     0.00014658   -0.00037062    0.01530376
     atom    4 type  1   force =    -0.00004952    0.00001633    0.01649733
     atom    5 type  1   force =    -0.00004121    0.00975781   -0.01098276
     atom    6 type  1   force =    -0.00006023   -0.00009564    0.00252542
     atom    7 type  1   force =    -0.00846054   -0.00482955   -0.01118105
     atom    8 type  1   force =     0.00856844   -0.00489283   -0.01106426
     atom    9 type  1   force =     0.00020286   -0.00001820   -0.03400733
     atom   10 type  1   force =    -0.00168211    0.00354944   -0.02305991
     atom   11 type  1   force =     0.00401501    0.00108347   -0.02459592
     atom   12 type  1   force =    -0.00185339   -0.00445957   -0.02448571
     atom   13 type  2   force =     0.04527321   -0.00006488    0.24757517
     atom   14 type  3   force =    -0.07859030   -0.00088005   -0.07121946
     atom   15 type  3   force =     0.01701493   -0.04345584   -0.05093633
     atom   16 type  3   force =     0.01560383    0.04432634   -0.05092548

     Total force =     0.295153     Total SCF correction =     0.001257

     entering subroutine stress ...

     negative rho (up, down):  7.483E-01 0.000E+00
          total   stress  (Ry/bohr**3)                   (kbar)     P=  -12.40
  -0.00009816  -0.00000012  -0.00000950        -14.44     -0.02     -1.40
  -0.00000012  -0.00009088   0.00000004         -0.02    -13.37      0.01
  -0.00000950   0.00000004  -0.00006377         -1.40      0.01     -9.38

     BFGS Geometry Optimization

     number of scf cycles    =   1
     number of bfgs steps    =   0

     energy   new            =   -1212.0444396857 Ry

     new trust radius        =       0.2516806144 bohr
     new conv_thr            =       0.0000099958 Ry

ATOMIC_POSITIONS (crystal)
Zr1      0.166666667   0.166666667   0.396150897    0   0   0
Zr1      0.666666667   0.166666667   0.396150897    0   0   0
Zr1      0.166666667   0.666666667   0.396150897    0   0   0
Zr1      0.666666667   0.666666667   0.396150897    0   0   0
Zr1      0.833333333   0.333333333   0.500000000    0   0   0
Zr1      0.333333333   0.333333333   0.500000000    0   0   0
Zr1      0.833333333   0.833333333   0.500000000    0   0   0
Zr1      0.333333333   0.833333333   0.500000000    0   0   0
Zr1      0.000017584  -0.000001732   0.603136193
Zr1      0.499692494   0.000337764   0.603365689
Zr1      0.000279329   0.500103102   0.603333489
Zr1      0.500059447   0.499575629   0.603335799
C1       0.003734083  -0.000006174   0.693557915
H1       0.163314797  -0.000083746   0.711832401
H1       0.853412263   0.155819673   0.712257604
H1       0.009074229   0.844263163   0.712257832

     Writing output data file calc.save
     Check: negative starting charge=   -0.729038
     NEW-OLD atomic charge density approx. for the potential
     Check: negative starting charge=   -0.729541

[...]

     iteration #  1     ecut=    36.75 Ry     beta=0.30
     Davidson diagonalization with overlap
     c_bands:  1 eigenvalues not converged
     c_bands:  1 eigenvalues not converged
     ethr =  1.00E-06,  avg # of iterations = 12.5

[...]

     energy   old            =   -1212.0444396857 Ry
     energy   new            =   -1212.0949878820 Ry

     CASE: energy  _new < energy  _old

[...]

     iteration #  1     ecut=    36.75 Ry     beta=0.30
     Davidson diagonalization with overlap
     c_bands:  1 eigenvalues not converged
     c_bands:  1 eigenvalues not converged
     ethr =  1.00E-06,  avg # of iterations = 12.5

[...]

     WARNING: bfgs curvature condition failed, Theta= 0.975
     new trust radius        =       0.0445885909 bohr
     new conv_thr            =       0.0000001000 Ry

[...]

     Total force =     0.005967     Total SCF correction =     0.000145

[...]

     number of scf cycles    =  19
     number of bfgs steps    =  18

     energy   old            =   -1212.1193474879 Ry
     energy   new            =   -1212.1195838914 Ry

     CASE: energy  _new < energy  _old

     new trust radius        =       0.0078330495 bohr
     new conv_thr            =       0.0000001000 Ry

ATOMIC_POSITIONS (crystal)
Zr1      0.166666667   0.166666667   0.396150897    0   0   0
Zr1      0.666666667   0.166666667   0.396150897    0   0   0
Zr1      0.166666667   0.666666667   0.396150897    0   0   0
Zr1      0.666666667   0.666666667   0.396150897    0   0   0
Zr1      0.833333333   0.333333333   0.500000000    0   0   0
Zr1      0.333333333   0.333333333   0.500000000    0   0   0
Zr1      0.833333333   0.833333333   0.500000000    0   0   0
Zr1      0.333333333   0.833333333   0.500000000    0   0   0
Zr1     -0.000629943  -0.000049133   0.615345137
Zr1      0.495227920   0.005282683   0.597097782
Zr1      0.002816344   0.497829872   0.596950514
Zr1      0.495395977   0.497120944   0.597124067
C1       0.011397262  -0.000467174   0.704865666
H1       0.172284618  -0.006633899   0.721523412
H1       0.853393860   0.162040002   0.720160775
H1       0.002211746   0.844485926   0.720443491

     Writing output data file calc.save
     Check: negative starting charge=   -0.728159
     NEW-OLD atomic charge density approx. for the potential
     Check: negative starting charge=   -0.728241

[...]

     Self-consistent Calculation

[...]

     Threshold (ethr) on eigenvalues was too large:
     Diagonalizing with lowered threshold

     Davidson diagonalization with overlap
     ethr =  6.51E-08,  avg # of iterations =  1.9

[...]

     total energy              =   -1212.11962836 Ry
     Harris-Foulkes estimate   =   -1212.11962838 Ry
     estimated scf accuracy    <       0.00000010 Ry

     iteration #  9     ecut=    36.75 Ry     beta=0.30
     Davidson diagonalization with overlap
     ethr =  6.92E-11,  avg # of iterations =  3.6

[...]

     negative rho (up, down):  7.475E-01 0.000E+00

     Adding external electric field

     Computed dipole along edir(3) :
        Dipole               -0.0949 Ry au,         -0.2412 Debye
        Dipole field         -0.0002 Ry au

        Potential amp.        0.0182 Ry
        Total length         46.5096 bohr

     End of self-consistent calculation

[...]

          k = 0.0519-0.0599 0.0000 ( 22856 PWs)   bands (ev):

[...]

          k =-0.0779-0.0450 0.0000 ( 22880 PWs)   bands (ev):

   -47.7611 -47.7508 -47.7126 -47.7058 -47.6586 -47.6515 -47.6146 -47.6023
   -47.4283 -47.4134 -47.3884 -47.2905 -25.9550 -25.9546 -25.9129 -25.8997
   -25.8773 -25.8658 -25.8300 -25.8294 -25.8016 -25.7684 -25.7601 -25.7278
   -25.7183 -25.6845 -25.6772 -25.6655 -25.6596 -25.6056 -25.5950 -25.5601
   -25.4687 -25.4579 -25.4505 -25.4441 -25.4055 -25.3756 -25.3590 -25.3429
   -25.3200 -25.2727 -25.2512 -25.2380 -25.2088 -25.1415 -25.1378 -25.0649
   -10.6364  -3.8419  -3.7921  -2.0695  -2.0407  -1.1868  -1.1004  -0.5528
    -0.3908  -0.3784  -0.3603  -0.2762  -0.2704  -0.1480   0.3813   0.3945
     0.4160   0.4995   0.5814   0.6092   0.8522   0.8704   0.9402   1.0182
     1.0289   1.0652   1.2329   1.3006   1.4246   1.4497   1.5321   1.5913
     1.6116   1.7152   1.8001   1.8973   2.0238

     the Fermi energy is     1.4764 ev

!    total energy              =   -1212.11962835 Ry
     Harris-Foulkes estimate   =   -1212.11962820 Ry
     estimated scf accuracy    <       0.00000005 Ry

     The total energy is the sum of the following terms:

     one-electron contribution =   -8360.16589628 Ry
     hartree contribution      =    4173.55446003 Ry
     xc contribution           =    -226.66145580 Ry
     ewald contribution        =    3201.26869613 Ry
     electric field correction =       0.00001861 Ry
     smearing contrib. (-TS)   =      -0.11545104 Ry

     convergence has been achieved in   9 iterations

 BEEF-vdW xc energy contributions
           1 :   -193.995335210656
           2 :    175.359196561034
           3 :   -144.090606459697
           4 :    109.069497958526
           5 :   -78.1676473383869
           6 :    55.5998231726041
           7 :   -41.3339121552755
           8 :    32.4312962360387
           9 :   -25.3237497414208
          10 :    17.7496273781884
          11 :   -9.48982530811634
          12 :    1.82336914563336
          13 :    3.69674417400188
          14 :   -6.32988927120294
          15 :    6.53450103239376
          16 :   -5.58297096825493
          17 :    4.76574517271183
          18 :   -4.71295831623002
          19 :    5.21102359123523
          20 :   -5.54997498202374
          21 :    5.11504822472111
          22 :   -3.82279197494677
          23 :    2.15043342272327
          24 :  -0.794294646997088
          25 :   0.222381576752070
          26 :  -0.419054626780337
          27 :   0.957349800881275
          28 :   -1.31253274851872
          29 :    1.19445232048307
          30 :  -0.692547504124292
          31 :   -22.5945633811355
          32 :   -16.8003965704109

     Forces acting on atoms (Ry/au):

     negative rho (up, down):  7.475E-01 0.000E+00
     atom    1 type  1   force =     0.00025949    0.00016093    0.01265953
     atom    2 type  1   force =    -0.00020922    0.00009123    0.01257258
     atom    3 type  1   force =     0.00010659   -0.00026268    0.01264625
     atom    4 type  1   force =     0.00008409    0.00000880    0.01725750
     atom    5 type  1   force =    -0.00060048   -0.00197220   -0.00946360
     atom    6 type  1   force =    -0.00046981   -0.00003736   -0.02716405
     atom    7 type  1   force =     0.00142113    0.00135695   -0.00911355
     atom    8 type  1   force =    -0.00189928    0.00069940   -0.00943107
     atom    9 type  1   force =    -0.00001586   -0.00000849   -0.00050246
     atom   10 type  1   force =    -0.00007400    0.00100799    0.00016398
     atom   11 type  1   force =     0.00138882    0.00013156    0.00015631
     atom   12 type  1   force =    -0.00036020   -0.00113478    0.00006406
     atom   13 type  2   force =    -0.00016008    0.00001455    0.00024503
     atom   14 type  3   force =    -0.00114629   -0.00037107    0.00007413
     atom   15 type  3   force =     0.00117752    0.00100458   -0.00011750
     atom   16 type  3   force =     0.00049761   -0.00068939   -0.00004714

     Total force =     0.003061     Total SCF correction =     0.000448
     SCF correction compared to forces is large: reduce conv_thr to get better values

     entering subroutine stress ...

     negative rho (up, down):  7.475E-01 0.000E+00
          total   stress  (Ry/bohr**3)                   (kbar)     P=   -8.01
  -0.00005960   0.00000081   0.00000116         -8.77      0.12      0.17
   0.00000081  -0.00005817  -0.00000009          0.12     -8.56     -0.01
   0.00000116  -0.00000009  -0.00004560          0.17     -0.01     -6.71

     bfgs converged in  20 scf cycles and  19 bfgs steps
     (criteria: energy <  1.0E+00, force <  1.9E-03)

     End of BFGS Geometry Optimization

     Final energy   =   -1212.1196283453 Ry
Begin final coordinates

ATOMIC_POSITIONS (crystal)
Zr1      0.166666667   0.166666667   0.396150897    0   0   0
Zr1      0.666666667   0.166666667   0.396150897    0   0   0
Zr1      0.166666667   0.666666667   0.396150897    0   0   0
Zr1      0.666666667   0.666666667   0.396150897    0   0   0
Zr1      0.833333333   0.333333333   0.500000000    0   0   0
Zr1      0.333333333   0.333333333   0.500000000    0   0   0
Zr1      0.833333333   0.833333333   0.500000000    0   0   0
Zr1      0.333333333   0.833333333   0.500000000    0   0   0
Zr1     -0.000629943  -0.000049133   0.615345137
Zr1      0.495227920   0.005282683   0.597097782
Zr1      0.002816344   0.497829872   0.596950514
Zr1      0.495395977   0.497120944   0.597124067
C1       0.011397262  -0.000467174   0.704865666
H1       0.172284618  -0.006633899   0.721523412
H1       0.853393860   0.162040002   0.720160775
H1       0.002211746   0.844485926   0.720443491
End final coordinates

     Writing output data file calc.save

     General routines

     Parallel routines

   This run was terminated on:  12:28:59  27Apr2018

   JOB DONE.