     Program PWSCF v.5.1rc2 (svn rev. 11289) starts on 16Jan2018 at 18:34:14

     Current dimensions of program PWSCF are:
     Max number of different atomic species (ntypx) = 10
     Max number of k-points (npk) =  40000
     Max angular momentum in pseudopotentials (lmaxx) =  3
     Presently stress not available with electric field

     IMPORTANT: XC functional enforced from input :
     Exchange-correlation      = BEEF-VDW ( 1  4 27 13 2)
     Any further DFT definition will be discarded
     Please, verify this is what you really want

     Subspace diagonalization in iterative solution of the eigenvalue problem:
     a serial algorithm will be used

     bravais-lattice index     =            0
     lattice parameter (alat)  =       1.8897  a.u.
     unit-cell volume          =    4198.3539 (a.u.)^3
     number of atoms/cell      =           13
     number of atomic types    =            2
     number of electrons       =       198.00
     number of Kohn-Sham states=          109
     kinetic-energy cutoff     =      36.7493  Ry
     charge density cutoff     =     367.4932  Ry
     convergence threshold     =      1.0E-05
     mixing beta               =       0.3000
     number of iterations used =           10  plain     mixing
     Exchange-correlation      = BEEF-VDW ( 1  4 27 13 2)
     nstep                     =           50

     celldm(1)=   1.889726  celldm(2)=   0.000000  celldm(3)=   0.000000
     celldm(4)=   0.000000  celldm(5)=   0.000000  celldm(6)=   0.000000

     crystal axes: (cart. coord. in units of alat)
               a(1) = (   5.422927   0.000000   0.000000 )
               a(2) = (   2.711463   4.696392   0.000000 )
               a(3) = (   0.000000   0.000000  24.427801 )

     reciprocal axes: (cart. coord. in units 2 pi/alat)
               b(1) = (  0.184402 -0.106465  0.000000 )
               b(2) = (  0.000000  0.212929  0.000000 )
               b(3) = (  0.000000  0.000000  0.040937 )

     PseudoPot. # 1 for Ru read from file:
     /afs/slac.stanford.edu/u/if/mamunm/psp/gbrv1.5pbe/Ru.UPF
     MD5 check sum: 7158a806dd851261a58e6920c40ebe78
     Pseudo is Ultrasoft + core correction, Zval = 16.0
     Generated by new atomic code, or converted to UPF format
     Using radial grid of  967 points,  6 beta functions with:
                l(1) =   0
                l(2) =   0
                l(3) =   1
                l(4) =   1
                l(5) =   2
                l(6) =   2
     Q(r) pseudized with  8 coefficients,  rinner =    1.300   1.300   1.300
                                                       1.300   1.300

     PseudoPot. # 2 for O  read from file:
     /afs/slac.stanford.edu/u/if/mamunm/psp/gbrv1.5pbe/O.UPF
     MD5 check sum: 734c27235a0248c51dbae37a1fbe46ec
     Pseudo is Ultrasoft + core correction, Zval =  6.0
     Generated by new atomic code, or converted to UPF format
     Using radial grid of  737 points,  5 beta functions with:
                l(1) =   0
                l(2) =   0
                l(3) =   1
                l(4) =   1
                l(5) =   2
     Q(r) pseudized with  8 coefficients,  rinner =    0.900   0.900   0.900
                                                       0.900   0.900

     vdW kernel table read from file vdW_kernel_table
     MD5 check sum: 095c7af220d748ca6e76c0b4c6cfb241

     atomic species   valence    mass     pseudopotential
        Ru1           16.00   101.07000     Ru( 1.00)
        O1             6.00    15.99900     O ( 1.00)

     No symmetry found

   Cartesian axes

     site n.     atom                  positions (alat units)
         1           Ru1 tau(   1) = (   1.3557316   0.7827320  10.0000000  )
         2           Ru1 tau(   2) = (   4.0671949   0.7827320  10.0000000  )
         3           Ru1 tau(   3) = (   2.7114633   3.1309281  10.0000000  )
         4           Ru1 tau(   4) = (   5.4229265   3.1309281  10.0000000  )
         5           Ru1 tau(   5) = (   5.4229265   1.5654640  12.2139005  )
         6           Ru1 tau(   6) = (   2.7114633   1.5654640  12.2139005  )
         7           Ru1 tau(   7) = (   6.7786581   3.9136601  12.2139005  )
         8           Ru1 tau(   8) = (   4.0671949   3.9136601  12.2139005  )
         9           Ru1 tau(   9) = (   0.0000000   0.0000000  14.4278010  )
        10           Ru1 tau(  10) = (   2.7114633   0.0000000  14.4278010  )
        11           Ru1 tau(  11) = (   1.3557316   2.3481961  14.4278010  )
        12           Ru1 tau(  12) = (   4.0671949   2.3481961  14.4278010  )
        13           O1  tau(  13) = (   0.0000000   0.0000000  16.5478010  )

     number of k points=    20  Fermi-Dirac smearing, width (Ry)=  0.0110
                       cart. coord. in units 2pi/alat
        k(    1) = (   0.0000000   0.0000000   0.0000000), wk =   0.0555556
        k(    2) = (   0.0000000   0.0354882   0.0000000), wk =   0.1111111
        k(    3) = (   0.0000000   0.0709765   0.0000000), wk =   0.1111111
        k(    4) = (   0.0000000  -0.1064647   0.0000000), wk =   0.0555556
        k(    5) = (   0.0307337  -0.0177441   0.0000000), wk =   0.1111111
        k(    6) = (   0.0307337   0.0177441   0.0000000), wk =   0.1111111
        k(    7) = (   0.0307337   0.0532324   0.0000000), wk =   0.1111111
        k(    8) = (   0.0307337  -0.1242088   0.0000000), wk =   0.1111111
        k(    9) = (   0.0307337  -0.0887206   0.0000000), wk =   0.1111111
        k(   10) = (   0.0307337  -0.0532324   0.0000000), wk =   0.1111111
        k(   11) = (   0.0614674  -0.0354882   0.0000000), wk =   0.1111111
        k(   12) = (   0.0614674   0.0000000   0.0000000), wk =   0.1111111
        k(   13) = (   0.0614674   0.0354882   0.0000000), wk =   0.1111111
        k(   14) = (   0.0614674  -0.1419529   0.0000000), wk =   0.1111111
        k(   15) = (   0.0614674  -0.1064647   0.0000000), wk =   0.1111111
        k(   16) = (   0.0614674  -0.0709765   0.0000000), wk =   0.1111111
        k(   17) = (  -0.0922011   0.0532324   0.0000000), wk =   0.0555556
        k(   18) = (  -0.0922011   0.0887206   0.0000000), wk =   0.1111111
        k(   19) = (  -0.0922011   0.1242088   0.0000000), wk =   0.1111111
        k(   20) = (  -0.0922011  -0.0532324   0.0000000), wk =   0.0555556

     Largest allocated arrays     est. size (Mb)     dimensions
     Largest temporary arrays     est. size (Mb)     dimensions

     Initial potential from superposition of free atoms
     Check: negative starting charge=   -0.873729

     starting charge  185.99981, renormalised to  198.00000

     negative rho (up, down):  9.301E-01 0.000E+00

     *
     * You are using vdW-DF for exchange-correlation in this calculation.
     * Please cite the following three references that made this development
     * possible:
     *
     *   M. Dion, H. Rydberg, E. Schroder, D. C. Langreth, and
     *   B. I. Lundqvist, Phys. Rev. Lett. 92, 246401 (2004).
     *
     *   T. Thonhauser, V. R. Cooper, S. Li, A. Puzder, P. Hyldgaard, and
     *   D. C. Langreth, Phys. Rev. B 76, 125112 (2007).
     *
     *   G. Roman-Perez and J. M. Soler, Phys. Rev. Lett. 103, 096102 (2009).
     *
     *
     * If you are using vdW-DF2, please also cite:
     *
     *   K. Lee, E. D. Murray, L. Kong, B. I. Lundqvist, and
     *   D. C. Langreth, Phys. Rev. B 82, 081101(R) (2010).
     *
     *
     * If you are calculating the stress with vdW-DF, please also cite:
     *
     *   R. Sabatini, E. Kucukbenli, B. Kolb, T. Thonhauser, and
     *   S. de Gironcoli, J. Phys.: Condens. Matter 24, 424209 (2012).
     *

     Carrying out vdW-DF run using the following parameters:

     Nqs =      20    Nr_points =    1024   r_max =   100.000
     q_mesh =
               0.00001000     0.04494208     0.09755937     0.15916263
               0.23128650     0.31572767     0.41458969     0.53033537
               0.66584808     0.82450364     1.01025438     1.22772762
               1.48234092     1.78043706     2.12944203     2.53805004
               3.01644009     3.57652955     4.23227104     5.00000000

     Gradients computed in reciprocal space

     Adding external electric field

     Computed dipole along edir(3) :
        Dipole               -3.1703 Ry au,         -8.0581 Debye
        Dipole field         -0.0095 Ry au

        Potential amp.        0.8542 Ry
        Total length         45.0078 bohr

     Starting wfc are  160 randomized atomic wfcs

     Self-consistent Calculation

     iteration #  1     ecut=    36.75 Ry     beta=0.30
     Davidson diagonalization with overlap
     ethr =  1.00E-02,  avg # of iterations =  6.1

[...]

     total energy              =   -2124.57748149 Ry
     Harris-Foulkes estimate   =   -2369.95802053 Ry
     estimated scf accuracy    <     514.05347334 Ry

[...]

     End of self-consistent calculation

          k = 0.0000 0.0000 0.0000 ( 15761 PWs)   bands (ev):

   -71.6781 -71.5830 -71.5670 -71.5664 -71.5595 -71.1720 -71.1395 -71.0792
   -71.0722 -71.0714 -71.0703 -71.0702 -41.9518 -41.9514 -41.9399 -41.8126
   -41.7271 -41.7268 -41.6836 -41.5388 -41.5385 -41.4913 -41.4389 -41.3974
   -41.3814 -41.3812 -41.3300 -41.3296 -41.2991 -41.2081 -41.2080 -41.0866
   -41.0318 -41.0317 -41.0072 -41.0068 -40.9813 -40.9513 -40.9508 -40.9470
   -40.8980 -40.8971 -40.8968 -40.8866 -40.7818 -40.7817 -40.7324 -40.7324
   -14.4066  -5.1123  -3.9039  -3.9039  -3.8872  -3.8017  -3.6473  -3.5402
    -3.5242  -3.5240  -3.2971  -3.2969  -3.2617  -2.9200  -2.9199  -2.8992
    -1.8763  -1.8761  -1.7369  -1.4038  -1.1923  -1.1922  -1.0501  -0.8054
    -0.7747  -0.7747  -0.3933  -0.3932  -0.3666  -0.3666  -0.3244  -0.2426
    -0.1158  -0.1158   0.2860   0.2861   0.4770   0.4772   0.9212   1.2914
     1.2915   1.3163   1.4290   1.4291   1.4450   1.7615   1.7616   1.8708
     2.0415   2.0416   2.6211   2.6214   2.6768   2.6768   2.6835   2.8108
     2.8351   2.8351   3.1775   3.1777   3.1864

[...]

          k =-0.0922 0.0532 0.0000 ( 15808 PWs)   bands (ev):

[...]

     the Fermi energy is     1.6212 ev

!    total energy              =   -2373.64683240 Ry
     Harris-Foulkes estimate   =   -2373.64683509 Ry
     estimated scf accuracy    <       0.00000594 Ry

     The total energy is the sum of the following terms:

     one-electron contribution =  -22237.08558697 Ry
     hartree contribution      =   11116.95933165 Ry
     xc contribution           =    -329.03703642 Ry
     ewald contribution        =    9075.61282098 Ry
     electric field correction =       0.00092236 Ry
     smearing contrib. (-TS)   =      -0.09728400 Ry

     convergence has been achieved in  28 iterations

 BEEF-vdW xc energy contributions
           1 :   -285.223281908767
           2 :    261.436553664974
           3 :   -220.444808085529
           4 :    172.555489702476
           5 :   -128.034700054684
           6 :    94.0574452105328
           7 :   -73.1799495188261
           8 :    63.5699159635235
           9 :   -60.6448388476287
          10 :    59.3259116716012
          11 :   -55.9936576747319
          12 :    49.4572969674518
          13 :   -40.7612476616602
          14 :    32.1498021858715
          15 :   -25.7603278731322
[...]

[...]

     Program PWSCF v.5.1rc2 (svn rev. 11289) starts on 16Jan2018 at 19:39: 2

[...]

     Total force =     0.079017     Total SCF correction =     0.008741
     SCF correction compared to forces is large: reduce conv_thr to get better values

[...]

     Total force =     0.078714     Total SCF correction =     0.007049

[...]

   This run was terminated on:  20:41:48  16Jan2018

[...]

     Program PWSCF v.5.1rc2 (svn rev. 11289) starts on 16Jan2018 at 20:41:54

     Current dimensions of program PWSCF are:
     Max number of different atomic species (ntypx) = 10
     Max number of k-points (npk) =  40000
     Max angular momentum in pseudopotentials (lmaxx) =  3
     Presently stress not available with electric field

     IMPORTANT: XC functional enforced from input :
     Exchange-correlation      = BEEF-VDW ( 1  4 27 13 2)
     Any further DFT definition will be discarded
     Please, verify this is what you really want

     Subspace diagonalization in iterative solution of the eigenvalue problem:
     a serial algorithm will be used

     bravais-lattice index     =            0
     lattice parameter (alat)  =       1.8897  a.u.
     unit-cell volume          =    4198.3539 (a.u.)^3
     number of atoms/cell      =           13
     number of atomic types    =            2
     number of electrons       =       198.00
     number of Kohn-Sham states=          109
     kinetic-energy cutoff     =      36.7493  Ry
     charge density cutoff     =     367.4932  Ry
     convergence threshold     =      1.0E-05
     mixing beta               =       0.3000
     number of iterations used =           10  plain     mixing
     Exchange-correlation      = BEEF-VDW ( 1  4 27 13 2)
     nstep                     =           50

     celldm(1)=   1.889726  celldm(2)=   0.000000  celldm(3)=   0.000000
     celldm(4)=   0.000000  celldm(5)=   0.000000  celldm(6)=   0.000000

     crystal axes: (cart. coord. in units of alat)
               a(1) = (   5.422927   0.000000   0.000000 )
               a(2) = (   2.711463   4.696392   0.000000 )
               a(3) = (   0.000000   0.000000  24.427801 )

     reciprocal axes: (cart. coord. in units 2 pi/alat)
               b(1) = (  0.184402 -0.106465  0.000000 )
               b(2) = (  0.000000  0.212929  0.000000 )
               b(3) = (  0.000000  0.000000  0.040937 )

     PseudoPot. # 1 for Ru read from file:
     /afs/slac.stanford.edu/u/if/mamunm/psp/gbrv1.5pbe/Ru.UPF
     MD5 check sum: 7158a806dd851261a58e6920c40ebe78
     Pseudo is Ultrasoft + core correction, Zval = 16.0
     Generated by new atomic code, or converted to UPF format
     Using radial grid of  967 points,  6 beta functions with:
                l(1) =   0
                l(2) =   0
                l(3) =   1
                l(4) =   1
                l(5) =   2
                l(6) =   2
     Q(r) pseudized with  8 coefficients,  rinner =    1.300   1.300   1.300
                                                       1.300   1.300

     PseudoPot. # 2 for O  read from file:
     /afs/slac.stanford.edu/u/if/mamunm/psp/gbrv1.5pbe/O.UPF
     MD5 check sum: 734c27235a0248c51dbae37a1fbe46ec
     Pseudo is Ultrasoft + core correction, Zval =  6.0
     Generated by new atomic code, or converted to UPF format
     Using radial grid of  737 points,  5 beta functions with:
                l(1) =   0
                l(2) =   0
                l(3) =   1
                l(4) =   1
                l(5) =   2
     Q(r) pseudized with  8 coefficients,  rinner =    0.900   0.900   0.900
                                                       0.900   0.900

     vdW kernel table read from file vdW_kernel_table
     MD5 check sum: 095c7af220d748ca6e76c0b4c6cfb241

     atomic species   valence    mass     pseudopotential
        Ru1           16.00   101.07000     Ru( 1.00)
        O1             6.00    15.99900     O ( 1.00)

     No symmetry found

   Cartesian axes

     site n.     atom                  positions (alat units)
         1           Ru1 tau(   1) = (   1.3557316   0.7827320  10.0000000  )
         2           Ru1 tau(   2) = (   4.0671949   0.7827320  10.0000000  )
         3           Ru1 tau(   3) = (   2.7114633   3.1309281  10.0000000  )
         4           Ru1 tau(   4) = (   5.4229265   3.1309281  10.0000000  )
         5           Ru1 tau(   5) = (   5.4229265   1.5654640  12.2139005  )
         6           Ru1 tau(   6) = (   2.7114633   1.5654640  12.2139005  )
         7           Ru1 tau(   7) = (   6.7786581   3.9136601  12.2139005  )
         8           Ru1 tau(   8) = (   4.0671949   3.9136601  12.2139005  )
         9           Ru1 tau(   9) = (   5.4228502   0.0000171  14.6164855  )
        10           Ru1 tau(  10) = (   2.7114646   0.0003432  14.2965832  )
        11           Ru1 tau(  11) = (   1.3560151   2.3480109  14.2967036  )
        12           Ru1 tau(  12) = (   4.0668882   2.3479905  14.2966000  )
        13           O1  tau(  13) = (   2.7115221   4.6963667  16.3418450  )

     number of k points=    20  Fermi-Dirac smearing, width (Ry)=  0.0110
                       cart. coord. in units 2pi/alat
        k(    1) = (   0.0000000   0.0000000   0.0000000), wk =   0.0555556
        k(    2) = (   0.0000000   0.0354882   0.0000000), wk =   0.1111111
        k(    3) = (   0.0000000   0.0709765   0.0000000), wk =   0.1111111
        k(    4) = (   0.0000000  -0.1064647   0.0000000), wk =   0.0555556
        k(    5) = (   0.0307337  -0.0177441   0.0000000), wk =   0.1111111
        k(    6) = (   0.0307337   0.0177441   0.0000000), wk =   0.1111111
        k(    7) = (   0.0307337   0.0532324   0.0000000), wk =   0.1111111
        k(    8) = (   0.0307337  -0.1242088   0.0000000), wk =   0.1111111
        k(    9) = (   0.0307337  -0.0887206   0.0000000), wk =   0.1111111
        k(   10) = (   0.0307337  -0.0532324   0.0000000), wk =   0.1111111
        k(   11) = (   0.0614674  -0.0354882   0.0000000), wk =   0.1111111
        k(   12) = (   0.0614674   0.0000000   0.0000000), wk =   0.1111111
        k(   13) = (   0.0614674   0.0354882   0.0000000), wk =   0.1111111
        k(   14) = (   0.0614674  -0.1419529   0.0000000), wk =   0.1111111
        k(   15) = (   0.0614674  -0.1064647   0.0000000), wk =   0.1111111
        k(   16) = (   0.0614674  -0.0709765   0.0000000), wk =   0.1111111
        k(   17) = (  -0.0922011   0.0532324   0.0000000), wk =   0.0555556
        k(   18) = (  -0.0922011   0.0887206   0.0000000), wk =   0.1111111
        k(   19) = (  -0.0922011   0.1242088   0.0000000), wk =   0.1111111
        k(   20) = (  -0.0922011  -0.0532324   0.0000000), wk =   0.0555556

     Largest allocated arrays     est. size (Mb)     dimensions
     Largest temporary arrays     est. size (Mb)     dimensions

     Initial potential from superposition of free atoms
     Check: negative starting charge=   -0.884424

     starting charge  185.99981, renormalised to  198.00000

[...]

     *
     * You are using vdW-DF for exchange-correlation in this calculation.
     * Please cite the following three references that made this development
     * possible:
     *
     *   M. Dion, H. Rydberg, E. Schroder, D. C. Langreth, and
     *   B. I. Lundqvist, Phys. Rev. Lett. 92, 246401 (2004).
     *
     *   T. Thonhauser, V. R. Cooper, S. Li, A. Puzder, P. Hyldgaard, and
     *   D. C. Langreth, Phys. Rev. B 76, 125112 (2007).
     *
     *   G. Roman-Perez and J. M. Soler, Phys. Rev. Lett. 103, 096102 (2009).
     *
     *
     * If you are using vdW-DF2, please also cite:
     *
     *   K. Lee, E. D. Murray, L. Kong, B. I. Lundqvist, and
     *   D. C. Langreth, Phys. Rev. B 82, 081101(R) (2010).
     *
     *
     * If you are calculating the stress with vdW-DF, please also cite:
     *
     *   R. Sabatini, E. Kucukbenli, B. Kolb, T. Thonhauser, and
     *   S. de Gironcoli, J. Phys.: Condens. Matter 24, 424209 (2012).
     *

     Carrying out vdW-DF run using the following parameters:

     Nqs =      20    Nr_points =    1024   r_max =   100.000
     q_mesh =
               0.00001000     0.04494208     0.09755937     0.15916263
               0.23128650     0.31572767     0.41458969     0.53033537
               0.66584808     0.82450364     1.01025438     1.22772762
               1.48234092     1.78043706     2.12944203     2.53805004
               3.01644009     3.57652955     4.23227104     5.00000000

     Gradients computed in reciprocal space

[...]

     Starting wfc are  160 randomized atomic wfcs

     Self-consistent Calculation

[...]

     total energy              =   -2373.74791592 Ry
     Harris-Foulkes estimate   =   -2373.74791554 Ry
     estimated scf accuracy    <       0.00001008 Ry

     iteration # 29     ecut=    36.75 Ry     beta=0.30
     Davidson diagonalization with overlap
     ethr =  5.09E-09,  avg # of iterations =  4.5

[...]

     negative rho (up, down):  9.221E-01 0.000E+00

     Adding external electric field

     Computed dipole along edir(3) :
        Dipole               -0.2822 Ry au,         -0.7174 Debye
        Dipole field         -0.0008 Ry au

        Potential amp.        0.0760 Ry
        Total length         45.0078 bohr

     End of self-consistent calculation

[...]

          k = 0.0615-0.0710 0.0000 ( 15803 PWs)   bands (ev):

[...]

          k =-0.0922-0.0532 0.0000 ( 15808 PWs)   bands (ev):

   -71.7593 -71.2103 -71.1789 -71.1391 -71.1258 -70.7525 -70.7289 -70.7057
   -70.6948 -70.6413 -70.6093 -70.5923 -42.2544 -41.5282 -41.4633 -41.4225
   -41.3876 -41.3422 -41.2688 -41.2531 -41.2046 -41.1906 -41.1613 -41.1084
   -41.0571 -40.8965 -40.8860 -40.8521 -40.8012 -40.7666 -40.7238 -40.6863
   -40.6760 -40.6399 -40.6282 -40.6273 -40.6101 -40.5937 -40.5921 -40.5624
   -40.5326 -40.5312 -40.4924 -40.4910 -40.4801 -40.4532 -40.3619 -40.3354
   -16.1263  -3.4708  -3.2522  -3.0703  -2.9850  -2.8267  -2.6796  -2.6030
    -2.5327  -2.3913  -2.3333  -2.1429  -2.0737  -2.0733  -1.8973  -1.7907
    -1.6680  -1.6130  -1.5671  -1.4793  -1.1928  -1.1688  -1.1090  -0.9023
    -0.8592  -0.7646  -0.4197  -0.3126  -0.2868  -0.2447   0.0418   0.0750
     0.0909   0.1430   0.2236   0.2564   0.3193   0.4340   0.4470   0.4655
     0.4997   0.5707   0.9196   1.0408   1.1600   1.2600   1.4102   1.4828
     1.5142   1.6938   1.7729   1.8236   1.8779   2.0188   2.1667   2.1848
     2.4557   2.5112   2.5133   2.6280   2.6985

     the Fermi energy is     2.0947 ev

!    total energy              =   -2373.74791226 Ry
     Harris-Foulkes estimate   =   -2373.74788905 Ry
     estimated scf accuracy    <       0.00000419 Ry

     The total energy is the sum of the following terms:

     one-electron contribution =  -22473.52704229 Ry
     hartree contribution      =   11237.04746123 Ry
     xc contribution           =    -329.38790040 Ry
     ewald contribution        =    9192.21204419 Ry
     electric field correction =       0.00023844 Ry
     smearing contrib. (-TS)   =      -0.09271343 Ry

     convergence has been achieved in  29 iterations

 BEEF-vdW xc energy contributions
           1 :   -285.590258286936
           2 :    261.937851722402
           3 :   -221.114754221611
           4 :    173.293551673877
           5 :   -128.661313457653
           6 :    94.4150005251136
           7 :   -73.2085209988222
           8 :    63.3248972549204
           9 :   -60.2647833821815
          10 :    58.9753079511712
          11 :   -55.8021632652370
          12 :    49.4734757251557
          13 :   -40.9412877661768
          14 :    32.3873314540038
          15 :   -25.9385565228702
          16 :    22.6555358879710
          17 :   -22.1767625106599
          18 :    23.0649663677834
          19 :   -23.5954154266740
          20 :    22.5728681175086
          21 :   -19.8040427015894
          22 :    16.0489930482193
          23 :   -12.5309199147842
          24 :    10.2840601034391
          25 :   -9.67141404067957
          26 :    10.2784147091949
          27 :   -11.1893751359352
          28 :    11.4772300789959
          29 :   -10.6476065475080
          30 :    8.82995053736829
          31 :   -29.6845866508442
          32 :   -22.4547971335441

     Forces acting on atoms (Ry/au):

     negative rho (up, down):  9.221E-01 0.000E+00
     atom    1 type  1   force =     0.00013203    0.00007351    0.02412199
     atom    2 type  1   force =    -0.00013432    0.00008045    0.02413827
     atom    3 type  1   force =     0.00000766   -0.00015389    0.02407704
     atom    4 type  1   force =    -0.00000688   -0.00000174    0.03333475
     atom    5 type  1   force =     0.00001915   -0.00737677   -0.02589935
     atom    6 type  1   force =    -0.00001988    0.00002245   -0.03207499
     atom    7 type  1   force =     0.00641304    0.00366299   -0.02590713
     atom    8 type  1   force =    -0.00641812    0.00368672   -0.02592872
     atom    9 type  1   force =     0.00001347   -0.00000902    0.00180720
     atom   10 type  1   force =    -0.00001367    0.00023378    0.00023974
     atom   11 type  1   force =     0.00021347   -0.00011768    0.00019041
     atom   12 type  1   force =    -0.00020993   -0.00009910    0.00023646
     atom   13 type  2   force =     0.00000399   -0.00000168    0.00166433

     Total force =     0.077902     Total SCF correction =     0.019938
     SCF correction compared to forces is large: reduce conv_thr to get better values

     entering subroutine stress ...

     negative rho (up, down):  9.221E-01 0.000E+00
          total   stress  (Ry/bohr**3)                   (kbar)     P=  -22.20
  -0.00017315   0.00000000   0.00000001        -25.47      0.00      0.00
   0.00000000  -0.00017316   0.00000001          0.00    -25.47      0.00
   0.00000001   0.00000001  -0.00010644          0.00      0.00    -15.66

 !ASE

     Writing output data file calc.save

     General routines

     Parallel routines

   This run was terminated on:  21: 3:35  16Jan2018

   JOB DONE.
Job  /afs/slac/g/suncat/bin/suncat-tsmpirun -x LD_LIBRARY_PATH -wdir /scratch/qe842477_z1bPc pw.x -in pw.inp

TID   HOST_NAME   COMMAND_LINE            STATUS            TERMINATION_TIME
00000 suncat0153 pw.x -in pw.inp   Done                     01/16/2018 21:03:35
00001 suncat0153 pw.x -in pw.inp   Done                     01/16/2018 21:03:35
00002 suncat0153 pw.x -in pw.inp   Done                     01/16/2018 21:03:35
00003 suncat0153 pw.x -in pw.inp   Done                     01/16/2018 21:03:35
00004 suncat0153 pw.x -in pw.inp   Done                     01/16/2018 21:03:35
00005 suncat0153 pw.x -in pw.inp   Done                     01/16/2018 21:03:35
00006 suncat0153 pw.x -in pw.inp   Done                     01/16/2018 21:03:35
00007 suncat0153 pw.x -in pw.inp   Done                     01/16/2018 21:03:35
00008 suncat0146 pw.x -in pw.inp   Done                     01/16/2018 21:03:35
00009 suncat0146 pw.x -in pw.inp   Done                     01/16/2018 21:03:35
00010 suncat0146 pw.x -in pw.inp   Done                     01/16/2018 21:03:35
00011 suncat0146 pw.x -in pw.inp   Done                     01/16/2018 21:03:35
00012 suncat0146 pw.x -in pw.inp   Done                     01/16/2018 21:03:35
00013 suncat0146 pw.x -in pw.inp   Done                     01/16/2018 21:03:35
00014 suncat0146 pw.x -in pw.inp   Done                     01/16/2018 21:03:35
00015 suncat0146 pw.x -in pw.inp   Done                     01/16/2018 21:03:35
00016 suncat0115 pw.x -in pw.inp   Done                     01/16/2018 21:03:35
00017 suncat0115 pw.x -in pw.inp   Done                     01/16/2018 21:03:35
00018 suncat0115 pw.x -in pw.inp   Done                     01/16/2018 21:03:35
00019 suncat0115 pw.x -in pw.inp   Done                     01/16/2018 21:03:35
00020 suncat0115 pw.x -in pw.inp   Done                     01/16/2018 21:03:35
00021 suncat0115 pw.x -in pw.inp   Done                     01/16/2018 21:03:35
00022 suncat0115 pw.x -in pw.inp   Done                     01/16/2018 21:03:35
00023 suncat0115 pw.x -in pw.inp   Done                     01/16/2018 21:03:35
00024 suncat0114 pw.x -in pw.inp   Done                     01/16/2018 21:03:35
00025 suncat0114 pw.x -in pw.inp   Done                     01/16/2018 21:03:35
00026 suncat0114 pw.x -in pw.inp   Done                     01/16/2018 21:03:35
00027 suncat0114 pw.x -in pw.inp   Done                     01/16/2018 21:03:35
00028 suncat0114 pw.x -in pw.inp   Done                     01/16/2018 21:03:35
00029 suncat0114 pw.x -in pw.inp   Done                     01/16/2018 21:03:35
00030 suncat0114 pw.x -in pw.inp   Done                     01/16/2018 21:03:35
00031 suncat0114 pw.x -in pw.inp   Done                     01/16/2018 21:03:35