     Program PWSCF v.5.1rc2 (svn rev. 11289) starts on  2May2018 at 11:43:18

     Current dimensions of program PWSCF are:
     Max number of different atomic species (ntypx) = 10
     Max number of k-points (npk) =  40000
     Max angular momentum in pseudopotentials (lmaxx) =  3
     Presently stress not available with electric field

     IMPORTANT: XC functional enforced from input :
     Exchange-correlation      = BEEF-VDW ( 1  4 27 13 2)
     Any further DFT definition will be discarded
     Please, verify this is what you really want

     Subspace diagonalization in iterative solution of the eigenvalue problem:
     a serial algorithm will be used

     bravais-lattice index     =            0
     lattice parameter (alat)  =       1.8897  a.u.
     unit-cell volume          =    3807.2308 (a.u.)^3
     number of atoms/cell      =           13
     number of atomic types    =            2
     number of electrons       =       233.00
     number of Kohn-Sham states=          126
     kinetic-energy cutoff     =      36.7493  Ry
     charge density cutoff     =     367.4932  Ry
     convergence threshold     =      1.0E-05
     mixing beta               =       0.3000
     number of iterations used =           10  plain     mixing
     Exchange-correlation      = BEEF-VDW ( 1  4 27 13 2)
     nstep                     =           50

     celldm(1)=   1.889726  celldm(2)=   0.000000  celldm(3)=   0.000000
     celldm(4)=   0.000000  celldm(5)=   0.000000  celldm(6)=   0.000000

     crystal axes: (cart. coord. in units of alat)
               a(1) = (   5.184823   0.000000   0.000000 )
               a(2) = (   2.592411   4.490188   0.000000 )
               a(3) = (   0.000000   0.000000  24.233390 )

     reciprocal axes: (cart. coord. in units 2 pi/alat)
               b(1) = (  0.192871 -0.111354  0.000000 )
               b(2) = (  0.000000  0.222708  0.000000 )
               b(3) = (  0.000000  0.000000  0.041265 )

     PseudoPot. # 1 for Cu read from file:
     /u/if/mamunm/psp/gbrv1.5pbe/Cu.UPF
     MD5 check sum: 6e991ff952a84172a2a52a1c1e996048
     Pseudo is Ultrasoft + core correction, Zval = 19.0
     Generated by new atomic code, or converted to UPF format
     Using radial grid of  867 points,  6 beta functions with:
                l(1) =   0
                l(2) =   0
                l(3) =   1
                l(4) =   1
                l(5) =   2
                l(6) =   2
     Q(r) pseudized with  8 coefficients,  rinner =    1.150   1.150   1.150
                                                       1.150   1.150

     PseudoPot. # 2 for N  read from file:
     /u/if/mamunm/psp/gbrv1.5pbe/N.UPF
     MD5 check sum: 95339753478d7afb44899504a8723017
     Pseudo is Ultrasoft + core correction, Zval =  5.0
     Generated by new atomic code, or converted to UPF format
     Using radial grid of  729 points,  4 beta functions with:
                l(1) =   0
                l(2) =   0
                l(3) =   1
                l(4) =   1
     Q(r) pseudized with  8 coefficients,  rinner =    0.900   0.900   0.900

     vdW kernel table read from file vdW_kernel_table
     MD5 check sum: 095c7af220d748ca6e76c0b4c6cfb241

     atomic species   valence    mass     pseudopotential
        Cu1           19.00    63.54600     Cu( 1.00)
        N1             5.00    14.00700     N ( 1.00)

     No symmetry found

   Cartesian axes

     site n.     atom                  positions (alat units)
         1           Cu1 tau(   1) = (   1.2962057   0.7483647  10.0000000  )
         2           Cu1 tau(   2) = (   3.8886170   0.7483647  10.0000000  )
         3           Cu1 tau(   3) = (   2.5924113   2.9934587  10.0000000  )
         4           Cu1 tau(   4) = (   5.1848226   2.9934587  10.0000000  )
         5           Cu1 tau(   5) = (   5.1848226   1.4967294  12.1166950  )
         6           Cu1 tau(   6) = (   2.5924113   1.4967294  12.1166950  )
         7           Cu1 tau(   7) = (   6.4810283   3.7418234  12.1166950  )
         8           Cu1 tau(   8) = (   3.8886170   3.7418234  12.1166950  )
         9           Cu1 tau(   9) = (   0.0000000   0.0000000  14.2333899  )
        10           Cu1 tau(  10) = (   2.5924113   0.0000000  14.2333899  )
        11           Cu1 tau(  11) = (   1.2962057   2.2450940  14.2333899  )
        12           Cu1 tau(  12) = (   3.8886170   2.2450940  14.2333899  )
        13           N1  tau(  13) = (   1.2962057   0.0000000  15.7558899  )

     number of k points=    20  Fermi-Dirac smearing, width (Ry)=  0.0110
                       cart. coord. in units 2pi/alat
        k(    1) = (   0.0000000   0.0000000   0.0000000), wk =   0.0555556
        k(    2) = (   0.0000000   0.0371180   0.0000000), wk =   0.1111111
        k(    3) = (   0.0000000   0.0742359   0.0000000), wk =   0.1111111
        k(    4) = (   0.0000000  -0.1113539   0.0000000), wk =   0.0555556
        k(    5) = (   0.0321451  -0.0185590   0.0000000), wk =   0.1111111
        k(    6) = (   0.0321451   0.0185590   0.0000000), wk =   0.1111111
        k(    7) = (   0.0321451   0.0556770   0.0000000), wk =   0.1111111
        k(    8) = (   0.0321451  -0.1299129   0.0000000), wk =   0.1111111
        k(    9) = (   0.0321451  -0.0927949   0.0000000), wk =   0.1111111
        k(   10) = (   0.0321451  -0.0556770   0.0000000), wk =   0.1111111
        k(   11) = (   0.0642902  -0.0371180   0.0000000), wk =   0.1111111
        k(   12) = (   0.0642902  -0.0000000   0.0000000), wk =   0.1111111
        k(   13) = (   0.0642902   0.0371180   0.0000000), wk =   0.1111111
        k(   14) = (   0.0642902  -0.1484719   0.0000000), wk =   0.1111111
        k(   15) = (   0.0642902  -0.1113539   0.0000000), wk =   0.1111111
        k(   16) = (   0.0642902  -0.0742359   0.0000000), wk =   0.1111111
        k(   17) = (  -0.0964353   0.0556770   0.0000000), wk =   0.0555556
        k(   18) = (  -0.0964353   0.0927949   0.0000000), wk =   0.1111111
        k(   19) = (  -0.0964353   0.1299129   0.0000000), wk =   0.1111111
        k(   20) = (  -0.0964353  -0.0556770   0.0000000), wk =   0.0555556

     Largest allocated arrays     est. size (Mb)     dimensions
     Largest temporary arrays     est. size (Mb)     dimensions

     Initial potential from superposition of free atoms
     Check: negative starting charge=   -0.000124

     starting charge  220.99997, renormalised to  233.00000

     negative rho (up, down):  1.309E-04 0.000E+00

     *
     * You are using vdW-DF for exchange-correlation in this calculation.
     * Please cite the following three references that made this development
     * possible:
     *
     *   M. Dion, H. Rydberg, E. Schroder, D. C. Langreth, and
     *   B. I. Lundqvist, Phys. Rev. Lett. 92, 246401 (2004).
     *
     *   T. Thonhauser, V. R. Cooper, S. Li, A. Puzder, P. Hyldgaard, and
     *   D. C. Langreth, Phys. Rev. B 76, 125112 (2007).
     *
     *   G. Roman-Perez and J. M. Soler, Phys. Rev. Lett. 103, 096102 (2009).
     *
     *
     * If you are using vdW-DF2, please also cite:
     *
     *   K. Lee, E. D. Murray, L. Kong, B. I. Lundqvist, and
     *   D. C. Langreth, Phys. Rev. B 82, 081101(R) (2010).
     *
     *
     * If you are calculating the stress with vdW-DF, please also cite:
     *
     *   R. Sabatini, E. Kucukbenli, B. Kolb, T. Thonhauser, and
     *   S. de Gironcoli, J. Phys.: Condens. Matter 24, 424209 (2012).
     *

     Carrying out vdW-DF run using the following parameters:

     Nqs =      20    Nr_points =    1024   r_max =   100.000
     q_mesh =
               0.00001000     0.04494208     0.09755937     0.15916263
               0.23128650     0.31572767     0.41458969     0.53033537
               0.66584808     0.82450364     1.01025438     1.22772762
               1.48234092     1.78043706     2.12944203     2.53805004
               3.01644009     3.57652955     4.23227104     5.00000000

     Gradients computed in reciprocal space

     Adding external electric field

     Computed dipole along edir(3) :
        Dipole               -1.8670 Ry au,         -4.7455 Debye
        Dipole field         -0.0062 Ry au

        Potential amp.        0.5503 Ry
        Total length         44.6496 bohr

     Starting wfc are  160 randomized atomic wfcs

     Self-consistent Calculation

     iteration #  1     ecut=    36.75 Ry     beta=0.30
     Davidson diagonalization with overlap
     ethr =  1.00E-02,  avg # of iterations =  7.8

[...]

     total energy              =   -4634.53202893 Ry
     Harris-Foulkes estimate   =   -4882.30862860 Ry
     estimated scf accuracy    <     520.39995041 Ry

     iteration #  2     ecut=    36.75 Ry     beta=0.30
     Davidson diagonalization with overlap
     c_bands:  3 eigenvalues not converged
     ethr =  1.00E-02,  avg # of iterations = 19.6

[...]

     End of self-consistent calculation

          k = 0.0000 0.0000 0.0000 ( 14321 PWs)   bands (ev):

  -113.0056-113.0019-112.8981-112.8518-112.8479-112.8278-112.6222-112.6020
  -112.5980-112.5919-112.4621-112.4520 -70.4926 -70.4679 -70.3675 -70.3618
   -70.3329 -70.3104 -70.3057 -70.2987 -70.2924 -70.2868 -70.2491 -70.2435
   -70.2405 -70.2383 -70.2230 -70.2207 -70.2127 -70.2119 -70.0686 -70.0666
   -70.0522 -70.0138 -70.0133 -70.0072 -69.9897 -69.9878 -69.9753 -69.9549
   -69.9513 -69.9408 -69.9143 -69.8704 -69.8676 -69.8584 -69.8319 -69.8199
   -13.0193  -8.4694  -6.4718  -5.1735  -4.8258  -4.8216  -4.8082  -4.7130
    -4.6475  -4.6345  -4.3933  -4.3343  -4.2712  -4.2530  -4.2346  -4.2162
    -3.7217  -3.7006  -3.6449  -3.5231  -3.3755  -3.2991  -3.2492  -3.2309
    -3.1658  -3.1589  -3.1126  -3.0498  -3.0290  -3.0024  -2.9739  -2.9687
    -2.9055  -2.9013  -2.7700  -2.7077  -2.6371  -2.5286  -2.5259  -2.4715
    -2.3908  -2.3791  -2.3086  -2.2854  -2.1959  -2.1301  -2.0903  -2.0093
    -1.9945  -1.9803  -1.9411  -1.9190  -1.9109  -1.9025  -1.8980  -1.8743
    -1.8612  -1.8377  -1.7148  -1.6739  -1.6736  -1.6640  -1.6331  -1.4520
    -1.1107  -0.9331  -0.5233  -0.0747   0.0867   0.1715   0.5556   0.9485
     1.1371   1.1954   1.3557   1.9327   2.7840   3.7685

[...]

          k =-0.0964 0.0557 0.0000 ( 14294 PWs)   bands (ev):

[...]

     the Fermi energy is    -0.2521 ev

!    total energy              =   -4879.35481580 Ry
     Harris-Foulkes estimate   =   -4879.35480752 Ry
     estimated scf accuracy    <       0.00000980 Ry

     The total energy is the sum of the following terms:

     one-electron contribution =  -37736.22550599 Ry
     hartree contribution      =   18879.31613703 Ry
     xc contribution           =    -485.25817387 Ry
     ewald contribution        =   14462.84390618 Ry
     electric field correction =       0.00064619 Ry
     smearing contrib. (-TS)   =      -0.03182534 Ry

     convergence has been achieved in  25 iterations

 BEEF-vdW xc energy contributions
           1 :   -429.934199003820
           2 :    389.672462617640
           3 :   -321.507998033312
           4 :    244.227551244409
           5 :   -174.890668286339
           6 :    122.728413955276
           7 :   -87.7256431259364
           8 :    63.8017510947323
           9 :   -44.1100551048411
          10 :    25.1887841845412
          11 :   -7.89684060637336
          12 :   -4.70466300695523
          13 :    10.5395297414461
          14 :   -10.4611082037821
          15 :    7.82026391790839
          16 :   -6.27978452348748
          17 :    7.58554372720005
          18 :   -10.8191137178116
          19 :    13.4830210639328
          20 :   -13.5064995425827
          21 :    10.7275368756450
          22 :   -6.89776541990574
          23 :    4.34263793935554
          24 :   -4.31795258417924
          25 :    6.22549380313257
          26 :   -8.16980464107519
          27 :    8.37520600233643
          28 :   -6.42645946292566
          29 :    3.48228139975231
          30 :   -1.37163814066781
          31 :   -34.3909022191128
          32 :   -23.4884121687811

     Forces acting on atoms (Ry/au):

     negative rho (up, down):  1.190E-03 0.000E+00
     atom    1 type  1   force =    -0.00001803    0.00056896    0.00712819
     atom    2 type  1   force =     0.00001585   -0.00039084    0.00456950
     atom    3 type  1   force =    -0.00100959   -0.00018399    0.00551249
     atom    4 type  1   force =     0.00103848   -0.00018715    0.00484732
     atom    5 type  1   force =    -0.00163061   -0.00031427   -0.00198904
     atom    6 type  1   force =     0.00162052   -0.00025242   -0.00203143
     atom    7 type  1   force =     0.00003448    0.00250545    0.00237386
     atom    8 type  1   force =    -0.00003313   -0.00148862   -0.00772634
     atom    9 type  1   force =     0.01446742   -0.00177905    0.04460684
     atom   10 type  1   force =    -0.01447770   -0.00178597    0.04463264
     atom   11 type  1   force =    -0.00000797   -0.00895736    0.00968349
     atom   12 type  1   force =     0.00000346    0.00928349    0.00917053
     atom   13 type  2   force =    -0.00000317    0.00298177   -0.12077806

     Total force =     0.139096     Total SCF correction =     0.007102

     entering subroutine stress ...

     negative rho (up, down):  1.190E-03 0.000E+00
          total   stress  (Ry/bohr**3)                   (kbar)     P=  -18.59
  -0.00011501  -0.00000000   0.00000001        -16.92     -0.00      0.00
  -0.00000000  -0.00012616   0.00000239         -0.00    -18.56      0.35
   0.00000001   0.00000239  -0.00013804          0.00      0.35    -20.31

     BFGS Geometry Optimization

     number of scf cycles    =   1
     number of bfgs steps    =   0

     energy   new            =   -4879.3548157969 Ry

     new trust radius        =       0.1208148623 bohr
     new conv_thr            =       0.0000099958 Ry

ATOMIC_POSITIONS (crystal)
Cu1      0.166666667   0.166666667   0.412653782    0   0   0
Cu1      0.666666667   0.166666667   0.412653782    0   0   0
Cu1      0.166666667   0.666666667   0.412653782    0   0   0
Cu1      0.666666667   0.666666667   0.412653782    0   0   0
Cu1      0.833333333   0.333333333   0.500000000    0   0   0
Cu1      0.333333333   0.333333333   0.500000000    0   0   0
Cu1      0.833333333   0.833333333   0.500000000    0   0   0
Cu1      0.333333333   0.833333333   0.500000000    0   0   0
Cu1      0.001581416  -0.000209664   0.588320284
Cu1      0.498627606  -0.000210480   0.588320848
Cu1      0.000527007   0.498944358   0.587557674
Cu1      0.499453314   0.501094077   0.587546472
N1       0.249823973   0.000351407   0.647535362

     Writing output data file calc.save
     Check: negative starting charge=   -0.000124
     NEW-OLD atomic charge density approx. for the potential
     Check: negative starting charge=   -0.000126

[...]

     Total force =     0.100259     Total SCF correction =     0.017293
     SCF correction compared to forces is large: reduce conv_thr to get better values

[...]

     energy   old            =   -4879.3548157969 Ry
     energy   new            =   -4879.3717019088 Ry

     CASE: energy  _new < energy  _old

[...]

     WARNING: bfgs curvature condition failed, Theta= 0.937
     new trust radius        =       0.0469246809 bohr
     new conv_thr            =       0.0000001000 Ry

[...]

     WARNING: bfgs curvature condition failed, Theta= 0.148
     new trust radius        =       0.0848429208 bohr
     new conv_thr            =       0.0000001000 Ry

[...]

     Threshold (ethr) on eigenvalues was too large:
     Diagonalizing with lowered threshold

     Davidson diagonalization with overlap
     ethr =  5.48E-08,  avg # of iterations =  1.0

[...]

     Total force =     0.005496     Total SCF correction =     0.000544

[...]

     Threshold (ethr) on eigenvalues was too large:
     Diagonalizing with lowered threshold

     Davidson diagonalization with overlap
     ethr =  8.77E-08,  avg # of iterations =  1.0

[...]

     number of scf cycles    =  43
     number of bfgs steps    =  42

     energy   old            =   -4879.4408110716 Ry
     energy   new            =   -4879.4408535173 Ry

     CASE: energy  _new < energy  _old

     new trust radius        =       0.0082533873 bohr
     new conv_thr            =       0.0000001000 Ry

ATOMIC_POSITIONS (crystal)
Cu1      0.166666667   0.166666667   0.412653782    0   0   0
Cu1      0.666666667   0.166666667   0.412653782    0   0   0
Cu1      0.166666667   0.666666667   0.412653782    0   0   0
Cu1      0.666666667   0.666666667   0.412653782    0   0   0
Cu1      0.833333333   0.333333333   0.500000000    0   0   0
Cu1      0.333333333   0.333333333   0.500000000    0   0   0
Cu1      0.833333333   0.833333333   0.500000000    0   0   0
Cu1      0.333333333   0.833333333   0.500000000    0   0   0
Cu1     -0.006062060  -0.006874092   0.588136439
Cu1      0.512940824  -0.006869345   0.588136292
Cu1     -0.005228539   0.510460636   0.588260367
Cu1      0.500424890   0.499154981   0.584933752
N1       0.167429286   0.165122318   0.629516943

     Writing output data file calc.save
     Check: negative starting charge=   -0.000137
     NEW-OLD atomic charge density approx. for the potential
     Check: negative starting charge=   -0.000137

[...]

     Self-consistent Calculation

[...]

     total energy              =   -4879.44086546 Ry
     Harris-Foulkes estimate   =   -4879.44086543 Ry
     estimated scf accuracy    <       0.00000016 Ry

     iteration #  8     ecut=    36.75 Ry     beta=0.30
     Davidson diagonalization with overlap
     ethr =  6.97E-11,  avg # of iterations =  2.3

[...]

     negative rho (up, down):  1.314E-03 0.000E+00

     Adding external electric field

     Computed dipole along edir(3) :
        Dipole               -0.2524 Ry au,         -0.6416 Debye
        Dipole field         -0.0008 Ry au

        Potential amp.        0.0744 Ry
        Total length         44.6496 bohr

     End of self-consistent calculation

[...]

          k = 0.0643-0.0742 0.0000 ( 14299 PWs)   bands (ev):

[...]

          k =-0.0964-0.0557 0.0000 ( 14294 PWs)   bands (ev):

  -112.9361-112.9315-112.9304-112.6225-112.5626-112.5609-112.5588-112.3609
  -112.3180-112.3162-112.3143-112.2267 -70.4909 -70.4677 -70.4569 -70.2700
   -70.2636 -70.2514 -70.2232 -70.2118 -70.2061 -70.0238 -70.0206 -70.0124
   -69.9997 -69.9790 -69.9652 -69.9594 -69.9485 -69.9462 -69.9459 -69.9445
   -69.9411 -69.7910 -69.7795 -69.7595 -69.7408 -69.7399 -69.7324 -69.7308
   -69.7193 -69.7095 -69.6691 -69.6673 -69.6653 -69.6523 -69.6513 -69.6034
   -14.1225  -6.6417  -6.4113  -5.3637  -4.8108  -4.8052  -4.5809  -4.2983
    -4.2276  -4.1437  -4.0494  -3.9984  -3.8802  -3.8012  -3.7039  -3.6882
    -3.6038  -3.5714  -3.5398  -3.5134  -3.3394  -3.3168  -3.2953  -3.2839
    -3.2327  -3.2042  -3.1290  -3.0649  -3.0187  -2.9215  -2.8481  -2.8229
    -2.8029  -2.7106  -2.6894  -2.6816  -2.6599  -2.6164  -2.6145  -2.5767
    -2.5448  -2.5298  -2.4256  -2.4149  -2.3513  -2.3458  -2.3060  -2.2856
    -2.2435  -2.1730  -2.1088  -2.1061  -2.0548  -1.9815  -1.9592  -1.9489
    -1.9188  -1.9037  -1.8034  -1.7126  -1.6766  -1.6509  -1.6089  -1.5812
    -1.4597  -0.8628  -0.8078  -0.2454   0.1601   0.3367   0.7321   1.3700
     1.8317   2.5278   3.3200   3.5487   4.4819   5.3783

     the Fermi energy is     0.0435 ev

!    total energy              =   -4879.44086546 Ry
     Harris-Foulkes estimate   =   -4879.44086535 Ry
     estimated scf accuracy    <       0.00000005 Ry

     The total energy is the sum of the following terms:

     one-electron contribution =  -37957.16418923 Ry
     hartree contribution      =   18990.87185807 Ry
     xc contribution           =    -485.46589158 Ry
     ewald contribution        =   14572.34267379 Ry
     electric field correction =       0.00021032 Ry
     smearing contrib. (-TS)   =      -0.02552683 Ry

     convergence has been achieved in   8 iterations

 BEEF-vdW xc energy contributions
           1 :   -430.164475078435
           2 :    390.022128815367
           3 :   -321.968149911742
           4 :    244.660919942081
           5 :   -175.135481678260
           6 :    122.708916298399
           7 :   -87.4982621677819
           8 :    63.5123391638252
           9 :   -43.8974699048565
          10 :    25.1040745220477
          11 :   -7.89024816163561
          12 :   -4.72640531787698
          13 :    10.6303385261879
          14 :   -10.5905977792264
          15 :    7.89934275374929
          16 :   -6.23245512987415
          17 :    7.41118722060452
          18 :   -10.6011762032317
          19 :    13.3381781417718
          20 :   -13.5095838656300
          21 :    10.8642053237758
          22 :   -7.07676920734644
          23 :    4.45790997464513
          24 :   -4.31779405550475
          25 :    6.14164625495630
          26 :   -8.08849457942694
          27 :    8.37327003653974
          28 :   -6.51520999094078
          29 :    3.59599581392257
          30 :   -1.41161639968374
          31 :   -34.4080172729466
          32 :   -23.5274395811376

     Forces acting on atoms (Ry/au):

     negative rho (up, down):  1.314E-03 0.000E+00
     atom    1 type  1   force =    -0.00000172    0.00001671    0.00318168
     atom    2 type  1   force =     0.00000047   -0.00060918    0.00278659
     atom    3 type  1   force =    -0.00054714    0.00031417    0.00279365
     atom    4 type  1   force =     0.00054642    0.00031316    0.00278992
     atom    5 type  1   force =    -0.00023874    0.00016598   -0.00468336
     atom    6 type  1   force =     0.00023846    0.00018231   -0.00469239
     atom    7 type  1   force =     0.00001477   -0.00045300    0.00367085
     atom    8 type  1   force =    -0.00001322   -0.00050200   -0.00464110
     atom    9 type  1   force =     0.00182873    0.00040132    0.00046138
     atom   10 type  1   force =    -0.00185164    0.00040697    0.00047249
     atom   11 type  1   force =    -0.00000009    0.00012765   -0.00034411
     atom   12 type  1   force =     0.00000240    0.00030005    0.00010056
     atom   13 type  2   force =     0.00002130   -0.00066414   -0.00189616

     Total force =     0.003436     Total SCF correction =     0.000362
     SCF correction compared to forces is large: reduce conv_thr to get better values

     entering subroutine stress ...

     negative rho (up, down):  1.314E-03 0.000E+00
          total   stress  (Ry/bohr**3)                   (kbar)     P=  -17.86
  -0.00012896   0.00000002   0.00000002        -18.97      0.00      0.00
   0.00000002  -0.00012959   0.00000020          0.00    -19.06      0.03
   0.00000002   0.00000020  -0.00010576          0.00      0.03    -15.56

     bfgs converged in  44 scf cycles and  43 bfgs steps
     (criteria: energy <  1.0E+00, force <  1.9E-03)

     End of BFGS Geometry Optimization

     Final energy   =   -4879.4408654640 Ry
Begin final coordinates

ATOMIC_POSITIONS (crystal)
Cu1      0.166666667   0.166666667   0.412653782    0   0   0
Cu1      0.666666667   0.166666667   0.412653782    0   0   0
Cu1      0.166666667   0.666666667   0.412653782    0   0   0
Cu1      0.666666667   0.666666667   0.412653782    0   0   0
Cu1      0.833333333   0.333333333   0.500000000    0   0   0
Cu1      0.333333333   0.333333333   0.500000000    0   0   0
Cu1      0.833333333   0.833333333   0.500000000    0   0   0
Cu1      0.333333333   0.833333333   0.500000000    0   0   0
Cu1     -0.006062060  -0.006874092   0.588136439
Cu1      0.512940824  -0.006869345   0.588136292
Cu1     -0.005228539   0.510460636   0.588260367
Cu1      0.500424890   0.499154981   0.584933752
N1       0.167429286   0.165122318   0.629516943
End final coordinates

     Writing output data file calc.save

     General routines

     Parallel routines

   This run was terminated on:  15:17:40   2May2018

   JOB DONE.
Job  /afs/slac/g/suncat/bin/suncat-tsmpirun -x LD_LIBRARY_PATH -wdir /scratch/qe585058_z4IaG pw.x -npool 4 -in pw.inp

TID   HOST_NAME   COMMAND_LINE            STATUS            TERMINATION_TIME
00000 suncat0192 pw.x -npool 4 -i  Done                     05/02/2018 15:17:40
00001 suncat0192 pw.x -npool 4 -i  Done                     05/02/2018 15:17:40
00002 suncat0192 pw.x -npool 4 -i  Done                     05/02/2018 15:17:40
00003 suncat0192 pw.x -npool 4 -i  Done                     05/02/2018 15:17:40
00004 suncat0192 pw.x -npool 4 -i  Done                     05/02/2018 15:17:40
00005 suncat0192 pw.x -npool 4 -i  Done                     05/02/2018 15:17:40
00006 suncat0192 pw.x -npool 4 -i  Done                     05/02/2018 15:17:40
00007 suncat0192 pw.x -npool 4 -i  Done                     05/02/2018 15:17:40
00008 suncat0002 pw.x -npool 4 -i  Done                     05/02/2018 15:17:40
00009 suncat0002 pw.x -npool 4 -i  Done                     05/02/2018 15:17:40
00010 suncat0002 pw.x -npool 4 -i  Done                     05/02/2018 15:17:40
00011 suncat0002 pw.x -npool 4 -i  Done                     05/02/2018 15:17:40
00012 suncat0002 pw.x -npool 4 -i  Done                     05/02/2018 15:17:40
00013 suncat0002 pw.x -npool 4 -i  Done                     05/02/2018 15:17:40
00014 suncat0002 pw.x -npool 4 -i  Done                     05/02/2018 15:17:40
00015 suncat0002 pw.x -npool 4 -i  Done                     05/02/2018 15:17:40
00016 suncat0177 pw.x -npool 4 -i  Done                     05/02/2018 15:17:40
00017 suncat0177 pw.x -npool 4 -i  Done                     05/02/2018 15:17:40
00018 suncat0177 pw.x -npool 4 -i  Done                     05/02/2018 15:17:40
00019 suncat0177 pw.x -npool 4 -i  Done                     05/02/2018 15:17:40
00020 suncat0177 pw.x -npool 4 -i  Done                     05/02/2018 15:17:40
00021 suncat0177 pw.x -npool 4 -i  Done                     05/02/2018 15:17:40
00022 suncat0177 pw.x -npool 4 -i  Done                     05/02/2018 15:17:40
00023 suncat0177 pw.x -npool 4 -i  Done                     05/02/2018 15:17:40
00024 suncat0282 pw.x -npool 4 -i  Done                     05/02/2018 15:17:40
00025 suncat0282 pw.x -npool 4 -i  Done                     05/02/2018 15:17:40
00026 suncat0282 pw.x -npool 4 -i  Done                     05/02/2018 15:17:40
00027 suncat0282 pw.x -npool 4 -i  Done                     05/02/2018 15:17:40
00028 suncat0282 pw.x -npool 4 -i  Done                     05/02/2018 15:17:40
00029 suncat0282 pw.x -npool 4 -i  Done                     05/02/2018 15:17:40
00030 suncat0282 pw.x -npool 4 -i  Done                     05/02/2018 15:17:40
00031 suncat0282 pw.x -npool 4 -i  Done                     05/02/2018 15:17:40