     Program PWSCF v.5.1rc2 (svn rev. 11289) starts on 16Jan2018 at  9:40:23

     Current dimensions of program PWSCF are:
     Max number of different atomic species (ntypx) = 10
     Max number of k-points (npk) =  40000
     Max angular momentum in pseudopotentials (lmaxx) =  3
     Presently stress not available with electric field

     IMPORTANT: XC functional enforced from input :
     Exchange-correlation      = BEEF-VDW ( 1  4 27 13 2)
     Any further DFT definition will be discarded
     Please, verify this is what you really want

     Subspace diagonalization in iterative solution of the eigenvalue problem:
     a serial algorithm will be used

     bravais-lattice index     =            0
     lattice parameter (alat)  =       1.8897  a.u.
     unit-cell volume          =    4228.3700 (a.u.)^3
     number of atoms/cell      =           13
     number of atomic types    =            2
     number of electrons       =       193.00
     number of Kohn-Sham states=          106
     kinetic-energy cutoff     =      36.7493  Ry
     charge density cutoff     =     367.4932  Ry
     convergence threshold     =      1.0E-05
     mixing beta               =       0.3000
     number of iterations used =           10  plain     mixing
     Exchange-correlation      = BEEF-VDW ( 1  4 27 13 2)
     nstep                     =           50

     celldm(1)=   1.889726  celldm(2)=   0.000000  celldm(3)=   0.000000
     celldm(4)=   0.000000  celldm(5)=   0.000000  celldm(6)=   0.000000

     crystal axes: (cart. coord. in units of alat)
               a(1) = (   5.440665   0.000000   0.000000 )
               a(2) = (   2.720332   4.711754   0.000000 )
               a(3) = (   0.000000   0.000000  24.442284 )

     reciprocal axes: (cart. coord. in units 2 pi/alat)
               b(1) = (  0.183801 -0.106118  0.000000 )
               b(2) = (  0.000000  0.212235  0.000000 )
               b(3) = (  0.000000  0.000000  0.040913 )

     PseudoPot. # 1 for Os read from file:
     /afs/slac.stanford.edu/u/if/mamunm/psp/gbrv1.5pbe/Os.UPF
     MD5 check sum: a3fb40a04f0c37c25c34bbc47164c9a8
     Pseudo is Ultrasoft + core correction, Zval = 16.0
     Generated by new atomic code, or converted to UPF format
     Using radial grid of  983 points,  8 beta functions with:
                l(1) =   0
                l(2) =   0
                l(3) =   1
                l(4) =   1
                l(5) =   2
                l(6) =   2
                l(7) =   3
                l(8) =   3
     Q(r) pseudized with  8 coefficients,  rinner =    1.150   1.150   1.150
                                                       1.150   1.150   1.150
                                                       1.150

     PseudoPot. # 2 for H  read from file:
     /afs/slac.stanford.edu/u/if/mamunm/psp/gbrv1.5pbe/H.UPF
     MD5 check sum: 761ae9a214b05c3daf00ab9f6b793d6f
     Pseudo is Ultrasoft, Zval =  1.0
     Generated by new atomic code, or converted to UPF format
     Using radial grid of  615 points,  2 beta functions with:
                l(1) =   0
                l(2) =   0
     Q(r) pseudized with  8 coefficients,  rinner =    0.700

     vdW kernel table read from file vdW_kernel_table
     MD5 check sum: 095c7af220d748ca6e76c0b4c6cfb241

     atomic species   valence    mass     pseudopotential
        Os1           16.00   190.23000     Os( 1.00)
        H1             1.00     1.00800     H ( 1.00)

     No symmetry found

   Cartesian axes

     site n.     atom                  positions (alat units)
         1           Os1 tau(   1) = (   1.3601662   0.7852923  10.0000000  )
         2           Os1 tau(   2) = (   4.0804987   0.7852923  10.0000000  )
         3           Os1 tau(   3) = (   2.7203325   3.1411694  10.0000000  )
         4           Os1 tau(   4) = (   5.4406649   3.1411694  10.0000000  )
         5           Os1 tau(   5) = (   5.4406649   1.5705847  12.2211422  )
         6           Os1 tau(   6) = (   2.7203325   1.5705847  12.2211422  )
         7           Os1 tau(   7) = (   6.8008312   3.9264617  12.2211422  )
         8           Os1 tau(   8) = (   4.0804987   3.9264617  12.2211422  )
         9           Os1 tau(   9) = (   0.0000000   0.0000000  14.4422843  )
        10           Os1 tau(  10) = (   2.7203325   0.0000000  14.4422843  )
        11           Os1 tau(  11) = (   1.3601662   2.3558770  14.4422843  )
        12           Os1 tau(  12) = (   4.0804987   2.3558770  14.4422843  )
        13           H1  tau(  13) = (   1.3601662   0.7852923  16.1922843  )

     number of k points=    20  Fermi-Dirac smearing, width (Ry)=  0.0110
                       cart. coord. in units 2pi/alat
        k(    1) = (   0.0000000   0.0000000   0.0000000), wk =   0.0555556
        k(    2) = (   0.0000000   0.0353725   0.0000000), wk =   0.1111111
        k(    3) = (   0.0000000   0.0707451   0.0000000), wk =   0.1111111
        k(    4) = (   0.0000000  -0.1061176   0.0000000), wk =   0.0555556
        k(    5) = (   0.0306335  -0.0176863   0.0000000), wk =   0.1111111
        k(    6) = (   0.0306335   0.0176863   0.0000000), wk =   0.1111111
        k(    7) = (   0.0306335   0.0530588   0.0000000), wk =   0.1111111
        k(    8) = (   0.0306335  -0.1238039   0.0000000), wk =   0.1111111
        k(    9) = (   0.0306335  -0.0884313   0.0000000), wk =   0.1111111
        k(   10) = (   0.0306335  -0.0530588   0.0000000), wk =   0.1111111
        k(   11) = (   0.0612670  -0.0353725   0.0000000), wk =   0.1111111
        k(   12) = (   0.0612670   0.0000000   0.0000000), wk =   0.1111111
        k(   13) = (   0.0612670   0.0353725   0.0000000), wk =   0.1111111
        k(   14) = (   0.0612670  -0.1414901   0.0000000), wk =   0.1111111
        k(   15) = (   0.0612670  -0.1061176   0.0000000), wk =   0.1111111
        k(   16) = (   0.0612670  -0.0707451   0.0000000), wk =   0.1111111
        k(   17) = (  -0.0919005   0.0530588   0.0000000), wk =   0.0555556
        k(   18) = (  -0.0919005   0.0884313   0.0000000), wk =   0.1111111
        k(   19) = (  -0.0919005   0.1238039   0.0000000), wk =   0.1111111
        k(   20) = (  -0.0919005  -0.0530588   0.0000000), wk =   0.0555556

     Largest allocated arrays     est. size (Mb)     dimensions
     Largest temporary arrays     est. size (Mb)     dimensions

     Initial potential from superposition of free atoms
     Check: negative starting charge=   -1.495834

     starting charge  186.99955, renormalised to  193.00000

     negative rho (up, down):  1.544E+00 0.000E+00

     *
     * You are using vdW-DF for exchange-correlation in this calculation.
     * Please cite the following three references that made this development
     * possible:
     *
     *   M. Dion, H. Rydberg, E. Schroder, D. C. Langreth, and
     *   B. I. Lundqvist, Phys. Rev. Lett. 92, 246401 (2004).
     *
     *   T. Thonhauser, V. R. Cooper, S. Li, A. Puzder, P. Hyldgaard, and
     *   D. C. Langreth, Phys. Rev. B 76, 125112 (2007).
     *
     *   G. Roman-Perez and J. M. Soler, Phys. Rev. Lett. 103, 096102 (2009).
     *
     *
     * If you are using vdW-DF2, please also cite:
     *
     *   K. Lee, E. D. Murray, L. Kong, B. I. Lundqvist, and
     *   D. C. Langreth, Phys. Rev. B 82, 081101(R) (2010).
     *
     *
     * If you are calculating the stress with vdW-DF, please also cite:
     *
     *   R. Sabatini, E. Kucukbenli, B. Kolb, T. Thonhauser, and
     *   S. de Gironcoli, J. Phys.: Condens. Matter 24, 424209 (2012).
     *

     Carrying out vdW-DF run using the following parameters:

     Nqs =      20    Nr_points =    1024   r_max =   100.000
     q_mesh =
               0.00001000     0.04494208     0.09755937     0.15916263
               0.23128650     0.31572767     0.41458969     0.53033537
               0.66584808     0.82450364     1.01025438     1.22772762
               1.48234092     1.78043706     2.12944203     2.53805004
               3.01644009     3.57652955     4.23227104     5.00000000

     Gradients computed in reciprocal space

     Adding external electric field

     Computed dipole along edir(3) :
        Dipole               -0.2407 Ry au,         -0.6119 Debye
        Dipole field         -0.0007 Ry au

        Potential amp.        0.0644 Ry
        Total length         45.0345 bohr

     Starting wfc are  157 randomized atomic wfcs

     Self-consistent Calculation

     iteration #  1     ecut=    36.75 Ry     beta=0.30
     Davidson diagonalization with overlap
     ethr =  1.00E-02,  avg # of iterations =  2.0

[...]

     total energy              =   -2397.51900904 Ry
     Harris-Foulkes estimate   =   -2399.16045060 Ry
     estimated scf accuracy    <       3.77719929 Ry

[...]

     End of self-consistent calculation

          k = 0.0000 0.0000 0.0000 ( 15845 PWs)   bands (ev):

   -84.0682 -84.0172 -84.0171 -83.9146 -83.6130 -83.5635 -83.5634 -83.5591
   -83.5026 -83.5026 -83.4959 -83.4950 -43.7365 -43.7105 -43.7105 -43.5511
   -43.4393 -43.4393 -43.4049 -43.2137 -43.1820 -43.1820 -43.1430 -43.1078
   -43.1078 -43.0417 -43.0416 -43.0171 -42.9222 -42.9222 -42.8944 -42.8132
   -42.8131 -42.7679 -42.7192 -42.7192 -42.7023 -42.6907 -42.6416 -42.6415
   -42.6413 -42.5965 -42.5965 -42.5943 -42.4585 -42.4585 -42.4202 -42.4202
    -6.6688  -4.7392  -4.2550  -3.9097  -3.8863  -3.8863  -3.5808  -3.5538
    -3.5537  -3.0519  -2.9580  -2.9580  -2.7180  -2.6767  -2.6767  -1.4547
    -1.1265  -1.1265  -0.4579  -0.3337  -0.3337  -0.2104  -0.0710   0.1493
     0.1493   0.5040   0.6693   0.6693   0.6807   0.6941   0.6941   1.0001
     1.0001   1.0251   1.0251   1.1430   2.3450   2.5428   2.5429   2.7176
     2.7176   2.7274   2.9700   3.0120   3.0120   3.7282   3.7282   4.0298
     4.2132   4.2132   4.3490   4.4213   4.4213   4.6301   4.6416   4.6419
     4.8679   4.8679

[...]

          k =-0.0919 0.0531 0.0000 ( 15968 PWs)   bands (ev):

[...]

     the Fermi energy is     3.0410 ev

!    total energy              =   -2398.44758665 Ry
     Harris-Foulkes estimate   =   -2398.44758975 Ry
     estimated scf accuracy    <       0.00000906 Ry

     The total energy is the sum of the following terms:

     one-electron contribution =  -21520.26429573 Ry
     hartree contribution      =   10742.59967959 Ry
     xc contribution           =    -464.93903767 Ry
     ewald contribution        =    8844.22163284 Ry
     electric field correction =       0.00000335 Ry
     smearing contrib. (-TS)   =      -0.06556902 Ry

     convergence has been achieved in  13 iterations

 BEEF-vdW xc energy contributions
           1 :   -407.374167853262
           2 :    377.583537065968
           3 :   -324.928966896936
           4 :    260.827332627945
           5 :   -197.637318392078
           6 :    145.263870494758
           7 :   -108.923634930840
           8 :    88.6008637207447
           9 :   -80.1779316449328
          10 :    77.6357459210117
          11 :   -75.4238819390197
          12 :    70.1542401271222
          13 :   -61.1679546070906
          14 :    50.0062169042329
          15 :   -39.2109743523349
          16 :    31.0227131622543
          17 :   -26.4782673058042
[...]

[...]

     Program PWSCF v.5.1rc2 (svn rev. 11289) starts on 16Jan2018 at  9:53:34

[...]

     Total force =     0.093254     Total SCF correction =     0.006342

[...]

   This run was terminated on:   9:57:56  16Jan2018

[...]

     Program PWSCF v.5.1rc2 (svn rev. 11289) starts on 16Jan2018 at  9:58: 1

[...]

   This run was terminated on:  10: 2:14  16Jan2018

[...]

     Program PWSCF v.5.1rc2 (svn rev. 11289) starts on 16Jan2018 at 10: 2:19

[...]

   This run was terminated on:  10: 6:33  16Jan2018

[...]

     Program PWSCF v.5.1rc2 (svn rev. 11289) starts on 16Jan2018 at 10: 6:38

     Current dimensions of program PWSCF are:
     Max number of different atomic species (ntypx) = 10
     Max number of k-points (npk) =  40000
     Max angular momentum in pseudopotentials (lmaxx) =  3
     Presently stress not available with electric field

     IMPORTANT: XC functional enforced from input :
     Exchange-correlation      = BEEF-VDW ( 1  4 27 13 2)
     Any further DFT definition will be discarded
     Please, verify this is what you really want

     Subspace diagonalization in iterative solution of the eigenvalue problem:
     a serial algorithm will be used

     bravais-lattice index     =            0
     lattice parameter (alat)  =       1.8897  a.u.
     unit-cell volume          =    4228.3700 (a.u.)^3
     number of atoms/cell      =           13
     number of atomic types    =            2
     number of electrons       =       193.00
     number of Kohn-Sham states=          106
     kinetic-energy cutoff     =      36.7493  Ry
     charge density cutoff     =     367.4932  Ry
     convergence threshold     =      1.0E-05
     mixing beta               =       0.3000
     number of iterations used =           10  plain     mixing
     Exchange-correlation      = BEEF-VDW ( 1  4 27 13 2)
     nstep                     =           50

     celldm(1)=   1.889726  celldm(2)=   0.000000  celldm(3)=   0.000000
     celldm(4)=   0.000000  celldm(5)=   0.000000  celldm(6)=   0.000000

     crystal axes: (cart. coord. in units of alat)
               a(1) = (   5.440665   0.000000   0.000000 )
               a(2) = (   2.720332   4.711754   0.000000 )
               a(3) = (   0.000000   0.000000  24.442284 )

     reciprocal axes: (cart. coord. in units 2 pi/alat)
               b(1) = (  0.183801 -0.106118  0.000000 )
               b(2) = (  0.000000  0.212235  0.000000 )
               b(3) = (  0.000000  0.000000  0.040913 )

     PseudoPot. # 1 for Os read from file:
     /afs/slac.stanford.edu/u/if/mamunm/psp/gbrv1.5pbe/Os.UPF
     MD5 check sum: a3fb40a04f0c37c25c34bbc47164c9a8
     Pseudo is Ultrasoft + core correction, Zval = 16.0
     Generated by new atomic code, or converted to UPF format
     Using radial grid of  983 points,  8 beta functions with:
                l(1) =   0
                l(2) =   0
                l(3) =   1
                l(4) =   1
                l(5) =   2
                l(6) =   2
                l(7) =   3
                l(8) =   3
     Q(r) pseudized with  8 coefficients,  rinner =    1.150   1.150   1.150
                                                       1.150   1.150   1.150
                                                       1.150

     PseudoPot. # 2 for H  read from file:
     /afs/slac.stanford.edu/u/if/mamunm/psp/gbrv1.5pbe/H.UPF
     MD5 check sum: 761ae9a214b05c3daf00ab9f6b793d6f
     Pseudo is Ultrasoft, Zval =  1.0
     Generated by new atomic code, or converted to UPF format
     Using radial grid of  615 points,  2 beta functions with:
                l(1) =   0
                l(2) =   0
     Q(r) pseudized with  8 coefficients,  rinner =    0.700

     vdW kernel table read from file vdW_kernel_table
     MD5 check sum: 095c7af220d748ca6e76c0b4c6cfb241

     atomic species   valence    mass     pseudopotential
        Os1           16.00   190.23000     Os( 1.00)
        H1             1.00     1.00800     H ( 1.00)

     No symmetry found

   Cartesian axes

     site n.     atom                  positions (alat units)
         1           Os1 tau(   1) = (   1.3601662   0.7852923  10.0000000  )
         2           Os1 tau(   2) = (   4.0804987   0.7852923  10.0000000  )
         3           Os1 tau(   3) = (   2.7203325   3.1411694  10.0000000  )
         4           Os1 tau(   4) = (   5.4406649   3.1411694  10.0000000  )
         5           Os1 tau(   5) = (   5.4406649   1.5705847  12.2211422  )
         6           Os1 tau(   6) = (   2.7203325   1.5705847  12.2211422  )
         7           Os1 tau(   7) = (   6.8008312   3.9264617  12.2211422  )
         8           Os1 tau(   8) = (   4.0804987   3.9264617  12.2211422  )
         9           Os1 tau(   9) = (   8.1393603   4.6993017  14.3763597  )
        10           Os1 tau(  10) = (   5.4622982   4.6992861  14.3763714  )
        11           Os1 tau(  11) = (   6.8008186   2.3808201  14.3763417  )
        12           Os1 tau(  12) = (   4.0804603   2.3558213  14.3540918  )
        13           H1  tau(  13) = (   1.3601474   0.7853129  15.4551529  )

     number of k points=    20  Fermi-Dirac smearing, width (Ry)=  0.0110
                       cart. coord. in units 2pi/alat
        k(    1) = (   0.0000000   0.0000000   0.0000000), wk =   0.0555556
        k(    2) = (   0.0000000   0.0353725   0.0000000), wk =   0.1111111
        k(    3) = (   0.0000000   0.0707451   0.0000000), wk =   0.1111111
        k(    4) = (   0.0000000  -0.1061176   0.0000000), wk =   0.0555556
        k(    5) = (   0.0306335  -0.0176863   0.0000000), wk =   0.1111111
        k(    6) = (   0.0306335   0.0176863   0.0000000), wk =   0.1111111
        k(    7) = (   0.0306335   0.0530588   0.0000000), wk =   0.1111111
        k(    8) = (   0.0306335  -0.1238039   0.0000000), wk =   0.1111111
        k(    9) = (   0.0306335  -0.0884313   0.0000000), wk =   0.1111111
        k(   10) = (   0.0306335  -0.0530588   0.0000000), wk =   0.1111111
        k(   11) = (   0.0612670  -0.0353725   0.0000000), wk =   0.1111111
        k(   12) = (   0.0612670   0.0000000   0.0000000), wk =   0.1111111
        k(   13) = (   0.0612670   0.0353725   0.0000000), wk =   0.1111111
        k(   14) = (   0.0612670  -0.1414901   0.0000000), wk =   0.1111111
        k(   15) = (   0.0612670  -0.1061176   0.0000000), wk =   0.1111111
        k(   16) = (   0.0612670  -0.0707451   0.0000000), wk =   0.1111111
        k(   17) = (  -0.0919005   0.0530588   0.0000000), wk =   0.0555556
        k(   18) = (  -0.0919005   0.0884313   0.0000000), wk =   0.1111111
        k(   19) = (  -0.0919005   0.1238039   0.0000000), wk =   0.1111111
        k(   20) = (  -0.0919005  -0.0530588   0.0000000), wk =   0.0555556

     Largest allocated arrays     est. size (Mb)     dimensions
     Largest temporary arrays     est. size (Mb)     dimensions

     Initial potential from superposition of free atoms
     Check: negative starting charge=   -1.489599

     starting charge  186.99955, renormalised to  193.00000

[...]

     *
     * You are using vdW-DF for exchange-correlation in this calculation.
     * Please cite the following three references that made this development
     * possible:
     *
     *   M. Dion, H. Rydberg, E. Schroder, D. C. Langreth, and
     *   B. I. Lundqvist, Phys. Rev. Lett. 92, 246401 (2004).
     *
     *   T. Thonhauser, V. R. Cooper, S. Li, A. Puzder, P. Hyldgaard, and
     *   D. C. Langreth, Phys. Rev. B 76, 125112 (2007).
     *
     *   G. Roman-Perez and J. M. Soler, Phys. Rev. Lett. 103, 096102 (2009).
     *
     *
     * If you are using vdW-DF2, please also cite:
     *
     *   K. Lee, E. D. Murray, L. Kong, B. I. Lundqvist, and
     *   D. C. Langreth, Phys. Rev. B 82, 081101(R) (2010).
     *
     *
     * If you are calculating the stress with vdW-DF, please also cite:
     *
     *   R. Sabatini, E. Kucukbenli, B. Kolb, T. Thonhauser, and
     *   S. de Gironcoli, J. Phys.: Condens. Matter 24, 424209 (2012).
     *

     Carrying out vdW-DF run using the following parameters:

     Nqs =      20    Nr_points =    1024   r_max =   100.000
     q_mesh =
               0.00001000     0.04494208     0.09755937     0.15916263
               0.23128650     0.31572767     0.41458969     0.53033537
               0.66584808     0.82450364     1.01025438     1.22772762
               1.48234092     1.78043706     2.12944203     2.53805004
               3.01644009     3.57652955     4.23227104     5.00000000

     Gradients computed in reciprocal space

[...]

     Starting wfc are  157 randomized atomic wfcs

     Self-consistent Calculation

[...]

     total energy              =   -2398.51514290 Ry
     Harris-Foulkes estimate   =   -2398.51514401 Ry
     estimated scf accuracy    <       0.00001171 Ry

     iteration # 14     ecut=    36.75 Ry     beta=0.30
     Davidson diagonalization with overlap
     ethr =  6.07E-09,  avg # of iterations =  2.2

[...]

     negative rho (up, down):  1.509E+00 0.000E+00

     Adding external electric field

     Computed dipole along edir(3) :
        Dipole                0.0737 Ry au,          0.1873 Debye
        Dipole field          0.0002 Ry au

        Potential amp.       -0.0197 Ry
        Total length         45.0345 bohr

     End of self-consistent calculation

[...]

          k = 0.0613-0.0707 0.0000 ( 15922 PWs)   bands (ev):

[...]

          k =-0.0919-0.0531 0.0000 ( 15968 PWs)   bands (ev):

   -83.9988 -83.9873 -83.9674 -83.9273 -83.5679 -83.5542 -83.5366 -83.4956
   -83.4480 -83.4456 -83.4186 -83.4158 -43.5708 -43.5517 -43.4574 -43.4521
   -43.3903 -43.3759 -43.3368 -43.3263 -43.2787 -43.2628 -43.0652 -43.0106
   -43.0007 -42.9907 -42.9070 -42.8894 -42.8880 -42.8346 -42.8133 -42.7720
   -42.7593 -42.7429 -42.7243 -42.7238 -42.7075 -42.7041 -42.6560 -42.6538
   -42.6324 -42.6293 -42.6164 -42.6098 -42.5773 -42.5132 -42.4295 -42.4270
    -4.9791  -4.7133  -4.0705  -3.1377  -2.8135  -2.7785  -2.7721  -2.6607
    -2.6560  -2.6226  -2.2972  -2.0157  -2.0118  -1.6173  -1.4972  -1.4610
    -1.4252  -1.0982  -1.0720  -1.0483  -0.9760  -0.5276  -0.5100  -0.0081
     0.0789   0.2811   0.3000   0.3728   0.4069   0.4549   0.5265   0.6436
     0.7435   0.7761   0.8528   0.9097   0.9568   0.9981   1.0194   1.0623
     1.9315   1.9523   2.0232   2.1092   2.3016   2.3315   2.5891   2.6312
     2.8880   3.0067   3.0117   3.1779   3.1892   3.2663   3.4780   3.5578
     3.8189   3.8522

     the Fermi energy is     3.1012 ev

!    total energy              =   -2398.51514042 Ry
     Harris-Foulkes estimate   =   -2398.51513836 Ry
     estimated scf accuracy    <       0.00000367 Ry

     The total energy is the sum of the following terms:

     one-electron contribution =  -21788.37854189 Ry
     hartree contribution      =   10876.73617801 Ry
     xc contribution           =    -465.30600548 Ry
     ewald contribution        =    8978.49571452 Ry
     electric field correction =       0.00001614 Ry
     smearing contrib. (-TS)   =      -0.06250172 Ry

     convergence has been achieved in  14 iterations

 BEEF-vdW xc energy contributions
           1 :   -407.743719256809
           2 :    378.066101452973
           3 :   -325.560008429104
           4 :    261.541242968567
           5 :   -198.298195040595
           6 :    145.729189849599
           7 :   -109.113120618479
           8 :    88.5373388311857
           9 :   -79.9787447308810
          10 :    77.4591556409137
          11 :   -75.3982420779207
          12 :    70.3237814000381
          13 :   -61.4797804987041
          14 :    50.3420107620740
          15 :   -39.4455798134679
          16 :    31.0814137415672
          17 :   -26.3671335410242
          18 :    24.9655365025652
          19 :   -25.4440548354560
          20 :    26.0195907957731
          21 :   -25.3273919671154
          22 :    22.8952011216556
          23 :   -19.1768361944907
          24 :    15.1958127405891
          25 :   -12.0058297830951
          26 :    10.2182560508622
          27 :   -9.79096692959132
          28 :    10.1330270759880
          29 :   -10.4403741316544
          30 :    10.0848468149889
          31 :   -38.6230699296631
          32 :   -29.5254502807230

     Forces acting on atoms (Ry/au):

     negative rho (up, down):  1.509E+00 0.000E+00
     atom    1 type  1   force =    -0.00002810   -0.00002385    0.02837263
     atom    2 type  1   force =     0.00001847    0.00152733    0.02862908
     atom    3 type  1   force =     0.00136475   -0.00075361    0.02867484
     atom    4 type  1   force =    -0.00134632   -0.00076337    0.02866322
     atom    5 type  1   force =     0.00034822   -0.00019703   -0.02519606
     atom    6 type  1   force =    -0.00035015   -0.00017897   -0.02522306
     atom    7 type  1   force =     0.00001913   -0.00001952   -0.03657721
     atom    8 type  1   force =    -0.00001828    0.00038967   -0.02522530
     atom    9 type  1   force =    -0.00054836   -0.00033085   -0.00056262
     atom   10 type  1   force =     0.00053502   -0.00034604   -0.00055900
     atom   11 type  1   force =    -0.00002062    0.00065822   -0.00053738
     atom   12 type  1   force =     0.00002989    0.00003629   -0.00101945
     atom   13 type  2   force =    -0.00000366    0.00000173    0.00056031

     Total force =     0.080777     Total SCF correction =     0.016204
     SCF correction compared to forces is large: reduce conv_thr to get better values

     entering subroutine stress ...

     negative rho (up, down):  1.509E+00 0.000E+00
          total   stress  (Ry/bohr**3)                   (kbar)     P=  -22.59
  -0.00016407   0.00000002   0.00000001        -24.14      0.00      0.00
   0.00000002  -0.00016406  -0.00000000          0.00    -24.13     -0.00
   0.00000001  -0.00000000  -0.00013257          0.00     -0.00    -19.50

 !ASE

     Writing output data file calc.save

     General routines

     Parallel routines

   This run was terminated on:  10:11: 5  16Jan2018

   JOB DONE.
Job  /afs/slac/g/suncat/bin/suncat-tsmpirun -x LD_LIBRARY_PATH -wdir /scratch/qe842464_E2CXZ pw.x -in pw.inp

TID   HOST_NAME   COMMAND_LINE            STATUS            TERMINATION_TIME
00000 suncat2041 pw.x -in pw.inp   Done                     01/16/2018 10:11:05
00001 suncat2041 pw.x -in pw.inp   Done                     01/16/2018 10:11:05
00002 suncat2041 pw.x -in pw.inp   Done                     01/16/2018 10:11:05
00003 suncat2041 pw.x -in pw.inp   Done                     01/16/2018 10:11:05
00004 suncat2041 pw.x -in pw.inp   Done                     01/16/2018 10:11:05
00005 suncat2041 pw.x -in pw.inp   Done                     01/16/2018 10:11:05
00006 suncat2041 pw.x -in pw.inp   Done                     01/16/2018 10:11:05
00007 suncat2041 pw.x -in pw.inp   Done                     01/16/2018 10:11:05
00008 suncat2041 pw.x -in pw.inp   Done                     01/16/2018 10:11:05
00009 suncat2041 pw.x -in pw.inp   Done                     01/16/2018 10:11:05
00010 suncat2041 pw.x -in pw.inp   Done                     01/16/2018 10:11:05
00011 suncat2041 pw.x -in pw.inp   Done                     01/16/2018 10:11:05
00012 suncat2041 pw.x -in pw.inp   Done                     01/16/2018 10:11:05
00013 suncat2041 pw.x -in pw.inp   Done                     01/16/2018 10:11:05
00014 suncat2041 pw.x -in pw.inp   Done                     01/16/2018 10:11:05
00015 suncat2041 pw.x -in pw.inp   Done                     01/16/2018 10:11:05
00016 suncat2040 pw.x -in pw.inp   Done                     01/16/2018 10:11:05
00017 suncat2040 pw.x -in pw.inp   Done                     01/16/2018 10:11:05
00018 suncat2040 pw.x -in pw.inp   Done                     01/16/2018 10:11:05
00019 suncat2040 pw.x -in pw.inp   Done                     01/16/2018 10:11:05
00020 suncat2040 pw.x -in pw.inp   Done                     01/16/2018 10:11:05
00021 suncat2040 pw.x -in pw.inp   Done                     01/16/2018 10:11:05
00022 suncat2040 pw.x -in pw.inp   Done                     01/16/2018 10:11:05
00023 suncat2040 pw.x -in pw.inp   Done                     01/16/2018 10:11:05
00024 suncat2040 pw.x -in pw.inp   Done                     01/16/2018 10:11:05
00025 suncat2040 pw.x -in pw.inp   Done                     01/16/2018 10:11:05
00026 suncat2040 pw.x -in pw.inp   Done                     01/16/2018 10:11:05
00027 suncat2040 pw.x -in pw.inp   Done                     01/16/2018 10:11:05
00028 suncat2040 pw.x -in pw.inp   Done                     01/16/2018 10:11:05
00029 suncat2040 pw.x -in pw.inp   Done                     01/16/2018 10:11:05
00030 suncat2040 pw.x -in pw.inp   Done                     01/16/2018 10:11:05
00031 suncat2040 pw.x -in pw.inp   Done                     01/16/2018 10:11:05