     Program PWSCF v.5.1rc2 (svn rev. 11289) starts on  2May2018 at 17:24:16

     Current dimensions of program PWSCF are:
     Max number of different atomic species (ntypx) = 10
     Max number of k-points (npk) =  40000
     Max angular momentum in pseudopotentials (lmaxx) =  3
     Presently stress not available with electric field

     IMPORTANT: XC functional enforced from input :
     Exchange-correlation      = BEEF-VDW ( 1  4 27 13 2)
     Any further DFT definition will be discarded
     Please, verify this is what you really want

     Subspace diagonalization in iterative solution of the eigenvalue problem:
     a serial algorithm will be used

     bravais-lattice index     =            0
     lattice parameter (alat)  =       1.8897  a.u.
     unit-cell volume          =    4158.3597 (a.u.)^3
     number of atoms/cell      =           13
     number of atomic types    =            2
     number of electrons       =       160.00
     number of Kohn-Sham states=           90
     kinetic-energy cutoff     =      36.7493  Ry
     charge density cutoff     =     367.4932  Ry
     convergence threshold     =      1.0E-05
     mixing beta               =       0.3000
     number of iterations used =           10  plain     mixing
     Exchange-correlation      = BEEF-VDW ( 1  4 27 13 2)
     nstep                     =           50

     celldm(1)=   1.889726  celldm(2)=   0.000000  celldm(3)=   0.000000
     celldm(4)=   0.000000  celldm(5)=   0.000000  celldm(6)=   0.000000

     crystal axes: (cart. coord. in units of alat)
               a(1) = (   5.399178   0.000000   0.000000 )
               a(2) = (   2.699589   4.675825   0.000000 )
               a(3) = (   0.000000   0.000000  24.408411 )

     reciprocal axes: (cart. coord. in units 2 pi/alat)
               b(1) = (  0.185213 -0.106933  0.000000 )
               b(2) = (  0.000000  0.213866  0.000000 )
               b(3) = (  0.000000  0.000000  0.040969 )

     PseudoPot. # 1 for V  read from file:
     /u/if/mamunm/psp/gbrv1.5pbe/V.UPF
     MD5 check sum: 22b79981416ebb76fdaf5b1b8640f6fb
     Pseudo is Ultrasoft + core correction, Zval = 13.0
     Generated by new atomic code, or converted to UPF format
     Using radial grid of  853 points,  6 beta functions with:
                l(1) =   0
                l(2) =   0
                l(3) =   1
                l(4) =   1
                l(5) =   2
                l(6) =   2
     Q(r) pseudized with  8 coefficients,  rinner =    1.100   1.100   1.100
                                                       1.100   1.100

     PseudoPot. # 2 for C  read from file:
     /u/if/mamunm/psp/gbrv1.5pbe/C.UPF
     MD5 check sum: d1aef80898a10debaa0f26306b886e00
     Pseudo is Ultrasoft + core correction, Zval =  4.0
     Generated by new atomic code, or converted to UPF format
     Using radial grid of  721 points,  4 beta functions with:
                l(1) =   0
                l(2) =   0
                l(3) =   1
                l(4) =   1
     Q(r) pseudized with  8 coefficients,  rinner =    1.100   1.100   1.100

     vdW kernel table read from file vdW_kernel_table
     MD5 check sum: 095c7af220d748ca6e76c0b4c6cfb241

     atomic species   valence    mass     pseudopotential
        V1            13.00    50.94150     V ( 1.00)
        C1             4.00    12.01100     C ( 1.00)

     No symmetry found

   Cartesian axes

     site n.     atom                  positions (alat units)
         1           V1  tau(   1) = (   1.3497945   0.7793042  10.0000000  )
         2           V1  tau(   2) = (   4.0493836   0.7793042  10.0000000  )
         3           V1  tau(   3) = (   2.6995891   3.1172170  10.0000000  )
         4           V1  tau(   4) = (   5.3991782   3.1172170  10.0000000  )
         5           V1  tau(   5) = (   5.3991782   1.5586085  12.2042053  )
         6           V1  tau(   6) = (   2.6995891   1.5586085  12.2042053  )
         7           V1  tau(   7) = (   6.7489727   3.8965212  12.2042053  )
         8           V1  tau(   8) = (   4.0493836   3.8965212  12.2042053  )
         9           V1  tau(   9) = (   0.0000000   0.0000000  14.4084105  )
        10           V1  tau(  10) = (   2.6995891   0.0000000  14.4084105  )
        11           V1  tau(  11) = (   1.3497945   2.3379127  14.4084105  )
        12           V1  tau(  12) = (   4.0493836   2.3379127  14.4084105  )
        13           C1  tau(  13) = (   0.0000000   0.0000000  16.3549105  )

     number of k points=    20  Fermi-Dirac smearing, width (Ry)=  0.0110
                       cart. coord. in units 2pi/alat
        k(    1) = (   0.0000000   0.0000000   0.0000000), wk =   0.0555556
        k(    2) = (   0.0000000   0.0356443   0.0000000), wk =   0.1111111
        k(    3) = (   0.0000000   0.0712887   0.0000000), wk =   0.1111111
        k(    4) = (   0.0000000  -0.1069330   0.0000000), wk =   0.0555556
        k(    5) = (   0.0308689  -0.0178222   0.0000000), wk =   0.1111111
        k(    6) = (   0.0308689   0.0178222   0.0000000), wk =   0.1111111
        k(    7) = (   0.0308689   0.0534665   0.0000000), wk =   0.1111111
        k(    8) = (   0.0308689  -0.1247552   0.0000000), wk =   0.1111111
        k(    9) = (   0.0308689  -0.0891108   0.0000000), wk =   0.1111111
        k(   10) = (   0.0308689  -0.0534665   0.0000000), wk =   0.1111111
        k(   11) = (   0.0617378  -0.0356443   0.0000000), wk =   0.1111111
        k(   12) = (   0.0617378   0.0000000   0.0000000), wk =   0.1111111
        k(   13) = (   0.0617378   0.0356443   0.0000000), wk =   0.1111111
        k(   14) = (   0.0617378  -0.1425773   0.0000000), wk =   0.1111111
        k(   15) = (   0.0617378  -0.1069330   0.0000000), wk =   0.1111111
        k(   16) = (   0.0617378  -0.0712887   0.0000000), wk =   0.1111111
        k(   17) = (  -0.0926067   0.0534665   0.0000000), wk =   0.0555556
        k(   18) = (  -0.0926067   0.0891108   0.0000000), wk =   0.1111111
        k(   19) = (  -0.0926067   0.1247552   0.0000000), wk =   0.1111111
        k(   20) = (  -0.0926067  -0.0534665   0.0000000), wk =   0.0555556

     Largest allocated arrays     est. size (Mb)     dimensions
     Largest temporary arrays     est. size (Mb)     dimensions

     Check: negative/imaginary core charge=   -0.000001    0.000000

     Initial potential from superposition of free atoms
     Check: negative starting charge=   -0.011580

     starting charge  159.98523, renormalised to  160.00000

     negative rho (up, down):  1.158E-02 0.000E+00

     *
     * You are using vdW-DF for exchange-correlation in this calculation.
     * Please cite the following three references that made this development
     * possible:
     *
     *   M. Dion, H. Rydberg, E. Schroder, D. C. Langreth, and
     *   B. I. Lundqvist, Phys. Rev. Lett. 92, 246401 (2004).
     *
     *   T. Thonhauser, V. R. Cooper, S. Li, A. Puzder, P. Hyldgaard, and
     *   D. C. Langreth, Phys. Rev. B 76, 125112 (2007).
     *
     *   G. Roman-Perez and J. M. Soler, Phys. Rev. Lett. 103, 096102 (2009).
     *
     *
     * If you are using vdW-DF2, please also cite:
     *
     *   K. Lee, E. D. Murray, L. Kong, B. I. Lundqvist, and
     *   D. C. Langreth, Phys. Rev. B 82, 081101(R) (2010).
     *
     *
     * If you are calculating the stress with vdW-DF, please also cite:
     *
     *   R. Sabatini, E. Kucukbenli, B. Kolb, T. Thonhauser, and
     *   S. de Gironcoli, J. Phys.: Condens. Matter 24, 424209 (2012).
     *

     Carrying out vdW-DF run using the following parameters:

     Nqs =      20    Nr_points =    1024   r_max =   100.000
     q_mesh =
               0.00001000     0.04494208     0.09755937     0.15916263
               0.23128650     0.31572767     0.41458969     0.53033537
               0.66584808     0.82450364     1.01025438     1.22772762
               1.48234092     1.78043706     2.12944203     2.53805004
               3.01644009     3.57652955     4.23227104     5.00000000

     Gradients computed in reciprocal space

     Adding external electric field

     Computed dipole along edir(3) :
        Dipole               -0.0026 Ry au,         -0.0066 Debye
        Dipole field         -0.0000 Ry au

        Potential amp.        0.0007 Ry
        Total length         44.9721 bohr

     Starting wfc are  124 randomized atomic wfcs

     Self-consistent Calculation

     iteration #  1     ecut=    36.75 Ry     beta=0.30
     Davidson diagonalization with overlap
     ethr =  1.00E-02,  avg # of iterations =  2.2

[...]

     total energy              =   -1754.12626231 Ry
     Harris-Foulkes estimate   =   -1760.88982675 Ry
     estimated scf accuracy    <      13.82666307 Ry

[...]

     End of self-consistent calculation

          k = 0.0000 0.0000 0.0000 ( 15569 PWs)   bands (ev):

   -63.7572 -63.6920 -63.6506 -63.6503 -63.6177 -63.6010 -63.5862 -63.5851
   -63.5356 -63.5318 -63.5310 -63.2448 -37.8301 -37.8297 -37.8214 -37.8016
   -37.7541 -37.7534 -37.7532 -37.6898 -37.6842 -37.6840 -37.5642 -37.5265
   -37.5263 -37.4105 -37.4093 -37.4087 -37.3629 -37.3235 -37.3230 -37.3189
   -37.2822 -37.2815 -37.2754 -37.2583 -37.2080 -37.2078 -37.1841 -37.1806
   -37.1802 -37.1516 -37.1515 -37.0643 -37.0643 -36.9945 -36.9945 -36.9499
    -7.7198  -5.4413  -3.8235  -2.8173  -2.5049  -2.5047  -2.4782  -2.2347
    -2.2176  -2.2175  -1.7406  -1.7389  -1.7388  -1.7183  -1.7094  -1.7094
    -1.0605  -1.0605  -0.8661  -0.1610  -0.0648  -0.0647   0.1050   0.2626
     0.4333   0.5570   0.5572   0.6687   0.7200   0.7201   0.8568   0.8570
     0.8952   0.8953   0.9444   1.0212   1.0214   1.0270   1.0270   1.3398
     1.5216   1.8612

[...]

          k =-0.0926 0.0535 0.0000 ( 15660 PWs)   bands (ev):

[...]

     the Fermi energy is     0.5712 ev

!    total energy              =   -1760.19182210 Ry
     Harris-Foulkes estimate   =   -1760.19184365 Ry
     estimated scf accuracy    <       0.00000478 Ry

     The total energy is the sum of the following terms:

     one-electron contribution =  -15112.34199023 Ry
     hartree contribution      =    7542.63016527 Ry
     xc contribution           =    -247.55497767 Ry
     ewald contribution        =    6057.22266162 Ry
     electric field correction =       0.00039597 Ry
     smearing contrib. (-TS)   =      -0.14807707 Ry

     convergence has been achieved in  29 iterations

 BEEF-vdW xc energy contributions
           1 :   -213.250596025173
           2 :    191.330121853080
           3 :   -155.174145210081
           4 :    116.190356587986
           5 :   -84.2594245108418
           6 :    64.0314064510645
           7 :   -54.3381354072098
           8 :    50.4134182329380
           9 :   -47.2473315297983
          10 :    42.1296487811148
          11 :   -35.2848677511211
          12 :    28.7279493365516
          13 :   -24.3958957857062
          14 :    22.7834162186243
          15 :   -22.8010946894404
          16 :    22.7069920713810
          17 :   -21.3327571677914
          18 :    18.7540977860244
          19 :   -16.0357194948791
          20 :    14.3366525442192
          21 :   -14.0664816686184
          22 :    14.6637341707811
          23 :   -15.0762338374890
          24 :    14.5297884376330
          25 :   -13.0272725383635
          26 :    11.2660265410638
          27 :   -10.0909220250619
          28 :    9.89786282006708
          29 :   -10.3984439938222
          30 :    10.8740419709334
          31 :   -22.1738543830676
          32 :   -15.9939013053694

     Forces acting on atoms (Ry/au):

     negative rho (up, down):  1.537E-02 0.000E+00
     atom    1 type  1   force =     0.00023365    0.00011063   -0.00157757
     atom    2 type  1   force =    -0.00023265    0.00010900   -0.00156751
     atom    3 type  1   force =     0.00000465   -0.00024559   -0.00154580
     atom    4 type  1   force =     0.00000029    0.00002022   -0.00131592
     atom    5 type  1   force =    -0.00003961    0.00926965   -0.00485423
     atom    6 type  1   force =     0.00002984    0.00001458    0.01064801
     atom    7 type  1   force =    -0.00801940   -0.00462841   -0.00490538
     atom    8 type  1   force =     0.00801725   -0.00466155   -0.00484282
     atom    9 type  1   force =     0.00000219   -0.00001353    0.08369046
     atom   10 type  1   force =     0.00000194    0.00147101    0.01722733
     atom   11 type  1   force =     0.00129661   -0.00072127    0.01722770
     atom   12 type  1   force =    -0.00129441   -0.00072417    0.01730770
     atom   13 type  2   force =    -0.00000036   -0.00000057   -0.12549197

     Total force =     0.153792     Total SCF correction =     0.005500

     entering subroutine stress ...

     negative rho (up, down):  1.537E-02 0.000E+00
          total   stress  (Ry/bohr**3)                   (kbar)     P=  -22.51
  -0.00018177   0.00000003  -0.00000000        -26.74      0.00     -0.00
   0.00000003  -0.00018178   0.00000001          0.00    -26.74      0.00
  -0.00000000   0.00000001  -0.00009552         -0.00      0.00    -14.05

     BFGS Geometry Optimization

     number of scf cycles    =   1
     number of bfgs steps    =   0

     energy   new            =   -1760.1918221046 Ry

     new trust radius        =       0.1254919734 bohr
     new conv_thr            =       0.0000099958 Ry

ATOMIC_POSITIONS (crystal)
V1       0.166666667   0.166666667   0.409694847    0   0   0
V1       0.666666667   0.166666667   0.409694847    0   0   0
V1       0.166666667   0.666666667   0.409694847    0   0   0
V1       0.666666667   0.666666667   0.409694847    0   0   0
V1       0.833333333   0.333333333   0.500000000    0   0   0
V1       0.333333333   0.333333333   0.500000000    0   0   0
V1       0.833333333   0.833333333   0.500000000    0   0   0
V1       0.333333333   0.833333333   0.500000000    0   0   0
V1       0.000000981  -0.000001532   0.592119572
V1       0.499916951   0.000166479   0.590678644
V1       0.000167895   0.499918372   0.590678652
V1       0.499914112   0.499918043   0.590680386
C1      -0.000000003  -0.000000064   0.667331575

     Writing output data file calc.save
     Check: negative starting charge=   -0.011580
     NEW-OLD atomic charge density approx. for the potential

     Check: negative/imaginary core charge=   -0.000001    0.000000
     Check: negative starting charge=   -0.011599

[...]

     energy   old            =   -1760.1918221046 Ry
     energy   new            =   -1760.2113335935 Ry

     CASE: energy  _new < energy  _old

[...]

     WARNING: bfgs curvature condition failed, Theta= 0.869
     new trust radius        =       0.0448652657 bohr
     new conv_thr            =       0.0000001000 Ry

[...]

     iteration #  1     ecut=    36.75 Ry     beta=0.30
     Davidson diagonalization with overlap
     c_bands:  1 eigenvalues not converged
     ethr =  1.00E-06,  avg # of iterations = 14.2

[...]

     iteration #  1     ecut=    36.75 Ry     beta=0.30
     Davidson diagonalization with overlap
     c_bands:  1 eigenvalues not converged
     ethr =  1.00E-06,  avg # of iterations = 14.8

[...]

     Total force =     0.004812     Total SCF correction =     0.000291

[...]

     number of scf cycles    =   9
     number of bfgs steps    =   8

     energy   old            =   -1760.2375575080 Ry
     energy   new            =   -1760.2381445235 Ry

     CASE: energy  _new < energy  _old

     new trust radius        =       0.0060547675 bohr
     new conv_thr            =       0.0000001000 Ry

ATOMIC_POSITIONS (crystal)
V1       0.166666667   0.166666667   0.409694847    0   0   0
V1       0.666666667   0.166666667   0.409694847    0   0   0
V1       0.166666667   0.666666667   0.409694847    0   0   0
V1       0.666666667   0.666666667   0.409694847    0   0   0
V1       0.833333333   0.333333333   0.500000000    0   0   0
V1       0.333333333   0.333333333   0.500000000    0   0   0
V1       0.833333333   0.833333333   0.500000000    0   0   0
V1       0.333333333   0.833333333   0.500000000    0   0   0
V1      -0.000001768   0.000003320   0.583123008
V1       0.498844912   0.002309188   0.595522032
V1       0.002311249   0.498846363   0.595522844
V1       0.498844083   0.498848549   0.595527038
C1       0.000001622  -0.000003948   0.653843137

     Writing output data file calc.save
     Check: negative starting charge=   -0.011650
     NEW-OLD atomic charge density approx. for the potential

     Check: negative/imaginary core charge=   -0.000001    0.000000
     Check: negative starting charge=   -0.011695

[...]

     Self-consistent Calculation

[...]

     Threshold (ethr) on eigenvalues was too large:
     Diagonalizing with lowered threshold

     Davidson diagonalization with overlap
     ethr =  7.65E-08,  avg # of iterations =  3.5

[...]

     total energy              =   -1760.23816930 Ry
     Harris-Foulkes estimate   =   -1760.23816920 Ry
     estimated scf accuracy    <       0.00000309 Ry

     iteration # 16     ecut=    36.75 Ry     beta=0.30
     Davidson diagonalization with overlap
     ethr =  8.62E-11,  avg # of iterations =  5.0

[...]

     negative rho (up, down):  1.565E-02 0.000E+00

     Adding external electric field

     Computed dipole along edir(3) :
        Dipole               -0.1894 Ry au,         -0.4814 Debye
        Dipole field         -0.0006 Ry au

        Potential amp.        0.0515 Ry
        Total length         44.9721 bohr

     End of self-consistent calculation

[...]

          k = 0.0617-0.0713 0.0000 ( 15642 PWs)   bands (ev):

[...]

          k =-0.0926-0.0535 0.0000 ( 15660 PWs)   bands (ev):

   -63.5038 -63.4773 -63.4485 -63.4127 -63.3812 -63.3387 -63.3159 -63.3107
   -63.3102 -63.2715 -63.2677 -62.8751 -37.4773 -37.4580 -37.4515 -37.4465
   -37.4428 -37.4115 -37.3563 -37.3514 -37.3435 -37.3379 -37.3142 -37.2714
   -37.2667 -37.2644 -37.2022 -37.1864 -37.1800 -37.1492 -37.1109 -37.1045
   -37.0955 -37.0900 -37.0748 -37.0724 -37.0242 -37.0056 -37.0014 -36.9988
   -36.9877 -36.9635 -36.9484 -36.8636 -36.8626 -36.7123 -36.6931 -36.6591
    -7.7735  -3.5166  -3.4453  -2.4572  -2.1276  -1.7185  -1.6516  -1.5559
    -1.4687  -1.4391  -1.3326  -1.3001  -1.0158  -0.8534  -0.7078  -0.6308
    -0.5504  -0.4888  -0.4163  -0.2698  -0.0672  -0.0546  -0.0501   0.0036
     0.1117   0.2792   0.3305   0.3740   0.4276   0.4436   0.6135   0.6521
     0.7388   0.8091   0.9053   0.9618   0.9716   1.1105   1.1186   1.4781
     1.4830   1.6159

     the Fermi energy is     0.8377 ev

!    total energy              =   -1760.23816928 Ry
     Harris-Foulkes estimate   =   -1760.23816903 Ry
     estimated scf accuracy    <       0.00000005 Ry

     The total energy is the sum of the following terms:

     one-electron contribution =  -15091.42645579 Ry
     hartree contribution      =    7533.44611519 Ry
     xc contribution           =    -247.72743599 Ry
     ewald contribution        =    6045.61326812 Ry
     electric field correction =       0.00010841 Ry
     smearing contrib. (-TS)   =      -0.14376921 Ry

     convergence has been achieved in  16 iterations

 BEEF-vdW xc energy contributions
           1 :   -213.413549220858
           2 :    191.503662415582
           3 :   -155.357358409755
           4 :    116.377624696439
           5 :   -84.4346521940940
           6 :    64.1532774499187
           7 :   -54.3547705877681
           8 :    50.3049872383668
           9 :   -47.0552845203976
          10 :    41.9394879037220
          11 :   -35.1729956037412
          12 :    28.7147201352007
          13 :   -24.4408195139050
          14 :    22.8185254522498
          15 :   -22.7705974803283
          16 :    22.5918567831377
          17 :   -21.1548976229821
          18 :    18.5600822307844
          19 :   -15.8680272462917
          20 :    14.2088134078863
          21 :   -13.9587210716512
          22 :    14.5423287015266
          23 :   -14.9224956973677
          24 :    14.3565546849070
          25 :   -12.8703248454246
          26 :    11.1578349917001
          27 :   -10.0386792941051
          28 :    9.88177312954275
          29 :   -10.3883055335220
          30 :    10.8489894350774
          31 :   -22.1835792245931
          32 :   -16.0063177568062

     Forces acting on atoms (Ry/au):

     negative rho (up, down):  1.565E-02 0.000E+00
     atom    1 type  1   force =     0.00127924    0.00073779   -0.00393016
     atom    2 type  1   force =    -0.00127932    0.00073948   -0.00392728
     atom    3 type  1   force =     0.00000100   -0.00147772   -0.00392994
     atom    4 type  1   force =    -0.00000096   -0.00000106   -0.00313213
     atom    5 type  1   force =    -0.00000387    0.03311806   -0.00568457
     atom    6 type  1   force =     0.00000434    0.00000364    0.03920653
     atom    7 type  1   force =    -0.02867765   -0.01655944   -0.00569718
     atom    8 type  1   force =     0.02867659   -0.01656382   -0.00569016
     atom    9 type  1   force =     0.00000054    0.00000298   -0.00075943
     atom   10 type  1   force =    -0.00000026   -0.00154628   -0.00169305
     atom   11 type  1   force =    -0.00134137    0.00077482   -0.00169061
     atom   12 type  1   force =     0.00134185    0.00077584   -0.00170091
     atom   13 type  2   force =    -0.00000013   -0.00000429   -0.00137110

     Total force =     0.004274     Total SCF correction =     0.000597
     SCF correction compared to forces is large: reduce conv_thr to get better values

     entering subroutine stress ...

     negative rho (up, down):  1.565E-02 0.000E+00
          total   stress  (Ry/bohr**3)                   (kbar)     P=  -21.53
  -0.00021911   0.00000000   0.00000000        -32.23      0.00      0.00
   0.00000000  -0.00021912   0.00000000          0.00    -32.23      0.00
   0.00000000   0.00000000  -0.00000077          0.00      0.00     -0.11

     bfgs converged in  10 scf cycles and   9 bfgs steps
     (criteria: energy <  1.0E+00, force <  1.9E-03)

     End of BFGS Geometry Optimization

     Final energy   =   -1760.2381692778 Ry
Begin final coordinates

ATOMIC_POSITIONS (crystal)
V1       0.166666667   0.166666667   0.409694847    0   0   0
V1       0.666666667   0.166666667   0.409694847    0   0   0
V1       0.166666667   0.666666667   0.409694847    0   0   0
V1       0.666666667   0.666666667   0.409694847    0   0   0
V1       0.833333333   0.333333333   0.500000000    0   0   0
V1       0.333333333   0.333333333   0.500000000    0   0   0
V1       0.833333333   0.833333333   0.500000000    0   0   0
V1       0.333333333   0.833333333   0.500000000    0   0   0
V1      -0.000001768   0.000003320   0.583123008
V1       0.498844912   0.002309188   0.595522032
V1       0.002311249   0.498846363   0.595522844
V1       0.498844083   0.498848549   0.595527038
C1       0.000001622  -0.000003948   0.653843137
End final coordinates

     Writing output data file calc.save

     General routines

     Parallel routines

   This run was terminated on:  18:47:42   2May2018

   JOB DONE.
Job  /afs/slac/g/suncat/bin/suncat-tsmpirun -x LD_LIBRARY_PATH -wdir /scratch/qe810634_p579W pw.x -npool 4 -in pw.inp

TID   HOST_NAME   COMMAND_LINE            STATUS            TERMINATION_TIME
00000 suncat0026 pw.x -npool 4 -i  Done                     05/02/2018 18:47:42
00001 suncat0026 pw.x -npool 4 -i  Done                     05/02/2018 18:47:42
00002 suncat0026 pw.x -npool 4 -i  Done                     05/02/2018 18:47:42
00003 suncat0026 pw.x -npool 4 -i  Done                     05/02/2018 18:47:42
00004 suncat0026 pw.x -npool 4 -i  Done                     05/02/2018 18:47:42
00005 suncat0026 pw.x -npool 4 -i  Done                     05/02/2018 18:47:42
00006 suncat0026 pw.x -npool 4 -i  Done                     05/02/2018 18:47:42
00007 suncat0026 pw.x -npool 4 -i  Done                     05/02/2018 18:47:42
00008 suncat0015 pw.x -npool 4 -i  Done                     05/02/2018 18:47:42
00009 suncat0015 pw.x -npool 4 -i  Done                     05/02/2018 18:47:42
00010 suncat0015 pw.x -npool 4 -i  Done                     05/02/2018 18:47:42
00011 suncat0015 pw.x -npool 4 -i  Done                     05/02/2018 18:47:42
00012 suncat0015 pw.x -npool 4 -i  Done                     05/02/2018 18:47:42
00013 suncat0015 pw.x -npool 4 -i  Done                     05/02/2018 18:47:42
00014 suncat0015 pw.x -npool 4 -i  Done                     05/02/2018 18:47:42
00015 suncat0015 pw.x -npool 4 -i  Done                     05/02/2018 18:47:42
00016 suncat0259 pw.x -npool 4 -i  Done                     05/02/2018 18:47:42
00017 suncat0259 pw.x -npool 4 -i  Done                     05/02/2018 18:47:42
00018 suncat0259 pw.x -npool 4 -i  Done                     05/02/2018 18:47:42
00019 suncat0259 pw.x -npool 4 -i  Done                     05/02/2018 18:47:42
00020 suncat0259 pw.x -npool 4 -i  Done                     05/02/2018 18:47:42
00021 suncat0259 pw.x -npool 4 -i  Done                     05/02/2018 18:47:42
00022 suncat0259 pw.x -npool 4 -i  Done                     05/02/2018 18:47:42
00023 suncat0259 pw.x -npool 4 -i  Done                     05/02/2018 18:47:42
00024 suncat0258 pw.x -npool 4 -i  Done                     05/02/2018 18:47:42
00025 suncat0258 pw.x -npool 4 -i  Done                     05/02/2018 18:47:42
00026 suncat0258 pw.x -npool 4 -i  Done                     05/02/2018 18:47:42
00027 suncat0258 pw.x -npool 4 -i  Done                     05/02/2018 18:47:42
00028 suncat0258 pw.x -npool 4 -i  Done                     05/02/2018 18:47:42
00029 suncat0258 pw.x -npool 4 -i  Done                     05/02/2018 18:47:42
00030 suncat0258 pw.x -npool 4 -i  Done                     05/02/2018 18:47:42
00031 suncat0258 pw.x -npool 4 -i  Done                     05/02/2018 18:47:42