     Program PWSCF v.5.1rc2 (svn rev. 11289) starts on 22Apr2018 at 20:23:57

     Current dimensions of program PWSCF are:
     Max number of different atomic species (ntypx) = 10
     Max number of k-points (npk) =  40000
     Max angular momentum in pseudopotentials (lmaxx) =  3
     Presently stress not available with electric field

     IMPORTANT: XC functional enforced from input :
     Exchange-correlation      = BEEF-VDW ( 1  4 27 13 2)
     Any further DFT definition will be discarded
     Please, verify this is what you really want

     Subspace diagonalization in iterative solution of the eigenvalue problem:
     a serial algorithm will be used

     bravais-lattice index     =            0
     lattice parameter (alat)  =       1.8897  a.u.
     unit-cell volume          =    6116.8020 (a.u.)^3
     number of atoms/cell      =           14
     number of atomic types    =            3
     number of electrons       =       137.00
     number of Kohn-Sham states=           78
     kinetic-energy cutoff     =      36.7493  Ry
     charge density cutoff     =     367.4932  Ry
     convergence threshold     =      1.0E-05
     mixing beta               =       0.3000
     number of iterations used =           10  plain     mixing
     Exchange-correlation      = BEEF-VDW ( 1  4 27 13 2)
     nstep                     =           50

     celldm(1)=   1.889726  celldm(2)=   0.000000  celldm(3)=   0.000000
     celldm(4)=   0.000000  celldm(5)=   0.000000  celldm(6)=   0.000000

     crystal axes: (cart. coord. in units of alat)
               a(1) = (   6.437465   0.000000   0.000000 )
               a(2) = (   3.218732   5.575008   0.000000 )
               a(3) = (   0.000000   0.000000  25.256168 )

     reciprocal axes: (cart. coord. in units 2 pi/alat)
               b(1) = (  0.155341 -0.089686  0.000000 )
               b(2) = (  0.000000  0.179372  0.000000 )
               b(3) = (  0.000000  0.000000  0.039594 )

     PseudoPot. # 1 for Sc read from file:
     /u/if/mamunm/psp/gbrv1.5pbe/Sc.UPF
     MD5 check sum: db30a2753ba66ef00f23801d899b7e7f
     Pseudo is Ultrasoft + core correction, Zval = 11.0
     Generated by new atomic code, or converted to UPF format
     Using radial grid of  849 points,  6 beta functions with:
                l(1) =   0
                l(2) =   0
                l(3) =   1
                l(4) =   1
                l(5) =   2
                l(6) =   2
     Q(r) pseudized with  6 coefficients,  rinner =    1.200   1.200   1.200
                                                       1.200   1.200

     PseudoPot. # 2 for C  read from file:
     /u/if/mamunm/psp/gbrv1.5pbe/C.UPF
     MD5 check sum: d1aef80898a10debaa0f26306b886e00
     Pseudo is Ultrasoft + core correction, Zval =  4.0
     Generated by new atomic code, or converted to UPF format
     Using radial grid of  721 points,  4 beta functions with:
                l(1) =   0
                l(2) =   0
                l(3) =   1
                l(4) =   1
     Q(r) pseudized with  8 coefficients,  rinner =    1.100   1.100   1.100

     PseudoPot. # 3 for H  read from file:
     /u/if/mamunm/psp/gbrv1.5pbe/H.UPF
     MD5 check sum: 761ae9a214b05c3daf00ab9f6b793d6f
     Pseudo is Ultrasoft, Zval =  1.0
     Generated by new atomic code, or converted to UPF format
     Using radial grid of  615 points,  2 beta functions with:
                l(1) =   0
                l(2) =   0
     Q(r) pseudized with  8 coefficients,  rinner =    0.700

     vdW kernel table read from file vdW_kernel_table
     MD5 check sum: 095c7af220d748ca6e76c0b4c6cfb241

     atomic species   valence    mass     pseudopotential
        Sc1           11.00    44.95591     Sc( 1.00)
        C1             4.00    12.01100     C ( 1.00)
        H1             1.00     1.00800     H ( 1.00)

     No symmetry found

   Cartesian axes

     site n.     atom                  positions (alat units)
         1           Sc1 tau(   1) = (   1.6093662   0.9291680  10.0000000  )
         2           Sc1 tau(   2) = (   4.8280986   0.9291680  10.0000000  )
         3           Sc1 tau(   3) = (   3.2187324   3.7166720  10.0000000  )
         4           Sc1 tau(   4) = (   6.4374648   3.7166720  10.0000000  )
         5           Sc1 tau(   5) = (   6.4374648   1.8583360  12.6280840  )
         6           Sc1 tau(   6) = (   3.2187324   1.8583360  12.6280840  )
         7           Sc1 tau(   7) = (   8.0468310   4.6458400  12.6280840  )
         8           Sc1 tau(   8) = (   4.8280986   4.6458400  12.6280840  )
         9           Sc1 tau(   9) = (   0.0000000   0.0000000  15.2561680  )
        10           Sc1 tau(  10) = (   3.2187324   0.0000000  15.2561680  )
        11           Sc1 tau(  11) = (   1.6093662   2.7875040  15.2561680  )
        12           Sc1 tau(  12) = (   4.8280986   2.7875040  15.2561680  )
        13           C1  tau(  13) = (   1.6093662   0.9291680  16.8551680  )
        14           H1  tau(  14) = (   1.6093662   0.9291680  17.9551680  )

     number of k points=    20  Fermi-Dirac smearing, width (Ry)=  0.0110
                       cart. coord. in units 2pi/alat
        k(    1) = (   0.0000000   0.0000000   0.0000000), wk =   0.0555556
        k(    2) = (   0.0000000   0.0298953   0.0000000), wk =   0.1111111
        k(    3) = (   0.0000000   0.0597906   0.0000000), wk =   0.1111111
        k(    4) = (   0.0000000  -0.0896860   0.0000000), wk =   0.0555556
        k(    5) = (   0.0258901  -0.0149477   0.0000000), wk =   0.1111111
        k(    6) = (   0.0258901   0.0149477   0.0000000), wk =   0.1111111
        k(    7) = (   0.0258901   0.0448430   0.0000000), wk =   0.1111111
        k(    8) = (   0.0258901  -0.1046336   0.0000000), wk =   0.1111111
        k(    9) = (   0.0258901  -0.0747383   0.0000000), wk =   0.1111111
        k(   10) = (   0.0258901  -0.0448430   0.0000000), wk =   0.1111111
        k(   11) = (   0.0517802  -0.0298953   0.0000000), wk =   0.1111111
        k(   12) = (   0.0517802   0.0000000   0.0000000), wk =   0.1111111
        k(   13) = (   0.0517802   0.0298953   0.0000000), wk =   0.1111111
        k(   14) = (   0.0517802  -0.1195813   0.0000000), wk =   0.1111111
        k(   15) = (   0.0517802  -0.0896860   0.0000000), wk =   0.1111111
        k(   16) = (   0.0517802  -0.0597906   0.0000000), wk =   0.1111111
        k(   17) = (  -0.0776703   0.0448430   0.0000000), wk =   0.0555556
        k(   18) = (  -0.0776703   0.0747383   0.0000000), wk =   0.1111111
        k(   19) = (  -0.0776703   0.1046336   0.0000000), wk =   0.1111111
        k(   20) = (  -0.0776703  -0.0448430   0.0000000), wk =   0.0555556

     Largest allocated arrays     est. size (Mb)     dimensions
     Largest temporary arrays     est. size (Mb)     dimensions

     Initial potential from superposition of free atoms
     Check: negative starting charge=   -0.000264

     starting charge  136.97112, renormalised to  137.00000

     negative rho (up, down):  2.638E-04 0.000E+00

     *
     * You are using vdW-DF for exchange-correlation in this calculation.
     * Please cite the following three references that made this development
     * possible:
     *
     *   M. Dion, H. Rydberg, E. Schroder, D. C. Langreth, and
     *   B. I. Lundqvist, Phys. Rev. Lett. 92, 246401 (2004).
     *
     *   T. Thonhauser, V. R. Cooper, S. Li, A. Puzder, P. Hyldgaard, and
     *   D. C. Langreth, Phys. Rev. B 76, 125112 (2007).
     *
     *   G. Roman-Perez and J. M. Soler, Phys. Rev. Lett. 103, 096102 (2009).
     *
     *
     * If you are using vdW-DF2, please also cite:
     *
     *   K. Lee, E. D. Murray, L. Kong, B. I. Lundqvist, and
     *   D. C. Langreth, Phys. Rev. B 82, 081101(R) (2010).
     *
     *
     * If you are calculating the stress with vdW-DF, please also cite:
     *
     *   R. Sabatini, E. Kucukbenli, B. Kolb, T. Thonhauser, and
     *   S. de Gironcoli, J. Phys.: Condens. Matter 24, 424209 (2012).
     *

     Carrying out vdW-DF run using the following parameters:

     Nqs =      20    Nr_points =    1024   r_max =   100.000
     q_mesh =
               0.00001000     0.04494208     0.09755937     0.15916263
               0.23128650     0.31572767     0.41458969     0.53033537
               0.66584808     0.82450364     1.01025438     1.22772762
               1.48234092     1.78043706     2.12944203     2.53805004
               3.01644009     3.57652955     4.23227104     5.00000000

     Gradients computed in reciprocal space

     Adding external electric field

     Computed dipole along edir(3) :
        Dipole               -0.0084 Ry au,         -0.0215 Debye
        Dipole field         -0.0000 Ry au

        Potential amp.        0.0016 Ry
        Total length         46.5341 bohr

     Starting wfc are  161 randomized atomic wfcs

     Self-consistent Calculation

     iteration #  1     ecut=    36.75 Ry     beta=0.30
     Davidson diagonalization with overlap
     ethr =  1.00E-02,  avg # of iterations =  2.0

[...]

     total energy              =   -1147.47756867 Ry
     Harris-Foulkes estimate   =   -1150.99840769 Ry
     estimated scf accuracy    <       7.57474303 Ry

[...]

     End of self-consistent calculation

          k = 0.0000 0.0000 0.0000 ( 23031 PWs)   bands (ev):

   -49.6576 -49.6197 -49.5740 -49.5739 -49.5734 -49.4239 -49.3911 -49.3905
   -49.1684 -49.1267 -49.1061 -49.1059 -28.3719 -28.3338 -28.3322 -28.3320
   -28.2985 -28.2863 -28.2862 -28.2420 -28.2415 -28.2402 -28.2052 -28.0756
   -28.0752 -28.0736 -28.0733 -28.0716 -28.0121 -27.9943 -27.9943 -27.9688
   -27.9686 -27.9160 -27.8842 -27.8842 -27.8749 -27.7849 -27.7845 -27.7232
   -27.7020 -27.6850 -27.6848 -27.6498 -27.6497 -27.6367 -27.5671 -27.5671
    -9.6479  -4.4763  -3.7325  -2.7920  -1.7601  -1.2442  -1.2442  -1.1354
    -1.1354  -1.1197  -0.9954  -0.8997  -0.8996  -0.5759  -0.2233  -0.2233
    -0.1700  -0.0735  -0.0734   0.1890   0.1890   0.2530   0.4250   0.8288
     0.9580   0.9708   0.9709   1.0494   1.3253   1.3254

[...]

          k =-0.0777 0.0448 0.0000 ( 23032 PWs)   bands (ev):

[...]

     the Fermi energy is     0.3319 ev

!    total energy              =   -1150.38660800 Ry
     Harris-Foulkes estimate   =   -1150.38661200 Ry
     estimated scf accuracy    <       0.00000960 Ry

     The total energy is the sum of the following terms:

     one-electron contribution =   -7321.67220505 Ry
     hartree contribution      =    3644.26396668 Ry
     xc contribution           =    -170.70503014 Ry
     ewald contribution        =    2697.85840085 Ry
     electric field correction =       0.00009931 Ry
     smearing contrib. (-TS)   =      -0.13183966 Ry

     convergence has been achieved in  18 iterations

 BEEF-vdW xc energy contributions
           1 :   -144.618891665363
           2 :    127.247284818836
           3 :   -100.191351997372
           4 :    73.9098629380439
           5 :   -55.7238539006217
           6 :    46.8872295142320
           7 :   -43.8682176550976
           8 :    42.0565005178260
           9 :   -38.9204833404803
          10 :    34.7441715354862
          11 :   -31.1856144981331
          12 :    29.3095637279594
          13 :   -28.6943331087860
          14 :    28.0387255499724
          15 :   -26.4436709338513
          16 :    24.1466980278277
          17 :   -22.1471806321202
          18 :    21.1956439354828
          19 :   -21.1248750274118
          20 :    21.0811447274720
          21 :   -20.3444299676275
          22 :    18.9400866834345
          23 :   -17.5277193852486
          24 :    16.7469789432857
          25 :   -16.6543751258566
          26 :    16.7332608606230
          27 :   -16.4079255265452
          28 :    15.5573184721302
          29 :   -14.5736377580504
          30 :    13.9565362570646
          31 :   -17.1393754786628
          32 :   -12.2862880974758

     Forces acting on atoms (Ry/au):

     negative rho (up, down):  1.954E-04 0.000E+00
     atom    1 type  1   force =     0.00001861   -0.00003247    0.00137126
     atom    2 type  1   force =    -0.00001654   -0.00096107    0.00236099
     atom    3 type  1   force =    -0.00080782    0.00048880    0.00243255
     atom    4 type  1   force =     0.00080843    0.00050915    0.00242020
     atom    5 type  1   force =    -0.00276413    0.00150891   -0.00168216
     atom    6 type  1   force =     0.00276734    0.00154561   -0.00170863
     atom    7 type  1   force =     0.00003118    0.00007171   -0.01005234
     atom    8 type  1   force =    -0.00002831   -0.00311895   -0.00163179
     atom    9 type  1   force =     0.04839660    0.02792413    0.03397230
     atom   10 type  1   force =    -0.04840160    0.02793972    0.03398298
     atom   11 type  1   force =     0.00001257   -0.05589930    0.03399575
     atom   12 type  1   force =    -0.00001029    0.00001398    0.00710394
     atom   13 type  2   force =    -0.00000655    0.00000994   -0.09961921
     atom   14 type  3   force =     0.00000051   -0.00000016   -0.00294583

     Total force =     0.151056     Total SCF correction =     0.001942

     entering subroutine stress ...

     negative rho (up, down):  1.954E-04 0.000E+00
          total   stress  (Ry/bohr**3)                   (kbar)     P=   -3.00
  -0.00000075  -0.00000000  -0.00000000         -0.11     -0.00     -0.00
  -0.00000000  -0.00000076   0.00000001         -0.00     -0.11      0.00
  -0.00000000   0.00000001  -0.00005965         -0.00      0.00     -8.77

     BFGS Geometry Optimization

     number of scf cycles    =   1
     number of bfgs steps    =   0

     energy   new            =   -1150.3866080001 Ry

     new trust radius        =       0.0996192126 bohr
     new conv_thr            =       0.0000099958 Ry

ATOMIC_POSITIONS (crystal)
Sc1      0.166666667   0.166666667   0.395942884    0   0   0
Sc1      0.666666667   0.166666667   0.395942884    0   0   0
Sc1      0.166666667   0.666666667   0.395942884    0   0   0
Sc1      0.666666667   0.666666667   0.395942884    0   0   0
Sc1      0.833333333   0.333333333   0.500000000    0   0   0
Sc1      0.333333333   0.333333333   0.500000000    0   0   0
Sc1      0.833333333   0.833333333   0.500000000    0   0   0
Sc1      0.333333333   0.833333333   0.500000000    0   0   0
Sc1      0.002653060   0.002650546   0.604768917
Sc1      0.494695243   0.002652025   0.604769140
Sc1      0.002654001   0.494694064   0.604769408
Sc1      0.499998491   0.500001327   0.604205960
C1       0.166665657   0.166667610   0.665281122
H1       0.166666716   0.166666652   0.710860378

     Writing output data file calc.save
     Check: negative starting charge=   -0.000264
     NEW-OLD atomic charge density approx. for the potential
     Check: negative starting charge=   -0.000262

[...]

     energy   old            =   -1150.3866080001 Ry
     energy   new            =   -1150.4049275544 Ry

     CASE: energy  _new < energy  _old

[...]

     iteration #  1     ecut=    36.75 Ry     beta=0.30
     Davidson diagonalization with overlap
     c_bands:  1 eigenvalues not converged
     ethr =  1.00E-06,  avg # of iterations = 17.8

[...]

     iteration #  1     ecut=    36.75 Ry     beta=0.30
     Davidson diagonalization with overlap
     c_bands:  1 eigenvalues not converged
     ethr =  1.00E-06,  avg # of iterations = 14.8

[...]

     Threshold (ethr) on eigenvalues was too large:
     Diagonalizing with lowered threshold

     Davidson diagonalization with overlap
     ethr =  3.26E-08,  avg # of iterations =  7.1

[...]

     Total force =     0.002867     Total SCF correction =     0.000123

[...]

     number of scf cycles    =  16
     number of bfgs steps    =  15

     energy   old            =   -1150.4427110185 Ry
     energy   new            =   -1150.4427284037 Ry

     CASE: energy  _new < energy  _old

     new trust radius        =       0.0043485313 bohr
     new conv_thr            =       0.0000001000 Ry

ATOMIC_POSITIONS (crystal)
Sc1      0.166666667   0.166666667   0.395942884    0   0   0
Sc1      0.666666667   0.166666667   0.395942884    0   0   0
Sc1      0.166666667   0.666666667   0.395942884    0   0   0
Sc1      0.666666667   0.666666667   0.395942884    0   0   0
Sc1      0.833333333   0.333333333   0.500000000    0   0   0
Sc1      0.333333333   0.333333333   0.500000000    0   0   0
Sc1      0.833333333   0.833333333   0.500000000    0   0   0
Sc1      0.333333333   0.833333333   0.500000000    0   0   0
Sc1      0.006857488   0.006839449   0.606996430
Sc1      0.486276047   0.006880637   0.606993332
Sc1      0.006890015   0.486274942   0.606996700
Sc1      0.499980010   0.500000543   0.603812980
C1       0.166654574   0.166658812   0.655471891
H1       0.166670482   0.166670692   0.699157502

     Writing output data file calc.save
     Check: negative starting charge=   -0.000272
     NEW-OLD atomic charge density approx. for the potential
     Check: negative starting charge=   -0.000272

[...]

     Self-consistent Calculation

[...]

     Threshold (ethr) on eigenvalues was too large:
     Diagonalizing with lowered threshold

     Davidson diagonalization with overlap
     ethr =  3.90E-08,  avg # of iterations =  1.9

[...]

     total energy              =   -1150.44273168 Ry
     Harris-Foulkes estimate   =   -1150.44273177 Ry
     estimated scf accuracy    <       0.00000070 Ry

     iteration #  9     ecut=    36.75 Ry     beta=0.30
     Davidson diagonalization with overlap
     ethr =  5.13E-10,  avg # of iterations =  5.8

[...]

     negative rho (up, down):  2.033E-04 0.000E+00

     Adding external electric field

     Computed dipole along edir(3) :
        Dipole               -0.0406 Ry au,         -0.1033 Debye
        Dipole field         -0.0001 Ry au

        Potential amp.        0.0078 Ry
        Total length         46.5341 bohr

     End of self-consistent calculation

[...]

          k = 0.0518-0.0598 0.0000 ( 23012 PWs)   bands (ev):

[...]

          k =-0.0777-0.0448 0.0000 ( 23032 PWs)   bands (ev):

   -49.4540 -49.4072 -49.3986 -49.3805 -49.3755 -49.1018 -49.0801 -49.0699
   -49.0570 -48.9562 -48.9440 -48.9340 -28.1835 -28.0787 -28.0783 -28.0730
   -28.0706 -28.0452 -28.0400 -28.0337 -27.9953 -27.9765 -27.9693 -27.9481
   -27.9428 -27.8785 -27.8423 -27.8367 -27.8079 -27.7837 -27.7493 -27.7156
   -27.6987 -27.6713 -27.6645 -27.6409 -27.6335 -27.6229 -27.5540 -27.5368
   -27.5275 -27.5273 -27.5117 -27.5110 -27.5050 -27.4758 -27.4623 -27.4244
    -9.8150  -3.8295  -2.9564  -2.7760  -2.0888  -1.6533  -1.2790  -1.1022
    -0.9120  -0.8598  -0.5662  -0.3517  -0.3370  -0.2610   0.2788   0.2810
     0.3431   0.3786   0.3807   0.4423   0.6033   0.6068   0.6723   0.7049
     0.7397   0.8210   0.9737   1.0264   1.0421   1.0507

     the Fermi energy is     0.5217 ev

!    total energy              =   -1150.44273169 Ry
     Harris-Foulkes estimate   =   -1150.44273168 Ry
     estimated scf accuracy    <       0.00000004 Ry

     The total energy is the sum of the following terms:

     one-electron contribution =   -7324.18759538 Ry
     hartree contribution      =    3646.42546660 Ry
     xc contribution           =    -170.91875091 Ry
     ewald contribution        =    2698.36821611 Ry
     electric field correction =       0.00000339 Ry
     smearing contrib. (-TS)   =      -0.13007150 Ry

     convergence has been achieved in   9 iterations

 BEEF-vdW xc energy contributions
           1 :   -144.829002859520
           2 :    127.498592426672
           3 :   -100.488041287083
           4 :    74.2138675983800
           5 :   -55.9711518731402
           6 :    47.0166799959399
           7 :   -43.8566326244541
           8 :    41.9373302915178
           9 :   -38.7661959839755
          10 :    34.6183842744484
          11 :   -31.1004363953013
          12 :    29.2249508807736
          13 :   -28.5624985707803
          14 :    27.8572695690449
          15 :   -26.2713603868872
          16 :    24.0631491698698
          17 :   -22.1864047135975
          18 :    21.3125391340567
          19 :   -21.2266584618339
          20 :    21.0973325965713
          21 :   -20.2756331974908
          22 :    18.8450788389521
          23 :   -17.4635313838329
          24 :    16.7181503243106
          25 :   -16.6159204384624
          26 :    16.6402977843416
          27 :   -16.2629106982548
          28 :    15.4104712354900
          29 :   -14.4776227940833
          30 :    13.9195975887635
          31 :   -17.1532893346573
          32 :   -12.3092846611447

     Forces acting on atoms (Ry/au):

     negative rho (up, down):  2.033E-04 0.000E+00
     atom    1 type  1   force =    -0.00000699    0.00000233    0.00146169
     atom    2 type  1   force =     0.00000893   -0.00166428    0.00303013
     atom    3 type  1   force =    -0.00144220    0.00083647    0.00302717
     atom    4 type  1   force =     0.00144341    0.00082687    0.00303744
     atom    5 type  1   force =    -0.00227876    0.00129682   -0.00069532
     atom    6 type  1   force =     0.00227484    0.00130616   -0.00070284
     atom    7 type  1   force =     0.00000891    0.00001138   -0.00866634
     atom    8 type  1   force =    -0.00000993   -0.00261735   -0.00069475
     atom    9 type  1   force =    -0.00002286    0.00000592    0.00003580
     atom   10 type  1   force =     0.00001545   -0.00003906    0.00003896
     atom   11 type  1   force =    -0.00004242    0.00004243    0.00002681
     atom   12 type  1   force =     0.00004018    0.00000202    0.00009936
     atom   13 type  2   force =     0.00001521   -0.00000740    0.00001737
     atom   14 type  3   force =    -0.00000375   -0.00000231   -0.00001548

     Total force =     0.000148     Total SCF correction =     0.000238
     SCF correction compared to forces is large: reduce conv_thr to get better values

     entering subroutine stress ...

     negative rho (up, down):  2.033E-04 0.000E+00
          total   stress  (Ry/bohr**3)                   (kbar)     P=    3.25
   0.00003902   0.00000001   0.00000000          5.74      0.00      0.00
   0.00000001   0.00003901  -0.00000000          0.00      5.74     -0.00
   0.00000000  -0.00000000  -0.00001172          0.00     -0.00     -1.72

     bfgs converged in  17 scf cycles and  16 bfgs steps
     (criteria: energy <  1.0E+00, force <  1.9E-03)

     End of BFGS Geometry Optimization

     Final energy   =   -1150.4427316896 Ry
Begin final coordinates

ATOMIC_POSITIONS (crystal)
Sc1      0.166666667   0.166666667   0.395942884    0   0   0
Sc1      0.666666667   0.166666667   0.395942884    0   0   0
Sc1      0.166666667   0.666666667   0.395942884    0   0   0
Sc1      0.666666667   0.666666667   0.395942884    0   0   0
Sc1      0.833333333   0.333333333   0.500000000    0   0   0
Sc1      0.333333333   0.333333333   0.500000000    0   0   0
Sc1      0.833333333   0.833333333   0.500000000    0   0   0
Sc1      0.333333333   0.833333333   0.500000000    0   0   0
Sc1      0.006857488   0.006839449   0.606996430
Sc1      0.486276047   0.006880637   0.606993332
Sc1      0.006890015   0.486274942   0.606996700
Sc1      0.499980010   0.500000543   0.603812980
C1       0.166654574   0.166658812   0.655471891
H1       0.166670482   0.166670692   0.699157502
End final coordinates

     Writing output data file calc.save

     General routines

     Parallel routines

   This run was terminated on:  22:45:16  22Apr2018

   JOB DONE.
Job  /afs/slac/g/suncat/bin/suncat-tsmpirun -x LD_LIBRARY_PATH -wdir /scratch/qe309140_wf27P pw.x -npool 4 -in pw.inp

TID   HOST_NAME   COMMAND_LINE            STATUS            TERMINATION_TIME
00000 suncat0226 pw.x -npool 4 -i  Done                     04/22/2018 22:45:16
00001 suncat0226 pw.x -npool 4 -i  Done                     04/22/2018 22:45:16
00002 suncat0226 pw.x -npool 4 -i  Done                     04/22/2018 22:45:16
00003 suncat0226 pw.x -npool 4 -i  Done                     04/22/2018 22:45:16
00004 suncat0226 pw.x -npool 4 -i  Done                     04/22/2018 22:45:16
00005 suncat0226 pw.x -npool 4 -i  Done                     04/22/2018 22:45:16
00006 suncat0226 pw.x -npool 4 -i  Done                     04/22/2018 22:45:16
00007 suncat0226 pw.x -npool 4 -i  Done                     04/22/2018 22:45:16
00008 suncat0225 pw.x -npool 4 -i  Done                     04/22/2018 22:45:16
00009 suncat0225 pw.x -npool 4 -i  Done                     04/22/2018 22:45:16
00010 suncat0225 pw.x -npool 4 -i  Done                     04/22/2018 22:45:16
00011 suncat0225 pw.x -npool 4 -i  Done                     04/22/2018 22:45:16
00012 suncat0225 pw.x -npool 4 -i  Done                     04/22/2018 22:45:16
00013 suncat0225 pw.x -npool 4 -i  Done                     04/22/2018 22:45:16
00014 suncat0225 pw.x -npool 4 -i  Done                     04/22/2018 22:45:16
00015 suncat0225 pw.x -npool 4 -i  Done                     04/22/2018 22:45:16
00016 suncat0221 pw.x -npool 4 -i  Done                     04/22/2018 22:45:16
00017 suncat0221 pw.x -npool 4 -i  Done                     04/22/2018 22:45:16
00018 suncat0221 pw.x -npool 4 -i  Done                     04/22/2018 22:45:16
00019 suncat0221 pw.x -npool 4 -i  Done                     04/22/2018 22:45:16
00020 suncat0221 pw.x -npool 4 -i  Done                     04/22/2018 22:45:16
00021 suncat0221 pw.x -npool 4 -i  Done                     04/22/2018 22:45:16
00022 suncat0221 pw.x -npool 4 -i  Done                     04/22/2018 22:45:16
00023 suncat0221 pw.x -npool 4 -i  Done                     04/22/2018 22:45:16
00024 suncat0215 pw.x -npool 4 -i  Done                     04/22/2018 22:45:16
00025 suncat0215 pw.x -npool 4 -i  Done                     04/22/2018 22:45:16
00026 suncat0215 pw.x -npool 4 -i  Done                     04/22/2018 22:45:16
00027 suncat0215 pw.x -npool 4 -i  Done                     04/22/2018 22:45:16
00028 suncat0215 pw.x -npool 4 -i  Done                     04/22/2018 22:45:16
00029 suncat0215 pw.x -npool 4 -i  Done                     04/22/2018 22:45:16
00030 suncat0215 pw.x -npool 4 -i  Done                     04/22/2018 22:45:16
00031 suncat0215 pw.x -npool 4 -i  Done                     04/22/2018 22:45:16