     Program PWSCF v.5.1rc2 (svn rev. ) starts on 16Apr2018 at 11:16:30

     Current dimensions of program PWSCF are:
     Max number of different atomic species (ntypx) = 10
     Max number of k-points (npk) =  40000
     Max angular momentum in pseudopotentials (lmaxx) =  3
     Presently stress not available with electric field

     IMPORTANT: XC functional enforced from input :
     Exchange-correlation      = BEEF-VDW ( 1  4 27 13 2)
     Any further DFT definition will be discarded
     Please, verify this is what you really want

     Subspace diagonalization in iterative solution of the eigenvalue problem:
     a serial algorithm will be used

     bravais-lattice index     =            0
     lattice parameter (alat)  =       1.8897  a.u.
     unit-cell volume          =    4650.5773 (a.u.)^3
     number of atoms/cell      =           14
     number of atomic types    =            3
     number of electrons       =        42.00
     number of Kohn-Sham states=           31
     kinetic-energy cutoff     =      36.7493  Ry
     charge density cutoff     =     367.4932  Ry
     convergence threshold     =      1.0E-05
     mixing beta               =       0.3000
     number of iterations used =           10  plain     mixing
     Exchange-correlation      = BEEF-VDW ( 1  4 27 13 2)
     nstep                     =           50

     celldm(1)=   1.889726  celldm(2)=   0.000000  celldm(3)=   0.000000
     celldm(4)=   0.000000  celldm(5)=   0.000000  celldm(6)=   0.000000

     crystal axes: (cart. coord. in units of alat)
               a(1) = (   5.682886   0.000000   0.000000 )
               a(2) = (   2.841443   4.921524   0.000000 )
               a(3) = (   0.000000   0.000000  24.640057 )

     reciprocal axes: (cart. coord. in units 2 pi/alat)
               b(1) = (  0.175967 -0.101595  0.000000 )
               b(2) = (  0.000000  0.203189  0.000000 )
               b(3) = (  0.000000  0.000000  0.040584 )

     PseudoPot. # 1 for Al read from file:
     /home/mamunm/src/pseudo/gbrv1.5pbe/Al.UPF
     MD5 check sum: 0a6289f5291fc8f409219462bc851e1f
     Pseudo is Ultrasoft + core correction, Zval =  3.0
     Generated by new atomic code, or converted to UPF format
     Using radial grid of  893 points,  3 beta functions with:
                l(1) =   0
                l(2) =   1
                l(3) =   2
     Q(r) pseudized with  8 coefficients,  rinner =    0.900   0.900   0.900
                                                       0.900   0.900

     PseudoPot. # 2 for N  read from file:
     /home/mamunm/src/pseudo/gbrv1.5pbe/N.UPF
     MD5 check sum: 95339753478d7afb44899504a8723017
     Pseudo is Ultrasoft + core correction, Zval =  5.0
     Generated by new atomic code, or converted to UPF format
     Using radial grid of  729 points,  4 beta functions with:
                l(1) =   0
                l(2) =   0
                l(3) =   1
                l(4) =   1
     Q(r) pseudized with  8 coefficients,  rinner =    0.900   0.900   0.900

     PseudoPot. # 3 for H  read from file:
     /home/mamunm/src/pseudo/gbrv1.5pbe/H.UPF
     MD5 check sum: 761ae9a214b05c3daf00ab9f6b793d6f
     Pseudo is Ultrasoft, Zval =  1.0
     Generated by new atomic code, or converted to UPF format
     Using radial grid of  615 points,  2 beta functions with:
                l(1) =   0
                l(2) =   0
     Q(r) pseudized with  8 coefficients,  rinner =    0.700

     vdW kernel table read from file vdW_kernel_table
     MD5 check sum: 095c7af220d748ca6e76c0b4c6cfb241

     atomic species   valence    mass     pseudopotential
        Al1            3.00    26.98154     Al( 1.00)
        N1             5.00    14.00700     N ( 1.00)
        H1             1.00     1.00800     H ( 1.00)

     No symmetry found

   Cartesian axes

     site n.     atom                  positions (alat units)
         1           Al1 tau(   1) = (   1.4207216   0.8202540  10.0000000  )
         2           Al1 tau(   2) = (   4.2621647   0.8202540  10.0000000  )
         3           Al1 tau(   3) = (   2.8414431   3.2810159  10.0000000  )
         4           Al1 tau(   4) = (   5.6828862   3.2810159  10.0000000  )
         5           Al1 tau(   5) = (   5.6828862   1.6405079  12.3200286  )
         6           Al1 tau(   6) = (   2.8414431   1.6405079  12.3200286  )
         7           Al1 tau(   7) = (   7.1036078   4.1012699  12.3200286  )
         8           Al1 tau(   8) = (   4.2621647   4.1012699  12.3200286  )
         9           Al1 tau(   9) = (   0.0000000   0.0000000  14.6400572  )
        10           Al1 tau(  10) = (   2.8414431   0.0000000  14.6400572  )
        11           Al1 tau(  11) = (   1.4207216   2.4607619  14.6400572  )
        12           Al1 tau(  12) = (   4.2621647   2.4607619  14.6400572  )
        13           N1  tau(  13) = (   0.0000000   0.0000000  16.2720572  )
        14           H1  tau(  14) = (   0.0000000   0.0000000  17.3220572  )

     number of k points=    20  Fermi-Dirac smearing, width (Ry)=  0.0110
                       cart. coord. in units 2pi/alat
        k(    1) = (   0.0000000   0.0000000   0.0000000), wk =   0.0555556
        k(    2) = (   0.0000000   0.0338648   0.0000000), wk =   0.1111111
        k(    3) = (   0.0000000   0.0677297   0.0000000), wk =   0.1111111
        k(    4) = (   0.0000000  -0.1015945   0.0000000), wk =   0.0555556
        k(    5) = (   0.0293278  -0.0169324   0.0000000), wk =   0.1111111
        k(    6) = (   0.0293278   0.0169324   0.0000000), wk =   0.1111111
        k(    7) = (   0.0293278   0.0507973   0.0000000), wk =   0.1111111
        k(    8) = (   0.0293278  -0.1185270   0.0000000), wk =   0.1111111
        k(    9) = (   0.0293278  -0.0846621   0.0000000), wk =   0.1111111
        k(   10) = (   0.0293278  -0.0507973   0.0000000), wk =   0.1111111
        k(   11) = (   0.0586556  -0.0338648   0.0000000), wk =   0.1111111
        k(   12) = (   0.0586556   0.0000000   0.0000000), wk =   0.1111111
        k(   13) = (   0.0586556   0.0338648   0.0000000), wk =   0.1111111
        k(   14) = (   0.0586556  -0.1354594   0.0000000), wk =   0.1111111
        k(   15) = (   0.0586556  -0.1015945   0.0000000), wk =   0.1111111
        k(   16) = (   0.0586556  -0.0677297   0.0000000), wk =   0.1111111
        k(   17) = (  -0.0879835   0.0507973   0.0000000), wk =   0.0555556
        k(   18) = (  -0.0879835   0.0846621   0.0000000), wk =   0.1111111
        k(   19) = (  -0.0879835   0.1185270   0.0000000), wk =   0.1111111
        k(   20) = (  -0.0879835  -0.0507973   0.0000000), wk =   0.0555556

     Largest allocated arrays     est. size (Mb)     dimensions
     Largest temporary arrays     est. size (Mb)     dimensions

     Initial potential from superposition of free atoms
     Check: negative starting charge=   -0.000143

     starting charge   41.97040, renormalised to   42.00000

     negative rho (up, down):  1.432E-04 0.000E+00

     *
     * You are using vdW-DF for exchange-correlation in this calculation.
     * Please cite the following three references that made this development
     * possible:
     *
     *   M. Dion, H. Rydberg, E. Schroder, D. C. Langreth, and
     *   B. I. Lundqvist, Phys. Rev. Lett. 92, 246401 (2004).
     *
     *   T. Thonhauser, V. R. Cooper, S. Li, A. Puzder, P. Hyldgaard, and
     *   D. C. Langreth, Phys. Rev. B 76, 125112 (2007).
     *
     *   G. Roman-Perez and J. M. Soler, Phys. Rev. Lett. 103, 096102 (2009).
     *
     *
     * If you are using vdW-DF2, please also cite:
     *
     *   K. Lee, E. D. Murray, L. Kong, B. I. Lundqvist, and
     *   D. C. Langreth, Phys. Rev. B 82, 081101(R) (2010).
     *
     *
     * If you are calculating the stress with vdW-DF, please also cite:
     *
     *   R. Sabatini, E. Kucukbenli, B. Kolb, T. Thonhauser, and
     *   S. de Gironcoli, J. Phys.: Condens. Matter 24, 424209 (2012).
     *

     Carrying out vdW-DF run using the following parameters:

     Nqs =      20    Nr_points =    1024   r_max =   100.000
     q_mesh =
               0.00001000     0.04494208     0.09755937     0.15916263
               0.23128650     0.31572767     0.41458969     0.53033537
               0.66584808     0.82450364     1.01025438     1.22772762
               1.48234092     1.78043706     2.12944203     2.53805004
               3.01644009     3.57652955     4.23227104     5.00000000

     Gradients computed in reciprocal space

     Adding external electric field

     Computed dipole along edir(3) :
        Dipole               -0.0329 Ry au,         -0.0835 Debye
        Dipole field         -0.0001 Ry au

        Potential amp.        0.0081 Ry
        Total length         45.3989 bohr

     Starting wfc are   53 randomized atomic wfcs

     Self-consistent Calculation

     iteration #  1     ecut=    36.75 Ry     beta=0.30
     Davidson diagonalization with overlap
     ethr =  1.00E-02,  avg # of iterations =  3.0

[...]

     total energy              =    -103.22766594 Ry
     Harris-Foulkes estimate   =    -104.28602427 Ry
     estimated scf accuracy    <       2.39605282 Ry

[...]

     End of self-consistent calculation

          k = 0.0000 0.0000 0.0000 ( 17579 PWs)   bands (ev):

   -15.1818 -11.3207  -9.6226  -7.5525  -6.3495  -5.4251  -5.4251  -5.3789
    -5.3698  -5.3698  -5.2341  -4.1969  -4.1969  -3.9948  -3.6276  -3.5123
    -3.5123  -2.9387  -2.1611  -2.1611  -1.0370  -1.0370  -0.9697  -0.3625
    -0.2183  -0.2183   0.4150   1.9422   1.9654   1.9654   2.0521

[...]

          k =-0.0880 0.0508 0.0000 ( 17464 PWs)   bands (ev):

[...]

     the Fermi energy is    -0.6944 ev

!    total energy              =    -103.83878483 Ry
     Harris-Foulkes estimate   =    -103.83878339 Ry
     estimated scf accuracy    <       0.00000077 Ry

     The total energy is the sum of the following terms:

     one-electron contribution =    -759.10302500 Ry
     hartree contribution      =     388.71443864 Ry
     xc contribution           =     -59.48819267 Ry
     ewald contribution        =     326.06949379 Ry
     electric field correction =       0.00000784 Ry
     smearing contrib. (-TS)   =      -0.03150744 Ry

     convergence has been achieved in  12 iterations

 BEEF-vdW xc energy contributions
           1 :   -48.9221598283473
           2 :    41.9943923656292
           3 :   -31.3729126366011
           4 :    21.2408254312313
           5 :   -14.2659727263656
           6 :    10.6319100406556
           7 :   -8.82896606671372
           8 :    7.27486516109848
           9 :   -5.44613464370055
          10 :    3.82053185964700
          11 :   -3.00366167865803
          12 :    2.98134181633623
          13 :   -3.13762725546869
          14 :    2.86882216999437
          15 :   -2.10941123648536
          16 :    1.28727301763902
          17 :  -0.838056919991374
          18 :   0.792210322720599
          19 :  -0.810590855559902
          20 :   0.568856358150505
          21 :  -7.476819360567788E-002
          22 :  -0.377989144876366
          23 :   0.527430545007959
          24 :  -0.395382898764822
          25 :   0.239754268760322
          26 :  -0.286539756250619
          27 :   0.519210693981151
          28 :  -0.721217030236332
          29 :   0.706736547929616
          30 :  -0.499616512894605
          31 :   -7.23386349396797
          32 :   -5.24997211195003

     Forces acting on atoms (Ry/au):

     negative rho (up, down):  7.095E-04 0.000E+00
     atom    1 type  1   force =     0.00168456    0.00097259   -0.00094505
     atom    2 type  1   force =    -0.00168456    0.00097258   -0.00094510
     atom    3 type  1   force =     0.00000001   -0.00194523   -0.00094507
     atom    4 type  1   force =     0.00000005   -0.00000002   -0.00155260
     atom    5 type  1   force =    -0.00000000   -0.00129641    0.00554949
     atom    6 type  1   force =     0.00000000    0.00000003   -0.00494886
     atom    7 type  1   force =     0.00112273    0.00064823    0.00554967
     atom    8 type  1   force =    -0.00112276    0.00064821    0.00554945
     atom    9 type  1   force =    -0.00000011   -0.00000008   -0.11645877
     atom   10 type  1   force =     0.00000008   -0.00402216   -0.00397320
     atom   11 type  1   force =    -0.00348323    0.00201119   -0.00397315
     atom   12 type  1   force =     0.00348326    0.00201111   -0.00397320
     atom   13 type  2   force =    -0.00000000   -0.00000002    0.18465623
     atom   14 type  3   force =    -0.00000002   -0.00000002   -0.06358984

     Total force =     0.227596     Total SCF correction =     0.000426

     entering subroutine stress ...

     negative rho (up, down):  7.095E-04 0.000E+00
          total   stress  (Ry/bohr**3)                   (kbar)     P=   -2.59
  -0.00005146  -0.00000000   0.00000000         -7.57     -0.00      0.00
  -0.00000000  -0.00005146   0.00000000         -0.00     -7.57      0.00
   0.00000000   0.00000000   0.00005010          0.00      0.00      7.37

     BFGS Geometry Optimization

     number of scf cycles    =   1
     number of bfgs steps    =   0

     energy   new            =    -103.8387848284 Ry

     new trust radius        =       0.1846562303 bohr
     new conv_thr            =       0.0000099958 Ry

ATOMIC_POSITIONS (crystal)
Al1      0.166666667   0.166666667   0.405843214    0   0   0
Al1      0.666666667   0.166666667   0.405843214    0   0   0
Al1      0.166666667   0.666666667   0.405843214    0   0   0
Al1      0.666666667   0.666666667   0.405843214    0   0   0
Al1      0.833333333   0.333333333   0.500000000    0   0   0
Al1      0.333333333   0.333333333   0.500000000    0   0   0
Al1      0.833333333   0.833333333   0.500000000    0   0   0
Al1      0.333333333   0.833333333   0.500000000    0   0   0
Al1     -0.000000006  -0.000000009   0.591655683
Al1      0.500216245  -0.000432475   0.594071456
Al1     -0.000432475   0.500216249   0.594071457
Al1      0.500216232   0.500216241   0.594071456
N1       0.000000001  -0.000000002   0.664356131
H1      -0.000000001  -0.000000002   0.701638262

     Writing output data file calc.save
     Check: negative starting charge=   -0.000143
     NEW-OLD atomic charge density approx. for the potential
     Check: negative starting charge=   -0.000149

[...]

     energy   old            =    -103.8387848284 Ry
     energy   new            =    -103.8283797934 Ry

     CASE: energy  _new > energy  _old

[...]

     CASE: energy  _new < energy  _old

[...]

     Threshold (ethr) on eigenvalues was too large:
     Diagonalizing with lowered threshold

     Davidson diagonalization with overlap
     ethr =  4.67E-08,  avg # of iterations =  1.4

[...]

     number of scf cycles    =  13
     number of bfgs steps    =  11

     energy   old            =    -103.8511892254 Ry
     energy   new            =    -103.8512316882 Ry

     CASE: energy  _new < energy  _old

     new trust radius        =       0.0070100545 bohr
     new conv_thr            =       0.0000001000 Ry

ATOMIC_POSITIONS (crystal)
Al1      0.166666667   0.166666667   0.405843214    0   0   0
Al1      0.666666667   0.166666667   0.405843214    0   0   0
Al1      0.166666667   0.666666667   0.405843214    0   0   0
Al1      0.666666667   0.666666667   0.405843214    0   0   0
Al1      0.833333333   0.333333333   0.500000000    0   0   0
Al1      0.333333333   0.333333333   0.500000000    0   0   0
Al1      0.833333333   0.833333333   0.500000000    0   0   0
Al1      0.333333333   0.833333333   0.500000000    0   0   0
Al1      0.000000004   0.000000008   0.593948428
Al1      0.501028485  -0.002056951   0.592982947
Al1     -0.002056953   0.501028479   0.592982947
Al1      0.501028475   0.501028484   0.592982948
N1      -0.000000010  -0.000000031   0.663819666
H1       0.000000002  -0.000000007   0.704866858

     Writing output data file calc.save
     Check: negative starting charge=   -0.000151
     NEW-OLD atomic charge density approx. for the potential
     Check: negative starting charge=   -0.000151

[...]

     Self-consistent Calculation

[...]

     Threshold (ethr) on eigenvalues was too large:
     Diagonalizing with lowered threshold

     Davidson diagonalization with overlap
     ethr =  4.47E-08,  avg # of iterations =  2.0

[...]

     total energy              =    -103.85124784 Ry
     Harris-Foulkes estimate   =    -103.85124797 Ry
     estimated scf accuracy    <       0.00000011 Ry

     iteration #  7     ecut=    36.75 Ry     beta=0.30
     Davidson diagonalization with overlap
     ethr =  2.65E-10,  avg # of iterations =  1.1

[...]

     negative rho (up, down):  7.363E-04 0.000E+00

     Adding external electric field

     Computed dipole along edir(3) :
        Dipole               -0.1039 Ry au,         -0.2640 Debye
        Dipole field         -0.0003 Ry au

        Potential amp.        0.0255 Ry
        Total length         45.3989 bohr

     End of self-consistent calculation

[...]

          k = 0.0587-0.0677 0.0000 ( 17495 PWs)   bands (ev):

[...]

          k =-0.0880-0.0508 0.0000 ( 17464 PWs)   bands (ev):

   -15.1977  -9.9543  -9.9372  -8.4147  -8.2462  -7.2259  -6.9658  -6.7586
    -5.5872  -5.3473  -5.3417  -4.6190  -3.1514  -2.8735  -2.6497  -1.6920
    -1.6080  -1.4630  -1.1992  -1.1133  -0.8549  -0.7415   0.2066   0.4075
     0.7102   0.9242   0.9693   1.0905   1.2155   1.7843   1.9702

     the Fermi energy is    -0.7846 ev

!    total energy              =    -103.85124781 Ry
     Harris-Foulkes estimate   =    -103.85124776 Ry
     estimated scf accuracy    <       0.00000001 Ry

     The total energy is the sum of the following terms:

     one-electron contribution =    -755.46194677 Ry
     hartree contribution      =     386.78099335 Ry
     xc contribution           =     -59.46476455 Ry
     ewald contribution        =     324.32625388 Ry
     electric field correction =       0.00002915 Ry
     smearing contrib. (-TS)   =      -0.03181286 Ry

     convergence has been achieved in   7 iterations

 BEEF-vdW xc energy contributions
           1 :   -48.8964692988750
           2 :    41.9608007275929
           3 :   -31.3354156842111
           4 :    21.2138071697460
           5 :   -14.2644527517447
           6 :    10.6635238191558
           7 :   -8.89146291943768
           8 :    7.35749712954213
           9 :   -5.53385555742644
          10 :    3.89986299683972
          11 :   -3.06788260016641
          12 :    3.03264230497543
          13 :   -3.18501144301619
          14 :    2.92113656006358
          15 :   -2.16852247802451
          16 :    1.34868409111784
          17 :  -0.897388582521749
          18 :   0.849536871165675
          19 :  -0.868552883430986
          20 :   0.626675298468896
          21 :  -0.124989818424616
          22 :  -0.345321416804005
          23 :   0.515890476502555
          24 :  -0.396312269095354
          25 :   0.236536429026437
          26 :  -0.266431909245078
          27 :   0.481996130393952
          28 :  -0.678362988328907
          29 :   0.671603774624224
          30 :  -0.476864475387138
          31 :   -7.23248105419508
          32 :   -5.24777833694755

     Forces acting on atoms (Ry/au):

     negative rho (up, down):  7.363E-04 0.000E+00
     atom    1 type  1   force =     0.00168264    0.00097147   -0.00115324
     atom    2 type  1   force =    -0.00168264    0.00097147   -0.00115323
     atom    3 type  1   force =     0.00000000   -0.00194294   -0.00115323
     atom    4 type  1   force =    -0.00000000   -0.00000000   -0.00158625
     atom    5 type  1   force =    -0.00000000   -0.00188043    0.00221258
     atom    6 type  1   force =     0.00000000    0.00000000   -0.00668556
     atom    7 type  1   force =     0.00162850    0.00094022    0.00221258
     atom    8 type  1   force =    -0.00162850    0.00094022    0.00221258
     atom    9 type  1   force =     0.00000000    0.00000000   -0.00081995
     atom   10 type  1   force =    -0.00000000   -0.00023603    0.00108294
     atom   11 type  1   force =    -0.00020441    0.00011802    0.00108293
     atom   12 type  1   force =     0.00020441    0.00011802    0.00108293
     atom   13 type  2   force =    -0.00000001   -0.00000001    0.00169310
     atom   14 type  3   force =    -0.00000000    0.00000000    0.00097181

     Total force =     0.002858     Total SCF correction =     0.000119

     entering subroutine stress ...

     negative rho (up, down):  7.363E-04 0.000E+00
          total   stress  (Ry/bohr**3)                   (kbar)     P=   -4.78
  -0.00005424   0.00000000  -0.00000000         -7.98      0.00     -0.00
   0.00000000  -0.00005424  -0.00000000          0.00     -7.98     -0.00
  -0.00000000  -0.00000000   0.00001096         -0.00     -0.00      1.61

     bfgs converged in  14 scf cycles and  12 bfgs steps
     (criteria: energy <  1.0E+00, force <  1.9E-03)

     End of BFGS Geometry Optimization

     Final energy   =    -103.8512478091 Ry
Begin final coordinates

ATOMIC_POSITIONS (crystal)
Al1      0.166666667   0.166666667   0.405843214    0   0   0
Al1      0.666666667   0.166666667   0.405843214    0   0   0
Al1      0.166666667   0.666666667   0.405843214    0   0   0
Al1      0.666666667   0.666666667   0.405843214    0   0   0
Al1      0.833333333   0.333333333   0.500000000    0   0   0
Al1      0.333333333   0.333333333   0.500000000    0   0   0
Al1      0.833333333   0.833333333   0.500000000    0   0   0
Al1      0.333333333   0.833333333   0.500000000    0   0   0
Al1      0.000000004   0.000000008   0.593948428
Al1      0.501028485  -0.002056951   0.592982947
Al1     -0.002056953   0.501028479   0.592982947
Al1      0.501028475   0.501028484   0.592982948
N1      -0.000000010  -0.000000031   0.663819666
H1       0.000000002  -0.000000007   0.704866858
End final coordinates

     Writing output data file calc.save

     General routines

     Parallel routines

   This run was terminated on:  11:30:59  16Apr2018

   JOB DONE.