     Program PWSCF v.5.1rc2 (svn rev. 11289) starts on  3May2018 at  1: 8:16

     Current dimensions of program PWSCF are:
     Max number of different atomic species (ntypx) = 10
     Max number of k-points (npk) =  40000
     Max angular momentum in pseudopotentials (lmaxx) =  3
     Presently stress not available with electric field

     IMPORTANT: XC functional enforced from input :
     Exchange-correlation      = BEEF-VDW ( 1  4 27 13 2)
     Any further DFT definition will be discarded
     Please, verify this is what you really want

     Subspace diagonalization in iterative solution of the eigenvalue problem:
     a serial algorithm will be used

     bravais-lattice index     =            0
     lattice parameter (alat)  =       1.8897  a.u.
     unit-cell volume          =    7725.1200 (a.u.)^3
     number of atoms/cell      =           13
     number of atomic types    =            2
     number of electrons       =       138.00
     number of Kohn-Sham states=           79
     kinetic-energy cutoff     =      36.7493  Ry
     charge density cutoff     =     367.4932  Ry
     convergence threshold     =      1.0E-05
     mixing beta               =       0.3000
     number of iterations used =           10  plain     mixing
     Exchange-correlation      = BEEF-VDW ( 1  4 27 13 2)
     nstep                     =           50

     celldm(1)=   1.889726  celldm(2)=   0.000000  celldm(3)=   0.000000
     celldm(4)=   0.000000  celldm(5)=   0.000000  celldm(6)=   0.000000

     crystal axes: (cart. coord. in units of alat)
               a(1) = (   7.152277   0.000000   0.000000 )
               a(2) = (   3.576139   6.194054   0.000000 )
               a(3) = (   0.000000   0.000000  25.839810 )

     reciprocal axes: (cart. coord. in units 2 pi/alat)
               b(1) = (  0.139816 -0.080723  0.000000 )
               b(2) = (  0.000000  0.161445  0.000000 )
               b(3) = (  0.000000  0.000000  0.038700 )

     PseudoPot. # 1 for Y  read from file:
     /u/if/mamunm/psp/gbrv1.5pbe/Y.UPF
     MD5 check sum: d034151ed7554c50b6e82763ed42c788
     Pseudo is Ultrasoft + core correction, Zval = 11.0
     Generated by new atomic code, or converted to UPF format
     Using radial grid of  885 points,  6 beta functions with:
                l(1) =   0
                l(2) =   0
                l(3) =   1
                l(4) =   1
                l(5) =   2
                l(6) =   2
     Q(r) pseudized with  8 coefficients,  rinner =    1.200   1.200   1.200
                                                       1.200   1.200

     PseudoPot. # 2 for O  read from file:
     /u/if/mamunm/psp/gbrv1.5pbe/O.UPF
     MD5 check sum: 734c27235a0248c51dbae37a1fbe46ec
     Pseudo is Ultrasoft + core correction, Zval =  6.0
     Generated by new atomic code, or converted to UPF format
     Using radial grid of  737 points,  5 beta functions with:
                l(1) =   0
                l(2) =   0
                l(3) =   1
                l(4) =   1
                l(5) =   2
     Q(r) pseudized with  8 coefficients,  rinner =    0.900   0.900   0.900
                                                       0.900   0.900

     vdW kernel table read from file vdW_kernel_table
     MD5 check sum: 095c7af220d748ca6e76c0b4c6cfb241

     atomic species   valence    mass     pseudopotential
        Y1            11.00    88.90584     Y ( 1.00)
        O1             6.00    15.99900     O ( 1.00)

     No symmetry found

   Cartesian axes

     site n.     atom                  positions (alat units)
         1           Y1  tau(   1) = (   1.7880693   1.0323423  10.0000000  )
         2           Y1  tau(   2) = (   5.3642080   1.0323423  10.0000000  )
         3           Y1  tau(   3) = (   3.5761386   4.1293692  10.0000000  )
         4           Y1  tau(   4) = (   7.1522773   4.1293692  10.0000000  )
         5           Y1  tau(   5) = (   7.1522773   2.0646846  12.9199050  )
         6           Y1  tau(   6) = (   3.5761386   2.0646846  12.9199050  )
         7           Y1  tau(   7) = (   8.9403466   5.1617115  12.9199050  )
         8           Y1  tau(   8) = (   5.3642080   5.1617115  12.9199050  )
         9           Y1  tau(   9) = (   0.0000000   0.0000000  15.8398100  )
        10           Y1  tau(  10) = (   3.5761386   0.0000000  15.8398100  )
        11           Y1  tau(  11) = (   1.7880693   3.0970269  15.8398100  )
        12           Y1  tau(  12) = (   5.3642080   3.0970269  15.8398100  )
        13           O1  tau(  13) = (   3.5761386   2.0646846  17.5038100  )

     number of k points=    20  Fermi-Dirac smearing, width (Ry)=  0.0110
                       cart. coord. in units 2pi/alat
        k(    1) = (   0.0000000   0.0000000   0.0000000), wk =   0.0555556
        k(    2) = (   0.0000000   0.0269075   0.0000000), wk =   0.1111111
        k(    3) = (   0.0000000   0.0538151   0.0000000), wk =   0.1111111
        k(    4) = (   0.0000000  -0.0807226   0.0000000), wk =   0.0555556
        k(    5) = (   0.0233026  -0.0134538   0.0000000), wk =   0.1111111
        k(    6) = (   0.0233026   0.0134538   0.0000000), wk =   0.1111111
        k(    7) = (   0.0233026   0.0403613   0.0000000), wk =   0.1111111
        k(    8) = (   0.0233026  -0.0941763   0.0000000), wk =   0.1111111
        k(    9) = (   0.0233026  -0.0672688   0.0000000), wk =   0.1111111
        k(   10) = (   0.0233026  -0.0403613   0.0000000), wk =   0.1111111
        k(   11) = (   0.0466052  -0.0269075   0.0000000), wk =   0.1111111
        k(   12) = (   0.0466052   0.0000000   0.0000000), wk =   0.1111111
        k(   13) = (   0.0466052   0.0269075   0.0000000), wk =   0.1111111
        k(   14) = (   0.0466052  -0.1076301   0.0000000), wk =   0.1111111
        k(   15) = (   0.0466052  -0.0807226   0.0000000), wk =   0.1111111
        k(   16) = (   0.0466052  -0.0538151   0.0000000), wk =   0.1111111
        k(   17) = (  -0.0699078   0.0403613   0.0000000), wk =   0.0555556
        k(   18) = (  -0.0699078   0.0672688   0.0000000), wk =   0.1111111
        k(   19) = (  -0.0699078   0.0941763   0.0000000), wk =   0.1111111
        k(   20) = (  -0.0699078  -0.0403613   0.0000000), wk =   0.0555556

     Largest allocated arrays     est. size (Mb)     dimensions
     Largest temporary arrays     est. size (Mb)     dimensions

     Initial potential from superposition of free atoms
     Check: negative starting charge=   -0.000692

     starting charge  137.94637, renormalised to  138.00000

     negative rho (up, down):  6.920E-04 0.000E+00

     *
     * You are using vdW-DF for exchange-correlation in this calculation.
     * Please cite the following three references that made this development
     * possible:
     *
     *   M. Dion, H. Rydberg, E. Schroder, D. C. Langreth, and
     *   B. I. Lundqvist, Phys. Rev. Lett. 92, 246401 (2004).
     *
     *   T. Thonhauser, V. R. Cooper, S. Li, A. Puzder, P. Hyldgaard, and
     *   D. C. Langreth, Phys. Rev. B 76, 125112 (2007).
     *
     *   G. Roman-Perez and J. M. Soler, Phys. Rev. Lett. 103, 096102 (2009).
     *
     *
     * If you are using vdW-DF2, please also cite:
     *
     *   K. Lee, E. D. Murray, L. Kong, B. I. Lundqvist, and
     *   D. C. Langreth, Phys. Rev. B 82, 081101(R) (2010).
     *
     *
     * If you are calculating the stress with vdW-DF, please also cite:
     *
     *   R. Sabatini, E. Kucukbenli, B. Kolb, T. Thonhauser, and
     *   S. de Gironcoli, J. Phys.: Condens. Matter 24, 424209 (2012).
     *

     Carrying out vdW-DF run using the following parameters:

     Nqs =      20    Nr_points =    1024   r_max =   100.000
     q_mesh =
               0.00001000     0.04494208     0.09755937     0.15916263
               0.23128650     0.31572767     0.41458969     0.53033537
               0.66584808     0.82450364     1.01025438     1.22772762
               1.48234092     1.78043706     2.12944203     2.53805004
               3.01644009     3.57652955     4.23227104     5.00000000

     Gradients computed in reciprocal space

     Adding external electric field

     Computed dipole along edir(3) :
        Dipole               -0.0202 Ry au,         -0.0513 Debye
        Dipole field         -0.0000 Ry au

        Potential amp.        0.0031 Ry
        Total length         47.6094 bohr

     Starting wfc are  160 randomized atomic wfcs

     Self-consistent Calculation

     iteration #  1     ecut=    36.75 Ry     beta=0.30
     Davidson diagonalization with overlap
     ethr =  1.00E-02,  avg # of iterations =  2.0

[...]

     total energy              =   -1155.01566276 Ry
     Harris-Foulkes estimate   =   -1157.52100565 Ry
     estimated scf accuracy    <       5.41805013 Ry

[...]

     End of self-consistent calculation

          k = 0.0000 0.0000 0.0000 ( 28997 PWs)   bands (ev):

   -42.7318 -42.6005 -42.5616 -42.5551 -42.5549 -42.5447 -42.5146 -42.5146
   -42.0528 -42.0131 -42.0131 -42.0025 -22.7995 -22.7568 -22.7568 -22.7048
   -22.7047 -22.7030 -22.6572 -22.6333 -22.5682 -22.5630 -22.5628 -22.5243
   -22.5009 -22.5008 -22.3974 -22.3974 -22.3810 -22.3809 -22.3793 -22.3603
   -22.2812 -22.2812 -22.2300 -22.2300 -22.1684 -22.1627 -22.1627 -21.9654
   -21.9408 -21.9408 -21.9325 -21.8762 -21.8657 -21.8657 -21.7720 -21.7720
   -15.3314  -3.5277  -2.6042  -1.6594  -1.5356  -1.5356  -1.3293  -0.8435
    -0.7848  -0.7848  -0.7303  -0.7303  -0.6579  -0.3200  -0.3200  -0.0534
     0.0806   0.0806   0.1351   0.5604   0.5649   0.5649   0.9321   1.3254
     1.4295   1.4379   1.4380   1.6044   1.6896   1.6896   1.9567

[...]

          k =-0.0699 0.0404 0.0000 ( 29048 PWs)   bands (ev):

[...]

     the Fermi energy is     0.7436 ev

!    total energy              =   -1156.95285132 Ry
     Harris-Foulkes estimate   =   -1156.95282701 Ry
     estimated scf accuracy    <       0.00000781 Ry

     The total energy is the sum of the following terms:

     one-electron contribution =   -5596.85715821 Ry
     hartree contribution      =    2792.47817030 Ry
     xc contribution           =    -346.32694747 Ry
     ewald contribution        =    1993.87407068 Ry
     electric field correction =       0.00029109 Ry
     smearing contrib. (-TS)   =      -0.12127772 Ry

     convergence has been achieved in  16 iterations

 BEEF-vdW xc energy contributions
           1 :   -301.951111931560
           2 :    270.947411502017
           3 :   -217.678771977149
           4 :    155.349182837802
           5 :   -96.1387112612830
           6 :    47.6074739934096
           7 :   -12.2414340542398
           8 :   -10.7178251215336
           9 :    23.0041159850159
          10 :   -26.0878053851304
          11 :    21.2940449008445
          12 :   -10.6208798434340
          13 :   -2.74755079427945
          14 :    14.8679707940277
          15 :   -22.2835013748551
          16 :    23.3086437076327
          17 :   -18.5129366128700
          18 :    10.1332064272495
          19 :  -0.882444813956340
          20 :   -7.08170030037974
          21 :    12.5518480081357
          22 :   -15.0981000954187
          23 :    14.7334912361124
          24 :   -11.7689335989689
          25 :    6.89420750030195
          26 :   -1.25440112986291
          27 :   -3.72925875900671
          28 :    6.81836898301992
          29 :   -7.45264620986541
          30 :    5.95329847596906
          31 :   -28.9646678488053
          32 :   -19.7700689208414

     Forces acting on atoms (Ry/au):

     negative rho (up, down):  2.610E-04 0.000E+00
     atom    1 type  1   force =     0.00037407    0.00021435    0.00390951
     atom    2 type  1   force =    -0.00034950    0.00022671    0.00391091
     atom    3 type  1   force =     0.00001153   -0.00043194    0.00391287
     atom    4 type  1   force =    -0.00004040    0.00000581    0.00328975
     atom    5 type  1   force =     0.00000558   -0.00296958    0.00280465
     atom    6 type  1   force =    -0.00001192    0.00002900   -0.01345650
     atom    7 type  1   force =     0.00260046    0.00148262    0.00279318
     atom    8 type  1   force =    -0.00258524    0.00146340    0.00278443
     atom    9 type  1   force =    -0.00001881    0.00000086   -0.01257774
     atom   10 type  1   force =     0.00000535    0.05429573    0.04927664
     atom   11 type  1   force =     0.04703047   -0.02714815    0.04927905
     atom   12 type  1   force =    -0.04702417   -0.02716445    0.04928371
     atom   13 type  2   force =     0.00000259   -0.00000436   -0.14521046

     Total force =     0.193328     Total SCF correction =     0.004504

     entering subroutine stress ...

     negative rho (up, down):  2.610E-04 0.000E+00
          total   stress  (Ry/bohr**3)                   (kbar)     P=   -7.82
  -0.00003805   0.00000000  -0.00000001         -5.60      0.00     -0.00
   0.00000000  -0.00003803  -0.00000001          0.00     -5.59     -0.00
  -0.00000001  -0.00000001  -0.00008342         -0.00     -0.00    -12.27

     BFGS Geometry Optimization

     number of scf cycles    =   1
     number of bfgs steps    =   0

     energy   new            =   -1156.9528513248 Ry

     new trust radius        =       0.1452104641 bohr
     new conv_thr            =       0.0000099958 Ry

ATOMIC_POSITIONS (crystal)
Y1       0.166666667   0.166666667   0.386999750    0   0   0
Y1       0.666666667   0.166666667   0.386999750    0   0   0
Y1       0.166666667   0.666666667   0.386999750    0   0   0
Y1       0.666666667   0.666666667   0.386999750    0   0   0
Y1       0.833333333   0.333333333   0.500000000    0   0   0
Y1       0.333333333   0.333333333   0.500000000    0   0   0
Y1       0.833333333   0.833333333   0.500000000    0   0   0
Y1       0.333333333   0.833333333   0.500000000    0   0   0
Y1      -0.000001428   0.000000074   0.612742668
Y1       0.497681069   0.004638653   0.614009393
Y1       0.004639330   0.497680649   0.614009443
Y1       0.497681183   0.497679257   0.614009538
O1       0.333333711   0.333332961   0.674423222

     Writing output data file calc.save
     Check: negative starting charge=   -0.000692
     NEW-OLD atomic charge density approx. for the potential
     Check: negative starting charge=   -0.000697

[...]

     energy   old            =   -1156.9528513248 Ry
     energy   new            =   -1156.9891195637 Ry

     CASE: energy  _new < energy  _old

     WARNING: bfgs curvature condition failed, Theta= 0.851
     new trust radius        =       0.1597315106 bohr
     new conv_thr            =       0.0000001000 Ry

[...]

     iteration #  1     ecut=    36.75 Ry     beta=0.30
     Davidson diagonalization with overlap
     c_bands:  2 eigenvalues not converged
     ethr =  1.00E-06,  avg # of iterations = 14.5

[...]

     WARNING: bfgs curvature condition failed, Theta= 0.986
     new trust radius        =       0.0419222491 bohr
     new conv_thr            =       0.0000001000 Ry

[...]

     iteration #  7     ecut=    36.75 Ry     beta=0.30
     Davidson diagonalization with overlap
     c_bands:  1 eigenvalues not converged
     ethr =  1.32E-07,  avg # of iterations =  3.8

[...]

     Total force =     0.005096     Total SCF correction =     0.000569
     SCF correction compared to forces is large: reduce conv_thr to get better values

[...]

     Total force =     0.004409     Total SCF correction =     0.000380

[...]

     number of scf cycles    =  22
     number of bfgs steps    =  21

     energy   old            =   -1157.1174239440 Ry
     energy   new            =   -1157.1175046882 Ry

     CASE: energy  _new < energy  _old

     new trust radius        =       0.0440179585 bohr
     new conv_thr            =       0.0000001000 Ry

ATOMIC_POSITIONS (crystal)
Y1       0.166666667   0.166666667   0.386999750    0   0   0
Y1       0.666666667   0.166666667   0.386999750    0   0   0
Y1       0.166666667   0.666666667   0.386999750    0   0   0
Y1       0.666666667   0.666666667   0.386999750    0   0   0
Y1       0.833333333   0.333333333   0.500000000    0   0   0
Y1       0.333333333   0.333333333   0.500000000    0   0   0
Y1       0.833333333   0.833333333   0.500000000    0   0   0
Y1       0.333333333   0.833333333   0.500000000    0   0   0
Y1      -0.000002614   0.000003594   0.604994696
Y1       0.499515853   0.000968129   0.615248782
Y1       0.000967926   0.499512653   0.615248786
Y1       0.499520686   0.499511578   0.615248561
O1       0.333333734   0.333332842   0.639867117

     Writing output data file calc.save
     Check: negative starting charge=   -0.000694
     NEW-OLD atomic charge density approx. for the potential
     Check: negative starting charge=   -0.000696

[...]

     Self-consistent Calculation

[...]

     total energy              =   -1157.11758167 Ry
     Harris-Foulkes estimate   =   -1157.11758167 Ry
     estimated scf accuracy    <       0.00000032 Ry

     iteration # 11     ecut=    36.75 Ry     beta=0.30
     Davidson diagonalization with overlap
     ethr =  2.30E-10,  avg # of iterations =  2.7

[...]

     negative rho (up, down):  2.212E-04 0.000E+00

     Adding external electric field

     Computed dipole along edir(3) :
        Dipole               -0.0075 Ry au,         -0.0191 Debye
        Dipole field         -0.0000 Ry au

        Potential amp.        0.0012 Ry
        Total length         47.6094 bohr

     End of self-consistent calculation

[...]

          k = 0.0466-0.0538 0.0000 ( 29098 PWs)   bands (ev):

[...]

          k =-0.0699-0.0404 0.0000 ( 29048 PWs)   bands (ev):

   -42.2749 -42.2582 -42.2433 -42.2367 -42.1733 -42.1598 -42.1456 -42.1100
   -41.8470 -41.6866 -41.6754 -41.6655 -22.7736 -22.3181 -22.3058 -22.2945
   -22.2828 -22.2471 -22.2390 -22.2294 -22.2155 -22.2122 -22.1920 -22.1882
   -22.1777 -22.1723 -22.1713 -22.1478 -22.1437 -22.1018 -22.0911 -22.0320
   -22.0223 -22.0096 -21.9565 -21.9123 -21.8408 -21.7961 -21.7642 -21.7460
   -21.6391 -21.6131 -21.6115 -21.5959 -21.5896 -21.5857 -21.5374 -21.4758
   -17.0340  -3.9972  -3.8201  -3.5740  -1.9875  -1.9137  -1.1281  -0.9294
    -0.3139  -0.2735  -0.1492   0.0153   0.0979   0.1371   0.7406   0.7597
     0.8127   0.8494   0.9240   0.9573   1.0398   1.0521   1.1501   1.1837
     1.2757   1.3332   1.4163   1.4213   1.5529   1.6375   1.6469

     the Fermi energy is     1.0550 ev

!    total energy              =   -1157.11758166 Ry
     Harris-Foulkes estimate   =   -1157.11758170 Ry
     estimated scf accuracy    <       0.00000007 Ry

     The total energy is the sum of the following terms:

     one-electron contribution =   -5744.85558139 Ry
     hartree contribution      =    2867.49335988 Ry
     xc contribution           =    -346.66110153 Ry
     ewald contribution        =    2067.03173325 Ry
     electric field correction =       0.00000009 Ry
     smearing contrib. (-TS)   =      -0.12599197 Ry

     convergence has been achieved in  11 iterations

 BEEF-vdW xc energy contributions
           1 :   -302.301660610347
           2 :    271.416667455106
           3 :   -218.223727603283
           4 :    155.801630807173
           5 :   -96.3534063558512
           6 :    47.5521812336746
           7 :   -11.9859866465263
           8 :   -11.0602726459055
           9 :    23.3252950120604
          10 :   -26.3116886007638
          11 :    21.3993216916178
          12 :   -10.6515069814719
          13 :   -2.71004229339678
          14 :    14.7651871876497
          15 :   -22.1234867627215
          16 :    23.1498075239857
          17 :   -18.4074349979047
          18 :    10.0846875352490
          19 :  -0.849567572264903
          20 :   -7.14725660800792
          21 :    12.6661854233649
          22 :   -15.2339170235927
          23 :    14.8439700527362
          24 :   -11.8269597805115
          25 :    6.91431021324206
          26 :   -1.27907341499531
          27 :   -3.66625474210201
          28 :    6.71801450616039
          29 :   -7.34278196103509
          30 :    5.85699936990017
          31 :   -28.9852724560521
          32 :   -19.8110328739123

     Forces acting on atoms (Ry/au):

     negative rho (up, down):  2.212E-04 0.000E+00
     atom    1 type  1   force =     0.00197285    0.00113858    0.00525537
     atom    2 type  1   force =    -0.00197288    0.00113877    0.00525534
     atom    3 type  1   force =     0.00000002   -0.00227788    0.00525549
     atom    4 type  1   force =    -0.00000025    0.00000003    0.00544706
     atom    5 type  1   force =     0.00000030    0.00129009   -0.00230199
     atom    6 type  1   force =     0.00000008   -0.00000074   -0.01338779
     atom    7 type  1   force =    -0.00111780   -0.00064494   -0.00230019
     atom    8 type  1   force =     0.00111708   -0.00064493   -0.00230025
     atom    9 type  1   force =     0.00000194   -0.00000550   -0.00033036
     atom   10 type  1   force =    -0.00000051    0.00095492    0.00036124
     atom   11 type  1   force =     0.00083243   -0.00047474    0.00036131
     atom   12 type  1   force =    -0.00083346   -0.00047448    0.00036212
     atom   13 type  2   force =     0.00000020    0.00000082   -0.00167735

     Total force =     0.002463     Total SCF correction =     0.000311
     SCF correction compared to forces is large: reduce conv_thr to get better values

     entering subroutine stress ...

     negative rho (up, down):  2.212E-04 0.000E+00
          total   stress  (Ry/bohr**3)                   (kbar)     P=    0.02
   0.00000934  -0.00000000  -0.00000000          1.37     -0.00     -0.00
  -0.00000000   0.00000934   0.00000000         -0.00      1.37      0.00
  -0.00000000   0.00000000  -0.00001819         -0.00      0.00     -2.68

     bfgs converged in  23 scf cycles and  22 bfgs steps
     (criteria: energy <  1.0E+00, force <  1.9E-03)

     End of BFGS Geometry Optimization

     Final energy   =   -1157.1175816571 Ry
Begin final coordinates

ATOMIC_POSITIONS (crystal)
Y1       0.166666667   0.166666667   0.386999750    0   0   0
Y1       0.666666667   0.166666667   0.386999750    0   0   0
Y1       0.166666667   0.666666667   0.386999750    0   0   0
Y1       0.666666667   0.666666667   0.386999750    0   0   0
Y1       0.833333333   0.333333333   0.500000000    0   0   0
Y1       0.333333333   0.333333333   0.500000000    0   0   0
Y1       0.833333333   0.833333333   0.500000000    0   0   0
Y1       0.333333333   0.833333333   0.500000000    0   0   0
Y1      -0.000002614   0.000003594   0.604994696
Y1       0.499515853   0.000968129   0.615248782
Y1       0.000967926   0.499512653   0.615248786
Y1       0.499520686   0.499511578   0.615248561
O1       0.333333734   0.333332842   0.639867117
End final coordinates

     Writing output data file calc.save

     General routines

     Parallel routines

   This run was terminated on:   5:19:29   3May2018

   JOB DONE.
Job  /afs/slac/g/suncat/bin/suncat-tsmpirun -x LD_LIBRARY_PATH -wdir /scratch/qe576843_1DSuV pw.x -npool 4 -in pw.inp

TID   HOST_NAME   COMMAND_LINE            STATUS            TERMINATION_TIME
00000 suncat0017 pw.x -npool 4 -i  Done                     05/03/2018 05:19:29
00001 suncat0017 pw.x -npool 4 -i  Done                     05/03/2018 05:19:29
00002 suncat0017 pw.x -npool 4 -i  Done                     05/03/2018 05:19:29
00003 suncat0017 pw.x -npool 4 -i  Done                     05/03/2018 05:19:29
00004 suncat0017 pw.x -npool 4 -i  Done                     05/03/2018 05:19:29
00005 suncat0017 pw.x -npool 4 -i  Done                     05/03/2018 05:19:29
00006 suncat0017 pw.x -npool 4 -i  Done                     05/03/2018 05:19:29
00007 suncat0017 pw.x -npool 4 -i  Done                     05/03/2018 05:19:29
00008 suncat0004 pw.x -npool 4 -i  Done                     05/03/2018 05:19:29
00009 suncat0004 pw.x -npool 4 -i  Done                     05/03/2018 05:19:29
00010 suncat0004 pw.x -npool 4 -i  Done                     05/03/2018 05:19:29
00011 suncat0004 pw.x -npool 4 -i  Done                     05/03/2018 05:19:29
00012 suncat0004 pw.x -npool 4 -i  Done                     05/03/2018 05:19:29
00013 suncat0004 pw.x -npool 4 -i  Done                     05/03/2018 05:19:29
00014 suncat0004 pw.x -npool 4 -i  Done                     05/03/2018 05:19:29
00015 suncat0004 pw.x -npool 4 -i  Done                     05/03/2018 05:19:29
00016 suncat0135 pw.x -npool 4 -i  Done                     05/03/2018 05:19:29
00017 suncat0135 pw.x -npool 4 -i  Done                     05/03/2018 05:19:29
00018 suncat0135 pw.x -npool 4 -i  Done                     05/03/2018 05:19:29
00019 suncat0135 pw.x -npool 4 -i  Done                     05/03/2018 05:19:29
00020 suncat0135 pw.x -npool 4 -i  Done                     05/03/2018 05:19:29
00021 suncat0135 pw.x -npool 4 -i  Done                     05/03/2018 05:19:29
00022 suncat0135 pw.x -npool 4 -i  Done                     05/03/2018 05:19:29
00023 suncat0135 pw.x -npool 4 -i  Done                     05/03/2018 05:19:29
00024 suncat0282 pw.x -npool 4 -i  Done                     05/03/2018 05:19:29
00025 suncat0282 pw.x -npool 4 -i  Done                     05/03/2018 05:19:29
00026 suncat0282 pw.x -npool 4 -i  Done                     05/03/2018 05:19:29
00027 suncat0282 pw.x -npool 4 -i  Done                     05/03/2018 05:19:29
00028 suncat0282 pw.x -npool 4 -i  Done                     05/03/2018 05:19:29
00029 suncat0282 pw.x -npool 4 -i  Done                     05/03/2018 05:19:29
00030 suncat0282 pw.x -npool 4 -i  Done                     05/03/2018 05:19:29
00031 suncat0282 pw.x -npool 4 -i  Done                     05/03/2018 05:19:29