     Program PWSCF v.5.1rc2 (svn rev. 11289) starts on 16Apr2018 at 11:11: 5

     Current dimensions of program PWSCF are:
     Max number of different atomic species (ntypx) = 10
     Max number of k-points (npk) =  40000
     Max angular momentum in pseudopotentials (lmaxx) =  3
     Presently stress not available with electric field

     IMPORTANT: XC functional enforced from input :
     Exchange-correlation      = BEEF-VDW ( 1  4 27 13 2)
     Any further DFT definition will be discarded
     Please, verify this is what you really want

     Subspace diagonalization in iterative solution of the eigenvalue problem:
     a serial algorithm will be used

     bravais-lattice index     =            0
     lattice parameter (alat)  =       1.8897  a.u.
     unit-cell volume          =    4650.5773 (a.u.)^3
     number of atoms/cell      =           14
     number of atomic types    =            3
     number of electrons       =        41.00
     number of Kohn-Sham states=           30
     kinetic-energy cutoff     =      36.7493  Ry
     charge density cutoff     =     367.4932  Ry
     convergence threshold     =      1.0E-05
     mixing beta               =       0.3000
     number of iterations used =           10  plain     mixing
     Exchange-correlation      = BEEF-VDW ( 1  4 27 13 2)
     nstep                     =           50

     celldm(1)=   1.889726  celldm(2)=   0.000000  celldm(3)=   0.000000
     celldm(4)=   0.000000  celldm(5)=   0.000000  celldm(6)=   0.000000

     crystal axes: (cart. coord. in units of alat)
               a(1) = (   5.682886   0.000000   0.000000 )
               a(2) = (   2.841443   4.921524   0.000000 )
               a(3) = (   0.000000   0.000000  24.640057 )

     reciprocal axes: (cart. coord. in units 2 pi/alat)
               b(1) = (  0.175967 -0.101595  0.000000 )
               b(2) = (  0.000000  0.203189  0.000000 )
               b(3) = (  0.000000  0.000000  0.040584 )

     PseudoPot. # 1 for Al read from file:
     /u/if/mamunm/psp/gbrv1.5pbe/Al.UPF
     MD5 check sum: 0a6289f5291fc8f409219462bc851e1f
     Pseudo is Ultrasoft + core correction, Zval =  3.0
     Generated by new atomic code, or converted to UPF format
     Using radial grid of  893 points,  3 beta functions with:
                l(1) =   0
                l(2) =   1
                l(3) =   2
     Q(r) pseudized with  8 coefficients,  rinner =    0.900   0.900   0.900
                                                       0.900   0.900

     PseudoPot. # 2 for C  read from file:
     /u/if/mamunm/psp/gbrv1.5pbe/C.UPF
     MD5 check sum: d1aef80898a10debaa0f26306b886e00
     Pseudo is Ultrasoft + core correction, Zval =  4.0
     Generated by new atomic code, or converted to UPF format
     Using radial grid of  721 points,  4 beta functions with:
                l(1) =   0
                l(2) =   0
                l(3) =   1
                l(4) =   1
     Q(r) pseudized with  8 coefficients,  rinner =    1.100   1.100   1.100

     PseudoPot. # 3 for H  read from file:
     /u/if/mamunm/psp/gbrv1.5pbe/H.UPF
     MD5 check sum: 761ae9a214b05c3daf00ab9f6b793d6f
     Pseudo is Ultrasoft, Zval =  1.0
     Generated by new atomic code, or converted to UPF format
     Using radial grid of  615 points,  2 beta functions with:
                l(1) =   0
                l(2) =   0
     Q(r) pseudized with  8 coefficients,  rinner =    0.700

     vdW kernel table read from file vdW_kernel_table
     MD5 check sum: 095c7af220d748ca6e76c0b4c6cfb241

     atomic species   valence    mass     pseudopotential
        Al1            3.00    26.98154     Al( 1.00)
        C1             4.00    12.01100     C ( 1.00)
        H1             1.00     1.00800     H ( 1.00)

     No symmetry found

   Cartesian axes

     site n.     atom                  positions (alat units)
         1           Al1 tau(   1) = (   1.4207216   0.8202540  10.0000000  )
         2           Al1 tau(   2) = (   4.2621647   0.8202540  10.0000000  )
         3           Al1 tau(   3) = (   2.8414431   3.2810159  10.0000000  )
         4           Al1 tau(   4) = (   5.6828862   3.2810159  10.0000000  )
         5           Al1 tau(   5) = (   5.6828862   1.6405079  12.3200286  )
         6           Al1 tau(   6) = (   2.8414431   1.6405079  12.3200286  )
         7           Al1 tau(   7) = (   7.1036078   4.1012699  12.3200286  )
         8           Al1 tau(   8) = (   4.2621647   4.1012699  12.3200286  )
         9           Al1 tau(   9) = (   0.0000000   0.0000000  14.6400572  )
        10           Al1 tau(  10) = (   2.8414431   0.0000000  14.6400572  )
        11           Al1 tau(  11) = (   1.4207216   2.4607619  14.6400572  )
        12           Al1 tau(  12) = (   4.2621647   2.4607619  14.6400572  )
        13           C1  tau(  13) = (   2.8414431   1.6405079  15.9205572  )
        14           H1  tau(  14) = (   2.8414431   1.6405079  17.0205572  )

     number of k points=    20  Fermi-Dirac smearing, width (Ry)=  0.0110
                       cart. coord. in units 2pi/alat
        k(    1) = (   0.0000000   0.0000000   0.0000000), wk =   0.0555556
        k(    2) = (   0.0000000   0.0338648   0.0000000), wk =   0.1111111
        k(    3) = (   0.0000000   0.0677297   0.0000000), wk =   0.1111111
        k(    4) = (   0.0000000  -0.1015945   0.0000000), wk =   0.0555556
        k(    5) = (   0.0293278  -0.0169324   0.0000000), wk =   0.1111111
        k(    6) = (   0.0293278   0.0169324   0.0000000), wk =   0.1111111
        k(    7) = (   0.0293278   0.0507973   0.0000000), wk =   0.1111111
        k(    8) = (   0.0293278  -0.1185270   0.0000000), wk =   0.1111111
        k(    9) = (   0.0293278  -0.0846621   0.0000000), wk =   0.1111111
        k(   10) = (   0.0293278  -0.0507973   0.0000000), wk =   0.1111111
        k(   11) = (   0.0586556  -0.0338648   0.0000000), wk =   0.1111111
        k(   12) = (   0.0586556   0.0000000   0.0000000), wk =   0.1111111
        k(   13) = (   0.0586556   0.0338648   0.0000000), wk =   0.1111111
        k(   14) = (   0.0586556  -0.1354594   0.0000000), wk =   0.1111111
        k(   15) = (   0.0586556  -0.1015945   0.0000000), wk =   0.1111111
        k(   16) = (   0.0586556  -0.0677297   0.0000000), wk =   0.1111111
        k(   17) = (  -0.0879835   0.0507973   0.0000000), wk =   0.0555556
        k(   18) = (  -0.0879835   0.0846621   0.0000000), wk =   0.1111111
        k(   19) = (  -0.0879835   0.1185270   0.0000000), wk =   0.1111111
        k(   20) = (  -0.0879835  -0.0507973   0.0000000), wk =   0.0555556

     Largest allocated arrays     est. size (Mb)     dimensions
     Largest temporary arrays     est. size (Mb)     dimensions

     Initial potential from superposition of free atoms
     Check: negative starting charge=   -0.000167

     starting charge   40.97037, renormalised to   41.00000

     negative rho (up, down):  1.675E-04 0.000E+00

     *
     * You are using vdW-DF for exchange-correlation in this calculation.
     * Please cite the following three references that made this development
     * possible:
     *
     *   M. Dion, H. Rydberg, E. Schroder, D. C. Langreth, and
     *   B. I. Lundqvist, Phys. Rev. Lett. 92, 246401 (2004).
     *
     *   T. Thonhauser, V. R. Cooper, S. Li, A. Puzder, P. Hyldgaard, and
     *   D. C. Langreth, Phys. Rev. B 76, 125112 (2007).
     *
     *   G. Roman-Perez and J. M. Soler, Phys. Rev. Lett. 103, 096102 (2009).
     *
     *
     * If you are using vdW-DF2, please also cite:
     *
     *   K. Lee, E. D. Murray, L. Kong, B. I. Lundqvist, and
     *   D. C. Langreth, Phys. Rev. B 82, 081101(R) (2010).
     *
     *
     * If you are calculating the stress with vdW-DF, please also cite:
     *
     *   R. Sabatini, E. Kucukbenli, B. Kolb, T. Thonhauser, and
     *   S. de Gironcoli, J. Phys.: Condens. Matter 24, 424209 (2012).
     *

     Carrying out vdW-DF run using the following parameters:

     Nqs =      20    Nr_points =    1024   r_max =   100.000
     q_mesh =
               0.00001000     0.04494208     0.09755937     0.15916263
               0.23128650     0.31572767     0.41458969     0.53033537
               0.66584808     0.82450364     1.01025438     1.22772762
               1.48234092     1.78043706     2.12944203     2.53805004
               3.01644009     3.57652955     4.23227104     5.00000000

     Gradients computed in reciprocal space

     Adding external electric field

     Computed dipole along edir(3) :
        Dipole               -0.0258 Ry au,         -0.0655 Debye
        Dipole field         -0.0001 Ry au

        Potential amp.        0.0063 Ry
        Total length         45.3989 bohr

     Starting wfc are   53 randomized atomic wfcs

     Self-consistent Calculation

     iteration #  1     ecut=    36.75 Ry     beta=0.30
     Davidson diagonalization with overlap
     ethr =  1.00E-02,  avg # of iterations =  3.0

[...]

     total energy              =     -94.59598917 Ry
     Harris-Foulkes estimate   =     -95.47392173 Ry
     estimated scf accuracy    <       2.03147571 Ry

[...]

     End of self-consistent calculation

          k = 0.0000 0.0000 0.0000 ( 17579 PWs)   bands (ev):

   -12.3982 -11.1107  -9.3538  -7.0124  -6.0439  -5.5122  -5.5122  -5.3811
    -5.3213  -5.3213  -4.8471  -4.1622  -4.1622  -3.9775  -3.9775  -3.7474
    -3.3928  -2.3132  -2.3132  -2.2878  -1.0763  -0.8440  -0.8440  -0.0986
     0.4488   0.4488   0.8594   1.9612   1.9880   1.9880

[...]

          k =-0.0880 0.0508 0.0000 ( 17464 PWs)   bands (ev):

[...]

     the Fermi energy is    -0.6244 ev

!    total energy              =     -95.14116984 Ry
     Harris-Foulkes estimate   =     -95.14117164 Ry
     estimated scf accuracy    <       0.00000352 Ry

     The total energy is the sum of the following terms:

     one-electron contribution =    -741.37134027 Ry
     hartree contribution      =     379.13823339 Ry
     xc contribution           =     -57.61372241 Ry
     ewald contribution        =     324.73658505 Ry
     electric field correction =       0.00000768 Ry
     smearing contrib. (-TS)   =      -0.03093329 Ry

     convergence has been achieved in  10 iterations

 BEEF-vdW xc energy contributions
           1 :   -47.3213180830597
           2 :    40.6645555808679
           3 :   -30.4691886958880
           4 :    20.7661140550808
           5 :   -14.1108980507682
           6 :    10.6451283938064
           7 :   -8.87405942567475
           8 :    7.26220890199824
           9 :   -5.34271789105706
          10 :    3.64439893627282
          11 :   -2.80693129584280
          12 :    2.82740606171105
          13 :   -3.07847315995993
          14 :    2.92970198648895
          15 :   -2.28749512736741
          16 :    1.56145781825337
          17 :   -1.17758010964685
          18 :    1.16033438226189
          19 :   -1.16999483412391
          20 :   0.890656174393925
          21 :  -0.343305760525482
          22 :  -0.169267774982835
          23 :   0.384303306890523
          24 :  -0.324924849540210
          25 :   0.241846954595758
          26 :  -0.342758549175599
          27 :   0.594134762864002
          28 :  -0.780583864465285
          29 :   0.737373904199643
          30 :  -0.513547996950678
          31 :   -7.07882167874370
          32 :   -5.17323635008810

     Forces acting on atoms (Ry/au):

     negative rho (up, down):  4.255E-04 0.000E+00
     atom    1 type  1   force =     0.00172678    0.00099701   -0.00015530
     atom    2 type  1   force =    -0.00172671    0.00099678   -0.00015489
     atom    3 type  1   force =    -0.00000002   -0.00199436   -0.00015466
     atom    4 type  1   force =     0.00000002    0.00000024   -0.00302908
     atom    5 type  1   force =     0.00000017   -0.00366417    0.00407690
     atom    6 type  1   force =    -0.00000000   -0.00000026    0.00424486
     atom    7 type  1   force =     0.00317296    0.00183229    0.00407701
     atom    8 type  1   force =    -0.00317311    0.00183209    0.00407716
     atom    9 type  1   force =    -0.00000000    0.00000018   -0.01597247
     atom   10 type  1   force =    -0.00000031   -0.00313203    0.03088616
     atom   11 type  1   force =    -0.00271201    0.00156590    0.03088654
     atom   12 type  1   force =     0.00271184    0.00156595    0.03088683
     atom   13 type  2   force =     0.00000033    0.00000024   -0.07924384
     atom   14 type  3   force =     0.00000005    0.00000013   -0.01042520

     Total force =     0.097646     Total SCF correction =     0.000935

     entering subroutine stress ...

     negative rho (up, down):  4.255E-04 0.000E+00
          total   stress  (Ry/bohr**3)                   (kbar)     P=   -8.19
  -0.00005326  -0.00000000   0.00000000         -7.83     -0.00      0.00
  -0.00000000  -0.00005326   0.00000000         -0.00     -7.83      0.00
   0.00000000   0.00000000  -0.00006053          0.00      0.00     -8.90

     BFGS Geometry Optimization

     number of scf cycles    =   1
     number of bfgs steps    =   0

     energy   new            =     -95.1411698449 Ry

     new trust radius        =       0.0792438379 bohr
     new conv_thr            =       0.0000099958 Ry

ATOMIC_POSITIONS (crystal)
Al1      0.166666667   0.166666667   0.405843214    0   0   0
Al1      0.666666667   0.166666667   0.405843214    0   0   0
Al1      0.166666667   0.666666667   0.405843214    0   0   0
Al1      0.666666667   0.666666667   0.405843214    0   0   0
Al1      0.833333333   0.333333333   0.500000000    0   0   0
Al1      0.333333333   0.333333333   0.500000000    0   0   0
Al1      0.833333333   0.833333333   0.500000000    0   0   0
Al1      0.333333333   0.833333333   0.500000000    0   0   0
Al1     -0.000000010   0.000000020   0.593813756
Al1      0.500168354  -0.000336766   0.594820106
Al1     -0.000336721   0.500168370   0.594820115
Al1      0.500168332   0.500168375   0.594820121
C1       0.333333351   0.333333360   0.644423145
H1       0.333333331   0.333333348   0.690543868

     Writing output data file calc.save
     Check: negative starting charge=   -0.000167
     NEW-OLD atomic charge density approx. for the potential
     Check: negative starting charge=   -0.000163

[...]

     energy   old            =     -95.1411698449 Ry
     energy   new            =     -95.1481234921 Ry

     CASE: energy  _new < energy  _old

[...]

     Threshold (ethr) on eigenvalues was too large:
     Diagonalizing with lowered threshold

     Davidson diagonalization with overlap
     ethr =  2.68E-08,  avg # of iterations =  2.2

[...]

     Total force =     0.002851     Total SCF correction =     0.000151

[...]

     number of scf cycles    =  17
     number of bfgs steps    =  16

     energy   old            =     -95.1714471275 Ry
     energy   new            =     -95.1714975448 Ry

     CASE: energy  _new < energy  _old

     new trust radius        =       0.0025748090 bohr
     new conv_thr            =       0.0000001000 Ry

ATOMIC_POSITIONS (crystal)
Al1      0.166666667   0.166666667   0.405843214    0   0   0
Al1      0.666666667   0.166666667   0.405843214    0   0   0
Al1      0.166666667   0.666666667   0.405843214    0   0   0
Al1      0.666666667   0.666666667   0.405843214    0   0   0
Al1      0.833333333   0.333333333   0.500000000    0   0   0
Al1      0.333333333   0.333333333   0.500000000    0   0   0
Al1      0.833333333   0.833333333   0.500000000    0   0   0
Al1      0.333333333   0.833333333   0.500000000    0   0   0
Al1      0.000000037   0.000000009   0.588993308
Al1      0.508873354  -0.017746756   0.595951656
Al1     -0.017746793   0.508873392   0.595951660
Al1      0.508873360   0.508873423   0.595951658
C1       0.333333331   0.333333342   0.634744453
H1       0.333333316   0.333333366   0.679262013

     Writing output data file calc.save
     Check: negative starting charge=   -0.000159
     NEW-OLD atomic charge density approx. for the potential
     Check: negative starting charge=   -0.000159

[...]

     Self-consistent Calculation

[...]

     Threshold (ethr) on eigenvalues was too large:
     Diagonalizing with lowered threshold

     Davidson diagonalization with overlap
     ethr =  9.49E-09,  avg # of iterations =  2.2

[...]

     total energy              =     -95.17150233 Ry
     Harris-Foulkes estimate   =     -95.17150239 Ry
     estimated scf accuracy    <       0.00000025 Ry

     iteration #  5     ecut=    36.75 Ry     beta=0.30
     Davidson diagonalization with overlap
     ethr =  6.02E-10,  avg # of iterations =  2.0

[...]

     negative rho (up, down):  4.478E-04 0.000E+00

     Adding external electric field

     Computed dipole along edir(3) :
        Dipole                0.0148 Ry au,          0.0376 Debye
        Dipole field          0.0000 Ry au

        Potential amp.       -0.0036 Ry
        Total length         45.3989 bohr

     End of self-consistent calculation

[...]

          k = 0.0587-0.0677 0.0000 ( 17495 PWs)   bands (ev):

[...]

          k =-0.0880-0.0508 0.0000 ( 17464 PWs)   bands (ev):

   -12.5555  -9.8078  -9.5504  -8.2103  -7.8606  -6.9010  -6.8216  -5.8922
    -5.6865  -5.4642  -5.2149  -3.4818  -3.4168  -3.1827  -2.3315  -1.8628
    -1.6276  -0.9975  -0.9408  -0.6835  -0.3159  -0.1953   0.4831   0.6402
     1.0475   1.1221   1.4693   1.6524   1.9906   2.2070

     the Fermi energy is    -0.5214 ev

!    total energy              =     -95.17150234 Ry
     Harris-Foulkes estimate   =     -95.17150235 Ry
     estimated scf accuracy    <       0.00000007 Ry

     The total energy is the sum of the following terms:

     one-electron contribution =    -756.29530055 Ry
     hartree contribution      =     386.71837464 Ry
     xc contribution           =     -57.76990646 Ry
     ewald contribution        =     332.20365880 Ry
     electric field correction =       0.00000059 Ry
     smearing contrib. (-TS)   =      -0.02832936 Ry

     convergence has been achieved in   5 iterations

 BEEF-vdW xc energy contributions
           1 :   -47.4699156087822
           2 :    40.8175705873867
           3 :   -30.6026118739276
           4 :    20.8360712169310
           5 :   -14.0821476210793
           6 :    10.5130742614371
           7 :   -8.66920340242014
           8 :    7.03456053502938
           9 :   -5.13564324529288
          10 :    3.47527342898060
          11 :   -2.66767591957820
          12 :    2.70269602481388
          13 :   -2.96386848142993
          14 :    2.83353086504852
          15 :   -2.21804907425450
          16 :    1.51420707310628
          17 :   -1.13739550644534
          18 :    1.11850968912163
          19 :   -1.13693143266689
          20 :   0.889404614745018
          21 :  -0.390624497275454
          22 :  -7.453363304077243E-002
          23 :   0.253912214202231
          24 :  -0.164673407566255
          25 :   4.535460413416104E-002
          26 :  -0.103249924169106
          27 :   0.321769535291828
          28 :  -0.504783762943646
          29 :   0.488454008146064
          30 :  -0.300297557538386
          31 :   -7.08934124029594
          32 :   -5.18059547435432

     Forces acting on atoms (Ry/au):

     negative rho (up, down):  4.478E-04 0.000E+00
     atom    1 type  1   force =     0.00342018    0.00197464   -0.00082774
     atom    2 type  1   force =    -0.00342018    0.00197464   -0.00082774
     atom    3 type  1   force =     0.00000000   -0.00394928   -0.00082774
     atom    4 type  1   force =    -0.00000000    0.00000000   -0.00291350
     atom    5 type  1   force =    -0.00000000    0.00073220    0.00304897
     atom    6 type  1   force =    -0.00000000    0.00000000   -0.00350490
     atom    7 type  1   force =    -0.00063409   -0.00036610    0.00304899
     atom    8 type  1   force =     0.00063410   -0.00036610    0.00304895
     atom    9 type  1   force =    -0.00000007    0.00000000   -0.00014086
     atom   10 type  1   force =     0.00000005   -0.00012811   -0.00008763
     atom   11 type  1   force =    -0.00011093    0.00006407   -0.00008765
     atom   12 type  1   force =     0.00011094    0.00006402   -0.00008764
     atom   13 type  2   force =    -0.00000000    0.00000002   -0.00055607
     atom   14 type  3   force =     0.00000000   -0.00000001    0.00071457

     Total force =     0.000955     Total SCF correction =     0.000158
     SCF correction compared to forces is large: reduce conv_thr to get better values

     entering subroutine stress ...

     negative rho (up, down):  4.478E-04 0.000E+00
          total   stress  (Ry/bohr**3)                   (kbar)     P=   -2.52
  -0.00002805   0.00000000  -0.00000000         -4.13      0.00     -0.00
   0.00000000  -0.00002805  -0.00000000          0.00     -4.13     -0.00
  -0.00000000  -0.00000000   0.00000472         -0.00     -0.00      0.69

     bfgs converged in  18 scf cycles and  17 bfgs steps
     (criteria: energy <  1.0E+00, force <  1.9E-03)

     End of BFGS Geometry Optimization

     Final energy   =     -95.1715023414 Ry
Begin final coordinates

ATOMIC_POSITIONS (crystal)
Al1      0.166666667   0.166666667   0.405843214    0   0   0
Al1      0.666666667   0.166666667   0.405843214    0   0   0
Al1      0.166666667   0.666666667   0.405843214    0   0   0
Al1      0.666666667   0.666666667   0.405843214    0   0   0
Al1      0.833333333   0.333333333   0.500000000    0   0   0
Al1      0.333333333   0.333333333   0.500000000    0   0   0
Al1      0.833333333   0.833333333   0.500000000    0   0   0
Al1      0.333333333   0.833333333   0.500000000    0   0   0
Al1      0.000000037   0.000000009   0.588993308
Al1      0.508873354  -0.017746756   0.595951656
Al1     -0.017746793   0.508873392   0.595951660
Al1      0.508873360   0.508873423   0.595951658
C1       0.333333331   0.333333342   0.634744453
H1       0.333333316   0.333333366   0.679262013
End final coordinates

     Writing output data file calc.save

     General routines

     Parallel routines

   This run was terminated on:  11:49:33  16Apr2018

   JOB DONE.
Job  /afs/slac/g/suncat/bin/suncat-tsmpirun -x LD_LIBRARY_PATH -wdir /scratch/qe110541_jpCtg pw.x -npool 4 -in pw.inp

TID   HOST_NAME   COMMAND_LINE            STATUS            TERMINATION_TIME
00000 suncat0066 pw.x -npool 4 -i  Done                     04/16/2018 11:49:33
00001 suncat0066 pw.x -npool 4 -i  Done                     04/16/2018 11:49:33
00002 suncat0066 pw.x -npool 4 -i  Done                     04/16/2018 11:49:33
00003 suncat0066 pw.x -npool 4 -i  Done                     04/16/2018 11:49:33
00004 suncat0066 pw.x -npool 4 -i  Done                     04/16/2018 11:49:33
00005 suncat0066 pw.x -npool 4 -i  Done                     04/16/2018 11:49:33
00006 suncat0066 pw.x -npool 4 -i  Done                     04/16/2018 11:49:33
00007 suncat0066 pw.x -npool 4 -i  Done                     04/16/2018 11:49:33
00008 suncat0062 pw.x -npool 4 -i  Done                     04/16/2018 11:49:33
00009 suncat0062 pw.x -npool 4 -i  Done                     04/16/2018 11:49:33
00010 suncat0062 pw.x -npool 4 -i  Done                     04/16/2018 11:49:33
00011 suncat0062 pw.x -npool 4 -i  Done                     04/16/2018 11:49:33
00012 suncat0062 pw.x -npool 4 -i  Done                     04/16/2018 11:49:33
00013 suncat0062 pw.x -npool 4 -i  Done                     04/16/2018 11:49:33
00014 suncat0062 pw.x -npool 4 -i  Done                     04/16/2018 11:49:33
00015 suncat0062 pw.x -npool 4 -i  Done                     04/16/2018 11:49:33
00016 suncat0167 pw.x -npool 4 -i  Done                     04/16/2018 11:49:33
00017 suncat0167 pw.x -npool 4 -i  Done                     04/16/2018 11:49:33
00018 suncat0167 pw.x -npool 4 -i  Done                     04/16/2018 11:49:33
00019 suncat0167 pw.x -npool 4 -i  Done                     04/16/2018 11:49:33
00020 suncat0167 pw.x -npool 4 -i  Done                     04/16/2018 11:49:33
00021 suncat0167 pw.x -npool 4 -i  Done                     04/16/2018 11:49:33
00022 suncat0167 pw.x -npool 4 -i  Done                     04/16/2018 11:49:33
00023 suncat0167 pw.x -npool 4 -i  Done                     04/16/2018 11:49:33
00024 suncat0162 pw.x -npool 4 -i  Done                     04/16/2018 11:49:33
00025 suncat0162 pw.x -npool 4 -i  Done                     04/16/2018 11:49:33
00026 suncat0162 pw.x -npool 4 -i  Done                     04/16/2018 11:49:33
00027 suncat0162 pw.x -npool 4 -i  Done                     04/16/2018 11:49:33
00028 suncat0162 pw.x -npool 4 -i  Done                     04/16/2018 11:49:33
00029 suncat0162 pw.x -npool 4 -i  Done                     04/16/2018 11:49:33
00030 suncat0162 pw.x -npool 4 -i  Done                     04/16/2018 11:49:33
00031 suncat0162 pw.x -npool 4 -i  Done                     04/16/2018 11:49:33