     Program PWSCF v.5.1rc2 (svn rev. 11289) starts on 23Apr2018 at  8:28:58

     Current dimensions of program PWSCF are:
     Max number of different atomic species (ntypx) = 10
     Max number of k-points (npk) =  40000
     Max angular momentum in pseudopotentials (lmaxx) =  3
     Presently stress not available with electric field

     IMPORTANT: XC functional enforced from input :
     Exchange-correlation      = BEEF-VDW ( 1  4 27 13 2)
     Any further DFT definition will be discarded
     Please, verify this is what you really want

     Subspace diagonalization in iterative solution of the eigenvalue problem:
     a serial algorithm will be used

     bravais-lattice index     =            0
     lattice parameter (alat)  =       1.8897  a.u.
     unit-cell volume          =    5185.0501 (a.u.)^3
     number of atoms/cell      =           14
     number of atomic types    =            3
     number of electrons       =       162.00
     number of Kohn-Sham states=           91
     kinetic-energy cutoff     =      36.7493  Ry
     charge density cutoff     =     367.4932  Ry
     convergence threshold     =      1.0E-05
     mixing beta               =       0.3000
     number of iterations used =           10  plain     mixing
     Exchange-correlation      = BEEF-VDW ( 1  4 27 13 2)
     nstep                     =           50

     celldm(1)=   1.889726  celldm(2)=   0.000000  celldm(3)=   0.000000
     celldm(4)=   0.000000  celldm(5)=   0.000000  celldm(6)=   0.000000

     crystal axes: (cart. coord. in units of alat)
               a(1) = (   5.972022   0.000000   0.000000 )
               a(2) = (   2.986011   5.171923   0.000000 )
               a(3) = (   0.000000   0.000000  24.876136 )

     reciprocal axes: (cart. coord. in units 2 pi/alat)
               b(1) = (  0.167447 -0.096676  0.000000 )
               b(2) = (  0.000000  0.193352  0.000000 )
               b(3) = (  0.000000  0.000000  0.040199 )

     PseudoPot. # 1 for Ta read from file:
     /u/if/mamunm/psp/gbrv1.5pbe/Ta.UPF
     MD5 check sum: f8bbe9446314a3b8ea5d9f3e3836c939
     Pseudo is Ultrasoft + core correction, Zval = 13.0
     Generated by new atomic code, or converted to UPF format
     Using radial grid of  921 points,  7 beta functions with:
                l(1) =   0
                l(2) =   0
                l(3) =   1
                l(4) =   1
                l(5) =   2
                l(6) =   2
                l(7) =   3
     Q(r) pseudized with  6 coefficients,  rinner =    1.300   1.300   1.300
                                                       1.300   1.300   1.300
                                                       1.300

     PseudoPot. # 2 for N  read from file:
     /u/if/mamunm/psp/gbrv1.5pbe/N.UPF
     MD5 check sum: 95339753478d7afb44899504a8723017
     Pseudo is Ultrasoft + core correction, Zval =  5.0
     Generated by new atomic code, or converted to UPF format
     Using radial grid of  729 points,  4 beta functions with:
                l(1) =   0
                l(2) =   0
                l(3) =   1
                l(4) =   1
     Q(r) pseudized with  8 coefficients,  rinner =    0.900   0.900   0.900

     PseudoPot. # 3 for H  read from file:
     /u/if/mamunm/psp/gbrv1.5pbe/H.UPF
     MD5 check sum: 761ae9a214b05c3daf00ab9f6b793d6f
     Pseudo is Ultrasoft, Zval =  1.0
     Generated by new atomic code, or converted to UPF format
     Using radial grid of  615 points,  2 beta functions with:
                l(1) =   0
                l(2) =   0
     Q(r) pseudized with  8 coefficients,  rinner =    0.700

     vdW kernel table read from file vdW_kernel_table
     MD5 check sum: 095c7af220d748ca6e76c0b4c6cfb241

     atomic species   valence    mass     pseudopotential
        Ta1           13.00   180.94788     Ta( 1.00)
        N1             5.00    14.00700     N ( 1.00)
        H1             1.00     1.00800     H ( 1.00)

     No symmetry found

   Cartesian axes

     site n.     atom                  positions (alat units)
         1           Ta1 tau(   1) = (   1.4930055   0.8619871  10.0000000  )
         2           Ta1 tau(   2) = (   4.4790165   0.8619871  10.0000000  )
         3           Ta1 tau(   3) = (   2.9860110   3.4479485  10.0000000  )
         4           Ta1 tau(   4) = (   5.9720221   3.4479485  10.0000000  )
         5           Ta1 tau(   5) = (   5.9720221   1.7239743  12.4380678  )
         6           Ta1 tau(   6) = (   2.9860110   1.7239743  12.4380678  )
         7           Ta1 tau(   7) = (   7.4650276   4.3099357  12.4380678  )
         8           Ta1 tau(   8) = (   4.4790165   4.3099357  12.4380678  )
         9           Ta1 tau(   9) = (   0.0000000   0.0000000  14.8761356  )
        10           Ta1 tau(  10) = (   2.9860110   0.0000000  14.8761356  )
        11           Ta1 tau(  11) = (   1.4930055   2.5859614  14.8761356  )
        12           Ta1 tau(  12) = (   4.4790165   2.5859614  14.8761356  )
        13           N1  tau(  13) = (   1.4930055   0.8619871  16.4426356  )
        14           H1  tau(  14) = (   1.4930055   0.8619871  17.4926356  )

     number of k points=    20  Fermi-Dirac smearing, width (Ry)=  0.0110
                       cart. coord. in units 2pi/alat
        k(    1) = (   0.0000000   0.0000000   0.0000000), wk =   0.0555556
        k(    2) = (   0.0000000   0.0322253   0.0000000), wk =   0.1111111
        k(    3) = (   0.0000000   0.0644506   0.0000000), wk =   0.1111111
        k(    4) = (   0.0000000  -0.0966758   0.0000000), wk =   0.0555556
        k(    5) = (   0.0279079  -0.0161126   0.0000000), wk =   0.1111111
        k(    6) = (   0.0279079   0.0161126   0.0000000), wk =   0.1111111
        k(    7) = (   0.0279079   0.0483379   0.0000000), wk =   0.1111111
        k(    8) = (   0.0279079  -0.1127885   0.0000000), wk =   0.1111111
        k(    9) = (   0.0279079  -0.0805632   0.0000000), wk =   0.1111111
        k(   10) = (   0.0279079  -0.0483379   0.0000000), wk =   0.1111111
        k(   11) = (   0.0558158  -0.0322253   0.0000000), wk =   0.1111111
        k(   12) = (   0.0558158   0.0000000   0.0000000), wk =   0.1111111
        k(   13) = (   0.0558158   0.0322253   0.0000000), wk =   0.1111111
        k(   14) = (   0.0558158  -0.1289011   0.0000000), wk =   0.1111111
        k(   15) = (   0.0558158  -0.0966758   0.0000000), wk =   0.1111111
        k(   16) = (   0.0558158  -0.0644506   0.0000000), wk =   0.1111111
        k(   17) = (  -0.0837237   0.0483379   0.0000000), wk =   0.0555556
        k(   18) = (  -0.0837237   0.0805632   0.0000000), wk =   0.1111111
        k(   19) = (  -0.0837237   0.1127885   0.0000000), wk =   0.1111111
        k(   20) = (  -0.0837237  -0.0483379   0.0000000), wk =   0.0555556

     Largest allocated arrays     est. size (Mb)     dimensions
     Largest temporary arrays     est. size (Mb)     dimensions

     Initial potential from superposition of free atoms
     Check: negative starting charge=   -1.121574

     starting charge  161.98664, renormalised to  162.00000

     negative rho (up, down):  1.122E+00 0.000E+00

     *
     * You are using vdW-DF for exchange-correlation in this calculation.
     * Please cite the following three references that made this development
     * possible:
     *
     *   M. Dion, H. Rydberg, E. Schroder, D. C. Langreth, and
     *   B. I. Lundqvist, Phys. Rev. Lett. 92, 246401 (2004).
     *
     *   T. Thonhauser, V. R. Cooper, S. Li, A. Puzder, P. Hyldgaard, and
     *   D. C. Langreth, Phys. Rev. B 76, 125112 (2007).
     *
     *   G. Roman-Perez and J. M. Soler, Phys. Rev. Lett. 103, 096102 (2009).
     *
     *
     * If you are using vdW-DF2, please also cite:
     *
     *   K. Lee, E. D. Murray, L. Kong, B. I. Lundqvist, and
     *   D. C. Langreth, Phys. Rev. B 82, 081101(R) (2010).
     *
     *
     * If you are calculating the stress with vdW-DF, please also cite:
     *
     *   R. Sabatini, E. Kucukbenli, B. Kolb, T. Thonhauser, and
     *   S. de Gironcoli, J. Phys.: Condens. Matter 24, 424209 (2012).
     *

     Carrying out vdW-DF run using the following parameters:

     Nqs =      20    Nr_points =    1024   r_max =   100.000
     q_mesh =
               0.00001000     0.04494208     0.09755937     0.15916263
               0.23128650     0.31572767     0.41458969     0.53033537
               0.66584808     0.82450364     1.01025438     1.22772762
               1.48234092     1.78043706     2.12944203     2.53805004
               3.01644009     3.57652955     4.23227104     5.00000000

     Gradients computed in reciprocal space

     Adding external electric field

     Computed dipole along edir(3) :
        Dipole               -0.0038 Ry au,         -0.0096 Debye
        Dipole field         -0.0000 Ry au

        Potential amp.        0.0008 Ry
        Total length         45.8339 bohr

     Starting wfc are  161 randomized atomic wfcs

     Self-consistent Calculation

     iteration #  1     ecut=    36.75 Ry     beta=0.30
     Davidson diagonalization with overlap
     ethr =  1.00E-02,  avg # of iterations =  2.0

[...]

     total energy              =   -1738.07709580 Ry
     Harris-Foulkes estimate   =   -1740.45996659 Ry
     estimated scf accuracy    <       5.20392778 Ry

[...]

     End of self-consistent calculation

          k = 0.0000 0.0000 0.0000 ( 19447 PWs)   bands (ev):

   -66.0746 -66.0252 -66.0084 -66.0084 -65.9734 -65.9166 -65.9134 -65.9131
   -65.8812 -65.8376 -65.8375 -65.8077 -32.7702 -32.7548 -32.7548 -32.7076
   -32.6896 -32.6701 -32.6701 -32.6203 -32.6202 -32.6195 -32.4504 -32.3702
   -32.3362 -32.3362 -32.2586 -32.2542 -32.2541 -32.1792 -32.1792 -32.1675
   -32.0736 -32.0736 -32.0708 -32.0432 -32.0432 -32.0322 -31.9890 -31.9890
   -31.9885 -31.9639 -31.9622 -31.9621 -31.8864 -31.8864 -31.8163 -31.8163
   -12.7035  -5.2948  -4.5050  -3.1756  -2.3380  -1.8772  -1.8772  -1.7336
    -1.7336  -1.6775  -1.4483  -1.1144  -1.1144  -0.7590  -0.6560  -0.6560
    -0.3072  -0.1326  -0.1326   0.8115   0.8115   1.0328   1.6599   1.9063
     1.9248   1.9248   2.2107   2.2593   2.4012   2.4013   2.4642   2.7013
     2.7013   2.9304   2.9907   2.9907   3.0734   3.1014   3.1014   3.1681
     3.1681   3.4457   3.4457

[...]

          k =-0.0837 0.0483 0.0000 ( 19532 PWs)   bands (ev):

[...]

     the Fermi energy is     2.3488 ev

!    total energy              =   -1739.94684154 Ry
     Harris-Foulkes estimate   =   -1739.94684528 Ry
     estimated scf accuracy    <       0.00000428 Ry

     The total energy is the sum of the following terms:

     one-electron contribution =  -11743.72739620 Ry
     hartree contribution      =    5858.07875941 Ry
     xc contribution           =    -528.99147499 Ry
     ewald contribution        =    4674.79329353 Ry
     electric field correction =       0.00013565 Ry
     smearing contrib. (-TS)   =      -0.10015896 Ry

     convergence has been achieved in  13 iterations

 BEEF-vdW xc energy contributions
           1 :   -465.573335849177
           2 :    429.608420397893
           3 :   -366.866997813894
           4 :    291.902621950401
           5 :   -219.272843162606
           6 :    159.072465210303
           7 :   -114.934723369487
           8 :    84.8630112244333
           9 :   -63.9861040449850
          10 :    47.6127559333236
          11 :   -33.1535989250801
          12 :    20.3349519531197
          13 :   -10.1191879203456
          14 :    3.29303247086034
          15 :   0.395551386276907
          16 :   -2.18840844570860
          17 :    3.58598822830112
          18 :   -5.51528123912829
          19 :    7.92623744883991
          20 :   -10.0117325807705
          21 :    10.8571356177308
          22 :   -10.0968123833776
          23 :    8.18483280904826
          24 :   -6.14501529193399
          25 :    4.98315227646629
          26 :   -5.13370053668655
          27 :    6.26495786564976
          28 :   -7.53408055764078
          29 :    8.11070502117178
          30 :   -7.64132850540364
          31 :   -41.7260882184740
          32 :   -30.9446417294271

     Forces acting on atoms (Ry/au):

     negative rho (up, down):  1.178E+00 0.000E+00
     atom    1 type  1   force =    -0.00000057   -0.00000086    0.00384428
     atom    2 type  1   force =    -0.00000130    0.00164837    0.00538972
     atom    3 type  1   force =     0.00142923   -0.00082664    0.00539305
     atom    4 type  1   force =    -0.00142859   -0.00082215    0.00538463
     atom    5 type  1   force =     0.00122256   -0.00071700    0.00205443
     atom    6 type  1   force =    -0.00122387   -0.00069775    0.00203322
     atom    7 type  1   force =     0.00001991    0.00000157   -0.00260494
     atom    8 type  1   force =    -0.00001908    0.00141380    0.00204275
     atom    9 type  1   force =    -0.00479009   -0.00276753    0.05993389
     atom   10 type  1   force =     0.00478832   -0.00276105    0.05992963
     atom   11 type  1   force =     0.00000680    0.00552735    0.05993197
     atom   12 type  1   force =    -0.00000432    0.00000043   -0.03893365
     atom   13 type  2   force =     0.00000145    0.00000102   -0.11613684
     atom   14 type  3   force =    -0.00000046    0.00000045   -0.04826213

     Total force =     0.167929     Total SCF correction =     0.001860

     entering subroutine stress ...

     negative rho (up, down):  1.178E+00 0.000E+00
          total   stress  (Ry/bohr**3)                   (kbar)     P=  -36.79
  -0.00027675  -0.00000000  -0.00000000        -40.71     -0.00     -0.00
  -0.00000000  -0.00027675  -0.00000000         -0.00    -40.71     -0.00
  -0.00000000  -0.00000000  -0.00019683         -0.00     -0.00    -28.95

     BFGS Geometry Optimization

     number of scf cycles    =   1
     number of bfgs steps    =   0

     energy   new            =   -1739.9468415441 Ry

     new trust radius        =       0.1161368429 bohr
     new conv_thr            =       0.0000099958 Ry

ATOMIC_POSITIONS (crystal)
Ta1      0.166666667   0.166666667   0.401991699    0   0   0
Ta1      0.666666667   0.166666667   0.401991699    0   0   0
Ta1      0.166666667   0.666666667   0.401991699    0   0   0
Ta1      0.666666667   0.666666667   0.401991699    0   0   0
Ta1      0.833333333   0.333333333   0.500000000    0   0   0
Ta1      0.333333333   0.333333333   0.500000000    0   0   0
Ta1      0.833333333   0.833333333   0.500000000    0   0   0
Ta1      0.333333333   0.833333333   0.500000000    0   0   0
Ta1     -0.000282864  -0.000283167   0.599283244
Ta1      0.500565541  -0.000282503   0.599283153
Ta1     -0.000282169   0.500565543   0.599283203
Ta1      0.499999595   0.500000044   0.597180086
N1       0.166666743   0.166666771   0.658509782
H1       0.166666603   0.166666712   0.702162774

     Writing output data file calc.save
     Check: negative starting charge=   -1.121574
     NEW-OLD atomic charge density approx. for the potential
     Check: negative starting charge=   -1.119421

[...]

     energy   old            =   -1739.9468415441 Ry
     energy   new            =   -1739.9705686684 Ry

     CASE: energy  _new < energy  _old

[...]

     Total force =     0.008344     Total SCF correction =     0.000176

[...]

     number of scf cycles    =  13
     number of bfgs steps    =  12

     energy   old            =   -1740.0260475850 Ry
     energy   new            =   -1740.0262501413 Ry

     CASE: energy  _new < energy  _old

     new trust radius        =       0.0121781140 bohr
     new conv_thr            =       0.0000001000 Ry

ATOMIC_POSITIONS (crystal)
Ta1      0.166666667   0.166666667   0.401991699    0   0   0
Ta1      0.666666667   0.166666667   0.401991699    0   0   0
Ta1      0.166666667   0.666666667   0.401991699    0   0   0
Ta1      0.666666667   0.666666667   0.401991699    0   0   0
Ta1      0.833333333   0.333333333   0.500000000    0   0   0
Ta1      0.333333333   0.333333333   0.500000000    0   0   0
Ta1      0.833333333   0.833333333   0.500000000    0   0   0
Ta1      0.333333333   0.833333333   0.500000000    0   0   0
Ta1     -0.003778182  -0.003778524   0.598882502
Ta1      0.507556368  -0.003778180   0.598882503
Ta1     -0.003777754   0.507555771   0.598882537
Ta1      0.500000025   0.499999768   0.589004473
N1       0.166666815   0.166666516   0.645932818
H1       0.166666826   0.166666724   0.687101576

     Writing output data file calc.save
     Check: negative starting charge=   -1.121582
     NEW-OLD atomic charge density approx. for the potential
     Check: negative starting charge=   -1.121485

[...]

     Self-consistent Calculation

[...]

     Threshold (ethr) on eigenvalues was too large:
     Diagonalizing with lowered threshold

     Davidson diagonalization with overlap
     ethr =  7.02E-08,  avg # of iterations =  2.2

[...]

     total energy              =   -1740.02631891 Ry
     Harris-Foulkes estimate   =   -1740.02631909 Ry
     estimated scf accuracy    <       0.00000015 Ry

     iteration #  9     ecut=    36.75 Ry     beta=0.30
     Davidson diagonalization with overlap
     ethr =  9.22E-11,  avg # of iterations =  3.9

[...]

     negative rho (up, down):  1.179E+00 0.000E+00

     Adding external electric field

     Computed dipole along edir(3) :
        Dipole                0.3323 Ry au,          0.8446 Debye
        Dipole field          0.0008 Ry au

        Potential amp.       -0.0738 Ry
        Total length         45.8339 bohr

     End of self-consistent calculation

[...]

          k = 0.0558-0.0645 0.0000 ( 19521 PWs)   bands (ev):

[...]

          k =-0.0837-0.0483 0.0000 ( 19532 PWs)   bands (ev):

   -65.8619 -65.8445 -65.8298 -65.8102 -65.8051 -65.7795 -65.7757 -65.7180
   -65.7062 -65.6855 -65.6778 -65.6333 -32.5015 -32.4851 -32.4469 -32.4409
   -32.4208 -32.4159 -32.3590 -32.3271 -32.3221 -32.3175 -32.2873 -32.2661
   -32.2224 -32.1771 -32.1480 -32.1295 -32.1178 -32.1013 -32.0865 -32.0690
   -32.0334 -32.0037 -31.9904 -31.9738 -31.9708 -31.9484 -31.9157 -31.8953
   -31.8534 -31.8396 -31.8373 -31.7954 -31.7931 -31.7434 -31.7292 -31.7104
   -13.7640  -5.2992  -3.3942  -3.0913  -2.4369  -2.1766  -1.5830  -1.2925
    -0.8528  -0.8234  -0.6020  -0.5203  -0.5012  -0.1608   0.2491   0.4228
     0.5636   0.5674   0.6624   0.7460   1.0195   1.0981   1.1451   1.1674
     1.3615   1.3637   1.5554   1.7288   1.8203   1.8634   1.9049   2.0273
     2.0987   2.1894   2.2011   2.7054   2.7536   2.7634   2.9543   3.1832
     3.3486   3.5438   3.8905

     the Fermi energy is     2.4818 ev

!    total energy              =   -1740.02631888 Ry
     Harris-Foulkes estimate   =   -1740.02631894 Ry
     estimated scf accuracy    <       0.00000008 Ry

     The total energy is the sum of the following terms:

     one-electron contribution =  -11902.45327187 Ry
     hartree contribution      =    5938.04515046 Ry
     xc contribution           =    -529.35336632 Ry
     ewald contribution        =    4753.83087115 Ry
     electric field correction =       0.00026760 Ry
     smearing contrib. (-TS)   =      -0.09596990 Ry

     convergence has been achieved in   9 iterations

 BEEF-vdW xc energy contributions
           1 :   -465.935158624320
           2 :    430.062315251811
           3 :   -367.418166707643
           4 :    292.461271333973
           5 :   -219.709030518425
           6 :    159.288839335354
           7 :   -114.920039980154
           8 :    84.6970935612706
           9 :   -63.7952445144179
          10 :    47.5021918105107
          11 :   -33.1562601576634
          12 :    20.4061318661479
          13 :   -10.1769303299091
          14 :    3.27664267581741
          15 :   0.485554772208786
          16 :   -2.29426666322979
          17 :    3.63583471928507
          18 :   -5.47387955953064
          19 :    7.81982295865953
          20 :   -9.91266030018670
          21 :    10.8400474040546
          22 :   -10.1950211554262
          23 :    8.37336381867669
          24 :   -6.35804506917776
          25 :    5.15185683819203
          26 :   -5.22093062703419
          27 :    6.27889896340389
          28 :   -7.51649909518761
          29 :    8.10977569660969
          30 :   -7.68643295722796
          31 :   -41.7487533768177
          32 :   -30.9858352838035

     Forces acting on atoms (Ry/au):

     negative rho (up, down):  1.179E+00 0.000E+00
     atom    1 type  1   force =    -0.00000001    0.00000004    0.00735162
     atom    2 type  1   force =     0.00000000    0.00045833    0.00516791
     atom    3 type  1   force =     0.00039689   -0.00022915    0.00516789
     atom    4 type  1   force =    -0.00039688   -0.00022915    0.00516793
     atom    5 type  1   force =     0.02082367   -0.01202237   -0.01045184
     atom    6 type  1   force =    -0.02082364   -0.01202244   -0.01045211
     atom    7 type  1   force =    -0.00000008   -0.00000016    0.00919174
     atom    8 type  1   force =     0.00000009    0.02404502   -0.01045183
     atom    9 type  1   force =    -0.00142290   -0.00082169   -0.00055816
     atom   10 type  1   force =     0.00142353   -0.00082279   -0.00055845
     atom   11 type  1   force =    -0.00000059    0.00164476   -0.00055888
     atom   12 type  1   force =     0.00000031    0.00000011   -0.00006314
     atom   13 type  2   force =    -0.00000032   -0.00000041   -0.00087973
     atom   14 type  3   force =    -0.00000004   -0.00000010    0.00192704

     Total force =     0.003679     Total SCF correction =     0.000523
     SCF correction compared to forces is large: reduce conv_thr to get better values

     entering subroutine stress ...

     negative rho (up, down):  1.179E+00 0.000E+00
          total   stress  (Ry/bohr**3)                   (kbar)     P=  -22.50
  -0.00019505  -0.00000000  -0.00000000        -28.69     -0.00     -0.00
  -0.00000000  -0.00019505  -0.00000000         -0.00    -28.69     -0.00
  -0.00000000  -0.00000000  -0.00006869         -0.00     -0.00    -10.11

     bfgs converged in  14 scf cycles and  13 bfgs steps
     (criteria: energy <  1.0E+00, force <  1.9E-03)

     End of BFGS Geometry Optimization

     Final energy   =   -1740.0263188800 Ry
Begin final coordinates

ATOMIC_POSITIONS (crystal)
Ta1      0.166666667   0.166666667   0.401991699    0   0   0
Ta1      0.666666667   0.166666667   0.401991699    0   0   0
Ta1      0.166666667   0.666666667   0.401991699    0   0   0
Ta1      0.666666667   0.666666667   0.401991699    0   0   0
Ta1      0.833333333   0.333333333   0.500000000    0   0   0
Ta1      0.333333333   0.333333333   0.500000000    0   0   0
Ta1      0.833333333   0.833333333   0.500000000    0   0   0
Ta1      0.333333333   0.833333333   0.500000000    0   0   0
Ta1     -0.003778182  -0.003778524   0.598882502
Ta1      0.507556368  -0.003778180   0.598882503
Ta1     -0.003777754   0.507555771   0.598882537
Ta1      0.500000025   0.499999768   0.589004473
N1       0.166666815   0.166666516   0.645932818
H1       0.166666826   0.166666724   0.687101576
End final coordinates

     Writing output data file calc.save

     General routines

     Parallel routines

   This run was terminated on:   9:36:55  23Apr2018

   JOB DONE.
Job  /afs/slac/g/suncat/bin/suncat-tsmpirun -x LD_LIBRARY_PATH -wdir /scratch/qe986204_EfD4I pw.x -npool 3 -in pw.inp

TID   HOST_NAME   COMMAND_LINE            STATUS            TERMINATION_TIME
00000 suncat2035 pw.x -npool 3 -i  Done                     04/23/2018 09:36:55
00001 suncat2035 pw.x -npool 3 -i  Done                     04/23/2018 09:36:55
00002 suncat2035 pw.x -npool 3 -i  Done                     04/23/2018 09:36:55
00003 suncat2035 pw.x -npool 3 -i  Done                     04/23/2018 09:36:55
00004 suncat2070 pw.x -npool 3 -i  Done                     04/23/2018 09:36:55
00005 suncat2070 pw.x -npool 3 -i  Done                     04/23/2018 09:36:55
00006 suncat2070 pw.x -npool 3 -i  Done                     04/23/2018 09:36:55
00007 suncat2070 pw.x -npool 3 -i  Done                     04/23/2018 09:36:55
00008 suncat2070 pw.x -npool 3 -i  Done                     04/23/2018 09:36:55
00009 suncat2070 pw.x -npool 3 -i  Done                     04/23/2018 09:36:55
00010 suncat2070 pw.x -npool 3 -i  Done                     04/23/2018 09:36:55
00011 suncat2070 pw.x -npool 3 -i  Done                     04/23/2018 09:36:55
00012 suncat2070 pw.x -npool 3 -i  Done                     04/23/2018 09:36:55
00013 suncat2070 pw.x -npool 3 -i  Done                     04/23/2018 09:36:55
00014 suncat2070 pw.x -npool 3 -i  Done                     04/23/2018 09:36:55
00015 suncat2070 pw.x -npool 3 -i  Done                     04/23/2018 09:36:55
00016 suncat2070 pw.x -npool 3 -i  Done                     04/23/2018 09:36:55
00017 suncat2070 pw.x -npool 3 -i  Done                     04/23/2018 09:36:55
00018 suncat2070 pw.x -npool 3 -i  Done                     04/23/2018 09:36:55
00019 suncat2070 pw.x -npool 3 -i  Done                     04/23/2018 09:36:55
00020 suncat2069 pw.x -npool 3 -i  Done                     04/23/2018 09:36:55
00021 suncat2069 pw.x -npool 3 -i  Done                     04/23/2018 09:36:55
00022 suncat2069 pw.x -npool 3 -i  Done                     04/23/2018 09:36:55
00023 suncat2069 pw.x -npool 3 -i  Done                     04/23/2018 09:36:55
00024 suncat2069 pw.x -npool 3 -i  Done                     04/23/2018 09:36:55
00025 suncat2069 pw.x -npool 3 -i  Done                     04/23/2018 09:36:55
00026 suncat2069 pw.x -npool 3 -i  Done                     04/23/2018 09:36:55
00027 suncat2069 pw.x -npool 3 -i  Done                     04/23/2018 09:36:55
00028 suncat2069 pw.x -npool 3 -i  Done                     04/23/2018 09:36:55
00029 suncat2069 pw.x -npool 3 -i  Done                     04/23/2018 09:36:55
00030 suncat2069 pw.x -npool 3 -i  Done                     04/23/2018 09:36:55
00031 suncat2069 pw.x -npool 3 -i  Done                     04/23/2018 09:36:55
00032 suncat2069 pw.x -npool 3 -i  Done                     04/23/2018 09:36:55
00033 suncat2069 pw.x -npool 3 -i  Done                     04/23/2018 09:36:55
00034 suncat2069 pw.x -npool 3 -i  Done                     04/23/2018 09:36:55
00035 suncat2069 pw.x -npool 3 -i  Done                     04/23/2018 09:36:55