     Program PWSCF v.5.1rc2 (svn rev. ) starts on 18Apr2018 at  1:34:51

     Current dimensions of program PWSCF are:
     Max number of different atomic species (ntypx) = 10
     Max number of k-points (npk) =  40000
     Max angular momentum in pseudopotentials (lmaxx) =  3
     Presently stress not available with electric field

     IMPORTANT: XC functional enforced from input :
     Exchange-correlation      = BEEF-VDW ( 1  4 27 13 2)
     Any further DFT definition will be discarded
     Please, verify this is what you really want

     Subspace diagonalization in iterative solution of the eigenvalue problem:
     a serial algorithm will be used

     bravais-lattice index     =            0
     lattice parameter (alat)  =       1.8897  a.u.
     unit-cell volume          =    6024.3322 (a.u.)^3
     number of atoms/cell      =           14
     number of atomic types    =            3
     number of electrons       =       151.00
     number of Kohn-Sham states=           85
     kinetic-energy cutoff     =      36.7493  Ry
     charge density cutoff     =     367.4932  Ry
     convergence threshold     =      1.0E-05
     mixing beta               =       0.3000
     number of iterations used =           10  plain     mixing
     Exchange-correlation      = BEEF-VDW ( 1  4 27 13 2)
     nstep                     =           50

     celldm(1)=   1.889726  celldm(2)=   0.000000  celldm(3)=   0.000000
     celldm(4)=   0.000000  celldm(5)=   0.000000  celldm(6)=   0.000000

     crystal axes: (cart. coord. in units of alat)
               a(1) = (   6.393197   0.000000   0.000000 )
               a(2) = (   3.196599   5.536671   0.000000 )
               a(3) = (   0.000000   0.000000  25.220024 )

     reciprocal axes: (cart. coord. in units 2 pi/alat)
               b(1) = (  0.156416 -0.090307  0.000000 )
               b(2) = (  0.000000  0.180614  0.000000 )
               b(3) = (  0.000000  0.000000  0.039651 )

     PseudoPot. # 1 for Hf read from file:
     /home/mamunm/src/pseudo/gbrv1.5pbe/Hf.UPF
     MD5 check sum: 8ee9378dfe14276e333edf04c5e4aa26
     Pseudo is Ultrasoft + core correction, Zval = 12.0
     Generated by new atomic code, or converted to UPF format
     Using radial grid of  921 points,  8 beta functions with:
                l(1) =   0
                l(2) =   0
                l(3) =   0
                l(4) =   1
                l(5) =   1
                l(6) =   2
                l(7) =   2
                l(8) =   3
     Q(r) pseudized with  6 coefficients,  rinner =    1.200   1.200   1.200
                                                       1.200   1.200   1.200
                                                       1.200

     PseudoPot. # 2 for O  read from file:
     /home/mamunm/src/pseudo/gbrv1.5pbe/O.UPF
     MD5 check sum: 734c27235a0248c51dbae37a1fbe46ec
     Pseudo is Ultrasoft + core correction, Zval =  6.0
     Generated by new atomic code, or converted to UPF format
     Using radial grid of  737 points,  5 beta functions with:
                l(1) =   0
                l(2) =   0
                l(3) =   1
                l(4) =   1
                l(5) =   2
     Q(r) pseudized with  8 coefficients,  rinner =    0.900   0.900   0.900
                                                       0.900   0.900

     PseudoPot. # 3 for H  read from file:
     /home/mamunm/src/pseudo/gbrv1.5pbe/H.UPF
     MD5 check sum: 761ae9a214b05c3daf00ab9f6b793d6f
     Pseudo is Ultrasoft, Zval =  1.0
     Generated by new atomic code, or converted to UPF format
     Using radial grid of  615 points,  2 beta functions with:
                l(1) =   0
                l(2) =   0
     Q(r) pseudized with  8 coefficients,  rinner =    0.700

     vdW kernel table read from file vdW_kernel_table
     MD5 check sum: 095c7af220d748ca6e76c0b4c6cfb241

     atomic species   valence    mass     pseudopotential
        Hf1           12.00   178.49000     Hf( 1.00)
        O1             6.00    15.99900     O ( 1.00)
        H1             1.00     1.00800     H ( 1.00)

     No symmetry found

   Cartesian axes

     site n.     atom                  positions (alat units)
         1           Hf1 tau(   1) = (   1.5982993   0.9227785  10.0000000  )
         2           Hf1 tau(   2) = (   4.7948978   0.9227785  10.0000000  )
         3           Hf1 tau(   3) = (   3.1965986   3.6911141  10.0000000  )
         4           Hf1 tau(   4) = (   6.3931971   3.6911141  10.0000000  )
         5           Hf1 tau(   5) = (   6.3931971   1.8455570  12.6100118  )
         6           Hf1 tau(   6) = (   3.1965986   1.8455570  12.6100118  )
         7           Hf1 tau(   7) = (   7.9914964   4.6138926  12.6100118  )
         8           Hf1 tau(   8) = (   4.7948978   4.6138926  12.6100118  )
         9           Hf1 tau(   9) = (   0.0000000   0.0000000  15.2200236  )
        10           Hf1 tau(  10) = (   3.1965986   0.0000000  15.2200236  )
        11           Hf1 tau(  11) = (   1.5982993   2.7683356  15.2200236  )
        12           Hf1 tau(  12) = (   4.7948978   2.7683356  15.2200236  )
        13           O1  tau(  13) = (   1.5982993   0.9227785  16.7865236  )
        14           H1  tau(  14) = (   1.5982993   0.9227785  17.7365236  )

     number of k points=    20  Fermi-Dirac smearing, width (Ry)=  0.0110
                       cart. coord. in units 2pi/alat
        k(    1) = (   0.0000000   0.0000000   0.0000000), wk =   0.0555556
        k(    2) = (   0.0000000   0.0301023   0.0000000), wk =   0.1111111
        k(    3) = (   0.0000000   0.0602046   0.0000000), wk =   0.1111111
        k(    4) = (   0.0000000  -0.0903070   0.0000000), wk =   0.0555556
        k(    5) = (   0.0260694  -0.0150512   0.0000000), wk =   0.1111111
        k(    6) = (   0.0260694   0.0150512   0.0000000), wk =   0.1111111
        k(    7) = (   0.0260694   0.0451535   0.0000000), wk =   0.1111111
        k(    8) = (   0.0260694  -0.1053581   0.0000000), wk =   0.1111111
        k(    9) = (   0.0260694  -0.0752558   0.0000000), wk =   0.1111111
        k(   10) = (   0.0260694  -0.0451535   0.0000000), wk =   0.1111111
        k(   11) = (   0.0521388  -0.0301023   0.0000000), wk =   0.1111111
        k(   12) = (   0.0521388   0.0000000   0.0000000), wk =   0.1111111
        k(   13) = (   0.0521388   0.0301023   0.0000000), wk =   0.1111111
        k(   14) = (   0.0521388  -0.1204093   0.0000000), wk =   0.1111111
        k(   15) = (   0.0521388  -0.0903070   0.0000000), wk =   0.1111111
        k(   16) = (   0.0521388  -0.0602046   0.0000000), wk =   0.1111111
        k(   17) = (  -0.0782081   0.0451535   0.0000000), wk =   0.0555556
        k(   18) = (  -0.0782081   0.0752558   0.0000000), wk =   0.1111111
        k(   19) = (  -0.0782081   0.1053581   0.0000000), wk =   0.1111111
        k(   20) = (  -0.0782081  -0.0451535   0.0000000), wk =   0.0555556

     Largest allocated arrays     est. size (Mb)     dimensions
     Largest temporary arrays     est. size (Mb)     dimensions

     Check: negative/imaginary core charge=   -0.000003    0.000000

     Initial potential from superposition of free atoms
     Check: negative starting charge=   -1.301599

     starting charge  126.99997, renormalised to  151.00000

     negative rho (up, down):  1.548E+00 0.000E+00

     *
     * You are using vdW-DF for exchange-correlation in this calculation.
     * Please cite the following three references that made this development
     * possible:
     *
     *   M. Dion, H. Rydberg, E. Schroder, D. C. Langreth, and
     *   B. I. Lundqvist, Phys. Rev. Lett. 92, 246401 (2004).
     *
     *   T. Thonhauser, V. R. Cooper, S. Li, A. Puzder, P. Hyldgaard, and
     *   D. C. Langreth, Phys. Rev. B 76, 125112 (2007).
     *
     *   G. Roman-Perez and J. M. Soler, Phys. Rev. Lett. 103, 096102 (2009).
     *
     *
     * If you are using vdW-DF2, please also cite:
     *
     *   K. Lee, E. D. Murray, L. Kong, B. I. Lundqvist, and
     *   D. C. Langreth, Phys. Rev. B 82, 081101(R) (2010).
     *
     *
     * If you are calculating the stress with vdW-DF, please also cite:
     *
     *   R. Sabatini, E. Kucukbenli, B. Kolb, T. Thonhauser, and
     *   S. de Gironcoli, J. Phys.: Condens. Matter 24, 424209 (2012).
     *

     Carrying out vdW-DF run using the following parameters:

     Nqs =      20    Nr_points =    1024   r_max =   100.000
     q_mesh =
               0.00001000     0.04494208     0.09755937     0.15916263
               0.23128650     0.31572767     0.41458969     0.53033537
               0.66584808     0.82450364     1.01025438     1.22772762
               1.48234092     1.78043706     2.12944203     2.53805004
               3.01644009     3.57652955     4.23227104     5.00000000

     Gradients computed in reciprocal space

     Adding external electric field

     Computed dipole along edir(3) :
        Dipole              -10.7796 Ry au,        -27.3990 Debye
        Dipole field         -0.0225 Ry au

        Potential amp.        2.0897 Ry
        Total length         46.4675 bohr

     Starting wfc are  161 randomized atomic wfcs

     Self-consistent Calculation

     iteration #  1     ecut=    36.75 Ry     beta=0.30
     Davidson diagonalization with overlap
     ethr =  1.00E-02,  avg # of iterations =  9.6

[...]

     total energy              =   -1232.60092784 Ry
     Harris-Foulkes estimate   =   -1954.54770695 Ry
     estimated scf accuracy    <    1546.91779497 Ry

[...]

     End of self-consistent calculation

          k = 0.0000 0.0000 0.0000 ( 22729 PWs)   bands (ev):

   -60.9281 -60.8999 -60.8997 -60.8431 -60.8389 -60.8101 -60.8083 -60.8081
   -60.4273 -60.3996 -60.3996 -60.3395 -29.7249 -29.6542 -29.6540 -29.5901
   -29.5900 -29.5898 -29.5651 -29.4813 -29.4811 -29.4611 -29.4420 -29.3762
   -29.3760 -29.3650 -29.2567 -29.2557 -29.2555 -29.1819 -29.1818 -29.1813
   -29.1324 -29.1222 -29.1221 -29.1147 -29.1147 -29.0539 -29.0539 -28.8863
   -28.8791 -28.8790 -28.8103 -28.7884 -28.7754 -28.7753 -28.6525 -28.6525
   -19.3768  -7.3938  -4.6347  -3.5066  -3.5066  -3.2713  -2.0483  -1.2184
    -1.2184  -1.1376  -0.9779  -0.8989  -0.8989  -0.4518  -0.4518  -0.4444
     0.0939   0.0939   0.1905   0.8789   0.8790   1.0707   1.7611   1.7997
     2.0991   2.1613   2.1613   2.2098   2.2441   2.2441   2.4523   2.6687
     2.8908   2.8909   3.0467   3.0468   3.0472

[...]

          k =-0.0782 0.0452 0.0000 ( 22668 PWs)   bands (ev):

[...]

     the Fermi energy is     1.7872 ev

!    total energy              =   -1960.56105157 Ry
     Harris-Foulkes estimate   =   -1960.56104844 Ry
     estimated scf accuracy    <       0.00000112 Ry

     The total energy is the sum of the following terms:

     one-electron contribution =   -8668.03182724 Ry
     hartree contribution      =    4321.36143126 Ry
     xc contribution           =    -936.09607425 Ry
     ewald contribution        =    3322.32165383 Ry
     electric field correction =       0.00027162 Ry
     smearing contrib. (-TS)   =      -0.11650679 Ry

     convergence has been achieved in  36 iterations

 BEEF-vdW xc energy contributions
           1 :   -846.138656191856
           2 :    786.066143180622
           3 :   -679.737132941295
           4 :    549.280880183832
           5 :   -417.488196226793
           6 :    301.407473394267
           7 :   -209.592035616176
           8 :    143.077895541075
           9 :   -98.5150453204669
          10 :    71.1997303735116
          11 :   -56.6406559106788
          12 :    50.6105489805809
          13 :   -48.6941588800726
          14 :    46.3482238695656
          15 :   -39.8319496291201
          16 :    27.4698193929796
          17 :   -10.3668804352064
          18 :   -8.03163457283358
          19 :    23.4094847467686
          20 :   -32.3727206086116
          21 :    33.6896874866304
          22 :   -28.4787546381283
          23 :    19.4281550559783
          24 :   -9.61694107863559
          25 :    1.55986312714253
          26 :    3.18735660691414
          27 :   -3.96508021784189
          28 :   0.821365685969340
          29 :    5.53764108859809
          30 :   -13.6858117655256
          31 :   -61.0108758234863
          32 :   -43.8155965967328

     Forces acting on atoms (Ry/au):

     negative rho (up, down):  1.380E+00 0.000E+00
     atom    1 type  1   force =    -0.00001756    0.00000913    0.02302157
     atom    2 type  1   force =     0.00001480    0.00102277    0.02367750
     atom    3 type  1   force =     0.00087245   -0.00050520    0.02368126
     atom    4 type  1   force =    -0.00087762   -0.00052537    0.02363373
     atom    5 type  1   force =     0.00087820   -0.00048420    0.00245235
     atom    6 type  1   force =    -0.00087418   -0.00048370    0.00247323
     atom    7 type  1   force =     0.00000336   -0.00002954    0.00219658
     atom    8 type  1   force =     0.00000446    0.00098672    0.00245624
     atom    9 type  1   force =    -0.00710576   -0.00409508    0.00459015
     atom   10 type  1   force =     0.00709873   -0.00411057    0.00452364
     atom   11 type  1   force =    -0.00001585    0.00820296    0.00450624
     atom   12 type  1   force =     0.00001681    0.00000481   -0.04344728
     atom   13 type  2   force =     0.00000034    0.00000530   -0.12137853
     atom   14 type  3   force =     0.00000181    0.00000198    0.04761331

     Total force =     0.138388     Total SCF correction =     0.001073

     entering subroutine stress ...

     negative rho (up, down):  1.380E+00 0.000E+00
          total   stress  (Ry/bohr**3)                   (kbar)     P=  -25.50
  -0.00015527   0.00000001  -0.00000000        -22.84      0.00     -0.00
   0.00000001  -0.00015527  -0.00000000          0.00    -22.84     -0.00
  -0.00000000  -0.00000000  -0.00020941         -0.00     -0.00    -30.80

     BFGS Geometry Optimization

     number of scf cycles    =   1
     number of bfgs steps    =   0

     energy   new            =   -1960.5610515688 Ry

     new trust radius        =       0.1213785261 bohr
     new conv_thr            =       0.0000099958 Ry

ATOMIC_POSITIONS (crystal)
Hf1      0.166666667   0.166666667   0.396510335    0   0   0
Hf1      0.666666667   0.166666667   0.396510335    0   0   0
Hf1      0.166666667   0.666666667   0.396510335    0   0   0
Hf1      0.666666667   0.666666667   0.396510335    0   0   0
Hf1      0.833333333   0.333333333   0.500000000    0   0   0
Hf1      0.333333333   0.333333333   0.500000000    0   0   0
Hf1      0.833333333   0.833333333   0.500000000    0   0   0
Hf1      0.333333333   0.833333333   0.500000000    0   0   0
Hf1     -0.000392460  -0.000391395   0.603585978
Hf1      0.500784013  -0.000392875   0.603584582
Hf1     -0.000393318   0.500784012   0.603584217
Hf1      0.500001162   0.500000460   0.602578036
O1       0.166666441   0.166667173   0.663056194
H1       0.166666722   0.166666856   0.704270533

     Writing output data file calc.save
     Check: negative starting charge=   -1.301599
     NEW-OLD atomic charge density approx. for the potential

     Check: negative/imaginary core charge=   -0.000003    0.000000
     Check: negative starting charge=   -1.300719

[...]

     energy   old            =   -1960.5610515688 Ry
     energy   new            =   -1960.5650720519 Ry

     CASE: energy  _new < energy  _old

[...]

     iteration #  1     ecut=    36.75 Ry     beta=0.30
     Davidson diagonalization with overlap
     c_bands:  1 eigenvalues not converged
     c_bands:  1 eigenvalues not converged
     c_bands:  1 eigenvalues not converged
     c_bands:  1 eigenvalues not converged
     ethr =  1.00E-06,  avg # of iterations = 11.6

[...]

     WARNING: bfgs curvature condition failed, Theta= 0.925
     new trust radius        =       0.0477710335 bohr
     new conv_thr            =       0.0000001000 Ry

[...]

     iteration #  1     ecut=    36.75 Ry     beta=0.30
     Davidson diagonalization with overlap
     c_bands:  1 eigenvalues not converged
     ethr =  1.00E-06,  avg # of iterations = 15.7

[...]

     Total force =     0.011734     Total SCF correction =     0.000686

[...]

     Total force =     0.006059     Total SCF correction =     0.001057
     SCF correction compared to forces is large: reduce conv_thr to get better values

[...]

     number of scf cycles    =  13
     number of bfgs steps    =  12

     energy   old            =   -1960.6096465195 Ry
     energy   new            =   -1960.6096766530 Ry

     CASE: energy  _new < energy  _old

     new trust radius        =       0.0049778618 bohr
     new conv_thr            =       0.0000001000 Ry

ATOMIC_POSITIONS (crystal)
Hf1      0.166666667   0.166666667   0.396510335    0   0   0
Hf1      0.666666667   0.166666667   0.396510335    0   0   0
Hf1      0.166666667   0.666666667   0.396510335    0   0   0
Hf1      0.666666667   0.666666667   0.396510335    0   0   0
Hf1      0.833333333   0.333333333   0.500000000    0   0   0
Hf1      0.333333333   0.333333333   0.500000000    0   0   0
Hf1      0.833333333   0.833333333   0.500000000    0   0   0
Hf1      0.333333333   0.833333333   0.500000000    0   0   0
Hf1     -0.003756018  -0.003757230   0.597381393
Hf1      0.507512960  -0.003691071   0.597380580
Hf1     -0.003690116   0.507512304   0.597379877
Hf1      0.500009562   0.500007035   0.593733440
O1       0.166664909   0.166659057   0.646825350
H1       0.166657433   0.166662897   0.685508869

     Writing output data file calc.save
     Check: negative starting charge=   -1.300716
     NEW-OLD atomic charge density approx. for the potential

     Check: negative/imaginary core charge=   -0.000003    0.000000
     Check: negative starting charge=   -1.300586

[...]

     Self-consistent Calculation

[...]

     total energy              =   -1960.60968476 Ry
     Harris-Foulkes estimate   =   -1960.60968481 Ry
     estimated scf accuracy    <       0.00000017 Ry

     iteration #  9     ecut=    36.75 Ry     beta=0.30
     Davidson diagonalization with overlap
     ethr =  1.11E-10,  avg # of iterations =  4.0

[...]

     negative rho (up, down):  1.377E+00 0.000E+00

     Adding external electric field

     Computed dipole along edir(3) :
        Dipole                0.3600 Ry au,          0.9149 Debye
        Dipole field          0.0008 Ry au

        Potential amp.       -0.0698 Ry
        Total length         46.4675 bohr

     End of self-consistent calculation

[...]

          k = 0.0521-0.0602 0.0000 ( 22643 PWs)   bands (ev):

[...]

          k =-0.0782-0.0452 0.0000 ( 22668 PWs)   bands (ev):

   -60.8075 -60.8041 -60.7895 -60.7871 -60.7394 -60.7284 -60.7197 -60.5904
   -60.2548 -60.2470 -60.2384 -60.1375 -29.5234 -29.4755 -29.4674 -29.4298
   -29.4271 -29.4052 -29.3853 -29.3691 -29.3641 -29.3639 -29.3322 -29.3168
   -29.3022 -29.2920 -29.2815 -29.2672 -29.2632 -29.2449 -29.2362 -29.1510
   -29.0968 -29.0952 -29.0660 -28.9961 -28.8849 -28.8656 -28.7722 -28.7614
   -28.7399 -28.7111 -28.7105 -28.6845 -28.6650 -28.6049 -28.5863 -28.5326
   -20.1371  -8.0396  -4.7000  -4.5332  -3.0883  -2.9738  -1.8007  -1.6236
    -0.8500  -0.8486  -0.5176  -0.3928  -0.2466  -0.2347   0.5756   0.6639
     0.7278   0.7530   0.8835   0.9410   1.0965   1.1623   1.2310   1.3036
     1.3415   1.3691   1.5214   1.6210   1.6695   1.7547   1.7842   1.9830
     2.0017   2.1529   2.1867   2.6517   2.7686

     the Fermi energy is     1.8037 ev

!    total energy              =   -1960.60968478 Ry
     Harris-Foulkes estimate   =   -1960.60968416 Ry
     estimated scf accuracy    <       0.00000002 Ry

     The total energy is the sum of the following terms:

     one-electron contribution =   -8975.09819906 Ry
     hartree contribution      =    4475.26307150 Ry
     xc contribution           =    -936.49439048 Ry
     ewald contribution        =    3475.82953514 Ry
     electric field correction =       0.00027026 Ry
     smearing contrib. (-TS)   =      -0.10997214 Ry

     convergence has been achieved in   9 iterations

 BEEF-vdW xc energy contributions
           1 :   -846.548138646982
           2 :    786.623622973719
           3 :   -680.420130340936
           4 :    549.891118058478
           5 :   -417.798324019100
           6 :    301.329543682906
           7 :   -209.244928749151
           8 :    142.708350744052
           9 :   -98.3343891195893
          10 :    71.2569546920977
          11 :   -56.8154863190618
          12 :    50.7201242158203
          13 :   -48.6307068391116
          14 :    46.1495571304924
          15 :   -39.6391544176995
          16 :    27.4120577213412
          17 :   -10.4632772085206
          18 :   -7.88459322059271
          19 :    23.3617759075219
          20 :   -32.5111426501476
          21 :    33.9725311854422
          22 :   -28.7609447100846
          23 :    19.5597767242593
          24 :   -9.54593263692641
          25 :    1.36596430889358
          26 :    3.35331856788559
          27 :   -3.99309317514235
          28 :   0.721003844358847
          29 :    5.65191619328823
          30 :   -13.6910362111178
          31 :   -61.0398743810035
          32 :   -43.8685708908883

     Forces acting on atoms (Ry/au):

     negative rho (up, down):  1.377E+00 0.000E+00
     atom    1 type  1   force =    -0.00002438   -0.00001391    0.01614309
     atom    2 type  1   force =    -0.00001986    0.00160661    0.01861614
     atom    3 type  1   force =     0.00138121   -0.00082057    0.01861609
     atom    4 type  1   force =    -0.00141353   -0.00081629    0.01855501
     atom    5 type  1   force =     0.00636633   -0.00366769   -0.01590094
     atom    6 type  1   force =    -0.00634617   -0.00366497   -0.01592749
     atom    7 type  1   force =    -0.00001880   -0.00001015   -0.02398544
     atom    8 type  1   force =     0.00000772    0.00734699   -0.01589911
     atom    9 type  1   force =     0.00016163    0.00009414   -0.00002211
     atom   10 type  1   force =    -0.00006421    0.00004020   -0.00001268
     atom   11 type  1   force =     0.00000195   -0.00007904   -0.00000858
     atom   12 type  1   force =    -0.00001753   -0.00001000    0.00003711
     atom   13 type  2   force =    -0.00000357    0.00000221   -0.00001306
     atom   14 type  3   force =    -0.00001078   -0.00000753   -0.00019802

     Total force =     0.000298     Total SCF correction =     0.000222
     SCF correction compared to forces is large: reduce conv_thr to get better values

     entering subroutine stress ...

     negative rho (up, down):  1.377E+00 0.000E+00
          total   stress  (Ry/bohr**3)                   (kbar)     P=  -14.43
  -0.00010605  -0.00000002  -0.00000003        -15.60     -0.00     -0.00
  -0.00000002  -0.00010603  -0.00000001         -0.00    -15.60     -0.00
  -0.00000003  -0.00000001  -0.00008222         -0.00     -0.00    -12.10

     bfgs converged in  14 scf cycles and  13 bfgs steps
     (criteria: energy <  1.0E+00, force <  1.9E-03)

     End of BFGS Geometry Optimization

     Final energy   =   -1960.6096847843 Ry
Begin final coordinates

ATOMIC_POSITIONS (crystal)
Hf1      0.166666667   0.166666667   0.396510335    0   0   0
Hf1      0.666666667   0.166666667   0.396510335    0   0   0
Hf1      0.166666667   0.666666667   0.396510335    0   0   0
Hf1      0.666666667   0.666666667   0.396510335    0   0   0
Hf1      0.833333333   0.333333333   0.500000000    0   0   0
Hf1      0.333333333   0.333333333   0.500000000    0   0   0
Hf1      0.833333333   0.833333333   0.500000000    0   0   0
Hf1      0.333333333   0.833333333   0.500000000    0   0   0
Hf1     -0.003756018  -0.003757230   0.597381393
Hf1      0.507512960  -0.003691071   0.597380580
Hf1     -0.003690116   0.507512304   0.597379877
Hf1      0.500009562   0.500007035   0.593733440
O1       0.166664909   0.166659057   0.646825350
H1       0.166657433   0.166662897   0.685508869
End final coordinates

     Writing output data file calc.save

     General routines

     Parallel routines

   This run was terminated on:   3:14:59  18Apr2018

   JOB DONE.