     Program PWSCF v.5.1rc2 (svn rev. 11289) starts on  3May2018 at  4:40:30

     Current dimensions of program PWSCF are:
     Max number of different atomic species (ntypx) = 10
     Max number of k-points (npk) =  40000
     Max angular momentum in pseudopotentials (lmaxx) =  3
     Presently stress not available with electric field

     IMPORTANT: XC functional enforced from input :
     Exchange-correlation      = BEEF-VDW ( 1  4 27 13 2)
     Any further DFT definition will be discarded
     Please, verify this is what you really want

     Subspace diagonalization in iterative solution of the eigenvalue problem:
     a serial algorithm will be used

     bravais-lattice index     =            0
     lattice parameter (alat)  =       1.8897  a.u.
     unit-cell volume          =    4704.3541 (a.u.)^3
     number of atoms/cell      =           13
     number of atomic types    =            2
     number of electrons       =       173.00
     number of Kohn-Sham states=           96
     kinetic-energy cutoff     =      36.7493  Ry
     charge density cutoff     =     367.4932  Ry
     convergence threshold     =      1.0E-05
     mixing beta               =       0.3000
     number of iterations used =           10  plain     mixing
     Exchange-correlation      = BEEF-VDW ( 1  4 27 13 2)
     nstep                     =           50

     celldm(1)=   1.889726  celldm(2)=   0.000000  celldm(3)=   0.000000
     celldm(4)=   0.000000  celldm(5)=   0.000000  celldm(6)=   0.000000

     crystal axes: (cart. coord. in units of alat)
               a(1) = (   5.712816   0.000000   0.000000 )
               a(2) = (   2.856408   4.947444   0.000000 )
               a(3) = (   0.000000   0.000000  24.664495 )

     reciprocal axes: (cart. coord. in units 2 pi/alat)
               b(1) = (  0.175045 -0.101062  0.000000 )
               b(2) = (  0.000000  0.202125  0.000000 )
               b(3) = (  0.000000  0.000000  0.040544 )

     PseudoPot. # 1 for W  read from file:
     /u/if/mamunm/psp/gbrv1.5pbe/W.UPF
     MD5 check sum: 9c083fa34c2a2ea0f02f1f893e16e1c8
     Pseudo is Ultrasoft + core correction, Zval = 14.0
     Generated by new atomic code, or converted to UPF format
     Using radial grid of  923 points,  8 beta functions with:
                l(1) =   0
                l(2) =   0
                l(3) =   0
                l(4) =   1
                l(5) =   1
                l(6) =   2
                l(7) =   2
                l(8) =   3
     Q(r) pseudized with  6 coefficients,  rinner =    1.350   1.350   1.350
                                                       1.350   1.350   1.350
                                                       1.350

     PseudoPot. # 2 for N  read from file:
     /u/if/mamunm/psp/gbrv1.5pbe/N.UPF
     MD5 check sum: 95339753478d7afb44899504a8723017
     Pseudo is Ultrasoft + core correction, Zval =  5.0
     Generated by new atomic code, or converted to UPF format
     Using radial grid of  729 points,  4 beta functions with:
                l(1) =   0
                l(2) =   0
                l(3) =   1
                l(4) =   1
     Q(r) pseudized with  8 coefficients,  rinner =    0.900   0.900   0.900

     vdW kernel table read from file vdW_kernel_table
     MD5 check sum: 095c7af220d748ca6e76c0b4c6cfb241

     atomic species   valence    mass     pseudopotential
        W1            14.00   183.84000     W ( 1.00)
        N1             5.00    14.00700     N ( 1.00)

     No symmetry found

   Cartesian axes

     site n.     atom                  positions (alat units)
         1           W1  tau(   1) = (   1.4282041   0.8245740  10.0000000  )
         2           W1  tau(   2) = (   4.2846123   0.8245740  10.0000000  )
         3           W1  tau(   3) = (   2.8564082   3.2982961  10.0000000  )
         4           W1  tau(   4) = (   5.7128165   3.2982961  10.0000000  )
         5           W1  tau(   5) = (   5.7128165   1.6491481  12.3322476  )
         6           W1  tau(   6) = (   2.8564082   1.6491481  12.3322476  )
         7           W1  tau(   7) = (   7.1410206   4.1228701  12.3322476  )
         8           W1  tau(   8) = (   4.2846123   4.1228701  12.3322476  )
         9           W1  tau(   9) = (   0.0000000   0.0000000  14.6644951  )
        10           W1  tau(  10) = (   2.8564082   0.0000000  14.6644951  )
        11           W1  tau(  11) = (   1.4282041   2.4737221  14.6644951  )
        12           W1  tau(  12) = (   4.2846123   2.4737221  14.6644951  )
        13           N1  tau(  13) = (   0.0000000   0.0000000  16.6449951  )

     number of k points=    20  Fermi-Dirac smearing, width (Ry)=  0.0110
                       cart. coord. in units 2pi/alat
        k(    1) = (   0.0000000   0.0000000   0.0000000), wk =   0.0555556
        k(    2) = (   0.0000000   0.0336874   0.0000000), wk =   0.1111111
        k(    3) = (   0.0000000   0.0673749   0.0000000), wk =   0.1111111
        k(    4) = (   0.0000000  -0.1010623   0.0000000), wk =   0.0555556
        k(    5) = (   0.0291742  -0.0168437   0.0000000), wk =   0.1111111
        k(    6) = (   0.0291742   0.0168437   0.0000000), wk =   0.1111111
        k(    7) = (   0.0291742   0.0505311   0.0000000), wk =   0.1111111
        k(    8) = (   0.0291742  -0.1179060   0.0000000), wk =   0.1111111
        k(    9) = (   0.0291742  -0.0842186   0.0000000), wk =   0.1111111
        k(   10) = (   0.0291742  -0.0505311   0.0000000), wk =   0.1111111
        k(   11) = (   0.0583483  -0.0336874   0.0000000), wk =   0.1111111
        k(   12) = (   0.0583483  -0.0000000   0.0000000), wk =   0.1111111
        k(   13) = (   0.0583483   0.0336874   0.0000000), wk =   0.1111111
        k(   14) = (   0.0583483  -0.1347497   0.0000000), wk =   0.1111111
        k(   15) = (   0.0583483  -0.1010623   0.0000000), wk =   0.1111111
        k(   16) = (   0.0583483  -0.0673749   0.0000000), wk =   0.1111111
        k(   17) = (  -0.0875225   0.0505311   0.0000000), wk =   0.0555556
        k(   18) = (  -0.0875225   0.0842186   0.0000000), wk =   0.1111111
        k(   19) = (  -0.0875225   0.1179060   0.0000000), wk =   0.1111111
        k(   20) = (  -0.0875225  -0.0505311   0.0000000), wk =   0.0555556

     Largest allocated arrays     est. size (Mb)     dimensions
     Largest temporary arrays     est. size (Mb)     dimensions

     Initial potential from superposition of free atoms
     Check: negative starting charge=   -0.760404

     starting charge  171.79591, renormalised to  173.00000

     negative rho (up, down):  7.657E-01 0.000E+00

     *
     * You are using vdW-DF for exchange-correlation in this calculation.
     * Please cite the following three references that made this development
     * possible:
     *
     *   M. Dion, H. Rydberg, E. Schroder, D. C. Langreth, and
     *   B. I. Lundqvist, Phys. Rev. Lett. 92, 246401 (2004).
     *
     *   T. Thonhauser, V. R. Cooper, S. Li, A. Puzder, P. Hyldgaard, and
     *   D. C. Langreth, Phys. Rev. B 76, 125112 (2007).
     *
     *   G. Roman-Perez and J. M. Soler, Phys. Rev. Lett. 103, 096102 (2009).
     *
     *
     * If you are using vdW-DF2, please also cite:
     *
     *   K. Lee, E. D. Murray, L. Kong, B. I. Lundqvist, and
     *   D. C. Langreth, Phys. Rev. B 82, 081101(R) (2010).
     *
     *
     * If you are calculating the stress with vdW-DF, please also cite:
     *
     *   R. Sabatini, E. Kucukbenli, B. Kolb, T. Thonhauser, and
     *   S. de Gironcoli, J. Phys.: Condens. Matter 24, 424209 (2012).
     *

     Carrying out vdW-DF run using the following parameters:

     Nqs =      20    Nr_points =    1024   r_max =   100.000
     q_mesh =
               0.00001000     0.04494208     0.09755937     0.15916263
               0.23128650     0.31572767     0.41458969     0.53033537
               0.66584808     0.82450364     1.01025438     1.22772762
               1.48234092     1.78043706     2.12944203     2.53805004
               3.01644009     3.57652955     4.23227104     5.00000000

     Gradients computed in reciprocal space

     Adding external electric field

     Computed dipole along edir(3) :
        Dipole               -0.2855 Ry au,         -0.7258 Debye
        Dipole field         -0.0008 Ry au

        Potential amp.        0.0693 Ry
        Total length         45.4439 bohr

     Starting wfc are  160 randomized atomic wfcs

     Self-consistent Calculation

     iteration #  1     ecut=    36.75 Ry     beta=0.30
     Davidson diagonalization with overlap
     ethr =  1.00E-02,  avg # of iterations =  2.0

[...]

     total energy              =   -1943.36986128 Ry
     Harris-Foulkes estimate   =   -1945.34148362 Ry
     estimated scf accuracy    <       4.31587392 Ry

[...]

     End of self-consistent calculation

          k = 0.0000 0.0000 0.0000 ( 17753 PWs)   bands (ev):

   -72.2749 -72.2169 -72.2168 -72.1781 -72.1334 -72.0980 -72.0778 -72.0778
   -72.0721 -72.0607 -72.0576 -72.0576 -36.7776 -36.7776 -36.7580 -36.7390
   -36.7089 -36.7088 -36.6900 -36.5820 -36.5820 -36.5781 -36.4107 -36.3404
   -36.3403 -36.2378 -36.2103 -36.2064 -36.2064 -36.1322 -36.0953 -36.0953
   -36.0284 -36.0048 -35.9951 -35.9950 -35.9748 -35.9748 -35.9290 -35.8857
   -35.8857 -35.8841 -35.8671 -35.8671 -35.7978 -35.7978 -35.7117 -35.7117
   -10.4440  -6.1333  -4.3582  -3.5624  -3.0152  -3.0152  -2.9946  -2.7887
    -2.7886  -2.7778  -2.0329  -2.0329  -2.0175  -1.9775  -1.9775  -1.9670
    -0.8233  -0.8233  -0.5191  -0.0837   0.4156   0.4156   0.6672   0.8508
     1.0761   1.1701   1.1701   1.4454   1.4454   1.6019   1.6019   1.7293
     1.7710   1.7710   1.8550   1.9265   1.9266   2.0263   2.0263   2.4240
     2.8012   3.0753   3.2183   3.2183   3.6429   3.7119   3.7119   3.9528

[...]

          k =-0.0875 0.0505 0.0000 ( 17668 PWs)   bands (ev):

[...]

     the Fermi energy is     2.0360 ev

!    total energy              =   -1944.94063302 Ry
     Harris-Foulkes estimate   =   -1944.94065268 Ry
     estimated scf accuracy    <       0.00000930 Ry

     The total energy is the sum of the following terms:

     one-electron contribution =  -14910.72533884 Ry
     hartree contribution      =    7438.69779601 Ry
     xc contribution           =    -515.57622554 Ry
     ewald contribution        =    6042.75656026 Ry
     electric field correction =       0.00031772 Ry
     smearing contrib. (-TS)   =      -0.09374263 Ry

     convergence has been achieved in  13 iterations

 BEEF-vdW xc energy contributions
           1 :   -453.510462218553
           2 :    419.406580920376
           3 :   -359.425835910166
           4 :    286.776035641156
           5 :   -215.113734853453
           6 :    154.618029650945
           7 :   -109.871017515992
           8 :    79.9922841581714
           9 :   -60.5933565817426
          10 :    46.4677129793754
          11 :   -33.8250035389592
          12 :    21.2825020156954
          13 :   -9.51538576520187
          14 :   7.035350441611854E-002
          15 :    5.89808807452437
          16 :   -8.36705525357718
          17 :    8.43399139197999
          18 :   -7.70685439266055
          19 :    7.49963957997625
          20 :   -8.27778427387807
          21 :    9.61175314967920
          22 :   -10.6039187407266
          23 :    10.5082497664030
          24 :   -9.18994303637919
          25 :    7.19263921694233
          26 :   -5.41572231896384
          27 :    4.60665826719287
          28 :   -4.95931581234834
          29 :    6.03756418618093
          30 :   -7.04697548816597
          31 :   -41.1584913931270
          32 :   -30.7957003808820

     Forces acting on atoms (Ry/au):

     negative rho (up, down):  7.923E-01 0.000E+00
     atom    1 type  1   force =     0.00159010    0.00092787   -0.00152176
     atom    2 type  1   force =    -0.00159404    0.00090733   -0.00151269
     atom    3 type  1   force =    -0.00001441   -0.00183847   -0.00151812
     atom    4 type  1   force =     0.00001846   -0.00000083   -0.00053295
     atom    5 type  1   force =     0.00000812    0.00200759   -0.00475014
     atom    6 type  1   force =    -0.00001035   -0.00000484    0.01616089
     atom    7 type  1   force =    -0.00173546   -0.00100305   -0.00474852
     atom    8 type  1   force =     0.00173496   -0.00099424   -0.00475121
     atom    9 type  1   force =    -0.00000854   -0.00000270    0.22856661
     atom   10 type  1   force =     0.00000893    0.00527520   -0.01725453
     atom   11 type  1   force =     0.00456987   -0.00263265   -0.01725895
     atom   12 type  1   force =    -0.00456837   -0.00264223   -0.01724201
     atom   13 type  2   force =     0.00000072    0.00000102   -0.17363664

     Total force =     0.288736     Total SCF correction =     0.007516

     entering subroutine stress ...

     negative rho (up, down):  7.923E-01 0.000E+00
          total   stress  (Ry/bohr**3)                   (kbar)     P=  -50.64
  -0.00041218  -0.00000000  -0.00000001        -60.63     -0.00     -0.00
  -0.00000000  -0.00041219  -0.00000000         -0.00    -60.64     -0.00
  -0.00000001  -0.00000000  -0.00020836         -0.00     -0.00    -30.65

     BFGS Geometry Optimization

     number of scf cycles    =   1
     number of bfgs steps    =   0

     energy   new            =   -1944.9406330229 Ry

     new trust radius        =       0.2285666150 bohr
     new conv_thr            =       0.0000099958 Ry

ATOMIC_POSITIONS (crystal)
W1       0.166666667   0.166666667   0.405441099    0   0   0
W1       0.666666667   0.166666667   0.405441099    0   0   0
W1       0.166666667   0.666666667   0.405441099    0   0   0
W1       0.666666667   0.666666667   0.405441099    0   0   0
W1       0.833333333   0.333333333   0.500000000    0   0   0
W1       0.333333333   0.333333333   0.500000000    0   0   0
W1       0.833333333   0.833333333   0.500000000    0   0   0
W1       0.333333333   0.833333333   0.500000000    0   0   0
W1      -0.000000646  -0.000000289   0.599462802
W1       0.499718710   0.000564234   0.594188705
W1       0.000564100   0.499718413   0.594188610
W1       0.499718138   0.499717388   0.594188973
N1       0.000000012   0.000000109   0.671131133

     Writing output data file calc.save
     Check: negative starting charge=   -0.760404
     NEW-OLD atomic charge density approx. for the potential
     Check: negative starting charge=   -0.761396

[...]

     energy   old            =   -1944.9406330229 Ry
     energy   new            =   -1944.9952177544 Ry

     CASE: energy  _new < energy  _old

[...]

     Total force =     0.011452     Total SCF correction =     0.001340
     SCF correction compared to forces is large: reduce conv_thr to get better values

[...]

     Total force =     0.006638     Total SCF correction =     0.000564

[...]

     number of scf cycles    =  12
     number of bfgs steps    =  11

     energy   old            =   -1945.0170842559 Ry
     energy   new            =   -1945.0172877603 Ry

     CASE: energy  _new < energy  _old

     new trust radius        =       0.0123322644 bohr
     new conv_thr            =       0.0000001000 Ry

ATOMIC_POSITIONS (crystal)
W1       0.166666667   0.166666667   0.405441099    0   0   0
W1       0.666666667   0.166666667   0.405441099    0   0   0
W1       0.166666667   0.666666667   0.405441099    0   0   0
W1       0.666666667   0.666666667   0.405441099    0   0   0
W1       0.833333333   0.333333333   0.500000000    0   0   0
W1       0.333333333   0.333333333   0.500000000    0   0   0
W1       0.833333333   0.833333333   0.500000000    0   0   0
W1       0.333333333   0.833333333   0.500000000    0   0   0
W1      -0.000000542   0.000000465   0.611437106
W1       0.503489245  -0.006978611   0.588662480
W1      -0.006979671   0.503489499   0.588662519
W1       0.503488286   0.503490092   0.588662328
N1       0.000000719   0.000000565   0.681396679

     Writing output data file calc.save
     Check: negative starting charge=   -0.761492
     NEW-OLD atomic charge density approx. for the potential
     Check: negative starting charge=   -0.761576

[...]

     Self-consistent Calculation

[...]

     Threshold (ethr) on eigenvalues was too large:
     Diagonalizing with lowered threshold

     Davidson diagonalization with overlap
     ethr =  7.14E-08,  avg # of iterations =  1.5

[...]

     total energy              =   -1945.01733795 Ry
     Harris-Foulkes estimate   =   -1945.01733804 Ry
     estimated scf accuracy    <       0.00000011 Ry

     iteration # 10     ecut=    36.75 Ry     beta=0.30
     Davidson diagonalization with overlap
     ethr =  6.08E-11,  avg # of iterations =  3.4

[...]

     negative rho (up, down):  7.930E-01 0.000E+00

     Adding external electric field

     Computed dipole along edir(3) :
        Dipole               -0.5359 Ry au,         -1.3620 Debye
        Dipole field         -0.0014 Ry au

        Potential amp.        0.1301 Ry
        Total length         45.4439 bohr

     End of self-consistent calculation

[...]

          k = 0.0583-0.0674 0.0000 ( 17692 PWs)   bands (ev):

[...]

          k =-0.0875-0.0505 0.0000 ( 17668 PWs)   bands (ev):

   -72.3649 -72.3620 -72.3237 -72.3230 -72.3225 -72.3156 -72.2896 -72.2800
   -72.2357 -72.2196 -72.2086 -71.7437 -36.8575 -36.8442 -36.8271 -36.7761
   -36.7654 -36.7343 -36.6709 -36.6364 -36.6181 -36.6110 -36.5383 -36.4884
   -36.4331 -36.3997 -36.3962 -36.3752 -36.3629 -36.3384 -36.3341 -36.3143
   -36.2721 -36.2689 -36.2221 -36.2115 -36.1830 -36.1547 -36.1325 -36.1239
   -36.0729 -36.0601 -36.0552 -36.0392 -36.0279 -35.9503 -35.8508 -35.7533
   -10.3127  -4.4801  -4.3605  -2.9708  -2.7470  -2.2614  -2.1959  -2.1824
    -2.0518  -2.0282  -1.9272  -1.3213  -1.3138  -1.1305  -0.9886  -0.8475
    -0.6734  -0.6391  -0.6311  -0.5520  -0.2800  -0.1707  -0.0960  -0.0690
     0.1457   0.1648   0.5261   0.6173   0.6565   0.6930   0.7079   0.7735
     0.8628   0.9686   1.1003   1.1751   1.2316   1.4011   1.4663   1.6785
     1.9023   1.9895   2.6163   2.6995   2.8600   2.8716   3.1109   3.1349

     the Fermi energy is     1.8009 ev

!    total energy              =   -1945.01733792 Ry
     Harris-Foulkes estimate   =   -1945.01733913 Ry
     estimated scf accuracy    <       0.00000005 Ry

     The total energy is the sum of the following terms:

     one-electron contribution =  -14872.14212778 Ry
     hartree contribution      =    7418.73530787 Ry
     xc contribution           =    -515.91135666 Ry
     ewald contribution        =    6024.39074488 Ry
     electric field correction =       0.00076703 Ry
     smearing contrib. (-TS)   =      -0.09067326 Ry

     convergence has been achieved in  10 iterations

 BEEF-vdW xc energy contributions
           1 :   -453.836850997345
           2 :    419.749255151177
           3 :   -359.791935700466
           4 :    287.134281898636
           5 :   -215.388126310971
           6 :    154.722464831163
           7 :   -109.757813191867
           8 :    79.6817443907872
           9 :   -60.1671329897431
          10 :    46.0311222338609
          11 :   -33.4612881254525
          12 :    21.0210236747893
          13 :   -9.32459824467514
          14 :  -0.122952907847832
          15 :    6.17295262852133
          16 :   -8.77302077039047
          17 :    8.96692895550831
          18 :   -8.30358556039539
          19 :    8.05809425167308
          20 :   -8.69935271480051
          21 :    9.84779049409406
          22 :   -10.6823011528542
          23 :    10.5219353197422
          24 :   -9.24779862001981
          25 :    7.35945327930210
          26 :   -5.67651407718694
          27 :    4.87531400122674
          28 :   -5.13068622860709
          29 :    6.05522571759400
          30 :   -6.94307225855601
          31 :   -41.1759285568627
          32 :   -30.8108597433705

     Forces acting on atoms (Ry/au):

     negative rho (up, down):  7.930E-01 0.000E+00
     atom    1 type  1   force =     0.00138248    0.00079813    0.00605231
     atom    2 type  1   force =    -0.00138235    0.00079805    0.00605218
     atom    3 type  1   force =     0.00000003   -0.00159632    0.00605223
     atom    4 type  1   force =     0.00000013   -0.00000001   -0.00277460
     atom    5 type  1   force =     0.00000039   -0.03321302    0.00125779
     atom    6 type  1   force =     0.00000008   -0.00000032   -0.01815714
     atom    7 type  1   force =     0.02876334    0.01660625    0.00125833
     atom    8 type  1   force =    -0.02876331    0.01660690    0.00125760
     atom    9 type  1   force =    -0.00000007   -0.00000014   -0.00111646
     atom   10 type  1   force =    -0.00000013    0.00040192   -0.00037638
     atom   11 type  1   force =     0.00034748   -0.00020069   -0.00037657
     atom   12 type  1   force =    -0.00034820   -0.00020079   -0.00037576
     atom   13 type  2   force =     0.00000014    0.00000003    0.00124647

     Total force =     0.001926     Total SCF correction =     0.000549
     SCF correction compared to forces is large: reduce conv_thr to get better values

     entering subroutine stress ...

     negative rho (up, down):  7.930E-01 0.000E+00
          total   stress  (Ry/bohr**3)                   (kbar)     P=  -36.71
  -0.00032627   0.00000000  -0.00000000        -48.00      0.00     -0.00
   0.00000000  -0.00032627   0.00000000          0.00    -48.00      0.00
  -0.00000000   0.00000000  -0.00009608         -0.00      0.00    -14.13

     bfgs converged in  13 scf cycles and  12 bfgs steps
     (criteria: energy <  1.0E+00, force <  1.9E-03)

     End of BFGS Geometry Optimization

     Final energy   =   -1945.0173379156 Ry
Begin final coordinates

ATOMIC_POSITIONS (crystal)
W1       0.166666667   0.166666667   0.405441099    0   0   0
W1       0.666666667   0.166666667   0.405441099    0   0   0
W1       0.166666667   0.666666667   0.405441099    0   0   0
W1       0.666666667   0.666666667   0.405441099    0   0   0
W1       0.833333333   0.333333333   0.500000000    0   0   0
W1       0.333333333   0.333333333   0.500000000    0   0   0
W1       0.833333333   0.833333333   0.500000000    0   0   0
W1       0.333333333   0.833333333   0.500000000    0   0   0
W1      -0.000000542   0.000000465   0.611437106
W1       0.503489245  -0.006978611   0.588662480
W1      -0.006979671   0.503489499   0.588662519
W1       0.503488286   0.503490092   0.588662328
N1       0.000000719   0.000000565   0.681396679
End final coordinates

     Writing output data file calc.save

     General routines

     Parallel routines

   This run was terminated on:   6:40:50   3May2018

   JOB DONE.
Job  /afs/slac/g/suncat/bin/suncat-tsmpirun -x LD_LIBRARY_PATH -wdir /scratch/qe616253_m7IZd pw.x -npool 4 -in pw.inp

TID   HOST_NAME   COMMAND_LINE            STATUS            TERMINATION_TIME
00000 suncat0071 pw.x -npool 4 -i  Done                     05/03/2018 06:40:51
00001 suncat0071 pw.x -npool 4 -i  Done                     05/03/2018 06:40:51
00002 suncat0071 pw.x -npool 4 -i  Done                     05/03/2018 06:40:51
00003 suncat0071 pw.x -npool 4 -i  Done                     05/03/2018 06:40:51
00004 suncat0071 pw.x -npool 4 -i  Done                     05/03/2018 06:40:51
00005 suncat0071 pw.x -npool 4 -i  Done                     05/03/2018 06:40:51
00006 suncat0071 pw.x -npool 4 -i  Done                     05/03/2018 06:40:51
00007 suncat0071 pw.x -npool 4 -i  Done                     05/03/2018 06:40:51
00008 suncat0069 pw.x -npool 4 -i  Done                     05/03/2018 06:40:51
00009 suncat0069 pw.x -npool 4 -i  Done                     05/03/2018 06:40:51
00010 suncat0069 pw.x -npool 4 -i  Done                     05/03/2018 06:40:51
00011 suncat0069 pw.x -npool 4 -i  Done                     05/03/2018 06:40:51
00012 suncat0069 pw.x -npool 4 -i  Done                     05/03/2018 06:40:51
00013 suncat0069 pw.x -npool 4 -i  Done                     05/03/2018 06:40:51
00014 suncat0069 pw.x -npool 4 -i  Done                     05/03/2018 06:40:51
00015 suncat0069 pw.x -npool 4 -i  Done                     05/03/2018 06:40:51
00016 suncat0034 pw.x -npool 4 -i  Done                     05/03/2018 06:40:51
00017 suncat0034 pw.x -npool 4 -i  Done                     05/03/2018 06:40:51
00018 suncat0034 pw.x -npool 4 -i  Done                     05/03/2018 06:40:51
00019 suncat0034 pw.x -npool 4 -i  Done                     05/03/2018 06:40:51
00020 suncat0034 pw.x -npool 4 -i  Done                     05/03/2018 06:40:51
00021 suncat0034 pw.x -npool 4 -i  Done                     05/03/2018 06:40:51
00022 suncat0034 pw.x -npool 4 -i  Done                     05/03/2018 06:40:51
00023 suncat0034 pw.x -npool 4 -i  Done                     05/03/2018 06:40:51
00024 suncat0022 pw.x -npool 4 -i  Done                     05/03/2018 06:40:51
00025 suncat0022 pw.x -npool 4 -i  Done                     05/03/2018 06:40:51
00026 suncat0022 pw.x -npool 4 -i  Done                     05/03/2018 06:40:51
00027 suncat0022 pw.x -npool 4 -i  Done                     05/03/2018 06:40:51
00028 suncat0022 pw.x -npool 4 -i  Done                     05/03/2018 06:40:51
00029 suncat0022 pw.x -npool 4 -i  Done                     05/03/2018 06:40:51
00030 suncat0022 pw.x -npool 4 -i  Done                     05/03/2018 06:40:51
00031 suncat0022 pw.x -npool 4 -i  Done                     05/03/2018 06:40:51