     Program PWSCF v.5.1rc2 starts on 27Apr2018 at 11:27: 4

     Current dimensions of program PWSCF are:
     Max number of different atomic species (ntypx) = 10
     Max number of k-points (npk) =  40000
     Max angular momentum in pseudopotentials (lmaxx) =  3
     Presently stress not available with electric field

     IMPORTANT: XC functional enforced from input :
     Exchange-correlation      = BEEF-VDW ( 1  4 27 13 2)
     Any further DFT definition will be discarded
     Please, verify this is what you really want

     bravais-lattice index     =            0
     lattice parameter (alat)  =       1.8897  a.u.
     unit-cell volume          =    7276.7660 (a.u.)^3
     number of atoms/cell      =           14
     number of atomic types    =            3
     number of electrons       =       187.00
     number of Kohn-Sham states=          103
     kinetic-energy cutoff     =      36.7493  Ry
     charge density cutoff     =     367.4932  Ry
     convergence threshold     =      1.0E-05
     mixing beta               =       0.3000
     number of iterations used =           10  plain     mixing
     Exchange-correlation      = BEEF-VDW ( 1  4 27 13 2)
     nstep                     =           50

     celldm(1)=   1.889726  celldm(2)=   0.000000  celldm(3)=   0.000000
     celldm(4)=   0.000000  celldm(5)=   0.000000  celldm(6)=   0.000000

     crystal axes: (cart. coord. in units of alat)
               a(1) = (   6.962526   0.000000   0.000000 )
               a(2) = (   3.481263   6.029724   0.000000 )
               a(3) = (   0.000000   0.000000  25.684879 )

     reciprocal axes: (cart. coord. in units 2 pi/alat)
               b(1) = (  0.143626 -0.082923  0.000000 )
               b(2) = (  0.000000  0.165845  0.000000 )
               b(3) = (  0.000000  0.000000  0.038933 )

     PseudoPot. # 1 for Bi read from file:
     /home/users/mamunm/src/pseudo/gbrv1.5pbe/Bi.UPF
     MD5 check sum: 81103212dc04adf40945787f699eab19
     Pseudo is Ultrasoft + core correction, Zval = 15.0
     Generated by new atomic code, or converted to UPF format
     Using radial grid of  899 points,  6 beta functions with:
                l(1) =   0
                l(2) =   0
                l(3) =   1
                l(4) =   1
                l(5) =   2
                l(6) =   2
     Q(r) pseudized with  6 coefficients,  rinner =    1.000   1.000   1.000
                                                       1.000   1.000

     PseudoPot. # 2 for O  read from file:
     /home/users/mamunm/src/pseudo/gbrv1.5pbe/O.UPF
     MD5 check sum: 734c27235a0248c51dbae37a1fbe46ec
     Pseudo is Ultrasoft + core correction, Zval =  6.0
     Generated by new atomic code, or converted to UPF format
     Using radial grid of  737 points,  5 beta functions with:
                l(1) =   0
                l(2) =   0
                l(3) =   1
                l(4) =   1
                l(5) =   2
     Q(r) pseudized with  8 coefficients,  rinner =    0.900   0.900   0.900
                                                       0.900   0.900

     PseudoPot. # 3 for H  read from file:
     /home/users/mamunm/src/pseudo/gbrv1.5pbe/H.UPF
     MD5 check sum: 761ae9a214b05c3daf00ab9f6b793d6f
     Pseudo is Ultrasoft, Zval =  1.0
     Generated by new atomic code, or converted to UPF format
     Using radial grid of  615 points,  2 beta functions with:
                l(1) =   0
                l(2) =   0
     Q(r) pseudized with  8 coefficients,  rinner =    0.700

     vdW kernel table read from file vdW_kernel_table
     MD5 check sum: 095c7af220d748ca6e76c0b4c6cfb241

     atomic species   valence    mass     pseudopotential
        Bi1           15.00   208.98040     Bi( 1.00)
        O1             6.00    15.99900     O ( 1.00)
        H1             1.00     1.00800     H ( 1.00)

     No symmetry found

   Cartesian axes

     site n.     atom                  positions (alat units)
         1           Bi1 tau(   1) = (   1.7406315   1.0049541  10.0000000  )
         2           Bi1 tau(   2) = (   5.2218945   1.0049541  10.0000000  )
         3           Bi1 tau(   3) = (   3.4812630   4.0198163  10.0000000  )
         4           Bi1 tau(   4) = (   6.9625260   4.0198163  10.0000000  )
         5           Bi1 tau(   5) = (   6.9625260   2.0099081  12.8424393  )
         6           Bi1 tau(   6) = (   3.4812630   2.0099081  12.8424393  )
         7           Bi1 tau(   7) = (   8.7031575   5.0247703  12.8424393  )
         8           Bi1 tau(   8) = (   5.2218945   5.0247703  12.8424393  )
         9           Bi1 tau(   9) = (   0.0000000   0.0000000  15.6848787  )
        10           Bi1 tau(  10) = (   3.4812630   0.0000000  15.6848787  )
        11           Bi1 tau(  11) = (   1.7406315   3.0148622  15.6848787  )
        12           Bi1 tau(  12) = (   5.2218945   3.0148622  15.6848787  )
        13           O1  tau(  13) = (   1.7406315   1.0049541  17.0758787  )
        14           H1  tau(  14) = (   1.7406315   1.0049541  18.0258787  )

     number of k points=    20  Fermi-Dirac smearing, width (Ry)=  0.0110
                       cart. coord. in units 2pi/alat
        k(    1) = (   0.0000000   0.0000000   0.0000000), wk =   0.0555556
        k(    2) = (   0.0000000   0.0276408   0.0000000), wk =   0.1111111
        k(    3) = (   0.0000000   0.0552817   0.0000000), wk =   0.1111111
        k(    4) = (   0.0000000  -0.0829225   0.0000000), wk =   0.0555556
        k(    5) = (   0.0239377  -0.0138204   0.0000000), wk =   0.1111111
        k(    6) = (   0.0239377   0.0138204   0.0000000), wk =   0.1111111
        k(    7) = (   0.0239377   0.0414613   0.0000000), wk =   0.1111111
        k(    8) = (   0.0239377  -0.0967430   0.0000000), wk =   0.1111111
        k(    9) = (   0.0239377  -0.0691021   0.0000000), wk =   0.1111111
        k(   10) = (   0.0239377  -0.0414613   0.0000000), wk =   0.1111111
        k(   11) = (   0.0478753  -0.0276408   0.0000000), wk =   0.1111111
        k(   12) = (   0.0478753  -0.0000000   0.0000000), wk =   0.1111111
        k(   13) = (   0.0478753   0.0276408   0.0000000), wk =   0.1111111
        k(   14) = (   0.0478753  -0.1105634   0.0000000), wk =   0.1111111
        k(   15) = (   0.0478753  -0.0829225   0.0000000), wk =   0.1111111
        k(   16) = (   0.0478753  -0.0552817   0.0000000), wk =   0.1111111
        k(   17) = (  -0.0718130   0.0414613   0.0000000), wk =   0.0555556
        k(   18) = (  -0.0718130   0.0691021   0.0000000), wk =   0.1111111
        k(   19) = (  -0.0718130   0.0967430   0.0000000), wk =   0.1111111
        k(   20) = (  -0.0718130  -0.0414613   0.0000000), wk =   0.0555556

     Largest allocated arrays     est. size (Mb)     dimensions
     Largest temporary arrays     est. size (Mb)     dimensions

     Check: negative/imaginary core charge=   -0.000001    0.000000

     Initial potential from superposition of free atoms
     Check: negative starting charge=   -0.503185

     starting charge  174.99949, renormalised to  187.00000

     negative rho (up, down):  5.377E-01 0.000E+00

     *
     * You are using vdW-DF for exchange-correlation in this calculation.
     * Please cite the following three references that made this development
     * possible:
     *
     *   M. Dion, H. Rydberg, E. Schroder, D. C. Langreth, and
     *   B. I. Lundqvist, Phys. Rev. Lett. 92, 246401 (2004).
     *
     *   T. Thonhauser, V. R. Cooper, S. Li, A. Puzder, P. Hyldgaard, and
     *   D. C. Langreth, Phys. Rev. B 76, 125112 (2007).
     *
     *   G. Roman-Perez and J. M. Soler, Phys. Rev. Lett. 103, 096102 (2009).
     *
     *
     * If you are using vdW-DF2, please also cite:
     *
     *   K. Lee, E. D. Murray, L. Kong, B. I. Lundqvist, and
     *   D. C. Langreth, Phys. Rev. B 82, 081101(R) (2010).
     *
     *
     * If you are calculating the stress with vdW-DF, please also cite:
     *
     *   R. Sabatini, E. Kucukbenli, B. Kolb, T. Thonhauser, and
     *   S. de Gironcoli, J. Phys.: Condens. Matter 24, 424209 (2012).
     *

     Carrying out vdW-DF run using the following parameters:

     Nqs =      20    Nr_points =    1024   r_max =   100.000
     q_mesh =
               0.00001000     0.04494208     0.09755937     0.15916263
               0.23128650     0.31572767     0.41458969     0.53033537
               0.66584808     0.82450364     1.01025438     1.22772762
               1.48234092     1.78043706     2.12944203     2.53805004
               3.01644009     3.57652955     4.23227104     5.00000000

     Gradients computed in reciprocal space

     Adding external electric field

     Computed dipole along edir(3) :
        Dipole               -3.9632 Ry au,        -10.0734 Debye
        Dipole field         -0.0068 Ry au

        Potential amp.        0.6478 Ry
        Total length         47.3240 bohr

     Starting wfc are  113 randomized atomic wfcs

     Self-consistent Calculation

     iteration #  1     ecut=    36.75 Ry     beta=0.30
     Davidson diagonalization with overlap
     ethr =  1.00E-02,  avg # of iterations =  8.3

[...]

     total energy              =   -2224.38233596 Ry
     Harris-Foulkes estimate   =   -2282.00661650 Ry
     estimated scf accuracy    <     121.96071612 Ry

[...]

     End of self-consistent calculation

          k = 0.0000 0.0000 0.0000 ( 27441 PWs)   bands (ev):

   -22.1228 -22.1085 -22.1084 -22.0875 -22.0637 -22.0521 -22.0521 -22.0501
   -22.0409 -22.0409 -22.0152 -22.0034 -22.0033 -21.9946 -21.9946 -21.9916
   -21.9780 -21.9779 -21.9493 -21.9493 -21.9342 -21.8966 -21.8874 -21.8874
   -21.8869 -21.8606 -21.8606 -21.8562 -21.8562 -21.8402 -21.8386 -21.8386
   -21.8300 -21.8300 -21.8035 -21.8035 -21.7994 -21.7870 -21.7577 -21.7577
   -21.7566 -21.7336 -21.7335 -21.7095 -21.6798 -21.6798 -21.6684 -21.6567
   -21.6567 -21.6555 -21.6436 -21.6436 -21.6395 -21.6395 -21.6335 -21.6335
   -21.6286 -21.6209 -21.6209 -21.6141 -19.0029 -11.9044 -10.8400  -9.7518
    -9.1337  -9.1337  -9.0235  -8.6562  -8.6562  -8.5392  -8.1801  -8.1801
    -8.1549  -6.3879  -3.6507  -3.6507  -3.2614  -2.7566  -2.7566  -2.7333
    -2.4499  -2.4499  -2.3236  -1.8303  -1.8302  -1.2894   0.0309   1.2919
     1.3188   1.3188   1.6062   1.7137   1.7137   2.4078   2.5162   2.5162
     2.8647   3.4420   3.4420   3.5678   3.7337   3.8665   3.8665

[...]

          k =-0.0718 0.0415 0.0000 ( 27378 PWs)   bands (ev):

[...]

     the Fermi energy is     1.7052 ev

!    total energy              =   -2279.56929069 Ry
     Harris-Foulkes estimate   =   -2279.56927097 Ry
     estimated scf accuracy    <       0.00000701 Ry

     The total energy is the sum of the following terms:

     one-electron contribution =  -11103.24121144 Ry
     hartree contribution      =    5610.41737769 Ry
     xc contribution           =    -807.44617328 Ry
     ewald contribution        =    4020.75903202 Ry
     electric field correction =       0.00013862 Ry
     smearing contrib. (-TS)   =      -0.05845431 Ry

     convergence has been achieved in  17 iterations

 BEEF-vdW xc energy contributions
           1 :   -719.687561797185
           2 :    668.642473444014
           3 :   -578.658593122549
           4 :    469.375619935347
           5 :   -361.355253915681
           6 :    270.098475304725
           7 :   -202.577769513866
           8 :    157.127590111449
           9 :   -126.334170221828
          10 :    101.436705231375
          11 :   -76.2922920912532
          12 :    49.3468819757167
          13 :   -23.1223724862924
          14 :    1.88463759195417
          15 :    11.1206045910440
          16 :   -15.4905452686434
          17 :    13.8060534156199
          18 :   -10.2519059615307
          19 :    8.57227365254903
          20 :   -10.4395466110494
          21 :    15.0016702417709
          22 :   -19.7227024419993
          23 :    21.9686374103602
          24 :   -20.4696226066245
          25 :    15.9297081263888
          26 :   -10.5528939742018
          27 :    6.81757205095221
          28 :   -6.18821987272679
          29 :    8.43176056059144
          30 :   -11.8511767670021
          31 :   -57.6123930607322
          32 :   -42.3670797026919

     Forces acting on atoms (Ry/au):

     negative rho (up, down):  5.260E-01 0.000E+00
     atom    1 type  1   force =    -0.00000306    0.00000547   -0.00640498
     atom    2 type  1   force =     0.00001383    0.00286886   -0.00967869
     atom    3 type  1   force =     0.00246535   -0.00143909   -0.00971796
     atom    4 type  1   force =    -0.00246807   -0.00144170   -0.00969257
     atom    5 type  1   force =    -0.00112300    0.00063834   -0.00494116
     atom    6 type  1   force =     0.00111451    0.00060324   -0.00492518
     atom    7 type  1   force =    -0.00002233    0.00001764    0.00841726
     atom    8 type  1   force =     0.00001970   -0.00126594   -0.00491984
     atom    9 type  1   force =    -0.02978010   -0.01717847   -0.00696785
     atom   10 type  1   force =     0.02978577   -0.01719587   -0.00694986
     atom   11 type  1   force =    -0.00000644    0.03439451   -0.00696178
     atom   12 type  1   force =     0.00000384   -0.00000498    0.01246945
     atom   13 type  2   force =    -0.00000005   -0.00000128   -0.01803309
     atom   14 type  3   force =     0.00000005   -0.00000070    0.06830624

     Total force =     0.094019     Total SCF correction =     0.006932

     entering subroutine stress ...

     negative rho (up, down):  5.260E-01 0.000E+00
          total   stress  (Ry/bohr**3)                   (kbar)     P=    9.78
   0.00006333  -0.00000000  -0.00000000          9.32     -0.00     -0.00
  -0.00000000   0.00006333   0.00000000         -0.00      9.32      0.00
  -0.00000000   0.00000000   0.00007276         -0.00      0.00     10.70

     BFGS Geometry Optimization

     number of scf cycles    =   1
     number of bfgs steps    =   0

     energy   new            =   -2279.5692906919 Ry

     new trust radius        =       0.0683062398 bohr
     new conv_thr            =       0.0000099958 Ry

ATOMIC_POSITIONS (crystal)
Bi1      0.166666667   0.166666667   0.389334134    0   0   0
Bi1      0.666666667   0.166666667   0.389334134    0   0   0
Bi1      0.166666667   0.666666667   0.389334134    0   0   0
Bi1      0.666666667   0.666666667   0.389334134    0   0   0
Bi1      0.833333333   0.333333333   0.500000000    0   0   0
Bi1      0.333333333   0.333333333   0.500000000    0   0   0
Bi1      0.833333333   0.833333333   0.500000000    0   0   0
Bi1      0.333333333   0.833333333   0.500000000    0   0   0
Bi1     -0.001509592  -0.001507607   0.610522309
Bi1      0.503018393  -0.001509134   0.610522680
Bi1     -0.001509745   0.503018511   0.610522434
Bi1      0.500000510   0.499999563   0.610922770
O1       0.166666719   0.166666554   0.664450714
H1       0.166666701   0.166666605   0.703216278

     Writing output data file calc.save
     Check: negative starting charge=   -0.503185
     NEW-OLD atomic charge density approx. for the potential

     Check: negative/imaginary core charge=   -0.000001    0.000000
     Check: negative starting charge=   -0.502508

[...]

     energy   old            =   -2279.5692906919 Ry
     energy   new            =   -2279.5736138366 Ry

     CASE: energy  _new < energy  _old

[...]

     WARNING: bfgs curvature condition failed, Theta= 0.978
     new trust radius        =       0.0191523092 bohr
     new conv_thr            =       0.0000001000 Ry

[...]

     iteration #  1     ecut=    36.75 Ry     beta=0.30
     Davidson diagonalization with overlap
     c_bands:  1 eigenvalues not converged
     c_bands:  1 eigenvalues not converged
     c_bands:  1 eigenvalues not converged
     ethr =  1.00E-06,  avg # of iterations = 13.2

[...]

     Total force =     0.004156     Total SCF correction =     0.000573
     SCF correction compared to forces is large: reduce conv_thr to get better values

[...]

     Threshold (ethr) on eigenvalues was too large:
     Diagonalizing with lowered threshold

     Davidson diagonalization with overlap
     ethr =  5.45E-08,  avg # of iterations =  1.8

[...]

     WARNING: bfgs curvature condition failed, Theta= 0.944
     new trust radius        =       0.0266128993 bohr
     new conv_thr            =       0.0000001000 Ry

[...]

     Total force =     0.003570     Total SCF correction =     0.000314

[...]

     number of scf cycles    =  26
     number of bfgs steps    =  25

     energy   old            =   -2279.5970851896 Ry
     energy   new            =   -2279.5971774831 Ry

     CASE: energy  _new < energy  _old

     new trust radius        =       0.0598790235 bohr
     new conv_thr            =       0.0000001000 Ry

ATOMIC_POSITIONS (crystal)
Bi1      0.166666667   0.166666667   0.389334134    0   0   0
Bi1      0.666666667   0.166666667   0.389334134    0   0   0
Bi1      0.166666667   0.666666667   0.389334134    0   0   0
Bi1      0.666666667   0.666666667   0.389334134    0   0   0
Bi1      0.833333333   0.333333333   0.500000000    0   0   0
Bi1      0.333333333   0.333333333   0.500000000    0   0   0
Bi1      0.833333333   0.833333333   0.500000000    0   0   0
Bi1      0.333333333   0.833333333   0.500000000    0   0   0
Bi1     -0.012004426  -0.011995034   0.623592231
Bi1      0.524396919  -0.012134919   0.623620830
Bi1     -0.012135707   0.524409043   0.623621170
Bi1      0.499920783   0.499924583   0.611848958
O1       0.166650543   0.166648682   0.682344370
H1       0.166631152   0.166627784   0.720444867

     Writing output data file calc.save
     Check: negative starting charge=   -0.501470
     NEW-OLD atomic charge density approx. for the potential

     Check: negative/imaginary core charge=   -0.000001    0.000000
     Check: negative starting charge=   -0.501762

[...]

     Self-consistent Calculation

[...]

     total energy              =   -2279.59727926 Ry
     Harris-Foulkes estimate   =   -2279.59727916 Ry
     estimated scf accuracy    <       0.00000031 Ry

     iteration #  8     ecut=    36.75 Ry     beta=0.30
     Davidson diagonalization with overlap
     ethr =  1.65E-10,  avg # of iterations =  3.5

[...]

     negative rho (up, down):  5.243E-01 0.000E+00

     Adding external electric field

     Computed dipole along edir(3) :
        Dipole                0.1123 Ry au,          0.2854 Debye
        Dipole field          0.0002 Ry au

        Potential amp.       -0.0184 Ry
        Total length         47.3240 bohr

     End of self-consistent calculation

[...]

          k = 0.0479-0.0553 0.0000 ( 27352 PWs)   bands (ev):

[...]

          k =-0.0718-0.0415 0.0000 ( 27378 PWs)   bands (ev):

   -22.1539 -22.1396 -22.1112 -22.0973 -22.0973 -22.0865 -22.0790 -22.0781
   -22.0770 -22.0755 -22.0749 -22.0718 -22.0603 -22.0511 -22.0483 -22.0453
   -22.0394 -22.0393 -22.0305 -22.0123 -22.0116 -22.0005 -21.9981 -21.9786
   -21.9688 -21.9486 -21.9420 -21.9354 -21.9284 -21.9237 -21.9197 -21.9167
   -21.9130 -21.8952 -21.8918 -21.8811 -21.8754 -21.8694 -21.8512 -21.8499
   -21.8418 -21.8400 -21.8391 -21.8353 -21.8351 -21.8345 -21.8314 -21.8300
   -21.8294 -21.8281 -21.8227 -21.8099 -21.8075 -21.7960 -21.7900 -21.7779
   -21.7758 -21.7745 -21.7710 -21.7607 -17.8895 -10.9297 -10.8398 -10.2375
    -9.8376  -9.3113  -9.2543  -9.2042  -9.0961  -8.6334  -8.5855  -8.2478
    -8.1850  -5.2204  -2.5493  -2.1487  -1.9585  -1.7995  -1.7604  -1.6581
    -1.6258  -1.5365  -1.1432  -0.5449  -0.4505  -0.3353  -0.2148  -0.1253
     0.4885   0.7897   0.9161   1.0014   1.0128   1.1419   1.1481   1.4358
     1.4734   1.7255   1.9044   2.3000   2.6147   2.6884   3.4029

     the Fermi energy is     1.5809 ev

!    total energy              =   -2279.59727920 Ry
     Harris-Foulkes estimate   =   -2279.59727933 Ry
     estimated scf accuracy    <       0.00000005 Ry

     The total energy is the sum of the following terms:

     one-electron contribution =  -10630.27315255 Ry
     hartree contribution      =    5373.65244024 Ry
     xc contribution           =    -807.18520198 Ry
     ewald contribution        =    3784.26428486 Ry
     electric field correction =       0.00002178 Ry
     smearing contrib. (-TS)   =      -0.05567155 Ry

     convergence has been achieved in   8 iterations

 BEEF-vdW xc energy contributions
           1 :   -719.413644325495
           2 :    668.214714265949
           3 :   -578.044974280465
           4 :    468.693726446689
           5 :   -360.804637906856
           6 :    269.844241822471
           7 :   -202.649451707384
           8 :    157.395489678544
           9 :   -126.577597080493
          10 :    101.464135008737
          11 :   -76.0449885001813
          12 :    48.9279485475156
          13 :   -22.7370700150775
          14 :    1.72683429605081
          15 :    10.9742868743324
          16 :   -15.1215992388734
          17 :    13.4084275390792
          18 :   -10.0273033684887
          19 :    8.62409256831404
          20 :   -10.7209175168306
          21 :    15.3435020920956
          22 :   -19.9256036432359
          23 :    21.9094362396556
          24 :   -20.1662198558247
          25 :    15.5309850990027
          26 :   -10.2593565267422
          27 :    6.77451142296138
          28 :   -6.40840630893615
          29 :    8.78853848575977
          30 :   -12.1447584092678
          31 :   -57.5904844573265
          32 :   -42.3040906530571

     Forces acting on atoms (Ry/au):

     negative rho (up, down):  5.243E-01 0.000E+00
     atom    1 type  1   force =     0.00001227    0.00000720   -0.00542563
     atom    2 type  1   force =    -0.00000292   -0.00055564   -0.00693169
     atom    3 type  1   force =    -0.00048228    0.00027537   -0.00693220
     atom    4 type  1   force =     0.00047074    0.00027134   -0.00694101
     atom    5 type  1   force =     0.00480297   -0.00276334    0.00284168
     atom    6 type  1   force =    -0.00480183   -0.00277240    0.00283918
     atom    7 type  1   force =    -0.00002104   -0.00001264    0.01747326
     atom    8 type  1   force =     0.00000889    0.00554103    0.00284183
     atom    9 type  1   force =     0.00105113    0.00060876    0.00006178
     atom   10 type  1   force =    -0.00099884    0.00058158    0.00008210
     atom   11 type  1   force =     0.00000345   -0.00115521    0.00008237
     atom   12 type  1   force =    -0.00002266   -0.00001383   -0.00096314
     atom   13 type  2   force =     0.00000072    0.00000053    0.00030241
     atom   14 type  3   force =    -0.00002058   -0.00001275    0.00066908

     Total force =     0.002373     Total SCF correction =     0.000554
     SCF correction compared to forces is large: reduce conv_thr to get better values

     entering subroutine stress ...

     negative rho (up, down):  5.243E-01 0.000E+00
          total   stress  (Ry/bohr**3)                   (kbar)     P=    2.60
   0.00002438  -0.00000001   0.00000000          3.59     -0.00      0.00
  -0.00000001   0.00002439   0.00000000         -0.00      3.59      0.00
   0.00000000   0.00000000   0.00000423          0.00      0.00      0.62

     bfgs converged in  27 scf cycles and  26 bfgs steps
     (criteria: energy <  1.0E+00, force <  1.9E-03)

     End of BFGS Geometry Optimization

     Final energy   =   -2279.5972792014 Ry
Begin final coordinates

ATOMIC_POSITIONS (crystal)
Bi1      0.166666667   0.166666667   0.389334134    0   0   0
Bi1      0.666666667   0.166666667   0.389334134    0   0   0
Bi1      0.166666667   0.666666667   0.389334134    0   0   0
Bi1      0.666666667   0.666666667   0.389334134    0   0   0
Bi1      0.833333333   0.333333333   0.500000000    0   0   0
Bi1      0.333333333   0.333333333   0.500000000    0   0   0
Bi1      0.833333333   0.833333333   0.500000000    0   0   0
Bi1      0.333333333   0.833333333   0.500000000    0   0   0
Bi1     -0.012004426  -0.011995034   0.623592231
Bi1      0.524396919  -0.012134919   0.623620830
Bi1     -0.012135707   0.524409043   0.623621170
Bi1      0.499920783   0.499924583   0.611848958
O1       0.166650543   0.166648682   0.682344370
H1       0.166631152   0.166627784   0.720444867
End final coordinates

     Writing output data file calc.save

     General routines

     Parallel routines

   This run was terminated on:  13: 7:21  27Apr2018

   JOB DONE.