     Program PWSCF v.5.1rc2 (svn rev. 11289) starts on 23Apr2018 at 14: 8:11

     Current dimensions of program PWSCF are:
     Max number of different atomic species (ntypx) = 10
     Max number of k-points (npk) =  40000
     Max angular momentum in pseudopotentials (lmaxx) =  3
     Presently stress not available with electric field

     IMPORTANT: XC functional enforced from input :
     Exchange-correlation      = BEEF-VDW ( 1  4 27 13 2)
     Any further DFT definition will be discarded
     Please, verify this is what you really want

     Subspace diagonalization in iterative solution of the eigenvalue problem:
     a serial algorithm will be used

     bravais-lattice index     =            0
     lattice parameter (alat)  =       1.8897  a.u.
     unit-cell volume          =    4301.6107 (a.u.)^3
     number of atoms/cell      =           15
     number of atomic types    =            3
     number of electrons       =       186.00
     number of Kohn-Sham states=          103
     kinetic-energy cutoff     =      36.7493  Ry
     charge density cutoff     =     367.4932  Ry
     convergence threshold     =      1.0E-05
     mixing beta               =       0.3000
     number of iterations used =           10  plain     mixing
     Exchange-correlation      = BEEF-VDW ( 1  4 27 13 2)
     nstep                     =           50

     celldm(1)=   1.889726  celldm(2)=   0.000000  celldm(3)=   0.000000
     celldm(4)=   0.000000  celldm(5)=   0.000000  celldm(6)=   0.000000

     crystal axes: (cart. coord. in units of alat)
               a(1) = (   5.483647   0.000000   0.000000 )
               a(2) = (   2.741823   4.748977   0.000000 )
               a(3) = (   0.000000   0.000000  24.477379 )

     reciprocal axes: (cart. coord. in units 2 pi/alat)
               b(1) = (  0.182360 -0.105286  0.000000 )
               b(2) = (  0.000000  0.210572  0.000000 )
               b(3) = (  0.000000  0.000000  0.040854 )

     PseudoPot. # 1 for Tc read from file:
     /u/if/mamunm/psp/gbrv1.5pbe/Tc.UPF
     MD5 check sum: 9eb49e5b028550b2339a02317eb7b844
     Pseudo is Ultrasoft + core correction, Zval = 15.0
     Generated by new atomic code, or converted to UPF format
     Using radial grid of  965 points,  6 beta functions with:
                l(1) =   0
                l(2) =   0
                l(3) =   1
                l(4) =   1
                l(5) =   2
                l(6) =   2
     Q(r) pseudized with  8 coefficients,  rinner =    1.300   1.300   1.300
                                                       1.300   1.300

     PseudoPot. # 2 for C  read from file:
     /u/if/mamunm/psp/gbrv1.5pbe/C.UPF
     MD5 check sum: d1aef80898a10debaa0f26306b886e00
     Pseudo is Ultrasoft + core correction, Zval =  4.0
     Generated by new atomic code, or converted to UPF format
     Using radial grid of  721 points,  4 beta functions with:
                l(1) =   0
                l(2) =   0
                l(3) =   1
                l(4) =   1
     Q(r) pseudized with  8 coefficients,  rinner =    1.100   1.100   1.100

     PseudoPot. # 3 for H  read from file:
     /u/if/mamunm/psp/gbrv1.5pbe/H.UPF
     MD5 check sum: 761ae9a214b05c3daf00ab9f6b793d6f
     Pseudo is Ultrasoft, Zval =  1.0
     Generated by new atomic code, or converted to UPF format
     Using radial grid of  615 points,  2 beta functions with:
                l(1) =   0
                l(2) =   0
     Q(r) pseudized with  8 coefficients,  rinner =    0.700

     vdW kernel table read from file vdW_kernel_table
     MD5 check sum: 095c7af220d748ca6e76c0b4c6cfb241

     atomic species   valence    mass     pseudopotential
        Tc1           15.00    97.90721     Tc( 1.00)
        C1             4.00    12.01100     C ( 1.00)
        H1             1.00     1.00800     H ( 1.00)

     No symmetry found

   Cartesian axes

     site n.     atom                  positions (alat units)
         1           Tc1 tau(   1) = (   1.3709117   0.7914962  10.0000000  )
         2           Tc1 tau(   2) = (   4.1127351   0.7914962  10.0000000  )
         3           Tc1 tau(   3) = (   2.7418234   3.1659850  10.0000000  )
         4           Tc1 tau(   4) = (   5.4836469   3.1659850  10.0000000  )
         5           Tc1 tau(   5) = (   5.4836469   1.5829925  12.2386895  )
         6           Tc1 tau(   6) = (   2.7418234   1.5829925  12.2386895  )
         7           Tc1 tau(   7) = (   6.8545586   3.9574812  12.2386895  )
         8           Tc1 tau(   8) = (   4.1127351   3.9574812  12.2386895  )
         9           Tc1 tau(   9) = (   0.0000000   0.0000000  14.4773789  )
        10           Tc1 tau(  10) = (   2.7418234   0.0000000  14.4773789  )
        11           Tc1 tau(  11) = (   1.3709117   2.3744887  14.4773789  )
        12           Tc1 tau(  12) = (   4.1127351   2.3744887  14.4773789  )
        13           C1  tau(  13) = (   0.0000000   0.0000000  16.3728789  )
        14           H1  tau(  14) = (   0.6300000   0.6300000  17.0028789  )
        15           H1  tau(  15) = (   7.5954703   4.1189775  17.0028789  )

     number of k points=    20  Fermi-Dirac smearing, width (Ry)=  0.0110
                       cart. coord. in units 2pi/alat
        k(    1) = (   0.0000000   0.0000000   0.0000000), wk =   0.0555556
        k(    2) = (   0.0000000   0.0350953   0.0000000), wk =   0.1111111
        k(    3) = (   0.0000000   0.0701905   0.0000000), wk =   0.1111111
        k(    4) = (   0.0000000  -0.1052858   0.0000000), wk =   0.0555556
        k(    5) = (   0.0303934  -0.0175476   0.0000000), wk =   0.1111111
        k(    6) = (   0.0303934   0.0175476   0.0000000), wk =   0.1111111
        k(    7) = (   0.0303934   0.0526429   0.0000000), wk =   0.1111111
        k(    8) = (   0.0303934  -0.1228335   0.0000000), wk =   0.1111111
        k(    9) = (   0.0303934  -0.0877382   0.0000000), wk =   0.1111111
        k(   10) = (   0.0303934  -0.0526429   0.0000000), wk =   0.1111111
        k(   11) = (   0.0607868  -0.0350953   0.0000000), wk =   0.1111111
        k(   12) = (   0.0607868   0.0000000   0.0000000), wk =   0.1111111
        k(   13) = (   0.0607868   0.0350953   0.0000000), wk =   0.1111111
        k(   14) = (   0.0607868  -0.1403811   0.0000000), wk =   0.1111111
        k(   15) = (   0.0607868  -0.1052858   0.0000000), wk =   0.1111111
        k(   16) = (   0.0607868  -0.0701905   0.0000000), wk =   0.1111111
        k(   17) = (  -0.0911802   0.0526429   0.0000000), wk =   0.0555556
        k(   18) = (  -0.0911802   0.0877382   0.0000000), wk =   0.1111111
        k(   19) = (  -0.0911802   0.1228335   0.0000000), wk =   0.1111111
        k(   20) = (  -0.0911802  -0.0526429   0.0000000), wk =   0.0555556

     Largest allocated arrays     est. size (Mb)     dimensions
     Largest temporary arrays     est. size (Mb)     dimensions

     Check: negative/imaginary core charge=   -0.000022    0.000000

     Initial potential from superposition of free atoms
     Check: negative starting charge=   -1.504761

     starting charge  173.99961, renormalised to  186.00000

     negative rho (up, down):  1.609E+00 0.000E+00

     *
     * You are using vdW-DF for exchange-correlation in this calculation.
     * Please cite the following three references that made this development
     * possible:
     *
     *   M. Dion, H. Rydberg, E. Schroder, D. C. Langreth, and
     *   B. I. Lundqvist, Phys. Rev. Lett. 92, 246401 (2004).
     *
     *   T. Thonhauser, V. R. Cooper, S. Li, A. Puzder, P. Hyldgaard, and
     *   D. C. Langreth, Phys. Rev. B 76, 125112 (2007).
     *
     *   G. Roman-Perez and J. M. Soler, Phys. Rev. Lett. 103, 096102 (2009).
     *
     *
     * If you are using vdW-DF2, please also cite:
     *
     *   K. Lee, E. D. Murray, L. Kong, B. I. Lundqvist, and
     *   D. C. Langreth, Phys. Rev. B 82, 081101(R) (2010).
     *
     *
     * If you are calculating the stress with vdW-DF, please also cite:
     *
     *   R. Sabatini, E. Kucukbenli, B. Kolb, T. Thonhauser, and
     *   S. de Gironcoli, J. Phys.: Condens. Matter 24, 424209 (2012).
     *

     Carrying out vdW-DF run using the following parameters:

     Nqs =      20    Nr_points =    1024   r_max =   100.000
     q_mesh =
               0.00001000     0.04494208     0.09755937     0.15916263
               0.23128650     0.31572767     0.41458969     0.53033537
               0.66584808     0.82450364     1.01025438     1.22772762
               1.48234092     1.78043706     2.12944203     2.53805004
               3.01644009     3.57652955     4.23227104     5.00000000

     Gradients computed in reciprocal space

     Adding external electric field

     Computed dipole along edir(3) :
        Dipole               -3.3966 Ry au,         -8.6332 Debye
        Dipole field         -0.0099 Ry au

        Potential amp.        0.8950 Ry
        Total length         45.0992 bohr

     Starting wfc are  162 randomized atomic wfcs

     Self-consistent Calculation

     iteration #  1     ecut=    36.75 Ry     beta=0.30
     Davidson diagonalization with overlap
     ethr =  1.00E-02,  avg # of iterations =  7.8

[...]

     total energy              =   -1892.42445025 Ry
     Harris-Foulkes estimate   =   -2114.01881150 Ry
     estimated scf accuracy    <     465.52211600 Ry

[...]

     End of self-consistent calculation

          k = 0.0000 0.0000 0.0000 ( 16073 PWs)   bands (ev):

   -64.4055 -64.2781 -64.2355 -64.2289 -64.2151 -64.1635 -64.0988 -64.0519
   -64.0406 -64.0362 -64.0328 -64.0193 -36.8461 -36.8385 -36.8231 -36.7404
   -36.6755 -36.6692 -36.6655 -36.5514 -36.5458 -36.5219 -36.3492 -36.1991
   -36.1792 -36.1699 -36.1484 -36.1081 -36.1056 -36.0971 -36.0753 -36.0746
   -35.9931 -35.9382 -35.9332 -35.8936 -35.8802 -35.8758 -35.8658 -35.8649
   -35.8541 -35.8240 -35.8237 -35.8158 -35.6607 -35.6549 -35.6322 -35.6314
    -9.1404  -3.6553  -3.3284  -2.3731  -2.3432  -2.3030  -2.2954  -2.2467
    -2.1537  -1.9004  -1.8940  -1.7690  -1.7287  -1.6543  -1.3841  -1.3829
    -1.3677  -1.0983  -0.5329  -0.1854  -0.0453   0.5202   0.6654   0.6788
     0.9204   1.1888   1.1921   1.2868   1.4689   1.5014   1.5101   1.5736
     1.5971   1.7424   1.7432   1.9863   2.1332   2.2312   2.4600   3.1361
     3.1788   3.2098   3.2266   3.3926   3.4312   3.5735   3.5818   3.9246
     3.9850   4.0410   4.2464   4.5784   4.5886   4.8764   4.9216

[...]

          k =-0.0912 0.0526 0.0000 ( 16164 PWs)   bands (ev):

[...]

     the Fermi energy is     2.8666 ev

!    total energy              =   -2117.28883708 Ry
     Harris-Foulkes estimate   =   -2117.28882966 Ry
     estimated scf accuracy    <       0.00000542 Ry

     The total energy is the sum of the following terms:

     one-electron contribution =  -18965.00571862 Ry
     hartree contribution      =    9485.90300163 Ry
     xc contribution           =    -402.21948279 Ry
     ewald contribution        =    7764.12620604 Ry
     electric field correction =       0.00011936 Ry
     smearing contrib. (-TS)   =      -0.09296270 Ry

     convergence has been achieved in  28 iterations

 BEEF-vdW xc energy contributions
           1 :   -352.246263281382
           2 :    323.699516510444
           3 :   -273.038584884083
           4 :    210.520394965661
           5 :   -146.967646930367
           6 :    90.8314648380274
           7 :   -46.6009498420089
           8 :    14.7167836170886
           9 :    7.17427184570658
          10 :   -22.3796865864477
          11 :    33.4919729818707
          12 :   -41.5300091496924
          13 :    46.0075243595033
          14 :   -45.7352789233078
          15 :    39.8642774185354
          16 :   -28.7038518411803
          17 :    13.9651909402280
          18 :    1.62102909122012
          19 :   -15.1281313544034
          20 :    24.3118361537717
          21 :   -28.1923804613630
          22 :    27.1228127054008
          23 :   -22.3882471235228
          24 :    15.5669915031296
          25 :   -7.97225489273188
          26 :   0.392721371950529
          27 :    6.81954287293166
          28 :   -13.4506183074978
          29 :    19.1298680833656
          30 :   -23.2218800524328
          31 :   -33.6716427578731
          32 :   -24.6938071844011

     Forces acting on atoms (Ry/au):

     negative rho (up, down):  1.588E+00 0.000E+00
     atom    1 type  1   force =    -0.00045470   -0.00060325    0.02808473
     atom    2 type  1   force =    -0.00141058    0.00123895    0.02761701
     atom    3 type  1   force =     0.00065829   -0.00045163    0.02781256
     atom    4 type  1   force =    -0.00125338   -0.00008607    0.03739953
     atom    5 type  1   force =     0.00111050    0.01233283   -0.01050318
     atom    6 type  1   force =     0.00196668    0.00001861   -0.00463721
     atom    7 type  1   force =    -0.00541273   -0.00364970   -0.00243681
     atom    8 type  1   force =     0.01672420   -0.00892836   -0.01828753
     atom    9 type  1   force =    -0.01508444   -0.00018234   -0.02264879
     atom   10 type  1   force =     0.00122142   -0.00272223   -0.03781055
     atom   11 type  1   force =    -0.00146454    0.00160413   -0.04442380
     atom   12 type  1   force =     0.00327111    0.00128370   -0.03187783
     atom   13 type  2   force =    -0.00011319    0.00020159    0.04299954
     atom   14 type  3   force =     0.00466278    0.00438698    0.00437119
     atom   15 type  3   force =    -0.00442142   -0.00444322    0.00434113

     Total force =     0.084576     Total SCF correction =     0.002287

     entering subroutine stress ...

     negative rho (up, down):  1.588E+00 0.000E+00
          total   stress  (Ry/bohr**3)                   (kbar)     P=  -28.53
  -0.00020426  -0.00000091  -0.00000923        -30.05     -0.13     -1.36
  -0.00000091  -0.00020305   0.00000015         -0.13    -29.87      0.02
  -0.00000923   0.00000015  -0.00017445         -1.36      0.02    -25.66

     BFGS Geometry Optimization

     number of scf cycles    =   1
     number of bfgs steps    =   0

     energy   new            =   -2117.2888370846 Ry

     new trust radius        =       0.0444768712 bohr
     new conv_thr            =       0.0000099958 Ry

ATOMIC_POSITIONS (crystal)
Tc1      0.166666667   0.166666667   0.408540475    0   0   0
Tc1      0.666666667   0.166666667   0.408540475    0   0   0
Tc1      0.166666667   0.666666667   0.408540475    0   0   0
Tc1      0.666666667   0.666666667   0.408540475    0   0   0
Tc1      0.833333333   0.333333333   0.500000000    0   0   0
Tc1      0.333333333   0.333333333   0.500000000    0   0   0
Tc1      0.833333333   0.833333333   0.500000000    0   0   0
Tc1      0.333333333   0.833333333   0.500000000    0   0   0
Tc1     -0.001445504  -0.000020318   0.590969880
Tc1      0.500269537  -0.000303338   0.590642098
Tc1     -0.000230704   0.500178748   0.590499126
Tc1      0.500244144   0.500143042   0.590770358
C1      -0.000022155   0.000022463   0.669827981
H1       0.048762522   0.133148977   0.694730923
H1       0.951263902   0.866844757   0.694730273

     Writing output data file calc.save
     Check: negative starting charge=   -1.504761
     NEW-OLD atomic charge density approx. for the potential

     Check: negative/imaginary core charge=   -0.000022    0.000000
     Check: negative starting charge=   -1.510894

[...]

     iteration #  1     ecut=    36.75 Ry     beta=0.30
     Davidson diagonalization with overlap
     c_bands:  1 eigenvalues not converged
     ethr =  1.00E-06,  avg # of iterations = 13.6

[...]

     Total force =     0.065337     Total SCF correction =     0.011364
     SCF correction compared to forces is large: reduce conv_thr to get better values

[...]

     energy   old            =   -2117.2888370846 Ry
     energy   new            =   -2117.2945081185 Ry

     CASE: energy  _new < energy  _old

[...]

     iteration #  1     ecut=    36.75 Ry     beta=0.30
     Davidson diagonalization with overlap
     c_bands:  1 eigenvalues not converged
     c_bands:  1 eigenvalues not converged
     ethr =  1.00E-06,  avg # of iterations = 14.7

[...]

     Total force =     0.004927     Total SCF correction =     0.000258

[...]

     number of scf cycles    =  18
     number of bfgs steps    =  17

     energy   old            =   -2117.3116077417 Ry
     energy   new            =   -2117.3116494266 Ry

     CASE: energy  _new < energy  _old

     new trust radius        =       0.0167573089 bohr
     new conv_thr            =       0.0000001000 Ry

ATOMIC_POSITIONS (crystal)
Tc1      0.166666667   0.166666667   0.408540475    0   0   0
Tc1      0.666666667   0.166666667   0.408540475    0   0   0
Tc1      0.166666667   0.666666667   0.408540475    0   0   0
Tc1      0.666666667   0.666666667   0.408540475    0   0   0
Tc1      0.833333333   0.333333333   0.500000000    0   0   0
Tc1      0.333333333   0.333333333   0.500000000    0   0   0
Tc1      0.833333333   0.833333333   0.500000000    0   0   0
Tc1      0.333333333   0.833333333   0.500000000    0   0   0
Tc1     -0.015809496   0.000831030   0.598688049
Tc1      0.492085552   0.001840775   0.586459279
Tc1     -0.000346230   0.498005197   0.585973387
Tc1      0.497288873   0.508636817   0.586625264
C1      -0.002841940   0.001172405   0.677120379
H1       0.051780683   0.133691222   0.701658710
H1       0.952690967   0.865573599   0.703062079

     Writing output data file calc.save
     Check: negative starting charge=   -1.500137
     NEW-OLD atomic charge density approx. for the potential

     Check: negative/imaginary core charge=   -0.000022    0.000000
     Check: negative starting charge=   -1.500315

[...]

     Self-consistent Calculation

[...]

     total energy              =   -2117.31168216 Ry
     Harris-Foulkes estimate   =   -2117.31168215 Ry
     estimated scf accuracy    <       0.00000012 Ry

     iteration # 12     ecut=    36.75 Ry     beta=0.30
     Davidson diagonalization with overlap
     ethr =  6.62E-11,  avg # of iterations =  3.0

[...]

     negative rho (up, down):  1.584E+00 0.000E+00

     Adding external electric field

     Computed dipole along edir(3) :
        Dipole                0.1729 Ry au,          0.4395 Debye
        Dipole field          0.0005 Ry au

        Potential amp.       -0.0456 Ry
        Total length         45.0992 bohr

     End of self-consistent calculation

[...]

          k = 0.0608-0.0702 0.0000 ( 16203 PWs)   bands (ev):

[...]

          k =-0.0912-0.0526 0.0000 ( 16164 PWs)   bands (ev):

   -64.3998 -64.3734 -64.3133 -64.2936 -64.2288 -64.1611 -64.1463 -64.1201
   -64.0986 -64.0927 -64.0760 -64.0629 -36.7780 -36.7586 -36.7183 -36.6600
   -36.6401 -36.6014 -36.5138 -36.5046 -36.4596 -36.4301 -36.4099 -36.4086
   -36.2736 -36.1867 -36.1828 -36.1770 -36.1540 -36.1394 -36.1327 -36.1229
   -36.1072 -36.0874 -36.0817 -36.0667 -36.0462 -36.0402 -36.0246 -36.0144
   -35.9583 -35.8991 -35.8754 -35.8546 -35.8234 -35.7954 -35.7700 -35.7507
    -8.9454  -3.2133  -2.2658  -2.1437  -1.6833  -1.5624  -1.4310  -1.3616
    -1.3578  -1.1886  -1.1566  -0.9421  -0.8696  -0.8266  -0.5813  -0.5306
    -0.4828  -0.4015  -0.3187  -0.0179   0.0746   0.1243   0.3307   0.3657
     0.5962   0.6995   0.8220   0.9761   1.0012   1.0849   1.3059   1.3685
     1.4121   1.4503   1.5249   1.5860   1.6008   1.6748   1.7394   1.7789
     1.8524   1.8839   2.2785   2.5444   2.6130   2.6954   2.8493   2.8664
     3.0824   3.1990   3.2686   3.2885   3.4103   3.4585   3.5096

     the Fermi energy is     2.8175 ev

!    total energy              =   -2117.31168209 Ry
     Harris-Foulkes estimate   =   -2117.31168282 Ry
     estimated scf accuracy    <       0.00000009 Ry

     The total energy is the sum of the following terms:

     one-electron contribution =  -19016.84788342 Ry
     hartree contribution      =    9511.54846728 Ry
     xc contribution           =    -402.30318284 Ry
     ewald contribution        =    7790.38135081 Ry
     electric field correction =       0.00008735 Ry
     smearing contrib. (-TS)   =      -0.09052126 Ry

     convergence has been achieved in  12 iterations

 BEEF-vdW xc energy contributions
           1 :   -352.331109966379
           2 :    323.798166562976
           3 :   -273.170080833166
           4 :    210.680940539013
           5 :   -147.113716581127
           6 :    90.9041057636243
           7 :   -46.5634278055990
           8 :    14.5792308245848
           9 :    7.35544623477961
          10 :   -22.5271699901961
          11 :    33.5445725964490
          12 :   -41.4710959731041
          13 :    45.8730472520758
          14 :   -45.5975600364699
          15 :    39.7994941405238
          16 :   -28.7601733233622
          17 :    14.1411334799121
          18 :    1.37987736427721
          19 :   -14.9104225474816
          20 :    24.2053953336055
          21 :   -28.2442648876624
          22 :    27.3132527085444
          23 :   -22.6339624894653
          24 :    15.7562034116431
          25 :   -8.01626273174128
          26 :   0.269033273640161
          27 :    7.05474986850709
          28 :   -13.6886379970388
          29 :    19.2599904458298
          30 :   -23.1820837975927
          31 :   -33.6765436598714
          32 :   -24.7005964657116

     Forces acting on atoms (Ry/au):

     negative rho (up, down):  1.584E+00 0.000E+00
     atom    1 type  1   force =    -0.00014220    0.00148057    0.02168029
     atom    2 type  1   force =    -0.00218477    0.00049193    0.02289480
     atom    3 type  1   force =    -0.00171253   -0.00066428    0.02215098
     atom    4 type  1   force =    -0.00084594    0.00018332    0.02961441
     atom    5 type  1   force =    -0.00183566    0.00679255   -0.02038979
     atom    6 type  1   force =     0.00350149    0.00091927   -0.02786306
     atom    7 type  1   force =    -0.00688659   -0.00232183   -0.02332306
     atom    8 type  1   force =     0.00893116   -0.00575853   -0.02454023
     atom    9 type  1   force =     0.00039798   -0.00036425   -0.00183651
     atom   10 type  1   force =     0.00087760   -0.00019976   -0.00032643
     atom   11 type  1   force =     0.00021300    0.00028817    0.00091601
     atom   12 type  1   force =     0.00007343   -0.00109001   -0.00141050
     atom   13 type  2   force =     0.00004770   -0.00026832    0.00148754
     atom   14 type  3   force =     0.00087053    0.00130223    0.00063622
     atom   15 type  3   force =    -0.00130521   -0.00079106    0.00030931

     Total force =     0.004038     Total SCF correction =     0.001349
     SCF correction compared to forces is large: reduce conv_thr to get better values

     entering subroutine stress ...

     negative rho (up, down):  1.584E+00 0.000E+00
          total   stress  (Ry/bohr**3)                   (kbar)     P=  -24.20
  -0.00019208  -0.00000171   0.00000488        -28.26     -0.25      0.72
  -0.00000171  -0.00019133  -0.00000207         -0.25    -28.14     -0.31
   0.00000488  -0.00000207  -0.00011003          0.72     -0.31    -16.19

     bfgs converged in  19 scf cycles and  18 bfgs steps
     (criteria: energy <  1.0E+00, force <  1.9E-03)

     End of BFGS Geometry Optimization

     Final energy   =   -2117.3116820881 Ry
Begin final coordinates

ATOMIC_POSITIONS (crystal)
Tc1      0.166666667   0.166666667   0.408540475    0   0   0
Tc1      0.666666667   0.166666667   0.408540475    0   0   0
Tc1      0.166666667   0.666666667   0.408540475    0   0   0
Tc1      0.666666667   0.666666667   0.408540475    0   0   0
Tc1      0.833333333   0.333333333   0.500000000    0   0   0
Tc1      0.333333333   0.333333333   0.500000000    0   0   0
Tc1      0.833333333   0.833333333   0.500000000    0   0   0
Tc1      0.333333333   0.833333333   0.500000000    0   0   0
Tc1     -0.015809496   0.000831030   0.598688049
Tc1      0.492085552   0.001840775   0.586459279
Tc1     -0.000346230   0.498005197   0.585973387
Tc1      0.497288873   0.508636817   0.586625264
C1      -0.002841940   0.001172405   0.677120379
H1       0.051780683   0.133691222   0.701658710
H1       0.952690967   0.865573599   0.703062079
End final coordinates

     Writing output data file calc.save

     General routines

     Parallel routines

   This run was terminated on:  15:27:25  23Apr2018

   JOB DONE.
Job  /afs/slac/g/suncat/bin/suncat-tsmpirun -x LD_LIBRARY_PATH -wdir /scratch/qe17405_kqwud pw.x -npool 3 -in pw.inp

TID   HOST_NAME   COMMAND_LINE            STATUS            TERMINATION_TIME
00000 suncat2065 pw.x -npool 3 -i  Done                     04/23/2018 15:27:25
00001 suncat2065 pw.x -npool 3 -i  Done                     04/23/2018 15:27:25
00002 suncat2065 pw.x -npool 3 -i  Done                     04/23/2018 15:27:25
00003 suncat2065 pw.x -npool 3 -i  Done                     04/23/2018 15:27:25
00004 suncat2043 pw.x -npool 3 -i  Done                     04/23/2018 15:27:25
00005 suncat2043 pw.x -npool 3 -i  Done                     04/23/2018 15:27:25
00006 suncat2043 pw.x -npool 3 -i  Done                     04/23/2018 15:27:25
00007 suncat2043 pw.x -npool 3 -i  Done                     04/23/2018 15:27:25
00008 suncat2043 pw.x -npool 3 -i  Done                     04/23/2018 15:27:25
00009 suncat2043 pw.x -npool 3 -i  Done                     04/23/2018 15:27:25
00010 suncat2043 pw.x -npool 3 -i  Done                     04/23/2018 15:27:25
00011 suncat2043 pw.x -npool 3 -i  Done                     04/23/2018 15:27:25
00012 suncat2043 pw.x -npool 3 -i  Done                     04/23/2018 15:27:25
00013 suncat2043 pw.x -npool 3 -i  Done                     04/23/2018 15:27:25
00014 suncat2043 pw.x -npool 3 -i  Done                     04/23/2018 15:27:25
00015 suncat2043 pw.x -npool 3 -i  Done                     04/23/2018 15:27:25
00016 suncat2043 pw.x -npool 3 -i  Done                     04/23/2018 15:27:25
00017 suncat2043 pw.x -npool 3 -i  Done                     04/23/2018 15:27:25
00018 suncat2043 pw.x -npool 3 -i  Done                     04/23/2018 15:27:25
00019 suncat2043 pw.x -npool 3 -i  Done                     04/23/2018 15:27:25
00020 suncat2013 pw.x -npool 3 -i  Done                     04/23/2018 15:27:25
00021 suncat2013 pw.x -npool 3 -i  Done                     04/23/2018 15:27:25
00022 suncat2013 pw.x -npool 3 -i  Done                     04/23/2018 15:27:25
00023 suncat2013 pw.x -npool 3 -i  Done                     04/23/2018 15:27:25
00024 suncat2013 pw.x -npool 3 -i  Done                     04/23/2018 15:27:25
00025 suncat2013 pw.x -npool 3 -i  Done                     04/23/2018 15:27:25
00026 suncat2013 pw.x -npool 3 -i  Done                     04/23/2018 15:27:25
00027 suncat2013 pw.x -npool 3 -i  Done                     04/23/2018 15:27:25
00028 suncat2013 pw.x -npool 3 -i  Done                     04/23/2018 15:27:25
00029 suncat2013 pw.x -npool 3 -i  Done                     04/23/2018 15:27:25
00030 suncat2013 pw.x -npool 3 -i  Done                     04/23/2018 15:27:25
00031 suncat2013 pw.x -npool 3 -i  Done                     04/23/2018 15:27:25
00032 suncat2013 pw.x -npool 3 -i  Done                     04/23/2018 15:27:25
00033 suncat2013 pw.x -npool 3 -i  Done                     04/23/2018 15:27:25
00034 suncat2013 pw.x -npool 3 -i  Done                     04/23/2018 15:27:25
00035 suncat2013 pw.x -npool 3 -i  Done                     04/23/2018 15:27:25