     Program PWSCF v.5.1rc2 (svn rev. 11289) starts on 17Jan2018 at 12: 6:43

     Current dimensions of program PWSCF are:
     Max number of different atomic species (ntypx) = 10
     Max number of k-points (npk) =  40000
     Max angular momentum in pseudopotentials (lmaxx) =  3
     Presently stress not available with electric field

     IMPORTANT: XC functional enforced from input :
     Exchange-correlation      = BEEF-VDW ( 1  4 27 13 2)
     Any further DFT definition will be discarded
     Please, verify this is what you really want

     Subspace diagonalization in iterative solution of the eigenvalue problem:
     a serial algorithm will be used

     bravais-lattice index     =            0
     lattice parameter (alat)  =       1.8897  a.u.
     unit-cell volume          =    4198.3539 (a.u.)^3
     number of atoms/cell      =           13
     number of atomic types    =            2
     number of electrons       =       197.00
     number of Kohn-Sham states=          108
     kinetic-energy cutoff     =      36.7493  Ry
     charge density cutoff     =     367.4932  Ry
     convergence threshold     =      1.0E-05
     mixing beta               =       0.3000
     number of iterations used =           10  plain     mixing
     Exchange-correlation      = BEEF-VDW ( 1  4 27 13 2)
     nstep                     =           50

     celldm(1)=   1.889726  celldm(2)=   0.000000  celldm(3)=   0.000000
     celldm(4)=   0.000000  celldm(5)=   0.000000  celldm(6)=   0.000000

     crystal axes: (cart. coord. in units of alat)
               a(1) = (   5.422927   0.000000   0.000000 )
               a(2) = (   2.711463   4.696392   0.000000 )
               a(3) = (   0.000000   0.000000  24.427801 )

     reciprocal axes: (cart. coord. in units 2 pi/alat)
               b(1) = (  0.184402 -0.106465  0.000000 )
               b(2) = (  0.000000  0.212929  0.000000 )
               b(3) = (  0.000000  0.000000  0.040937 )

     PseudoPot. # 1 for Ru read from file:
     /afs/slac.stanford.edu/u/if/mamunm/psp/gbrv1.5pbe/Ru.UPF
     MD5 check sum: 7158a806dd851261a58e6920c40ebe78
     Pseudo is Ultrasoft + core correction, Zval = 16.0
     Generated by new atomic code, or converted to UPF format
     Using radial grid of  967 points,  6 beta functions with:
                l(1) =   0
                l(2) =   0
                l(3) =   1
                l(4) =   1
                l(5) =   2
                l(6) =   2
     Q(r) pseudized with  8 coefficients,  rinner =    1.300   1.300   1.300
                                                       1.300   1.300

     PseudoPot. # 2 for N  read from file:
     /afs/slac.stanford.edu/u/if/mamunm/psp/gbrv1.5pbe/N.UPF
     MD5 check sum: 95339753478d7afb44899504a8723017
     Pseudo is Ultrasoft + core correction, Zval =  5.0
     Generated by new atomic code, or converted to UPF format
     Using radial grid of  729 points,  4 beta functions with:
                l(1) =   0
                l(2) =   0
                l(3) =   1
                l(4) =   1
     Q(r) pseudized with  8 coefficients,  rinner =    0.900   0.900   0.900

     vdW kernel table read from file vdW_kernel_table
     MD5 check sum: 095c7af220d748ca6e76c0b4c6cfb241

     atomic species   valence    mass     pseudopotential
        Ru1           16.00   101.07000     Ru( 1.00)
        N1             5.00    14.00700     N ( 1.00)

     No symmetry found

   Cartesian axes

     site n.     atom                  positions (alat units)
         1           Ru1 tau(   1) = (   1.3557316   0.7827320  10.0000000  )
         2           Ru1 tau(   2) = (   4.0671949   0.7827320  10.0000000  )
         3           Ru1 tau(   3) = (   2.7114633   3.1309281  10.0000000  )
         4           Ru1 tau(   4) = (   5.4229265   3.1309281  10.0000000  )
         5           Ru1 tau(   5) = (   5.4229265   1.5654640  12.2139005  )
         6           Ru1 tau(   6) = (   2.7114633   1.5654640  12.2139005  )
         7           Ru1 tau(   7) = (   6.7786581   3.9136601  12.2139005  )
         8           Ru1 tau(   8) = (   4.0671949   3.9136601  12.2139005  )
         9           Ru1 tau(   9) = (   0.0000000   0.0000000  14.4278010  )
        10           Ru1 tau(  10) = (   2.7114633   0.0000000  14.4278010  )
        11           Ru1 tau(  11) = (   1.3557316   2.3481961  14.4278010  )
        12           Ru1 tau(  12) = (   4.0671949   2.3481961  14.4278010  )
        13           N1  tau(  13) = (   0.0000000   0.0000000  16.5978010  )

     number of k points=    20  Fermi-Dirac smearing, width (Ry)=  0.0110
                       cart. coord. in units 2pi/alat
        k(    1) = (   0.0000000   0.0000000   0.0000000), wk =   0.0555556
        k(    2) = (   0.0000000   0.0354882   0.0000000), wk =   0.1111111
        k(    3) = (   0.0000000   0.0709765   0.0000000), wk =   0.1111111
        k(    4) = (   0.0000000  -0.1064647   0.0000000), wk =   0.0555556
        k(    5) = (   0.0307337  -0.0177441   0.0000000), wk =   0.1111111
        k(    6) = (   0.0307337   0.0177441   0.0000000), wk =   0.1111111
        k(    7) = (   0.0307337   0.0532324   0.0000000), wk =   0.1111111
        k(    8) = (   0.0307337  -0.1242088   0.0000000), wk =   0.1111111
        k(    9) = (   0.0307337  -0.0887206   0.0000000), wk =   0.1111111
        k(   10) = (   0.0307337  -0.0532324   0.0000000), wk =   0.1111111
        k(   11) = (   0.0614674  -0.0354882   0.0000000), wk =   0.1111111
        k(   12) = (   0.0614674   0.0000000   0.0000000), wk =   0.1111111
        k(   13) = (   0.0614674   0.0354882   0.0000000), wk =   0.1111111
        k(   14) = (   0.0614674  -0.1419529   0.0000000), wk =   0.1111111
        k(   15) = (   0.0614674  -0.1064647   0.0000000), wk =   0.1111111
        k(   16) = (   0.0614674  -0.0709765   0.0000000), wk =   0.1111111
        k(   17) = (  -0.0922011   0.0532324   0.0000000), wk =   0.0555556
        k(   18) = (  -0.0922011   0.0887206   0.0000000), wk =   0.1111111
        k(   19) = (  -0.0922011   0.1242088   0.0000000), wk =   0.1111111
        k(   20) = (  -0.0922011  -0.0532324   0.0000000), wk =   0.0555556

     Largest allocated arrays     est. size (Mb)     dimensions
     Largest temporary arrays     est. size (Mb)     dimensions

     Initial potential from superposition of free atoms
     Check: negative starting charge=   -0.873621

     starting charge  184.99980, renormalised to  197.00000

     negative rho (up, down):  9.303E-01 0.000E+00

     *
     * You are using vdW-DF for exchange-correlation in this calculation.
     * Please cite the following three references that made this development
     * possible:
     *
     *   M. Dion, H. Rydberg, E. Schroder, D. C. Langreth, and
     *   B. I. Lundqvist, Phys. Rev. Lett. 92, 246401 (2004).
     *
     *   T. Thonhauser, V. R. Cooper, S. Li, A. Puzder, P. Hyldgaard, and
     *   D. C. Langreth, Phys. Rev. B 76, 125112 (2007).
     *
     *   G. Roman-Perez and J. M. Soler, Phys. Rev. Lett. 103, 096102 (2009).
     *
     *
     * If you are using vdW-DF2, please also cite:
     *
     *   K. Lee, E. D. Murray, L. Kong, B. I. Lundqvist, and
     *   D. C. Langreth, Phys. Rev. B 82, 081101(R) (2010).
     *
     *
     * If you are calculating the stress with vdW-DF, please also cite:
     *
     *   R. Sabatini, E. Kucukbenli, B. Kolb, T. Thonhauser, and
     *   S. de Gironcoli, J. Phys.: Condens. Matter 24, 424209 (2012).
     *

     Carrying out vdW-DF run using the following parameters:

     Nqs =      20    Nr_points =    1024   r_max =   100.000
     q_mesh =
               0.00001000     0.04494208     0.09755937     0.15916263
               0.23128650     0.31572767     0.41458969     0.53033537
               0.66584808     0.82450364     1.01025438     1.22772762
               1.48234092     1.78043706     2.12944203     2.53805004
               3.01644009     3.57652955     4.23227104     5.00000000

     Gradients computed in reciprocal space

     Adding external electric field

     Computed dipole along edir(3) :
        Dipole               -2.6868 Ry au,         -6.8291 Debye
        Dipole field         -0.0080 Ry au

        Potential amp.        0.7239 Ry
        Total length         45.0078 bohr

     Starting wfc are  160 randomized atomic wfcs

     Self-consistent Calculation

     iteration #  1     ecut=    36.75 Ry     beta=0.30
     Davidson diagonalization with overlap
     ethr =  1.00E-02,  avg # of iterations =  5.9

[...]

     total energy              =   -2205.92656843 Ry
     Harris-Foulkes estimate   =   -2361.45614130 Ry
     estimated scf accuracy    <     325.92072850 Ry

[...]

     iteration #  3     ecut=    36.75 Ry     beta=0.30
     Davidson diagonalization with overlap
     c_bands:  5 eigenvalues not converged
     c_bands:  1 eigenvalues not converged
     c_bands:  1 eigenvalues not converged
     c_bands:  1 eigenvalues not converged
     c_bands:  4 eigenvalues not converged
     c_bands:  4 eigenvalues not converged
     c_bands:  1 eigenvalues not converged
     c_bands:  4 eigenvalues not converged
     c_bands:  3 eigenvalues not converged
     c_bands:  4 eigenvalues not converged
     ethr =  1.00E-02,  avg # of iterations = 17.1

[...]

     End of self-consistent calculation

          k = 0.0000 0.0000 0.0000 ( 15761 PWs)   bands (ev):

   -71.4495 -71.3603 -71.3299 -71.3296 -71.3236 -70.9656 -70.9341 -70.8789
   -70.8657 -70.8651 -70.8596 -70.8590 -41.7271 -41.7270 -41.7036 -41.5819
   -41.5022 -41.5020 -41.4688 -41.3184 -41.3183 -41.2498 -41.2306 -41.1646
   -41.1583 -41.1582 -41.1083 -41.1081 -41.0862 -40.9775 -40.9774 -40.8737
   -40.8216 -40.8215 -40.7930 -40.7929 -40.7913 -40.7358 -40.7357 -40.7309
   -40.6939 -40.6898 -40.6895 -40.6763 -40.5778 -40.5776 -40.5227 -40.5227
   -10.2971  -4.8900  -3.6871  -3.6870  -3.6649  -3.5833  -3.4341  -3.3088
    -3.3056  -3.3055  -3.0838  -3.0838  -3.0486  -2.7098  -2.7098  -2.6882
    -1.6563  -1.6562  -1.5211  -1.0200  -0.9708  -0.9708  -0.7706  -0.5512
    -0.5512  -0.4982  -0.1758  -0.1758  -0.1413  -0.1413  -0.1026   0.0799
     0.0944   0.0944   0.6070   0.6071   0.9049   0.9049   1.2583   1.5051
     1.5051   1.5282   1.6483   1.6483   1.6603   2.1160   2.1185   2.1187
     2.3015   2.3016   2.8302   2.8302   2.9030   2.9030   2.9036   3.0114
     3.0535   3.0536   3.4004   3.4026

[...]

          k =-0.0922 0.0532 0.0000 ( 15808 PWs)   bands (ev):

[...]

     the Fermi energy is     1.8415 ev

!    total energy              =   -2361.29544655 Ry
     Harris-Foulkes estimate   =   -2361.29550098 Ry
     estimated scf accuracy    <       0.00000529 Ry

     The total energy is the sum of the following terms:

     one-electron contribution =  -22134.02477278 Ry
     hartree contribution      =   11065.75614541 Ry
     xc contribution           =    -326.85892924 Ry
     ewald contribution        =    9033.92851971 Ry
     electric field correction =       0.00049083 Ry
     smearing contrib. (-TS)   =      -0.09690048 Ry

     convergence has been achieved in  28 iterations

 BEEF-vdW xc energy contributions
           1 :   -283.348524933277
[...]

[...]

     Program PWSCF v.5.1rc2 (svn rev. 11289) starts on 17Jan2018 at 14:27: 7

[...]

     iteration #  2     ecut=    36.75 Ry     beta=0.30
     Davidson diagonalization with overlap
     c_bands:  1 eigenvalues not converged
     ethr =  1.00E-02,  avg # of iterations = 16.9

[...]

     Total force =     0.088973     Total SCF correction =     0.019544
     SCF correction compared to forces is large: reduce conv_thr to get better values

[...]

     Program PWSCF v.5.1rc2 (svn rev. 11289) starts on 17Jan2018 at 15: 6:39

[...]

   This run was terminated on:  15:46:37  17Jan2018

[...]

     Program PWSCF v.5.1rc2 (svn rev. 11289) starts on 17Jan2018 at 15:46:43

     Current dimensions of program PWSCF are:
     Max number of different atomic species (ntypx) = 10
     Max number of k-points (npk) =  40000
     Max angular momentum in pseudopotentials (lmaxx) =  3
     Presently stress not available with electric field

     IMPORTANT: XC functional enforced from input :
     Exchange-correlation      = BEEF-VDW ( 1  4 27 13 2)
     Any further DFT definition will be discarded
     Please, verify this is what you really want

     Subspace diagonalization in iterative solution of the eigenvalue problem:
     a serial algorithm will be used

     bravais-lattice index     =            0
     lattice parameter (alat)  =       1.8897  a.u.
     unit-cell volume          =    4198.3539 (a.u.)^3
     number of atoms/cell      =           13
     number of atomic types    =            2
     number of electrons       =       197.00
     number of Kohn-Sham states=          108
     kinetic-energy cutoff     =      36.7493  Ry
     charge density cutoff     =     367.4932  Ry
     convergence threshold     =      1.0E-05
     mixing beta               =       0.3000
     number of iterations used =           10  plain     mixing
     Exchange-correlation      = BEEF-VDW ( 1  4 27 13 2)
     nstep                     =           50

     celldm(1)=   1.889726  celldm(2)=   0.000000  celldm(3)=   0.000000
     celldm(4)=   0.000000  celldm(5)=   0.000000  celldm(6)=   0.000000

     crystal axes: (cart. coord. in units of alat)
               a(1) = (   5.422927   0.000000   0.000000 )
               a(2) = (   2.711463   4.696392   0.000000 )
               a(3) = (   0.000000   0.000000  24.427801 )

     reciprocal axes: (cart. coord. in units 2 pi/alat)
               b(1) = (  0.184402 -0.106465  0.000000 )
               b(2) = (  0.000000  0.212929  0.000000 )
               b(3) = (  0.000000  0.000000  0.040937 )

     PseudoPot. # 1 for Ru read from file:
     /afs/slac.stanford.edu/u/if/mamunm/psp/gbrv1.5pbe/Ru.UPF
     MD5 check sum: 7158a806dd851261a58e6920c40ebe78
     Pseudo is Ultrasoft + core correction, Zval = 16.0
     Generated by new atomic code, or converted to UPF format
     Using radial grid of  967 points,  6 beta functions with:
                l(1) =   0
                l(2) =   0
                l(3) =   1
                l(4) =   1
                l(5) =   2
                l(6) =   2
     Q(r) pseudized with  8 coefficients,  rinner =    1.300   1.300   1.300
                                                       1.300   1.300

     PseudoPot. # 2 for N  read from file:
     /afs/slac.stanford.edu/u/if/mamunm/psp/gbrv1.5pbe/N.UPF
     MD5 check sum: 95339753478d7afb44899504a8723017
     Pseudo is Ultrasoft + core correction, Zval =  5.0
     Generated by new atomic code, or converted to UPF format
     Using radial grid of  729 points,  4 beta functions with:
                l(1) =   0
                l(2) =   0
                l(3) =   1
                l(4) =   1
     Q(r) pseudized with  8 coefficients,  rinner =    0.900   0.900   0.900

     vdW kernel table read from file vdW_kernel_table
     MD5 check sum: 095c7af220d748ca6e76c0b4c6cfb241

     atomic species   valence    mass     pseudopotential
        Ru1           16.00   101.07000     Ru( 1.00)
        N1             5.00    14.00700     N ( 1.00)

     No symmetry found

   Cartesian axes

     site n.     atom                  positions (alat units)
         1           Ru1 tau(   1) = (   1.3557316   0.7827320  10.0000000  )
         2           Ru1 tau(   2) = (   4.0671949   0.7827320  10.0000000  )
         3           Ru1 tau(   3) = (   2.7114633   3.1309281  10.0000000  )
         4           Ru1 tau(   4) = (   5.4229265   3.1309281  10.0000000  )
         5           Ru1 tau(   5) = (   5.4229265   1.5654640  12.2139005  )
         6           Ru1 tau(   6) = (   2.7114633   1.5654640  12.2139005  )
         7           Ru1 tau(   7) = (   6.7786581   3.9136601  12.2139005  )
         8           Ru1 tau(   8) = (   4.0671949   3.9136601  12.2139005  )
         9           Ru1 tau(   9) = (   5.4228696   0.0001305  14.8232131  )
        10           Ru1 tau(  10) = (   2.7116607   0.0106446  14.3096794  )
        11           Ru1 tau(  11) = (   1.3649031   2.3428771  14.3095529  )
        12           Ru1 tau(  12) = (   4.0579993   2.3426817  14.3091187  )
        13           N1  tau(  13) = (   5.4229475   0.0000857  16.4550867  )

     number of k points=    20  Fermi-Dirac smearing, width (Ry)=  0.0110
                       cart. coord. in units 2pi/alat
        k(    1) = (   0.0000000   0.0000000   0.0000000), wk =   0.0555556
        k(    2) = (   0.0000000   0.0354882   0.0000000), wk =   0.1111111
        k(    3) = (   0.0000000   0.0709765   0.0000000), wk =   0.1111111
        k(    4) = (   0.0000000  -0.1064647   0.0000000), wk =   0.0555556
        k(    5) = (   0.0307337  -0.0177441   0.0000000), wk =   0.1111111
        k(    6) = (   0.0307337   0.0177441   0.0000000), wk =   0.1111111
        k(    7) = (   0.0307337   0.0532324   0.0000000), wk =   0.1111111
        k(    8) = (   0.0307337  -0.1242088   0.0000000), wk =   0.1111111
        k(    9) = (   0.0307337  -0.0887206   0.0000000), wk =   0.1111111
        k(   10) = (   0.0307337  -0.0532324   0.0000000), wk =   0.1111111
        k(   11) = (   0.0614674  -0.0354882   0.0000000), wk =   0.1111111
        k(   12) = (   0.0614674   0.0000000   0.0000000), wk =   0.1111111
        k(   13) = (   0.0614674   0.0354882   0.0000000), wk =   0.1111111
        k(   14) = (   0.0614674  -0.1419529   0.0000000), wk =   0.1111111
        k(   15) = (   0.0614674  -0.1064647   0.0000000), wk =   0.1111111
        k(   16) = (   0.0614674  -0.0709765   0.0000000), wk =   0.1111111
        k(   17) = (  -0.0922011   0.0532324   0.0000000), wk =   0.0555556
        k(   18) = (  -0.0922011   0.0887206   0.0000000), wk =   0.1111111
        k(   19) = (  -0.0922011   0.1242088   0.0000000), wk =   0.1111111
        k(   20) = (  -0.0922011  -0.0532324   0.0000000), wk =   0.0555556

     Largest allocated arrays     est. size (Mb)     dimensions
     Largest temporary arrays     est. size (Mb)     dimensions

     Initial potential from superposition of free atoms
     Check: negative starting charge=   -0.879300

     starting charge  184.99980, renormalised to  197.00000

[...]

     *
     * You are using vdW-DF for exchange-correlation in this calculation.
     * Please cite the following three references that made this development
     * possible:
     *
     *   M. Dion, H. Rydberg, E. Schroder, D. C. Langreth, and
     *   B. I. Lundqvist, Phys. Rev. Lett. 92, 246401 (2004).
     *
     *   T. Thonhauser, V. R. Cooper, S. Li, A. Puzder, P. Hyldgaard, and
     *   D. C. Langreth, Phys. Rev. B 76, 125112 (2007).
     *
     *   G. Roman-Perez and J. M. Soler, Phys. Rev. Lett. 103, 096102 (2009).
     *
     *
     * If you are using vdW-DF2, please also cite:
     *
     *   K. Lee, E. D. Murray, L. Kong, B. I. Lundqvist, and
     *   D. C. Langreth, Phys. Rev. B 82, 081101(R) (2010).
     *
     *
     * If you are calculating the stress with vdW-DF, please also cite:
     *
     *   R. Sabatini, E. Kucukbenli, B. Kolb, T. Thonhauser, and
     *   S. de Gironcoli, J. Phys.: Condens. Matter 24, 424209 (2012).
     *

     Carrying out vdW-DF run using the following parameters:

     Nqs =      20    Nr_points =    1024   r_max =   100.000
     q_mesh =
               0.00001000     0.04494208     0.09755937     0.15916263
               0.23128650     0.31572767     0.41458969     0.53033537
               0.66584808     0.82450364     1.01025438     1.22772762
               1.48234092     1.78043706     2.12944203     2.53805004
               3.01644009     3.57652955     4.23227104     5.00000000

     Gradients computed in reciprocal space

[...]

     Starting wfc are  160 randomized atomic wfcs

     Self-consistent Calculation

[...]

     total energy              =   -2361.49139946 Ry
     Harris-Foulkes estimate   =   -2361.49140348 Ry
     estimated scf accuracy    <       0.00008524 Ry

     iteration # 25     ecut=    36.75 Ry     beta=0.30
     Davidson diagonalization with overlap
     ethr =  2.22E-08,  avg # of iterations =  1.9

[...]

     negative rho (up, down):  9.171E-01 0.000E+00

     Adding external electric field

     Computed dipole along edir(3) :
        Dipole               -0.2023 Ry au,         -0.5142 Debye
        Dipole field         -0.0006 Ry au

        Potential amp.        0.0545 Ry
        Total length         45.0078 bohr

     End of self-consistent calculation

[...]

          k = 0.0615-0.0710 0.0000 ( 15803 PWs)   bands (ev):

[...]

          k =-0.0922-0.0532 0.0000 ( 15808 PWs)   bands (ev):

   -71.6296 -71.0687 -71.0075 -70.9709 -70.9541 -70.6193 -70.6106 -70.5945
   -70.5715 -70.5253 -70.4960 -70.4764 -42.3803 -41.3147 -41.2690 -41.2632
   -41.2234 -41.1998 -41.1084 -41.0842 -41.0476 -41.0389 -40.9965 -40.9480
   -40.8871 -40.7583 -40.7427 -40.7207 -40.6494 -40.6431 -40.5935 -40.5569
   -40.5408 -40.5335 -40.5142 -40.4991 -40.4867 -40.4761 -40.4603 -40.4437
   -40.4129 -40.4074 -40.3722 -40.3684 -40.3565 -40.3185 -40.2537 -40.2212
   -11.7827  -3.1088  -3.1012  -2.7778  -2.7397  -2.6411  -2.4950  -2.3641
    -2.3616  -2.1615  -2.1267  -1.9648  -1.9074  -1.9039  -1.7373  -1.5544
    -1.4999  -1.4295  -1.2974  -1.2159  -1.0194  -0.9718  -0.9685  -0.7590
    -0.7353  -0.5837  -0.2849  -0.1818  -0.1380   0.0555   0.1934   0.2033
     0.2513   0.3048   0.3682   0.4334   0.4563   0.5531   0.5560   0.5910
     0.6330   0.7428   1.1118   1.2067   1.2867   1.4088   1.5510   1.6327
     1.6787   1.8590   1.9702   2.0048   2.0397   2.1398   2.3442   2.5556
     2.5989   2.6584   2.7114   2.8663

     the Fermi energy is     2.2252 ev

!    total energy              =   -2361.49139486 Ry
     Harris-Foulkes estimate   =   -2361.49139825 Ry
     estimated scf accuracy    <       0.00000984 Ry

     The total energy is the sum of the following terms:

     one-electron contribution =  -22145.15398116 Ry
     hartree contribution      =   11072.76253053 Ry
     xc contribution           =    -327.26026523 Ry
     ewald contribution        =    9038.24608679 Ry
     electric field correction =       0.00012249 Ry
     smearing contrib. (-TS)   =      -0.08588828 Ry

     convergence has been achieved in  25 iterations

 BEEF-vdW xc energy contributions
           1 :   -283.750805964765
           2 :    260.345244385133
           3 :   -219.908666813841
           4 :    172.487249804659
           5 :   -128.191327956870
           6 :    94.1893245082247
           7 :   -73.1253224893795
           8 :    63.2765160957140
           9 :   -60.1494538619129
          10 :    58.7192198753649
          11 :   -55.3849025299218
          12 :    48.9455993663957
          13 :   -40.4102820545356
          14 :    31.9659731687518
          15 :   -25.6907180434885
          16 :    22.5719975381791
          17 :   -22.1863173305743
          18 :    23.0727925534794
          19 :   -23.5309070598537
          20 :    22.4230713317239
          21 :   -19.6150386228478
          22 :    15.8954013123398
          23 :   -12.4765722419579
          24 :    10.3557200514601
          25 :   -9.84765276152893
          26 :    10.4981427990355
          27 :   -11.3812237934037
          28 :    11.5913756869162
          29 :   -10.6766376528240
          30 :    8.80966283560554
          31 :   -29.5255920471363
          32 :   -22.3588553647279

     Forces acting on atoms (Ry/au):

     negative rho (up, down):  9.171E-01 0.000E+00
     atom    1 type  1   force =    -0.00128062   -0.00071624    0.02431011
     atom    2 type  1   force =     0.00127871   -0.00069066    0.02433676
     atom    3 type  1   force =     0.00002357    0.00143112    0.02430558
     atom    4 type  1   force =    -0.00002300   -0.00001340    0.04684348
     atom    5 type  1   force =    -0.00002136   -0.00156585   -0.02948190
     atom    6 type  1   force =     0.00001279   -0.00019860   -0.02958927
     atom    7 type  1   force =     0.00115415    0.00088454   -0.02926886
     atom    8 type  1   force =    -0.00114824    0.00085657   -0.02923159
     atom    9 type  1   force =     0.00007368    0.00000140   -0.00103864
     atom   10 type  1   force =    -0.00010790   -0.00017189   -0.00053944
     atom   11 type  1   force =    -0.00015455    0.00002480   -0.00056120
     atom   12 type  1   force =     0.00018230    0.00016121   -0.00031368
     atom   13 type  2   force =     0.00001045   -0.00000299    0.00022865

     Total force =     0.086250     Total SCF correction =     0.007315

     entering subroutine stress ...

     negative rho (up, down):  9.171E-01 0.000E+00
          total   stress  (Ry/bohr**3)                   (kbar)     P=  -24.88
  -0.00019051   0.00000003   0.00000001        -28.02      0.00      0.00
   0.00000003  -0.00019051  -0.00000001          0.00    -28.03     -0.00
   0.00000001  -0.00000001  -0.00012633          0.00     -0.00    -18.58

 !ASE

     Writing output data file calc.save

     General routines

     Parallel routines

   This run was terminated on:  16: 6:14  17Jan2018

   JOB DONE.
Job  /afs/slac/g/suncat/bin/suncat-tsmpirun -x LD_LIBRARY_PATH -wdir /scratch/qe842477_mFyLb pw.x -in pw.inp

TID   HOST_NAME   COMMAND_LINE            STATUS            TERMINATION_TIME
00000 suncat0153 pw.x -in pw.inp   Done                     01/17/2018 16:06:14
00001 suncat0153 pw.x -in pw.inp   Done                     01/17/2018 16:06:14
00002 suncat0153 pw.x -in pw.inp   Done                     01/17/2018 16:06:14
00003 suncat0153 pw.x -in pw.inp   Done                     01/17/2018 16:06:14
00004 suncat0153 pw.x -in pw.inp   Done                     01/17/2018 16:06:14
00005 suncat0153 pw.x -in pw.inp   Done                     01/17/2018 16:06:14
00006 suncat0153 pw.x -in pw.inp   Done                     01/17/2018 16:06:14
00007 suncat0153 pw.x -in pw.inp   Done                     01/17/2018 16:06:14
00008 suncat0146 pw.x -in pw.inp   Done                     01/17/2018 16:06:14
00009 suncat0146 pw.x -in pw.inp   Done                     01/17/2018 16:06:14
00010 suncat0146 pw.x -in pw.inp   Done                     01/17/2018 16:06:14
00011 suncat0146 pw.x -in pw.inp   Done                     01/17/2018 16:06:14
00012 suncat0146 pw.x -in pw.inp   Done                     01/17/2018 16:06:14
00013 suncat0146 pw.x -in pw.inp   Done                     01/17/2018 16:06:14
00014 suncat0146 pw.x -in pw.inp   Done                     01/17/2018 16:06:14
00015 suncat0146 pw.x -in pw.inp   Done                     01/17/2018 16:06:14
00016 suncat0115 pw.x -in pw.inp   Done                     01/17/2018 16:06:14
00017 suncat0115 pw.x -in pw.inp   Done                     01/17/2018 16:06:14
00018 suncat0115 pw.x -in pw.inp   Done                     01/17/2018 16:06:14
00019 suncat0115 pw.x -in pw.inp   Done                     01/17/2018 16:06:14
00020 suncat0115 pw.x -in pw.inp   Done                     01/17/2018 16:06:14
00021 suncat0115 pw.x -in pw.inp   Done                     01/17/2018 16:06:14
00022 suncat0115 pw.x -in pw.inp   Done                     01/17/2018 16:06:14
00023 suncat0115 pw.x -in pw.inp   Done                     01/17/2018 16:06:14
00024 suncat0114 pw.x -in pw.inp   Done                     01/17/2018 16:06:14
00025 suncat0114 pw.x -in pw.inp   Done                     01/17/2018 16:06:14
00026 suncat0114 pw.x -in pw.inp   Done                     01/17/2018 16:06:14
00027 suncat0114 pw.x -in pw.inp   Done                     01/17/2018 16:06:14
00028 suncat0114 pw.x -in pw.inp   Done                     01/17/2018 16:06:14
00029 suncat0114 pw.x -in pw.inp   Done                     01/17/2018 16:06:14
00030 suncat0114 pw.x -in pw.inp   Done                     01/17/2018 16:06:14
00031 suncat0114 pw.x -in pw.inp   Done                     01/17/2018 16:06:14