     Program PWSCF v.5.1rc2 (svn rev. 11289) starts on 22Apr2018 at 20:38:11

     Current dimensions of program PWSCF are:
     Max number of different atomic species (ntypx) = 10
     Max number of k-points (npk) =  40000
     Max angular momentum in pseudopotentials (lmaxx) =  3
     Presently stress not available with electric field

     IMPORTANT: XC functional enforced from input :
     Exchange-correlation      = BEEF-VDW ( 1  4 27 13 2)
     Any further DFT definition will be discarded
     Please, verify this is what you really want

     Subspace diagonalization in iterative solution of the eigenvalue problem:
     a serial algorithm will be used

     bravais-lattice index     =            0
     lattice parameter (alat)  =       1.8897  a.u.
     unit-cell volume          =    6116.8020 (a.u.)^3
     number of atoms/cell      =           14
     number of atomic types    =            3
     number of electrons       =       139.00
     number of Kohn-Sham states=           79
     kinetic-energy cutoff     =      36.7493  Ry
     charge density cutoff     =     367.4932  Ry
     convergence threshold     =      1.0E-05
     mixing beta               =       0.3000
     number of iterations used =           10  plain     mixing
     Exchange-correlation      = BEEF-VDW ( 1  4 27 13 2)
     nstep                     =           50

     celldm(1)=   1.889726  celldm(2)=   0.000000  celldm(3)=   0.000000
     celldm(4)=   0.000000  celldm(5)=   0.000000  celldm(6)=   0.000000

     crystal axes: (cart. coord. in units of alat)
               a(1) = (   6.437465   0.000000   0.000000 )
               a(2) = (   3.218732   5.575008   0.000000 )
               a(3) = (   0.000000   0.000000  25.256168 )

     reciprocal axes: (cart. coord. in units 2 pi/alat)
               b(1) = (  0.155341 -0.089686  0.000000 )
               b(2) = (  0.000000  0.179372  0.000000 )
               b(3) = (  0.000000  0.000000  0.039594 )

     PseudoPot. # 1 for Sc read from file:
     /u/if/mamunm/psp/gbrv1.5pbe/Sc.UPF
     MD5 check sum: db30a2753ba66ef00f23801d899b7e7f
     Pseudo is Ultrasoft + core correction, Zval = 11.0
     Generated by new atomic code, or converted to UPF format
     Using radial grid of  849 points,  6 beta functions with:
                l(1) =   0
                l(2) =   0
                l(3) =   1
                l(4) =   1
                l(5) =   2
                l(6) =   2
     Q(r) pseudized with  6 coefficients,  rinner =    1.200   1.200   1.200
                                                       1.200   1.200

     PseudoPot. # 2 for O  read from file:
     /u/if/mamunm/psp/gbrv1.5pbe/O.UPF
     MD5 check sum: 734c27235a0248c51dbae37a1fbe46ec
     Pseudo is Ultrasoft + core correction, Zval =  6.0
     Generated by new atomic code, or converted to UPF format
     Using radial grid of  737 points,  5 beta functions with:
                l(1) =   0
                l(2) =   0
                l(3) =   1
                l(4) =   1
                l(5) =   2
     Q(r) pseudized with  8 coefficients,  rinner =    0.900   0.900   0.900
                                                       0.900   0.900

     PseudoPot. # 3 for H  read from file:
     /u/if/mamunm/psp/gbrv1.5pbe/H.UPF
     MD5 check sum: 761ae9a214b05c3daf00ab9f6b793d6f
     Pseudo is Ultrasoft, Zval =  1.0
     Generated by new atomic code, or converted to UPF format
     Using radial grid of  615 points,  2 beta functions with:
                l(1) =   0
                l(2) =   0
     Q(r) pseudized with  8 coefficients,  rinner =    0.700

     vdW kernel table read from file vdW_kernel_table
     MD5 check sum: 095c7af220d748ca6e76c0b4c6cfb241

     atomic species   valence    mass     pseudopotential
        Sc1           11.00    44.95591     Sc( 1.00)
        O1             6.00    15.99900     O ( 1.00)
        H1             1.00     1.00800     H ( 1.00)

     No symmetry found

   Cartesian axes

     site n.     atom                  positions (alat units)
         1           Sc1 tau(   1) = (   1.6093662   0.9291680  10.0000000  )
         2           Sc1 tau(   2) = (   4.8280986   0.9291680  10.0000000  )
         3           Sc1 tau(   3) = (   3.2187324   3.7166720  10.0000000  )
         4           Sc1 tau(   4) = (   6.4374648   3.7166720  10.0000000  )
         5           Sc1 tau(   5) = (   6.4374648   1.8583360  12.6280840  )
         6           Sc1 tau(   6) = (   3.2187324   1.8583360  12.6280840  )
         7           Sc1 tau(   7) = (   8.0468310   4.6458400  12.6280840  )
         8           Sc1 tau(   8) = (   4.8280986   4.6458400  12.6280840  )
         9           Sc1 tau(   9) = (   0.0000000   0.0000000  15.2561680  )
        10           Sc1 tau(  10) = (   3.2187324   0.0000000  15.2561680  )
        11           Sc1 tau(  11) = (   1.6093662   2.7875040  15.2561680  )
        12           Sc1 tau(  12) = (   4.8280986   2.7875040  15.2561680  )
        13           O1  tau(  13) = (   1.6093662   0.9291680  16.7901680  )
        14           H1  tau(  14) = (   1.6093662   0.9291680  17.7401680  )

     number of k points=    20  Fermi-Dirac smearing, width (Ry)=  0.0110
                       cart. coord. in units 2pi/alat
        k(    1) = (   0.0000000   0.0000000   0.0000000), wk =   0.0555556
        k(    2) = (   0.0000000   0.0298953   0.0000000), wk =   0.1111111
        k(    3) = (   0.0000000   0.0597906   0.0000000), wk =   0.1111111
        k(    4) = (   0.0000000  -0.0896860   0.0000000), wk =   0.0555556
        k(    5) = (   0.0258901  -0.0149477   0.0000000), wk =   0.1111111
        k(    6) = (   0.0258901   0.0149477   0.0000000), wk =   0.1111111
        k(    7) = (   0.0258901   0.0448430   0.0000000), wk =   0.1111111
        k(    8) = (   0.0258901  -0.1046336   0.0000000), wk =   0.1111111
        k(    9) = (   0.0258901  -0.0747383   0.0000000), wk =   0.1111111
        k(   10) = (   0.0258901  -0.0448430   0.0000000), wk =   0.1111111
        k(   11) = (   0.0517802  -0.0298953   0.0000000), wk =   0.1111111
        k(   12) = (   0.0517802   0.0000000   0.0000000), wk =   0.1111111
        k(   13) = (   0.0517802   0.0298953   0.0000000), wk =   0.1111111
        k(   14) = (   0.0517802  -0.1195813   0.0000000), wk =   0.1111111
        k(   15) = (   0.0517802  -0.0896860   0.0000000), wk =   0.1111111
        k(   16) = (   0.0517802  -0.0597906   0.0000000), wk =   0.1111111
        k(   17) = (  -0.0776703   0.0448430   0.0000000), wk =   0.0555556
        k(   18) = (  -0.0776703   0.0747383   0.0000000), wk =   0.1111111
        k(   19) = (  -0.0776703   0.1046336   0.0000000), wk =   0.1111111
        k(   20) = (  -0.0776703  -0.0448430   0.0000000), wk =   0.0555556

     Largest allocated arrays     est. size (Mb)     dimensions
     Largest temporary arrays     est. size (Mb)     dimensions

     Initial potential from superposition of free atoms
     Check: negative starting charge=   -0.000371

     starting charge  138.97116, renormalised to  139.00000

     negative rho (up, down):  3.708E-04 0.000E+00

     *
     * You are using vdW-DF for exchange-correlation in this calculation.
     * Please cite the following three references that made this development
     * possible:
     *
     *   M. Dion, H. Rydberg, E. Schroder, D. C. Langreth, and
     *   B. I. Lundqvist, Phys. Rev. Lett. 92, 246401 (2004).
     *
     *   T. Thonhauser, V. R. Cooper, S. Li, A. Puzder, P. Hyldgaard, and
     *   D. C. Langreth, Phys. Rev. B 76, 125112 (2007).
     *
     *   G. Roman-Perez and J. M. Soler, Phys. Rev. Lett. 103, 096102 (2009).
     *
     *
     * If you are using vdW-DF2, please also cite:
     *
     *   K. Lee, E. D. Murray, L. Kong, B. I. Lundqvist, and
     *   D. C. Langreth, Phys. Rev. B 82, 081101(R) (2010).
     *
     *
     * If you are calculating the stress with vdW-DF, please also cite:
     *
     *   R. Sabatini, E. Kucukbenli, B. Kolb, T. Thonhauser, and
     *   S. de Gironcoli, J. Phys.: Condens. Matter 24, 424209 (2012).
     *

     Carrying out vdW-DF run using the following parameters:

     Nqs =      20    Nr_points =    1024   r_max =   100.000
     q_mesh =
               0.00001000     0.04494208     0.09755937     0.15916263
               0.23128650     0.31572767     0.41458969     0.53033537
               0.66584808     0.82450364     1.01025438     1.22772762
               1.48234092     1.78043706     2.12944203     2.53805004
               3.01644009     3.57652955     4.23227104     5.00000000

     Gradients computed in reciprocal space

     Adding external electric field

     Computed dipole along edir(3) :
        Dipole               -0.0117 Ry au,         -0.0297 Debye
        Dipole field         -0.0000 Ry au

        Potential amp.        0.0022 Ry
        Total length         46.5341 bohr

     Starting wfc are  161 randomized atomic wfcs

     Self-consistent Calculation

     iteration #  1     ecut=    36.75 Ry     beta=0.30
     Davidson diagonalization with overlap
     ethr =  1.00E-02,  avg # of iterations =  2.0

[...]

     total energy              =   -1168.99870745 Ry
     Harris-Foulkes estimate   =   -1172.27390486 Ry
     estimated scf accuracy    <       6.93693321 Ry

[...]

     End of self-consistent calculation

          k = 0.0000 0.0000 0.0000 ( 23031 PWs)   bands (ev):

   -49.1303 -49.0876 -49.0876 -49.0873 -49.0737 -49.0416 -49.0414 -49.0411
   -48.6272 -48.5869 -48.5865 -48.5654 -27.8621 -27.8287 -27.8287 -27.8219
   -27.8000 -27.7976 -27.7975 -27.7698 -27.7581 -27.7460 -27.7459 -27.7062
   -27.7054 -27.7053 -27.5764 -27.5763 -27.5752 -27.5408 -27.5407 -27.5390
   -27.4944 -27.4944 -27.4616 -27.4616 -27.3565 -27.3466 -27.3464 -27.1892
   -27.1674 -27.1670 -27.1409 -27.1138 -27.1089 -27.1086 -27.0326 -27.0326
   -19.9350  -7.7008  -3.8820  -3.8819  -3.8298  -2.6950  -1.4345  -0.6284
    -0.6284  -0.5996  -0.4977  -0.4699  -0.4698  -0.1715  -0.1652  -0.1652
     0.2948   0.2948   0.3370   0.5768   0.5769   0.6955   0.9521   1.0073
     1.3691   1.4887   1.4931   1.4931   1.5761   1.5761   1.8878

[...]

          k =-0.0777 0.0448 0.0000 ( 23032 PWs)   bands (ev):

[...]

     the Fermi energy is     0.8616 ev

!    total energy              =   -1171.59623880 Ry
     Harris-Foulkes estimate   =   -1171.59622966 Ry
     estimated scf accuracy    <       0.00000338 Ry

     The total energy is the sum of the following terms:

     one-electron contribution =   -7472.23907945 Ry
     hartree contribution      =    3722.57171667 Ry
     xc contribution           =    -174.82467243 Ry
     ewald contribution        =    2753.03169448 Ry
     electric field correction =       0.00017270 Ry
     smearing contrib. (-TS)   =      -0.13607077 Ry

     convergence has been achieved in  18 iterations

 BEEF-vdW xc energy contributions
           1 :   -148.159286116749
           2 :    130.253341266980
           3 :   -102.359105358650
           4 :    75.2517258947887
           5 :   -56.4720646699523
           6 :    47.3215783569292
           7 :   -44.1939204359190
           8 :    42.3651583857848
           9 :   -39.2118879355889
          10 :    34.9662173691034
          11 :   -31.2736461901246
          12 :    29.2273339172302
          13 :   -28.4649666258487
          14 :    27.7368522775007
          15 :   -26.1480488863928
          16 :    23.8930330674198
          17 :   -21.9205406520093
          18 :    20.9632934609764
          19 :   -20.8786309243420
          20 :    20.8528400045516
          21 :   -20.1837405057761
          22 :    18.8750708403660
          23 :   -17.5413955881487
          24 :    16.7887555573167
          25 :   -16.6763512208061
          26 :    16.7206977980848
          27 :   -16.3794099309653
          28 :    15.5384044075022
          29 :   -14.5731844505842
          30 :    13.9675202425487
          31 :   -17.4580631175434
          32 :   -12.4610166233535

     Forces acting on atoms (Ry/au):

     negative rho (up, down):  2.892E-04 0.000E+00
     atom    1 type  1   force =     0.00004227   -0.00001521    0.00090352
     atom    2 type  1   force =    -0.00003577   -0.00042880    0.00103856
     atom    3 type  1   force =    -0.00035815    0.00020407    0.00106223
     atom    4 type  1   force =     0.00036393    0.00024822    0.00103809
     atom    5 type  1   force =    -0.00068096    0.00037619    0.00332428
     atom    6 type  1   force =     0.00068626    0.00040319    0.00331299
     atom    7 type  1   force =     0.00002735    0.00001021   -0.00576100
     atom    8 type  1   force =    -0.00002087   -0.00078297    0.00332445
     atom    9 type  1   force =     0.01571179    0.00903327    0.02447732
     atom   10 type  1   force =    -0.01573562    0.00910494    0.02447154
     atom   11 type  1   force =     0.00005211   -0.01815280    0.02449408
     atom   12 type  1   force =    -0.00003920    0.00001434   -0.01631249
     atom   13 type  2   force =    -0.00001344   -0.00001460   -0.11147020
     atom   14 type  3   force =     0.00000031   -0.00000006    0.04609663

     Total force =     0.132677     Total SCF correction =     0.005800

     entering subroutine stress ...

     negative rho (up, down):  2.892E-04 0.000E+00
          total   stress  (Ry/bohr**3)                   (kbar)     P=    0.40
   0.00001772   0.00000000  -0.00000000          2.61      0.00     -0.00
   0.00000000   0.00001771   0.00000000          0.00      2.61      0.00
  -0.00000000   0.00000000  -0.00002731         -0.00      0.00     -4.02

     BFGS Geometry Optimization

     number of scf cycles    =   1
     number of bfgs steps    =   0

     energy   new            =   -1171.5962388008 Ry

     new trust radius        =       0.1114702024 bohr
     new conv_thr            =       0.0000099958 Ry

ATOMIC_POSITIONS (crystal)
Sc1      0.166666667   0.166666667   0.395942884    0   0   0
Sc1      0.666666667   0.166666667   0.395942884    0   0   0
Sc1      0.166666667   0.666666667   0.395942884    0   0   0
Sc1      0.666666667   0.666666667   0.395942884    0   0   0
Sc1      0.833333333   0.333333333   0.500000000    0   0   0
Sc1      0.333333333   0.333333333   0.500000000    0   0   0
Sc1      0.833333333   0.833333333   0.500000000    0   0   0
Sc1      0.333333333   0.833333333   0.500000000    0   0   0
Sc1      0.000862835   0.000857433   0.604569974
Sc1      0.498274370   0.000864237   0.604569853
Sc1      0.000865811   0.498276945   0.604570325
Sc1      0.499996097   0.500001362   0.603715330
O1       0.166666254   0.166665281   0.662459186
H1       0.166666695   0.166666661   0.703375163

     Writing output data file calc.save
     Check: negative starting charge=   -0.000371
     NEW-OLD atomic charge density approx. for the potential
     Check: negative starting charge=   -0.000364

[...]

     energy   old            =   -1171.5962388008 Ry
     energy   new            =   -1171.6003711391 Ry

     CASE: energy  _new < energy  _old

[...]

     WARNING: bfgs curvature condition failed, Theta= 0.949
     new trust radius        =       0.0159298357 bohr
     new conv_thr            =       0.0000001000 Ry

[...]

     Threshold (ethr) on eigenvalues was too large:
     Diagonalizing with lowered threshold

     Davidson diagonalization with overlap
     ethr =  2.32E-08,  avg # of iterations =  4.5

[...]

     WARNING: bfgs curvature condition failed, Theta= 0.873
     new trust radius        =       0.0069114598 bohr
     new conv_thr            =       0.0000001000 Ry

[...]

     Threshold (ethr) on eigenvalues was too large:
     Diagonalizing with lowered threshold

     Davidson diagonalization with overlap
     ethr =  7.59E-08,  avg # of iterations =  2.0

[...]

     number of scf cycles    =  15
     number of bfgs steps    =  14

     energy   old            =   -1171.6239097254 Ry
     energy   new            =   -1171.6240669337 Ry

     CASE: energy  _new < energy  _old

     new trust radius        =       0.0233261767 bohr
     new conv_thr            =       0.0000001000 Ry

ATOMIC_POSITIONS (crystal)
Sc1      0.166666667   0.166666667   0.395942884    0   0   0
Sc1      0.666666667   0.166666667   0.395942884    0   0   0
Sc1      0.166666667   0.666666667   0.395942884    0   0   0
Sc1      0.666666667   0.666666667   0.395942884    0   0   0
Sc1      0.833333333   0.333333333   0.500000000    0   0   0
Sc1      0.333333333   0.333333333   0.500000000    0   0   0
Sc1      0.833333333   0.833333333   0.500000000    0   0   0
Sc1      0.333333333   0.833333333   0.500000000    0   0   0
Sc1      0.000921480   0.000921865   0.607448621
Sc1      0.498189466   0.000929487   0.607449613
Sc1      0.000928202   0.498191334   0.607449494
Sc1      0.500009961   0.500012959   0.596420869
O1       0.166676573   0.166675065   0.655321277
H1       0.166657032   0.166656554   0.694007381

     Writing output data file calc.save
     Check: negative starting charge=   -0.000371
     NEW-OLD atomic charge density approx. for the potential
     Check: negative starting charge=   -0.000370

[...]

     Self-consistent Calculation

[...]

     total energy              =   -1171.62423763 Ry
     Harris-Foulkes estimate   =   -1171.62423756 Ry
     estimated scf accuracy    <       0.00000039 Ry

     iteration # 13     ecut=    36.75 Ry     beta=0.30
     Davidson diagonalization with overlap
     ethr =  2.84E-10,  avg # of iterations =  5.9

[...]

     negative rho (up, down):  2.719E-04 0.000E+00

     Adding external electric field

     Computed dipole along edir(3) :
        Dipole                0.2862 Ry au,          0.7275 Debye
        Dipole field          0.0006 Ry au

        Potential amp.       -0.0547 Ry
        Total length         46.5341 bohr

     End of self-consistent calculation

[...]

          k = 0.0518-0.0598 0.0000 ( 23012 PWs)   bands (ev):

[...]

          k =-0.0777-0.0448 0.0000 ( 23032 PWs)   bands (ev):

   -49.1236 -49.1113 -49.0992 -49.0507 -49.0398 -49.0224 -49.0168 -48.8772
   -48.6255 -48.5754 -48.5623 -48.5533 -27.8756 -27.7882 -27.7760 -27.7581
   -27.7246 -27.7214 -27.7161 -27.7095 -27.7085 -27.7054 -27.6869 -27.6813
   -27.6730 -27.6544 -27.6215 -27.6096 -27.5966 -27.5861 -27.5830 -27.5618
   -27.4841 -27.4775 -27.4539 -27.4025 -27.3004 -27.2560 -27.2180 -27.1890
   -27.1716 -27.1485 -27.1480 -27.1384 -27.1284 -27.1277 -27.0738 -27.0411
   -20.7662  -8.5595  -5.0694  -5.0138  -2.5144  -2.4718  -1.4990  -1.3897
    -0.6238  -0.6047  -0.3280  -0.2586  -0.0657  -0.0505   0.5836   0.6248
     0.6556   0.6788   0.6951   0.7243   0.8926   0.9386   0.9764   0.9991
     1.0016   1.0739   1.0867   1.2441   1.3215   1.3883   1.4163

     the Fermi energy is     0.8808 ev

!    total energy              =   -1171.62423760 Ry
     Harris-Foulkes estimate   =   -1171.62423801 Ry
     estimated scf accuracy    <       0.00000009 Ry

     The total energy is the sum of the following terms:

     one-electron contribution =   -7509.58050114 Ry
     hartree contribution      =    3741.07247777 Ry
     xc contribution           =    -174.86462318 Ry
     ewald contribution        =    2771.88375104 Ry
     electric field correction =       0.00016830 Ry
     smearing contrib. (-TS)   =      -0.13551039 Ry

     convergence has been achieved in  13 iterations

 BEEF-vdW xc energy contributions
           1 :   -148.211828205409
           2 :    130.352054032039
           3 :   -102.490915370927
           4 :    75.3589604029412
           5 :   -56.5063408490893
           6 :    47.2785869804183
           7 :   -44.1085792939817
           8 :    42.2795008423954
           9 :   -39.1497847226651
          10 :    34.9336146933753
          11 :   -31.2677398354190
          12 :    29.2369499582855
          13 :   -28.4684650053265
          14 :    27.7127377738865
          15 :   -26.0936125819171
          16 :    23.8283100682538
          17 :   -21.8698354398401
          18 :    20.9338685052341
          19 :   -20.8566369332423
          20 :    20.8173501994116
          21 :   -20.1245274107313
          22 :    18.7989396292216
          23 :   -17.4639373801542
          24 :    16.7208790430652
          25 :   -16.6166810506230
          26 :    16.6593961764949
          27 :   -16.3106082821426
          28 :    15.4686775457629
          29 :   -14.5138071230726
          30 :    13.9176472884702
          31 :   -17.4609408485914
          32 :   -12.4728865609487

     Forces acting on atoms (Ry/au):

     negative rho (up, down):  2.719E-04 0.000E+00
     atom    1 type  1   force =    -0.00000965   -0.00000535    0.00253697
     atom    2 type  1   force =     0.00000419   -0.00151338    0.00131028
     atom    3 type  1   force =    -0.00130877    0.00076027    0.00130968
     atom    4 type  1   force =     0.00130505    0.00075333    0.00131577
     atom    5 type  1   force =     0.00200715   -0.00116483   -0.00065204
     atom    6 type  1   force =    -0.00201784   -0.00116433   -0.00064387
     atom    7 type  1   force =     0.00000504    0.00000246    0.00089319
     atom    8 type  1   force =    -0.00000565    0.00232101   -0.00065228
     atom    9 type  1   force =     0.00075525    0.00043720   -0.00127070
     atom   10 type  1   force =    -0.00073725    0.00042997   -0.00125507
     atom   11 type  1   force =     0.00000277   -0.00085575   -0.00125522
     atom   12 type  1   force =     0.00000468    0.00000113    0.00109214
     atom   13 type  2   force =    -0.00000863   -0.00000375   -0.00138009
     atom   14 type  3   force =     0.00000366    0.00000201   -0.00134878

     Total force =     0.003450     Total SCF correction =     0.000158

     entering subroutine stress ...

     negative rho (up, down):  2.719E-04 0.000E+00
          total   stress  (Ry/bohr**3)                   (kbar)     P=    1.72
   0.00002538  -0.00000000  -0.00000001          3.73     -0.00     -0.00
  -0.00000000   0.00002538  -0.00000000         -0.00      3.73     -0.00
  -0.00000001  -0.00000000  -0.00001571         -0.00     -0.00     -2.31

     bfgs converged in  16 scf cycles and  15 bfgs steps
     (criteria: energy <  1.0E+00, force <  1.9E-03)

     End of BFGS Geometry Optimization

     Final energy   =   -1171.6242375996 Ry
Begin final coordinates

ATOMIC_POSITIONS (crystal)
Sc1      0.166666667   0.166666667   0.395942884    0   0   0
Sc1      0.666666667   0.166666667   0.395942884    0   0   0
Sc1      0.166666667   0.666666667   0.395942884    0   0   0
Sc1      0.666666667   0.666666667   0.395942884    0   0   0
Sc1      0.833333333   0.333333333   0.500000000    0   0   0
Sc1      0.333333333   0.333333333   0.500000000    0   0   0
Sc1      0.833333333   0.833333333   0.500000000    0   0   0
Sc1      0.333333333   0.833333333   0.500000000    0   0   0
Sc1      0.000921480   0.000921865   0.607448621
Sc1      0.498189466   0.000929487   0.607449613
Sc1      0.000928202   0.498191334   0.607449494
Sc1      0.500009961   0.500012959   0.596420869
O1       0.166676573   0.166675065   0.655321277
H1       0.166657032   0.166656554   0.694007381
End final coordinates

     Writing output data file calc.save

     General routines

     Parallel routines

   This run was terminated on:  23:13:45  22Apr2018

   JOB DONE.
Job  /afs/slac/g/suncat/bin/suncat-tsmpirun -x LD_LIBRARY_PATH -wdir /scratch/qe314703_bIDKt pw.x -npool 4 -in pw.inp

TID   HOST_NAME   COMMAND_LINE            STATUS            TERMINATION_TIME
00000 suncat0191 pw.x -npool 4 -i  Done                     04/22/2018 23:13:45
00001 suncat0191 pw.x -npool 4 -i  Done                     04/22/2018 23:13:45
00002 suncat0191 pw.x -npool 4 -i  Done                     04/22/2018 23:13:45
00003 suncat0191 pw.x -npool 4 -i  Done                     04/22/2018 23:13:45
00004 suncat0191 pw.x -npool 4 -i  Done                     04/22/2018 23:13:45
00005 suncat0191 pw.x -npool 4 -i  Done                     04/22/2018 23:13:45
00006 suncat0191 pw.x -npool 4 -i  Done                     04/22/2018 23:13:45
00007 suncat0191 pw.x -npool 4 -i  Done                     04/22/2018 23:13:45
00008 suncat0175 pw.x -npool 4 -i  Done                     04/22/2018 23:13:45
00009 suncat0175 pw.x -npool 4 -i  Done                     04/22/2018 23:13:45
00010 suncat0175 pw.x -npool 4 -i  Done                     04/22/2018 23:13:45
00011 suncat0175 pw.x -npool 4 -i  Done                     04/22/2018 23:13:45
00012 suncat0175 pw.x -npool 4 -i  Done                     04/22/2018 23:13:45
00013 suncat0175 pw.x -npool 4 -i  Done                     04/22/2018 23:13:45
00014 suncat0175 pw.x -npool 4 -i  Done                     04/22/2018 23:13:45
00015 suncat0175 pw.x -npool 4 -i  Done                     04/22/2018 23:13:45
00016 suncat0174 pw.x -npool 4 -i  Done                     04/22/2018 23:13:45
00017 suncat0174 pw.x -npool 4 -i  Done                     04/22/2018 23:13:45
00018 suncat0174 pw.x -npool 4 -i  Done                     04/22/2018 23:13:45
00019 suncat0174 pw.x -npool 4 -i  Done                     04/22/2018 23:13:45
00020 suncat0174 pw.x -npool 4 -i  Done                     04/22/2018 23:13:45
00021 suncat0174 pw.x -npool 4 -i  Done                     04/22/2018 23:13:45
00022 suncat0174 pw.x -npool 4 -i  Done                     04/22/2018 23:13:45
00023 suncat0174 pw.x -npool 4 -i  Done                     04/22/2018 23:13:45
00024 suncat0159 pw.x -npool 4 -i  Done                     04/22/2018 23:13:45
00025 suncat0159 pw.x -npool 4 -i  Done                     04/22/2018 23:13:45
00026 suncat0159 pw.x -npool 4 -i  Done                     04/22/2018 23:13:45
00027 suncat0159 pw.x -npool 4 -i  Done                     04/22/2018 23:13:45
00028 suncat0159 pw.x -npool 4 -i  Done                     04/22/2018 23:13:45
00029 suncat0159 pw.x -npool 4 -i  Done                     04/22/2018 23:13:45
00030 suncat0159 pw.x -npool 4 -i  Done                     04/22/2018 23:13:45
00031 suncat0159 pw.x -npool 4 -i  Done                     04/22/2018 23:13:45