     Program PWSCF v.5.1rc2 (svn rev. 11289) starts on 14Jan2018 at  2:24:36

     Current dimensions of program PWSCF are:
     Max number of different atomic species (ntypx) = 10
     Max number of k-points (npk) =  40000
     Max angular momentum in pseudopotentials (lmaxx) =  3
     Presently stress not available with electric field

     IMPORTANT: XC functional enforced from input :
     Exchange-correlation      = BEEF-VDW ( 1  4 27 13 2)
     Any further DFT definition will be discarded
     Please, verify this is what you really want

     Subspace diagonalization in iterative solution of the eigenvalue problem:
     a serial algorithm will be used

     bravais-lattice index     =            0
     lattice parameter (alat)  =       1.8897  a.u.
     unit-cell volume          =    4299.0717 (a.u.)^3
     number of atoms/cell      =           13
     number of atomic types    =            2
     number of electrons       =       186.00
     number of Kohn-Sham states=          103
     kinetic-energy cutoff     =      36.7493  Ry
     charge density cutoff     =     367.4932  Ry
     convergence threshold     =      1.0E-05
     mixing beta               =       0.3000
     number of iterations used =           10  plain     mixing
     Exchange-correlation      = BEEF-VDW ( 1  4 27 13 2)
     nstep                     =           50

     celldm(1)=   1.889726  celldm(2)=   0.000000  celldm(3)=   0.000000
     celldm(4)=   0.000000  celldm(5)=   0.000000  celldm(6)=   0.000000

     crystal axes: (cart. coord. in units of alat)
               a(1) = (   5.482164   0.000000   0.000000 )
               a(2) = (   2.741082   4.747693   0.000000 )
               a(3) = (   0.000000   0.000000  24.476168 )

     reciprocal axes: (cart. coord. in units 2 pi/alat)
               b(1) = (  0.182410 -0.105314  0.000000 )
               b(2) = (  0.000000  0.210629  0.000000 )
               b(3) = (  0.000000  0.000000  0.040856 )

     PseudoPot. # 1 for Ir read from file:
     /afs/slac.stanford.edu/u/if/mamunm/psp/gbrv1.5pbe/Ir.UPF
     MD5 check sum: 8836f839c3459d2b385c504ce6d91f2c
     Pseudo is Ultrasoft + core correction, Zval = 15.0
     Generated by new atomic code, or converted to UPF format
     Using radial grid of  983 points,  7 beta functions with:
                l(1) =   0
                l(2) =   0
                l(3) =   1
                l(4) =   1
                l(5) =   1
                l(6) =   2
                l(7) =   2
     Q(r) pseudized with  8 coefficients,  rinner =    1.400   1.400   1.400
                                                       1.400   1.400

     PseudoPot. # 2 for O  read from file:
     /afs/slac.stanford.edu/u/if/mamunm/psp/gbrv1.5pbe/O.UPF
     MD5 check sum: 734c27235a0248c51dbae37a1fbe46ec
     Pseudo is Ultrasoft + core correction, Zval =  6.0
     Generated by new atomic code, or converted to UPF format
     Using radial grid of  737 points,  5 beta functions with:
                l(1) =   0
                l(2) =   0
                l(3) =   1
                l(4) =   1
                l(5) =   2
     Q(r) pseudized with  8 coefficients,  rinner =    0.900   0.900   0.900
                                                       0.900   0.900

     vdW kernel table read from file vdW_kernel_table
     MD5 check sum: 095c7af220d748ca6e76c0b4c6cfb241

     atomic species   valence    mass     pseudopotential
        Ir1           15.00   192.21700     Ir( 1.00)
        O1             6.00    15.99900     O ( 1.00)

     No symmetry found

   Cartesian axes

     site n.     atom                  positions (alat units)
         1           Ir1 tau(   1) = (   1.3705410   0.7912822  10.0000000  )
         2           Ir1 tau(   2) = (   4.1116229   0.7912822  10.0000000  )
         3           Ir1 tau(   3) = (   2.7410819   3.1651288  10.0000000  )
         4           Ir1 tau(   4) = (   5.4821639   3.1651288  10.0000000  )
         5           Ir1 tau(   5) = (   5.4821639   1.5825644  12.2380840  )
         6           Ir1 tau(   6) = (   2.7410819   1.5825644  12.2380840  )
         7           Ir1 tau(   7) = (   6.8527049   3.9564110  12.2380840  )
         8           Ir1 tau(   8) = (   4.1116229   3.9564110  12.2380840  )
         9           Ir1 tau(   9) = (   0.0000000   0.0000000  14.4761681  )
        10           Ir1 tau(  10) = (   2.7410819   0.0000000  14.4761681  )
        11           Ir1 tau(  11) = (   1.3705410   2.3738466  14.4761681  )
        12           Ir1 tau(  12) = (   4.1116229   2.3738466  14.4761681  )
        13           O1  tau(  13) = (   0.0000000   0.0000000  16.5461681  )

     number of k points=    20  Fermi-Dirac smearing, width (Ry)=  0.0110
                       cart. coord. in units 2pi/alat
        k(    1) = (   0.0000000   0.0000000   0.0000000), wk =   0.0555556
        k(    2) = (   0.0000000   0.0351048   0.0000000), wk =   0.1111111
        k(    3) = (   0.0000000   0.0702095   0.0000000), wk =   0.1111111
        k(    4) = (   0.0000000  -0.1053143   0.0000000), wk =   0.0555556
        k(    5) = (   0.0304016  -0.0175524   0.0000000), wk =   0.1111111
        k(    6) = (   0.0304016   0.0175524   0.0000000), wk =   0.1111111
        k(    7) = (   0.0304016   0.0526572   0.0000000), wk =   0.1111111
        k(    8) = (   0.0304016  -0.1228667   0.0000000), wk =   0.1111111
        k(    9) = (   0.0304016  -0.0877619   0.0000000), wk =   0.1111111
        k(   10) = (   0.0304016  -0.0526572   0.0000000), wk =   0.1111111
        k(   11) = (   0.0608032  -0.0351048   0.0000000), wk =   0.1111111
        k(   12) = (   0.0608032   0.0000000   0.0000000), wk =   0.1111111
        k(   13) = (   0.0608032   0.0351048   0.0000000), wk =   0.1111111
        k(   14) = (   0.0608032  -0.1404191   0.0000000), wk =   0.1111111
        k(   15) = (   0.0608032  -0.1053143   0.0000000), wk =   0.1111111
        k(   16) = (   0.0608032  -0.0702095   0.0000000), wk =   0.1111111
        k(   17) = (  -0.0912049   0.0526572   0.0000000), wk =   0.0555556
        k(   18) = (  -0.0912049   0.0877619   0.0000000), wk =   0.1111111
        k(   19) = (  -0.0912049   0.1228667   0.0000000), wk =   0.1111111
        k(   20) = (  -0.0912049  -0.0526572   0.0000000), wk =   0.0555556

     Largest allocated arrays     est. size (Mb)     dimensions
     Largest temporary arrays     est. size (Mb)     dimensions

     Initial potential from superposition of free atoms
     Check: negative starting charge=   -4.361849

     starting charge  179.99962, renormalised to  186.00000

     negative rho (up, down):  4.507E+00 0.000E+00

     *
     * You are using vdW-DF for exchange-correlation in this calculation.
     * Please cite the following three references that made this development
     * possible:
     *
     *   M. Dion, H. Rydberg, E. Schroder, D. C. Langreth, and
     *   B. I. Lundqvist, Phys. Rev. Lett. 92, 246401 (2004).
     *
     *   T. Thonhauser, V. R. Cooper, S. Li, A. Puzder, P. Hyldgaard, and
     *   D. C. Langreth, Phys. Rev. B 76, 125112 (2007).
     *
     *   G. Roman-Perez and J. M. Soler, Phys. Rev. Lett. 103, 096102 (2009).
     *
     *
     * If you are using vdW-DF2, please also cite:
     *
     *   K. Lee, E. D. Murray, L. Kong, B. I. Lundqvist, and
     *   D. C. Langreth, Phys. Rev. B 82, 081101(R) (2010).
     *
     *
     * If you are calculating the stress with vdW-DF, please also cite:
     *
     *   R. Sabatini, E. Kucukbenli, B. Kolb, T. Thonhauser, and
     *   S. de Gironcoli, J. Phys.: Condens. Matter 24, 424209 (2012).
     *

     Carrying out vdW-DF run using the following parameters:

     Nqs =      20    Nr_points =    1024   r_max =   100.000
     q_mesh =
               0.00001000     0.04494208     0.09755937     0.15916263
               0.23128650     0.31572767     0.41458969     0.53033537
               0.66584808     0.82450364     1.01025438     1.22772762
               1.48234092     1.78043706     2.12944203     2.53805004
               3.01644009     3.57652955     4.23227104     5.00000000

     Gradients computed in reciprocal space

     Adding external electric field

     Computed dipole along edir(3) :
        Dipole               -1.6283 Ry au,         -4.1387 Debye
        Dipole field         -0.0048 Ry au

        Potential amp.        0.4293 Ry
        Total length         45.0969 bohr

     Starting wfc are  148 randomized atomic wfcs

     Self-consistent Calculation

     iteration #  1     ecut=    36.75 Ry     beta=0.30
     Davidson diagonalization with overlap
     ethr =  1.00E-02,  avg # of iterations =  3.5

[...]

     total energy              =   -2195.24754087 Ry
     Harris-Foulkes estimate   =   -2234.83554405 Ry
     estimated scf accuracy    <      83.35688008 Ry

     iteration #  2     ecut=    36.75 Ry     beta=0.30
     Davidson diagonalization with overlap
     c_bands:  5 eigenvalues not converged
     c_bands:  1 eigenvalues not converged
     ethr =  1.00E-02,  avg # of iterations = 16.9

[...]

     End of self-consistent calculation

          k = 0.0000 0.0000 0.0000 ( 16073 PWs)   bands (ev):

   -48.3120 -48.2648 -48.2646 -48.2019 -48.1237 -48.1235 -48.0370 -47.9936
   -47.9716 -47.9714 -47.8685 -47.8470 -47.8467 -47.7314 -47.7204 -47.7204
   -47.6871 -47.6871 -47.6659 -47.4468 -47.4468 -47.3617 -47.3432 -47.3167
   -47.3166 -47.3110 -47.3110 -47.2846 -47.2817 -47.2660 -47.2659 -47.2224
   -47.2224 -47.1943 -47.1921 -47.1921 -14.5164  -7.6599  -5.7497  -5.4059
    -5.0970  -5.0920  -5.0919  -4.7971  -4.7949  -4.7948  -4.3193  -4.3192
    -4.2931  -4.0175  -4.0175  -3.9892  -2.6527  -2.6527  -2.5064  -2.2120
    -1.9954  -1.9954  -1.8526  -1.6302  -1.6302  -1.6205  -1.1958  -1.1957
    -1.1492  -1.1492  -1.1154  -1.0975  -0.8741  -0.8741  -0.5503  -0.5503
    -0.0223  -0.0222   0.2530   0.7387   0.7387   0.7634   0.8230   0.8244
     0.8245   1.3315   1.3560   1.3561   1.6183   1.6183   2.1898   2.1898
     2.2730   2.2846   2.2846   2.4017   2.4506   2.4506   2.7813   2.7866
     2.7868   3.0320   3.1913   3.1929   3.3081   3.3517   3.3709

[...]

          k =-0.0912 0.0527 0.0000 ( 16164 PWs)   bands (ev):

[...]

     the Fermi energy is     1.8393 ev

!    total energy              =   -2232.17476389 Ry
     Harris-Foulkes estimate   =   -2232.17479746 Ry
     estimated scf accuracy    <       0.00000677 Ry

     The total energy is the sum of the following terms:

     one-electron contribution =  -18794.86559755 Ry
     hartree contribution      =    9427.02860476 Ry
     xc contribution           =    -630.87541295 Ry
     ewald contribution        =    7766.63916457 Ry
     electric field correction =       0.00065103 Ry
     smearing contrib. (-TS)   =      -0.10217375 Ry

     convergence has been achieved in  19 iterations

 BEEF-vdW xc energy contributions
           1 :   -558.569276833697
           2 :    519.247138235940
           3 :   -449.131203159877
           4 :    362.175459697656
           5 :   -273.503971025101
           6 :    195.571845814127
           7 :   -135.631349062182
           8 :    94.9913616252404
           9 :   -70.0781977309348
[...]
     ethr =  1.00E-02,  avg # of iterations = 15.5

[...]

     Program PWSCF v.5.1rc2 (svn rev. 11289) starts on 14Jan2018 at  4: 6:37

[...]

     Program PWSCF v.5.1rc2 (svn rev. 11289) starts on 14Jan2018 at  4:35:30

[...]

     Program PWSCF v.5.1rc2 (svn rev. 11289) starts on 14Jan2018 at  4:50: 2

[...]

     Total force =     0.053201     Total SCF correction =     0.022529
     SCF correction compared to forces is large: reduce conv_thr to get better values

[...]

   This run was terminated on:   5: 4:30  14Jan2018

[...]

     Program PWSCF v.5.1rc2 (svn rev. 11289) starts on 14Jan2018 at  5: 4:35

     Current dimensions of program PWSCF are:
     Max number of different atomic species (ntypx) = 10
     Max number of k-points (npk) =  40000
     Max angular momentum in pseudopotentials (lmaxx) =  3
     Presently stress not available with electric field

     IMPORTANT: XC functional enforced from input :
     Exchange-correlation      = BEEF-VDW ( 1  4 27 13 2)
     Any further DFT definition will be discarded
     Please, verify this is what you really want

     Subspace diagonalization in iterative solution of the eigenvalue problem:
     a serial algorithm will be used

     bravais-lattice index     =            0
     lattice parameter (alat)  =       1.8897  a.u.
     unit-cell volume          =    4299.0717 (a.u.)^3
     number of atoms/cell      =           13
     number of atomic types    =            2
     number of electrons       =       186.00
     number of Kohn-Sham states=          103
     kinetic-energy cutoff     =      36.7493  Ry
     charge density cutoff     =     367.4932  Ry
     convergence threshold     =      1.0E-05
     mixing beta               =       0.3000
     number of iterations used =           10  plain     mixing
     Exchange-correlation      = BEEF-VDW ( 1  4 27 13 2)
     nstep                     =           50

     celldm(1)=   1.889726  celldm(2)=   0.000000  celldm(3)=   0.000000
     celldm(4)=   0.000000  celldm(5)=   0.000000  celldm(6)=   0.000000

     crystal axes: (cart. coord. in units of alat)
               a(1) = (   5.482164   0.000000   0.000000 )
               a(2) = (   2.741082   4.747693   0.000000 )
               a(3) = (   0.000000   0.000000  24.476168 )

     reciprocal axes: (cart. coord. in units 2 pi/alat)
               b(1) = (  0.182410 -0.105314  0.000000 )
               b(2) = (  0.000000  0.210629  0.000000 )
               b(3) = (  0.000000  0.000000  0.040856 )

     PseudoPot. # 1 for Ir read from file:
     /afs/slac.stanford.edu/u/if/mamunm/psp/gbrv1.5pbe/Ir.UPF
     MD5 check sum: 8836f839c3459d2b385c504ce6d91f2c
     Pseudo is Ultrasoft + core correction, Zval = 15.0
     Generated by new atomic code, or converted to UPF format
     Using radial grid of  983 points,  7 beta functions with:
                l(1) =   0
                l(2) =   0
                l(3) =   1
                l(4) =   1
                l(5) =   1
                l(6) =   2
                l(7) =   2
     Q(r) pseudized with  8 coefficients,  rinner =    1.400   1.400   1.400
                                                       1.400   1.400

     PseudoPot. # 2 for O  read from file:
     /afs/slac.stanford.edu/u/if/mamunm/psp/gbrv1.5pbe/O.UPF
     MD5 check sum: 734c27235a0248c51dbae37a1fbe46ec
     Pseudo is Ultrasoft + core correction, Zval =  6.0
     Generated by new atomic code, or converted to UPF format
     Using radial grid of  737 points,  5 beta functions with:
                l(1) =   0
                l(2) =   0
                l(3) =   1
                l(4) =   1
                l(5) =   2
     Q(r) pseudized with  8 coefficients,  rinner =    0.900   0.900   0.900
                                                       0.900   0.900

     vdW kernel table read from file vdW_kernel_table
     MD5 check sum: 095c7af220d748ca6e76c0b4c6cfb241

     atomic species   valence    mass     pseudopotential
        Ir1           15.00   192.21700     Ir( 1.00)
        O1             6.00    15.99900     O ( 1.00)

     No symmetry found

   Cartesian axes

     site n.     atom                  positions (alat units)
         1           Ir1 tau(   1) = (   1.3705410   0.7912822  10.0000000  )
         2           Ir1 tau(   2) = (   4.1116229   0.7912822  10.0000000  )
         3           Ir1 tau(   3) = (   2.7410819   3.1651288  10.0000000  )
         4           Ir1 tau(   4) = (   5.4821639   3.1651288  10.0000000  )
         5           Ir1 tau(   5) = (   5.4821639   1.5825644  12.2380840  )
         6           Ir1 tau(   6) = (   2.7410819   1.5825644  12.2380840  )
         7           Ir1 tau(   7) = (   6.8527049   3.9564110  12.2380840  )
         8           Ir1 tau(   8) = (   4.1116229   3.9564110  12.2380840  )
         9           Ir1 tau(   9) = (   5.4821306   0.0000577  14.5566785  )
        10           Ir1 tau(  10) = (   2.7411290   0.0011915  14.3976413  )
        11           Ir1 tau(  11) = (   1.3715329   2.3732827  14.3976852  )
        12           Ir1 tau(  12) = (   4.1106535   2.3732410  14.3976998  )
        13           O1  tau(  13) = (   5.4821629   0.0000516  16.3473712  )

     number of k points=    20  Fermi-Dirac smearing, width (Ry)=  0.0110
                       cart. coord. in units 2pi/alat
        k(    1) = (   0.0000000   0.0000000   0.0000000), wk =   0.0555556
        k(    2) = (   0.0000000   0.0351048   0.0000000), wk =   0.1111111
        k(    3) = (   0.0000000   0.0702095   0.0000000), wk =   0.1111111
        k(    4) = (   0.0000000  -0.1053143   0.0000000), wk =   0.0555556
        k(    5) = (   0.0304016  -0.0175524   0.0000000), wk =   0.1111111
        k(    6) = (   0.0304016   0.0175524   0.0000000), wk =   0.1111111
        k(    7) = (   0.0304016   0.0526572   0.0000000), wk =   0.1111111
        k(    8) = (   0.0304016  -0.1228667   0.0000000), wk =   0.1111111
        k(    9) = (   0.0304016  -0.0877619   0.0000000), wk =   0.1111111
        k(   10) = (   0.0304016  -0.0526572   0.0000000), wk =   0.1111111
        k(   11) = (   0.0608032  -0.0351048   0.0000000), wk =   0.1111111
        k(   12) = (   0.0608032   0.0000000   0.0000000), wk =   0.1111111
        k(   13) = (   0.0608032   0.0351048   0.0000000), wk =   0.1111111
        k(   14) = (   0.0608032  -0.1404191   0.0000000), wk =   0.1111111
        k(   15) = (   0.0608032  -0.1053143   0.0000000), wk =   0.1111111
        k(   16) = (   0.0608032  -0.0702095   0.0000000), wk =   0.1111111
        k(   17) = (  -0.0912049   0.0526572   0.0000000), wk =   0.0555556
        k(   18) = (  -0.0912049   0.0877619   0.0000000), wk =   0.1111111
        k(   19) = (  -0.0912049   0.1228667   0.0000000), wk =   0.1111111
        k(   20) = (  -0.0912049  -0.0526572   0.0000000), wk =   0.0555556

     Largest allocated arrays     est. size (Mb)     dimensions
     Largest temporary arrays     est. size (Mb)     dimensions

     Initial potential from superposition of free atoms
     Check: negative starting charge=   -4.362106

     starting charge  179.99962, renormalised to  186.00000

[...]

     *
     * You are using vdW-DF for exchange-correlation in this calculation.
     * Please cite the following three references that made this development
     * possible:
     *
     *   M. Dion, H. Rydberg, E. Schroder, D. C. Langreth, and
     *   B. I. Lundqvist, Phys. Rev. Lett. 92, 246401 (2004).
     *
     *   T. Thonhauser, V. R. Cooper, S. Li, A. Puzder, P. Hyldgaard, and
     *   D. C. Langreth, Phys. Rev. B 76, 125112 (2007).
     *
     *   G. Roman-Perez and J. M. Soler, Phys. Rev. Lett. 103, 096102 (2009).
     *
     *
     * If you are using vdW-DF2, please also cite:
     *
     *   K. Lee, E. D. Murray, L. Kong, B. I. Lundqvist, and
     *   D. C. Langreth, Phys. Rev. B 82, 081101(R) (2010).
     *
     *
     * If you are calculating the stress with vdW-DF, please also cite:
     *
     *   R. Sabatini, E. Kucukbenli, B. Kolb, T. Thonhauser, and
     *   S. de Gironcoli, J. Phys.: Condens. Matter 24, 424209 (2012).
     *

     Carrying out vdW-DF run using the following parameters:

     Nqs =      20    Nr_points =    1024   r_max =   100.000
     q_mesh =
               0.00001000     0.04494208     0.09755937     0.15916263
               0.23128650     0.31572767     0.41458969     0.53033537
               0.66584808     0.82450364     1.01025438     1.22772762
               1.48234092     1.78043706     2.12944203     2.53805004
               3.01644009     3.57652955     4.23227104     5.00000000

     Gradients computed in reciprocal space

[...]

     Starting wfc are  148 randomized atomic wfcs

     Self-consistent Calculation

[...]

     total energy              =   -2232.23124476 Ry
     Harris-Foulkes estimate   =   -2232.23124457 Ry
     estimated scf accuracy    <       0.00001020 Ry

     iteration # 21     ecut=    36.75 Ry     beta=0.30
     Davidson diagonalization with overlap
     ethr =  5.49E-09,  avg # of iterations =  1.4

[...]

     negative rho (up, down):  3.879E+00 0.000E+00

     Adding external electric field

     Computed dipole along edir(3) :
        Dipole               -0.2883 Ry au,         -0.7329 Debye
        Dipole field         -0.0008 Ry au

        Potential amp.        0.0760 Ry
        Total length         45.0969 bohr

     End of self-consistent calculation

[...]

          k = 0.0608-0.0702 0.0000 ( 16191 PWs)   bands (ev):

[...]

          k =-0.0912-0.0527 0.0000 ( 16164 PWs)   bands (ev):

   -48.5966 -48.1049 -48.0715 -47.9141 -47.8893 -47.8380 -47.7942 -47.7813
   -47.7560 -47.7350 -47.7249 -47.6903 -47.6601 -47.5308 -47.4952 -47.3757
   -47.3123 -47.3033 -47.2159 -47.1998 -47.1782 -47.1707 -47.1575 -47.1455
   -47.1337 -47.0952 -47.0854 -47.0757 -47.0666 -47.0255 -47.0143 -47.0090
   -47.0007 -46.9742 -46.9504 -46.9045 -15.9162  -5.6107  -5.5838  -4.1509
    -4.1496  -3.9721  -3.9641  -3.7728  -3.7466  -3.7365  -3.7265  -3.3553
    -3.2294  -3.0423  -2.8599  -2.8030  -2.6851  -2.5998  -2.5556  -2.5222
    -2.3202  -2.1425  -2.1178  -1.8847  -1.8154  -1.7805  -1.4003  -1.2770
    -1.2054  -1.1686  -1.0032  -0.9918  -0.8518  -0.7099  -0.6906  -0.6389
    -0.6196  -0.6064  -0.5887  -0.5616  -0.4470  -0.3704   0.1159   0.2209
     0.3038   0.4460   0.5997   0.6862   0.7443   0.9008   0.9346   1.0608
     1.1233   1.2689   1.4280   1.5079   1.7553   1.7873   1.8506   2.0324
     2.1314   2.3454   2.5467   2.8186   2.8934   3.0348   3.1789

     the Fermi energy is     2.1267 ev

!    total energy              =   -2232.23124400 Ry
     Harris-Foulkes estimate   =   -2232.23124555 Ry
     estimated scf accuracy    <       0.00000079 Ry

     The total energy is the sum of the following terms:

     one-electron contribution =  -18969.03079041 Ry
     hartree contribution      =    9515.07530460 Ry
     xc contribution           =    -631.16050486 Ry
     ewald contribution        =    7852.98251084 Ry
     electric field correction =       0.00024301 Ry
     smearing contrib. (-TS)   =      -0.09800719 Ry

     convergence has been achieved in  21 iterations

 BEEF-vdW xc energy contributions
           1 :   -558.865512160344
           2 :    519.651347825585
           3 :   -449.675549112881
           4 :    362.790724704378
           5 :   -274.055814697483
           6 :    195.930338386995
           7 :   -135.731108391888
           8 :    94.8564880076899
           9 :   -69.8080396425152
          10 :    54.4632846302401
          11 :   -42.6844664188732
          12 :    30.3313315653071
          13 :   -16.1285667126783
          14 :    1.32815940405169
          15 :    11.4926623912985
          16 :   -19.9166710405234
          17 :    22.8438265790803
          18 :   -20.9308933850407
          19 :    16.2487881386844
          20 :   -11.3974955574103
          21 :    8.48785514794963
          22 :   -8.41060752192311
          23 :    10.6613019627589
          24 :   -13.7407529925561
          25 :    15.9107946262819
          26 :   -15.9694856999163
          27 :    13.7249446545754
          28 :   -9.99676034375966
          29 :    6.18605261950847
          30 :   -3.63105281982939
          31 :   -48.0127294581151
          32 :   -35.9514285301159

     Forces acting on atoms (Ry/au):

     negative rho (up, down):  3.879E+00 0.000E+00
     atom    1 type  1   force =    -0.00235577   -0.00135560    0.01827694
     atom    2 type  1   force =     0.00236030   -0.00136133    0.01826543
     atom    3 type  1   force =    -0.00000276    0.00271404    0.01826186
     atom    4 type  1   force =    -0.00000144    0.00000019    0.00126365
     atom    5 type  1   force =    -0.00004049   -0.01607686   -0.01025849
     atom    6 type  1   force =     0.00004243   -0.00000701   -0.02517418
     atom    7 type  1   force =     0.01391573    0.00807587   -0.01027526
     atom    8 type  1   force =    -0.01391527    0.00802054   -0.01020554
     atom    9 type  1   force =     0.00002370   -0.00002707   -0.00032737
     atom   10 type  1   force =    -0.00002082   -0.00010569    0.00008771
     atom   11 type  1   force =    -0.00007673    0.00005244    0.00006011
     atom   12 type  1   force =     0.00006989    0.00007194    0.00005518
     atom   13 type  2   force =     0.00000124   -0.00000145   -0.00003005

     Total force =     0.052432     Total SCF correction =     0.004048

     entering subroutine stress ...

     negative rho (up, down):  3.879E+00 0.000E+00
          total   stress  (Ry/bohr**3)                   (kbar)     P=  -24.53
  -0.00020020   0.00000000   0.00000001        -29.45      0.00      0.00
   0.00000000  -0.00020019  -0.00000002          0.00    -29.45     -0.00
   0.00000001  -0.00000002  -0.00009981          0.00     -0.00    -14.68

 !ASE

     Writing output data file calc.save

     General routines

     Parallel routines

   This run was terminated on:   5:19:44  14Jan2018

   JOB DONE.
Job  /afs/slac/g/suncat/bin/suncat-tsmpirun -x LD_LIBRARY_PATH -wdir /scratch/qe842452_XZIvq pw.x -in pw.inp

TID   HOST_NAME   COMMAND_LINE            STATUS            TERMINATION_TIME
00000 suncat0253 pw.x -in pw.inp   Done                     01/14/2018 05:19:44
00001 suncat0253 pw.x -in pw.inp   Done                     01/14/2018 05:19:44
00002 suncat0253 pw.x -in pw.inp   Done                     01/14/2018 05:19:44
00003 suncat0253 pw.x -in pw.inp   Done                     01/14/2018 05:19:44
00004 suncat0253 pw.x -in pw.inp   Done                     01/14/2018 05:19:44
00005 suncat0253 pw.x -in pw.inp   Done                     01/14/2018 05:19:44
00006 suncat0253 pw.x -in pw.inp   Done                     01/14/2018 05:19:44
00007 suncat0253 pw.x -in pw.inp   Done                     01/14/2018 05:19:44
00008 suncat0249 pw.x -in pw.inp   Done                     01/14/2018 05:19:44
00009 suncat0249 pw.x -in pw.inp   Done                     01/14/2018 05:19:44
00010 suncat0249 pw.x -in pw.inp   Done                     01/14/2018 05:19:44
00011 suncat0249 pw.x -in pw.inp   Done                     01/14/2018 05:19:44
00012 suncat0249 pw.x -in pw.inp   Done                     01/14/2018 05:19:44
00013 suncat0249 pw.x -in pw.inp   Done                     01/14/2018 05:19:44
00014 suncat0249 pw.x -in pw.inp   Done                     01/14/2018 05:19:44
00015 suncat0249 pw.x -in pw.inp   Done                     01/14/2018 05:19:44
00016 suncat0248 pw.x -in pw.inp   Done                     01/14/2018 05:19:44
00017 suncat0248 pw.x -in pw.inp   Done                     01/14/2018 05:19:44
00018 suncat0248 pw.x -in pw.inp   Done                     01/14/2018 05:19:44
00019 suncat0248 pw.x -in pw.inp   Done                     01/14/2018 05:19:44
00020 suncat0248 pw.x -in pw.inp   Done                     01/14/2018 05:19:44
00021 suncat0248 pw.x -in pw.inp   Done                     01/14/2018 05:19:44
00022 suncat0248 pw.x -in pw.inp   Done                     01/14/2018 05:19:44
00023 suncat0248 pw.x -in pw.inp   Done                     01/14/2018 05:19:44
00024 suncat0247 pw.x -in pw.inp   Done                     01/14/2018 05:19:44
00025 suncat0247 pw.x -in pw.inp   Done                     01/14/2018 05:19:44
00026 suncat0247 pw.x -in pw.inp   Done                     01/14/2018 05:19:44
00027 suncat0247 pw.x -in pw.inp   Done                     01/14/2018 05:19:44
00028 suncat0247 pw.x -in pw.inp   Done                     01/14/2018 05:19:44
00029 suncat0247 pw.x -in pw.inp   Done                     01/14/2018 05:19:44
00030 suncat0247 pw.x -in pw.inp   Done                     01/14/2018 05:19:44
00031 suncat0247 pw.x -in pw.inp   Done                     01/14/2018 05:19:44