     Program PWSCF v.5.1rc2 (svn rev. 11289) starts on  3May2018 at  6:56:40

     Current dimensions of program PWSCF are:
     Max number of different atomic species (ntypx) = 10
     Max number of k-points (npk) =  40000
     Max angular momentum in pseudopotentials (lmaxx) =  3
     Presently stress not available with electric field

     IMPORTANT: XC functional enforced from input :
     Exchange-correlation      = BEEF-VDW ( 1  4 27 13 2)
     Any further DFT definition will be discarded
     Please, verify this is what you really want

     Subspace diagonalization in iterative solution of the eigenvalue problem:
     a serial algorithm will be used

     bravais-lattice index     =            0
     lattice parameter (alat)  =       1.8897  a.u.
     unit-cell volume          =    5185.0501 (a.u.)^3
     number of atoms/cell      =           13
     number of atomic types    =            2
     number of electrons       =       161.00
     number of Kohn-Sham states=           90
     kinetic-energy cutoff     =      36.7493  Ry
     charge density cutoff     =     367.4932  Ry
     convergence threshold     =      1.0E-05
     mixing beta               =       0.3000
     number of iterations used =           10  plain     mixing
     Exchange-correlation      = BEEF-VDW ( 1  4 27 13 2)
     nstep                     =           50

     celldm(1)=   1.889726  celldm(2)=   0.000000  celldm(3)=   0.000000
     celldm(4)=   0.000000  celldm(5)=   0.000000  celldm(6)=   0.000000

     crystal axes: (cart. coord. in units of alat)
               a(1) = (   5.972022   0.000000   0.000000 )
               a(2) = (   2.986011   5.171923   0.000000 )
               a(3) = (   0.000000   0.000000  24.876136 )

     reciprocal axes: (cart. coord. in units 2 pi/alat)
               b(1) = (  0.167447 -0.096676  0.000000 )
               b(2) = (  0.000000  0.193352  0.000000 )
               b(3) = (  0.000000  0.000000  0.040199 )

     PseudoPot. # 1 for Ta read from file:
     /u/if/mamunm/psp/gbrv1.5pbe/Ta.UPF
     MD5 check sum: f8bbe9446314a3b8ea5d9f3e3836c939
     Pseudo is Ultrasoft + core correction, Zval = 13.0
     Generated by new atomic code, or converted to UPF format
     Using radial grid of  921 points,  7 beta functions with:
                l(1) =   0
                l(2) =   0
                l(3) =   1
                l(4) =   1
                l(5) =   2
                l(6) =   2
                l(7) =   3
     Q(r) pseudized with  6 coefficients,  rinner =    1.300   1.300   1.300
                                                       1.300   1.300   1.300
                                                       1.300

     PseudoPot. # 2 for N  read from file:
     /u/if/mamunm/psp/gbrv1.5pbe/N.UPF
     MD5 check sum: 95339753478d7afb44899504a8723017
     Pseudo is Ultrasoft + core correction, Zval =  5.0
     Generated by new atomic code, or converted to UPF format
     Using radial grid of  729 points,  4 beta functions with:
                l(1) =   0
                l(2) =   0
                l(3) =   1
                l(4) =   1
     Q(r) pseudized with  8 coefficients,  rinner =    0.900   0.900   0.900

     vdW kernel table read from file vdW_kernel_table
     MD5 check sum: 095c7af220d748ca6e76c0b4c6cfb241

     atomic species   valence    mass     pseudopotential
        Ta1           13.00   180.94788     Ta( 1.00)
        N1             5.00    14.00700     N ( 1.00)

     No symmetry found

   Cartesian axes

     site n.     atom                  positions (alat units)
         1           Ta1 tau(   1) = (   1.4930055   0.8619871  10.0000000  )
         2           Ta1 tau(   2) = (   4.4790165   0.8619871  10.0000000  )
         3           Ta1 tau(   3) = (   2.9860110   3.4479485  10.0000000  )
         4           Ta1 tau(   4) = (   5.9720221   3.4479485  10.0000000  )
         5           Ta1 tau(   5) = (   5.9720221   1.7239743  12.4380678  )
         6           Ta1 tau(   6) = (   2.9860110   1.7239743  12.4380678  )
         7           Ta1 tau(   7) = (   7.4650276   4.3099357  12.4380678  )
         8           Ta1 tau(   8) = (   4.4790165   4.3099357  12.4380678  )
         9           Ta1 tau(   9) = (   0.0000000   0.0000000  14.8761356  )
        10           Ta1 tau(  10) = (   2.9860110   0.0000000  14.8761356  )
        11           Ta1 tau(  11) = (   1.4930055   2.5859614  14.8761356  )
        12           Ta1 tau(  12) = (   4.4790165   2.5859614  14.8761356  )
        13           N1  tau(  13) = (   1.4930055   0.8619871  16.4426356  )

     number of k points=    20  Fermi-Dirac smearing, width (Ry)=  0.0110
                       cart. coord. in units 2pi/alat
        k(    1) = (   0.0000000   0.0000000   0.0000000), wk =   0.0555556
        k(    2) = (   0.0000000   0.0322253   0.0000000), wk =   0.1111111
        k(    3) = (   0.0000000   0.0644506   0.0000000), wk =   0.1111111
        k(    4) = (   0.0000000  -0.0966758   0.0000000), wk =   0.0555556
        k(    5) = (   0.0279079  -0.0161126   0.0000000), wk =   0.1111111
        k(    6) = (   0.0279079   0.0161126   0.0000000), wk =   0.1111111
        k(    7) = (   0.0279079   0.0483379   0.0000000), wk =   0.1111111
        k(    8) = (   0.0279079  -0.1127885   0.0000000), wk =   0.1111111
        k(    9) = (   0.0279079  -0.0805632   0.0000000), wk =   0.1111111
        k(   10) = (   0.0279079  -0.0483379   0.0000000), wk =   0.1111111
        k(   11) = (   0.0558158  -0.0322253   0.0000000), wk =   0.1111111
        k(   12) = (   0.0558158   0.0000000   0.0000000), wk =   0.1111111
        k(   13) = (   0.0558158   0.0322253   0.0000000), wk =   0.1111111
        k(   14) = (   0.0558158  -0.1289011   0.0000000), wk =   0.1111111
        k(   15) = (   0.0558158  -0.0966758   0.0000000), wk =   0.1111111
        k(   16) = (   0.0558158  -0.0644506   0.0000000), wk =   0.1111111
        k(   17) = (  -0.0837237   0.0483379   0.0000000), wk =   0.0555556
        k(   18) = (  -0.0837237   0.0805632   0.0000000), wk =   0.1111111
        k(   19) = (  -0.0837237   0.1127885   0.0000000), wk =   0.1111111
        k(   20) = (  -0.0837237  -0.0483379   0.0000000), wk =   0.0555556

     Largest allocated arrays     est. size (Mb)     dimensions
     Largest temporary arrays     est. size (Mb)     dimensions

     Initial potential from superposition of free atoms
     Check: negative starting charge=   -1.121604

     starting charge  160.98665, renormalised to  161.00000

     negative rho (up, down):  1.122E+00 0.000E+00

     *
     * You are using vdW-DF for exchange-correlation in this calculation.
     * Please cite the following three references that made this development
     * possible:
     *
     *   M. Dion, H. Rydberg, E. Schroder, D. C. Langreth, and
     *   B. I. Lundqvist, Phys. Rev. Lett. 92, 246401 (2004).
     *
     *   T. Thonhauser, V. R. Cooper, S. Li, A. Puzder, P. Hyldgaard, and
     *   D. C. Langreth, Phys. Rev. B 76, 125112 (2007).
     *
     *   G. Roman-Perez and J. M. Soler, Phys. Rev. Lett. 103, 096102 (2009).
     *
     *
     * If you are using vdW-DF2, please also cite:
     *
     *   K. Lee, E. D. Murray, L. Kong, B. I. Lundqvist, and
     *   D. C. Langreth, Phys. Rev. B 82, 081101(R) (2010).
     *
     *
     * If you are calculating the stress with vdW-DF, please also cite:
     *
     *   R. Sabatini, E. Kucukbenli, B. Kolb, T. Thonhauser, and
     *   S. de Gironcoli, J. Phys.: Condens. Matter 24, 424209 (2012).
     *

     Carrying out vdW-DF run using the following parameters:

     Nqs =      20    Nr_points =    1024   r_max =   100.000
     q_mesh =
               0.00001000     0.04494208     0.09755937     0.15916263
               0.23128650     0.31572767     0.41458969     0.53033537
               0.66584808     0.82450364     1.01025438     1.22772762
               1.48234092     1.78043706     2.12944203     2.53805004
               3.01644009     3.57652955     4.23227104     5.00000000

     Gradients computed in reciprocal space

     Adding external electric field

     Computed dipole along edir(3) :
        Dipole               -0.0031 Ry au,         -0.0078 Debye
        Dipole field         -0.0000 Ry au

        Potential amp.        0.0007 Ry
        Total length         45.8339 bohr

     Starting wfc are  160 randomized atomic wfcs

     Self-consistent Calculation

     iteration #  1     ecut=    36.75 Ry     beta=0.30
     Davidson diagonalization with overlap
     ethr =  1.00E-02,  avg # of iterations =  2.0

[...]

     total energy              =   -1736.55311685 Ry
     Harris-Foulkes estimate   =   -1739.09457263 Ry
     estimated scf accuracy    <       5.55370349 Ry

[...]

     End of self-consistent calculation

          k = 0.0000 0.0000 0.0000 ( 19447 PWs)   bands (ev):

   -66.7172 -66.6390 -66.6069 -66.6049 -66.6048 -66.5504 -66.5486 -66.5479
   -66.4918 -66.4498 -66.4497 -66.3820 -33.3755 -33.3755 -33.3526 -33.3376
   -33.2830 -33.2803 -33.2803 -33.2511 -33.2509 -33.2460 -33.0908 -33.0078
   -32.9523 -32.9520 -32.8852 -32.8735 -32.8732 -32.7809 -32.7809 -32.7782
   -32.6989 -32.6987 -32.6985 -32.6598 -32.6597 -32.6416 -32.5837 -32.5836
   -32.5812 -32.5787 -32.5725 -32.5724 -32.5139 -32.5139 -32.4226 -32.4225
   -11.0132  -5.6712  -4.0264  -3.0440  -2.3784  -2.3784  -2.3259  -2.3208
    -2.3208  -2.2384  -1.6515  -1.6514  -1.6507  -1.2752  -1.2555  -1.2555
    -0.4236  -0.4236  -0.2207   0.3851   0.3852   0.9429   1.2555   1.3532
     1.3533   1.3543   1.6237   1.7888   1.8022   1.8023   1.8918   2.0948
     2.0948   2.3796   2.3796   2.4540   2.4891   2.4891   2.5763   2.5764
     2.7598   2.8643

[...]

          k =-0.0837 0.0483 0.0000 ( 19532 PWs)   bands (ev):

[...]

     the Fermi energy is     1.7097 ev

!    total energy              =   -1738.65959134 Ry
     Harris-Foulkes estimate   =   -1738.65957354 Ry
     estimated scf accuracy    <       0.00000657 Ry

     The total energy is the sum of the following terms:

     one-electron contribution =  -11706.40874463 Ry
     hartree contribution      =    5836.18293336 Ry
     xc contribution           =    -528.08148657 Ry
     ewald contribution        =    4659.74606829 Ry
     electric field correction =       0.00022934 Ry
     smearing contrib. (-TS)   =      -0.09859114 Ry

     convergence has been achieved in  15 iterations

 BEEF-vdW xc energy contributions
           1 :   -464.815713967827
           2 :    428.946057251524
           3 :   -366.366699249169
           4 :    291.594341196646
           5 :   -219.145229570270
           6 :    159.071572250011
           7 :   -114.984669865084
           8 :    84.9037602010848
           9 :   -63.9993452464372
          10 :    47.6149668837716
          11 :   -33.1662198475772
          12 :    20.3625871655082
          13 :   -10.1507460821339
          14 :    3.31746148181708
          15 :   0.373266827722432
          16 :   -2.14654475238297
          17 :    3.50696882889144
          18 :   -5.40882948695094
          19 :    7.82905402166284
          20 :   -9.96205356882342
          21 :    10.8672074106038
          22 :   -10.1459878493446
          23 :    8.23652028636496
          24 :   -6.17170938248904
          25 :    4.97955272420438
          26 :   -5.11146256922780
          27 :    6.23959701778745
          28 :   -7.51574698120055
          29 :    8.10201392300269
          30 :   -7.64110641775432
          31 :   -41.6188624103171
          32 :   -30.8700468296332

     Forces acting on atoms (Ry/au):

     negative rho (up, down):  1.178E+00 0.000E+00
     atom    1 type  1   force =     0.00001152    0.00000746    0.00404704
     atom    2 type  1   force =    -0.00001075    0.00182962    0.00359070
     atom    3 type  1   force =     0.00157784   -0.00092469    0.00359782
     atom    4 type  1   force =    -0.00157541   -0.00091004    0.00359664
     atom    5 type  1   force =     0.00229557   -0.00126045    0.00464030
     atom    6 type  1   force =    -0.00229498   -0.00129693    0.00467307
     atom    7 type  1   force =    -0.00002762   -0.00004471    0.00542529
     atom    8 type  1   force =     0.00003134    0.00259897    0.00461935
     atom    9 type  1   force =     0.02107828    0.01216635    0.07329216
     atom   10 type  1   force =    -0.02108313    0.01216752    0.07329548
     atom   11 type  1   force =     0.00000055   -0.02434167    0.07329672
     atom   12 type  1   force =    -0.00000308    0.00000749   -0.03219561
     atom   13 type  2   force =    -0.00000013    0.00000107   -0.22187896

     Total force =     0.261076     Total SCF correction =     0.002428

     entering subroutine stress ...

     negative rho (up, down):  1.178E+00 0.000E+00
          total   stress  (Ry/bohr**3)                   (kbar)     P=  -37.91
  -0.00027646   0.00000000  -0.00000000        -40.67      0.00     -0.00
   0.00000000  -0.00027646   0.00000000          0.00    -40.67      0.00
  -0.00000000   0.00000000  -0.00022028         -0.00      0.00    -32.40

     BFGS Geometry Optimization

     number of scf cycles    =   1
     number of bfgs steps    =   0

     energy   new            =   -1738.6595913433 Ry

     new trust radius        =       0.2218789621 bohr
     new conv_thr            =       0.0000099958 Ry

ATOMIC_POSITIONS (crystal)
Ta1      0.166666667   0.166666667   0.401991699    0   0   0
Ta1      0.666666667   0.166666667   0.401991699    0   0   0
Ta1      0.166666667   0.666666667   0.401991699    0   0   0
Ta1      0.666666667   0.666666667   0.401991699    0   0   0
Ta1      0.833333333   0.333333333   0.500000000    0   0   0
Ta1      0.333333333   0.333333333   0.500000000    0   0   0
Ta1      0.833333333   0.833333333   0.500000000    0   0   0
Ta1      0.333333333   0.833333333   0.500000000    0   0   0
Ta1      0.001245320   0.001244828   0.599567408
Ta1      0.497509363   0.001244948   0.599567478
Ta1      0.001245335   0.497509426   0.599567505
Ta1      0.499999344   0.500000766   0.597323421
N1       0.166666600   0.166666776   0.656260384

     Writing output data file calc.save
     Check: negative starting charge=   -1.121604
     NEW-OLD atomic charge density approx. for the potential
     Check: negative starting charge=   -1.122613

[...]

     energy   old            =   -1738.6595913433 Ry
     energy   new            =   -1738.7230247086 Ry

     CASE: energy  _new < energy  _old

     WARNING: bfgs curvature condition failed, Theta= 0.951
     new trust radius        =       0.2440668583 bohr
     new conv_thr            =       0.0000001000 Ry

[...]

     iteration #  1     ecut=    36.75 Ry     beta=0.30
     Davidson diagonalization with overlap
     c_bands:  1 eigenvalues not converged
     ethr =  1.00E-06,  avg # of iterations = 10.4

[...]

     Total force =     0.007209     Total SCF correction =     0.000076

[...]

     Threshold (ethr) on eigenvalues was too large:
     Diagonalizing with lowered threshold

     Davidson diagonalization with overlap
     ethr =  2.94E-08,  avg # of iterations =  3.1

[...]

     Total force =     0.005003     Total SCF correction =     0.001074
     SCF correction compared to forces is large: reduce conv_thr to get better values

[...]

     number of scf cycles    =  12
     number of bfgs steps    =  11

     energy   old            =   -1738.8170109879 Ry
     energy   new            =   -1738.8170599322 Ry

     CASE: energy  _new < energy  _old

     new trust radius        =       0.0126451025 bohr
     new conv_thr            =       0.0000001000 Ry

ATOMIC_POSITIONS (crystal)
Ta1      0.166666667   0.166666667   0.401991699    0   0   0
Ta1      0.666666667   0.166666667   0.401991699    0   0   0
Ta1      0.166666667   0.666666667   0.401991699    0   0   0
Ta1      0.666666667   0.666666667   0.401991699    0   0   0
Ta1      0.833333333   0.333333333   0.500000000    0   0   0
Ta1      0.333333333   0.333333333   0.500000000    0   0   0
Ta1      0.833333333   0.833333333   0.500000000    0   0   0
Ta1      0.333333333   0.833333333   0.500000000    0   0   0
Ta1     -0.002066375  -0.002066178   0.599976321
Ta1      0.504132016  -0.002066263   0.599976300
Ta1     -0.002066529   0.504132377   0.599976311
Ta1      0.499999616   0.500000013   0.588923872
N1       0.166666326   0.166666815   0.639182190

     Writing output data file calc.save
     Check: negative starting charge=   -1.122933
     NEW-OLD atomic charge density approx. for the potential
     Check: negative starting charge=   -1.122746

[...]

     Self-consistent Calculation

[...]

     Threshold (ethr) on eigenvalues was too large:
     Diagonalizing with lowered threshold

     Davidson diagonalization with overlap
     ethr =  3.70E-08,  avg # of iterations =  3.0

[...]

     total energy              =   -1738.81709351 Ry
     Harris-Foulkes estimate   =   -1738.81709349 Ry
     estimated scf accuracy    <       0.00000067 Ry

     iteration #  8     ecut=    36.75 Ry     beta=0.30
     Davidson diagonalization with overlap
     ethr =  4.17E-10,  avg # of iterations =  2.7

[...]

     negative rho (up, down):  1.180E+00 0.000E+00

     Adding external electric field

     Computed dipole along edir(3) :
        Dipole               -0.0457 Ry au,         -0.1161 Debye
        Dipole field         -0.0001 Ry au

        Potential amp.        0.0101 Ry
        Total length         45.8339 bohr

     End of self-consistent calculation

[...]

          k = 0.0558-0.0645 0.0000 ( 19521 PWs)   bands (ev):

[...]

          k =-0.0837-0.0483 0.0000 ( 19532 PWs)   bands (ev):

   -66.3272 -66.3128 -66.2970 -66.2871 -66.2801 -66.2559 -66.2512 -66.1724
   -66.1541 -66.1344 -66.1180 -66.1074 -32.9943 -32.9523 -32.9109 -32.9033
   -32.8797 -32.8682 -32.8402 -32.7976 -32.7943 -32.7837 -32.7582 -32.7334
   -32.6829 -32.6778 -32.6188 -32.6068 -32.5999 -32.5746 -32.5613 -32.5468
   -32.5045 -32.4647 -32.4490 -32.4401 -32.4165 -32.4058 -32.3907 -32.3611
   -32.3212 -32.3125 -32.2985 -32.2627 -32.2617 -32.1966 -32.1932 -32.1738
   -12.3621  -3.8789  -3.6045  -2.9085  -2.4847  -2.2351  -1.9804  -1.6345
    -1.3035  -1.2125  -1.0616  -0.9454  -0.8320  -0.4923  -0.1806  -0.0234
     0.1061   0.1463   0.2445   0.3535   0.5733   0.6423   0.7444   0.8217
     0.8947   0.9404   1.1019   1.2822   1.3649   1.4331   1.4425   1.5878
     1.6688   1.7203   1.9122   2.2382   2.2824   2.3784   2.6547   2.9361
     3.0838   3.1699

     the Fermi energy is     2.0003 ev

!    total energy              =   -1738.81709355 Ry
     Harris-Foulkes estimate   =   -1738.81709362 Ry
     estimated scf accuracy    <       0.00000007 Ry

     The total energy is the sum of the following terms:

     one-electron contribution =  -11857.31751688 Ry
     hartree contribution      =    5913.02594106 Ry
     xc contribution           =    -528.55604524 Ry
     ewald contribution        =    4734.12540344 Ry
     electric field correction =       0.00000505 Ry
     smearing contrib. (-TS)   =      -0.09488098 Ry

     convergence has been achieved in   8 iterations

 BEEF-vdW xc energy contributions
           1 :   -465.293107779660
           2 :    429.537852743564
           3 :   -367.069493157507
           4 :    292.281711669099
           5 :   -219.648886445231
           6 :    159.272669299028
           7 :   -114.868626346453
           8 :    84.5592693447998
           9 :   -63.5711886231369
          10 :    47.2396431054245
          11 :   -32.9205855805284
          12 :    20.2458280297594
          13 :   -10.1044425863510
          14 :    3.27016776125788
          15 :   0.462928055610519
          16 :   -2.27080713112605
          17 :    3.62017470416328
          18 :   -5.46012373530618
          19 :    7.79787327403812
          20 :   -9.87549515392595
          21 :    10.7882551842938
          22 :   -10.1403510188530
          23 :    8.33812034264417
          24 :   -6.36562609839660
          25 :    5.21074881571099
          26 :   -5.31273443282419
          27 :    6.36261345154981
          28 :   -7.55080252975040
          29 :    8.07833786657523
          30 :   -7.60778413826893
          31 :   -41.6474134182713
          32 :   -30.9192885063056

     Forces acting on atoms (Ry/au):

     negative rho (up, down):  1.180E+00 0.000E+00
     atom    1 type  1   force =     0.00000007   -0.00000001    0.00557839
     atom    2 type  1   force =    -0.00000005    0.00070758    0.00229198
     atom    3 type  1   force =     0.00061284   -0.00035384    0.00229200
     atom    4 type  1   force =    -0.00061279   -0.00035374    0.00229195
     atom    5 type  1   force =     0.02549262   -0.01471816   -0.00843086
     atom    6 type  1   force =    -0.02549262   -0.01471821   -0.00843076
     atom    7 type  1   force =     0.00000001    0.00000005    0.01470260
     atom    8 type  1   force =     0.00000004    0.02943632   -0.00843082
     atom    9 type  1   force =    -0.00156974   -0.00090605   -0.00058377
     atom   10 type  1   force =     0.00156957   -0.00090578   -0.00058371
     atom   11 type  1   force =     0.00000013    0.00181221   -0.00058385
     atom   12 type  1   force =    -0.00000004   -0.00000009    0.00063481
     atom   13 type  2   force =    -0.00000004   -0.00000028   -0.00074796

     Total force =     0.003441     Total SCF correction =     0.000360
     SCF correction compared to forces is large: reduce conv_thr to get better values

     entering subroutine stress ...

     negative rho (up, down):  1.180E+00 0.000E+00
          total   stress  (Ry/bohr**3)                   (kbar)     P=  -21.58
  -0.00018900   0.00000000  -0.00000000        -27.80      0.00     -0.00
   0.00000000  -0.00018900  -0.00000000          0.00    -27.80     -0.00
  -0.00000000  -0.00000000  -0.00006200         -0.00     -0.00     -9.12

     bfgs converged in  13 scf cycles and  12 bfgs steps
     (criteria: energy <  1.0E+00, force <  1.9E-03)

     End of BFGS Geometry Optimization

     Final energy   =   -1738.8170935456 Ry
Begin final coordinates

ATOMIC_POSITIONS (crystal)
Ta1      0.166666667   0.166666667   0.401991699    0   0   0
Ta1      0.666666667   0.166666667   0.401991699    0   0   0
Ta1      0.166666667   0.666666667   0.401991699    0   0   0
Ta1      0.666666667   0.666666667   0.401991699    0   0   0
Ta1      0.833333333   0.333333333   0.500000000    0   0   0
Ta1      0.333333333   0.333333333   0.500000000    0   0   0
Ta1      0.833333333   0.833333333   0.500000000    0   0   0
Ta1      0.333333333   0.833333333   0.500000000    0   0   0
Ta1     -0.002066375  -0.002066178   0.599976321
Ta1      0.504132016  -0.002066263   0.599976300
Ta1     -0.002066529   0.504132377   0.599976311
Ta1      0.499999616   0.500000013   0.588923872
N1       0.166666326   0.166666815   0.639182190
End final coordinates

     Writing output data file calc.save

     General routines

     Parallel routines

   This run was terminated on:   9: 1:17   3May2018

   JOB DONE.
Job  /afs/slac/g/suncat/bin/suncat-tsmpirun -x LD_LIBRARY_PATH -wdir /scratch/qe656826_XUrop pw.x -npool 4 -in pw.inp

TID   HOST_NAME   COMMAND_LINE            STATUS            TERMINATION_TIME
00000 suncat0240 pw.x -npool 4 -i  Done                     05/03/2018 09:01:17
00001 suncat0240 pw.x -npool 4 -i  Done                     05/03/2018 09:01:17
00002 suncat0240 pw.x -npool 4 -i  Done                     05/03/2018 09:01:17
00003 suncat0240 pw.x -npool 4 -i  Done                     05/03/2018 09:01:17
00004 suncat0240 pw.x -npool 4 -i  Done                     05/03/2018 09:01:17
00005 suncat0240 pw.x -npool 4 -i  Done                     05/03/2018 09:01:17
00006 suncat0240 pw.x -npool 4 -i  Done                     05/03/2018 09:01:17
00007 suncat0240 pw.x -npool 4 -i  Done                     05/03/2018 09:01:17
00008 suncat0216 pw.x -npool 4 -i  Done                     05/03/2018 09:01:17
00009 suncat0216 pw.x -npool 4 -i  Done                     05/03/2018 09:01:17
00010 suncat0216 pw.x -npool 4 -i  Done                     05/03/2018 09:01:17
00011 suncat0216 pw.x -npool 4 -i  Done                     05/03/2018 09:01:17
00012 suncat0216 pw.x -npool 4 -i  Done                     05/03/2018 09:01:17
00013 suncat0216 pw.x -npool 4 -i  Done                     05/03/2018 09:01:17
00014 suncat0216 pw.x -npool 4 -i  Done                     05/03/2018 09:01:17
00015 suncat0216 pw.x -npool 4 -i  Done                     05/03/2018 09:01:17
00016 suncat0215 pw.x -npool 4 -i  Done                     05/03/2018 09:01:17
00017 suncat0215 pw.x -npool 4 -i  Done                     05/03/2018 09:01:17
00018 suncat0215 pw.x -npool 4 -i  Done                     05/03/2018 09:01:17
00019 suncat0215 pw.x -npool 4 -i  Done                     05/03/2018 09:01:17
00020 suncat0215 pw.x -npool 4 -i  Done                     05/03/2018 09:01:17
00021 suncat0215 pw.x -npool 4 -i  Done                     05/03/2018 09:01:17
00022 suncat0215 pw.x -npool 4 -i  Done                     05/03/2018 09:01:17
00023 suncat0215 pw.x -npool 4 -i  Done                     05/03/2018 09:01:17
00024 suncat0213 pw.x -npool 4 -i  Done                     05/03/2018 09:01:17
00025 suncat0213 pw.x -npool 4 -i  Done                     05/03/2018 09:01:17
00026 suncat0213 pw.x -npool 4 -i  Done                     05/03/2018 09:01:17
00027 suncat0213 pw.x -npool 4 -i  Done                     05/03/2018 09:01:17
00028 suncat0213 pw.x -npool 4 -i  Done                     05/03/2018 09:01:17
00029 suncat0213 pw.x -npool 4 -i  Done                     05/03/2018 09:01:17
00030 suncat0213 pw.x -npool 4 -i  Done                     05/03/2018 09:01:17
00031 suncat0213 pw.x -npool 4 -i  Done                     05/03/2018 09:01:17