     Program PWSCF v.5.1rc2 (svn rev. 11289) starts on 21Jan2018 at  8:19:41

     Current dimensions of program PWSCF are:
     Max number of different atomic species (ntypx) = 10
     Max number of k-points (npk) =  40000
     Max angular momentum in pseudopotentials (lmaxx) =  3
     Presently stress not available with electric field

     IMPORTANT: XC functional enforced from input :
     Exchange-correlation      = BEEF-VDW ( 1  4 27 13 2)
     Any further DFT definition will be discarded
     Please, verify this is what you really want

     Subspace diagonalization in iterative solution of the eigenvalue problem:
     a serial algorithm will be used

     bravais-lattice index     =            0
     lattice parameter (alat)  =       1.8897  a.u.
     unit-cell volume          =    4806.0858 (a.u.)^3
     number of atoms/cell      =           13
     number of atomic types    =            2
     number of electrons       =       148.00
     number of Kohn-Sham states=           84
     kinetic-energy cutoff     =      36.7493  Ry
     charge density cutoff     =     367.4932  Ry
     convergence threshold     =      1.0E-05
     mixing beta               =       0.3000
     number of iterations used =           10  plain     mixing
     Exchange-correlation      = BEEF-VDW ( 1  4 27 13 2)
     nstep                     =           50

     celldm(1)=   1.889726  celldm(2)=   0.000000  celldm(3)=   0.000000
     celldm(4)=   0.000000  celldm(5)=   0.000000  celldm(6)=   0.000000

     crystal axes: (cart. coord. in units of alat)
               a(1) = (   5.768903   0.000000   0.000000 )
               a(2) = (   2.884451   4.996016   0.000000 )
               a(3) = (   0.000000   0.000000  24.710289 )

     reciprocal axes: (cart. coord. in units 2 pi/alat)
               b(1) = (  0.173343 -0.100080  0.000000 )
               b(2) = (  0.000000  0.200159  0.000000 )
               b(3) = (  0.000000  0.000000  0.040469 )

     PseudoPot. # 1 for Ti read from file:
     /afs/slac.stanford.edu/u/if/mamunm/psp/gbrv1.5pbe/Ti.UPF
     MD5 check sum: 88a00a6731bd790ddea75d31a80cb452
     Pseudo is Ultrasoft + core correction, Zval = 12.0
     Generated by new atomic code, or converted to UPF format
     Using radial grid of  851 points,  6 beta functions with:
                l(1) =   0
                l(2) =   0
                l(3) =   1
                l(4) =   1
                l(5) =   2
                l(6) =   2
     Q(r) pseudized with  6 coefficients,  rinner =    1.000   1.000   1.000
                                                       1.000   1.000

     PseudoPot. # 2 for C  read from file:
     /afs/slac.stanford.edu/u/if/mamunm/psp/gbrv1.5pbe/C.UPF
     MD5 check sum: d1aef80898a10debaa0f26306b886e00
     Pseudo is Ultrasoft + core correction, Zval =  4.0
     Generated by new atomic code, or converted to UPF format
     Using radial grid of  721 points,  4 beta functions with:
                l(1) =   0
                l(2) =   0
                l(3) =   1
                l(4) =   1
     Q(r) pseudized with  8 coefficients,  rinner =    1.100   1.100   1.100

     vdW kernel table read from file vdW_kernel_table
     MD5 check sum: 095c7af220d748ca6e76c0b4c6cfb241

     atomic species   valence    mass     pseudopotential
        Ti1           12.00    47.86700     Ti( 1.00)
        C1             4.00    12.01100     C ( 1.00)

     No symmetry found

   Cartesian axes

     site n.     atom                  positions (alat units)
         1           Ti1 tau(   1) = (   1.4422257   0.8326694  10.0000000  )
         2           Ti1 tau(   2) = (   4.3266771   0.8326694  10.0000000  )
         3           Ti1 tau(   3) = (   2.8844514   3.3306776  10.0000000  )
         4           Ti1 tau(   4) = (   5.7689029   3.3306776  10.0000000  )
         5           Ti1 tau(   5) = (   5.7689029   1.6653388  12.3551447  )
         6           Ti1 tau(   6) = (   2.8844514   1.6653388  12.3551447  )
         7           Ti1 tau(   7) = (   7.2111286   4.1633470  12.3551447  )
         8           Ti1 tau(   8) = (   4.3266771   4.1633470  12.3551447  )
         9           Ti1 tau(   9) = (   0.0000000   0.0000000  14.7102895  )
        10           Ti1 tau(  10) = (   2.8844514   0.0000000  14.7102895  )
        11           Ti1 tau(  11) = (   1.4422257   2.4980082  14.7102895  )
        12           Ti1 tau(  12) = (   4.3266771   2.4980082  14.7102895  )
        13           C1  tau(  13) = (   1.4422257   0.8326694  17.0702895  )

     number of k points=    20  Fermi-Dirac smearing, width (Ry)=  0.0110
                       cart. coord. in units 2pi/alat
        k(    1) = (   0.0000000   0.0000000   0.0000000), wk =   0.0555556
        k(    2) = (   0.0000000   0.0333599   0.0000000), wk =   0.1111111
        k(    3) = (   0.0000000   0.0667198   0.0000000), wk =   0.1111111
        k(    4) = (   0.0000000  -0.1000797   0.0000000), wk =   0.0555556
        k(    5) = (   0.0288905  -0.0166800   0.0000000), wk =   0.1111111
        k(    6) = (   0.0288905   0.0166800   0.0000000), wk =   0.1111111
        k(    7) = (   0.0288905   0.0500399   0.0000000), wk =   0.1111111
        k(    8) = (   0.0288905  -0.1167597   0.0000000), wk =   0.1111111
        k(    9) = (   0.0288905  -0.0833998   0.0000000), wk =   0.1111111
        k(   10) = (   0.0288905  -0.0500399   0.0000000), wk =   0.1111111
        k(   11) = (   0.0577811  -0.0333599   0.0000000), wk =   0.1111111
        k(   12) = (   0.0577811  -0.0000000   0.0000000), wk =   0.1111111
        k(   13) = (   0.0577811   0.0333599   0.0000000), wk =   0.1111111
        k(   14) = (   0.0577811  -0.1334396   0.0000000), wk =   0.1111111
        k(   15) = (   0.0577811  -0.1000797   0.0000000), wk =   0.1111111
        k(   16) = (   0.0577811  -0.0667198   0.0000000), wk =   0.1111111
        k(   17) = (  -0.0866716   0.0500399   0.0000000), wk =   0.0555556
        k(   18) = (  -0.0866716   0.0833998   0.0000000), wk =   0.1111111
        k(   19) = (  -0.0866716   0.1167597   0.0000000), wk =   0.1111111
        k(   20) = (  -0.0866716  -0.0500399   0.0000000), wk =   0.0555556

     Largest allocated arrays     est. size (Mb)     dimensions
     Largest temporary arrays     est. size (Mb)     dimensions

     Check: negative/imaginary core charge=   -0.000006    0.000000

     Initial potential from superposition of free atoms
     Check: negative starting charge=   -0.012666

     starting charge  135.99943, renormalised to  148.00000

     negative rho (up, down):  1.378E-02 0.000E+00

     *
     * You are using vdW-DF for exchange-correlation in this calculation.
     * Please cite the following three references that made this development
     * possible:
     *
     *   M. Dion, H. Rydberg, E. Schroder, D. C. Langreth, and
     *   B. I. Lundqvist, Phys. Rev. Lett. 92, 246401 (2004).
     *
     *   T. Thonhauser, V. R. Cooper, S. Li, A. Puzder, P. Hyldgaard, and
     *   D. C. Langreth, Phys. Rev. B 76, 125112 (2007).
     *
     *   G. Roman-Perez and J. M. Soler, Phys. Rev. Lett. 103, 096102 (2009).
     *
     *
     * If you are using vdW-DF2, please also cite:
     *
     *   K. Lee, E. D. Murray, L. Kong, B. I. Lundqvist, and
     *   D. C. Langreth, Phys. Rev. B 82, 081101(R) (2010).
     *
     *
     * If you are calculating the stress with vdW-DF, please also cite:
     *
     *   R. Sabatini, E. Kucukbenli, B. Kolb, T. Thonhauser, and
     *   S. de Gironcoli, J. Phys.: Condens. Matter 24, 424209 (2012).
     *

     Carrying out vdW-DF run using the following parameters:

     Nqs =      20    Nr_points =    1024   r_max =   100.000
     q_mesh =
               0.00001000     0.04494208     0.09755937     0.15916263
               0.23128650     0.31572767     0.41458969     0.53033537
               0.66584808     0.82450364     1.01025438     1.22772762
               1.48234092     1.78043706     2.12944203     2.53805004
               3.01644009     3.57652955     4.23227104     5.00000000

     Gradients computed in reciprocal space

     Adding external electric field

     Computed dipole along edir(3) :
        Dipole               -3.1446 Ry au,         -7.9928 Debye
        Dipole field         -0.0082 Ry au

        Potential amp.        0.7487 Ry
        Total length         45.5283 bohr

     Starting wfc are  124 randomized atomic wfcs

     Self-consistent Calculation

     iteration #  1     ecut=    36.75 Ry     beta=0.30
     Davidson diagonalization with overlap
     ethr =  1.00E-02,  avg # of iterations =  6.3

[...]

     total energy              =   -1358.73514926 Ry
     Harris-Foulkes estimate   =   -1451.91225405 Ry
     estimated scf accuracy    <     193.08841001 Ry

[...]

     iteration # 27     ecut=    36.75 Ry     beta=0.30
     Davidson diagonalization with overlap
     c_bands:  3 eigenvalues not converged
     ethr =  1.31E-05,  avg # of iterations =  9.8

[...]

     End of self-consistent calculation

          k = 0.0000 0.0000 0.0000 ( 18103 PWs)   bands (ev):

   -56.7977 -56.7490 -56.7177 -56.6963 -56.6951 -56.6576 -56.6574 -56.6571
   -56.5564 -56.4820 -56.4817 -56.4694 -33.2467 -33.2463 -33.2442 -33.2002
   -33.1934 -33.1933 -33.1830 -33.1315 -33.1182 -33.1179 -33.0319 -32.9705
   -32.9466 -32.9460 -32.8552 -32.8478 -32.8475 -32.8116 -32.8087 -32.8083
   -32.7793 -32.7783 -32.7782 -32.6850 -32.6849 -32.6705 -32.6703 -32.6660
   -32.6519 -32.6518 -32.6420 -32.5844 -32.5811 -32.5810 -32.4686 -32.4686
    -7.8568  -5.1853  -3.8127  -2.6213  -2.0765  -2.0697  -2.0696  -1.9517
    -1.9516  -1.9315  -1.5327  -1.5326  -1.5206  -1.2927  -1.2927  -1.2894
    -0.7115  -0.6695  -0.6694   0.1281   0.1660   0.2668   0.2668   0.4506
     0.6148   0.6236   0.6237   0.7693   0.8377   0.8378   0.8632   1.0394
     1.0394   1.2224   1.2233   1.2302

[...]

          k =-0.0867 0.0500 0.0000 ( 18044 PWs)   bands (ev):

[...]

     the Fermi energy is     0.2486 ev

!    total energy              =   -1449.76396043 Ry
     Harris-Foulkes estimate   =   -1449.76394038 Ry
     estimated scf accuracy    <       0.00000249 Ry

     The total energy is the sum of the following terms:

     one-electron contribution =  -10976.22778084 Ry
     hartree contribution      =    5472.36427418 Ry
     xc contribution           =    -227.99109794 Ry
     ewald contribution        =    4282.22782388 Ry
     electric field correction =       0.00065363 Ry
     smearing contrib. (-TS)   =      -0.13783334 Ry

     convergence has been achieved in  40 iterations

 BEEF-vdW xc energy contributions
           1 :   -195.885208976771
           2 :    174.946710920924
           3 :   -140.664452380980
           4 :    104.009085061926
           5 :   -73.9337737556500
           6 :    53.9232983473455
           7 :   -42.0217340138348
           8 :    33.6047764429436
           9 :   -24.7744849730967
          10 :    14.3222102365577
          11 :   -3.52902104458525
          12 :   -5.50618564082075
          13 :    11.5972160975861
          14 :   -15.1455333728343
          15 :    17.5379181876645
          16 :   -19.9420909872446
[...]
     SCF correction compared to forces is large: reduce conv_thr to get better values

[...]

   This run was terminated on:  11: 6:33  21Jan2018

[...]

     Program PWSCF v.5.1rc2 (svn rev. 11289) starts on 21Jan2018 at 11: 6:40

[...]

     iteration # 23     ecut=    36.75 Ry     beta=0.30
     Davidson diagonalization with overlap
     c_bands:  2 eigenvalues not converged
     ethr =  4.30E-06,  avg # of iterations =  6.5

[...]

     Total force =     0.036487     Total SCF correction =     0.003592

[...]

     Program PWSCF v.5.1rc2 (svn rev. 11289) starts on 21Jan2018 at 12:33: 5

[...]

   This run was terminated on:  13:18: 3  21Jan2018

[...]

     Program PWSCF v.5.1rc2 (svn rev. 11289) starts on 21Jan2018 at 13:18:10

     Current dimensions of program PWSCF are:
     Max number of different atomic species (ntypx) = 10
     Max number of k-points (npk) =  40000
     Max angular momentum in pseudopotentials (lmaxx) =  3
     Presently stress not available with electric field

     IMPORTANT: XC functional enforced from input :
     Exchange-correlation      = BEEF-VDW ( 1  4 27 13 2)
     Any further DFT definition will be discarded
     Please, verify this is what you really want

     Subspace diagonalization in iterative solution of the eigenvalue problem:
     a serial algorithm will be used

     bravais-lattice index     =            0
     lattice parameter (alat)  =       1.8897  a.u.
     unit-cell volume          =    4806.0858 (a.u.)^3
     number of atoms/cell      =           13
     number of atomic types    =            2
     number of electrons       =       148.00
     number of Kohn-Sham states=           84
     kinetic-energy cutoff     =      36.7493  Ry
     charge density cutoff     =     367.4932  Ry
     convergence threshold     =      1.0E-05
     mixing beta               =       0.3000
     number of iterations used =           10  plain     mixing
     Exchange-correlation      = BEEF-VDW ( 1  4 27 13 2)
     nstep                     =           50

     celldm(1)=   1.889726  celldm(2)=   0.000000  celldm(3)=   0.000000
     celldm(4)=   0.000000  celldm(5)=   0.000000  celldm(6)=   0.000000

     crystal axes: (cart. coord. in units of alat)
               a(1) = (   5.768903   0.000000   0.000000 )
               a(2) = (   2.884451   4.996016   0.000000 )
               a(3) = (   0.000000   0.000000  24.710289 )

     reciprocal axes: (cart. coord. in units 2 pi/alat)
               b(1) = (  0.173343 -0.100080  0.000000 )
               b(2) = (  0.000000  0.200159  0.000000 )
               b(3) = (  0.000000  0.000000  0.040469 )

     PseudoPot. # 1 for Ti read from file:
     /afs/slac.stanford.edu/u/if/mamunm/psp/gbrv1.5pbe/Ti.UPF
     MD5 check sum: 88a00a6731bd790ddea75d31a80cb452
     Pseudo is Ultrasoft + core correction, Zval = 12.0
     Generated by new atomic code, or converted to UPF format
     Using radial grid of  851 points,  6 beta functions with:
                l(1) =   0
                l(2) =   0
                l(3) =   1
                l(4) =   1
                l(5) =   2
                l(6) =   2
     Q(r) pseudized with  6 coefficients,  rinner =    1.000   1.000   1.000
                                                       1.000   1.000

     PseudoPot. # 2 for C  read from file:
     /afs/slac.stanford.edu/u/if/mamunm/psp/gbrv1.5pbe/C.UPF
     MD5 check sum: d1aef80898a10debaa0f26306b886e00
     Pseudo is Ultrasoft + core correction, Zval =  4.0
     Generated by new atomic code, or converted to UPF format
     Using radial grid of  721 points,  4 beta functions with:
                l(1) =   0
                l(2) =   0
                l(3) =   1
                l(4) =   1
     Q(r) pseudized with  8 coefficients,  rinner =    1.100   1.100   1.100

     vdW kernel table read from file vdW_kernel_table
     MD5 check sum: 095c7af220d748ca6e76c0b4c6cfb241

     atomic species   valence    mass     pseudopotential
        Ti1           12.00    47.86700     Ti( 1.00)
        C1             4.00    12.01100     C ( 1.00)

     No symmetry found

   Cartesian axes

     site n.     atom                  positions (alat units)
         1           Ti1 tau(   1) = (   1.4422257   0.8326694  10.0000000  )
         2           Ti1 tau(   2) = (   4.3266771   0.8326694  10.0000000  )
         3           Ti1 tau(   3) = (   2.8844514   3.3306776  10.0000000  )
         4           Ti1 tau(   4) = (   5.7689029   3.3306776  10.0000000  )
         5           Ti1 tau(   5) = (   5.7689029   1.6653388  12.3551447  )
         6           Ti1 tau(   6) = (   2.8844514   1.6653388  12.3551447  )
         7           Ti1 tau(   7) = (   7.2111286   4.1633470  12.3551447  )
         8           Ti1 tau(   8) = (   4.3266771   4.1633470  12.3551447  )
         9           Ti1 tau(   9) = (   0.0023835   0.0013930  14.7140482  )
        10           Ti1 tau(  10) = (   2.8818312   0.0014980  14.7145978  )
        11           Ti1 tau(  11) = (   1.4421954   2.4951213  14.7142390  )
        12           Ti1 tau(  12) = (   4.3267525   2.4979314  14.6789706  )
        13           C1  tau(  13) = (   1.4420960   0.8326859  15.7469122  )

     number of k points=    20  Fermi-Dirac smearing, width (Ry)=  0.0110
                       cart. coord. in units 2pi/alat
        k(    1) = (   0.0000000   0.0000000   0.0000000), wk =   0.0555556
        k(    2) = (   0.0000000   0.0333599   0.0000000), wk =   0.1111111
        k(    3) = (   0.0000000   0.0667198   0.0000000), wk =   0.1111111
        k(    4) = (   0.0000000  -0.1000797   0.0000000), wk =   0.0555556
        k(    5) = (   0.0288905  -0.0166800   0.0000000), wk =   0.1111111
        k(    6) = (   0.0288905   0.0166800   0.0000000), wk =   0.1111111
        k(    7) = (   0.0288905   0.0500399   0.0000000), wk =   0.1111111
        k(    8) = (   0.0288905  -0.1167597   0.0000000), wk =   0.1111111
        k(    9) = (   0.0288905  -0.0833998   0.0000000), wk =   0.1111111
        k(   10) = (   0.0288905  -0.0500399   0.0000000), wk =   0.1111111
        k(   11) = (   0.0577811  -0.0333599   0.0000000), wk =   0.1111111
        k(   12) = (   0.0577811  -0.0000000   0.0000000), wk =   0.1111111
        k(   13) = (   0.0577811   0.0333599   0.0000000), wk =   0.1111111
        k(   14) = (   0.0577811  -0.1334396   0.0000000), wk =   0.1111111
        k(   15) = (   0.0577811  -0.1000797   0.0000000), wk =   0.1111111
        k(   16) = (   0.0577811  -0.0667198   0.0000000), wk =   0.1111111
        k(   17) = (  -0.0866716   0.0500399   0.0000000), wk =   0.0555556
        k(   18) = (  -0.0866716   0.0833998   0.0000000), wk =   0.1111111
        k(   19) = (  -0.0866716   0.1167597   0.0000000), wk =   0.1111111
        k(   20) = (  -0.0866716  -0.0500399   0.0000000), wk =   0.0555556

     Largest allocated arrays     est. size (Mb)     dimensions
     Largest temporary arrays     est. size (Mb)     dimensions

     Check: negative/imaginary core charge=   -0.000006    0.000000

     Initial potential from superposition of free atoms
     Check: negative starting charge=   -0.012702

     starting charge  135.99943, renormalised to  148.00000

[...]

     *
     * You are using vdW-DF for exchange-correlation in this calculation.
     * Please cite the following three references that made this development
     * possible:
     *
     *   M. Dion, H. Rydberg, E. Schroder, D. C. Langreth, and
     *   B. I. Lundqvist, Phys. Rev. Lett. 92, 246401 (2004).
     *
     *   T. Thonhauser, V. R. Cooper, S. Li, A. Puzder, P. Hyldgaard, and
     *   D. C. Langreth, Phys. Rev. B 76, 125112 (2007).
     *
     *   G. Roman-Perez and J. M. Soler, Phys. Rev. Lett. 103, 096102 (2009).
     *
     *
     * If you are using vdW-DF2, please also cite:
     *
     *   K. Lee, E. D. Murray, L. Kong, B. I. Lundqvist, and
     *   D. C. Langreth, Phys. Rev. B 82, 081101(R) (2010).
     *
     *
     * If you are calculating the stress with vdW-DF, please also cite:
     *
     *   R. Sabatini, E. Kucukbenli, B. Kolb, T. Thonhauser, and
     *   S. de Gironcoli, J. Phys.: Condens. Matter 24, 424209 (2012).
     *

     Carrying out vdW-DF run using the following parameters:

     Nqs =      20    Nr_points =    1024   r_max =   100.000
     q_mesh =
               0.00001000     0.04494208     0.09755937     0.15916263
               0.23128650     0.31572767     0.41458969     0.53033537
               0.66584808     0.82450364     1.01025438     1.22772762
               1.48234092     1.78043706     2.12944203     2.53805004
               3.01644009     3.57652955     4.23227104     5.00000000

     Gradients computed in reciprocal space

[...]

     Starting wfc are  124 randomized atomic wfcs

     Self-consistent Calculation

[...]

     total energy              =   -1450.10277131 Ry
     Harris-Foulkes estimate   =   -1450.10277322 Ry
     estimated scf accuracy    <       0.00001521 Ry

     iteration # 33     ecut=    36.75 Ry     beta=0.30
     Davidson diagonalization with overlap
     ethr =  7.16E-09,  avg # of iterations =  1.3

[...]

     negative rho (up, down):  8.565E-03 0.000E+00

     Adding external electric field

     Computed dipole along edir(3) :
        Dipole               -0.2043 Ry au,         -0.5193 Debye
        Dipole field         -0.0005 Ry au

        Potential amp.        0.0486 Ry
        Total length         45.5283 bohr

     End of self-consistent calculation

[...]

          k = 0.0578-0.0667 0.0000 ( 18031 PWs)   bands (ev):

[...]

          k =-0.0867-0.0500 0.0000 ( 18044 PWs)   bands (ev):

   -56.4226 -56.3941 -56.3917 -56.3484 -56.3456 -56.1792 -56.1729 -56.1322
   -56.1300 -56.0999 -56.0787 -56.0599 -32.8078 -32.7946 -32.7930 -32.7441
   -32.7299 -32.7293 -32.6933 -32.6863 -32.6376 -32.6247 -32.6159 -32.5989
   -32.5968 -32.5665 -32.5273 -32.5245 -32.4999 -32.4230 -32.4219 -32.4062
   -32.4030 -32.4017 -32.3755 -32.3403 -32.3382 -32.3312 -32.3185 -32.2972
   -32.2791 -32.2761 -32.2577 -32.2415 -32.1921 -32.1703 -32.1656 -32.0713
    -8.3431  -3.3948  -3.2262  -2.4258  -1.9718  -1.6375  -1.5522  -1.3395
    -1.2546  -1.2048  -0.9917  -0.9816  -0.6722  -0.5435  -0.3253  -0.3240
    -0.2375  -0.1861  -0.1588  -0.1020   0.1774   0.1940   0.2222   0.2831
     0.2854   0.3007   0.4431   0.5244   0.5871   0.6077   0.7487   0.8105
     0.8254   1.0410   1.1506   1.2372

     the Fermi energy is     0.5638 ev

!    total energy              =   -1450.10276517 Ry
     Harris-Foulkes estimate   =   -1450.10276206 Ry
     estimated scf accuracy    <       0.00000702 Ry

     The total energy is the sum of the following terms:

     one-electron contribution =  -11216.58157263 Ry
     hartree contribution      =    5594.44110342 Ry
     xc contribution           =    -228.62843948 Ry
     ewald contribution        =    4400.78850592 Ry
     electric field correction =       0.00010916 Ry
     smearing contrib. (-TS)   =      -0.12247155 Ry

     convergence has been achieved in  33 iterations

 BEEF-vdW xc energy contributions
           1 :   -196.523175807610
           2 :    175.754146898153
           3 :   -141.626183925721
           4 :    104.931952147529
           5 :   -74.5902192528258
           6 :    54.1869531712398
           7 :   -41.9215939077179
           8 :    33.2852087680188
           9 :   -24.4007906292175
          10 :    13.9976661227888
          11 :   -3.26958158865131
          12 :   -5.73804996031726
          13 :    11.8327818293604
          14 :   -15.3698417487734
          15 :    17.6955041770260
          16 :   -19.9750451018636
          17 :    22.3437745209304
          18 :   -23.9614171075232
          19 :    23.8117477744785
          20 :   -21.5673592939860
          21 :    17.8587688786858
          22 :   -13.8088038954067
          23 :    10.2531161978799
          24 :   -7.26269459134426
          25 :    4.28520934859219
          26 :  -0.733310776849237
          27 :   -3.46605337351556
          28 :    7.76191320862421
          29 :   -11.3496395130109
          30 :    13.7022077116940
          31 :   -20.9403338066142
          32 :   -14.9550674167639

     Forces acting on atoms (Ry/au):

     negative rho (up, down):  8.565E-03 0.000E+00
     atom    1 type  1   force =    -0.00000659   -0.00001207    0.00828485
     atom    2 type  1   force =     0.00000033    0.00038787    0.01006357
     atom    3 type  1   force =     0.00034075   -0.00018856    0.01005018
     atom    4 type  1   force =    -0.00034740   -0.00019138    0.01005593
     atom    5 type  1   force =    -0.00789059    0.00455693   -0.00610189
     atom    6 type  1   force =     0.00790461    0.00457219   -0.00608323
     atom    7 type  1   force =    -0.00001334   -0.00000088   -0.02129925
     atom    8 type  1   force =    -0.00000524   -0.00912612   -0.00608202
     atom    9 type  1   force =     0.00006950    0.00002760    0.00035832
     atom   10 type  1   force =     0.00002599   -0.00003812    0.00024653
     atom   11 type  1   force =    -0.00000758   -0.00002966    0.00030936
     atom   12 type  1   force =    -0.00001366    0.00002411    0.00086862
     atom   13 type  2   force =    -0.00005678    0.00001810   -0.00067097

     Total force =     0.034476     Total SCF correction =     0.011334
     SCF correction compared to forces is large: reduce conv_thr to get better values

     entering subroutine stress ...

     negative rho (up, down):  8.565E-03 0.000E+00
          total   stress  (Ry/bohr**3)                   (kbar)     P=    2.49
   0.00004164   0.00000001  -0.00000002          6.13      0.00     -0.00
   0.00000001   0.00004162   0.00000001          0.00      6.12      0.00
  -0.00000002   0.00000001  -0.00003245         -0.00      0.00     -4.77

 !ASE

     Writing output data file calc.save

     General routines

     Parallel routines

   This run was terminated on:  13:40:49  21Jan2018

   JOB DONE.
Job  /afs/slac/g/suncat/bin/suncat-tsmpirun -x LD_LIBRARY_PATH -wdir /scratch/qe870136_9pe86 pw.x -in pw.inp

TID   HOST_NAME   COMMAND_LINE            STATUS            TERMINATION_TIME
00000 suncat1042 pw.x -in pw.inp   Done                     01/21/2018 13:40:49
00001 suncat1042 pw.x -in pw.inp   Done                     01/21/2018 13:40:49
00002 suncat1042 pw.x -in pw.inp   Done                     01/21/2018 13:40:49
00003 suncat1042 pw.x -in pw.inp   Done                     01/21/2018 13:40:49
00004 suncat1042 pw.x -in pw.inp   Done                     01/21/2018 13:40:49
00005 suncat1042 pw.x -in pw.inp   Done                     01/21/2018 13:40:49
00006 suncat1042 pw.x -in pw.inp   Done                     01/21/2018 13:40:49
00007 suncat1042 pw.x -in pw.inp   Done                     01/21/2018 13:40:49
00008 suncat1033 pw.x -in pw.inp   Done                     01/21/2018 13:40:49
00009 suncat1033 pw.x -in pw.inp   Done                     01/21/2018 13:40:49
00010 suncat1033 pw.x -in pw.inp   Done                     01/21/2018 13:40:49
00011 suncat1033 pw.x -in pw.inp   Done                     01/21/2018 13:40:49
00012 suncat1033 pw.x -in pw.inp   Done                     01/21/2018 13:40:49
00013 suncat1033 pw.x -in pw.inp   Done                     01/21/2018 13:40:49
00014 suncat1033 pw.x -in pw.inp   Done                     01/21/2018 13:40:49
00015 suncat1033 pw.x -in pw.inp   Done                     01/21/2018 13:40:49
00016 suncat1033 pw.x -in pw.inp   Done                     01/21/2018 13:40:49
00017 suncat1033 pw.x -in pw.inp   Done                     01/21/2018 13:40:49
00018 suncat1033 pw.x -in pw.inp   Done                     01/21/2018 13:40:49
00019 suncat1033 pw.x -in pw.inp   Done                     01/21/2018 13:40:49
00020 suncat1006 pw.x -in pw.inp   Done                     01/21/2018 13:40:49
00021 suncat1006 pw.x -in pw.inp   Done                     01/21/2018 13:40:49
00022 suncat1006 pw.x -in pw.inp   Done                     01/21/2018 13:40:49
00023 suncat1006 pw.x -in pw.inp   Done                     01/21/2018 13:40:49
00024 suncat1006 pw.x -in pw.inp   Done                     01/21/2018 13:40:49
00025 suncat1006 pw.x -in pw.inp   Done                     01/21/2018 13:40:49
00026 suncat1006 pw.x -in pw.inp   Done                     01/21/2018 13:40:49
00027 suncat1006 pw.x -in pw.inp   Done                     01/21/2018 13:40:49
00028 suncat1006 pw.x -in pw.inp   Done                     01/21/2018 13:40:49
00029 suncat1006 pw.x -in pw.inp   Done                     01/21/2018 13:40:49
00030 suncat1006 pw.x -in pw.inp   Done                     01/21/2018 13:40:49
00031 suncat1006 pw.x -in pw.inp   Done                     01/21/2018 13:40:49