     Program PWSCF v.5.1rc2 (svn rev. 11289) starts on 18Jan2018 at  2:55:31

     Current dimensions of program PWSCF are:
     Max number of different atomic species (ntypx) = 10
     Max number of k-points (npk) =  40000
     Max angular momentum in pseudopotentials (lmaxx) =  3
     Presently stress not available with electric field

     IMPORTANT: XC functional enforced from input :
     Exchange-correlation      = BEEF-VDW ( 1  4 27 13 2)
     Any further DFT definition will be discarded
     Please, verify this is what you really want

     Subspace diagonalization in iterative solution of the eigenvalue problem:
     a serial algorithm will be used

     bravais-lattice index     =            0
     lattice parameter (alat)  =       1.8897  a.u.
     unit-cell volume          =    4228.3700 (a.u.)^3
     number of atoms/cell      =           13
     number of atomic types    =            2
     number of electrons       =       196.00
     number of Kohn-Sham states=          108
     kinetic-energy cutoff     =      36.7493  Ry
     charge density cutoff     =     367.4932  Ry
     convergence threshold     =      1.0E-05
     mixing beta               =       0.3000
     number of iterations used =           10  plain     mixing
     Exchange-correlation      = BEEF-VDW ( 1  4 27 13 2)
     nstep                     =           50

     celldm(1)=   1.889726  celldm(2)=   0.000000  celldm(3)=   0.000000
     celldm(4)=   0.000000  celldm(5)=   0.000000  celldm(6)=   0.000000

     crystal axes: (cart. coord. in units of alat)
               a(1) = (   5.440665   0.000000   0.000000 )
               a(2) = (   2.720332   4.711754   0.000000 )
               a(3) = (   0.000000   0.000000  24.442284 )

     reciprocal axes: (cart. coord. in units 2 pi/alat)
               b(1) = (  0.183801 -0.106118  0.000000 )
               b(2) = (  0.000000  0.212235  0.000000 )
               b(3) = (  0.000000  0.000000  0.040913 )

     PseudoPot. # 1 for Os read from file:
     /afs/slac.stanford.edu/u/if/mamunm/psp/gbrv1.5pbe/Os.UPF
     MD5 check sum: a3fb40a04f0c37c25c34bbc47164c9a8
     Pseudo is Ultrasoft + core correction, Zval = 16.0
     Generated by new atomic code, or converted to UPF format
     Using radial grid of  983 points,  8 beta functions with:
                l(1) =   0
                l(2) =   0
                l(3) =   1
                l(4) =   1
                l(5) =   2
                l(6) =   2
                l(7) =   3
                l(8) =   3
     Q(r) pseudized with  8 coefficients,  rinner =    1.150   1.150   1.150
                                                       1.150   1.150   1.150
                                                       1.150

     PseudoPot. # 2 for C  read from file:
     /afs/slac.stanford.edu/u/if/mamunm/psp/gbrv1.5pbe/C.UPF
     MD5 check sum: d1aef80898a10debaa0f26306b886e00
     Pseudo is Ultrasoft + core correction, Zval =  4.0
     Generated by new atomic code, or converted to UPF format
     Using radial grid of  721 points,  4 beta functions with:
                l(1) =   0
                l(2) =   0
                l(3) =   1
                l(4) =   1
     Q(r) pseudized with  8 coefficients,  rinner =    1.100   1.100   1.100

     vdW kernel table read from file vdW_kernel_table
     MD5 check sum: 095c7af220d748ca6e76c0b4c6cfb241

     atomic species   valence    mass     pseudopotential
        Os1           16.00   190.23000     Os( 1.00)
        C1             4.00    12.01100     C ( 1.00)

     No symmetry found

   Cartesian axes

     site n.     atom                  positions (alat units)
         1           Os1 tau(   1) = (   1.3601662   0.7852923  10.0000000  )
         2           Os1 tau(   2) = (   4.0804987   0.7852923  10.0000000  )
         3           Os1 tau(   3) = (   2.7203325   3.1411694  10.0000000  )
         4           Os1 tau(   4) = (   5.4406649   3.1411694  10.0000000  )
         5           Os1 tau(   5) = (   5.4406649   1.5705847  12.2211422  )
         6           Os1 tau(   6) = (   2.7203325   1.5705847  12.2211422  )
         7           Os1 tau(   7) = (   6.8008312   3.9264617  12.2211422  )
         8           Os1 tau(   8) = (   4.0804987   3.9264617  12.2211422  )
         9           Os1 tau(   9) = (   0.0000000   0.0000000  14.4422843  )
        10           Os1 tau(  10) = (   2.7203325   0.0000000  14.4422843  )
        11           Os1 tau(  11) = (   1.3601662   2.3558770  14.4422843  )
        12           Os1 tau(  12) = (   4.0804987   2.3558770  14.4422843  )
        13           C1  tau(  13) = (   1.3601662   0.0000000  16.6422843  )

     number of k points=    20  Fermi-Dirac smearing, width (Ry)=  0.0110
                       cart. coord. in units 2pi/alat
        k(    1) = (   0.0000000   0.0000000   0.0000000), wk =   0.0555556
        k(    2) = (   0.0000000   0.0353725   0.0000000), wk =   0.1111111
        k(    3) = (   0.0000000   0.0707451   0.0000000), wk =   0.1111111
        k(    4) = (   0.0000000  -0.1061176   0.0000000), wk =   0.0555556
        k(    5) = (   0.0306335  -0.0176863   0.0000000), wk =   0.1111111
        k(    6) = (   0.0306335   0.0176863   0.0000000), wk =   0.1111111
        k(    7) = (   0.0306335   0.0530588   0.0000000), wk =   0.1111111
        k(    8) = (   0.0306335  -0.1238039   0.0000000), wk =   0.1111111
        k(    9) = (   0.0306335  -0.0884313   0.0000000), wk =   0.1111111
        k(   10) = (   0.0306335  -0.0530588   0.0000000), wk =   0.1111111
        k(   11) = (   0.0612670  -0.0353725   0.0000000), wk =   0.1111111
        k(   12) = (   0.0612670   0.0000000   0.0000000), wk =   0.1111111
        k(   13) = (   0.0612670   0.0353725   0.0000000), wk =   0.1111111
        k(   14) = (   0.0612670  -0.1414901   0.0000000), wk =   0.1111111
        k(   15) = (   0.0612670  -0.1061176   0.0000000), wk =   0.1111111
        k(   16) = (   0.0612670  -0.0707451   0.0000000), wk =   0.1111111
        k(   17) = (  -0.0919005   0.0530588   0.0000000), wk =   0.0555556
        k(   18) = (  -0.0919005   0.0884313   0.0000000), wk =   0.1111111
        k(   19) = (  -0.0919005   0.1238039   0.0000000), wk =   0.1111111
        k(   20) = (  -0.0919005  -0.0530588   0.0000000), wk =   0.0555556

     Largest allocated arrays     est. size (Mb)     dimensions
     Largest temporary arrays     est. size (Mb)     dimensions

     Initial potential from superposition of free atoms
     Check: negative starting charge=   -1.495766

     starting charge  189.99952, renormalised to  196.00000

     negative rho (up, down):  1.543E+00 0.000E+00

     *
     * You are using vdW-DF for exchange-correlation in this calculation.
     * Please cite the following three references that made this development
     * possible:
     *
     *   M. Dion, H. Rydberg, E. Schroder, D. C. Langreth, and
     *   B. I. Lundqvist, Phys. Rev. Lett. 92, 246401 (2004).
     *
     *   T. Thonhauser, V. R. Cooper, S. Li, A. Puzder, P. Hyldgaard, and
     *   D. C. Langreth, Phys. Rev. B 76, 125112 (2007).
     *
     *   G. Roman-Perez and J. M. Soler, Phys. Rev. Lett. 103, 096102 (2009).
     *
     *
     * If you are using vdW-DF2, please also cite:
     *
     *   K. Lee, E. D. Murray, L. Kong, B. I. Lundqvist, and
     *   D. C. Langreth, Phys. Rev. B 82, 081101(R) (2010).
     *
     *
     * If you are calculating the stress with vdW-DF, please also cite:
     *
     *   R. Sabatini, E. Kucukbenli, B. Kolb, T. Thonhauser, and
     *   S. de Gironcoli, J. Phys.: Condens. Matter 24, 424209 (2012).
     *

     Carrying out vdW-DF run using the following parameters:

     Nqs =      20    Nr_points =    1024   r_max =   100.000
     q_mesh =
               0.00001000     0.04494208     0.09755937     0.15916263
               0.23128650     0.31572767     0.41458969     0.53033537
               0.66584808     0.82450364     1.01025438     1.22772762
               1.48234092     1.78043706     2.12944203     2.53805004
               3.01644009     3.57652955     4.23227104     5.00000000

     Gradients computed in reciprocal space

     Adding external electric field

     Computed dipole along edir(3) :
        Dipole               -1.0551 Ry au,         -2.6817 Debye
        Dipole field         -0.0031 Ry au

        Potential amp.        0.2824 Ry
        Total length         45.0345 bohr

     Starting wfc are  160 randomized atomic wfcs

     Self-consistent Calculation

     iteration #  1     ecut=    36.75 Ry     beta=0.30
     Davidson diagonalization with overlap
     ethr =  1.00E-02,  avg # of iterations =  2.0

[...]

     total energy              =   -2392.68528117 Ry
     Harris-Foulkes estimate   =   -2408.98115356 Ry
     estimated scf accuracy    <      33.86433683 Ry

[...]

     End of self-consistent calculation

          k = 0.0000 0.0000 0.0000 ( 15845 PWs)   bands (ev):

   -84.2466 -84.1958 -84.1877 -84.1405 -83.8388 -83.7996 -83.7802 -83.7435
   -83.7284 -83.7243 -83.7213 -83.7111 -43.9281 -43.8963 -43.8937 -43.7414
   -43.6429 -43.6295 -43.6201 -43.4297 -43.4121 -43.3987 -43.3112 -43.3106
   -43.2995 -43.2558 -43.2422 -43.2349 -43.1122 -43.1111 -43.0997 -43.0122
   -42.9955 -42.9783 -42.9369 -42.9281 -42.9142 -42.8964 -42.8766 -42.8683
   -42.8505 -42.8183 -42.8139 -42.8109 -42.6863 -42.6781 -42.6398 -42.6386
    -6.9488  -5.9400  -4.6864  -4.3691  -4.0845  -4.0793  -4.0700  -3.7730
    -3.7608  -3.7322  -3.1711  -3.1610  -3.1556  -2.9094  -2.8873  -2.8802
    -1.3628  -1.3223  -1.3114  -0.5554  -0.5294  -0.5266  -0.2760  -0.0909
    -0.0426  -0.0414   0.4528   0.4574   0.4712   0.4856   0.4915   0.6677
     0.7757   0.7855   0.8031   0.8461   1.8129   2.0263   2.1706   2.2878
     2.4132   2.5106   2.5230   2.7331   2.8104   2.8665   3.0477   3.2414
     3.5339   3.5475   3.7435   4.1138   4.1745   4.2286   4.4287   4.4363
     4.4454   4.6484   4.6625   4.7910

[...]

          k =-0.0919 0.0531 0.0000 ( 15968 PWs)   bands (ev):

[...]

     the Fermi energy is     2.8265 ev

!    total energy              =   -2408.53571333 Ry
     Harris-Foulkes estimate   =   -2408.53574811 Ry
     estimated scf accuracy    <       0.00000763 Ry

     The total energy is the sum of the following terms:

     one-electron contribution =  -21685.30058206 Ry
     hartree contribution      =   10825.32637855 Ry
     xc contribution           =    -467.47931296 Ry
     ewald contribution        =    8918.99439777 Ry
     electric field correction =       0.00011452 Ry
     smearing contrib. (-TS)   =      -0.07670915 Ry

     convergence has been achieved in  20 iterations

 BEEF-vdW xc energy contributions
           1 :   -409.467934380276
           2 :    379.397045371389
           3 :   -326.319094159120
           4 :    261.787195970758
           5 :   -198.228287661631
           6 :    145.574853738050
           7 :   -109.054753567572
           8 :    88.6482263933789
           9 :   -80.2136107257303
          10 :    77.6925921197746
          11 :   -75.4983449758902
          12 :    70.2247052577834
          13 :   -61.2151436111316
          14 :    50.0282640562172
[...]

[...]

     iteration #  9     ecut=    36.75 Ry     beta=0.30
     Davidson diagonalization with overlap
     c_bands:  1 eigenvalues not converged
     ethr =  3.39E-05,  avg # of iterations =  4.7

[...]

   This run was terminated on:   4:18: 9  18Jan2018

[...]

     Total force =     0.143110     Total SCF correction =     0.008542

[...]

   This run was terminated on:   4:59:36  18Jan2018

[...]

     Program PWSCF v.5.1rc2 (svn rev. 11289) starts on 18Jan2018 at  4:59:41

     Current dimensions of program PWSCF are:
     Max number of different atomic species (ntypx) = 10
     Max number of k-points (npk) =  40000
     Max angular momentum in pseudopotentials (lmaxx) =  3
     Presently stress not available with electric field

     IMPORTANT: XC functional enforced from input :
     Exchange-correlation      = BEEF-VDW ( 1  4 27 13 2)
     Any further DFT definition will be discarded
     Please, verify this is what you really want

     Subspace diagonalization in iterative solution of the eigenvalue problem:
     a serial algorithm will be used

     bravais-lattice index     =            0
     lattice parameter (alat)  =       1.8897  a.u.
     unit-cell volume          =    4228.3700 (a.u.)^3
     number of atoms/cell      =           13
     number of atomic types    =            2
     number of electrons       =       196.00
     number of Kohn-Sham states=          108
     kinetic-energy cutoff     =      36.7493  Ry
     charge density cutoff     =     367.4932  Ry
     convergence threshold     =      1.0E-05
     mixing beta               =       0.3000
     number of iterations used =           10  plain     mixing
     Exchange-correlation      = BEEF-VDW ( 1  4 27 13 2)
     nstep                     =           50

     celldm(1)=   1.889726  celldm(2)=   0.000000  celldm(3)=   0.000000
     celldm(4)=   0.000000  celldm(5)=   0.000000  celldm(6)=   0.000000

     crystal axes: (cart. coord. in units of alat)
               a(1) = (   5.440665   0.000000   0.000000 )
               a(2) = (   2.720332   4.711754   0.000000 )
               a(3) = (   0.000000   0.000000  24.442284 )

     reciprocal axes: (cart. coord. in units 2 pi/alat)
               b(1) = (  0.183801 -0.106118  0.000000 )
               b(2) = (  0.000000  0.212235  0.000000 )
               b(3) = (  0.000000  0.000000  0.040913 )

     PseudoPot. # 1 for Os read from file:
     /afs/slac.stanford.edu/u/if/mamunm/psp/gbrv1.5pbe/Os.UPF
     MD5 check sum: a3fb40a04f0c37c25c34bbc47164c9a8
     Pseudo is Ultrasoft + core correction, Zval = 16.0
     Generated by new atomic code, or converted to UPF format
     Using radial grid of  983 points,  8 beta functions with:
                l(1) =   0
                l(2) =   0
                l(3) =   1
                l(4) =   1
                l(5) =   2
                l(6) =   2
                l(7) =   3
                l(8) =   3
     Q(r) pseudized with  8 coefficients,  rinner =    1.150   1.150   1.150
                                                       1.150   1.150   1.150
                                                       1.150

     PseudoPot. # 2 for C  read from file:
     /afs/slac.stanford.edu/u/if/mamunm/psp/gbrv1.5pbe/C.UPF
     MD5 check sum: d1aef80898a10debaa0f26306b886e00
     Pseudo is Ultrasoft + core correction, Zval =  4.0
     Generated by new atomic code, or converted to UPF format
     Using radial grid of  721 points,  4 beta functions with:
                l(1) =   0
                l(2) =   0
                l(3) =   1
                l(4) =   1
     Q(r) pseudized with  8 coefficients,  rinner =    1.100   1.100   1.100

     vdW kernel table read from file vdW_kernel_table
     MD5 check sum: 095c7af220d748ca6e76c0b4c6cfb241

     atomic species   valence    mass     pseudopotential
        Os1           16.00   190.23000     Os( 1.00)
        C1             4.00    12.01100     C ( 1.00)

     No symmetry found

   Cartesian axes

     site n.     atom                  positions (alat units)
         1           Os1 tau(   1) = (   1.3601662   0.7852923  10.0000000  )
         2           Os1 tau(   2) = (   4.0804987   0.7852923  10.0000000  )
         3           Os1 tau(   3) = (   2.7203325   3.1411694  10.0000000  )
         4           Os1 tau(   4) = (   5.4406649   3.1411694  10.0000000  )
         5           Os1 tau(   5) = (   5.4406649   1.5705847  12.2211422  )
         6           Os1 tau(   6) = (   2.7203325   1.5705847  12.2211422  )
         7           Os1 tau(   7) = (   6.8008312   3.9264617  12.2211422  )
         8           Os1 tau(   8) = (   4.0804987   3.9264617  12.2211422  )
         9           Os1 tau(   9) = (   5.3880449   0.0301014  14.4147598  )
        10           Os1 tau(  10) = (   2.7731206   0.0306890  14.4145456  )
        11           Os1 tau(  11) = (   1.3604696   2.3559369  14.3182995  )
        12           Os1 tau(  12) = (   4.0800627   2.2944467  14.4136539  )
        13           C1  tau(  13) = (   4.0803946   3.9265702  15.5128225  )

     number of k points=    20  Fermi-Dirac smearing, width (Ry)=  0.0110
                       cart. coord. in units 2pi/alat
        k(    1) = (   0.0000000   0.0000000   0.0000000), wk =   0.0555556
        k(    2) = (   0.0000000   0.0353725   0.0000000), wk =   0.1111111
        k(    3) = (   0.0000000   0.0707451   0.0000000), wk =   0.1111111
        k(    4) = (   0.0000000  -0.1061176   0.0000000), wk =   0.0555556
        k(    5) = (   0.0306335  -0.0176863   0.0000000), wk =   0.1111111
        k(    6) = (   0.0306335   0.0176863   0.0000000), wk =   0.1111111
        k(    7) = (   0.0306335   0.0530588   0.0000000), wk =   0.1111111
        k(    8) = (   0.0306335  -0.1238039   0.0000000), wk =   0.1111111
        k(    9) = (   0.0306335  -0.0884313   0.0000000), wk =   0.1111111
        k(   10) = (   0.0306335  -0.0530588   0.0000000), wk =   0.1111111
        k(   11) = (   0.0612670  -0.0353725   0.0000000), wk =   0.1111111
        k(   12) = (   0.0612670   0.0000000   0.0000000), wk =   0.1111111
        k(   13) = (   0.0612670   0.0353725   0.0000000), wk =   0.1111111
        k(   14) = (   0.0612670  -0.1414901   0.0000000), wk =   0.1111111
        k(   15) = (   0.0612670  -0.1061176   0.0000000), wk =   0.1111111
        k(   16) = (   0.0612670  -0.0707451   0.0000000), wk =   0.1111111
        k(   17) = (  -0.0919005   0.0530588   0.0000000), wk =   0.0555556
        k(   18) = (  -0.0919005   0.0884313   0.0000000), wk =   0.1111111
        k(   19) = (  -0.0919005   0.1238039   0.0000000), wk =   0.1111111
        k(   20) = (  -0.0919005  -0.0530588   0.0000000), wk =   0.0555556

     Largest allocated arrays     est. size (Mb)     dimensions
     Largest temporary arrays     est. size (Mb)     dimensions

     Initial potential from superposition of free atoms
     Check: negative starting charge=   -1.485840

     starting charge  189.99952, renormalised to  196.00000

[...]

     *
     * You are using vdW-DF for exchange-correlation in this calculation.
     * Please cite the following three references that made this development
     * possible:
     *
     *   M. Dion, H. Rydberg, E. Schroder, D. C. Langreth, and
     *   B. I. Lundqvist, Phys. Rev. Lett. 92, 246401 (2004).
     *
     *   T. Thonhauser, V. R. Cooper, S. Li, A. Puzder, P. Hyldgaard, and
     *   D. C. Langreth, Phys. Rev. B 76, 125112 (2007).
     *
     *   G. Roman-Perez and J. M. Soler, Phys. Rev. Lett. 103, 096102 (2009).
     *
     *
     * If you are using vdW-DF2, please also cite:
     *
     *   K. Lee, E. D. Murray, L. Kong, B. I. Lundqvist, and
     *   D. C. Langreth, Phys. Rev. B 82, 081101(R) (2010).
     *
     *
     * If you are calculating the stress with vdW-DF, please also cite:
     *
     *   R. Sabatini, E. Kucukbenli, B. Kolb, T. Thonhauser, and
     *   S. de Gironcoli, J. Phys.: Condens. Matter 24, 424209 (2012).
     *

     Carrying out vdW-DF run using the following parameters:

     Nqs =      20    Nr_points =    1024   r_max =   100.000
     q_mesh =
               0.00001000     0.04494208     0.09755937     0.15916263
               0.23128650     0.31572767     0.41458969     0.53033537
               0.66584808     0.82450364     1.01025438     1.22772762
               1.48234092     1.78043706     2.12944203     2.53805004
               3.01644009     3.57652955     4.23227104     5.00000000

     Gradients computed in reciprocal space

[...]

     Starting wfc are  160 randomized atomic wfcs

     Self-consistent Calculation

[...]

     total energy              =   -2408.85506733 Ry
     Harris-Foulkes estimate   =   -2408.85506903 Ry
     estimated scf accuracy    <       0.00002131 Ry

     iteration # 19     ecut=    36.75 Ry     beta=0.30
     Davidson diagonalization with overlap
     ethr =  1.09E-08,  avg # of iterations =  3.1

[...]

     negative rho (up, down):  1.509E+00 0.000E+00

     Adding external electric field

     Computed dipole along edir(3) :
        Dipole               -0.0433 Ry au,         -0.1100 Debye
        Dipole field         -0.0001 Ry au

        Potential amp.        0.0116 Ry
        Total length         45.0345 bohr

     End of self-consistent calculation

[...]

          k = 0.0613-0.0707 0.0000 ( 15922 PWs)   bands (ev):

[...]

          k =-0.0919-0.0531 0.0000 ( 15968 PWs)   bands (ev):

   -84.0352 -84.0060 -83.9850 -83.9741 -83.7453 -83.7179 -83.7061 -83.5197
   -83.5142 -83.5028 -83.4904 -83.4824 -43.5962 -43.5939 -43.5587 -43.5020
   -43.4609 -43.4400 -43.3718 -43.3587 -43.3388 -43.2991 -43.2453 -43.1510
   -43.0893 -43.0503 -43.0229 -42.9962 -42.9905 -42.9546 -42.9410 -42.9208
   -42.8850 -42.8671 -42.7899 -42.7788 -42.7733 -42.7624 -42.7480 -42.7318
   -42.7235 -42.7083 -42.7006 -42.6804 -42.6682 -42.5789 -42.4896 -42.4865
    -8.5443  -4.8981  -4.6270  -3.5161  -3.1359  -2.9775  -2.8223  -2.7599
    -2.7487  -2.6901  -2.5830  -2.1285  -2.0721  -1.9092  -1.8182  -1.6968
    -1.6307  -1.5439  -1.3051  -1.1641  -1.0689  -0.8642  -0.8417  -0.5254
    -0.4235  -0.2672  -0.0495   0.0292   0.2055   0.2400   0.3060   0.4625
     0.5350   0.6286   0.7352   0.7539   0.8169   0.8554   0.9200   1.0025
     1.0244   1.4128   1.8108   1.8943   1.9486   2.0040   2.3809   2.4348
     2.4958   2.5645   2.6510   2.9862   3.0119   3.1139   3.3138   3.4498
     3.6320   3.7838   3.8865   4.3271

     the Fermi energy is     3.0860 ev

!    total energy              =   -2408.85506394 Ry
     Harris-Foulkes estimate   =   -2408.85507295 Ry
     estimated scf accuracy    <       0.00000728 Ry

     The total energy is the sum of the following terms:

     one-electron contribution =  -22139.17973336 Ry
     hartree contribution      =   11053.12473087 Ry
     xc contribution           =    -468.34088469 Ry
     ewald contribution        =    9145.60538911 Ry
     electric field correction =       0.00000557 Ry
     smearing contrib. (-TS)   =      -0.06457145 Ry

     convergence has been achieved in  19 iterations

 BEEF-vdW xc energy contributions
           1 :   -410.330132065466
           2 :    380.513579612470
           3 :   -327.764203902394
           4 :    263.422994894557
           5 :   -199.787224418165
           6 :    146.776674568892
           7 :   -109.718397460563
           8 :    88.7627378848157
           9 :   -79.9394033405020
          10 :    77.2917800048216
          11 :   -75.2230398258917
          12 :    70.2163777140425
          13 :   -61.4614315831843
          14 :    50.3888072531310
          15 :   -39.5117660005250
          16 :    31.1264243190148
          17 :   -26.3748962646344
          18 :    24.9511923698144
          19 :   -25.4485467262371
          20 :    26.0942732448600
          21 :   -25.5137024691000
          22 :    23.2069887226669
          23 :   -19.5926626801481
          24 :    15.6642842702165
          25 :   -12.4621451529039
          26 :    10.6062845938492
          27 :   -10.0818481037887
          28 :    10.3332993110488
          29 :   -10.5869907761950
          30 :    10.2286976875255
          31 :   -38.9788618768716
          32 :   -29.8276001662343

     Forces acting on atoms (Ry/au):

     negative rho (up, down):  1.509E+00 0.000E+00
     atom    1 type  1   force =    -0.00004266   -0.01201783    0.03181871
     atom    2 type  1   force =     0.00002763    0.00003962    0.01242279
     atom    3 type  1   force =     0.01043587    0.00599046    0.03190439
     atom    4 type  1   force =    -0.01044089    0.00595363    0.03200637
     atom    5 type  1   force =     0.01595398    0.00914073   -0.02101657
     atom    6 type  1   force =    -0.01600896    0.00912743   -0.02116325
     atom    7 type  1   force =    -0.00004776   -0.01836191   -0.02108978
     atom    8 type  1   force =     0.00003812    0.00006794   -0.04435165
     atom    9 type  1   force =    -0.00064526    0.00065676   -0.00069140
     atom   10 type  1   force =     0.00046350    0.00006347   -0.00044764
     atom   11 type  1   force =    -0.00029422   -0.00018608   -0.00026685
     atom   12 type  1   force =     0.00043339   -0.00015265    0.00013894
     atom   13 type  2   force =     0.00012726   -0.00032156    0.00073594

     Total force =     0.089229     Total SCF correction =     0.017934
     SCF correction compared to forces is large: reduce conv_thr to get better values

     entering subroutine stress ...

     negative rho (up, down):  1.509E+00 0.000E+00
          total   stress  (Ry/bohr**3)                   (kbar)     P=  -13.84
  -0.00008282  -0.00000003   0.00000016        -12.18     -0.00      0.02
  -0.00000003  -0.00008318  -0.00000010         -0.00    -12.24     -0.02
   0.00000016  -0.00000010  -0.00011625          0.02     -0.02    -17.10

 !ASE

     Writing output data file calc.save

     General routines

     Parallel routines

   This run was terminated on:   5: 5:20  18Jan2018

   JOB DONE.
Job  /afs/slac/g/suncat/bin/suncat-tsmpirun -x LD_LIBRARY_PATH -wdir /scratch/qe842464_NPY18 pw.x -in pw.inp

TID   HOST_NAME   COMMAND_LINE            STATUS            TERMINATION_TIME
00000 suncat2041 pw.x -in pw.inp   Done                     01/18/2018 05:05:20
00001 suncat2041 pw.x -in pw.inp   Done                     01/18/2018 05:05:20
00002 suncat2041 pw.x -in pw.inp   Done                     01/18/2018 05:05:20
00003 suncat2041 pw.x -in pw.inp   Done                     01/18/2018 05:05:20
00004 suncat2041 pw.x -in pw.inp   Done                     01/18/2018 05:05:20
00005 suncat2041 pw.x -in pw.inp   Done                     01/18/2018 05:05:20
00006 suncat2041 pw.x -in pw.inp   Done                     01/18/2018 05:05:20
00007 suncat2041 pw.x -in pw.inp   Done                     01/18/2018 05:05:20
00008 suncat2041 pw.x -in pw.inp   Done                     01/18/2018 05:05:20
00009 suncat2041 pw.x -in pw.inp   Done                     01/18/2018 05:05:20
00010 suncat2041 pw.x -in pw.inp   Done                     01/18/2018 05:05:20
00011 suncat2041 pw.x -in pw.inp   Done                     01/18/2018 05:05:20
00012 suncat2041 pw.x -in pw.inp   Done                     01/18/2018 05:05:20
00013 suncat2041 pw.x -in pw.inp   Done                     01/18/2018 05:05:20
00014 suncat2041 pw.x -in pw.inp   Done                     01/18/2018 05:05:20
00015 suncat2041 pw.x -in pw.inp   Done                     01/18/2018 05:05:20
00016 suncat2040 pw.x -in pw.inp   Done                     01/18/2018 05:05:20
00017 suncat2040 pw.x -in pw.inp   Done                     01/18/2018 05:05:20
00018 suncat2040 pw.x -in pw.inp   Done                     01/18/2018 05:05:20
00019 suncat2040 pw.x -in pw.inp   Done                     01/18/2018 05:05:20
00020 suncat2040 pw.x -in pw.inp   Done                     01/18/2018 05:05:20
00021 suncat2040 pw.x -in pw.inp   Done                     01/18/2018 05:05:20
00022 suncat2040 pw.x -in pw.inp   Done                     01/18/2018 05:05:20
00023 suncat2040 pw.x -in pw.inp   Done                     01/18/2018 05:05:20
00024 suncat2040 pw.x -in pw.inp   Done                     01/18/2018 05:05:20
00025 suncat2040 pw.x -in pw.inp   Done                     01/18/2018 05:05:20
00026 suncat2040 pw.x -in pw.inp   Done                     01/18/2018 05:05:20
00027 suncat2040 pw.x -in pw.inp   Done                     01/18/2018 05:05:20
00028 suncat2040 pw.x -in pw.inp   Done                     01/18/2018 05:05:20
00029 suncat2040 pw.x -in pw.inp   Done                     01/18/2018 05:05:20
00030 suncat2040 pw.x -in pw.inp   Done                     01/18/2018 05:05:20
00031 suncat2040 pw.x -in pw.inp   Done                     01/18/2018 05:05:20