     Program PWSCF v.5.1rc2 (svn rev. 11289) starts on 16Apr2018 at 12: 6: 0

     Current dimensions of program PWSCF are:
     Max number of different atomic species (ntypx) = 10
     Max number of k-points (npk) =  40000
     Max angular momentum in pseudopotentials (lmaxx) =  3
     Presently stress not available with electric field

     IMPORTANT: XC functional enforced from input :
     Exchange-correlation      = BEEF-VDW ( 1  4 27 13 2)
     Any further DFT definition will be discarded
     Please, verify this is what you really want

     Subspace diagonalization in iterative solution of the eigenvalue problem:
     a serial algorithm will be used

     bravais-lattice index     =            0
     lattice parameter (alat)  =       1.8897  a.u.
     unit-cell volume          =    5144.9564 (a.u.)^3
     number of atoms/cell      =           14
     number of atomic types    =            3
     number of electrons       =       139.00
     number of Kohn-Sham states=           79
     kinetic-energy cutoff     =      36.7493  Ry
     charge density cutoff     =     367.4932  Ry
     convergence threshold     =      1.0E-05
     mixing beta               =       0.3000
     number of iterations used =           10  plain     mixing
     Exchange-correlation      = BEEF-VDW ( 1  4 27 13 2)
     nstep                     =           50

     celldm(1)=   1.889726  celldm(2)=   0.000000  celldm(3)=   0.000000
     celldm(4)=   0.000000  celldm(5)=   0.000000  celldm(6)=   0.000000

     crystal axes: (cart. coord. in units of alat)
               a(1) = (   5.950946   0.000000   0.000000 )
               a(2) = (   2.975473   5.153671   0.000000 )
               a(3) = (   0.000000   0.000000  24.858927 )

     reciprocal axes: (cart. coord. in units 2 pi/alat)
               b(1) = (  0.168040 -0.097018  0.000000 )
               b(2) = (  0.000000  0.194036  0.000000 )
               b(3) = (  0.000000  0.000000  0.040227 )

     PseudoPot. # 1 for Au read from file:
     /u/if/mamunm/psp/gbrv1.5pbe/Au.UPF
     MD5 check sum: 9d7f43293ad2c663164586bc4b293ffc
     Pseudo is Ultrasoft + core correction, Zval = 11.0
     Generated by new atomic code, or converted to UPF format
     Using radial grid of  985 points,  7 beta functions with:
                l(1) =   0
                l(2) =   0
                l(3) =   1
                l(4) =   1
                l(5) =   2
                l(6) =   2
                l(7) =   3
     Q(r) pseudized with  6 coefficients,  rinner =    1.900   1.900   1.900
                                                       1.900   1.900   1.900
                                                       1.900

     PseudoPot. # 2 for S  read from file:
     /u/if/mamunm/psp/gbrv1.5pbe/S.UPF
     MD5 check sum: 88d86576ff6df21479756cfb9bdac1df
     Pseudo is Ultrasoft + core correction, Zval =  6.0
     Generated by new atomic code, or converted to UPF format
     Using radial grid of  907 points,  6 beta functions with:
                l(1) =   0
                l(2) =   0
                l(3) =   1
                l(4) =   1
                l(5) =   2
                l(6) =   2
     Q(r) pseudized with  8 coefficients,  rinner =    1.300   1.300   1.300
                                                       1.300   1.300

     PseudoPot. # 3 for H  read from file:
     /u/if/mamunm/psp/gbrv1.5pbe/H.UPF
     MD5 check sum: 761ae9a214b05c3daf00ab9f6b793d6f
     Pseudo is Ultrasoft, Zval =  1.0
     Generated by new atomic code, or converted to UPF format
     Using radial grid of  615 points,  2 beta functions with:
                l(1) =   0
                l(2) =   0
     Q(r) pseudized with  8 coefficients,  rinner =    0.700

     vdW kernel table read from file vdW_kernel_table
     MD5 check sum: 095c7af220d748ca6e76c0b4c6cfb241

     atomic species   valence    mass     pseudopotential
        Au1           11.00   196.96657     Au( 1.00)
        S1             6.00    32.06000     S ( 1.00)
        H1             1.00     1.00800     H ( 1.00)

     No symmetry found

   Cartesian axes

     site n.     atom                  positions (alat units)
         1           Au1 tau(   1) = (   1.4877366   0.8589451  10.0000000  )
         2           Au1 tau(   2) = (   4.4632098   0.8589451  10.0000000  )
         3           Au1 tau(   3) = (   2.9754732   3.4357805  10.0000000  )
         4           Au1 tau(   4) = (   5.9509464   3.4357805  10.0000000  )
         5           Au1 tau(   5) = (   5.9509464   1.7178903  12.4294637  )
         6           Au1 tau(   6) = (   2.9754732   1.7178903  12.4294637  )
         7           Au1 tau(   7) = (   7.4386830   4.2947256  12.4294637  )
         8           Au1 tau(   8) = (   4.4632098   4.2947256  12.4294637  )
         9           Au1 tau(   9) = (   0.0000000   0.0000000  14.8589274  )
        10           Au1 tau(  10) = (   2.9754732   0.0000000  14.8589274  )
        11           Au1 tau(  11) = (   1.4877366   2.5768354  14.8589274  )
        12           Au1 tau(  12) = (   4.4632098   2.5768354  14.8589274  )
        13           S1  tau(  13) = (   1.4877366   0.8589451  16.4254274  )
        14           H1  tau(  14) = (   1.4877366   0.8589451  17.6754274  )

     number of k points=    20  Fermi-Dirac smearing, width (Ry)=  0.0110
                       cart. coord. in units 2pi/alat
        k(    1) = (   0.0000000   0.0000000   0.0000000), wk =   0.0555556
        k(    2) = (   0.0000000   0.0323394   0.0000000), wk =   0.1111111
        k(    3) = (   0.0000000   0.0646788   0.0000000), wk =   0.1111111
        k(    4) = (   0.0000000  -0.0970182   0.0000000), wk =   0.0555556
        k(    5) = (   0.0280067  -0.0161697   0.0000000), wk =   0.1111111
        k(    6) = (   0.0280067   0.0161697   0.0000000), wk =   0.1111111
        k(    7) = (   0.0280067   0.0485091   0.0000000), wk =   0.1111111
        k(    8) = (   0.0280067  -0.1131879   0.0000000), wk =   0.1111111
        k(    9) = (   0.0280067  -0.0808485   0.0000000), wk =   0.1111111
        k(   10) = (   0.0280067  -0.0485091   0.0000000), wk =   0.1111111
        k(   11) = (   0.0560135  -0.0323394   0.0000000), wk =   0.1111111
        k(   12) = (   0.0560135   0.0000000   0.0000000), wk =   0.1111111
        k(   13) = (   0.0560135   0.0323394   0.0000000), wk =   0.1111111
        k(   14) = (   0.0560135  -0.1293576   0.0000000), wk =   0.1111111
        k(   15) = (   0.0560135  -0.0970182   0.0000000), wk =   0.1111111
        k(   16) = (   0.0560135  -0.0646788   0.0000000), wk =   0.1111111
        k(   17) = (  -0.0840202   0.0485091   0.0000000), wk =   0.0555556
        k(   18) = (  -0.0840202   0.0808485   0.0000000), wk =   0.1111111
        k(   19) = (  -0.0840202   0.1131879   0.0000000), wk =   0.1111111
        k(   20) = (  -0.0840202  -0.0485091   0.0000000), wk =   0.0555556

     Largest allocated arrays     est. size (Mb)     dimensions
     Largest temporary arrays     est. size (Mb)     dimensions

     Check: negative/imaginary core charge=   -0.000002    0.000000

     Initial potential from superposition of free atoms

     starting charge  138.99849, renormalised to  139.00000

     negative rho (up, down):  6.279E-05 0.000E+00

     *
     * You are using vdW-DF for exchange-correlation in this calculation.
     * Please cite the following three references that made this development
     * possible:
     *
     *   M. Dion, H. Rydberg, E. Schroder, D. C. Langreth, and
     *   B. I. Lundqvist, Phys. Rev. Lett. 92, 246401 (2004).
     *
     *   T. Thonhauser, V. R. Cooper, S. Li, A. Puzder, P. Hyldgaard, and
     *   D. C. Langreth, Phys. Rev. B 76, 125112 (2007).
     *
     *   G. Roman-Perez and J. M. Soler, Phys. Rev. Lett. 103, 096102 (2009).
     *
     *
     * If you are using vdW-DF2, please also cite:
     *
     *   K. Lee, E. D. Murray, L. Kong, B. I. Lundqvist, and
     *   D. C. Langreth, Phys. Rev. B 82, 081101(R) (2010).
     *
     *
     * If you are calculating the stress with vdW-DF, please also cite:
     *
     *   R. Sabatini, E. Kucukbenli, B. Kolb, T. Thonhauser, and
     *   S. de Gironcoli, J. Phys.: Condens. Matter 24, 424209 (2012).
     *

     Carrying out vdW-DF run using the following parameters:

     Nqs =      20    Nr_points =    1024   r_max =   100.000
     q_mesh =
               0.00001000     0.04494208     0.09755937     0.15916263
               0.23128650     0.31572767     0.41458969     0.53033537
               0.66584808     0.82450364     1.01025438     1.22772762
               1.48234092     1.78043706     2.12944203     2.53805004
               3.01644009     3.57652955     4.23227104     5.00000000

     Gradients computed in reciprocal space

     Adding external electric field

     Computed dipole along edir(3) :
        Dipole               -0.0002 Ry au,         -0.0006 Debye
        Dipole field         -0.0000 Ry au

        Potential amp.        0.0001 Ry
        Total length         45.8022 bohr

     Starting wfc are  113 randomized atomic wfcs

     Self-consistent Calculation

     iteration #  1     ecut=    36.75 Ry     beta=0.30
     Davidson diagonalization with overlap
     ethr =  1.00E-02,  avg # of iterations =  2.5

     Threshold (ethr) on eigenvalues was too large:
     Diagonalizing with lowered threshold

     Davidson diagonalization with overlap
     ethr =  2.56E-04,  avg # of iterations =  6.0

[...]

     total energy              =   -1425.96297958 Ry
     Harris-Foulkes estimate   =   -1426.10600983 Ry
     estimated scf accuracy    <       0.44690150 Ry

[...]

     End of self-consistent calculation

          k = 0.0000 0.0000 0.0000 ( 19315 PWs)   bands (ev):

   -14.3620  -8.3014  -6.9840  -5.6554  -5.6554  -5.6299  -5.3846  -5.1285
    -5.1285  -5.1202  -4.9062  -4.8176  -4.8176  -4.6390  -4.6390  -4.5633
    -4.3730  -4.2699  -4.2699  -3.5845  -3.5845  -3.5279  -3.4502  -3.4502
    -3.3727  -3.2870  -3.2870  -3.2605  -3.1429  -3.1429  -3.0619  -2.9241
    -2.9241  -2.8605  -2.8605  -2.7539  -2.3986  -2.3986  -2.3442  -2.2137
    -2.1164  -2.1164  -1.8569  -1.8569  -1.7781  -1.7781  -1.5421  -1.4318
    -1.4318  -1.3847  -1.3066  -1.3066  -1.2236  -1.2081  -1.2081  -1.1197
    -1.1197  -1.1018  -0.9961  -0.9961  -0.9595  -0.6887  -0.6851  -0.6851
    -0.4302  -0.4302  -0.0832   1.3270   1.4628   1.4628   1.7826   2.1726
     2.1726   2.4102   2.5071   2.5071   2.8912   3.8979   4.0989

[...]

          k =-0.0840 0.0485 0.0000 ( 19380 PWs)   bands (ev):

[...]

     the Fermi energy is     0.9739 ev

!    total energy              =   -1426.02640075 Ry
     Harris-Foulkes estimate   =   -1426.02644435 Ry
     estimated scf accuracy    <       0.00000808 Ry

     The total energy is the sum of the following terms:

     one-electron contribution =   -8355.19060011 Ry
     hartree contribution      =    4278.38171726 Ry
     xc contribution           =    -777.95250824 Ry
     ewald contribution        =    3428.76051305 Ry
     electric field correction =       0.00038330 Ry
     smearing contrib. (-TS)   =      -0.02590602 Ry

     convergence has been achieved in   9 iterations

 BEEF-vdW xc energy contributions
           1 :   -695.056618180869
           2 :    645.851009188609
           3 :   -557.878487903549
           4 :    448.210943718331
           5 :   -335.288663928170
           6 :    234.192423027742
           7 :   -153.776205871840
           8 :    96.1572188390977
           9 :   -58.3122415913293
          10 :    34.7796151432208
          11 :   -20.2473157686896
          12 :    11.0668489308916
          13 :   -5.42989848754473
          14 :    2.59141836857953
          15 :   -1.87971821106885
          16 :    2.12251509324074
          17 :   -1.75837240488431
          18 :  -0.544888185969285
          19 :    5.20206458727466
          20 :   -11.4095474575388
          21 :    17.4392334463763
          22 :   -21.4062471673493
          23 :    22.1182728777392
          24 :   -19.5883188581827
          25 :    14.9722961215983
          26 :   -9.99740985793187
          27 :    6.18815589252893
          28 :   -4.27849730638604
          29 :    4.06796110972857
          30 :   -4.73909709575423
          31 :   -55.2252673636212
          32 :   -40.2331429783242

     Forces acting on atoms (Ry/au):

     negative rho (up, down):  1.570E-04 0.000E+00
     atom    1 type  1   force =     0.00000322   -0.00000457   -0.00349372
     atom    2 type  1   force =     0.00000539    0.00103584   -0.00336456
     atom    3 type  1   force =     0.00090386   -0.00050967   -0.00338766
     atom    4 type  1   force =    -0.00090758   -0.00051669   -0.00336683
     atom    5 type  1   force =     0.00177133   -0.00102389   -0.00072198
     atom    6 type  1   force =    -0.00176811   -0.00103335   -0.00072958
     atom    7 type  1   force =    -0.00000049   -0.00000111    0.02444784
     atom    8 type  1   force =     0.00000088    0.00203483   -0.00070467
     atom    9 type  1   force =    -0.06661777   -0.03846716   -0.03013103
     atom   10 type  1   force =     0.06660510   -0.03846165   -0.03013768
     atom   11 type  1   force =     0.00000806    0.07693557   -0.03013754
     atom   12 type  1   force =    -0.00000096    0.00000640   -0.01617448
     atom   13 type  2   force =    -0.00000190    0.00000267   -0.03928407
     atom   14 type  3   force =    -0.00000104    0.00000279    0.13718596

     Total force =     0.202735     Total SCF correction =     0.004304

     entering subroutine stress ...

     negative rho (up, down):  1.570E-04 0.000E+00
          total   stress  (Ry/bohr**3)                   (kbar)     P=    4.89
  -0.00000961   0.00000000  -0.00000000         -1.41      0.00     -0.00
   0.00000000  -0.00000961   0.00000000          0.00     -1.41      0.00
  -0.00000000   0.00000000   0.00011902         -0.00      0.00     17.51

     BFGS Geometry Optimization

     number of scf cycles    =   1
     number of bfgs steps    =   0

     energy   new            =   -1426.0264007517 Ry

     new trust radius        =       0.1371859581 bohr
     new conv_thr            =       0.0000099958 Ry

ATOMIC_POSITIONS (crystal)
Au1      0.166666667   0.166666667   0.402269971    0   0   0
Au1      0.666666667   0.166666667   0.402269971    0   0   0
Au1      0.166666667   0.666666667   0.402269971    0   0   0
Au1      0.666666667   0.666666667   0.402269971    0   0   0
Au1      0.833333333   0.333333333   0.500000000    0   0   0
Au1      0.333333333   0.333333333   0.500000000    0   0   0
Au1      0.833333333   0.833333333   0.500000000    0   0   0
Au1      0.333333333   0.833333333   0.500000000    0   0   0
Au1     -0.003948968  -0.003949795   0.597088623
Au1      0.507897354  -0.003949230   0.597088482
Au1     -0.003949143   0.507899719   0.597088485
Au1      0.499999586   0.500000657   0.597385719
S1       0.166666361   0.166666941   0.659909372
H1       0.166666431   0.166666953   0.713949673

     Writing output data file calc.save
     NEW-OLD atomic charge density approx. for the potential

[...]

     energy   old            =   -1426.0264007517 Ry
     energy   new            =   -1426.0542602760 Ry

     CASE: energy  _new < energy  _old

[...]

     Total force =     0.010362     Total SCF correction =     0.000986

[...]

     Total force =     0.002936     Total SCF correction =     0.000640
     SCF correction compared to forces is large: reduce conv_thr to get better values

[...]

     number of scf cycles    =  15
     number of bfgs steps    =  14

     energy   old            =   -1426.0809775337 Ry
     energy   new            =   -1426.0810710674 Ry

     CASE: energy  _new < energy  _old

     new trust radius        =       0.0066410919 bohr
     new conv_thr            =       0.0000001000 Ry

ATOMIC_POSITIONS (crystal)
Au1      0.166666667   0.166666667   0.402269971    0   0   0
Au1      0.666666667   0.166666667   0.402269971    0   0   0
Au1      0.166666667   0.666666667   0.402269971    0   0   0
Au1      0.666666667   0.666666667   0.402269971    0   0   0
Au1      0.833333333   0.333333333   0.500000000    0   0   0
Au1      0.333333333   0.333333333   0.500000000    0   0   0
Au1      0.833333333   0.833333333   0.500000000    0   0   0
Au1      0.333333333   0.833333333   0.500000000    0   0   0
Au1     -0.007819263  -0.007819999   0.598007520
Au1      0.515638141  -0.007819171   0.598007600
Au1     -0.007819946   0.515640200   0.598007507
Au1      0.499998588   0.500001245   0.594076544
S1       0.166666905   0.166666498   0.672962878
H1       0.166666100   0.166667391   0.727961138

     Writing output data file calc.save
     NEW-OLD atomic charge density approx. for the potential

     Check: negative/imaginary core charge=   -0.000002    0.000000

[...]

     Self-consistent Calculation

[...]

     Threshold (ethr) on eigenvalues was too large:
     Diagonalizing with lowered threshold

     Davidson diagonalization with overlap
     ethr =  2.40E-08,  avg # of iterations =  3.2

[...]

     total energy              =   -1426.08108020 Ry
     Harris-Foulkes estimate   =   -1426.08108005 Ry
     estimated scf accuracy    <       0.00000022 Ry

     iteration #  6     ecut=    36.75 Ry     beta=0.30
     Davidson diagonalization with overlap
     ethr =  1.55E-10,  avg # of iterations =  2.9

[...]

     negative rho (up, down):  1.489E-04 0.000E+00

     Adding external electric field

     Computed dipole along edir(3) :
        Dipole                0.2130 Ry au,          0.5414 Debye
        Dipole field          0.0005 Ry au

        Potential amp.       -0.0477 Ry
        Total length         45.8022 bohr

     End of self-consistent calculation

[...]

          k = 0.0560-0.0647 0.0000 ( 19376 PWs)   bands (ev):

[...]

          k =-0.0840-0.0485 0.0000 ( 19380 PWs)   bands (ev):

   -12.8179  -6.5543  -6.0588  -5.8354  -5.0539  -4.8996  -4.7989  -4.7698
    -4.7412  -4.6733  -4.6580  -4.6280  -4.4012  -4.3582  -4.2495  -4.2171
    -4.0989  -4.0582  -3.9314  -3.9159  -3.8604  -3.8339  -3.7858  -3.7313
    -3.6560  -3.5787  -3.5078  -3.4417  -3.3068  -3.2921  -3.1878  -3.1144
    -3.1005  -3.0431  -3.0317  -2.9860  -2.9521  -2.9153  -2.9041  -2.8391
    -2.8291  -2.6745  -2.6469  -2.5875  -2.5871  -2.5488  -2.4685  -2.4089
    -2.3973  -2.2816  -2.2334  -2.1608  -2.1426  -2.1391  -1.9736  -1.9416
    -1.9230  -1.8502  -1.7323  -1.6496  -1.4702  -1.4521  -1.3862  -1.2710
    -1.2253  -0.8651  -0.5266  -0.5144   0.5908   0.6587   1.1543   1.3105
     1.9274   1.9585   3.5648   3.9356   4.3511   4.3649   5.1986

     the Fermi energy is     0.6625 ev

!    total energy              =   -1426.08108023 Ry
     Harris-Foulkes estimate   =   -1426.08108027 Ry
     estimated scf accuracy    <       0.00000005 Ry

     The total energy is the sum of the following terms:

     one-electron contribution =   -8289.89970349 Ry
     hartree contribution      =    4245.14066912 Ry
     xc contribution           =    -777.73467681 Ry
     ewald contribution        =    3396.44041129 Ry
     electric field correction =       0.00011081 Ry
     smearing contrib. (-TS)   =      -0.02789115 Ry

     convergence has been achieved in   6 iterations

 BEEF-vdW xc energy contributions
           1 :   -694.827815120409
           2 :    645.514661170461
           3 :   -557.409153643837
           4 :    447.679396124616
           5 :   -334.815501366563
           6 :    233.881131282163
           7 :   -153.662404951256
           8 :    96.1984717175030
           9 :   -58.4175043043307
          10 :    34.8595984999188
          11 :   -20.2588657093995
          12 :    11.0288481366085
          13 :   -5.40319233331024
          14 :    2.63726374161956
          15 :   -2.02220477876767
          16 :    2.33490013936444
          17 :   -1.97728323618571
          18 :  -0.387663994302102
          19 :    5.14797444027829
          20 :   -11.4574055809724
          21 :    17.5506591907480
          22 :   -21.5266573350178
          23 :    22.2021482981045
          24 :   -19.6163840415938
          25 :    14.9536141114999
          26 :   -9.95811261994959
          27 :    6.15532692746433
          28 :   -4.26851598562507
          29 :    4.08394382812753
          30 :   -4.77541271834377
          31 :   -55.2088197799058
          32 :   -40.1890652815280

     Forces acting on atoms (Ry/au):

     negative rho (up, down):  1.489E-04 0.000E+00
     atom    1 type  1   force =     0.00000001    0.00000002   -0.00253039
     atom    2 type  1   force =     0.00000001    0.00063159   -0.00362249
     atom    3 type  1   force =     0.00054697   -0.00031582   -0.00362251
     atom    4 type  1   force =    -0.00054699   -0.00031584   -0.00362253
     atom    5 type  1   force =     0.00602511   -0.00347863    0.00130014
     atom    6 type  1   force =    -0.00602526   -0.00347887    0.00129975
     atom    7 type  1   force =    -0.00000017    0.00000018    0.01035982
     atom    8 type  1   force =     0.00000013    0.00695755    0.00129941
     atom    9 type  1   force =     0.00012352    0.00007341   -0.00038651
     atom   10 type  1   force =    -0.00012279    0.00007180   -0.00038739
     atom   11 type  1   force =    -0.00000096   -0.00014470   -0.00038644
     atom   12 type  1   force =     0.00000098   -0.00000147    0.00016971
     atom   13 type  2   force =    -0.00000068    0.00000090    0.00011793
     atom   14 type  3   force =     0.00000011   -0.00000012    0.00001149

     Total force =     0.000744     Total SCF correction =     0.000647
     SCF correction compared to forces is large: reduce conv_thr to get better values

     entering subroutine stress ...

     negative rho (up, down):  1.489E-04 0.000E+00
          total   stress  (Ry/bohr**3)                   (kbar)     P=   -4.45
  -0.00005024   0.00000000  -0.00000000         -7.39      0.00     -0.00
   0.00000000  -0.00005024   0.00000000          0.00     -7.39      0.00
  -0.00000000   0.00000000   0.00000977         -0.00      0.00      1.44

     bfgs converged in  16 scf cycles and  15 bfgs steps
     (criteria: energy <  1.0E+00, force <  1.9E-03)

     End of BFGS Geometry Optimization

     Final energy   =   -1426.0810802296 Ry
Begin final coordinates

ATOMIC_POSITIONS (crystal)
Au1      0.166666667   0.166666667   0.402269971    0   0   0
Au1      0.666666667   0.166666667   0.402269971    0   0   0
Au1      0.166666667   0.666666667   0.402269971    0   0   0
Au1      0.666666667   0.666666667   0.402269971    0   0   0
Au1      0.833333333   0.333333333   0.500000000    0   0   0
Au1      0.333333333   0.333333333   0.500000000    0   0   0
Au1      0.833333333   0.833333333   0.500000000    0   0   0
Au1      0.333333333   0.833333333   0.500000000    0   0   0
Au1     -0.007819263  -0.007819999   0.598007520
Au1      0.515638141  -0.007819171   0.598007600
Au1     -0.007819946   0.515640200   0.598007507
Au1      0.499998588   0.500001245   0.594076544
S1       0.166666905   0.166666498   0.672962878
H1       0.166666100   0.166667391   0.727961138
End final coordinates

     Writing output data file calc.save

     General routines

     Parallel routines

   This run was terminated on:  14: 6:58  16Apr2018

   JOB DONE.
Job  /afs/slac/g/suncat/bin/suncat-tsmpirun -x LD_LIBRARY_PATH -wdir /scratch/qe125003_KAzmk pw.x -npool 4 -in pw.inp

TID   HOST_NAME   COMMAND_LINE            STATUS            TERMINATION_TIME
00000 suncat0057 pw.x -npool 4 -i  Done                     04/16/2018 14:06:58
00001 suncat0057 pw.x -npool 4 -i  Done                     04/16/2018 14:06:58
00002 suncat0057 pw.x -npool 4 -i  Done                     04/16/2018 14:06:58
00003 suncat0057 pw.x -npool 4 -i  Done                     04/16/2018 14:06:58
00004 suncat0057 pw.x -npool 4 -i  Done                     04/16/2018 14:06:58
00005 suncat0057 pw.x -npool 4 -i  Done                     04/16/2018 14:06:58
00006 suncat0057 pw.x -npool 4 -i  Done                     04/16/2018 14:06:58
00007 suncat0057 pw.x -npool 4 -i  Done                     04/16/2018 14:06:58
00008 suncat0047 pw.x -npool 4 -i  Done                     04/16/2018 14:06:58
00009 suncat0047 pw.x -npool 4 -i  Done                     04/16/2018 14:06:58
00010 suncat0047 pw.x -npool 4 -i  Done                     04/16/2018 14:06:58
00011 suncat0047 pw.x -npool 4 -i  Done                     04/16/2018 14:06:58
00012 suncat0047 pw.x -npool 4 -i  Done                     04/16/2018 14:06:58
00013 suncat0047 pw.x -npool 4 -i  Done                     04/16/2018 14:06:58
00014 suncat0047 pw.x -npool 4 -i  Done                     04/16/2018 14:06:58
00015 suncat0047 pw.x -npool 4 -i  Done                     04/16/2018 14:06:58
00016 suncat0213 pw.x -npool 4 -i  Done                     04/16/2018 14:06:58
00017 suncat0213 pw.x -npool 4 -i  Done                     04/16/2018 14:06:58
00018 suncat0213 pw.x -npool 4 -i  Done                     04/16/2018 14:06:58
00019 suncat0213 pw.x -npool 4 -i  Done                     04/16/2018 14:06:58
00020 suncat0213 pw.x -npool 4 -i  Done                     04/16/2018 14:06:58
00021 suncat0213 pw.x -npool 4 -i  Done                     04/16/2018 14:06:58
00022 suncat0213 pw.x -npool 4 -i  Done                     04/16/2018 14:06:58
00023 suncat0213 pw.x -npool 4 -i  Done                     04/16/2018 14:06:58
00024 suncat0207 pw.x -npool 4 -i  Done                     04/16/2018 14:06:58
00025 suncat0207 pw.x -npool 4 -i  Done                     04/16/2018 14:06:58
00026 suncat0207 pw.x -npool 4 -i  Done                     04/16/2018 14:06:58
00027 suncat0207 pw.x -npool 4 -i  Done                     04/16/2018 14:06:58
00028 suncat0207 pw.x -npool 4 -i  Done                     04/16/2018 14:06:58
00029 suncat0207 pw.x -npool 4 -i  Done                     04/16/2018 14:06:58
00030 suncat0207 pw.x -npool 4 -i  Done                     04/16/2018 14:06:58
00031 suncat0207 pw.x -npool 4 -i  Done                     04/16/2018 14:06:58