     Program PWSCF v.5.1rc2 (svn rev. 11289) starts on  2May2018 at 16:32:28

     Current dimensions of program PWSCF are:
     Max number of different atomic species (ntypx) = 10
     Max number of k-points (npk) =  40000
     Max angular momentum in pseudopotentials (lmaxx) =  3
     Presently stress not available with electric field

     IMPORTANT: XC functional enforced from input :
     Exchange-correlation      = BEEF-VDW ( 1  4 27 13 2)
     Any further DFT definition will be discarded
     Please, verify this is what you really want

     Subspace diagonalization in iterative solution of the eigenvalue problem:
     a serial algorithm will be used

     bravais-lattice index     =            0
     lattice parameter (alat)  =       1.8897  a.u.
     unit-cell volume          =    4301.6107 (a.u.)^3
     number of atoms/cell      =           13
     number of atomic types    =            2
     number of electrons       =       185.00
     number of Kohn-Sham states=          102
     kinetic-energy cutoff     =      36.7493  Ry
     charge density cutoff     =     367.4932  Ry
     convergence threshold     =      1.0E-05
     mixing beta               =       0.3000
     number of iterations used =           10  plain     mixing
     Exchange-correlation      = BEEF-VDW ( 1  4 27 13 2)
     nstep                     =           50

     celldm(1)=   1.889726  celldm(2)=   0.000000  celldm(3)=   0.000000
     celldm(4)=   0.000000  celldm(5)=   0.000000  celldm(6)=   0.000000

     crystal axes: (cart. coord. in units of alat)
               a(1) = (   5.483647   0.000000   0.000000 )
               a(2) = (   2.741823   4.748977   0.000000 )
               a(3) = (   0.000000   0.000000  24.477379 )

     reciprocal axes: (cart. coord. in units 2 pi/alat)
               b(1) = (  0.182360 -0.105286  0.000000 )
               b(2) = (  0.000000  0.210572  0.000000 )
               b(3) = (  0.000000  0.000000  0.040854 )

     PseudoPot. # 1 for Tc read from file:
     /u/if/mamunm/psp/gbrv1.5pbe/Tc.UPF
     MD5 check sum: 9eb49e5b028550b2339a02317eb7b844
     Pseudo is Ultrasoft + core correction, Zval = 15.0
     Generated by new atomic code, or converted to UPF format
     Using radial grid of  965 points,  6 beta functions with:
                l(1) =   0
                l(2) =   0
                l(3) =   1
                l(4) =   1
                l(5) =   2
                l(6) =   2
     Q(r) pseudized with  8 coefficients,  rinner =    1.300   1.300   1.300
                                                       1.300   1.300

     PseudoPot. # 2 for N  read from file:
     /u/if/mamunm/psp/gbrv1.5pbe/N.UPF
     MD5 check sum: 95339753478d7afb44899504a8723017
     Pseudo is Ultrasoft + core correction, Zval =  5.0
     Generated by new atomic code, or converted to UPF format
     Using radial grid of  729 points,  4 beta functions with:
                l(1) =   0
                l(2) =   0
                l(3) =   1
                l(4) =   1
     Q(r) pseudized with  8 coefficients,  rinner =    0.900   0.900   0.900

     vdW kernel table read from file vdW_kernel_table
     MD5 check sum: 095c7af220d748ca6e76c0b4c6cfb241

     atomic species   valence    mass     pseudopotential
        Tc1           15.00    97.90721     Tc( 1.00)
        N1             5.00    14.00700     N ( 1.00)

     No symmetry found

   Cartesian axes

     site n.     atom                  positions (alat units)
         1           Tc1 tau(   1) = (   1.3709117   0.7914962  10.0000000  )
         2           Tc1 tau(   2) = (   4.1127351   0.7914962  10.0000000  )
         3           Tc1 tau(   3) = (   2.7418234   3.1659850  10.0000000  )
         4           Tc1 tau(   4) = (   5.4836469   3.1659850  10.0000000  )
         5           Tc1 tau(   5) = (   5.4836469   1.5829925  12.2386895  )
         6           Tc1 tau(   6) = (   2.7418234   1.5829925  12.2386895  )
         7           Tc1 tau(   7) = (   6.8545586   3.9574812  12.2386895  )
         8           Tc1 tau(   8) = (   4.1127351   3.9574812  12.2386895  )
         9           Tc1 tau(   9) = (   0.0000000   0.0000000  14.4773789  )
        10           Tc1 tau(  10) = (   2.7418234   0.0000000  14.4773789  )
        11           Tc1 tau(  11) = (   1.3709117   2.3744887  14.4773789  )
        12           Tc1 tau(  12) = (   4.1127351   2.3744887  14.4773789  )
        13           N1  tau(  13) = (   1.3709117   0.0000000  16.1123789  )

     number of k points=    20  Fermi-Dirac smearing, width (Ry)=  0.0110
                       cart. coord. in units 2pi/alat
        k(    1) = (   0.0000000   0.0000000   0.0000000), wk =   0.0555556
        k(    2) = (   0.0000000   0.0350953   0.0000000), wk =   0.1111111
        k(    3) = (   0.0000000   0.0701905   0.0000000), wk =   0.1111111
        k(    4) = (   0.0000000  -0.1052858   0.0000000), wk =   0.0555556
        k(    5) = (   0.0303934  -0.0175476   0.0000000), wk =   0.1111111
        k(    6) = (   0.0303934   0.0175476   0.0000000), wk =   0.1111111
        k(    7) = (   0.0303934   0.0526429   0.0000000), wk =   0.1111111
        k(    8) = (   0.0303934  -0.1228335   0.0000000), wk =   0.1111111
        k(    9) = (   0.0303934  -0.0877382   0.0000000), wk =   0.1111111
        k(   10) = (   0.0303934  -0.0526429   0.0000000), wk =   0.1111111
        k(   11) = (   0.0607868  -0.0350953   0.0000000), wk =   0.1111111
        k(   12) = (   0.0607868   0.0000000   0.0000000), wk =   0.1111111
        k(   13) = (   0.0607868   0.0350953   0.0000000), wk =   0.1111111
        k(   14) = (   0.0607868  -0.1403811   0.0000000), wk =   0.1111111
        k(   15) = (   0.0607868  -0.1052858   0.0000000), wk =   0.1111111
        k(   16) = (   0.0607868  -0.0701905   0.0000000), wk =   0.1111111
        k(   17) = (  -0.0911802   0.0526429   0.0000000), wk =   0.0555556
        k(   18) = (  -0.0911802   0.0877382   0.0000000), wk =   0.1111111
        k(   19) = (  -0.0911802   0.1228335   0.0000000), wk =   0.1111111
        k(   20) = (  -0.0911802  -0.0526429   0.0000000), wk =   0.0555556

     Largest allocated arrays     est. size (Mb)     dimensions
     Largest temporary arrays     est. size (Mb)     dimensions

     Check: negative/imaginary core charge=   -0.000022    0.000000

     Initial potential from superposition of free atoms
     Check: negative starting charge=   -1.504989

     starting charge  172.99966, renormalised to  185.00000

     negative rho (up, down):  1.609E+00 0.000E+00

     *
     * You are using vdW-DF for exchange-correlation in this calculation.
     * Please cite the following three references that made this development
     * possible:
     *
     *   M. Dion, H. Rydberg, E. Schroder, D. C. Langreth, and
     *   B. I. Lundqvist, Phys. Rev. Lett. 92, 246401 (2004).
     *
     *   T. Thonhauser, V. R. Cooper, S. Li, A. Puzder, P. Hyldgaard, and
     *   D. C. Langreth, Phys. Rev. B 76, 125112 (2007).
     *
     *   G. Roman-Perez and J. M. Soler, Phys. Rev. Lett. 103, 096102 (2009).
     *
     *
     * If you are using vdW-DF2, please also cite:
     *
     *   K. Lee, E. D. Murray, L. Kong, B. I. Lundqvist, and
     *   D. C. Langreth, Phys. Rev. B 82, 081101(R) (2010).
     *
     *
     * If you are calculating the stress with vdW-DF, please also cite:
     *
     *   R. Sabatini, E. Kucukbenli, B. Kolb, T. Thonhauser, and
     *   S. de Gironcoli, J. Phys.: Condens. Matter 24, 424209 (2012).
     *

     Carrying out vdW-DF run using the following parameters:

     Nqs =      20    Nr_points =    1024   r_max =   100.000
     q_mesh =
               0.00001000     0.04494208     0.09755937     0.15916263
               0.23128650     0.31572767     0.41458969     0.53033537
               0.66584808     0.82450364     1.01025438     1.22772762
               1.48234092     1.78043706     2.12944203     2.53805004
               3.01644009     3.57652955     4.23227104     5.00000000

     Gradients computed in reciprocal space

     Adding external electric field

     Computed dipole along edir(3) :
        Dipole               -2.5388 Ry au,         -6.4530 Debye
        Dipole field         -0.0074 Ry au

        Potential amp.        0.6690 Ry
        Total length         45.0992 bohr

     Starting wfc are  160 randomized atomic wfcs

     Self-consistent Calculation

     iteration #  1     ecut=    36.75 Ry     beta=0.30
     Davidson diagonalization with overlap
     ethr =  1.00E-02,  avg # of iterations =  5.0

[...]

     total energy              =   -1989.88420776 Ry
     Harris-Foulkes estimate   =   -2124.74922743 Ry
     estimated scf accuracy    <     281.93325237 Ry

[...]

     iteration # 36     ecut=    36.75 Ry     beta=0.30
     Davidson diagonalization with overlap
     c_bands:  1 eigenvalues not converged
     ethr =  4.03E-06,  avg # of iterations =  3.2

[...]

     End of self-consistent calculation

          k = 0.0000 0.0000 0.0000 ( 16073 PWs)   bands (ev):

   -65.2083 -65.1169 -65.0656 -65.0389 -65.0238 -65.0220 -64.9446 -64.9174
   -64.8745 -64.8279 -64.8228 -64.8107 -37.6447 -37.6303 -37.6291 -37.5746
   -37.5286 -37.5186 -37.4886 -37.3629 -37.3520 -37.3457 -37.0873 -37.0678
   -36.9897 -36.9746 -36.9550 -36.9224 -36.9083 -36.9047 -36.8988 -36.8793
   -36.7853 -36.7643 -36.7616 -36.7548 -36.7384 -36.7207 -36.6793 -36.6639
   -36.6601 -36.6159 -36.6060 -36.6054 -36.5535 -36.5234 -36.4151 -36.4100
   -10.9222  -4.3763  -3.1952  -3.1330  -3.1267  -3.0572  -2.9888  -2.7878
    -2.7449  -2.6947  -2.6106  -2.5144  -2.5139  -2.2891  -2.2274  -2.1827
    -1.2217  -1.1497  -0.9890  -0.6740  -0.3721  -0.1745  -0.0701   0.1079
     0.3348   0.3671   0.4070   0.5187   0.6732   0.7621   0.7829   0.8513
     0.8858   0.9276   0.9532   1.3352   1.3896   1.5609   1.7815   2.2253
     2.3868   2.4326   2.4752   2.6138   2.7753   2.8467   2.9785   3.1737
     3.2686   3.3208   3.6285   3.9309   4.0567   4.0943

[...]

          k =-0.0912 0.0526 0.0000 ( 16164 PWs)   bands (ev):

[...]

     the Fermi energy is     2.0812 ev

!    total energy              =   -2123.62413348 Ry
     Harris-Foulkes estimate   =   -2123.62414374 Ry
     estimated scf accuracy    <       0.00000407 Ry

     The total energy is the sum of the following terms:

     one-electron contribution =  -19028.07848019 Ry
     hartree contribution      =    9512.76564188 Ry
     xc contribution           =    -402.22694226 Ry
     ewald contribution        =    7794.00399252 Ry
     electric field correction =       0.00027304 Ry
     smearing contrib. (-TS)   =      -0.08861847 Ry

     convergence has been achieved in  45 iterations

 BEEF-vdW xc energy contributions
           1 :   -352.315947729367
           2 :    323.791585356545
           3 :   -273.128247587880
           4 :    210.562902219641
           5 :   -146.950856056092
           6 :    90.7812779775213
           7 :   -46.5494908431249
           8 :    14.6756385665993
           9 :    7.21722267926907
          10 :   -22.4455470911273
          11 :    33.5908594637028
          12 :   -41.6497540599918
          13 :    46.1192490219651
          14 :   -45.8136895429390
          15 :    39.9050265830359
          16 :   -28.7251559216124
          17 :    13.9945966991112
          18 :    1.56483532264053
          19 :   -15.0463640811952
          20 :    24.2229638179306
          21 :   -28.1177111506756
          22 :    27.0717597670528
          23 :   -22.3543298675243
          24 :    15.5375433332969
          25 :   -7.94231757306864
          26 :   0.372381093925583
          27 :    6.80948015111056
          28 :   -13.3910442410445
          29 :    19.0153927689196
          30 :   -23.0654963304559
          31 :   -33.6151747523605
          32 :   -24.6481702706160

     Forces acting on atoms (Ry/au):

     negative rho (up, down):  1.591E+00 0.000E+00
     atom    1 type  1   force =    -0.00007639    0.00194247    0.02816798
     atom    2 type  1   force =     0.00009115   -0.00181125    0.02800072
     atom    3 type  1   force =    -0.00370679    0.00055155    0.03109890
     atom    4 type  1   force =     0.00371073    0.00044977    0.03120653
     atom    5 type  1   force =     0.00314098    0.00557744   -0.00293585
     atom    6 type  1   force =    -0.00316045    0.00549072   -0.00282799
     atom    7 type  1   force =    -0.00006447   -0.01271682   -0.04244508
     atom    8 type  1   force =     0.00008071   -0.00674470    0.00758843
     atom    9 type  1   force =     0.02327449    0.01666793    0.07915152
     atom   10 type  1   force =    -0.02328429    0.01654991    0.07923560
     atom   11 type  1   force =    -0.00009500   -0.00119344   -0.02011408
     atom   12 type  1   force =     0.00008449   -0.01825108   -0.02756259
     atom   13 type  2   force =     0.00000485   -0.00651251   -0.18856409

     Total force =     0.226443     Total SCF correction =     0.007274

     entering subroutine stress ...

     negative rho (up, down):  1.591E+00 0.000E+00
          total   stress  (Ry/bohr**3)                   (kbar)     P=  -40.20
  -0.00023987   0.00000000  -0.00000002        -35.29      0.00     -0.00
   0.00000000  -0.00024009   0.00000125          0.00    -35.32      0.18
  -0.00000002   0.00000125  -0.00033985         -0.00      0.18    -49.99

     BFGS Geometry Optimization

     number of scf cycles    =   1
     number of bfgs steps    =   0

     energy   new            =   -2123.6241334826 Ry

     new trust radius        =       0.1886765185 bohr
     new conv_thr            =       0.0000099958 Ry

ATOMIC_POSITIONS (crystal)
Tc1      0.166666667   0.166666667   0.408540475    0   0   0
Tc1      0.666666667   0.166666667   0.408540475    0   0   0
Tc1      0.166666667   0.666666667   0.408540475    0   0   0
Tc1      0.666666667   0.666666667   0.408540475    0   0   0
Tc1      0.833333333   0.333333333   0.500000000    0   0   0
Tc1      0.333333333   0.333333333   0.500000000    0   0   0
Tc1      0.833333333   0.833333333   0.500000000    0   0   0
Tc1      0.333333333   0.833333333   0.500000000    0   0   0
Tc1      0.001317359   0.001857303   0.593170704
Tc1      0.496830968   0.001844152   0.593172522
Tc1      0.000057325   0.499867016   0.591024678
Tc1      0.501025010   0.497966287   0.590863649
N1       0.250363311  -0.000725687   0.654179320

     Writing output data file calc.save
     Check: negative starting charge=   -1.504989
     NEW-OLD atomic charge density approx. for the potential

     Check: negative/imaginary core charge=   -0.000022    0.000000
     Check: negative starting charge=   -1.506880

[...]

     energy   old            =   -2123.6241334826 Ry
     energy   new            =   -2123.6700373824 Ry

     CASE: energy  _new < energy  _old

[...]

     CASE: energy  _new > energy  _old

[...]

     iteration #  1     ecut=    36.75 Ry     beta=0.30
     Davidson diagonalization with overlap
     c_bands:  1 eigenvalues not converged
     ethr =  1.00E-06,  avg # of iterations = 13.9

[...]

     Total force =     0.010447     Total SCF correction =     0.001156
     SCF correction compared to forces is large: reduce conv_thr to get better values

[...]

     Total force =     0.006107     Total SCF correction =     0.000370

[...]

     number of scf cycles    =  27
     number of bfgs steps    =  25

     energy   old            =   -2123.7697037488 Ry
     energy   new            =   -2123.7698532804 Ry

     CASE: energy  _new < energy  _old

     new trust radius        =       0.0092734328 bohr
     new conv_thr            =       0.0000001000 Ry

ATOMIC_POSITIONS (crystal)
Tc1      0.166666667   0.166666667   0.408540475    0   0   0
Tc1      0.666666667   0.166666667   0.408540475    0   0   0
Tc1      0.166666667   0.666666667   0.408540475    0   0   0
Tc1      0.666666667   0.666666667   0.408540475    0   0   0
Tc1      0.833333333   0.333333333   0.500000000    0   0   0
Tc1      0.333333333   0.333333333   0.500000000    0   0   0
Tc1      0.833333333   0.833333333   0.500000000    0   0   0
Tc1      0.333333333   0.833333333   0.500000000    0   0   0
Tc1     -0.007599802   0.003959920   0.589585011
Tc1      0.503639014   0.003959598   0.589584858
Tc1     -0.000017193   0.500034000   0.584984572
Tc1      0.503839509   0.492321207   0.589696601
N1       0.333207658  -0.166417030   0.633315004

     Writing output data file calc.save
     Check: negative starting charge=   -1.499458
     NEW-OLD atomic charge density approx. for the potential

     Check: negative/imaginary core charge=   -0.000022    0.000000
     Check: negative starting charge=   -1.499323

[...]

     Self-consistent Calculation

[...]

     total energy              =   -2123.76989177 Ry
     Harris-Foulkes estimate   =   -2123.76989178 Ry
     estimated scf accuracy    <       0.00000016 Ry

     iteration # 13     ecut=    36.75 Ry     beta=0.30
     Davidson diagonalization with overlap
     ethr =  6.02E-11,  avg # of iterations =  1.0

[...]

     negative rho (up, down):  1.586E+00 0.000E+00

     Adding external electric field

     Computed dipole along edir(3) :
        Dipole               -0.0545 Ry au,         -0.1386 Debye
        Dipole field         -0.0002 Ry au

        Potential amp.        0.0144 Ry
        Total length         45.0992 bohr

     End of self-consistent calculation

[...]

          k = 0.0608-0.0702 0.0000 ( 16203 PWs)   bands (ev):

[...]

          k =-0.0912-0.0526 0.0000 ( 16164 PWs)   bands (ev):

   -64.8018 -64.7893 -64.7169 -64.7014 -64.6989 -64.6866 -64.6561 -64.5706
   -64.5613 -64.5080 -64.4997 -64.4905 -37.2510 -37.1753 -37.1503 -37.1373
   -37.0926 -37.0786 -36.9539 -36.9202 -36.9071 -36.8850 -36.8460 -36.8451
   -36.8280 -36.7052 -36.6596 -36.6011 -36.5895 -36.5874 -36.5744 -36.5636
   -36.5528 -36.5329 -36.5111 -36.4860 -36.4738 -36.4725 -36.4640 -36.4620
   -36.3927 -36.3621 -36.3473 -36.3183 -36.2697 -36.2356 -36.1925 -36.1836
   -12.2207  -3.3709  -2.5612  -2.4803  -2.4291  -2.3883  -1.9713  -1.8637
    -1.8483  -1.5985  -1.4909  -1.4482  -1.2926  -1.2129  -1.1443  -1.0479
    -0.9443  -0.8945  -0.8061  -0.4364  -0.2847  -0.1670  -0.1288  -0.0004
     0.0658   0.2558   0.3461   0.5016   0.6389   0.6595   0.9344   0.9758
     1.0003   1.0409   1.0974   1.1278   1.1570   1.3005   1.3153   1.3313
     1.3914   1.6883   2.0118   2.2099   2.2244   2.2806   2.5398   2.5752
     2.5884   2.7875   2.8367   3.0209   3.0676   3.0939

     the Fermi energy is     2.4090 ev

!    total energy              =   -2123.76989171 Ry
     Harris-Foulkes estimate   =   -2123.76989172 Ry
     estimated scf accuracy    <       0.00000007 Ry

     The total energy is the sum of the following terms:

     one-electron contribution =  -19405.40399294 Ry
     hartree contribution      =    9703.12322812 Ry
     xc contribution           =    -402.79787547 Ry
     ewald contribution        =    7981.39523712 Ry
     electric field correction =       0.00000869 Ry
     smearing contrib. (-TS)   =      -0.08649724 Ry

     convergence has been achieved in  13 iterations

 BEEF-vdW xc energy contributions
           1 :   -352.899446985714
           2 :    324.564810224916
           3 :   -274.131493340339
           4 :    211.658736886843
           5 :   -147.904850547701
           6 :    91.3744295237980
           7 :   -46.6722577586776
           8 :    14.3738074092105
           9 :    7.75881575804010
          10 :   -22.9812216436876
          11 :    33.9189978276438
          12 :   -41.6923091479326
          13 :    45.9408773450892
          14 :   -45.5754245071491
          15 :    39.7783968974219
          16 :   -28.8092260765799
          17 :    14.2714041390195
          18 :    1.21625352268461
          19 :   -14.7849351303994
          20 :    24.1645469369537
          21 :   -28.2785088555189
          22 :    27.3622857307434
          23 :   -22.6244014731511
          24 :    15.6473709525052
          25 :   -7.82666159423093
          26 :   6.924587885566780E-002
          27 :    7.17751121366109
          28 :   -13.6748494984997
          29 :    19.1075932171501
          30 :   -22.9457570229690
          31 :   -33.6520409520240
          32 :   -24.7264133937443

     Forces acting on atoms (Ry/au):

     negative rho (up, down):  1.586E+00 0.000E+00
     atom    1 type  1   force =    -0.00000004   -0.00018351    0.02181589
     atom    2 type  1   force =    -0.00000005   -0.00000797    0.02490648
     atom    3 type  1   force =     0.00013265    0.00010092    0.02184054
     atom    4 type  1   force =    -0.00013279    0.00010095    0.02184078
     atom    5 type  1   force =     0.00329976    0.00201445   -0.02782417
     atom    6 type  1   force =    -0.00329966    0.00201449   -0.02782391
     atom    7 type  1   force =    -0.00000014   -0.00385620   -0.02788209
     atom    8 type  1   force =    -0.00000004   -0.00002341   -0.00769668
     atom    9 type  1   force =     0.00061476   -0.00080769    0.00080056
     atom   10 type  1   force =    -0.00061474   -0.00080706    0.00080231
     atom   11 type  1   force =     0.00000014    0.00020062    0.00013571
     atom   12 type  1   force =    -0.00000080    0.00141397   -0.00001415
     atom   13 type  2   force =     0.00000095   -0.00015953   -0.00090127

     Total force =     0.002498     Total SCF correction =     0.001452
     SCF correction compared to forces is large: reduce conv_thr to get better values

     entering subroutine stress ...

     negative rho (up, down):  1.586E+00 0.000E+00
          total   stress  (Ry/bohr**3)                   (kbar)     P=  -16.40
  -0.00011392  -0.00000000   0.00000000        -16.76     -0.00      0.00
  -0.00000000  -0.00011377  -0.00000020         -0.00    -16.74     -0.03
   0.00000000  -0.00000020  -0.00010676          0.00     -0.03    -15.70

     bfgs converged in  28 scf cycles and  26 bfgs steps
     (criteria: energy <  1.0E+00, force <  1.9E-03)

     End of BFGS Geometry Optimization

     Final energy   =   -2123.7698917110 Ry
Begin final coordinates

ATOMIC_POSITIONS (crystal)
Tc1      0.166666667   0.166666667   0.408540475    0   0   0
Tc1      0.666666667   0.166666667   0.408540475    0   0   0
Tc1      0.166666667   0.666666667   0.408540475    0   0   0
Tc1      0.666666667   0.666666667   0.408540475    0   0   0
Tc1      0.833333333   0.333333333   0.500000000    0   0   0
Tc1      0.333333333   0.333333333   0.500000000    0   0   0
Tc1      0.833333333   0.833333333   0.500000000    0   0   0
Tc1      0.333333333   0.833333333   0.500000000    0   0   0
Tc1     -0.007599802   0.003959920   0.589585011
Tc1      0.503639014   0.003959598   0.589584858
Tc1     -0.000017193   0.500034000   0.584984572
Tc1      0.503839509   0.492321207   0.589696601
N1       0.333207658  -0.166417030   0.633315004
End final coordinates

     Writing output data file calc.save

     General routines

     Parallel routines

   This run was terminated on:  20: 9:11   2May2018

   JOB DONE.
Job  /afs/slac/g/suncat/bin/suncat-tsmpirun -x LD_LIBRARY_PATH -wdir /scratch/qe799654_Ra6IL pw.x -npool 4 -in pw.inp

TID   HOST_NAME   COMMAND_LINE            STATUS            TERMINATION_TIME
00000 suncat0034 pw.x -npool 4 -i  Done                     05/02/2018 20:09:11
00001 suncat0034 pw.x -npool 4 -i  Done                     05/02/2018 20:09:11
00002 suncat0034 pw.x -npool 4 -i  Done                     05/02/2018 20:09:11
00003 suncat0034 pw.x -npool 4 -i  Done                     05/02/2018 20:09:11
00004 suncat0034 pw.x -npool 4 -i  Done                     05/02/2018 20:09:11
00005 suncat0034 pw.x -npool 4 -i  Done                     05/02/2018 20:09:11
00006 suncat0034 pw.x -npool 4 -i  Done                     05/02/2018 20:09:11
00007 suncat0034 pw.x -npool 4 -i  Done                     05/02/2018 20:09:11
00008 suncat0022 pw.x -npool 4 -i  Done                     05/02/2018 20:09:11
00009 suncat0022 pw.x -npool 4 -i  Done                     05/02/2018 20:09:11
00010 suncat0022 pw.x -npool 4 -i  Done                     05/02/2018 20:09:11
00011 suncat0022 pw.x -npool 4 -i  Done                     05/02/2018 20:09:11
00012 suncat0022 pw.x -npool 4 -i  Done                     05/02/2018 20:09:11
00013 suncat0022 pw.x -npool 4 -i  Done                     05/02/2018 20:09:11
00014 suncat0022 pw.x -npool 4 -i  Done                     05/02/2018 20:09:11
00015 suncat0022 pw.x -npool 4 -i  Done                     05/02/2018 20:09:11
00016 suncat0251 pw.x -npool 4 -i  Done                     05/02/2018 20:09:11
00017 suncat0251 pw.x -npool 4 -i  Done                     05/02/2018 20:09:11
00018 suncat0251 pw.x -npool 4 -i  Done                     05/02/2018 20:09:11
00019 suncat0251 pw.x -npool 4 -i  Done                     05/02/2018 20:09:11
00020 suncat0251 pw.x -npool 4 -i  Done                     05/02/2018 20:09:11
00021 suncat0251 pw.x -npool 4 -i  Done                     05/02/2018 20:09:11
00022 suncat0251 pw.x -npool 4 -i  Done                     05/02/2018 20:09:11
00023 suncat0251 pw.x -npool 4 -i  Done                     05/02/2018 20:09:11
00024 suncat0211 pw.x -npool 4 -i  Done                     05/02/2018 20:09:11
00025 suncat0211 pw.x -npool 4 -i  Done                     05/02/2018 20:09:11
00026 suncat0211 pw.x -npool 4 -i  Done                     05/02/2018 20:09:11
00027 suncat0211 pw.x -npool 4 -i  Done                     05/02/2018 20:09:11
00028 suncat0211 pw.x -npool 4 -i  Done                     05/02/2018 20:09:11
00029 suncat0211 pw.x -npool 4 -i  Done                     05/02/2018 20:09:11
00030 suncat0211 pw.x -npool 4 -i  Done                     05/02/2018 20:09:11
00031 suncat0211 pw.x -npool 4 -i  Done                     05/02/2018 20:09:11