     Program PWSCF v.5.1rc2 (svn rev. 11289) starts on 27Jan2018 at  8: 0: 0

     Current dimensions of program PWSCF are:
     Max number of different atomic species (ntypx) = 10
     Max number of k-points (npk) =  40000
     Max angular momentum in pseudopotentials (lmaxx) =  3
     Presently stress not available with electric field

     IMPORTANT: XC functional enforced from input :
     Exchange-correlation      = BEEF-VDW ( 1  4 27 13 2)
     Any further DFT definition will be discarded
     Please, verify this is what you really want

     Subspace diagonalization in iterative solution of the eigenvalue problem:
     a serial algorithm will be used

     bravais-lattice index     =            0
     lattice parameter (alat)  =       1.8897  a.u.
     unit-cell volume          =    7171.5276 (a.u.)^3
     number of atoms/cell      =           13
     number of atomic types    =            2
     number of electrons       =       172.00
     number of Kohn-Sham states=           96
     kinetic-energy cutoff     =      36.7493  Ry
     charge density cutoff     =     367.4932  Ry
     convergence threshold     =      1.0E-05
     mixing beta               =       0.3000
     number of iterations used =           10  plain     mixing
     Exchange-correlation      = BEEF-VDW ( 1  4 27 13 2)
     nstep                     =           50

     celldm(1)=   1.889726  celldm(2)=   0.000000  celldm(3)=   0.000000
     celldm(4)=   0.000000  celldm(5)=   0.000000  celldm(6)=   0.000000

     crystal axes: (cart. coord. in units of alat)
               a(1) = (   6.917003   0.000000   0.000000 )
               a(2) = (   3.458501   5.990300   0.000000 )
               a(3) = (   0.000000   0.000000  25.647709 )

     reciprocal axes: (cart. coord. in units 2 pi/alat)
               b(1) = (  0.144571 -0.083468  0.000000 )
               b(2) = (  0.000000  0.166937  0.000000 )
               b(3) = (  0.000000  0.000000  0.038990 )

     PseudoPot. # 1 for Pb read from file:
     /afs/slac.stanford.edu/u/if/mamunm/psp/gbrv1.5pbe/Pb.UPF
     MD5 check sum: 3d1c1779aa92214d1e8f3a7db79003e2
     Pseudo is Ultrasoft + core correction, Zval = 14.0
     Generated by new atomic code, or converted to UPF format
     Using radial grid of  899 points,  6 beta functions with:
                l(1) =   0
                l(2) =   0
                l(3) =   1
                l(4) =   1
                l(5) =   2
                l(6) =   2
     Q(r) pseudized with  6 coefficients,  rinner =    1.000   1.000   1.000
                                                       1.000   1.000

     PseudoPot. # 2 for C  read from file:
     /afs/slac.stanford.edu/u/if/mamunm/psp/gbrv1.5pbe/C.UPF
     MD5 check sum: d1aef80898a10debaa0f26306b886e00
     Pseudo is Ultrasoft + core correction, Zval =  4.0
     Generated by new atomic code, or converted to UPF format
     Using radial grid of  721 points,  4 beta functions with:
                l(1) =   0
                l(2) =   0
                l(3) =   1
                l(4) =   1
     Q(r) pseudized with  8 coefficients,  rinner =    1.100   1.100   1.100

     vdW kernel table read from file vdW_kernel_table
     MD5 check sum: 095c7af220d748ca6e76c0b4c6cfb241

     atomic species   valence    mass     pseudopotential
        Pb1           14.00   207.20000     Pb( 1.00)
        C1             4.00    12.01100     C ( 1.00)

     No symmetry found

   Cartesian axes

     site n.     atom                  positions (alat units)
         1           Pb1 tau(   1) = (   1.7292506   0.9983833  10.0000000  )
         2           Pb1 tau(   2) = (   5.1877519   0.9983833  10.0000000  )
         3           Pb1 tau(   3) = (   3.4585013   3.9935333  10.0000000  )
         4           Pb1 tau(   4) = (   6.9170025   3.9935333  10.0000000  )
         5           Pb1 tau(   5) = (   6.9170025   1.9967666  12.8238544  )
         6           Pb1 tau(   6) = (   3.4585013   1.9967666  12.8238544  )
         7           Pb1 tau(   7) = (   8.6462531   4.9919166  12.8238544  )
         8           Pb1 tau(   8) = (   5.1877519   4.9919166  12.8238544  )
         9           Pb1 tau(   9) = (   0.0000000   0.0000000  15.6477089  )
        10           Pb1 tau(  10) = (   3.4585013   0.0000000  15.6477089  )
        11           Pb1 tau(  11) = (   1.7292506   2.9951499  15.6477089  )
        12           Pb1 tau(  12) = (   5.1877519   2.9951499  15.6477089  )
        13           C1  tau(  13) = (   1.7292506   0.9983833  17.8677089  )

     number of k points=    20  Fermi-Dirac smearing, width (Ry)=  0.0110
                       cart. coord. in units 2pi/alat
        k(    1) = (   0.0000000   0.0000000   0.0000000), wk =   0.0555556
        k(    2) = (   0.0000000   0.0278228   0.0000000), wk =   0.1111111
        k(    3) = (   0.0000000   0.0556455   0.0000000), wk =   0.1111111
        k(    4) = (   0.0000000  -0.0834683   0.0000000), wk =   0.0555556
        k(    5) = (   0.0240952  -0.0139114   0.0000000), wk =   0.1111111
        k(    6) = (   0.0240952   0.0139114   0.0000000), wk =   0.1111111
        k(    7) = (   0.0240952   0.0417341   0.0000000), wk =   0.1111111
        k(    8) = (   0.0240952  -0.0973797   0.0000000), wk =   0.1111111
        k(    9) = (   0.0240952  -0.0695569   0.0000000), wk =   0.1111111
        k(   10) = (   0.0240952  -0.0417341   0.0000000), wk =   0.1111111
        k(   11) = (   0.0481904  -0.0278228   0.0000000), wk =   0.1111111
        k(   12) = (   0.0481904   0.0000000   0.0000000), wk =   0.1111111
        k(   13) = (   0.0481904   0.0278228   0.0000000), wk =   0.1111111
        k(   14) = (   0.0481904  -0.1112910   0.0000000), wk =   0.1111111
        k(   15) = (   0.0481904  -0.0834683   0.0000000), wk =   0.1111111
        k(   16) = (   0.0481904  -0.0556455   0.0000000), wk =   0.1111111
        k(   17) = (  -0.0722856   0.0417341   0.0000000), wk =   0.0555556
        k(   18) = (  -0.0722856   0.0695569   0.0000000), wk =   0.1111111
        k(   19) = (  -0.0722856   0.0973797   0.0000000), wk =   0.1111111
        k(   20) = (  -0.0722856  -0.0417341   0.0000000), wk =   0.0555556

     Largest allocated arrays     est. size (Mb)     dimensions
     Largest temporary arrays     est. size (Mb)     dimensions

     Check: negative/imaginary core charge=   -0.000001    0.000000

     Initial potential from superposition of free atoms
     Check: negative starting charge=   -0.197899

     starting charge  171.97174, renormalised to  172.00000

     negative rho (up, down):  1.979E-01 0.000E+00

     *
     * You are using vdW-DF for exchange-correlation in this calculation.
     * Please cite the following three references that made this development
     * possible:
     *
     *   M. Dion, H. Rydberg, E. Schroder, D. C. Langreth, and
     *   B. I. Lundqvist, Phys. Rev. Lett. 92, 246401 (2004).
     *
     *   T. Thonhauser, V. R. Cooper, S. Li, A. Puzder, P. Hyldgaard, and
     *   D. C. Langreth, Phys. Rev. B 76, 125112 (2007).
     *
     *   G. Roman-Perez and J. M. Soler, Phys. Rev. Lett. 103, 096102 (2009).
     *
     *
     * If you are using vdW-DF2, please also cite:
     *
     *   K. Lee, E. D. Murray, L. Kong, B. I. Lundqvist, and
     *   D. C. Langreth, Phys. Rev. B 82, 081101(R) (2010).
     *
     *
     * If you are calculating the stress with vdW-DF, please also cite:
     *
     *   R. Sabatini, E. Kucukbenli, B. Kolb, T. Thonhauser, and
     *   S. de Gironcoli, J. Phys.: Condens. Matter 24, 424209 (2012).
     *

     Carrying out vdW-DF run using the following parameters:

     Nqs =      20    Nr_points =    1024   r_max =   100.000
     q_mesh =
               0.00001000     0.04494208     0.09755937     0.15916263
               0.23128650     0.31572767     0.41458969     0.53033537
               0.66584808     0.82450364     1.01025438     1.22772762
               1.48234092     1.78043706     2.12944203     2.53805004
               3.01644009     3.57652955     4.23227104     5.00000000

     Gradients computed in reciprocal space

     Adding external electric field

     Computed dipole along edir(3) :
        Dipole               -0.0059 Ry au,         -0.0149 Debye
        Dipole field         -0.0000 Ry au

        Potential amp.        0.0010 Ry
        Total length         47.2555 bohr

     Starting wfc are  112 randomized atomic wfcs

     Self-consistent Calculation

     iteration #  1     ecut=    36.75 Ry     beta=0.30
     Davidson diagonalization with overlap
     ethr =  1.00E-02,  avg # of iterations =  2.0

[...]

     total energy              =   -2000.90283917 Ry
     Harris-Foulkes estimate   =   -2003.42633837 Ry
     estimated scf accuracy    <       5.42084130 Ry

[...]

     End of self-consistent calculation

          k = 0.0000 0.0000 0.0000 ( 27033 PWs)   bands (ev):

   -16.8562 -16.8545 -16.8545 -16.7977 -16.7977 -16.7952 -16.7740 -16.7740
   -16.7677 -16.7519 -16.7519 -16.7412 -16.7315 -16.7141 -16.7141 -16.7106
   -16.7106 -16.7053 -16.7053 -16.7004 -16.6856 -16.6760 -16.6760 -16.6514
   -16.6514 -16.6426 -16.6385 -16.6326 -16.6326 -16.5992 -16.5756 -16.5756
   -16.5410 -16.5410 -16.5325 -16.5223 -16.5050 -16.5050 -16.5005 -16.5005
   -16.4596 -16.4581 -16.4581 -16.4502 -16.4502 -16.4378 -16.4206 -16.4206
   -16.4179 -16.4140 -16.4140 -16.4078 -16.3968 -16.3968 -16.3777 -16.3776
   -16.3776 -16.3482 -16.3482 -16.3357 -10.8128  -9.7301  -8.3510  -7.4079
    -7.2463  -7.2463  -7.2452  -6.7789  -6.7789  -6.7450  -6.1565  -6.1565
    -6.1199  -2.9810  -2.9810  -2.9471  -2.3441  -1.9207  -1.9207  -1.8974
    -1.7961  -1.7961  -1.7537   0.3148   0.6226   0.6226   1.3091   1.9465
     1.9465   1.9753   2.4081   2.7146   2.7146   3.2138   3.3539   3.3741

[...]

          k =-0.0723 0.0417 0.0000 ( 26962 PWs)   bands (ev):

[...]

     the Fermi energy is     0.7643 ev

!    total energy              =   -2003.37514524 Ry
     Harris-Foulkes estimate   =   -2003.37519210 Ry
     estimated scf accuracy    <       0.00000383 Ry

     The total energy is the sum of the following terms:

     one-electron contribution =   -9493.27804123 Ry
     hartree contribution      =    4815.70532379 Ry
     xc contribution           =    -787.07689209 Ry
     ewald contribution        =    3461.32515316 Ry
     electric field correction =       0.00061526 Ry
     smearing contrib. (-TS)   =      -0.05130413 Ry

     convergence has been achieved in  14 iterations

 BEEF-vdW xc energy contributions
           1 :   -701.513725700840
           2 :    651.562905997809
           3 :   -563.642524602567
           4 :    457.032138188209
           5 :   -351.583274877644
           6 :    261.802646045448
           7 :   -193.727992482689
           8 :    145.336948533596
           9 :   -109.813711896288
          10 :    79.9007759800299
          11 :   -51.3170407157413
          12 :    23.9077333483890
          13 :  -0.449085914668785
          14 :   -15.8414374677850
          15 :    23.5776782972935
          16 :   -24.1206008767363
          17 :    20.8673463081420
          18 :   -17.5114855906834
          19 :    16.3258580498773
[...]

[...]

     Total force =     0.104089     Total SCF correction =     0.003538

[...]

     Total force =     0.098732     Total SCF correction =     0.017125
     SCF correction compared to forces is large: reduce conv_thr to get better values

[...]

   This run was terminated on:   9: 8:16  27Jan2018

[...]

     Program PWSCF v.5.1rc2 (svn rev. 11289) starts on 27Jan2018 at  9: 8:24

[...]

   This run was terminated on:  10:11: 2  27Jan2018

[...]

     Program PWSCF v.5.1rc2 (svn rev. 11289) starts on 27Jan2018 at 10:11: 8

[...]

     Program PWSCF v.5.1rc2 (svn rev. 11289) starts on 27Jan2018 at 10:35:58

     Current dimensions of program PWSCF are:
     Max number of different atomic species (ntypx) = 10
     Max number of k-points (npk) =  40000
     Max angular momentum in pseudopotentials (lmaxx) =  3
     Presently stress not available with electric field

     IMPORTANT: XC functional enforced from input :
     Exchange-correlation      = BEEF-VDW ( 1  4 27 13 2)
     Any further DFT definition will be discarded
     Please, verify this is what you really want

     Subspace diagonalization in iterative solution of the eigenvalue problem:
     a serial algorithm will be used

     bravais-lattice index     =            0
     lattice parameter (alat)  =       1.8897  a.u.
     unit-cell volume          =    7171.5276 (a.u.)^3
     number of atoms/cell      =           13
     number of atomic types    =            2
     number of electrons       =       172.00
     number of Kohn-Sham states=           96
     kinetic-energy cutoff     =      36.7493  Ry
     charge density cutoff     =     367.4932  Ry
     convergence threshold     =      1.0E-05
     mixing beta               =       0.3000
     number of iterations used =           10  plain     mixing
     Exchange-correlation      = BEEF-VDW ( 1  4 27 13 2)
     nstep                     =           50

     celldm(1)=   1.889726  celldm(2)=   0.000000  celldm(3)=   0.000000
     celldm(4)=   0.000000  celldm(5)=   0.000000  celldm(6)=   0.000000

     crystal axes: (cart. coord. in units of alat)
               a(1) = (   6.917003   0.000000   0.000000 )
               a(2) = (   3.458501   5.990300   0.000000 )
               a(3) = (   0.000000   0.000000  25.647709 )

     reciprocal axes: (cart. coord. in units 2 pi/alat)
               b(1) = (  0.144571 -0.083468  0.000000 )
               b(2) = (  0.000000  0.166937  0.000000 )
               b(3) = (  0.000000  0.000000  0.038990 )

     PseudoPot. # 1 for Pb read from file:
     /afs/slac.stanford.edu/u/if/mamunm/psp/gbrv1.5pbe/Pb.UPF
     MD5 check sum: 3d1c1779aa92214d1e8f3a7db79003e2
     Pseudo is Ultrasoft + core correction, Zval = 14.0
     Generated by new atomic code, or converted to UPF format
     Using radial grid of  899 points,  6 beta functions with:
                l(1) =   0
                l(2) =   0
                l(3) =   1
                l(4) =   1
                l(5) =   2
                l(6) =   2
     Q(r) pseudized with  6 coefficients,  rinner =    1.000   1.000   1.000
                                                       1.000   1.000

     PseudoPot. # 2 for C  read from file:
     /afs/slac.stanford.edu/u/if/mamunm/psp/gbrv1.5pbe/C.UPF
     MD5 check sum: d1aef80898a10debaa0f26306b886e00
     Pseudo is Ultrasoft + core correction, Zval =  4.0
     Generated by new atomic code, or converted to UPF format
     Using radial grid of  721 points,  4 beta functions with:
                l(1) =   0
                l(2) =   0
                l(3) =   1
                l(4) =   1
     Q(r) pseudized with  8 coefficients,  rinner =    1.100   1.100   1.100

     vdW kernel table read from file vdW_kernel_table
     MD5 check sum: 095c7af220d748ca6e76c0b4c6cfb241

     atomic species   valence    mass     pseudopotential
        Pb1           14.00   207.20000     Pb( 1.00)
        C1             4.00    12.01100     C ( 1.00)

     No symmetry found

   Cartesian axes

     site n.     atom                  positions (alat units)
         1           Pb1 tau(   1) = (   1.7292506   0.9983833  10.0000000  )
         2           Pb1 tau(   2) = (   5.1877519   0.9983833  10.0000000  )
         3           Pb1 tau(   3) = (   3.4585013   3.9935333  10.0000000  )
         4           Pb1 tau(   4) = (   6.9170025   3.9935333  10.0000000  )
         5           Pb1 tau(   5) = (   6.9170025   1.9967666  12.8238544  )
         6           Pb1 tau(   6) = (   3.4585013   1.9967666  12.8238544  )
         7           Pb1 tau(   7) = (   8.6462531   4.9919166  12.8238544  )
         8           Pb1 tau(   8) = (   5.1877519   4.9919166  12.8238544  )
         9           Pb1 tau(   9) = (  10.3627354   5.9831084  16.0750503  )
        10           Pb1 tau(  10) = (   6.9297945   5.9828023  16.0746745  )
        11           Pb1 tau(  11) = (   8.6462934   3.0097718  16.0750022  )
        12           Pb1 tau(  12) = (   5.1877268   2.9952017  15.5687645  )
        13           C1  tau(  13) = (   1.7291813   0.9982476  17.0781112  )

     number of k points=    20  Fermi-Dirac smearing, width (Ry)=  0.0110
                       cart. coord. in units 2pi/alat
        k(    1) = (   0.0000000   0.0000000   0.0000000), wk =   0.0555556
        k(    2) = (   0.0000000   0.0278228   0.0000000), wk =   0.1111111
        k(    3) = (   0.0000000   0.0556455   0.0000000), wk =   0.1111111
        k(    4) = (   0.0000000  -0.0834683   0.0000000), wk =   0.0555556
        k(    5) = (   0.0240952  -0.0139114   0.0000000), wk =   0.1111111
        k(    6) = (   0.0240952   0.0139114   0.0000000), wk =   0.1111111
        k(    7) = (   0.0240952   0.0417341   0.0000000), wk =   0.1111111
        k(    8) = (   0.0240952  -0.0973797   0.0000000), wk =   0.1111111
        k(    9) = (   0.0240952  -0.0695569   0.0000000), wk =   0.1111111
        k(   10) = (   0.0240952  -0.0417341   0.0000000), wk =   0.1111111
        k(   11) = (   0.0481904  -0.0278228   0.0000000), wk =   0.1111111
        k(   12) = (   0.0481904   0.0000000   0.0000000), wk =   0.1111111
        k(   13) = (   0.0481904   0.0278228   0.0000000), wk =   0.1111111
        k(   14) = (   0.0481904  -0.1112910   0.0000000), wk =   0.1111111
        k(   15) = (   0.0481904  -0.0834683   0.0000000), wk =   0.1111111
        k(   16) = (   0.0481904  -0.0556455   0.0000000), wk =   0.1111111
        k(   17) = (  -0.0722856   0.0417341   0.0000000), wk =   0.0555556
        k(   18) = (  -0.0722856   0.0695569   0.0000000), wk =   0.1111111
        k(   19) = (  -0.0722856   0.0973797   0.0000000), wk =   0.1111111
        k(   20) = (  -0.0722856  -0.0417341   0.0000000), wk =   0.0555556

     Largest allocated arrays     est. size (Mb)     dimensions
     Largest temporary arrays     est. size (Mb)     dimensions

     Check: negative/imaginary core charge=   -0.000001    0.000000

     Initial potential from superposition of free atoms
     Check: negative starting charge=   -0.197670

     starting charge  171.97174, renormalised to  172.00000

[...]

     *
     * You are using vdW-DF for exchange-correlation in this calculation.
     * Please cite the following three references that made this development
     * possible:
     *
     *   M. Dion, H. Rydberg, E. Schroder, D. C. Langreth, and
     *   B. I. Lundqvist, Phys. Rev. Lett. 92, 246401 (2004).
     *
     *   T. Thonhauser, V. R. Cooper, S. Li, A. Puzder, P. Hyldgaard, and
     *   D. C. Langreth, Phys. Rev. B 76, 125112 (2007).
     *
     *   G. Roman-Perez and J. M. Soler, Phys. Rev. Lett. 103, 096102 (2009).
     *
     *
     * If you are using vdW-DF2, please also cite:
     *
     *   K. Lee, E. D. Murray, L. Kong, B. I. Lundqvist, and
     *   D. C. Langreth, Phys. Rev. B 82, 081101(R) (2010).
     *
     *
     * If you are calculating the stress with vdW-DF, please also cite:
     *
     *   R. Sabatini, E. Kucukbenli, B. Kolb, T. Thonhauser, and
     *   S. de Gironcoli, J. Phys.: Condens. Matter 24, 424209 (2012).
     *

     Carrying out vdW-DF run using the following parameters:

     Nqs =      20    Nr_points =    1024   r_max =   100.000
     q_mesh =
               0.00001000     0.04494208     0.09755937     0.15916263
               0.23128650     0.31572767     0.41458969     0.53033537
               0.66584808     0.82450364     1.01025438     1.22772762
               1.48234092     1.78043706     2.12944203     2.53805004
               3.01644009     3.57652955     4.23227104     5.00000000

     Gradients computed in reciprocal space

[...]

     Starting wfc are  112 randomized atomic wfcs

     Self-consistent Calculation

[...]

     total energy              =   -2003.52043160 Ry
     Harris-Foulkes estimate   =   -2003.52044650 Ry
     estimated scf accuracy    <       0.00005227 Ry

     iteration # 11     ecut=    36.75 Ry     beta=0.30
     Davidson diagonalization with overlap
     ethr =  3.04E-08,  avg # of iterations =  4.0

[...]

     negative rho (up, down):  2.145E-01 0.000E+00

     Adding external electric field

     Computed dipole along edir(3) :
        Dipole               -0.3240 Ry au,         -0.8235 Debye
        Dipole field         -0.0006 Ry au

        Potential amp.        0.0537 Ry
        Total length         47.2555 bohr

     End of self-consistent calculation

[...]

          k = 0.0482-0.0556 0.0000 ( 26956 PWs)   bands (ev):

[...]

          k =-0.0723-0.0417 0.0000 ( 26962 PWs)   bands (ev):

   -16.4817 -16.4727 -16.4251 -16.4198 -16.4186 -16.4107 -16.4084 -16.3990
   -16.3852 -16.3847 -16.3707 -16.3622 -16.3565 -16.3487 -16.3471 -16.3423
   -16.3340 -16.3245 -16.3225 -16.3155 -16.3149 -16.3046 -16.2960 -16.2856
   -16.2794 -16.2765 -16.2740 -16.2737 -16.2685 -16.2535 -16.2450 -16.2228
   -16.2140 -16.2106 -16.2058 -16.2036 -16.1954 -16.1913 -16.1880 -16.1874
   -16.1761 -16.1688 -16.1642 -16.1603 -16.1454 -16.1354 -16.1249 -16.1159
   -16.1131 -16.1036 -16.0903 -16.0788 -16.0725 -16.0512 -16.0410 -16.0366
   -16.0158 -16.0056 -15.9847 -15.9033 -10.1407  -9.2599  -9.0881  -8.2713
    -7.5893  -7.2552  -7.2496  -7.1670  -6.6910  -6.6420  -5.9245  -5.9110
    -4.4671  -1.6182  -1.0137  -1.0085  -0.8659  -0.7019  -0.6633  -0.4842
    -0.1498   0.0629   0.2040   0.6071   0.7608   1.0091   1.2104   1.4664
     1.7566   2.0455   2.0863   2.1899   2.3335   2.4962   2.5891   2.6869

     the Fermi energy is     1.1226 ev

!    total energy              =   -2003.52042984 Ry
     Harris-Foulkes estimate   =   -2003.52045012 Ry
     estimated scf accuracy    <       0.00000138 Ry

     The total energy is the sum of the following terms:

     one-electron contribution =   -9215.82900626 Ry
     hartree contribution      =    4678.91174141 Ry
     xc contribution           =    -787.37647826 Ry
     ewald contribution        =    3320.81688447 Ry
     electric field correction =       0.00018394 Ry
     smearing contrib. (-TS)   =      -0.04375514 Ry

     convergence has been achieved in  11 iterations

 BEEF-vdW xc energy contributions
           1 :   -701.806880918139
           2 :    651.875700069147
           3 :   -563.962596605958
           4 :    457.337151182837
           5 :   -351.859038676815
           6 :    262.022612699618
           7 :   -193.834384154816
           8 :    145.258663141540
           9 :   -109.517447123114
          10 :    79.4374719656334
          11 :   -50.8232996834344
          12 :    23.5520328052304
          13 :  -0.350104693537673
          14 :   -15.6777955073306
          15 :    23.2661053245210
          16 :   -23.8388330196884
          17 :    20.7575162619787
          18 :   -17.5996765190848
          19 :    16.5123899898101
          20 :   -17.5109193533920
          21 :    18.9846550355172
          22 :   -18.9967324594945
          23 :    16.5745458206476
          24 :   -12.2808361107318
          25 :    7.82471172843839
          26 :   -5.03056524385920
          27 :    4.80565236412690
          28 :   -6.68889122767496
          29 :    9.18918876298085
          30 :   -10.6690092757565
          31 :   -56.2321476882914
          32 :   -41.2293110744350

     Forces acting on atoms (Ry/au):

     negative rho (up, down):  2.145E-01 0.000E+00
     atom    1 type  1   force =     0.00001571    0.00001518   -0.00617486
     atom    2 type  1   force =    -0.00001397   -0.00041124   -0.00299521
     atom    3 type  1   force =    -0.00036500    0.00019935   -0.00295465
     atom    4 type  1   force =     0.00034104    0.00019038   -0.00294706
     atom    5 type  1   force =     0.00138491   -0.00079322    0.00440309
     atom    6 type  1   force =    -0.00134245   -0.00077625    0.00436663
     atom    7 type  1   force =    -0.00000629   -0.00001197    0.00000599
     atom    8 type  1   force =     0.00001680    0.00159051    0.00438358
     atom    9 type  1   force =     0.00009393    0.00003934    0.00039830
     atom   10 type  1   force =    -0.00019717    0.00011193    0.00046066
     atom   11 type  1   force =     0.00000771   -0.00016318    0.00043041
     atom   12 type  1   force =    -0.00001124    0.00000357    0.00010845
     atom   13 type  2   force =     0.00007600    0.00000560    0.00051466

     Total force =     0.011449     Total SCF correction =     0.005903
     SCF correction compared to forces is large: reduce conv_thr to get better values

     entering subroutine stress ...

     negative rho (up, down):  2.145E-01 0.000E+00
          total   stress  (Ry/bohr**3)                   (kbar)     P=    9.65
   0.00009035   0.00000002   0.00000002         13.29      0.00      0.00
   0.00000002   0.00009035   0.00000000          0.00     13.29      0.00
   0.00000002   0.00000000   0.00001608          0.00      0.00      2.37

 !ASE

     Writing output data file calc.save

     General routines

     Parallel routines

   This run was terminated on:  10:48:11  27Jan2018

   JOB DONE.
Job  /afs/slac/g/suncat/bin/suncat-tsmpirun -x LD_LIBRARY_PATH -wdir /scratch/qe498627_skBEH pw.x -in pw.inp

TID   HOST_NAME   COMMAND_LINE            STATUS            TERMINATION_TIME
00000 suncat0085 pw.x -in pw.inp   Done                     01/27/2018 10:48:11
00001 suncat0085 pw.x -in pw.inp   Done                     01/27/2018 10:48:11
00002 suncat0085 pw.x -in pw.inp   Done                     01/27/2018 10:48:11
00003 suncat0085 pw.x -in pw.inp   Done                     01/27/2018 10:48:11
00004 suncat0085 pw.x -in pw.inp   Done                     01/27/2018 10:48:11
00005 suncat0085 pw.x -in pw.inp   Done                     01/27/2018 10:48:11
00006 suncat0085 pw.x -in pw.inp   Done                     01/27/2018 10:48:11
00007 suncat0085 pw.x -in pw.inp   Done                     01/27/2018 10:48:11
00008 suncat0075 pw.x -in pw.inp   Done                     01/27/2018 10:48:11
00009 suncat0075 pw.x -in pw.inp   Done                     01/27/2018 10:48:11
00010 suncat0075 pw.x -in pw.inp   Done                     01/27/2018 10:48:11
00011 suncat0075 pw.x -in pw.inp   Done                     01/27/2018 10:48:11
00012 suncat0075 pw.x -in pw.inp   Done                     01/27/2018 10:48:11
00013 suncat0075 pw.x -in pw.inp   Done                     01/27/2018 10:48:11
00014 suncat0075 pw.x -in pw.inp   Done                     01/27/2018 10:48:11
00015 suncat0075 pw.x -in pw.inp   Done                     01/27/2018 10:48:11
00016 suncat0129 pw.x -in pw.inp   Done                     01/27/2018 10:48:11
00017 suncat0129 pw.x -in pw.inp   Done                     01/27/2018 10:48:11
00018 suncat0129 pw.x -in pw.inp   Done                     01/27/2018 10:48:11
00019 suncat0129 pw.x -in pw.inp   Done                     01/27/2018 10:48:11
00020 suncat0129 pw.x -in pw.inp   Done                     01/27/2018 10:48:11
00021 suncat0129 pw.x -in pw.inp   Done                     01/27/2018 10:48:11
00022 suncat0129 pw.x -in pw.inp   Done                     01/27/2018 10:48:11
00023 suncat0129 pw.x -in pw.inp   Done                     01/27/2018 10:48:11
00024 suncat0255 pw.x -in pw.inp   Done                     01/27/2018 10:48:11
00025 suncat0255 pw.x -in pw.inp   Done                     01/27/2018 10:48:11
00026 suncat0255 pw.x -in pw.inp   Done                     01/27/2018 10:48:11
00027 suncat0255 pw.x -in pw.inp   Done                     01/27/2018 10:48:11
00028 suncat0255 pw.x -in pw.inp   Done                     01/27/2018 10:48:11
00029 suncat0255 pw.x -in pw.inp   Done                     01/27/2018 10:48:11
00030 suncat0255 pw.x -in pw.inp   Done                     01/27/2018 10:48:11
00031 suncat0255 pw.x -in pw.inp   Done                     01/27/2018 10:48:11