     Program PWSCF v.5.1rc2 (svn rev. 11289) starts on 23Apr2018 at  7:53:27

     Current dimensions of program PWSCF are:
     Max number of different atomic species (ntypx) = 10
     Max number of k-points (npk) =  40000
     Max angular momentum in pseudopotentials (lmaxx) =  3
     Presently stress not available with electric field

     IMPORTANT: XC functional enforced from input :
     Exchange-correlation      = BEEF-VDW ( 1  4 27 13 2)
     Any further DFT definition will be discarded
     Please, verify this is what you really want

     Subspace diagonalization in iterative solution of the eigenvalue problem:
     a serial algorithm will be used

     bravais-lattice index     =            0
     lattice parameter (alat)  =       1.8897  a.u.
     unit-cell volume          =    5185.0501 (a.u.)^3
     number of atoms/cell      =           14
     number of atomic types    =            3
     number of electrons       =       163.00
     number of Kohn-Sham states=           91
     kinetic-energy cutoff     =      36.7493  Ry
     charge density cutoff     =     367.4932  Ry
     convergence threshold     =      1.0E-05
     mixing beta               =       0.3000
     number of iterations used =           10  plain     mixing
     Exchange-correlation      = BEEF-VDW ( 1  4 27 13 2)
     nstep                     =           50

     celldm(1)=   1.889726  celldm(2)=   0.000000  celldm(3)=   0.000000
     celldm(4)=   0.000000  celldm(5)=   0.000000  celldm(6)=   0.000000

     crystal axes: (cart. coord. in units of alat)
               a(1) = (   5.972022   0.000000   0.000000 )
               a(2) = (   2.986011   5.171923   0.000000 )
               a(3) = (   0.000000   0.000000  24.876136 )

     reciprocal axes: (cart. coord. in units 2 pi/alat)
               b(1) = (  0.167447 -0.096676  0.000000 )
               b(2) = (  0.000000  0.193352  0.000000 )
               b(3) = (  0.000000  0.000000  0.040199 )

     PseudoPot. # 1 for Ta read from file:
     /u/if/mamunm/psp/gbrv1.5pbe/Ta.UPF
     MD5 check sum: f8bbe9446314a3b8ea5d9f3e3836c939
     Pseudo is Ultrasoft + core correction, Zval = 13.0
     Generated by new atomic code, or converted to UPF format
     Using radial grid of  921 points,  7 beta functions with:
                l(1) =   0
                l(2) =   0
                l(3) =   1
                l(4) =   1
                l(5) =   2
                l(6) =   2
                l(7) =   3
     Q(r) pseudized with  6 coefficients,  rinner =    1.300   1.300   1.300
                                                       1.300   1.300   1.300
                                                       1.300

     PseudoPot. # 2 for O  read from file:
     /u/if/mamunm/psp/gbrv1.5pbe/O.UPF
     MD5 check sum: 734c27235a0248c51dbae37a1fbe46ec
     Pseudo is Ultrasoft + core correction, Zval =  6.0
     Generated by new atomic code, or converted to UPF format
     Using radial grid of  737 points,  5 beta functions with:
                l(1) =   0
                l(2) =   0
                l(3) =   1
                l(4) =   1
                l(5) =   2
     Q(r) pseudized with  8 coefficients,  rinner =    0.900   0.900   0.900
                                                       0.900   0.900

     PseudoPot. # 3 for H  read from file:
     /u/if/mamunm/psp/gbrv1.5pbe/H.UPF
     MD5 check sum: 761ae9a214b05c3daf00ab9f6b793d6f
     Pseudo is Ultrasoft, Zval =  1.0
     Generated by new atomic code, or converted to UPF format
     Using radial grid of  615 points,  2 beta functions with:
                l(1) =   0
                l(2) =   0
     Q(r) pseudized with  8 coefficients,  rinner =    0.700

     vdW kernel table read from file vdW_kernel_table
     MD5 check sum: 095c7af220d748ca6e76c0b4c6cfb241

     atomic species   valence    mass     pseudopotential
        Ta1           13.00   180.94788     Ta( 1.00)
        O1             6.00    15.99900     O ( 1.00)
        H1             1.00     1.00800     H ( 1.00)

     No symmetry found

   Cartesian axes

     site n.     atom                  positions (alat units)
         1           Ta1 tau(   1) = (   1.4930055   0.8619871  10.0000000  )
         2           Ta1 tau(   2) = (   4.4790165   0.8619871  10.0000000  )
         3           Ta1 tau(   3) = (   2.9860110   3.4479485  10.0000000  )
         4           Ta1 tau(   4) = (   5.9720221   3.4479485  10.0000000  )
         5           Ta1 tau(   5) = (   5.9720221   1.7239743  12.4380678  )
         6           Ta1 tau(   6) = (   2.9860110   1.7239743  12.4380678  )
         7           Ta1 tau(   7) = (   7.4650276   4.3099357  12.4380678  )
         8           Ta1 tau(   8) = (   4.4790165   4.3099357  12.4380678  )
         9           Ta1 tau(   9) = (   0.0000000   0.0000000  14.8761356  )
        10           Ta1 tau(  10) = (   2.9860110   0.0000000  14.8761356  )
        11           Ta1 tau(  11) = (   1.4930055   2.5859614  14.8761356  )
        12           Ta1 tau(  12) = (   4.4790165   2.5859614  14.8761356  )
        13           O1  tau(  13) = (   1.4930055   0.8619871  16.4101356  )
        14           H1  tau(  14) = (   1.4930055   0.8619871  17.3601356  )

     number of k points=    20  Fermi-Dirac smearing, width (Ry)=  0.0110
                       cart. coord. in units 2pi/alat
        k(    1) = (   0.0000000   0.0000000   0.0000000), wk =   0.0555556
        k(    2) = (   0.0000000   0.0322253   0.0000000), wk =   0.1111111
        k(    3) = (   0.0000000   0.0644506   0.0000000), wk =   0.1111111
        k(    4) = (   0.0000000  -0.0966758   0.0000000), wk =   0.0555556
        k(    5) = (   0.0279079  -0.0161126   0.0000000), wk =   0.1111111
        k(    6) = (   0.0279079   0.0161126   0.0000000), wk =   0.1111111
        k(    7) = (   0.0279079   0.0483379   0.0000000), wk =   0.1111111
        k(    8) = (   0.0279079  -0.1127885   0.0000000), wk =   0.1111111
        k(    9) = (   0.0279079  -0.0805632   0.0000000), wk =   0.1111111
        k(   10) = (   0.0279079  -0.0483379   0.0000000), wk =   0.1111111
        k(   11) = (   0.0558158  -0.0322253   0.0000000), wk =   0.1111111
        k(   12) = (   0.0558158   0.0000000   0.0000000), wk =   0.1111111
        k(   13) = (   0.0558158   0.0322253   0.0000000), wk =   0.1111111
        k(   14) = (   0.0558158  -0.1289011   0.0000000), wk =   0.1111111
        k(   15) = (   0.0558158  -0.0966758   0.0000000), wk =   0.1111111
        k(   16) = (   0.0558158  -0.0644506   0.0000000), wk =   0.1111111
        k(   17) = (  -0.0837237   0.0483379   0.0000000), wk =   0.0555556
        k(   18) = (  -0.0837237   0.0805632   0.0000000), wk =   0.1111111
        k(   19) = (  -0.0837237   0.1127885   0.0000000), wk =   0.1111111
        k(   20) = (  -0.0837237  -0.0483379   0.0000000), wk =   0.0555556

     Largest allocated arrays     est. size (Mb)     dimensions
     Largest temporary arrays     est. size (Mb)     dimensions

     Initial potential from superposition of free atoms
     Check: negative starting charge=   -1.121738

     starting charge  162.98664, renormalised to  163.00000

     negative rho (up, down):  1.122E+00 0.000E+00

     *
     * You are using vdW-DF for exchange-correlation in this calculation.
     * Please cite the following three references that made this development
     * possible:
     *
     *   M. Dion, H. Rydberg, E. Schroder, D. C. Langreth, and
     *   B. I. Lundqvist, Phys. Rev. Lett. 92, 246401 (2004).
     *
     *   T. Thonhauser, V. R. Cooper, S. Li, A. Puzder, P. Hyldgaard, and
     *   D. C. Langreth, Phys. Rev. B 76, 125112 (2007).
     *
     *   G. Roman-Perez and J. M. Soler, Phys. Rev. Lett. 103, 096102 (2009).
     *
     *
     * If you are using vdW-DF2, please also cite:
     *
     *   K. Lee, E. D. Murray, L. Kong, B. I. Lundqvist, and
     *   D. C. Langreth, Phys. Rev. B 82, 081101(R) (2010).
     *
     *
     * If you are calculating the stress with vdW-DF, please also cite:
     *
     *   R. Sabatini, E. Kucukbenli, B. Kolb, T. Thonhauser, and
     *   S. de Gironcoli, J. Phys.: Condens. Matter 24, 424209 (2012).
     *

     Carrying out vdW-DF run using the following parameters:

     Nqs =      20    Nr_points =    1024   r_max =   100.000
     q_mesh =
               0.00001000     0.04494208     0.09755937     0.15916263
               0.23128650     0.31572767     0.41458969     0.53033537
               0.66584808     0.82450364     1.01025438     1.22772762
               1.48234092     1.78043706     2.12944203     2.53805004
               3.01644009     3.57652955     4.23227104     5.00000000

     Gradients computed in reciprocal space

     Adding external electric field

     Computed dipole along edir(3) :
        Dipole               -0.0044 Ry au,         -0.0111 Debye
        Dipole field         -0.0000 Ry au

        Potential amp.        0.0010 Ry
        Total length         45.8339 bohr

     Starting wfc are  161 randomized atomic wfcs

     Self-consistent Calculation

     iteration #  1     ecut=    36.75 Ry     beta=0.30
     Davidson diagonalization with overlap
     ethr =  1.00E-02,  avg # of iterations =  2.0

[...]

     total energy              =   -1750.26118942 Ry
     Harris-Foulkes estimate   =   -1752.70449599 Ry
     estimated scf accuracy    <       5.28655315 Ry

[...]

     End of self-consistent calculation

          k = 0.0000 0.0000 0.0000 ( 19447 PWs)   bands (ev):

   -65.8959 -65.8492 -65.8489 -65.7413 -65.7364 -65.6784 -65.6775 -65.6772
   -65.6583 -65.6146 -65.6145 -65.5939 -32.6633 -32.5344 -32.5343 -32.4923
   -32.4632 -32.4575 -32.4573 -32.3893 -32.3889 -32.3876 -32.2328 -32.1903
   -32.1900 -32.1072 -32.0321 -32.0316 -32.0230 -31.9754 -31.9752 -31.9674
   -31.8480 -31.8479 -31.8436 -31.8243 -31.8242 -31.8070 -31.7742 -31.7722
   -31.7722 -31.7379 -31.7336 -31.7335 -31.6558 -31.6558 -31.5916 -31.5916
   -18.9965  -7.2566  -4.7946  -3.2772  -3.2772  -3.1340  -2.1721  -1.5145
    -1.5145  -1.4700  -1.2796  -1.1925  -1.1924  -0.5684  -0.5608  -0.5607
    -0.3480  -0.3480  -0.2174   0.8760   0.8762   1.1049   1.8443   2.0899
     2.0899   2.1104   2.3610   2.4637   2.5888   2.5890   2.6577   2.9149
     2.9149   3.0208   3.2056   3.2056   3.2875   3.3153   3.3154   3.3779
     3.3779   3.6145   3.6147

[...]

          k =-0.0837 0.0483 0.0000 ( 19532 PWs)   bands (ev):

[...]

     the Fermi energy is     2.5845 ev

!    total energy              =   -1752.18775799 Ry
     Harris-Foulkes estimate   =   -1752.18780028 Ry
     estimated scf accuracy    <       0.00000532 Ry

     The total energy is the sum of the following terms:

     one-electron contribution =  -11848.97203300 Ry
     hartree contribution      =    5912.21907312 Ry
     xc contribution           =    -531.15188818 Ry
     ewald contribution        =    4715.81978228 Ry
     electric field correction =       0.00039427 Ry
     smearing contrib. (-TS)   =      -0.10308648 Ry

     convergence has been achieved in  12 iterations

 BEEF-vdW xc energy contributions
           1 :   -467.440898143145
           2 :    431.201866595795
           3 :   -368.015176461310
           4 :    292.588867217342
           5 :   -219.607947611854
           6 :    159.225678570925
           7 :   -115.063578536763
           8 :    85.0600960308585
           9 :   -64.2595081947508
          10 :    47.9056258101597
          11 :   -33.3907474577359
          12 :    20.4709374792330
          13 :   -10.1565181931734
          14 :    3.26305552507654
          15 :   0.460340732722898
          16 :   -2.26456780264175
          17 :    3.65551183997525
          18 :   -5.56175143083010
          19 :    7.93731753423367
          20 :   -9.98741095740809
          21 :    10.8159267579044
          22 :   -10.0699589840145
          23 :    8.19876144037801
          24 :   -6.20447883325892
          25 :    5.06812946304757
          26 :   -5.21364912060676
          27 :    6.32155793882498
          28 :   -7.57410647598419
          29 :    8.15727420913760
          30 :   -7.71263441883718
          31 :   -41.8819384734289
          32 :   -31.0277335793012

     Forces acting on atoms (Ry/au):

     negative rho (up, down):  1.177E+00 0.000E+00
     atom    1 type  1   force =    -0.00000799   -0.00000457    0.00463628
     atom    2 type  1   force =     0.00000474    0.00139190    0.00476012
     atom    3 type  1   force =     0.00121828   -0.00069394    0.00476559
     atom    4 type  1   force =    -0.00121413   -0.00070014    0.00476241
     atom    5 type  1   force =     0.00124159   -0.00070092   -0.00005094
     atom    6 type  1   force =    -0.00123669   -0.00072540   -0.00003093
     atom    7 type  1   force =    -0.00002747   -0.00000101   -0.00406473
     atom    8 type  1   force =     0.00001986    0.00142755   -0.00003491
     atom    9 type  1   force =    -0.02704633   -0.01562386    0.03030311
     atom   10 type  1   force =     0.02704635   -0.01563600    0.03030459
     atom   11 type  1   force =    -0.00000667    0.03123751    0.03031569
     atom   12 type  1   force =     0.00000500    0.00000798   -0.04165756
     atom   13 type  2   force =     0.00000321    0.00002095   -0.11130516
     atom   14 type  3   force =     0.00000028   -0.00000005    0.04729642

     Total force =     0.148473     Total SCF correction =     0.003383

     entering subroutine stress ...

     negative rho (up, down):  1.177E+00 0.000E+00
          total   stress  (Ry/bohr**3)                   (kbar)     P=  -31.34
  -0.00027358   0.00000000   0.00000000        -40.24      0.00      0.00
   0.00000000  -0.00027357  -0.00000001          0.00    -40.24     -0.00
   0.00000000  -0.00000001  -0.00009196          0.00     -0.00    -13.53

     BFGS Geometry Optimization

     number of scf cycles    =   1
     number of bfgs steps    =   0

     energy   new            =   -1752.1877579879 Ry

     new trust radius        =       0.1113051631 bohr
     new conv_thr            =       0.0000099958 Ry

ATOMIC_POSITIONS (crystal)
Ta1      0.166666667   0.166666667   0.401991699    0   0   0
Ta1      0.666666667   0.166666667   0.401991699    0   0   0
Ta1      0.166666667   0.666666667   0.401991699    0   0   0
Ta1      0.666666667   0.666666667   0.401991699    0   0   0
Ta1      0.833333333   0.333333333   0.500000000    0   0   0
Ta1      0.333333333   0.333333333   0.500000000    0   0   0
Ta1      0.833333333   0.833333333   0.500000000    0   0   0
Ta1      0.333333333   0.833333333   0.500000000    0   0   0
Ta1     -0.001597263  -0.001598591   0.598652924
Ta1      0.503196477  -0.001599833   0.598652955
Ta1     -0.001598660   0.503196138   0.598653192
Ta1      0.500000035   0.500000817   0.597122142
O1       0.166665879   0.166668810   0.657306091
H1       0.166666694   0.166666661   0.698869152

     Writing output data file calc.save
     Check: negative starting charge=   -1.121738
     NEW-OLD atomic charge density approx. for the potential
     Check: negative starting charge=   -1.123095

[...]

     energy   old            =   -1752.1877579879 Ry
     energy   new            =   -1752.1953924470 Ry

     CASE: energy  _new < energy  _old

[...]

     iteration #  1     ecut=    36.75 Ry     beta=0.30
     Davidson diagonalization with overlap
     c_bands:  1 eigenvalues not converged
     ethr =  1.00E-06,  avg # of iterations =  9.2

[...]

     Total force =     0.006306     Total SCF correction =     0.000866
     SCF correction compared to forces is large: reduce conv_thr to get better values

[...]

     Threshold (ethr) on eigenvalues was too large:
     Diagonalizing with lowered threshold

     Davidson diagonalization with overlap
     ethr =  9.98E-08,  avg # of iterations =  1.9

[...]

     Total force =     0.004559     Total SCF correction =     0.000239

[...]

     number of scf cycles    =  14
     number of bfgs steps    =  13

     energy   old            =   -1752.2222345859 Ry
     energy   new            =   -1752.2222788465 Ry

     CASE: energy  _new < energy  _old

     new trust radius        =       0.0132983256 bohr
     new conv_thr            =       0.0000001000 Ry

ATOMIC_POSITIONS (crystal)
Ta1      0.166666667   0.166666667   0.401991699    0   0   0
Ta1      0.666666667   0.166666667   0.401991699    0   0   0
Ta1      0.166666667   0.666666667   0.401991699    0   0   0
Ta1      0.666666667   0.666666667   0.401991699    0   0   0
Ta1      0.833333333   0.333333333   0.500000000    0   0   0
Ta1      0.333333333   0.333333333   0.500000000    0   0   0
Ta1      0.833333333   0.833333333   0.500000000    0   0   0
Ta1      0.333333333   0.833333333   0.500000000    0   0   0
Ta1     -0.007687317  -0.007687095   0.599680265
Ta1      0.515374350  -0.007688060   0.599680337
Ta1     -0.007688243   0.515374350   0.599680370
Ta1      0.500000360   0.500000089   0.588753452
O1       0.166666220   0.166665857   0.652471427
H1       0.166665795   0.166667947   0.691630566

     Writing output data file calc.save
     Check: negative starting charge=   -1.123957
     NEW-OLD atomic charge density approx. for the potential
     Check: negative starting charge=   -1.123856

[...]

     Self-consistent Calculation

[...]

     Threshold (ethr) on eigenvalues was too large:
     Diagonalizing with lowered threshold

     Davidson diagonalization with overlap
     ethr =  3.18E-08,  avg # of iterations =  3.8

[...]

     total energy              =   -1752.22231080 Ry
     Harris-Foulkes estimate   =   -1752.22231117 Ry
     estimated scf accuracy    <       0.00000012 Ry

     iteration #  9     ecut=    36.75 Ry     beta=0.30
     Davidson diagonalization with overlap
     ethr =  7.08E-11,  avg # of iterations =  3.7

[...]

     negative rho (up, down):  1.179E+00 0.000E+00

     Adding external electric field

     Computed dipole along edir(3) :
        Dipole                0.4537 Ry au,          1.1532 Debye
        Dipole field          0.0011 Ry au

        Potential amp.       -0.1008 Ry
        Total length         45.8339 bohr

     End of self-consistent calculation

[...]

          k = 0.0558-0.0645 0.0000 ( 19521 PWs)   bands (ev):

[...]

          k =-0.0837-0.0483 0.0000 ( 19532 PWs)   bands (ev):

   -65.8301 -65.8014 -65.7904 -65.6576 -65.6570 -65.6276 -65.6274 -65.5804
   -65.5726 -65.5507 -65.5424 -65.4672 -32.5112 -32.3481 -32.3435 -32.3301
   -32.3070 -32.2868 -32.2454 -32.2148 -32.2029 -32.1961 -32.1746 -32.1526
   -32.1319 -32.0837 -32.0567 -31.9926 -31.9831 -31.9741 -31.9329 -31.9205
   -31.8943 -31.8667 -31.8609 -31.8556 -31.8377 -31.8317 -31.8070 -31.7603
   -31.7237 -31.7113 -31.7016 -31.6484 -31.6425 -31.6113 -31.5635 -31.5620
   -19.4490  -7.4935  -4.1351  -3.8658  -2.9959  -2.8446  -1.5331  -1.3334
    -0.7400  -0.7049  -0.4741  -0.4114  -0.3949  -0.2740   0.3826   0.5289
     0.6784   0.7172   0.7659   0.9010   1.1246   1.1973   1.2623   1.3003
     1.4318   1.5086   1.6789   1.7866   1.9325   1.9736   2.0441   2.0697
     2.2105   2.3054   2.3972   2.6591   2.8721   2.8925   2.9754   3.1464
     3.3746   3.6942   3.9395

     the Fermi energy is     2.6302 ev

!    total energy              =   -1752.22231080 Ry
     Harris-Foulkes estimate   =   -1752.22231062 Ry
     estimated scf accuracy    <       0.00000004 Ry

     The total energy is the sum of the following terms:

     one-electron contribution =  -11938.53827271 Ry
     hartree contribution      =    5957.17271988 Ry
     xc contribution           =    -531.28769817 Ry
     ewald contribution        =    4760.52879053 Ry
     electric field correction =       0.00049893 Ry
     smearing contrib. (-TS)   =      -0.09834926 Ry

     convergence has been achieved in   9 iterations

 BEEF-vdW xc energy contributions
           1 :   -467.583065869655
           2 :    431.392328823508
           3 :   -368.248491112215
           4 :    292.805345737758
           5 :   -219.733675181510
           6 :    159.217110239473
           7 :   -114.933553030712
           8 :    84.8730211571481
           9 :   -64.0987333624869
          10 :    47.8308237645061
          11 :   -33.4081688057079
          12 :    20.5337122551712
          13 :   -10.1952112242642
          14 :    3.22728784497923
          15 :   0.575479365885599
          16 :   -2.42083567861039
          17 :    3.79682139069519
          18 :   -5.64682056226968
          19 :    7.96225330260563
          20 :   -9.98566771765672
          21 :    10.8363185879548
          22 :   -10.1468042419838
          23 :    8.33209042368986
          24 :   -6.36133696752290
          25 :    5.20309115853723
          26 :   -5.29501442348180
          27 :    6.34794763252501
          28 :   -7.57377879291175
          29 :    8.17115295017538
          30 :   -7.77047644234506
          31 :   -41.8910772927104
          32 :   -31.0443084362959

     Forces acting on atoms (Ry/au):

     negative rho (up, down):  1.179E+00 0.000E+00
     atom    1 type  1   force =     0.00000006    0.00000005    0.00653442
     atom    2 type  1   force =    -0.00000002    0.00016120    0.00426615
     atom    3 type  1   force =     0.00013958   -0.00008062    0.00426617
     atom    4 type  1   force =    -0.00013956   -0.00008059    0.00426605
     atom    5 type  1   force =     0.02288633   -0.01321363   -0.00848702
     atom    6 type  1   force =    -0.02288620   -0.01321325   -0.00848558
     atom    7 type  1   force =     0.00000020   -0.00000001    0.00618026
     atom    8 type  1   force =    -0.00000024    0.02642688   -0.00848685
     atom    9 type  1   force =     0.00119470    0.00068951    0.00038225
     atom   10 type  1   force =    -0.00119611    0.00069255    0.00038216
     atom   11 type  1   force =     0.00000198   -0.00138202    0.00038149
     atom   12 type  1   force =    -0.00000160   -0.00000066   -0.00001086
     atom   13 type  2   force =     0.00000116    0.00000112   -0.00110349
     atom   14 type  3   force =    -0.00000028   -0.00000053   -0.00008514

     Total force =     0.002718     Total SCF correction =     0.000282
     SCF correction compared to forces is large: reduce conv_thr to get better values

     entering subroutine stress ...

     negative rho (up, down):  1.179E+00 0.000E+00
          total   stress  (Ry/bohr**3)                   (kbar)     P=  -26.14
  -0.00023332   0.00000000   0.00000000        -34.32      0.00      0.00
   0.00000000  -0.00023332   0.00000000          0.00    -34.32      0.00
   0.00000000   0.00000000  -0.00006639          0.00      0.00     -9.77

     bfgs converged in  15 scf cycles and  14 bfgs steps
     (criteria: energy <  1.0E+00, force <  1.9E-03)

     End of BFGS Geometry Optimization

     Final energy   =   -1752.2223107996 Ry
Begin final coordinates

ATOMIC_POSITIONS (crystal)
Ta1      0.166666667   0.166666667   0.401991699    0   0   0
Ta1      0.666666667   0.166666667   0.401991699    0   0   0
Ta1      0.166666667   0.666666667   0.401991699    0   0   0
Ta1      0.666666667   0.666666667   0.401991699    0   0   0
Ta1      0.833333333   0.333333333   0.500000000    0   0   0
Ta1      0.333333333   0.333333333   0.500000000    0   0   0
Ta1      0.833333333   0.833333333   0.500000000    0   0   0
Ta1      0.333333333   0.833333333   0.500000000    0   0   0
Ta1     -0.007687317  -0.007687095   0.599680265
Ta1      0.515374350  -0.007688060   0.599680337
Ta1     -0.007688243   0.515374350   0.599680370
Ta1      0.500000360   0.500000089   0.588753452
O1       0.166666220   0.166665857   0.652471427
H1       0.166665795   0.166667947   0.691630566
End final coordinates

     Writing output data file calc.save

     General routines

     Parallel routines

   This run was terminated on:  10: 7:24  23Apr2018

   JOB DONE.
Job  /afs/slac/g/suncat/bin/suncat-tsmpirun -x LD_LIBRARY_PATH -wdir /scratch/qe459726_fbAfn pw.x -npool 4 -in pw.inp

TID   HOST_NAME   COMMAND_LINE            STATUS            TERMINATION_TIME
00000 suncat0132 pw.x -npool 4 -i  Done                     04/23/2018 10:07:24
00001 suncat0132 pw.x -npool 4 -i  Done                     04/23/2018 10:07:24
00002 suncat0132 pw.x -npool 4 -i  Done                     04/23/2018 10:07:24
00003 suncat0132 pw.x -npool 4 -i  Done                     04/23/2018 10:07:24
00004 suncat0132 pw.x -npool 4 -i  Done                     04/23/2018 10:07:24
00005 suncat0132 pw.x -npool 4 -i  Done                     04/23/2018 10:07:24
00006 suncat0132 pw.x -npool 4 -i  Done                     04/23/2018 10:07:24
00007 suncat0132 pw.x -npool 4 -i  Done                     04/23/2018 10:07:24
00008 suncat0272 pw.x -npool 4 -i  Done                     04/23/2018 10:07:24
00009 suncat0272 pw.x -npool 4 -i  Done                     04/23/2018 10:07:24
00010 suncat0272 pw.x -npool 4 -i  Done                     04/23/2018 10:07:24
00011 suncat0272 pw.x -npool 4 -i  Done                     04/23/2018 10:07:24
00012 suncat0272 pw.x -npool 4 -i  Done                     04/23/2018 10:07:24
00013 suncat0272 pw.x -npool 4 -i  Done                     04/23/2018 10:07:24
00014 suncat0272 pw.x -npool 4 -i  Done                     04/23/2018 10:07:24
00015 suncat0272 pw.x -npool 4 -i  Done                     04/23/2018 10:07:24
00016 suncat0267 pw.x -npool 4 -i  Done                     04/23/2018 10:07:24
00017 suncat0267 pw.x -npool 4 -i  Done                     04/23/2018 10:07:24
00018 suncat0267 pw.x -npool 4 -i  Done                     04/23/2018 10:07:24
00019 suncat0267 pw.x -npool 4 -i  Done                     04/23/2018 10:07:24
00020 suncat0267 pw.x -npool 4 -i  Done                     04/23/2018 10:07:24
00021 suncat0267 pw.x -npool 4 -i  Done                     04/23/2018 10:07:24
00022 suncat0267 pw.x -npool 4 -i  Done                     04/23/2018 10:07:24
00023 suncat0267 pw.x -npool 4 -i  Done                     04/23/2018 10:07:24
00024 suncat0244 pw.x -npool 4 -i  Done                     04/23/2018 10:07:24
00025 suncat0244 pw.x -npool 4 -i  Done                     04/23/2018 10:07:24
00026 suncat0244 pw.x -npool 4 -i  Done                     04/23/2018 10:07:24
00027 suncat0244 pw.x -npool 4 -i  Done                     04/23/2018 10:07:24
00028 suncat0244 pw.x -npool 4 -i  Done                     04/23/2018 10:07:24
00029 suncat0244 pw.x -npool 4 -i  Done                     04/23/2018 10:07:24
00030 suncat0244 pw.x -npool 4 -i  Done                     04/23/2018 10:07:24
00031 suncat0244 pw.x -npool 4 -i  Done                     04/23/2018 10:07:24