     Program PWSCF v.5.1rc2 (svn rev. 11289) starts on  2May2018 at 17:58:24

     Current dimensions of program PWSCF are:
     Max number of different atomic species (ntypx) = 10
     Max number of k-points (npk) =  40000
     Max angular momentum in pseudopotentials (lmaxx) =  3
     Presently stress not available with electric field

     IMPORTANT: XC functional enforced from input :
     Exchange-correlation      = BEEF-VDW ( 1  4 27 13 2)
     Any further DFT definition will be discarded
     Please, verify this is what you really want

     Subspace diagonalization in iterative solution of the eigenvalue problem:
     a serial algorithm will be used

     bravais-lattice index     =            0
     lattice parameter (alat)  =       1.8897  a.u.
     unit-cell volume          =    4158.3597 (a.u.)^3
     number of atoms/cell      =           13
     number of atomic types    =            2
     number of electrons       =       162.00
     number of Kohn-Sham states=           91
     kinetic-energy cutoff     =      36.7493  Ry
     charge density cutoff     =     367.4932  Ry
     convergence threshold     =      1.0E-05
     mixing beta               =       0.3000
     number of iterations used =           10  plain     mixing
     Exchange-correlation      = BEEF-VDW ( 1  4 27 13 2)
     nstep                     =           50

     celldm(1)=   1.889726  celldm(2)=   0.000000  celldm(3)=   0.000000
     celldm(4)=   0.000000  celldm(5)=   0.000000  celldm(6)=   0.000000

     crystal axes: (cart. coord. in units of alat)
               a(1) = (   5.399178   0.000000   0.000000 )
               a(2) = (   2.699589   4.675825   0.000000 )
               a(3) = (   0.000000   0.000000  24.408411 )

     reciprocal axes: (cart. coord. in units 2 pi/alat)
               b(1) = (  0.185213 -0.106933  0.000000 )
               b(2) = (  0.000000  0.213866  0.000000 )
               b(3) = (  0.000000  0.000000  0.040969 )

     PseudoPot. # 1 for V  read from file:
     /u/if/mamunm/psp/gbrv1.5pbe/V.UPF
     MD5 check sum: 22b79981416ebb76fdaf5b1b8640f6fb
     Pseudo is Ultrasoft + core correction, Zval = 13.0
     Generated by new atomic code, or converted to UPF format
     Using radial grid of  853 points,  6 beta functions with:
                l(1) =   0
                l(2) =   0
                l(3) =   1
                l(4) =   1
                l(5) =   2
                l(6) =   2
     Q(r) pseudized with  8 coefficients,  rinner =    1.100   1.100   1.100
                                                       1.100   1.100

     PseudoPot. # 2 for S  read from file:
     /u/if/mamunm/psp/gbrv1.5pbe/S.UPF
     MD5 check sum: 88d86576ff6df21479756cfb9bdac1df
     Pseudo is Ultrasoft + core correction, Zval =  6.0
     Generated by new atomic code, or converted to UPF format
     Using radial grid of  907 points,  6 beta functions with:
                l(1) =   0
                l(2) =   0
                l(3) =   1
                l(4) =   1
                l(5) =   2
                l(6) =   2
     Q(r) pseudized with  8 coefficients,  rinner =    1.300   1.300   1.300
                                                       1.300   1.300

     vdW kernel table read from file vdW_kernel_table
     MD5 check sum: 095c7af220d748ca6e76c0b4c6cfb241

     atomic species   valence    mass     pseudopotential
        V1            13.00    50.94150     V ( 1.00)
        S1             6.00    32.06000     S ( 1.00)

     No symmetry found

   Cartesian axes

     site n.     atom                  positions (alat units)
         1           V1  tau(   1) = (   1.3497945   0.7793042  10.0000000  )
         2           V1  tau(   2) = (   4.0493836   0.7793042  10.0000000  )
         3           V1  tau(   3) = (   2.6995891   3.1172170  10.0000000  )
         4           V1  tau(   4) = (   5.3991782   3.1172170  10.0000000  )
         5           V1  tau(   5) = (   5.3991782   1.5586085  12.2042053  )
         6           V1  tau(   6) = (   2.6995891   1.5586085  12.2042053  )
         7           V1  tau(   7) = (   6.7489727   3.8965212  12.2042053  )
         8           V1  tau(   8) = (   4.0493836   3.8965212  12.2042053  )
         9           V1  tau(   9) = (   0.0000000   0.0000000  14.4084105  )
        10           V1  tau(  10) = (   2.6995891   0.0000000  14.4084105  )
        11           V1  tau(  11) = (   1.3497945   2.3379127  14.4084105  )
        12           V1  tau(  12) = (   4.0493836   2.3379127  14.4084105  )
        13           S1  tau(  13) = (   1.3497945   0.7793042  16.0854105  )

     number of k points=    20  Fermi-Dirac smearing, width (Ry)=  0.0110
                       cart. coord. in units 2pi/alat
        k(    1) = (   0.0000000   0.0000000   0.0000000), wk =   0.0555556
        k(    2) = (   0.0000000   0.0356443   0.0000000), wk =   0.1111111
        k(    3) = (   0.0000000   0.0712887   0.0000000), wk =   0.1111111
        k(    4) = (   0.0000000  -0.1069330   0.0000000), wk =   0.0555556
        k(    5) = (   0.0308689  -0.0178222   0.0000000), wk =   0.1111111
        k(    6) = (   0.0308689   0.0178222   0.0000000), wk =   0.1111111
        k(    7) = (   0.0308689   0.0534665   0.0000000), wk =   0.1111111
        k(    8) = (   0.0308689  -0.1247552   0.0000000), wk =   0.1111111
        k(    9) = (   0.0308689  -0.0891108   0.0000000), wk =   0.1111111
        k(   10) = (   0.0308689  -0.0534665   0.0000000), wk =   0.1111111
        k(   11) = (   0.0617378  -0.0356443   0.0000000), wk =   0.1111111
        k(   12) = (   0.0617378   0.0000000   0.0000000), wk =   0.1111111
        k(   13) = (   0.0617378   0.0356443   0.0000000), wk =   0.1111111
        k(   14) = (   0.0617378  -0.1425773   0.0000000), wk =   0.1111111
        k(   15) = (   0.0617378  -0.1069330   0.0000000), wk =   0.1111111
        k(   16) = (   0.0617378  -0.0712887   0.0000000), wk =   0.1111111
        k(   17) = (  -0.0926067   0.0534665   0.0000000), wk =   0.0555556
        k(   18) = (  -0.0926067   0.0891108   0.0000000), wk =   0.1111111
        k(   19) = (  -0.0926067   0.1247552   0.0000000), wk =   0.1111111
        k(   20) = (  -0.0926067  -0.0534665   0.0000000), wk =   0.0555556

     Largest allocated arrays     est. size (Mb)     dimensions
     Largest temporary arrays     est. size (Mb)     dimensions

     Check: negative/imaginary core charge=   -0.000001    0.000000

     Initial potential from superposition of free atoms
     Check: negative starting charge=   -0.011610

     starting charge  161.98523, renormalised to  162.00000

     negative rho (up, down):  1.161E-02 0.000E+00

     *
     * You are using vdW-DF for exchange-correlation in this calculation.
     * Please cite the following three references that made this development
     * possible:
     *
     *   M. Dion, H. Rydberg, E. Schroder, D. C. Langreth, and
     *   B. I. Lundqvist, Phys. Rev. Lett. 92, 246401 (2004).
     *
     *   T. Thonhauser, V. R. Cooper, S. Li, A. Puzder, P. Hyldgaard, and
     *   D. C. Langreth, Phys. Rev. B 76, 125112 (2007).
     *
     *   G. Roman-Perez and J. M. Soler, Phys. Rev. Lett. 103, 096102 (2009).
     *
     *
     * If you are using vdW-DF2, please also cite:
     *
     *   K. Lee, E. D. Murray, L. Kong, B. I. Lundqvist, and
     *   D. C. Langreth, Phys. Rev. B 82, 081101(R) (2010).
     *
     *
     * If you are calculating the stress with vdW-DF, please also cite:
     *
     *   R. Sabatini, E. Kucukbenli, B. Kolb, T. Thonhauser, and
     *   S. de Gironcoli, J. Phys.: Condens. Matter 24, 424209 (2012).
     *

     Carrying out vdW-DF run using the following parameters:

     Nqs =      20    Nr_points =    1024   r_max =   100.000
     q_mesh =
               0.00001000     0.04494208     0.09755937     0.15916263
               0.23128650     0.31572767     0.41458969     0.53033537
               0.66584808     0.82450364     1.01025438     1.22772762
               1.48234092     1.78043706     2.12944203     2.53805004
               3.01644009     3.57652955     4.23227104     5.00000000

     Gradients computed in reciprocal space

     Adding external electric field

     Computed dipole along edir(3) :
        Dipole               -0.0037 Ry au,         -0.0095 Debye
        Dipole field         -0.0000 Ry au

        Potential amp.        0.0010 Ry
        Total length         44.9721 bohr

     Starting wfc are  124 randomized atomic wfcs

     Self-consistent Calculation

     iteration #  1     ecut=    36.75 Ry     beta=0.30
     Davidson diagonalization with overlap
     ethr =  1.00E-02,  avg # of iterations =  2.4

[...]

     total energy              =   -1767.97549675 Ry
     Harris-Foulkes estimate   =   -1774.18654584 Ry
     estimated scf accuracy    <      12.72095926 Ry

[...]

     End of self-consistent calculation

          k = 0.0000 0.0000 0.0000 ( 15569 PWs)   bands (ev):

   -63.1477 -63.0909 -63.0296 -63.0078 -62.9967 -62.9964 -62.9764 -62.9559
   -62.9555 -62.9428 -62.9423 -62.9419 -37.2334 -37.2226 -37.2225 -37.1890
   -37.1713 -37.1697 -37.1696 -37.1006 -37.1004 -37.0971 -36.9555 -36.8797
   -36.8321 -36.8316 -36.8177 -36.8175 -36.8120 -36.7346 -36.7345 -36.7209
   -36.6804 -36.6802 -36.6792 -36.6543 -36.6542 -36.6297 -36.6276 -36.5920
   -36.5918 -36.5842 -36.5639 -36.5638 -36.5099 -36.5099 -36.4695 -36.4695
   -11.8730  -4.8905  -3.5168  -2.7721  -2.7721  -2.7252  -2.1226  -1.8854
    -1.8233  -1.8233  -1.4927  -1.4926  -1.4763  -1.1499  -1.1499  -1.1283
    -0.8911  -0.8910  -0.7090  -0.0976  -0.0974   0.3521   0.6302   0.7528
     0.7528   0.8517   1.0114   1.2051   1.2912   1.2913   1.3611   1.3613
     1.4505   1.4776   1.4777   1.5601   1.5708   1.5708   1.6045   1.6046
     2.0308   2.1545   2.1546

[...]

          k =-0.0926 0.0535 0.0000 ( 15660 PWs)   bands (ev):

[...]

     the Fermi energy is     1.1637 ev

!    total energy              =   -1773.47227335 Ry
     Harris-Foulkes estimate   =   -1773.47227052 Ry
     estimated scf accuracy    <       0.00000197 Ry

     The total energy is the sum of the following terms:

     one-electron contribution =  -15349.54765287 Ry
     hartree contribution      =    7664.63783192 Ry
     xc contribution           =    -253.15972447 Ry
     ewald contribution        =    6164.74021237 Ry
     electric field correction =       0.00002589 Ry
     smearing contrib. (-TS)   =      -0.14296620 Ry

     convergence has been achieved in  29 iterations

 BEEF-vdW xc energy contributions
           1 :   -218.048192372077
           2 :    195.591303181412
           3 :   -158.456821442278
           4 :    118.251474721548
           5 :   -85.1344703811811
           6 :    64.0191103859376
           7 :   -53.8649587564632
           8 :    49.8486824667153
           9 :   -46.7813705990923
          10 :    41.7721456063896
          11 :   -34.9488664574890
          12 :    28.3218956736737
          13 :   -23.8785815525157
          14 :    22.1831370437438
          15 :   -22.2078933739286
          16 :    22.2389328103334
          17 :   -21.0832532262478
          18 :    18.7438110154944
          19 :   -16.2003235627575
          20 :    14.5632402141743
          21 :   -14.2560577152559
          22 :    14.7773939043569
          23 :   -15.1376826272258
          24 :    14.5907079884885
          25 :   -13.1249412866599
          26 :    11.4003037794980
          27 :   -10.2298547961348
          28 :    10.0028667893396
          29 :   -10.4496526177126
          30 :    10.8794666156289
          31 :   -22.7087357306532
          32 :   -16.3671173741560

     Forces acting on atoms (Ry/au):

     negative rho (up, down):  1.548E-02 0.000E+00
     atom    1 type  1   force =    -0.00000550   -0.00000271   -0.00168942
     atom    2 type  1   force =     0.00000305    0.00162705   -0.00026841
     atom    3 type  1   force =     0.00142131   -0.00081096   -0.00028381
     atom    4 type  1   force =    -0.00141954   -0.00081091   -0.00024820
     atom    5 type  1   force =    -0.00098764    0.00056897   -0.00044040
     atom    6 type  1   force =     0.00099162    0.00058303   -0.00047195
     atom    7 type  1   force =     0.00001137   -0.00000063   -0.00142215
     atom    8 type  1   force =    -0.00001017   -0.00114802   -0.00046171
     atom    9 type  1   force =    -0.03770891   -0.02177379    0.00004479
     atom   10 type  1   force =     0.03771850   -0.02178269    0.00002098
     atom   11 type  1   force =    -0.00000033    0.04355123    0.00002506
     atom   12 type  1   force =    -0.00000034    0.00000230   -0.01860375
     atom   13 type  2   force =    -0.00001342   -0.00000285    0.02379897

     Total force =     0.081255     Total SCF correction =     0.005284

     entering subroutine stress ...

     negative rho (up, down):  1.548E-02 0.000E+00
          total   stress  (Ry/bohr**3)                   (kbar)     P=  -12.60
  -0.00013608  -0.00000002  -0.00000004        -20.02     -0.00     -0.01
  -0.00000002  -0.00013606  -0.00000001         -0.00    -20.01     -0.00
  -0.00000004  -0.00000001   0.00001516         -0.01     -0.00      2.23

     BFGS Geometry Optimization

     number of scf cycles    =   1
     number of bfgs steps    =   0

     energy   new            =   -1773.4722733517 Ry

     new trust radius        =       0.0435565316 bohr
     new conv_thr            =       0.0000099958 Ry

ATOMIC_POSITIONS (crystal)
V1       0.166666667   0.166666667   0.409694847    0   0   0
V1       0.666666667   0.166666667   0.409694847    0   0   0
V1       0.166666667   0.666666667   0.409694847    0   0   0
V1       0.666666667   0.666666667   0.409694847    0   0   0
V1       0.833333333   0.333333333   0.500000000    0   0   0
V1       0.333333333   0.333333333   0.500000000    0   0   0
V1       0.833333333   0.833333333   0.500000000    0   0   0
V1       0.333333333   0.833333333   0.500000000    0   0   0
V1      -0.002463773  -0.002464205   0.590306125
V1       0.504929423  -0.002465213   0.590305608
V1      -0.002464444   0.504928823   0.590305697
V1       0.499999837   0.500000260   0.589901822
S1       0.166665512   0.166666344   0.659526944

     Writing output data file calc.save
     Check: negative starting charge=   -0.011610
     NEW-OLD atomic charge density approx. for the potential

     Check: negative/imaginary core charge=   -0.000001    0.000000
     Check: negative starting charge=   -0.011264

[...]

     energy   old            =   -1773.4722733517 Ry
     energy   new            =   -1773.4777808453 Ry

     CASE: energy  _new < energy  _old

[...]

     iteration #  1     ecut=    36.75 Ry     beta=0.30
     Davidson diagonalization with overlap
     c_bands:  1 eigenvalues not converged
     ethr =  1.00E-06,  avg # of iterations = 13.6

[...]

     iteration #  8     ecut=    36.75 Ry     beta=0.30
     Davidson diagonalization with overlap
     c_bands:  1 eigenvalues not converged
     ethr =  2.60E-07,  avg # of iterations =  6.7

[...]

     Total force =     0.016095     Total SCF correction =     0.000558

[...]

     Total force =     0.004224     Total SCF correction =     0.001112
     SCF correction compared to forces is large: reduce conv_thr to get better values

[...]

     number of scf cycles    =  12
     number of bfgs steps    =  11

     energy   old            =   -1773.4934382186 Ry
     energy   new            =   -1773.4937190874 Ry

     CASE: energy  _new < energy  _old

     new trust radius        =       0.0084456630 bohr
     new conv_thr            =       0.0000001000 Ry

ATOMIC_POSITIONS (crystal)
V1       0.166666667   0.166666667   0.409694847    0   0   0
V1       0.666666667   0.166666667   0.409694847    0   0   0
V1       0.166666667   0.666666667   0.409694847    0   0   0
V1       0.666666667   0.666666667   0.409694847    0   0   0
V1       0.833333333   0.333333333   0.500000000    0   0   0
V1       0.333333333   0.333333333   0.500000000    0   0   0
V1       0.833333333   0.833333333   0.500000000    0   0   0
V1       0.333333333   0.833333333   0.500000000    0   0   0
V1      -0.007978418  -0.007975242   0.593676002
V1       0.515952796  -0.007972901   0.593675380
V1      -0.007975294   0.515956378   0.593676162
V1       0.499998718   0.499999171   0.574960894
S1       0.166668216   0.166660580   0.661721372

     Writing output data file calc.save
     Check: negative starting charge=   -0.011739
     NEW-OLD atomic charge density approx. for the potential

     Check: negative/imaginary core charge=   -0.000001    0.000000
     Check: negative starting charge=   -0.011764

[...]

     Self-consistent Calculation

[...]

     total energy              =   -1773.49374132 Ry
     Harris-Foulkes estimate   =   -1773.49374132 Ry
     estimated scf accuracy    <       0.00000024 Ry

     iteration # 16     ecut=    36.75 Ry     beta=0.30
     Davidson diagonalization with overlap
     ethr =  8.17E-11,  avg # of iterations =  2.5

[...]

     negative rho (up, down):  1.611E-02 0.000E+00

     Adding external electric field

     Computed dipole along edir(3) :
        Dipole               -0.1470 Ry au,         -0.3736 Debye
        Dipole field         -0.0004 Ry au

        Potential amp.        0.0400 Ry
        Total length         44.9721 bohr

     End of self-consistent calculation

[...]

          k = 0.0617-0.0713 0.0000 ( 15642 PWs)   bands (ev):

[...]

          k =-0.0926-0.0535 0.0000 ( 15660 PWs)   bands (ev):

   -63.1761 -63.1378 -63.1319 -63.1083 -63.0905 -63.0878 -63.0717 -63.0566
   -63.0547 -63.0333 -63.0162 -62.8502 -37.2684 -37.2063 -37.1890 -37.1787
   -37.1656 -37.1397 -37.1148 -37.0741 -37.0623 -37.0605 -37.0428 -37.0114
   -37.0059 -36.9251 -36.9189 -36.9122 -36.8897 -36.8794 -36.8604 -36.8515
   -36.8428 -36.8353 -36.8264 -36.8219 -36.7884 -36.7577 -36.7503 -36.7365
   -36.7144 -36.7001 -36.6619 -36.6342 -36.6229 -36.5388 -36.4827 -36.4238
   -11.6481  -3.4789  -3.3089  -2.7023  -2.6212  -2.4002  -1.7415  -1.5947
    -1.3339  -1.2962  -1.2387  -1.2077  -1.1050  -0.7602  -0.6298  -0.5104
    -0.4236  -0.4171  -0.3009  -0.2218  -0.0331   0.0441   0.1821   0.2221
     0.2288   0.2728   0.3627   0.4890   0.5321   0.6400   0.6825   0.6850
     0.7781   0.9254   0.9854   1.1749   1.2292   1.2333   1.3459   1.4682
     1.7046   1.7945   1.9760

     the Fermi energy is     1.0519 ev

!    total energy              =   -1773.49374124 Ry
     Harris-Foulkes estimate   =   -1773.49374206 Ry
     estimated scf accuracy    <       0.00000009 Ry

     The total energy is the sum of the following terms:

     one-electron contribution =  -15378.56679807 Ry
     hartree contribution      =    7678.84215547 Ry
     xc contribution           =    -253.22065392 Ry
     ewald contribution        =    6179.58395210 Ry
     electric field correction =       0.00006530 Ry
     smearing contrib. (-TS)   =      -0.13246211 Ry

     convergence has been achieved in  16 iterations

 BEEF-vdW xc energy contributions
           1 :   -218.109170119957
           2 :    195.644847485974
           3 :   -158.486485276356
           4 :    118.229692810557
           5 :   -85.0333309655461
           6 :    63.8283671991875
           7 :   -53.6028365719498
           8 :    49.5596990981082
           9 :   -46.5228077058627
          10 :    41.5904587404409
          11 :   -34.8517147029776
          12 :    28.2640905294453
          13 :   -23.7813086738667
          14 :    21.9847098092688
          15 :   -21.9117766446378
          16 :    21.9178152432859
          17 :   -20.8299779390462
          18 :    18.6040314353089
          19 :   -16.1382843618586
          20 :    14.4861103144758
          21 :   -14.0772348172349
          22 :    14.4732699446100
          23 :   -14.7616228654591
          24 :    14.2394708469287
          25 :   -12.8812342643928
          26 :    11.2853361255773
          27 :   -10.1928769287503
          28 :    9.95427366261885
          29 :   -10.3193410212424
          30 :    10.6641924879472
          31 :   -22.7119332428674
          32 :   -16.3633452553725

     Forces acting on atoms (Ry/au):

     negative rho (up, down):  1.611E-02 0.000E+00
     atom    1 type  1   force =    -0.00000301    0.00000058    0.00287610
     atom    2 type  1   force =     0.00000162    0.00138112   -0.00000838
     atom    3 type  1   force =     0.00119503   -0.00068894   -0.00001189
     atom    4 type  1   force =    -0.00119556   -0.00069152   -0.00000570
     atom    5 type  1   force =     0.02512457   -0.01450336   -0.00720873
     atom    6 type  1   force =    -0.02512253   -0.01450195   -0.00721249
     atom    7 type  1   force =    -0.00000013   -0.00000245    0.02068810
     atom    8 type  1   force =     0.00000008    0.02900733   -0.00721048
     atom    9 type  1   force =    -0.00054124   -0.00031276   -0.00040451
     atom   10 type  1   force =     0.00053790   -0.00031881   -0.00039585
     atom   11 type  1   force =    -0.00000782    0.00061994   -0.00039659
     atom   12 type  1   force =     0.00000815    0.00000116   -0.00033098
     atom   13 type  2   force =     0.00000294    0.00000966   -0.00037861

     Total force =     0.001377     Total SCF correction =     0.000444
     SCF correction compared to forces is large: reduce conv_thr to get better values

     entering subroutine stress ...

     negative rho (up, down):  1.611E-02 0.000E+00
          total   stress  (Ry/bohr**3)                   (kbar)     P=  -11.43
  -0.00011040   0.00000000   0.00000001        -16.24      0.00      0.00
   0.00000000  -0.00011041   0.00000001          0.00    -16.24      0.00
   0.00000001   0.00000001  -0.00001237          0.00      0.00     -1.82

     bfgs converged in  13 scf cycles and  12 bfgs steps
     (criteria: energy <  1.0E+00, force <  1.9E-03)

     End of BFGS Geometry Optimization

     Final energy   =   -1773.4937412428 Ry
Begin final coordinates

ATOMIC_POSITIONS (crystal)
V1       0.166666667   0.166666667   0.409694847    0   0   0
V1       0.666666667   0.166666667   0.409694847    0   0   0
V1       0.166666667   0.666666667   0.409694847    0   0   0
V1       0.666666667   0.666666667   0.409694847    0   0   0
V1       0.833333333   0.333333333   0.500000000    0   0   0
V1       0.333333333   0.333333333   0.500000000    0   0   0
V1       0.833333333   0.833333333   0.500000000    0   0   0
V1       0.333333333   0.833333333   0.500000000    0   0   0
V1      -0.007978418  -0.007975242   0.593676002
V1       0.515952796  -0.007972901   0.593675380
V1      -0.007975294   0.515956378   0.593676162
V1       0.499998718   0.499999171   0.574960894
S1       0.166668216   0.166660580   0.661721372
End final coordinates

     Writing output data file calc.save

     General routines

     Parallel routines

   This run was terminated on:  19:47:11   2May2018

   JOB DONE.
Job  /afs/slac/g/suncat/bin/suncat-tsmpirun -x LD_LIBRARY_PATH -wdir /scratch/qe826865_bZQ4O pw.x -npool 4 -in pw.inp

TID   HOST_NAME   COMMAND_LINE            STATUS            TERMINATION_TIME
00000 suncat0042 pw.x -npool 4 -i  Done                     05/02/2018 19:47:11
00001 suncat0042 pw.x -npool 4 -i  Done                     05/02/2018 19:47:11
00002 suncat0042 pw.x -npool 4 -i  Done                     05/02/2018 19:47:11
00003 suncat0042 pw.x -npool 4 -i  Done                     05/02/2018 19:47:11
00004 suncat0042 pw.x -npool 4 -i  Done                     05/02/2018 19:47:11
00005 suncat0042 pw.x -npool 4 -i  Done                     05/02/2018 19:47:11
00006 suncat0042 pw.x -npool 4 -i  Done                     05/02/2018 19:47:11
00007 suncat0042 pw.x -npool 4 -i  Done                     05/02/2018 19:47:11
00008 suncat0033 pw.x -npool 4 -i  Done                     05/02/2018 19:47:11
00009 suncat0033 pw.x -npool 4 -i  Done                     05/02/2018 19:47:11
00010 suncat0033 pw.x -npool 4 -i  Done                     05/02/2018 19:47:11
00011 suncat0033 pw.x -npool 4 -i  Done                     05/02/2018 19:47:11
00012 suncat0033 pw.x -npool 4 -i  Done                     05/02/2018 19:47:11
00013 suncat0033 pw.x -npool 4 -i  Done                     05/02/2018 19:47:11
00014 suncat0033 pw.x -npool 4 -i  Done                     05/02/2018 19:47:11
00015 suncat0033 pw.x -npool 4 -i  Done                     05/02/2018 19:47:11
00016 suncat0132 pw.x -npool 4 -i  Done                     05/02/2018 19:47:11
00017 suncat0132 pw.x -npool 4 -i  Done                     05/02/2018 19:47:11
00018 suncat0132 pw.x -npool 4 -i  Done                     05/02/2018 19:47:11
00019 suncat0132 pw.x -npool 4 -i  Done                     05/02/2018 19:47:11
00020 suncat0132 pw.x -npool 4 -i  Done                     05/02/2018 19:47:11
00021 suncat0132 pw.x -npool 4 -i  Done                     05/02/2018 19:47:11
00022 suncat0132 pw.x -npool 4 -i  Done                     05/02/2018 19:47:11
00023 suncat0132 pw.x -npool 4 -i  Done                     05/02/2018 19:47:11
00024 suncat0271 pw.x -npool 4 -i  Done                     05/02/2018 19:47:11
00025 suncat0271 pw.x -npool 4 -i  Done                     05/02/2018 19:47:11
00026 suncat0271 pw.x -npool 4 -i  Done                     05/02/2018 19:47:11
00027 suncat0271 pw.x -npool 4 -i  Done                     05/02/2018 19:47:11
00028 suncat0271 pw.x -npool 4 -i  Done                     05/02/2018 19:47:11
00029 suncat0271 pw.x -npool 4 -i  Done                     05/02/2018 19:47:11
00030 suncat0271 pw.x -npool 4 -i  Done                     05/02/2018 19:47:11
00031 suncat0271 pw.x -npool 4 -i  Done                     05/02/2018 19:47:11