     Program PWSCF v.5.1rc2 (svn rev. 11289) starts on  3May2018 at  3:28: 1

     Current dimensions of program PWSCF are:
     Max number of different atomic species (ntypx) = 10
     Max number of k-points (npk) =  40000
     Max angular momentum in pseudopotentials (lmaxx) =  3
     Presently stress not available with electric field

     IMPORTANT: XC functional enforced from input :
     Exchange-correlation      = BEEF-VDW ( 1  4 27 13 2)
     Any further DFT definition will be discarded
     Please, verify this is what you really want

     Subspace diagonalization in iterative solution of the eigenvalue problem:
     a serial algorithm will be used

     bravais-lattice index     =            0
     lattice parameter (alat)  =       1.8897  a.u.
     unit-cell volume          =    4704.3541 (a.u.)^3
     number of atoms/cell      =           13
     number of atomic types    =            2
     number of electrons       =       169.00
     number of Kohn-Sham states=           94
     kinetic-energy cutoff     =      36.7493  Ry
     charge density cutoff     =     367.4932  Ry
     convergence threshold     =      1.0E-05
     mixing beta               =       0.3000
     number of iterations used =           10  plain     mixing
     Exchange-correlation      = BEEF-VDW ( 1  4 27 13 2)
     nstep                     =           50

     celldm(1)=   1.889726  celldm(2)=   0.000000  celldm(3)=   0.000000
     celldm(4)=   0.000000  celldm(5)=   0.000000  celldm(6)=   0.000000

     crystal axes: (cart. coord. in units of alat)
               a(1) = (   5.712816   0.000000   0.000000 )
               a(2) = (   2.856408   4.947444   0.000000 )
               a(3) = (   0.000000   0.000000  24.664495 )

     reciprocal axes: (cart. coord. in units 2 pi/alat)
               b(1) = (  0.175045 -0.101062  0.000000 )
               b(2) = (  0.000000  0.202125  0.000000 )
               b(3) = (  0.000000  0.000000  0.040544 )

     PseudoPot. # 1 for W  read from file:
     /u/if/mamunm/psp/gbrv1.5pbe/W.UPF
     MD5 check sum: 9c083fa34c2a2ea0f02f1f893e16e1c8
     Pseudo is Ultrasoft + core correction, Zval = 14.0
     Generated by new atomic code, or converted to UPF format
     Using radial grid of  923 points,  8 beta functions with:
                l(1) =   0
                l(2) =   0
                l(3) =   0
                l(4) =   1
                l(5) =   1
                l(6) =   2
                l(7) =   2
                l(8) =   3
     Q(r) pseudized with  6 coefficients,  rinner =    1.350   1.350   1.350
                                                       1.350   1.350   1.350
                                                       1.350

     PseudoPot. # 2 for H  read from file:
     /u/if/mamunm/psp/gbrv1.5pbe/H.UPF
     MD5 check sum: 761ae9a214b05c3daf00ab9f6b793d6f
     Pseudo is Ultrasoft, Zval =  1.0
     Generated by new atomic code, or converted to UPF format
     Using radial grid of  615 points,  2 beta functions with:
                l(1) =   0
                l(2) =   0
     Q(r) pseudized with  8 coefficients,  rinner =    0.700

     vdW kernel table read from file vdW_kernel_table
     MD5 check sum: 095c7af220d748ca6e76c0b4c6cfb241

     atomic species   valence    mass     pseudopotential
        W1            14.00   183.84000     W ( 1.00)
        H1             1.00     1.00800     H ( 1.00)

     No symmetry found

   Cartesian axes

     site n.     atom                  positions (alat units)
         1           W1  tau(   1) = (   1.4282041   0.8245740  10.0000000  )
         2           W1  tau(   2) = (   4.2846123   0.8245740  10.0000000  )
         3           W1  tau(   3) = (   2.8564082   3.2982961  10.0000000  )
         4           W1  tau(   4) = (   5.7128165   3.2982961  10.0000000  )
         5           W1  tau(   5) = (   5.7128165   1.6491481  12.3322476  )
         6           W1  tau(   6) = (   2.8564082   1.6491481  12.3322476  )
         7           W1  tau(   7) = (   7.1410206   4.1228701  12.3322476  )
         8           W1  tau(   8) = (   4.2846123   4.1228701  12.3322476  )
         9           W1  tau(   9) = (   0.0000000   0.0000000  14.6644951  )
        10           W1  tau(  10) = (   2.8564082   0.0000000  14.6644951  )
        11           W1  tau(  11) = (   1.4282041   2.4737221  14.6644951  )
        12           W1  tau(  12) = (   4.2846123   2.4737221  14.6644951  )
        13           H1  tau(  13) = (   0.0000000   0.0000000  16.3049951  )

     number of k points=    20  Fermi-Dirac smearing, width (Ry)=  0.0110
                       cart. coord. in units 2pi/alat
        k(    1) = (   0.0000000   0.0000000   0.0000000), wk =   0.0555556
        k(    2) = (   0.0000000   0.0336874   0.0000000), wk =   0.1111111
        k(    3) = (   0.0000000   0.0673749   0.0000000), wk =   0.1111111
        k(    4) = (   0.0000000  -0.1010623   0.0000000), wk =   0.0555556
        k(    5) = (   0.0291742  -0.0168437   0.0000000), wk =   0.1111111
        k(    6) = (   0.0291742   0.0168437   0.0000000), wk =   0.1111111
        k(    7) = (   0.0291742   0.0505311   0.0000000), wk =   0.1111111
        k(    8) = (   0.0291742  -0.1179060   0.0000000), wk =   0.1111111
        k(    9) = (   0.0291742  -0.0842186   0.0000000), wk =   0.1111111
        k(   10) = (   0.0291742  -0.0505311   0.0000000), wk =   0.1111111
        k(   11) = (   0.0583483  -0.0336874   0.0000000), wk =   0.1111111
        k(   12) = (   0.0583483  -0.0000000   0.0000000), wk =   0.1111111
        k(   13) = (   0.0583483   0.0336874   0.0000000), wk =   0.1111111
        k(   14) = (   0.0583483  -0.1347497   0.0000000), wk =   0.1111111
        k(   15) = (   0.0583483  -0.1010623   0.0000000), wk =   0.1111111
        k(   16) = (   0.0583483  -0.0673749   0.0000000), wk =   0.1111111
        k(   17) = (  -0.0875225   0.0505311   0.0000000), wk =   0.0555556
        k(   18) = (  -0.0875225   0.0842186   0.0000000), wk =   0.1111111
        k(   19) = (  -0.0875225   0.1179060   0.0000000), wk =   0.1111111
        k(   20) = (  -0.0875225  -0.0505311   0.0000000), wk =   0.0555556

     Largest allocated arrays     est. size (Mb)     dimensions
     Largest temporary arrays     est. size (Mb)     dimensions

     Initial potential from superposition of free atoms
     Check: negative starting charge=   -0.760370

     starting charge  167.79591, renormalised to  169.00000

     negative rho (up, down):  7.658E-01 0.000E+00

     *
     * You are using vdW-DF for exchange-correlation in this calculation.
     * Please cite the following three references that made this development
     * possible:
     *
     *   M. Dion, H. Rydberg, E. Schroder, D. C. Langreth, and
     *   B. I. Lundqvist, Phys. Rev. Lett. 92, 246401 (2004).
     *
     *   T. Thonhauser, V. R. Cooper, S. Li, A. Puzder, P. Hyldgaard, and
     *   D. C. Langreth, Phys. Rev. B 76, 125112 (2007).
     *
     *   G. Roman-Perez and J. M. Soler, Phys. Rev. Lett. 103, 096102 (2009).
     *
     *
     * If you are using vdW-DF2, please also cite:
     *
     *   K. Lee, E. D. Murray, L. Kong, B. I. Lundqvist, and
     *   D. C. Langreth, Phys. Rev. B 82, 081101(R) (2010).
     *
     *
     * If you are calculating the stress with vdW-DF, please also cite:
     *
     *   R. Sabatini, E. Kucukbenli, B. Kolb, T. Thonhauser, and
     *   S. de Gironcoli, J. Phys.: Condens. Matter 24, 424209 (2012).
     *

     Carrying out vdW-DF run using the following parameters:

     Nqs =      20    Nr_points =    1024   r_max =   100.000
     q_mesh =
               0.00001000     0.04494208     0.09755937     0.15916263
               0.23128650     0.31572767     0.41458969     0.53033537
               0.66584808     0.82450364     1.01025438     1.22772762
               1.48234092     1.78043706     2.12944203     2.53805004
               3.01644009     3.57652955     4.23227104     5.00000000

     Gradients computed in reciprocal space

     Adding external electric field

     Computed dipole along edir(3) :
        Dipole               -0.0538 Ry au,         -0.1368 Debye
        Dipole field         -0.0001 Ry au

        Potential amp.        0.0131 Ry
        Total length         45.4439 bohr

     Starting wfc are  157 randomized atomic wfcs

     Self-consistent Calculation

     iteration #  1     ecut=    36.75 Ry     beta=0.30
     Davidson diagonalization with overlap
     ethr =  1.00E-02,  avg # of iterations =  2.0

[...]

     total energy              =   -1924.97560854 Ry
     Harris-Foulkes estimate   =   -1926.22523906 Ry
     estimated scf accuracy    <       2.83342834 Ry

[...]

     End of self-consistent calculation

          k = 0.0000 0.0000 0.0000 ( 17753 PWs)   bands (ev):

   -71.9314 -71.8933 -71.8611 -71.8611 -71.8560 -71.8369 -71.8185 -71.8185
   -71.8072 -71.7990 -71.7989 -71.5734 -36.4997 -36.4996 -36.4769 -36.4354
   -36.3754 -36.3676 -36.3676 -36.2890 -36.2731 -36.2731 -36.1070 -36.0161
   -36.0161 -35.9486 -35.9379 -35.9378 -35.8307 -35.8167 -35.8038 -35.8037
   -35.7378 -35.7378 -35.7122 -35.6891 -35.6434 -35.6434 -35.6152 -35.5926
   -35.5926 -35.5782 -35.5730 -35.5730 -35.4487 -35.4487 -35.4096 -35.4096
    -5.9088  -4.1377  -3.2731  -2.7548  -2.7189  -2.7189  -2.5863  -2.4872
    -2.4872  -1.7936  -1.6869  -1.6869  -1.6847  -1.6772  -1.6772  -0.8762
    -0.2127  -0.1998  -0.1997   0.9506   0.9758   0.9758   1.1047   1.3388
     1.7267   1.7267   1.8040   1.8041   1.8408   2.0878   2.0879   2.1260
     2.1409   2.1409   2.3432   2.3432   2.5963   3.0693   3.1063   3.1063
     3.6287   3.9508   3.9857   3.9857   4.1726   4.1726

[...]

          k =-0.0875 0.0505 0.0000 ( 17668 PWs)   bands (ev):

[...]

     the Fermi energy is     2.3055 ev

!    total energy              =   -1925.89207333 Ry
     Harris-Foulkes estimate   =   -1925.89207344 Ry
     estimated scf accuracy    <       0.00000065 Ry

     The total energy is the sum of the following terms:

     one-electron contribution =  -14671.84147547 Ry
     hartree contribution      =    7318.71656177 Ry
     xc contribution           =    -511.03958583 Ry
     ewald contribution        =    5938.36916448 Ry
     electric field correction =       0.00000762 Ry
     smearing contrib. (-TS)   =      -0.09674590 Ry

     convergence has been achieved in  14 iterations

 BEEF-vdW xc energy contributions
           1 :   -449.697124310404
           2 :    416.104792051259
           3 :   -356.903389226108
           4 :    285.037682201944
           5 :   -214.026434666245
           6 :    154.025666850242
           7 :   -109.643920566067
           8 :    80.0311484038810
           9 :   -60.8155024655006
          10 :    46.7971931744443
          11 :   -34.1901692234359
          12 :    21.6206170540459
          13 :   -9.78456285706051
          14 :   0.263139062168364
          15 :    5.75705350989887
          16 :   -8.24290236422866
          17 :    8.30447545124213
          18 :   -7.57118365264847
          19 :    7.37410168733811
          20 :   -8.18258911711399
          21 :    9.55697584047670
          22 :   -10.5827585354710
          23 :    10.5009592211457
          24 :   -9.17587754948386
          25 :    7.16381655048207
          26 :   -5.38097178670927
          27 :    4.58476505832942
          28 :   -4.96834769327523
          29 :    6.08505695594710
          30 :   -7.12426058116620
          31 :   -40.6677282992965
          32 :   -30.4592365064231

     Forces acting on atoms (Ry/au):

     negative rho (up, down):  7.919E-01 0.000E+00
     atom    1 type  1   force =     0.00003686    0.00002247   -0.00336232
     atom    2 type  1   force =    -0.00003532    0.00001471   -0.00335832
     atom    3 type  1   force =    -0.00000585   -0.00003996   -0.00336375
     atom    4 type  1   force =     0.00000809    0.00000532    0.00100644
     atom    5 type  1   force =     0.00000010    0.00127340   -0.00876359
     atom    6 type  1   force =     0.00000046    0.00000593    0.00609216
     atom    7 type  1   force =    -0.00110068   -0.00064128   -0.00878187
     atom    8 type  1   force =     0.00109762   -0.00064109   -0.00877212
     atom    9 type  1   force =    -0.00000589   -0.00000370   -0.01612858
     atom   10 type  1   force =     0.00000503   -0.00387352   -0.00873620
     atom   11 type  1   force =    -0.00334981    0.00194191   -0.00873392
     atom   12 type  1   force =     0.00334941    0.00193547   -0.00872431
     atom   13 type  2   force =    -0.00000000    0.00000034    0.07162636

     Total force =     0.075261     Total SCF correction =     0.000784

     entering subroutine stress ...

     negative rho (up, down):  7.919E-01 0.000E+00
          total   stress  (Ry/bohr**3)                   (kbar)     P=  -44.46
  -0.00045444  -0.00000000   0.00000000        -66.85     -0.00      0.00
  -0.00000000  -0.00045443   0.00000000         -0.00    -66.85      0.00
   0.00000000   0.00000000   0.00000216          0.00      0.00      0.32

     BFGS Geometry Optimization

     number of scf cycles    =   1
     number of bfgs steps    =   0

     energy   new            =   -1925.8920733282 Ry

     new trust radius        =       0.0716263631 bohr
     new conv_thr            =       0.0000099958 Ry

ATOMIC_POSITIONS (crystal)
W1       0.166666667   0.166666667   0.405441099    0   0   0
W1       0.666666667   0.166666667   0.405441099    0   0   0
W1       0.166666667   0.666666667   0.405441099    0   0   0
W1       0.666666667   0.666666667   0.405441099    0   0   0
W1       0.833333333   0.333333333   0.500000000    0   0   0
W1       0.333333333   0.333333333   0.500000000    0   0   0
W1       0.833333333   0.833333333   0.500000000    0   0   0
W1       0.333333333   0.833333333   0.500000000    0   0   0
W1      -0.000000348  -0.000000396   0.594212862
W1       0.500207621  -0.000414311   0.594371466
W1      -0.000414145   0.500207706   0.594371515
W1       0.500206746   0.500207017   0.594371721
H1      -0.000000019   0.000000036   0.662608258

     Writing output data file calc.save
     Check: negative starting charge=   -0.760370
     NEW-OLD atomic charge density approx. for the potential
     Check: negative starting charge=   -0.760798

[...]

     energy   old            =   -1925.8920733282 Ry
     energy   new            =   -1925.8963757540 Ry

     CASE: energy  _new < energy  _old

[...]

     number of scf cycles    =   7
     number of bfgs steps    =   6

     energy   old            =   -1925.9120266627 Ry
     energy   new            =   -1925.9136472814 Ry

     CASE: energy  _new < energy  _old

     new trust radius        =       0.0239047486 bohr
     new conv_thr            =       0.0000001000 Ry

ATOMIC_POSITIONS (crystal)
W1       0.166666667   0.166666667   0.405441099    0   0   0
W1       0.666666667   0.166666667   0.405441099    0   0   0
W1       0.166666667   0.666666667   0.405441099    0   0   0
W1       0.666666667   0.666666667   0.405441099    0   0   0
W1       0.833333333   0.333333333   0.500000000    0   0   0
W1       0.333333333   0.333333333   0.500000000    0   0   0
W1       0.833333333   0.833333333   0.500000000    0   0   0
W1       0.333333333   0.833333333   0.500000000    0   0   0
W1      -0.000000892  -0.000000063   0.605587173
W1       0.501883733  -0.003766930   0.591824879
W1      -0.003766505   0.501883845   0.591824710
W1       0.501882311   0.501882830   0.591825115
H1       0.000000134   0.000000593   0.676569598

     Writing output data file calc.save
     Check: negative starting charge=   -0.760432
     NEW-OLD atomic charge density approx. for the potential
     Check: negative starting charge=   -0.760430

[...]

     Self-consistent Calculation

[...]

     total energy              =   -1925.91392386 Ry
     Harris-Foulkes estimate   =   -1925.91392395 Ry
     estimated scf accuracy    <       0.00000042 Ry

     iteration #  9     ecut=    36.75 Ry     beta=0.30
     Davidson diagonalization with overlap
     ethr =  2.48E-10,  avg # of iterations =  3.2

[...]

     negative rho (up, down):  7.922E-01 0.000E+00

     Adding external electric field

     Computed dipole along edir(3) :
        Dipole               -0.1564 Ry au,         -0.3974 Debye
        Dipole field         -0.0004 Ry au

        Potential amp.        0.0380 Ry
        Total length         45.4439 bohr

     End of self-consistent calculation

[...]

          k = 0.0583-0.0674 0.0000 ( 17692 PWs)   bands (ev):

[...]

          k =-0.0875-0.0505 0.0000 ( 17668 PWs)   bands (ev):

   -72.0197 -72.0092 -71.9976 -71.9748 -71.9723 -71.9592 -71.9549 -71.9495
   -71.9359 -71.9350 -71.9241 -71.9206 -36.4931 -36.4728 -36.4581 -36.4213
   -36.3975 -36.3821 -36.3081 -36.2761 -36.2655 -36.2502 -36.2451 -36.1979
   -36.0914 -36.0657 -36.0462 -36.0213 -36.0127 -36.0097 -35.9997 -35.9869
   -35.9814 -35.9734 -35.9513 -35.9369 -35.9232 -35.9169 -35.8356 -35.8241
   -35.8185 -35.7988 -35.7773 -35.7328 -35.7165 -35.6887 -35.6623 -35.6390
    -4.0980  -4.0604  -2.6116  -2.5827  -1.8962  -1.8161  -1.7619  -1.7392
    -1.6450  -1.5868  -0.9724  -0.8454  -0.6900  -0.5760  -0.5225  -0.4157
    -0.3156  -0.0486  -0.0456  -0.0098   0.3033   0.3441   0.4285   0.5997
     0.8816   0.9375   1.0230   1.0821   1.1307   1.1889   1.2292   1.2972
     1.3843   1.3907   1.7068   1.7370   1.7991   2.0932   2.2411   2.4659
     2.5756   2.9878   3.2537   3.2587   3.3607   3.4687

     the Fermi energy is     2.1840 ev

!    total energy              =   -1925.91392393 Ry
     Harris-Foulkes estimate   =   -1925.91392328 Ry
     estimated scf accuracy    <       0.00000004 Ry

     The total energy is the sum of the following terms:

     one-electron contribution =  -14609.05058985 Ry
     hartree contribution      =    7286.55049964 Ry
     xc contribution           =    -510.95819021 Ry
     ewald contribution        =    5907.63790257 Ry
     electric field correction =       0.00006531 Ry
     smearing contrib. (-TS)   =      -0.09361139 Ry

     convergence has been achieved in   9 iterations

 BEEF-vdW xc energy contributions
           1 :   -449.612997366078
           2 :    415.984067761343
           3 :   -356.738941723913
           4 :    284.854337253761
           5 :   -213.865355054785
           6 :    153.922608365995
           7 :   -109.608397170938
           8 :    80.0377396211794
           9 :   -60.8156077077515
          10 :    46.7467466783602
          11 :   -34.0760973452720
          12 :    21.4670257289520
          13 :   -9.63313576110494
          14 :   0.142029225289548
          15 :    5.85267185056705
          16 :   -8.34509226279340
          17 :    8.44544132963205
          18 :   -7.75429787795849
          19 :    7.56575801854740
          20 :   -8.33158565326437
          21 :    9.62840426242622
          22 :   -10.5843659186877
          23 :    10.4834147308324
          24 :   -9.20430004085017
          25 :    7.27718565408941
          26 :   -5.56533957109957
          27 :    4.77847803822613
          28 :   -5.09760094777170
          29 :    6.10816765322284
          30 :   -7.05731070462349
          31 :   -40.6614640949081
          32 :   -30.4438624750535

     Forces acting on atoms (Ry/au):

     negative rho (up, down):  7.922E-01 0.000E+00
     atom    1 type  1   force =    -0.00101914   -0.00058836   -0.00073294
     atom    2 type  1   force =     0.00101920   -0.00058843   -0.00073261
     atom    3 type  1   force =    -0.00000002    0.00117677   -0.00073286
     atom    4 type  1   force =     0.00000010    0.00000008   -0.00299958
     atom    5 type  1   force =    -0.00000013   -0.02179666    0.00747913
     atom    6 type  1   force =     0.00000062   -0.00000001   -0.01696696
     atom    7 type  1   force =     0.01887633    0.01089859    0.00747728
     atom    8 type  1   force =    -0.01887637    0.01089845    0.00747972
     atom    9 type  1   force =     0.00000129    0.00000063    0.00021502
     atom   10 type  1   force =    -0.00000172   -0.00018497    0.00032069
     atom   11 type  1   force =    -0.00016155    0.00009103    0.00032143
     atom   12 type  1   force =     0.00016134    0.00009284    0.00031971
     atom   13 type  2   force =     0.00000004    0.00000004   -0.00144802

     Total force =     0.001598     Total SCF correction =     0.000118

     entering subroutine stress ...

     negative rho (up, down):  7.922E-01 0.000E+00
          total   stress  (Ry/bohr**3)                   (kbar)     P=  -47.69
  -0.00044739   0.00000000  -0.00000000        -65.81      0.00     -0.00
   0.00000000  -0.00044739  -0.00000000          0.00    -65.81     -0.00
  -0.00000000  -0.00000000  -0.00007784         -0.00     -0.00    -11.45

     bfgs converged in   8 scf cycles and   7 bfgs steps
     (criteria: energy <  1.0E+00, force <  1.9E-03)

     End of BFGS Geometry Optimization

     Final energy   =   -1925.9139239307 Ry
Begin final coordinates

ATOMIC_POSITIONS (crystal)
W1       0.166666667   0.166666667   0.405441099    0   0   0
W1       0.666666667   0.166666667   0.405441099    0   0   0
W1       0.166666667   0.666666667   0.405441099    0   0   0
W1       0.666666667   0.666666667   0.405441099    0   0   0
W1       0.833333333   0.333333333   0.500000000    0   0   0
W1       0.333333333   0.333333333   0.500000000    0   0   0
W1       0.833333333   0.833333333   0.500000000    0   0   0
W1       0.333333333   0.833333333   0.500000000    0   0   0
W1      -0.000000892  -0.000000063   0.605587173
W1       0.501883733  -0.003766930   0.591824879
W1      -0.003766505   0.501883845   0.591824710
W1       0.501882311   0.501882830   0.591825115
H1       0.000000134   0.000000593   0.676569598
End final coordinates

     Writing output data file calc.save

     General routines

     Parallel routines

   This run was terminated on:   4:43:57   3May2018

   JOB DONE.
Job  /afs/slac/g/suncat/bin/suncat-tsmpirun -x LD_LIBRARY_PATH -wdir /scratch/qe608355_sxJ2n pw.x -npool 4 -in pw.inp

TID   HOST_NAME   COMMAND_LINE            STATUS            TERMINATION_TIME
00000 suncat0178 pw.x -npool 4 -i  Done                     05/03/2018 04:43:57
00001 suncat0178 pw.x -npool 4 -i  Done                     05/03/2018 04:43:57
00002 suncat0178 pw.x -npool 4 -i  Done                     05/03/2018 04:43:57
00003 suncat0178 pw.x -npool 4 -i  Done                     05/03/2018 04:43:57
00004 suncat0178 pw.x -npool 4 -i  Done                     05/03/2018 04:43:57
00005 suncat0178 pw.x -npool 4 -i  Done                     05/03/2018 04:43:57
00006 suncat0178 pw.x -npool 4 -i  Done                     05/03/2018 04:43:57
00007 suncat0178 pw.x -npool 4 -i  Done                     05/03/2018 04:43:57
00008 suncat0154 pw.x -npool 4 -i  Done                     05/03/2018 04:43:57
00009 suncat0154 pw.x -npool 4 -i  Done                     05/03/2018 04:43:57
00010 suncat0154 pw.x -npool 4 -i  Done                     05/03/2018 04:43:57
00011 suncat0154 pw.x -npool 4 -i  Done                     05/03/2018 04:43:57
00012 suncat0154 pw.x -npool 4 -i  Done                     05/03/2018 04:43:57
00013 suncat0154 pw.x -npool 4 -i  Done                     05/03/2018 04:43:57
00014 suncat0154 pw.x -npool 4 -i  Done                     05/03/2018 04:43:57
00015 suncat0154 pw.x -npool 4 -i  Done                     05/03/2018 04:43:57
00016 suncat0273 pw.x -npool 4 -i  Done                     05/03/2018 04:43:57
00017 suncat0273 pw.x -npool 4 -i  Done                     05/03/2018 04:43:57
00018 suncat0273 pw.x -npool 4 -i  Done                     05/03/2018 04:43:57
00019 suncat0273 pw.x -npool 4 -i  Done                     05/03/2018 04:43:57
00020 suncat0273 pw.x -npool 4 -i  Done                     05/03/2018 04:43:57
00021 suncat0273 pw.x -npool 4 -i  Done                     05/03/2018 04:43:57
00022 suncat0273 pw.x -npool 4 -i  Done                     05/03/2018 04:43:57
00023 suncat0273 pw.x -npool 4 -i  Done                     05/03/2018 04:43:57
00024 suncat0272 pw.x -npool 4 -i  Done                     05/03/2018 04:43:57
00025 suncat0272 pw.x -npool 4 -i  Done                     05/03/2018 04:43:57
00026 suncat0272 pw.x -npool 4 -i  Done                     05/03/2018 04:43:57
00027 suncat0272 pw.x -npool 4 -i  Done                     05/03/2018 04:43:57
00028 suncat0272 pw.x -npool 4 -i  Done                     05/03/2018 04:43:57
00029 suncat0272 pw.x -npool 4 -i  Done                     05/03/2018 04:43:57
00030 suncat0272 pw.x -npool 4 -i  Done                     05/03/2018 04:43:57
00031 suncat0272 pw.x -npool 4 -i  Done                     05/03/2018 04:43:57