     Program PWSCF v.5.1rc2 (svn rev. 11289) starts on 23Apr2018 at 10: 1:41

     Current dimensions of program PWSCF are:
     Max number of different atomic species (ntypx) = 10
     Max number of k-points (npk) =  40000
     Max angular momentum in pseudopotentials (lmaxx) =  3
     Presently stress not available with electric field

     IMPORTANT: XC functional enforced from input :
     Exchange-correlation      = BEEF-VDW ( 1  4 27 13 2)
     Any further DFT definition will be discarded
     Please, verify this is what you really want

     Subspace diagonalization in iterative solution of the eigenvalue problem:
     a serial algorithm will be used

     bravais-lattice index     =            0
     lattice parameter (alat)  =       1.8897  a.u.
     unit-cell volume          =    5185.0501 (a.u.)^3
     number of atoms/cell      =           16
     number of atomic types    =            3
     number of electrons       =       163.00
     number of Kohn-Sham states=           91
     kinetic-energy cutoff     =      36.7493  Ry
     charge density cutoff     =     367.4932  Ry
     convergence threshold     =      1.0E-05
     mixing beta               =       0.3000
     number of iterations used =           10  plain     mixing
     Exchange-correlation      = BEEF-VDW ( 1  4 27 13 2)
     nstep                     =           50

     celldm(1)=   1.889726  celldm(2)=   0.000000  celldm(3)=   0.000000
     celldm(4)=   0.000000  celldm(5)=   0.000000  celldm(6)=   0.000000

     crystal axes: (cart. coord. in units of alat)
               a(1) = (   5.972022   0.000000   0.000000 )
               a(2) = (   2.986011   5.171923   0.000000 )
               a(3) = (   0.000000   0.000000  24.876136 )

     reciprocal axes: (cart. coord. in units 2 pi/alat)
               b(1) = (  0.167447 -0.096676  0.000000 )
               b(2) = (  0.000000  0.193352  0.000000 )
               b(3) = (  0.000000  0.000000  0.040199 )

     PseudoPot. # 1 for Ta read from file:
     /u/if/mamunm/psp/gbrv1.5pbe/Ta.UPF
     MD5 check sum: f8bbe9446314a3b8ea5d9f3e3836c939
     Pseudo is Ultrasoft + core correction, Zval = 13.0
     Generated by new atomic code, or converted to UPF format
     Using radial grid of  921 points,  7 beta functions with:
                l(1) =   0
                l(2) =   0
                l(3) =   1
                l(4) =   1
                l(5) =   2
                l(6) =   2
                l(7) =   3
     Q(r) pseudized with  6 coefficients,  rinner =    1.300   1.300   1.300
                                                       1.300   1.300   1.300
                                                       1.300

     PseudoPot. # 2 for C  read from file:
     /u/if/mamunm/psp/gbrv1.5pbe/C.UPF
     MD5 check sum: d1aef80898a10debaa0f26306b886e00
     Pseudo is Ultrasoft + core correction, Zval =  4.0
     Generated by new atomic code, or converted to UPF format
     Using radial grid of  721 points,  4 beta functions with:
                l(1) =   0
                l(2) =   0
                l(3) =   1
                l(4) =   1
     Q(r) pseudized with  8 coefficients,  rinner =    1.100   1.100   1.100

     PseudoPot. # 3 for H  read from file:
     /u/if/mamunm/psp/gbrv1.5pbe/H.UPF
     MD5 check sum: 761ae9a214b05c3daf00ab9f6b793d6f
     Pseudo is Ultrasoft, Zval =  1.0
     Generated by new atomic code, or converted to UPF format
     Using radial grid of  615 points,  2 beta functions with:
                l(1) =   0
                l(2) =   0
     Q(r) pseudized with  8 coefficients,  rinner =    0.700

     vdW kernel table read from file vdW_kernel_table
     MD5 check sum: 095c7af220d748ca6e76c0b4c6cfb241

     atomic species   valence    mass     pseudopotential
        Ta1           13.00   180.94788     Ta( 1.00)
        C1             4.00    12.01100     C ( 1.00)
        H1             1.00     1.00800     H ( 1.00)

     No symmetry found

   Cartesian axes

     site n.     atom                  positions (alat units)
         1           Ta1 tau(   1) = (   1.4930055   0.8619871  10.0000000  )
         2           Ta1 tau(   2) = (   4.4790165   0.8619871  10.0000000  )
         3           Ta1 tau(   3) = (   2.9860110   3.4479485  10.0000000  )
         4           Ta1 tau(   4) = (   5.9720221   3.4479485  10.0000000  )
         5           Ta1 tau(   5) = (   5.9720221   1.7239743  12.4380678  )
         6           Ta1 tau(   6) = (   2.9860110   1.7239743  12.4380678  )
         7           Ta1 tau(   7) = (   7.4650276   4.3099357  12.4380678  )
         8           Ta1 tau(   8) = (   4.4790165   4.3099357  12.4380678  )
         9           Ta1 tau(   9) = (   0.0000000   0.0000000  14.8761356  )
        10           Ta1 tau(  10) = (   2.9860110   0.0000000  14.8761356  )
        11           Ta1 tau(  11) = (   1.4930055   2.5859614  14.8761356  )
        12           Ta1 tau(  12) = (   4.4790165   2.5859614  14.8761356  )
        13           C1  tau(  13) = (   1.4930055   0.8619871  16.4751356  )
        14           H1  tau(  14) = (   2.5830055   0.8619871  17.1051356  )
        15           H1  tau(  15) = (   1.0430055   1.7514871  17.1051356  )
        16           H1  tau(  16) = (   4.0290165   5.1444099  17.1051356  )

     number of k points=    20  Fermi-Dirac smearing, width (Ry)=  0.0110
                       cart. coord. in units 2pi/alat
        k(    1) = (   0.0000000   0.0000000   0.0000000), wk =   0.0555556
        k(    2) = (   0.0000000   0.0322253   0.0000000), wk =   0.1111111
        k(    3) = (   0.0000000   0.0644506   0.0000000), wk =   0.1111111
        k(    4) = (   0.0000000  -0.0966758   0.0000000), wk =   0.0555556
        k(    5) = (   0.0279079  -0.0161126   0.0000000), wk =   0.1111111
        k(    6) = (   0.0279079   0.0161126   0.0000000), wk =   0.1111111
        k(    7) = (   0.0279079   0.0483379   0.0000000), wk =   0.1111111
        k(    8) = (   0.0279079  -0.1127885   0.0000000), wk =   0.1111111
        k(    9) = (   0.0279079  -0.0805632   0.0000000), wk =   0.1111111
        k(   10) = (   0.0279079  -0.0483379   0.0000000), wk =   0.1111111
        k(   11) = (   0.0558158  -0.0322253   0.0000000), wk =   0.1111111
        k(   12) = (   0.0558158   0.0000000   0.0000000), wk =   0.1111111
        k(   13) = (   0.0558158   0.0322253   0.0000000), wk =   0.1111111
        k(   14) = (   0.0558158  -0.1289011   0.0000000), wk =   0.1111111
        k(   15) = (   0.0558158  -0.0966758   0.0000000), wk =   0.1111111
        k(   16) = (   0.0558158  -0.0644506   0.0000000), wk =   0.1111111
        k(   17) = (  -0.0837237   0.0483379   0.0000000), wk =   0.0555556
        k(   18) = (  -0.0837237   0.0805632   0.0000000), wk =   0.1111111
        k(   19) = (  -0.0837237   0.1127885   0.0000000), wk =   0.1111111
        k(   20) = (  -0.0837237  -0.0483379   0.0000000), wk =   0.0555556

     Largest allocated arrays     est. size (Mb)     dimensions
     Largest temporary arrays     est. size (Mb)     dimensions

     Initial potential from superposition of free atoms
     Check: negative starting charge=   -1.121423

     starting charge  162.98659, renormalised to  163.00000

     negative rho (up, down):  1.122E+00 0.000E+00

     *
     * You are using vdW-DF for exchange-correlation in this calculation.
     * Please cite the following three references that made this development
     * possible:
     *
     *   M. Dion, H. Rydberg, E. Schroder, D. C. Langreth, and
     *   B. I. Lundqvist, Phys. Rev. Lett. 92, 246401 (2004).
     *
     *   T. Thonhauser, V. R. Cooper, S. Li, A. Puzder, P. Hyldgaard, and
     *   D. C. Langreth, Phys. Rev. B 76, 125112 (2007).
     *
     *   G. Roman-Perez and J. M. Soler, Phys. Rev. Lett. 103, 096102 (2009).
     *
     *
     * If you are using vdW-DF2, please also cite:
     *
     *   K. Lee, E. D. Murray, L. Kong, B. I. Lundqvist, and
     *   D. C. Langreth, Phys. Rev. B 82, 081101(R) (2010).
     *
     *
     * If you are calculating the stress with vdW-DF, please also cite:
     *
     *   R. Sabatini, E. Kucukbenli, B. Kolb, T. Thonhauser, and
     *   S. de Gironcoli, J. Phys.: Condens. Matter 24, 424209 (2012).
     *

     Carrying out vdW-DF run using the following parameters:

     Nqs =      20    Nr_points =    1024   r_max =   100.000
     q_mesh =
               0.00001000     0.04494208     0.09755937     0.15916263
               0.23128650     0.31572767     0.41458969     0.53033537
               0.66584808     0.82450364     1.01025438     1.22772762
               1.48234092     1.78043706     2.12944203     2.53805004
               3.01644009     3.57652955     4.23227104     5.00000000

     Gradients computed in reciprocal space

     Adding external electric field

     Computed dipole along edir(3) :
        Dipole               -0.0041 Ry au,         -0.0105 Debye
        Dipole field         -0.0000 Ry au

        Potential amp.        0.0009 Ry
        Total length         45.8339 bohr

     Starting wfc are  163 randomized atomic wfcs

     Self-consistent Calculation

     iteration #  1     ecut=    36.75 Ry     beta=0.30
     Davidson diagonalization with overlap
     ethr =  1.00E-02,  avg # of iterations =  2.0

[...]

     total energy              =   -1731.61025222 Ry
     Harris-Foulkes estimate   =   -1734.02429952 Ry
     estimated scf accuracy    <       5.25712352 Ry

[...]

     End of self-consistent calculation

          k = 0.0000 0.0000 0.0000 ( 19447 PWs)   bands (ev):

   -65.7927 -65.7663 -65.7418 -65.7296 -65.7219 -65.7092 -65.7074 -65.7072
   -65.6716 -65.6288 -65.6269 -65.6080 -32.5246 -32.4995 -32.4972 -32.4863
   -32.4682 -32.4427 -32.4419 -32.4055 -32.4003 -32.3983 -32.2284 -32.1348
   -32.1270 -32.1238 -32.0473 -32.0459 -32.0431 -31.9178 -31.9154 -31.8982
   -31.8551 -31.8539 -31.8359 -31.8345 -31.8338 -31.8213 -31.7837 -31.7508
   -31.7502 -31.7419 -31.7082 -31.7066 -31.6727 -31.6723 -31.6043 -31.6041
   -11.3088  -4.9406  -4.4242  -4.0337  -3.7123  -2.7235  -2.0422  -1.5314
    -1.5303  -1.4568  -1.2522  -1.2392  -1.1744  -0.5898  -0.5797  -0.5232
    -0.3762  -0.3715   0.1023   0.8213   0.8353   1.5051   1.8721   1.9979
     2.0174   2.1223   2.3594   2.4793   2.5400   2.5530   2.6706   2.9060
     2.9073   3.0341   3.1645   3.1690   3.2569   3.2596   3.2745   3.3543
     3.3567   3.5283   3.5460

[...]

          k =-0.0837 0.0483 0.0000 ( 19532 PWs)   bands (ev):

[...]

     the Fermi energy is     2.5521 ev

!    total energy              =   -1733.52312155 Ry
     Harris-Foulkes estimate   =   -1733.52312122 Ry
     estimated scf accuracy    <       0.00000049 Ry

     The total energy is the sum of the following terms:

     one-electron contribution =  -11766.53139715 Ry
     hartree contribution      =    5870.33485111 Ry
     xc contribution           =    -528.71048999 Ry
     ewald contribution        =    4691.48736629 Ry
     electric field correction =       0.00029063 Ry
     smearing contrib. (-TS)   =      -0.10374243 Ry

     convergence has been achieved in  15 iterations

 BEEF-vdW xc energy contributions
           1 :   -465.270642733300
           2 :    429.388234630871
           3 :   -366.781411922618
           4 :    291.957434657303
           5 :   -219.432600743760
           6 :    159.292994678703
           7 :   -115.190102771575
           8 :    85.1429466986799
           9 :   -64.2715740672292
          10 :    47.8639229896207
          11 :   -33.3281138242668
          12 :    20.4237540109569
          13 :   -10.1649843636162
          14 :    3.37211241678506
          15 :   0.215417588478374
          16 :   -1.88566469757711
          17 :    3.19707141221716
          18 :   -5.11222171030153
          19 :    7.57614573396370
          20 :   -9.74594903531926
          21 :    10.6680252266863
          22 :   -9.95753776862415
          23 :    8.07389845752613
          24 :   -6.05880333726856
          25 :    4.93171237549279
          26 :   -5.12595532987996
          27 :    6.29623456816080
          28 :   -7.58384898918473
          29 :    8.14995805607708
          30 :   -7.64565384642248
          31 :   -41.7722880791438
          32 :   -31.0095867341967

     Forces acting on atoms (Ry/au):

     negative rho (up, down):  1.177E+00 0.000E+00
     atom    1 type  1   force =     0.00001280   -0.00002924    0.00326420
     atom    2 type  1   force =    -0.00019122    0.00073924    0.00323031
     atom    3 type  1   force =     0.00070209   -0.00034362    0.00329286
     atom    4 type  1   force =    -0.00068020   -0.00046336    0.00335547
     atom    5 type  1   force =     0.00119461   -0.00001967    0.00216262
     atom    6 type  1   force =    -0.00058847   -0.00115465    0.00217602
     atom    7 type  1   force =     0.00069330    0.00039222   -0.00037054
     atom    8 type  1   force =    -0.00043799    0.00130648    0.00167273
     atom    9 type  1   force =    -0.02764752   -0.02121733    0.00234757
     atom   10 type  1   force =     0.03423891   -0.01309670    0.00633403
     atom   11 type  1   force =    -0.00748994    0.03386657    0.00222016
     atom   12 type  1   force =     0.00149894   -0.00006087   -0.04075102
     atom   13 type  2   force =     0.03728649    0.00035402    0.16866584
     atom   14 type  3   force =    -0.06372113   -0.01493810   -0.06675668
     atom   15 type  3   force =     0.02448148   -0.02846434   -0.04497173
     atom   16 type  3   force =     0.00064786    0.04312934   -0.04587185

     Total force =     0.226826     Total SCF correction =     0.001584

     entering subroutine stress ...

     negative rho (up, down):  1.177E+00 0.000E+00
          total   stress  (Ry/bohr**3)                   (kbar)     P=  -32.77
  -0.00028262  -0.00000012  -0.00001010        -41.57     -0.02     -1.49
  -0.00000012  -0.00027865  -0.00000032         -0.02    -40.99     -0.05
  -0.00001010  -0.00000032  -0.00010694         -1.49     -0.05    -15.73

     BFGS Geometry Optimization

     number of scf cycles    =   1
     number of bfgs steps    =   0

     energy   new            =   -1733.5231215508 Ry

     new trust radius        =       0.1727384580 bohr
     new conv_thr            =       0.0000099958 Ry

ATOMIC_POSITIONS (crystal)
Ta1      0.166666667   0.166666667   0.401991699    0   0   0
Ta1      0.666666667   0.166666667   0.401991699    0   0   0
Ta1      0.166666667   0.666666667   0.401991699    0   0   0
Ta1      0.666666667   0.666666667   0.401991699    0   0   0
Ta1      0.833333333   0.333333333   0.500000000    0   0   0
Ta1      0.333333333   0.333333333   0.500000000    0   0   0
Ta1      0.833333333   0.833333333   0.500000000    0   0   0
Ta1      0.333333333   0.833333333   0.500000000    0   0   0
Ta1     -0.001364380  -0.002170901   0.598058240
Ta1      0.503703898  -0.001340019   0.598143042
Ta1     -0.002396247   0.503465136   0.598055530
Ta1      0.500135934   0.499993772   0.597141426
C1       0.169952489   0.166702889   0.665874716
H1       0.344302334   0.165138241   0.686192171
H1       0.008947627   0.335740598   0.686655591
H1       0.175159434   0.999093219   0.686636443

     Writing output data file calc.save
     Check: negative starting charge=   -1.121423
     NEW-OLD atomic charge density approx. for the potential
     Check: negative starting charge=   -1.123713

[...]

     energy   old            =   -1733.5231215508 Ry
     energy   new            =   -1733.5584527929 Ry

     CASE: energy  _new < energy  _old

[...]

     Threshold (ethr) on eigenvalues was too large:
     Diagonalizing with lowered threshold

     Davidson diagonalization with overlap
     ethr =  3.90E-08,  avg # of iterations =  2.7

[...]

     Total force =     0.004959     Total SCF correction =     0.000217

[...]

     number of scf cycles    =  20
     number of bfgs steps    =  19

     energy   old            =   -1733.5907360786 Ry
     energy   new            =   -1733.5907994929 Ry

     CASE: energy  _new < energy  _old

     new trust radius        =       0.0063317028 bohr
     new conv_thr            =       0.0000001000 Ry

ATOMIC_POSITIONS (crystal)
Ta1      0.166666667   0.166666667   0.401991699    0   0   0
Ta1      0.666666667   0.166666667   0.401991699    0   0   0
Ta1      0.166666667   0.666666667   0.401991699    0   0   0
Ta1      0.666666667   0.666666667   0.401991699    0   0   0
Ta1      0.833333333   0.333333333   0.500000000    0   0   0
Ta1      0.333333333   0.333333333   0.500000000    0   0   0
Ta1      0.833333333   0.833333333   0.500000000    0   0   0
Ta1      0.333333333   0.833333333   0.500000000    0   0   0
Ta1      0.002253593  -0.006527264   0.599689474
Ta1      0.518685873  -0.005599700   0.600129814
Ta1      0.000037848   0.510451771   0.599862701
Ta1      0.505032082   0.499657084   0.589264415
C1       0.169286912   0.166344933   0.666378898
H1       0.365226198   0.069808773   0.685628224
H1       0.070041005   0.361854856   0.685787527
H1       0.072802405   1.067644570   0.685955678

     Writing output data file calc.save
     Check: negative starting charge=   -1.124711
     NEW-OLD atomic charge density approx. for the potential
     Check: negative starting charge=   -1.124791

[...]

     Self-consistent Calculation

[...]

     Threshold (ethr) on eigenvalues was too large:
     Diagonalizing with lowered threshold

     Davidson diagonalization with overlap
     ethr =  1.55E-08,  avg # of iterations =  5.0

[...]

     total energy              =   -1733.59083281 Ry
     Harris-Foulkes estimate   =   -1733.59083292 Ry
     estimated scf accuracy    <       0.00000021 Ry

     iteration #  8     ecut=    36.75 Ry     beta=0.30
     Davidson diagonalization with overlap
     ethr =  1.29E-10,  avg # of iterations =  3.0

[...]

     negative rho (up, down):  1.181E+00 0.000E+00

     Adding external electric field

     Computed dipole along edir(3) :
        Dipole                0.2826 Ry au,          0.7182 Debye
        Dipole field          0.0007 Ry au

        Potential amp.       -0.0628 Ry
        Total length         45.8339 bohr

     End of self-consistent calculation

[...]

          k = 0.0558-0.0645 0.0000 ( 19521 PWs)   bands (ev):

[...]

          k =-0.0837-0.0483 0.0000 ( 19532 PWs)   bands (ev):

   -65.8693 -65.8409 -65.8348 -65.8260 -65.8245 -65.7966 -65.7950 -65.7337
   -65.7131 -65.6963 -65.6810 -65.6260 -32.4993 -32.4762 -32.4447 -32.4344
   -32.4255 -32.4231 -32.3653 -32.3358 -32.3243 -32.3224 -32.2842 -32.2757
   -32.2147 -32.1589 -32.1493 -32.1403 -32.1124 -32.0906 -32.0826 -32.0787
   -32.0523 -32.0115 -32.0023 -31.9806 -31.9701 -31.9517 -31.9042 -31.8776
   -31.8756 -31.8648 -31.8422 -31.8011 -31.7991 -31.7545 -31.7225 -31.6983
   -11.6728  -4.9322  -4.8047  -3.2365  -3.1043  -2.4681  -1.6782  -1.2795
    -0.8817  -0.8560  -0.6243  -0.5131  -0.4916  -0.3540   0.2498   0.3865
     0.5820   0.5929   0.6613   0.7682   0.9601   1.0894   1.1475   1.1904
     1.3461   1.3619   1.5535   1.6320   1.7294   1.8520   1.8922   1.9666
     2.0727   2.1245   2.2667   2.3597   2.7144   2.7251   2.8261   3.0116
     3.0749   3.5540   3.6974

     the Fermi energy is     2.4598 ev

!    total energy              =   -1733.59083281 Ry
     Harris-Foulkes estimate   =   -1733.59083296 Ry
     estimated scf accuracy    <       0.00000006 Ry

     The total energy is the sum of the following terms:

     one-electron contribution =  -11782.10034531 Ry
     hartree contribution      =    5877.75966249 Ry
     xc contribution           =    -528.88339991 Ry
     ewald contribution        =    4699.73059404 Ry
     electric field correction =       0.00019353 Ry
     smearing contrib. (-TS)   =      -0.09753765 Ry

     convergence has been achieved in   8 iterations

 BEEF-vdW xc energy contributions
           1 :   -465.423916893518
           2 :    429.513306169829
           3 :   -366.866892070504
           4 :    292.003394993986
           5 :   -219.440817180088
           6 :    159.268839378982
           7 :   -115.149032184908
           8 :    85.1097567623924
           9 :   -64.2703963868093
          10 :    47.9057264989431
          11 :   -33.4040154436028
          12 :    20.5082453888894
          13 :   -10.2266718481425
          14 :    3.38573477847837
          15 :   0.259464876111963
          16 :   -1.97643288809491
          17 :    3.30668070048438
          18 :   -5.20861765023648
          19 :    7.63926246055303
          20 :   -9.77918584469882
          21 :    10.6971112772552
          22 :   -10.0149481339981
          23 :    8.17718359649905
          24 :   -6.19609630816257
          25 :    5.06491429497805
          26 :   -5.21199075385482
          27 :    6.31402642568378
          28 :   -7.54967222861461
          29 :    8.11041375657584
          30 :   -7.65114193540643
          31 :   -41.7818928353650
          32 :   -31.0112143725324

     Forces acting on atoms (Ry/au):

     negative rho (up, down):  1.181E+00 0.000E+00
     atom    1 type  1   force =    -0.00025929   -0.00001201    0.00444070
     atom    2 type  1   force =    -0.00009003   -0.00058770    0.00296247
     atom    3 type  1   force =    -0.00073924    0.00035384    0.00286598
     atom    4 type  1   force =     0.00028583    0.00028680    0.00302144
     atom    5 type  1   force =     0.02127702   -0.01253074   -0.00651788
     atom    6 type  1   force =    -0.02265657   -0.01309125   -0.00440014
     atom    7 type  1   force =    -0.00190365    0.00004301    0.00653975
     atom    8 type  1   force =     0.00051869    0.02537561   -0.00538899
     atom    9 type  1   force =     0.00060615    0.00077707   -0.00035516
     atom   10 type  1   force =    -0.00109570   -0.00011157   -0.00030038
     atom   11 type  1   force =     0.00148581   -0.00062468   -0.00024445
     atom   12 type  1   force =     0.00057347    0.00007522   -0.00083392
     atom   13 type  2   force =     0.00128810    0.00001332    0.00178008
     atom   14 type  3   force =    -0.00068715    0.00029645   -0.00065362
     atom   15 type  3   force =     0.00067816   -0.00036993   -0.00114114
     atom   16 type  3   force =     0.00071839    0.00010657   -0.00177473

     Total force =     0.004181     Total SCF correction =     0.000459
     SCF correction compared to forces is large: reduce conv_thr to get better values

     entering subroutine stress ...

     negative rho (up, down):  1.181E+00 0.000E+00
          total   stress  (Ry/bohr**3)                   (kbar)     P=  -28.37
  -0.00025676  -0.00000299   0.00000524        -37.77     -0.44      0.77
  -0.00000299  -0.00025714   0.00000013         -0.44    -37.83      0.02
   0.00000524   0.00000013  -0.00006475          0.77      0.02     -9.53

     bfgs converged in  21 scf cycles and  20 bfgs steps
     (criteria: energy <  1.0E+00, force <  1.9E-03)

     End of BFGS Geometry Optimization

     Final energy   =   -1733.5908328096 Ry
Begin final coordinates

ATOMIC_POSITIONS (crystal)
Ta1      0.166666667   0.166666667   0.401991699    0   0   0
Ta1      0.666666667   0.166666667   0.401991699    0   0   0
Ta1      0.166666667   0.666666667   0.401991699    0   0   0
Ta1      0.666666667   0.666666667   0.401991699    0   0   0
Ta1      0.833333333   0.333333333   0.500000000    0   0   0
Ta1      0.333333333   0.333333333   0.500000000    0   0   0
Ta1      0.833333333   0.833333333   0.500000000    0   0   0
Ta1      0.333333333   0.833333333   0.500000000    0   0   0
Ta1      0.002253593  -0.006527264   0.599689474
Ta1      0.518685873  -0.005599700   0.600129814
Ta1      0.000037848   0.510451771   0.599862701
Ta1      0.505032082   0.499657084   0.589264415
C1       0.169286912   0.166344933   0.666378898
H1       0.365226198   0.069808773   0.685628224
H1       0.070041005   0.361854856   0.685787527
H1       0.072802405   1.067644570   0.685955678
End final coordinates

     Writing output data file calc.save

     General routines

     Parallel routines

   This run was terminated on:  12:32:11  23Apr2018

   JOB DONE.
Job  /afs/slac/g/suncat/bin/suncat-tsmpirun -x LD_LIBRARY_PATH -wdir /scratch/qe134043_WK8mH pw.x -npool 3 -in pw.inp

TID   HOST_NAME   COMMAND_LINE            STATUS            TERMINATION_TIME
00000 suncat1049 pw.x -npool 3 -i  Done                     04/23/2018 12:32:11
00001 suncat1049 pw.x -npool 3 -i  Done                     04/23/2018 12:32:11
00002 suncat1049 pw.x -npool 3 -i  Done                     04/23/2018 12:32:11
00003 suncat1049 pw.x -npool 3 -i  Done                     04/23/2018 12:32:11
00004 suncat1049 pw.x -npool 3 -i  Done                     04/23/2018 12:32:11
00005 suncat1049 pw.x -npool 3 -i  Done                     04/23/2018 12:32:11
00006 suncat1049 pw.x -npool 3 -i  Done                     04/23/2018 12:32:11
00007 suncat1049 pw.x -npool 3 -i  Done                     04/23/2018 12:32:11
00008 suncat1049 pw.x -npool 3 -i  Done                     04/23/2018 12:32:11
00009 suncat1049 pw.x -npool 3 -i  Done                     04/23/2018 12:32:11
00010 suncat1049 pw.x -npool 3 -i  Done                     04/23/2018 12:32:11
00011 suncat1049 pw.x -npool 3 -i  Done                     04/23/2018 12:32:11
00012 suncat1040 pw.x -npool 3 -i  Done                     04/23/2018 12:32:11
00013 suncat1040 pw.x -npool 3 -i  Done                     04/23/2018 12:32:11
00014 suncat1040 pw.x -npool 3 -i  Done                     04/23/2018 12:32:11
00015 suncat1040 pw.x -npool 3 -i  Done                     04/23/2018 12:32:11
00016 suncat1040 pw.x -npool 3 -i  Done                     04/23/2018 12:32:11
00017 suncat1040 pw.x -npool 3 -i  Done                     04/23/2018 12:32:11
00018 suncat1040 pw.x -npool 3 -i  Done                     04/23/2018 12:32:11
00019 suncat1040 pw.x -npool 3 -i  Done                     04/23/2018 12:32:11
00020 suncat1040 pw.x -npool 3 -i  Done                     04/23/2018 12:32:11
00021 suncat1040 pw.x -npool 3 -i  Done                     04/23/2018 12:32:11
00022 suncat1040 pw.x -npool 3 -i  Done                     04/23/2018 12:32:11
00023 suncat1040 pw.x -npool 3 -i  Done                     04/23/2018 12:32:11
00024 suncat1028 pw.x -npool 3 -i  Done                     04/23/2018 12:32:11
00025 suncat1028 pw.x -npool 3 -i  Done                     04/23/2018 12:32:11
00026 suncat1028 pw.x -npool 3 -i  Done                     04/23/2018 12:32:11
00027 suncat1028 pw.x -npool 3 -i  Done                     04/23/2018 12:32:11
00028 suncat1028 pw.x -npool 3 -i  Done                     04/23/2018 12:32:11
00029 suncat1028 pw.x -npool 3 -i  Done                     04/23/2018 12:32:11
00030 suncat1028 pw.x -npool 3 -i  Done                     04/23/2018 12:32:11
00031 suncat1028 pw.x -npool 3 -i  Done                     04/23/2018 12:32:11
00032 suncat1028 pw.x -npool 3 -i  Done                     04/23/2018 12:32:11
00033 suncat1028 pw.x -npool 3 -i  Done                     04/23/2018 12:32:11
00034 suncat1028 pw.x -npool 3 -i  Done                     04/23/2018 12:32:11
00035 suncat1028 pw.x -npool 3 -i  Done                     04/23/2018 12:32:11