     Program PWSCF v.5.1rc2 (svn rev. ) starts on 23Apr2018 at  3:18:59

     Current dimensions of program PWSCF are:
     Max number of different atomic species (ntypx) = 10
     Max number of k-points (npk) =  40000
     Max angular momentum in pseudopotentials (lmaxx) =  3
     Presently stress not available with electric field

     IMPORTANT: XC functional enforced from input :
     Exchange-correlation      = BEEF-VDW ( 1  4 27 13 2)
     Any further DFT definition will be discarded
     Please, verify this is what you really want

     Subspace diagonalization in iterative solution of the eigenvalue problem:
     a serial algorithm will be used

     bravais-lattice index     =            0
     lattice parameter (alat)  =       1.8897  a.u.
     unit-cell volume          =    6741.9070 (a.u.)^3
     number of atoms/cell      =           14
     number of atomic types    =            3
     number of electrons       =       175.00
     number of Kohn-Sham states=           97
     kinetic-energy cutoff     =      36.7493  Ry
     charge density cutoff     =     367.4932  Ry
     convergence threshold     =      1.0E-05
     mixing beta               =       0.3000
     number of iterations used =           10  plain     mixing
     Exchange-correlation      = BEEF-VDW ( 1  4 27 13 2)
     nstep                     =           50

     celldm(1)=   1.889726  celldm(2)=   0.000000  celldm(3)=   0.000000
     celldm(4)=   0.000000  celldm(5)=   0.000000  celldm(6)=   0.000000

     crystal axes: (cart. coord. in units of alat)
               a(1) = (   6.726993   0.000000   0.000000 )
               a(2) = (   3.363497   5.825747   0.000000 )
               a(3) = (   0.000000   0.000000  25.492567 )

     reciprocal axes: (cart. coord. in units 2 pi/alat)
               b(1) = (  0.148655 -0.085826  0.000000 )
               b(2) = (  0.000000  0.171652  0.000000 )
               b(3) = (  0.000000  0.000000  0.039227 )

     PseudoPot. # 1 for Sn read from file:
     /home/mamunm/src/pseudo/gbrv1.5pbe/Sn.UPF
     MD5 check sum: 469debedee59599fedebd795477fea03
     Pseudo is Ultrasoft + core correction, Zval = 14.0
     Generated by new atomic code, or converted to UPF format
     Using radial grid of  891 points,  6 beta functions with:
                l(1) =   0
                l(2) =   0
                l(3) =   1
                l(4) =   1
                l(5) =   2
                l(6) =   2
     Q(r) pseudized with  8 coefficients,  rinner =    1.350   1.350   1.350
                                                       1.350   1.350

     PseudoPot. # 2 for O  read from file:
     /home/mamunm/src/pseudo/gbrv1.5pbe/O.UPF
     MD5 check sum: 734c27235a0248c51dbae37a1fbe46ec
     Pseudo is Ultrasoft + core correction, Zval =  6.0
     Generated by new atomic code, or converted to UPF format
     Using radial grid of  737 points,  5 beta functions with:
                l(1) =   0
                l(2) =   0
                l(3) =   1
                l(4) =   1
                l(5) =   2
     Q(r) pseudized with  8 coefficients,  rinner =    0.900   0.900   0.900
                                                       0.900   0.900

     PseudoPot. # 3 for H  read from file:
     /home/mamunm/src/pseudo/gbrv1.5pbe/H.UPF
     MD5 check sum: 761ae9a214b05c3daf00ab9f6b793d6f
     Pseudo is Ultrasoft, Zval =  1.0
     Generated by new atomic code, or converted to UPF format
     Using radial grid of  615 points,  2 beta functions with:
                l(1) =   0
                l(2) =   0
     Q(r) pseudized with  8 coefficients,  rinner =    0.700

     vdW kernel table read from file vdW_kernel_table
     MD5 check sum: 095c7af220d748ca6e76c0b4c6cfb241

     atomic species   valence    mass     pseudopotential
        Sn1           14.00   118.71000     Sn( 1.00)
        O1             6.00    15.99900     O ( 1.00)
        H1             1.00     1.00800     H ( 1.00)

     No symmetry found

   Cartesian axes

     site n.     atom                  positions (alat units)
         1           Sn1 tau(   1) = (   1.6817483   0.9709578  10.0000000  )
         2           Sn1 tau(   2) = (   5.0452448   0.9709578  10.0000000  )
         3           Sn1 tau(   3) = (   3.3634965   3.8838312  10.0000000  )
         4           Sn1 tau(   4) = (   6.7269931   3.8838312  10.0000000  )
         5           Sn1 tau(   5) = (   6.7269931   1.9419156  12.7462834  )
         6           Sn1 tau(   6) = (   3.3634965   1.9419156  12.7462834  )
         7           Sn1 tau(   7) = (   8.4087413   4.8547891  12.7462834  )
         8           Sn1 tau(   8) = (   5.0452448   4.8547891  12.7462834  )
         9           Sn1 tau(   9) = (   0.0000000   0.0000000  15.4925668  )
        10           Sn1 tau(  10) = (   3.3634965   0.0000000  15.4925668  )
        11           Sn1 tau(  11) = (   1.6817483   2.9128734  15.4925668  )
        12           Sn1 tau(  12) = (   5.0452448   2.9128734  15.4925668  )
        13           O1  tau(  13) = (   1.6817483   0.9709578  16.8250668  )
        14           H1  tau(  14) = (   1.6817483   0.9709578  17.7750668  )

     number of k points=    20  Fermi-Dirac smearing, width (Ry)=  0.0110
                       cart. coord. in units 2pi/alat
        k(    1) = (   0.0000000   0.0000000   0.0000000), wk =   0.0555556
        k(    2) = (   0.0000000   0.0286086   0.0000000), wk =   0.1111111
        k(    3) = (   0.0000000   0.0572173   0.0000000), wk =   0.1111111
        k(    4) = (   0.0000000  -0.0858259   0.0000000), wk =   0.0555556
        k(    5) = (   0.0247758  -0.0143043   0.0000000), wk =   0.1111111
        k(    6) = (   0.0247758   0.0143043   0.0000000), wk =   0.1111111
        k(    7) = (   0.0247758   0.0429130   0.0000000), wk =   0.1111111
        k(    8) = (   0.0247758  -0.1001302   0.0000000), wk =   0.1111111
        k(    9) = (   0.0247758  -0.0715216   0.0000000), wk =   0.1111111
        k(   10) = (   0.0247758  -0.0429130   0.0000000), wk =   0.1111111
        k(   11) = (   0.0495516  -0.0286086   0.0000000), wk =   0.1111111
        k(   12) = (   0.0495516   0.0000000   0.0000000), wk =   0.1111111
        k(   13) = (   0.0495516   0.0286086   0.0000000), wk =   0.1111111
        k(   14) = (   0.0495516  -0.1144345   0.0000000), wk =   0.1111111
        k(   15) = (   0.0495516  -0.0858259   0.0000000), wk =   0.1111111
        k(   16) = (   0.0495516  -0.0572173   0.0000000), wk =   0.1111111
        k(   17) = (  -0.0743274   0.0429130   0.0000000), wk =   0.0555556
        k(   18) = (  -0.0743274   0.0715216   0.0000000), wk =   0.1111111
        k(   19) = (  -0.0743274   0.1001302   0.0000000), wk =   0.1111111
        k(   20) = (  -0.0743274  -0.0429130   0.0000000), wk =   0.0555556

     Largest allocated arrays     est. size (Mb)     dimensions
     Largest temporary arrays     est. size (Mb)     dimensions

     Initial potential from superposition of free atoms
     Check: negative starting charge=   -0.001464

     starting charge  162.99945, renormalised to  175.00000

     negative rho (up, down):  1.572E-03 0.000E+00

     *
     * You are using vdW-DF for exchange-correlation in this calculation.
     * Please cite the following three references that made this development
     * possible:
     *
     *   M. Dion, H. Rydberg, E. Schroder, D. C. Langreth, and
     *   B. I. Lundqvist, Phys. Rev. Lett. 92, 246401 (2004).
     *
     *   T. Thonhauser, V. R. Cooper, S. Li, A. Puzder, P. Hyldgaard, and
     *   D. C. Langreth, Phys. Rev. B 76, 125112 (2007).
     *
     *   G. Roman-Perez and J. M. Soler, Phys. Rev. Lett. 103, 096102 (2009).
     *
     *
     * If you are using vdW-DF2, please also cite:
     *
     *   K. Lee, E. D. Murray, L. Kong, B. I. Lundqvist, and
     *   D. C. Langreth, Phys. Rev. B 82, 081101(R) (2010).
     *
     *
     * If you are calculating the stress with vdW-DF, please also cite:
     *
     *   R. Sabatini, E. Kucukbenli, B. Kolb, T. Thonhauser, and
     *   S. de Gironcoli, J. Phys.: Condens. Matter 24, 424209 (2012).
     *

     Carrying out vdW-DF run using the following parameters:

     Nqs =      20    Nr_points =    1024   r_max =   100.000
     q_mesh =
               0.00001000     0.04494208     0.09755937     0.15916263
               0.23128650     0.31572767     0.41458969     0.53033537
               0.66584808     0.82450364     1.01025438     1.22772762
               1.48234092     1.78043706     2.12944203     2.53805004
               3.01644009     3.57652955     4.23227104     5.00000000

     Gradients computed in reciprocal space

     Adding external electric field

     Computed dipole along edir(3) :
        Dipole               -4.1044 Ry au,        -10.4323 Debye
        Dipole field         -0.0077 Ry au

        Potential amp.        0.7187 Ry
        Total length         46.9696 bohr

     Starting wfc are  113 randomized atomic wfcs

     Self-consistent Calculation

     iteration #  1     ecut=    36.75 Ry     beta=0.30
     Davidson diagonalization with overlap
     ethr =  1.00E-02,  avg # of iterations =  8.6

[...]

     total energy              =   -1888.04686546 Ry
     Harris-Foulkes estimate   =   -1965.47590786 Ry
     estimated scf accuracy    <     164.66635328 Ry

     iteration #  2     ecut=    36.75 Ry     beta=0.30
     Davidson diagonalization with overlap
     c_bands:  1 eigenvalues not converged
     c_bands:  3 eigenvalues not converged
     c_bands:  1 eigenvalues not converged
     c_bands:  1 eigenvalues not converged
     c_bands:  1 eigenvalues not converged
     c_bands:  4 eigenvalues not converged
     ethr =  1.00E-02,  avg # of iterations = 18.4

[...]

     End of self-consistent calculation

          k = 0.0000 0.0000 0.0000 ( 25377 PWs)   bands (ev):

   -21.3111 -21.1075 -21.1024 -21.1024 -21.0537 -21.0537 -21.0306 -21.0179
   -21.0179 -21.0024 -20.9939 -20.9939 -20.9834 -20.9833 -20.9689 -20.9613
   -20.9613 -20.9292 -20.9250 -20.9207 -20.9130 -20.9130 -20.9100 -20.9029
   -20.9029 -20.8924 -20.8923 -20.8774 -20.8763 -20.8731 -20.8731 -20.8697
   -20.8697 -20.8649 -20.8543 -20.8543 -20.8343 -20.8343 -20.8003 -20.8003
   -20.7984 -20.7969 -20.7969 -20.7843 -20.7808 -20.7808 -20.7725 -20.7598
   -20.7598 -20.7515 -20.7452 -20.7452 -20.7426 -20.7426 -20.7337 -20.7337
   -20.7309 -20.7178 -20.7132 -20.7132 -19.6806  -9.7344  -8.7769  -7.5643
    -6.3152  -5.9337  -5.9337  -5.5716  -5.3783  -5.3783  -4.9937  -4.5132
    -4.5132  -3.9704  -3.5082  -3.5082  -2.7667  -2.4929  -2.4929  -2.2376
    -1.6288  -1.6288  -1.5588  -1.0448  -1.0447  -0.5131   0.6724   2.0484
     2.0789   2.0790   2.5068   2.5421   2.5421   3.0491   3.6188   3.7191
     3.7191

[...]

          k =-0.0743 0.0429 0.0000 ( 25386 PWs)   bands (ev):

[...]

     the Fermi energy is     1.1118 ev

!    total energy              =   -1962.07956526 Ry
     Harris-Foulkes estimate   =   -1962.07957850 Ry
     estimated scf accuracy    <       0.00000174 Ry

     The total energy is the sum of the following terms:

     one-electron contribution =  -10774.94039145 Ry
     hartree contribution      =    5455.21565170 Ry
     xc contribution           =    -542.36406277 Ry
     ewald contribution        =    3900.05238584 Ry
     electric field correction =       0.00015522 Ry
     smearing contrib. (-TS)   =      -0.04330381 Ry

     convergence has been achieved in  21 iterations

 BEEF-vdW xc energy contributions
           1 :   -476.388256979128
           2 :    435.837546985563
           3 :   -367.109604741147
           4 :    289.375761849020
           5 :   -220.769385705668
           6 :    172.028432379756
           7 :   -144.139121194968
           8 :    130.433868337997
           9 :   -121.587843291263
          10 :    110.723816412030
          11 :   -96.1295698311070
          12 :    80.6334007136499
          13 :   -68.6036258576282
          14 :    62.6726369503538
          15 :   -62.1213233664253
          16 :    63.6019976814209
          17 :   -63.4182578516100
          18 :    59.7561006075389
          19 :   -53.5121042668728
          20 :    47.3714490091352
          21 :   -43.8938475407936
          22 :    43.8848543875866
          23 :   -46.0346430388020
          24 :    47.9189091075220
          25 :   -47.6034185414694
          26 :    44.7885118769239
          27 :   -40.8239792829795
          28 :    37.6910704788767
          29 :   -36.6912396790431
          30 :    37.6921058064324
          31 :   -41.8309605654390
          32 :   -30.4024703976556

     Forces acting on atoms (Ry/au):

     negative rho (up, down):  5.333E-04 0.000E+00
     atom    1 type  1   force =     0.00003749    0.00003009   -0.00603464
     atom    2 type  1   force =    -0.00002958   -0.00258711   -0.00208550
     atom    3 type  1   force =    -0.00230843    0.00126520   -0.00223270
     atom    4 type  1   force =     0.00223021    0.00129105   -0.00236191
     atom    5 type  1   force =     0.00231734   -0.00130635    0.00013534
     atom    6 type  1   force =    -0.00230472   -0.00129766    0.00011000
     atom    7 type  1   force =     0.00000183   -0.00000760   -0.01310916
     atom    8 type  1   force =     0.00001166    0.00262063    0.00009270
     atom    9 type  1   force =    -0.01759506   -0.01016002   -0.00709749
     atom   10 type  1   force =     0.01760247   -0.01017619   -0.00709446
     atom   11 type  1   force =     0.00000647    0.02033988   -0.00707594
     atom   12 type  1   force =     0.00001773   -0.00001266    0.00007976
     atom   13 type  2   force =     0.00000659    0.00000113   -0.01991481
     atom   14 type  3   force =     0.00000598   -0.00000039    0.06658881

     Total force =     0.078876     Total SCF correction =     0.001758

     entering subroutine stress ...

     negative rho (up, down):  5.333E-04 0.000E+00
          total   stress  (Ry/bohr**3)                   (kbar)     P=    6.66
   0.00004705   0.00000000  -0.00000000          6.92      0.00     -0.00
   0.00000000   0.00004705  -0.00000000          0.00      6.92     -0.00
  -0.00000000  -0.00000000   0.00004177         -0.00     -0.00      6.14

     BFGS Geometry Optimization

     number of scf cycles    =   1
     number of bfgs steps    =   0

     energy   new            =   -1962.0795652626 Ry

     new trust radius        =       0.0665888111 bohr
     new conv_thr            =       0.0000099958 Ry

ATOMIC_POSITIONS (crystal)
Sn1      0.166666667   0.166666667   0.392271209    0   0   0
Sn1      0.666666667   0.166666667   0.392271209    0   0   0
Sn1      0.166666667   0.666666667   0.392271209    0   0   0
Sn1      0.666666667   0.666666667   0.392271209    0   0   0
Sn1      0.833333333   0.333333333   0.500000000    0   0   0
Sn1      0.333333333   0.333333333   0.500000000    0   0   0
Sn1      0.833333333   0.833333333   0.500000000    0   0   0
Sn1      0.333333333   0.833333333   0.500000000    0   0   0
Sn1     -0.000922672  -0.000922878   0.607581461
Sn1      0.501846867  -0.000924346   0.607581524
Sn1     -0.000923270   0.501847557   0.607581908
Sn1      0.500001970   0.499998850   0.607730447
O1       0.166667134   0.166666770   0.659585536
H1       0.166667155   0.166666632   0.698646952

     Writing output data file calc.save
     Check: negative starting charge=   -0.001464
     NEW-OLD atomic charge density approx. for the potential
     Check: negative starting charge=   -0.001459

[...]

     energy   old            =   -1962.0795652626 Ry
     energy   new            =   -1962.0814491238 Ry

     CASE: energy  _new < energy  _old

[...]

     Threshold (ethr) on eigenvalues was too large:
     Diagonalizing with lowered threshold

     Davidson diagonalization with overlap
     ethr =  7.85E-08,  avg # of iterations =  1.1

[...]

     Total force =     0.006481     Total SCF correction =     0.000900
     SCF correction compared to forces is large: reduce conv_thr to get better values

[...]

     Total force =     0.006369     Total SCF correction =     0.000443

[...]

     number of scf cycles    =  18
     number of bfgs steps    =  17

     energy   old            =   -1962.0935562244 Ry
     energy   new            =   -1962.0936995249 Ry

     CASE: energy  _new < energy  _old

     new trust radius        =       0.0384219357 bohr
     new conv_thr            =       0.0000001000 Ry

ATOMIC_POSITIONS (crystal)
Sn1      0.166666667   0.166666667   0.392271209    0   0   0
Sn1      0.666666667   0.166666667   0.392271209    0   0   0
Sn1      0.166666667   0.666666667   0.392271209    0   0   0
Sn1      0.666666667   0.666666667   0.392271209    0   0   0
Sn1      0.833333333   0.333333333   0.500000000    0   0   0
Sn1      0.333333333   0.333333333   0.500000000    0   0   0
Sn1      0.833333333   0.833333333   0.500000000    0   0   0
Sn1      0.333333333   0.833333333   0.500000000    0   0   0
Sn1     -0.000615631  -0.000611106   0.613247436
Sn1      0.501230395  -0.000618238   0.613247941
Sn1     -0.000613395   0.501231407   0.613247143
Sn1      0.500006371   0.499999130   0.606521994
O1       0.166669483   0.166664906   0.674927032
H1       0.166672081   0.166665804   0.713275059

     Writing output data file calc.save
     Check: negative starting charge=   -0.001389
     NEW-OLD atomic charge density approx. for the potential
     Check: negative starting charge=   -0.001388

[...]

     Self-consistent Calculation

[...]

     total energy              =   -1962.09378296 Ry
     Harris-Foulkes estimate   =   -1962.09378287 Ry
     estimated scf accuracy    <       0.00000012 Ry

     iteration #  9     ecut=    36.75 Ry     beta=0.30
     Davidson diagonalization with overlap
     ethr =  7.06E-11,  avg # of iterations =  3.1

[...]

     negative rho (up, down):  5.529E-04 0.000E+00

     Adding external electric field

     Computed dipole along edir(3) :
        Dipole                0.1868 Ry au,          0.4749 Debye
        Dipole field          0.0003 Ry au

        Potential amp.       -0.0327 Ry
        Total length         46.9696 bohr

     End of self-consistent calculation

[...]

          k = 0.0496-0.0572 0.0000 ( 25368 PWs)   bands (ev):

[...]

          k =-0.0743-0.0429 0.0000 ( 25386 PWs)   bands (ev):

   -21.2016 -21.1774 -21.1403 -21.1365 -21.1320 -21.1246 -21.1209 -21.1164
   -21.1028 -21.0990 -21.0979 -21.0939 -21.0883 -21.0639 -21.0625 -21.0361
   -21.0346 -21.0290 -21.0190 -21.0169 -21.0162 -21.0105 -21.0103 -21.0086
   -21.0026 -21.0004 -20.9920 -20.9916 -20.9898 -20.9812 -20.9803 -20.9693
   -20.9684 -20.9617 -20.9601 -20.9523 -20.9404 -20.9401 -20.9323 -20.9270
   -20.9227 -20.9170 -20.9152 -20.9098 -20.9064 -20.9063 -20.9025 -20.9007
   -20.8963 -20.8946 -20.8895 -20.8889 -20.8814 -20.8791 -20.8710 -20.8688
   -20.8652 -20.8566 -20.8496 -20.8328 -18.7645  -8.5967  -8.5529  -7.7892
    -7.4520  -6.6406  -6.3449  -6.2268  -5.8724  -5.4838  -5.4773  -4.7932
    -4.2514  -3.9204  -2.9002  -2.4443  -1.2453  -1.1398  -1.0957  -1.0263
    -0.9438  -0.6781   0.0029   0.2272   0.2619   0.3428   1.0213   1.1309
     1.3382   1.6023   1.7243   1.7361   1.9042   2.1025   2.2334   2.2670
     2.5201

     the Fermi energy is     1.0047 ev

!    total energy              =   -1962.09378297 Ry
     Harris-Foulkes estimate   =   -1962.09378300 Ry
     estimated scf accuracy    <       0.00000002 Ry

     The total energy is the sum of the following terms:

     one-electron contribution =  -10549.32246989 Ry
     hartree contribution      =    5342.00721301 Ry
     xc contribution           =    -542.18591674 Ry
     ewald contribution        =    3787.45029885 Ry
     electric field correction =       0.00006506 Ry
     smearing contrib. (-TS)   =      -0.04297326 Ry

     convergence has been achieved in   9 iterations

 BEEF-vdW xc energy contributions
           1 :   -476.204061562274
           2 :    435.573915338690
           3 :   -366.762494821711
           4 :    289.019656020627
           5 :   -220.505738886183
           6 :    171.923431231355
           7 :   -144.183102155574
           8 :    130.546780064408
           9 :   -121.666547590352
          10 :    110.702353763291
          11 :   -96.0151504254259
          12 :    80.4958592819460
          13 :   -68.5264679558361
          14 :    62.6980575604626
          15 :   -62.2235055692263
          16 :    63.7053299478124
          17 :   -63.4481745422574
          18 :    59.6880027479791
          19 :   -53.3868706878138
          20 :    47.2688652785570
          21 :   -43.8812808863087
          22 :    43.9747821766514
          23 :   -46.1777325629737
          24 :    48.0355055371903
          25 :   -47.6322677290143
          26 :    44.7215370365990
          27 :   -40.7064215131104
          28 :    37.5892787910551
          29 :   -36.6505772513432
          30 :    37.7126281509993
          31 :   -41.8174062753649
          32 :   -30.3699999562516

     Forces acting on atoms (Ry/au):

     negative rho (up, down):  5.529E-04 0.000E+00
     atom    1 type  1   force =     0.00000067   -0.00000030   -0.00381026
     atom    2 type  1   force =     0.00000021   -0.00093703    0.00137182
     atom    3 type  1   force =    -0.00081179    0.00046819    0.00137208
     atom    4 type  1   force =     0.00081136    0.00046871    0.00137126
     atom    5 type  1   force =     0.00383117   -0.00221283    0.00048645
     atom    6 type  1   force =    -0.00383250   -0.00221203    0.00048324
     atom    7 type  1   force =     0.00000069    0.00000084   -0.00350497
     atom    8 type  1   force =     0.00000033    0.00442496    0.00048510
     atom    9 type  1   force =     0.00037252    0.00021406    0.00017514
     atom   10 type  1   force =    -0.00037285    0.00021671    0.00017499
     atom   11 type  1   force =     0.00000074   -0.00043081    0.00017411
     atom   12 type  1   force =    -0.00000186   -0.00000066    0.00040886
     atom   13 type  2   force =     0.00000151    0.00000068   -0.00038029
     atom   14 type  3   force =    -0.00000019   -0.00000050    0.00119246

     Total force =     0.001543     Total SCF correction =     0.000382
     SCF correction compared to forces is large: reduce conv_thr to get better values

     entering subroutine stress ...

     negative rho (up, down):  5.529E-04 0.000E+00
          total   stress  (Ry/bohr**3)                   (kbar)     P=   -0.22
   0.00000607  -0.00000000   0.00000000          0.89     -0.00      0.00
  -0.00000000   0.00000607  -0.00000000         -0.00      0.89     -0.00
   0.00000000  -0.00000000  -0.00001657          0.00     -0.00     -2.44

     bfgs converged in  19 scf cycles and  18 bfgs steps
     (criteria: energy <  1.0E+00, force <  1.9E-03)

     End of BFGS Geometry Optimization

     Final energy   =   -1962.0937829653 Ry
Begin final coordinates

ATOMIC_POSITIONS (crystal)
Sn1      0.166666667   0.166666667   0.392271209    0   0   0
Sn1      0.666666667   0.166666667   0.392271209    0   0   0
Sn1      0.166666667   0.666666667   0.392271209    0   0   0
Sn1      0.666666667   0.666666667   0.392271209    0   0   0
Sn1      0.833333333   0.333333333   0.500000000    0   0   0
Sn1      0.333333333   0.333333333   0.500000000    0   0   0
Sn1      0.833333333   0.833333333   0.500000000    0   0   0
Sn1      0.333333333   0.833333333   0.500000000    0   0   0
Sn1     -0.000615631  -0.000611106   0.613247436
Sn1      0.501230395  -0.000618238   0.613247941
Sn1     -0.000613395   0.501231407   0.613247143
Sn1      0.500006371   0.499999130   0.606521994
O1       0.166669483   0.166664906   0.674927032
H1       0.166672081   0.166665804   0.713275059
End final coordinates

     Writing output data file calc.save

     General routines

     Parallel routines

   This run was terminated on:   4:54: 8  23Apr2018

   JOB DONE.