     Program PWSCF v.5.1rc2 (svn rev. 11289) starts on 25Apr2018 at  1:48:48

     Current dimensions of program PWSCF are:
     Max number of different atomic species (ntypx) = 10
     Max number of k-points (npk) =  40000
     Max angular momentum in pseudopotentials (lmaxx) =  3
     Presently stress not available with electric field

     IMPORTANT: XC functional enforced from input :
     Exchange-correlation      = BEEF-VDW ( 1  4 27 13 2)
     Any further DFT definition will be discarded
     Please, verify this is what you really want

     Subspace diagonalization in iterative solution of the eigenvalue problem:
     a serial algorithm will be used

     bravais-lattice index     =            0
     lattice parameter (alat)  =       1.8897  a.u.
     unit-cell volume          =    7725.1200 (a.u.)^3
     number of atoms/cell      =           16
     number of atomic types    =            3
     number of electrons       =       139.00
     number of Kohn-Sham states=           79
     kinetic-energy cutoff     =      36.7493  Ry
     charge density cutoff     =     367.4932  Ry
     convergence threshold     =      1.0E-05
     mixing beta               =       0.3000
     number of iterations used =           10  plain     mixing
     Exchange-correlation      = BEEF-VDW ( 1  4 27 13 2)
     nstep                     =           50

     celldm(1)=   1.889726  celldm(2)=   0.000000  celldm(3)=   0.000000
     celldm(4)=   0.000000  celldm(5)=   0.000000  celldm(6)=   0.000000

     crystal axes: (cart. coord. in units of alat)
               a(1) = (   7.152277   0.000000   0.000000 )
               a(2) = (   3.576139   6.194054   0.000000 )
               a(3) = (   0.000000   0.000000  25.839810 )

     reciprocal axes: (cart. coord. in units 2 pi/alat)
               b(1) = (  0.139816 -0.080723  0.000000 )
               b(2) = (  0.000000  0.161445  0.000000 )
               b(3) = (  0.000000  0.000000  0.038700 )

     PseudoPot. # 1 for Y  read from file:
     /u/if/mamunm/psp/gbrv1.5pbe/Y.UPF
     MD5 check sum: d034151ed7554c50b6e82763ed42c788
     Pseudo is Ultrasoft + core correction, Zval = 11.0
     Generated by new atomic code, or converted to UPF format
     Using radial grid of  885 points,  6 beta functions with:
                l(1) =   0
                l(2) =   0
                l(3) =   1
                l(4) =   1
                l(5) =   2
                l(6) =   2
     Q(r) pseudized with  8 coefficients,  rinner =    1.200   1.200   1.200
                                                       1.200   1.200

     PseudoPot. # 2 for C  read from file:
     /u/if/mamunm/psp/gbrv1.5pbe/C.UPF
     MD5 check sum: d1aef80898a10debaa0f26306b886e00
     Pseudo is Ultrasoft + core correction, Zval =  4.0
     Generated by new atomic code, or converted to UPF format
     Using radial grid of  721 points,  4 beta functions with:
                l(1) =   0
                l(2) =   0
                l(3) =   1
                l(4) =   1
     Q(r) pseudized with  8 coefficients,  rinner =    1.100   1.100   1.100

     PseudoPot. # 3 for H  read from file:
     /u/if/mamunm/psp/gbrv1.5pbe/H.UPF
     MD5 check sum: 761ae9a214b05c3daf00ab9f6b793d6f
     Pseudo is Ultrasoft, Zval =  1.0
     Generated by new atomic code, or converted to UPF format
     Using radial grid of  615 points,  2 beta functions with:
                l(1) =   0
                l(2) =   0
     Q(r) pseudized with  8 coefficients,  rinner =    0.700

     vdW kernel table read from file vdW_kernel_table
     MD5 check sum: 095c7af220d748ca6e76c0b4c6cfb241

     atomic species   valence    mass     pseudopotential
        Y1            11.00    88.90584     Y ( 1.00)
        C1             4.00    12.01100     C ( 1.00)
        H1             1.00     1.00800     H ( 1.00)

     No symmetry found

   Cartesian axes

     site n.     atom                  positions (alat units)
         1           Y1  tau(   1) = (   1.7880693   1.0323423  10.0000000  )
         2           Y1  tau(   2) = (   5.3642080   1.0323423  10.0000000  )
         3           Y1  tau(   3) = (   3.5761386   4.1293692  10.0000000  )
         4           Y1  tau(   4) = (   7.1522773   4.1293692  10.0000000  )
         5           Y1  tau(   5) = (   7.1522773   2.0646846  12.9199050  )
         6           Y1  tau(   6) = (   3.5761386   2.0646846  12.9199050  )
         7           Y1  tau(   7) = (   8.9403466   5.1617115  12.9199050  )
         8           Y1  tau(   8) = (   5.3642080   5.1617115  12.9199050  )
         9           Y1  tau(   9) = (   0.0000000   0.0000000  15.8398100  )
        10           Y1  tau(  10) = (   3.5761386   0.0000000  15.8398100  )
        11           Y1  tau(  11) = (   1.7880693   3.0970269  15.8398100  )
        12           Y1  tau(  12) = (   5.3642080   3.0970269  15.8398100  )
        13           C1  tau(  13) = (   1.7880693   0.0000000  17.8348100  )
        14           H1  tau(  14) = (   2.8780693   0.0000000  18.4648100  )
        15           H1  tau(  15) = (   1.3380693   0.8895000  18.4648100  )
        16           H1  tau(  16) = (   4.9142080   5.3045538  18.4648100  )

     number of k points=    20  Fermi-Dirac smearing, width (Ry)=  0.0110
                       cart. coord. in units 2pi/alat
        k(    1) = (   0.0000000   0.0000000   0.0000000), wk =   0.0555556
        k(    2) = (   0.0000000   0.0269075   0.0000000), wk =   0.1111111
        k(    3) = (   0.0000000   0.0538151   0.0000000), wk =   0.1111111
        k(    4) = (   0.0000000  -0.0807226   0.0000000), wk =   0.0555556
        k(    5) = (   0.0233026  -0.0134538   0.0000000), wk =   0.1111111
        k(    6) = (   0.0233026   0.0134538   0.0000000), wk =   0.1111111
        k(    7) = (   0.0233026   0.0403613   0.0000000), wk =   0.1111111
        k(    8) = (   0.0233026  -0.0941763   0.0000000), wk =   0.1111111
        k(    9) = (   0.0233026  -0.0672688   0.0000000), wk =   0.1111111
        k(   10) = (   0.0233026  -0.0403613   0.0000000), wk =   0.1111111
        k(   11) = (   0.0466052  -0.0269075   0.0000000), wk =   0.1111111
        k(   12) = (   0.0466052   0.0000000   0.0000000), wk =   0.1111111
        k(   13) = (   0.0466052   0.0269075   0.0000000), wk =   0.1111111
        k(   14) = (   0.0466052  -0.1076301   0.0000000), wk =   0.1111111
        k(   15) = (   0.0466052  -0.0807226   0.0000000), wk =   0.1111111
        k(   16) = (   0.0466052  -0.0538151   0.0000000), wk =   0.1111111
        k(   17) = (  -0.0699078   0.0403613   0.0000000), wk =   0.0555556
        k(   18) = (  -0.0699078   0.0672688   0.0000000), wk =   0.1111111
        k(   19) = (  -0.0699078   0.0941763   0.0000000), wk =   0.1111111
        k(   20) = (  -0.0699078  -0.0403613   0.0000000), wk =   0.0555556

     Largest allocated arrays     est. size (Mb)     dimensions
     Largest temporary arrays     est. size (Mb)     dimensions

     Initial potential from superposition of free atoms
     Check: negative starting charge=   -0.000500

     starting charge  138.94630, renormalised to  139.00000

     negative rho (up, down):  4.998E-04 0.000E+00

     *
     * You are using vdW-DF for exchange-correlation in this calculation.
     * Please cite the following three references that made this development
     * possible:
     *
     *   M. Dion, H. Rydberg, E. Schroder, D. C. Langreth, and
     *   B. I. Lundqvist, Phys. Rev. Lett. 92, 246401 (2004).
     *
     *   T. Thonhauser, V. R. Cooper, S. Li, A. Puzder, P. Hyldgaard, and
     *   D. C. Langreth, Phys. Rev. B 76, 125112 (2007).
     *
     *   G. Roman-Perez and J. M. Soler, Phys. Rev. Lett. 103, 096102 (2009).
     *
     *
     * If you are using vdW-DF2, please also cite:
     *
     *   K. Lee, E. D. Murray, L. Kong, B. I. Lundqvist, and
     *   D. C. Langreth, Phys. Rev. B 82, 081101(R) (2010).
     *
     *
     * If you are calculating the stress with vdW-DF, please also cite:
     *
     *   R. Sabatini, E. Kucukbenli, B. Kolb, T. Thonhauser, and
     *   S. de Gironcoli, J. Phys.: Condens. Matter 24, 424209 (2012).
     *

     Carrying out vdW-DF run using the following parameters:

     Nqs =      20    Nr_points =    1024   r_max =   100.000
     q_mesh =
               0.00001000     0.04494208     0.09755937     0.15916263
               0.23128650     0.31572767     0.41458969     0.53033537
               0.66584808     0.82450364     1.01025438     1.22772762
               1.48234092     1.78043706     2.12944203     2.53805004
               3.01644009     3.57652955     4.23227104     5.00000000

     Gradients computed in reciprocal space

     Adding external electric field

     Computed dipole along edir(3) :
        Dipole               -0.0258 Ry au,         -0.0657 Debye
        Dipole field         -0.0000 Ry au

        Potential amp.        0.0040 Ry
        Total length         47.6094 bohr

     Starting wfc are  163 randomized atomic wfcs

     Self-consistent Calculation

     iteration #  1     ecut=    36.75 Ry     beta=0.30
     Davidson diagonalization with overlap
     ethr =  1.00E-02,  avg # of iterations =  2.0

[...]

     total energy              =   -1137.66937582 Ry
     Harris-Foulkes estimate   =   -1140.09149132 Ry
     estimated scf accuracy    <       5.26907072 Ry

[...]

     End of self-consistent calculation

          k = 0.0000 0.0000 0.0000 ( 28997 PWs)   bands (ev):

   -42.2122 -42.1762 -42.1637 -42.1216 -42.1212 -42.1199 -42.0862 -42.0397
   -41.6075 -41.5723 -41.5613 -41.5540 -22.2980 -22.2820 -22.2728 -22.2686
   -22.2643 -22.2621 -22.2376 -22.2032 -22.1877 -22.1315 -22.1266 -22.1208
   -22.0949 -22.0443 -21.9623 -21.9451 -21.9445 -21.9433 -21.9407 -21.9134
   -21.8454 -21.8448 -21.8421 -21.7930 -21.7283 -21.7230 -21.7182 -21.5196
   -21.4985 -21.4829 -21.4758 -21.4301 -21.4246 -21.4205 -21.3278 -21.3272
   -11.7470  -4.6917  -4.4528  -3.1954  -2.5989  -1.8563  -1.0720  -0.4345
    -0.4189  -0.3704  -0.3208  -0.3084  -0.2397  -0.0217  -0.0015   0.1405
     0.4943   0.4960   0.5402   0.8846   0.9614   1.0749   1.3594   1.5002
     1.7506   1.7678   1.8773   1.8915   1.9292   2.1014   2.3107

[...]

          k =-0.0699 0.0404 0.0000 ( 29048 PWs)   bands (ev):

[...]

     the Fermi energy is     1.1822 ev

!    total energy              =   -1139.51339438 Ry
     Harris-Foulkes estimate   =   -1139.51339500 Ry
     estimated scf accuracy    <       0.00000189 Ry

     The total energy is the sum of the following terms:

     one-electron contribution =   -5521.83578113 Ry
     hartree contribution      =    2755.67445225 Ry
     xc contribution           =    -344.72175259 Ry
     ewald contribution        =    1971.49813617 Ry
     electric field correction =       0.00000424 Ry
     smearing contrib. (-TS)   =      -0.12845332 Ry

     convergence has been achieved in  14 iterations

 BEEF-vdW xc energy contributions
           1 :   -300.459829494902
           2 :    269.649929434517
           3 :   -216.723398456723
           4 :    154.781144108885
           5 :   -95.8939882516492
           6 :    47.5707406218936
           7 :   -12.2964222618400
           8 :   -10.6670063394387
           9 :    23.0156492913820
          10 :   -26.1653729250279
          11 :    21.3922897128665
          12 :   -10.6786635542242
          13 :   -2.77173998293506
          14 :    14.9847429696986
          15 :   -22.4787056709910
          16 :    23.5486395451892
          17 :   -18.7546980533855
          18 :    10.3486979117382
          19 :   -1.07674067201049
          20 :   -6.88165138548038
          21 :    12.3281114100964
          22 :   -14.8615983220622
          23 :    14.5168566784874
          24 :   -11.6027442131414
          25 :    6.78692833776012
          26 :   -1.18761886141732
          27 :   -3.78963703073214
          28 :    6.90107298349540
          29 :   -7.56316370136585
          30 :    6.07422944396592
          31 :   -28.9515566501767
          32 :   -19.7985253628719

     Forces acting on atoms (Ry/au):

     negative rho (up, down):  1.432E-04 0.000E+00
     atom    1 type  1   force =    -0.00001598   -0.00030547    0.00470929
     atom    2 type  1   force =     0.00000932   -0.00030202    0.00440892
     atom    3 type  1   force =    -0.00008788    0.00029323    0.00538904
     atom    4 type  1   force =     0.00011440    0.00031898    0.00517289
     atom    5 type  1   force =    -0.00020333    0.00110766    0.00214553
     atom    6 type  1   force =     0.00011780    0.00209352    0.00159326
     atom    7 type  1   force =     0.00066641   -0.00206917   -0.00364989
     atom    8 type  1   force =    -0.00079219   -0.00137521   -0.00162308
     atom    9 type  1   force =     0.01742333   -0.00151444    0.01187956
     atom   10 type  1   force =    -0.01552026   -0.00174279    0.01313783
     atom   11 type  1   force =    -0.00084533    0.00133169   -0.00952195
     atom   12 type  1   force =    -0.00072056    0.00038255   -0.00855018
     atom   13 type  2   force =     0.04994626    0.00154375    0.13985055
     atom   14 type  3   force =    -0.07882032    0.00005114   -0.06916237
     atom   15 type  3   force =     0.01432395   -0.04233458   -0.04716652
     atom   16 type  3   force =     0.01440438    0.04252117   -0.04861291

     Total force =     0.206597     Total SCF correction =     0.001699

     entering subroutine stress ...

     negative rho (up, down):  1.432E-04 0.000E+00
          total   stress  (Ry/bohr**3)                   (kbar)     P=   -7.16
  -0.00004883   0.00000009  -0.00000764         -7.18      0.01     -1.12
   0.00000009  -0.00003262   0.00000109          0.01     -4.80      0.16
  -0.00000764   0.00000109  -0.00006452         -1.12      0.16     -9.49

     BFGS Geometry Optimization

     number of scf cycles    =   1
     number of bfgs steps    =   0

     energy   new            =   -1139.5133943824 Ry

     new trust radius        =       0.1485098931 bohr
     new conv_thr            =       0.0000099958 Ry

ATOMIC_POSITIONS (crystal)
Y1       0.166666667   0.166666667   0.386999750    0   0   0
Y1       0.666666667   0.166666667   0.386999750    0   0   0
Y1       0.166666667   0.666666667   0.386999750    0   0   0
Y1       0.666666667   0.666666667   0.386999750    0   0   0
Y1       0.833333333   0.333333333   0.500000000    0   0   0
Y1       0.333333333   0.333333333   0.500000000    0   0   0
Y1       0.833333333   0.833333333   0.500000000    0   0   0
Y1       0.333333333   0.833333333   0.500000000    0   0   0
Y1       0.001353795  -0.000129384   0.613243533
Y1       0.498926145  -0.000148892   0.613269301
Y1      -0.000119429   0.500113770   0.612805248
Y1       0.499930347   0.500032682   0.612825149
C1       0.253629442   0.000131887   0.693070720
H1       0.396565131   0.000004369   0.713171298
H1       0.118148418   0.139988694   0.713621754
H1       0.258135092   0.860027247   0.713592133

     Writing output data file calc.save
     Check: negative starting charge=   -0.000500
     NEW-OLD atomic charge density approx. for the potential
     Check: negative starting charge=   -0.000501

[...]

     energy   old            =   -1139.5133943824 Ry
     energy   new            =   -1139.5426157076 Ry

     CASE: energy  _new < energy  _old

[...]

     Threshold (ethr) on eigenvalues was too large:
     Diagonalizing with lowered threshold

     Davidson diagonalization with overlap
     c_bands:  1 eigenvalues not converged
     ethr =  8.58E-08,  avg # of iterations =  6.7

[...]

     Davidson diagonalization with overlap
     ethr =  8.72E-08,  avg # of iterations =  7.0

[...]

     iteration #  9     ecut=    36.75 Ry     beta=0.30
     Davidson diagonalization with overlap
     c_bands:  1 eigenvalues not converged
     ethr =  2.29E-10,  avg # of iterations =  5.2

[...]

     Davidson diagonalization with overlap
     c_bands:  1 eigenvalues not converged
     ethr =  5.46E-08,  avg # of iterations =  8.8

[...]

     Total force =     0.005219     Total SCF correction =     0.000232

[...]

     number of scf cycles    =  27
     number of bfgs steps    =  26

     energy   old            =   -1139.5563661440 Ry
     energy   new            =   -1139.5564602708 Ry

     CASE: energy  _new < energy  _old

     new trust radius        =       0.0135599061 bohr
     new conv_thr            =       0.0000001000 Ry

ATOMIC_POSITIONS (crystal)
Y1       0.166666667   0.166666667   0.386999750    0   0   0
Y1       0.666666667   0.166666667   0.386999750    0   0   0
Y1       0.166666667   0.666666667   0.386999750    0   0   0
Y1       0.666666667   0.666666667   0.386999750    0   0   0
Y1       0.833333333   0.333333333   0.500000000    0   0   0
Y1       0.333333333   0.333333333   0.500000000    0   0   0
Y1       0.833333333   0.833333333   0.500000000    0   0   0
Y1       0.333333333   0.833333333   0.500000000    0   0   0
Y1       0.018744450  -0.004072033   0.615173046
Y1       0.500056748  -0.003499011   0.613225289
Y1       0.004660962   0.501073458   0.608713842
Y1       0.508208281   0.491539624   0.607207514
C1       0.245375583   0.014541352   0.687480264
H1       0.380389934   0.004833979   0.710274237
H1       0.099849700   0.151154738   0.704944745
H1       0.240707134   0.867547980   0.699474906

     Writing output data file calc.save
     Check: negative starting charge=   -0.000513
     NEW-OLD atomic charge density approx. for the potential
     Check: negative starting charge=   -0.000513

[...]

     Self-consistent Calculation

[...]

     Threshold (ethr) on eigenvalues was too large:
     Diagonalizing with lowered threshold

     Davidson diagonalization with overlap
     ethr =  1.68E-08,  avg # of iterations =  8.0

[...]

     total energy              =   -1139.55648948 Ry
     Harris-Foulkes estimate   =   -1139.55648953 Ry
     estimated scf accuracy    <       0.00000060 Ry

     iteration #  8     ecut=    36.75 Ry     beta=0.30
     Davidson diagonalization with overlap
     ethr =  4.31E-10,  avg # of iterations =  3.9

[...]

     negative rho (up, down):  1.565E-04 0.000E+00

     Adding external electric field

     Computed dipole along edir(3) :
        Dipole                0.0753 Ry au,          0.1913 Debye
        Dipole field          0.0001 Ry au

        Potential amp.       -0.0117 Ry
        Total length         47.6094 bohr

     End of self-consistent calculation

[...]

          k = 0.0466-0.0538 0.0000 ( 29098 PWs)   bands (ev):

[...]

          k =-0.0699-0.0404 0.0000 ( 29048 PWs)   bands (ev):

   -42.1440 -42.1435 -42.1212 -42.1186 -42.1172 -42.0804 -42.0316 -42.0174
   -41.5638 -41.5437 -41.5220 -41.5074 -22.1939 -22.1889 -22.1875 -22.1653
   -22.1591 -22.1362 -22.1331 -22.1236 -22.1216 -22.1174 -22.0800 -22.0620
   -22.0588 -22.0433 -22.0263 -22.0250 -22.0188 -22.0088 -21.9442 -21.9083
   -21.8949 -21.8930 -21.8376 -21.8183 -21.6142 -21.6131 -21.5138 -21.4953
   -21.4826 -21.4638 -21.4569 -21.4515 -21.4446 -21.4302 -21.3394 -21.3360
   -12.5703  -5.7224  -5.6185  -2.3209  -1.8707  -1.7826  -1.0192  -0.9030
    -0.2082  -0.1981  -0.0577   0.0320   0.2269   0.2482   0.8644   0.9039
     0.9275   0.9726   1.0121   1.0303   1.1463   1.1867   1.2452   1.2988
     1.3092   1.3666   1.5234   1.5651   1.5853   1.6857   1.7275

     the Fermi energy is     1.1896 ev

!    total energy              =   -1139.55648948 Ry
     Harris-Foulkes estimate   =   -1139.55648957 Ry
     estimated scf accuracy    <       0.00000009 Ry

     The total energy is the sum of the following terms:

     one-electron contribution =   -5583.75489864 Ry
     hartree contribution      =    2786.69910901 Ry
     xc contribution           =    -344.98284393 Ry
     ewald contribution        =    2002.60970071 Ry
     electric field correction =       0.00000921 Ry
     smearing contrib. (-TS)   =      -0.12756585 Ry

     convergence has been achieved in   8 iterations

 BEEF-vdW xc energy contributions
           1 :   -300.704055736108
           2 :    269.913239786916
           3 :   -216.991912896139
           4 :    155.013434355609
           5 :   -96.0528601746448
           6 :    47.6509541356542
           7 :   -12.3265312264675
           8 :   -10.6489187832904
           9 :    22.9877426686776
          10 :   -26.1301830721701
          11 :    21.3678524542195
          12 :   -10.6809017498145
          13 :   -2.74602653687180
          14 :    14.9614541084047
          15 :   -22.4889967188976
          16 :    23.6030423815447
          17 :   -18.8319313256329
          18 :    10.4092961034088
          19 :   -1.09150789231580
          20 :   -6.91103498565332
          21 :    12.3731326923566
          22 :   -14.8906087264346
          23 :    14.5182060538415
          24 :   -11.5907408022762
          25 :    6.78826034112353
          26 :   -1.21996036772151
          27 :   -3.72999899459455
          28 :    6.83309555088363
          29 :   -7.50168729298775
          30 :    6.01445062904975
          31 :   -28.9684047215288
          32 :   -19.8196901782692

     Forces acting on atoms (Ry/au):

     negative rho (up, down):  1.565E-04 0.000E+00
     atom    1 type  1   force =    -0.00031672   -0.00041257    0.00416342
     atom    2 type  1   force =     0.00023503   -0.00115870    0.00462573
     atom    3 type  1   force =    -0.00051228    0.00098124    0.00455321
     atom    4 type  1   force =     0.00045345    0.00069693    0.00436053
     atom    5 type  1   force =     0.00224908   -0.00034322   -0.00461397
     atom    6 type  1   force =    -0.00068649    0.00013886   -0.00578948
     atom    7 type  1   force =     0.00160280   -0.00004938   -0.00480779
     atom    8 type  1   force =     0.00055023   -0.00257496   -0.00266491
     atom    9 type  1   force =    -0.00040381    0.00084642    0.00000343
     atom   10 type  1   force =    -0.00100935    0.00122782    0.00050036
     atom   11 type  1   force =    -0.00009947   -0.00110642   -0.00023470
     atom   12 type  1   force =    -0.00020855   -0.00095905   -0.00004965
     atom   13 type  2   force =     0.00098608    0.00039774    0.00017795
     atom   14 type  3   force =    -0.00054976    0.00108065   -0.00119579
     atom   15 type  3   force =    -0.00106279   -0.00059460    0.00015571
     atom   16 type  3   force =    -0.00122746    0.00182925    0.00081596

     Total force =     0.004123     Total SCF correction =     0.000457
     SCF correction compared to forces is large: reduce conv_thr to get better values

     entering subroutine stress ...

     negative rho (up, down):  1.565E-04 0.000E+00
          total   stress  (Ry/bohr**3)                   (kbar)     P=   -1.93
  -0.00001493  -0.00000109  -0.00000360         -2.20     -0.16     -0.53
  -0.00000109  -0.00000995   0.00000345         -0.16     -1.46      0.51
  -0.00000360   0.00000345  -0.00001457         -0.53      0.51     -2.14

     bfgs converged in  28 scf cycles and  27 bfgs steps
     (criteria: energy <  1.0E+00, force <  1.9E-03)

     End of BFGS Geometry Optimization

     Final energy   =   -1139.5564894799 Ry
Begin final coordinates

ATOMIC_POSITIONS (crystal)
Y1       0.166666667   0.166666667   0.386999750    0   0   0
Y1       0.666666667   0.166666667   0.386999750    0   0   0
Y1       0.166666667   0.666666667   0.386999750    0   0   0
Y1       0.666666667   0.666666667   0.386999750    0   0   0
Y1       0.833333333   0.333333333   0.500000000    0   0   0
Y1       0.333333333   0.333333333   0.500000000    0   0   0
Y1       0.833333333   0.833333333   0.500000000    0   0   0
Y1       0.333333333   0.833333333   0.500000000    0   0   0
Y1       0.018744450  -0.004072033   0.615173046
Y1       0.500056748  -0.003499011   0.613225289
Y1       0.004660962   0.501073458   0.608713842
Y1       0.508208281   0.491539624   0.607207514
C1       0.245375583   0.014541352   0.687480264
H1       0.380389934   0.004833979   0.710274237
H1       0.099849700   0.151154738   0.704944745
H1       0.240707134   0.867547980   0.699474906
End final coordinates

     Writing output data file calc.save

     General routines

     Parallel routines

   This run was terminated on:   6:50:30  25Apr2018

   JOB DONE.
Job  /afs/slac/g/suncat/bin/suncat-tsmpirun -x LD_LIBRARY_PATH -wdir /scratch/qe265824_I7fTo pw.x -npool 4 -in pw.inp

TID   HOST_NAME   COMMAND_LINE            STATUS            TERMINATION_TIME
00000 suncat0094 pw.x -npool 4 -i  Done                     04/25/2018 06:50:30
00001 suncat0094 pw.x -npool 4 -i  Done                     04/25/2018 06:50:30
00002 suncat0094 pw.x -npool 4 -i  Done                     04/25/2018 06:50:30
00003 suncat0094 pw.x -npool 4 -i  Done                     04/25/2018 06:50:30
00004 suncat0094 pw.x -npool 4 -i  Done                     04/25/2018 06:50:30
00005 suncat0094 pw.x -npool 4 -i  Done                     04/25/2018 06:50:30
00006 suncat0094 pw.x -npool 4 -i  Done                     04/25/2018 06:50:30
00007 suncat0094 pw.x -npool 4 -i  Done                     04/25/2018 06:50:30
00008 suncat0081 pw.x -npool 4 -i  Done                     04/25/2018 06:50:30
00009 suncat0081 pw.x -npool 4 -i  Done                     04/25/2018 06:50:30
00010 suncat0081 pw.x -npool 4 -i  Done                     04/25/2018 06:50:30
00011 suncat0081 pw.x -npool 4 -i  Done                     04/25/2018 06:50:30
00012 suncat0081 pw.x -npool 4 -i  Done                     04/25/2018 06:50:30
00013 suncat0081 pw.x -npool 4 -i  Done                     04/25/2018 06:50:30
00014 suncat0081 pw.x -npool 4 -i  Done                     04/25/2018 06:50:30
00015 suncat0081 pw.x -npool 4 -i  Done                     04/25/2018 06:50:30
00016 suncat0074 pw.x -npool 4 -i  Done                     04/25/2018 06:50:30
00017 suncat0074 pw.x -npool 4 -i  Done                     04/25/2018 06:50:30
00018 suncat0074 pw.x -npool 4 -i  Done                     04/25/2018 06:50:30
00019 suncat0074 pw.x -npool 4 -i  Done                     04/25/2018 06:50:30
00020 suncat0074 pw.x -npool 4 -i  Done                     04/25/2018 06:50:30
00021 suncat0074 pw.x -npool 4 -i  Done                     04/25/2018 06:50:30
00022 suncat0074 pw.x -npool 4 -i  Done                     04/25/2018 06:50:30
00023 suncat0074 pw.x -npool 4 -i  Done                     04/25/2018 06:50:30
00024 suncat0262 pw.x -npool 4 -i  Done                     04/25/2018 06:50:30
00025 suncat0262 pw.x -npool 4 -i  Done                     04/25/2018 06:50:30
00026 suncat0262 pw.x -npool 4 -i  Done                     04/25/2018 06:50:30
00027 suncat0262 pw.x -npool 4 -i  Done                     04/25/2018 06:50:30
00028 suncat0262 pw.x -npool 4 -i  Done                     04/25/2018 06:50:30
00029 suncat0262 pw.x -npool 4 -i  Done                     04/25/2018 06:50:30
00030 suncat0262 pw.x -npool 4 -i  Done                     04/25/2018 06:50:30
00031 suncat0262 pw.x -npool 4 -i  Done                     04/25/2018 06:50:30