     Program PWSCF v.5.1rc2 (svn rev. 11289) starts on 16Jan2018 at  9:25:35

     Current dimensions of program PWSCF are:
     Max number of different atomic species (ntypx) = 10
     Max number of k-points (npk) =  40000
     Max angular momentum in pseudopotentials (lmaxx) =  3
     Presently stress not available with electric field

     IMPORTANT: XC functional enforced from input :
     Exchange-correlation      = BEEF-VDW ( 1  4 27 13 2)
     Any further DFT definition will be discarded
     Please, verify this is what you really want

     Subspace diagonalization in iterative solution of the eigenvalue problem:
     a serial algorithm will be used

     bravais-lattice index     =            0
     lattice parameter (alat)  =       1.8897  a.u.
     unit-cell volume          =    6501.5726 (a.u.)^3
     number of atoms/cell      =           13
     number of atomic types    =            2
     number of electrons       =       157.00
     number of Kohn-Sham states=           88
     kinetic-energy cutoff     =      36.7493  Ry
     charge density cutoff     =     367.4932  Ry
     convergence threshold     =      1.0E-05
     mixing beta               =       0.3000
     number of iterations used =           10  plain     mixing
     Exchange-correlation      = BEEF-VDW ( 1  4 27 13 2)
     nstep                     =           50

     celldm(1)=   1.889726  celldm(2)=   0.000000  celldm(3)=   0.000000
     celldm(4)=   0.000000  celldm(5)=   0.000000  celldm(6)=   0.000000

     crystal axes: (cart. coord. in units of alat)
               a(1) = (   6.617606   0.000000   0.000000 )
               a(2) = (   3.308803   5.731015   0.000000 )
               a(3) = (   0.000000   0.000000  25.403253 )

     reciprocal axes: (cart. coord. in units 2 pi/alat)
               b(1) = (  0.151112 -0.087245  0.000000 )
               b(2) = (  0.000000  0.174489  0.000000 )
               b(3) = (  0.000000  0.000000  0.039365 )

     PseudoPot. # 1 for In read from file:
     /afs/slac.stanford.edu/u/if/mamunm/psp/gbrv1.5pbe/In.UPF
     MD5 check sum: 90777abd96fbb83f2e67db2a40c566b9
     Pseudo is Ultrasoft + core correction, Zval = 13.0
     Generated by new atomic code, or converted to UPF format
     Using radial grid of  889 points,  6 beta functions with:
                l(1) =   0
                l(2) =   0
                l(3) =   1
                l(4) =   1
                l(5) =   2
                l(6) =   2
     Q(r) pseudized with  6 coefficients,  rinner =    1.400   1.400   1.400
                                                       1.400   1.400

     PseudoPot. # 2 for H  read from file:
     /afs/slac.stanford.edu/u/if/mamunm/psp/gbrv1.5pbe/H.UPF
     MD5 check sum: 761ae9a214b05c3daf00ab9f6b793d6f
     Pseudo is Ultrasoft, Zval =  1.0
     Generated by new atomic code, or converted to UPF format
     Using radial grid of  615 points,  2 beta functions with:
                l(1) =   0
                l(2) =   0
     Q(r) pseudized with  8 coefficients,  rinner =    0.700

     vdW kernel table read from file vdW_kernel_table
     MD5 check sum: 095c7af220d748ca6e76c0b4c6cfb241

     atomic species   valence    mass     pseudopotential
        In1           13.00   114.81800     In( 1.00)
        H1             1.00     1.00800     H ( 1.00)

     No symmetry found

   Cartesian axes

     site n.     atom                  positions (alat units)
         1           In1 tau(   1) = (   1.6544016   0.9551692  10.0000000  )
         2           In1 tau(   2) = (   4.9632047   0.9551692  10.0000000  )
         3           In1 tau(   3) = (   3.3088031   3.8206768  10.0000000  )
         4           In1 tau(   4) = (   6.6176063   3.8206768  10.0000000  )
         5           In1 tau(   5) = (   6.6176063   1.9103384  12.7016265  )
         6           In1 tau(   6) = (   3.3088031   1.9103384  12.7016265  )
         7           In1 tau(   7) = (   8.2720078   4.7758460  12.7016265  )
         8           In1 tau(   8) = (   4.9632047   4.7758460  12.7016265  )
         9           In1 tau(   9) = (   0.0000000   0.0000000  15.4032529  )
        10           In1 tau(  10) = (   3.3088031   0.0000000  15.4032529  )
        11           In1 tau(  11) = (   1.6544016   2.8655076  15.4032529  )
        12           In1 tau(  12) = (   4.9632047   2.8655076  15.4032529  )
        13           H1  tau(  13) = (   1.6544016   0.9551692  17.1332529  )

     number of k points=    20  Fermi-Dirac smearing, width (Ry)=  0.0110
                       cart. coord. in units 2pi/alat
        k(    1) = (   0.0000000   0.0000000   0.0000000), wk =   0.0555556
        k(    2) = (   0.0000000   0.0290815   0.0000000), wk =   0.1111111
        k(    3) = (   0.0000000   0.0581631   0.0000000), wk =   0.1111111
        k(    4) = (   0.0000000  -0.0872446   0.0000000), wk =   0.0555556
        k(    5) = (   0.0251853  -0.0145408   0.0000000), wk =   0.1111111
        k(    6) = (   0.0251853   0.0145408   0.0000000), wk =   0.1111111
        k(    7) = (   0.0251853   0.0436223   0.0000000), wk =   0.1111111
        k(    8) = (   0.0251853  -0.1017853   0.0000000), wk =   0.1111111
        k(    9) = (   0.0251853  -0.0727038   0.0000000), wk =   0.1111111
        k(   10) = (   0.0251853  -0.0436223   0.0000000), wk =   0.1111111
        k(   11) = (   0.0503707  -0.0290815   0.0000000), wk =   0.1111111
        k(   12) = (   0.0503707   0.0000000   0.0000000), wk =   0.1111111
        k(   13) = (   0.0503707   0.0290815   0.0000000), wk =   0.1111111
        k(   14) = (   0.0503707  -0.1163261   0.0000000), wk =   0.1111111
        k(   15) = (   0.0503707  -0.0872446   0.0000000), wk =   0.1111111
        k(   16) = (   0.0503707  -0.0581631   0.0000000), wk =   0.1111111
        k(   17) = (  -0.0755560   0.0436223   0.0000000), wk =   0.0555556
        k(   18) = (  -0.0755560   0.0727038   0.0000000), wk =   0.1111111
        k(   19) = (  -0.0755560   0.1017853   0.0000000), wk =   0.1111111
        k(   20) = (  -0.0755560  -0.0436223   0.0000000), wk =   0.0555556

     Largest allocated arrays     est. size (Mb)     dimensions
     Largest temporary arrays     est. size (Mb)     dimensions

     Initial potential from superposition of free atoms
     Check: negative starting charge=   -0.000175

     starting charge  138.99999, renormalised to  157.00000

     negative rho (up, down):  1.974E-04 0.000E+00

     *
     * You are using vdW-DF for exchange-correlation in this calculation.
     * Please cite the following three references that made this development
     * possible:
     *
     *   M. Dion, H. Rydberg, E. Schroder, D. C. Langreth, and
     *   B. I. Lundqvist, Phys. Rev. Lett. 92, 246401 (2004).
     *
     *   T. Thonhauser, V. R. Cooper, S. Li, A. Puzder, P. Hyldgaard, and
     *   D. C. Langreth, Phys. Rev. B 76, 125112 (2007).
     *
     *   G. Roman-Perez and J. M. Soler, Phys. Rev. Lett. 103, 096102 (2009).
     *
     *
     * If you are using vdW-DF2, please also cite:
     *
     *   K. Lee, E. D. Murray, L. Kong, B. I. Lundqvist, and
     *   D. C. Langreth, Phys. Rev. B 82, 081101(R) (2010).
     *
     *
     * If you are calculating the stress with vdW-DF, please also cite:
     *
     *   R. Sabatini, E. Kucukbenli, B. Kolb, T. Thonhauser, and
     *   S. de Gironcoli, J. Phys.: Condens. Matter 24, 424209 (2012).
     *

     Carrying out vdW-DF run using the following parameters:

     Nqs =      20    Nr_points =    1024   r_max =   100.000
     q_mesh =
               0.00001000     0.04494208     0.09755937     0.15916263
               0.23128650     0.31572767     0.41458969     0.53033537
               0.66584808     0.82450364     1.01025438     1.22772762
               1.48234092     1.78043706     2.12944203     2.53805004
               3.01644009     3.57652955     4.23227104     5.00000000

     Gradients computed in reciprocal space

     Adding external electric field

     Computed dipole along edir(3) :
        Dipole               -1.0844 Ry au,         -2.7562 Debye
        Dipole field         -0.0021 Ry au

        Potential amp.        0.1962 Ry
        Total length         46.8051 bohr

     Starting wfc are  109 randomized atomic wfcs

     Self-consistent Calculation

     iteration #  1     ecut=    36.75 Ry     beta=0.30
     Davidson diagonalization with overlap
     ethr =  1.00E-02,  avg # of iterations =  8.7

[...]

     total energy              =   -1592.44585790 Ry
     Harris-Foulkes estimate   =   -1633.77295765 Ry
     estimated scf accuracy    <      89.78440181 Ry

[...]

     End of self-consistent calculation

          k = 0.0000 0.0000 0.0000 ( 24345 PWs)   bands (ev):

   -14.8041 -14.8017 -14.8017 -14.7195 -14.7099 -14.7089 -14.7089 -14.7056
   -14.7056 -14.6821 -14.6689 -14.6679 -14.6679 -14.6458 -14.6285 -14.6179
   -14.6179 -14.6113 -14.6113 -14.6098 -14.5913 -14.5913 -14.5836 -14.5836
   -14.5788 -14.5745 -14.5659 -14.5659 -14.5632 -14.5632 -14.4589 -14.4589
   -14.4420 -14.4420 -14.4364 -14.4031 -14.4031 -14.4014 -14.3881 -14.3881
   -14.3532 -14.3532 -14.3494 -14.3414 -14.3409 -14.3409 -14.3293 -14.3293
   -14.3028 -14.3028 -14.3018 -14.2986 -14.2930 -14.2929 -14.2781 -14.2681
   -14.2681 -14.2582 -14.2582 -14.2545  -8.8380  -7.4862  -5.4360  -3.9908
    -3.9908  -3.9827  -3.7571  -3.6970  -3.6970  -2.9189  -2.4388  -2.4388
    -2.2653  -2.2009  -2.2009  -2.0280  -1.0476  -0.5362  -0.5362  -0.3775
    -0.3304  -0.3303   0.4546   1.8843   3.0409   3.0410   3.0699   3.1770

[...]

          k =-0.0756 0.0436 0.0000 ( 24448 PWs)   bands (ev):

[...]

     the Fermi energy is     0.3725 ev

!    total energy              =   -1618.41315963 Ry
     Harris-Foulkes estimate   =   -1618.41315413 Ry
     estimated scf accuracy    <       0.00000265 Ry

     The total energy is the sum of the following terms:

     one-electron contribution =   -9208.81571156 Ry
     hartree contribution      =    4683.05446116 Ry
     xc contribution           =    -470.22488658 Ry
     ewald contribution        =    3377.60978190 Ry
     electric field correction =       0.00013490 Ry
     smearing contrib. (-TS)   =      -0.03693944 Ry

     convergence has been achieved in  14 iterations

 BEEF-vdW xc energy contributions
           1 :   -411.953089422414
           2 :    376.568079129310
           3 :   -316.798439625048
           4 :    249.452535256751
           5 :   -189.921950397263
           6 :    146.566792710322
           7 :   -119.101781055792
           8 :    101.170652867676
           9 :   -85.2089189407229
          10 :    66.7453942352054
          11 :   -46.0103322567409
          12 :    26.5151572482772
          13 :   -12.0279690182380
          14 :    4.02791753947366
          15 :   -1.06285208991824
          16 :   2.380648327493873E-002
          17 :    1.80893163356563
          18 :   -5.35058388213861
          19 :    9.66940538887445
          20 :   -13.0721047424593
          21 :    14.4145990639331
          22 :   -13.7718459099920
          23 :    12.1755871612324
          24 :   -10.7925843109462
          25 :    10.2027272163405
[...]

[...]

     Program PWSCF v.5.1rc2 (svn rev. 11289) starts on 16Jan2018 at  9:35: 7

[...]

     Total force =     0.041579     Total SCF correction =     0.007100
     SCF correction compared to forces is large: reduce conv_thr to get better values

[...]

     Total force =     0.036921     Total SCF correction =     0.003514

[...]

   This run was terminated on:   9:55: 2  16Jan2018

[...]

     Program PWSCF v.5.1rc2 (svn rev. 11289) starts on 16Jan2018 at  9:55: 8

[...]

   This run was terminated on:  10: 0: 6  16Jan2018

[...]

     Program PWSCF v.5.1rc2 (svn rev. 11289) starts on 16Jan2018 at 10: 0:12

[...]

   This run was terminated on:  10: 5:12  16Jan2018

[...]

     Program PWSCF v.5.1rc2 (svn rev. 11289) starts on 16Jan2018 at 10: 5:28

[...]

   This run was terminated on:  10:10:21  16Jan2018

[...]

     Program PWSCF v.5.1rc2 (svn rev. 11289) starts on 16Jan2018 at 10:35:23

     Current dimensions of program PWSCF are:
     Max number of different atomic species (ntypx) = 10
     Max number of k-points (npk) =  40000
     Max angular momentum in pseudopotentials (lmaxx) =  3
     Presently stress not available with electric field

     IMPORTANT: XC functional enforced from input :
     Exchange-correlation      = BEEF-VDW ( 1  4 27 13 2)
     Any further DFT definition will be discarded
     Please, verify this is what you really want

     Subspace diagonalization in iterative solution of the eigenvalue problem:
     a serial algorithm will be used

     bravais-lattice index     =            0
     lattice parameter (alat)  =       1.8897  a.u.
     unit-cell volume          =    6501.5726 (a.u.)^3
     number of atoms/cell      =           13
     number of atomic types    =            2
     number of electrons       =       157.00
     number of Kohn-Sham states=           88
     kinetic-energy cutoff     =      36.7493  Ry
     charge density cutoff     =     367.4932  Ry
     convergence threshold     =      1.0E-05
     mixing beta               =       0.3000
     number of iterations used =           10  plain     mixing
     Exchange-correlation      = BEEF-VDW ( 1  4 27 13 2)
     nstep                     =           50

     celldm(1)=   1.889726  celldm(2)=   0.000000  celldm(3)=   0.000000
     celldm(4)=   0.000000  celldm(5)=   0.000000  celldm(6)=   0.000000

     crystal axes: (cart. coord. in units of alat)
               a(1) = (   6.617606   0.000000   0.000000 )
               a(2) = (   3.308803   5.731015   0.000000 )
               a(3) = (   0.000000   0.000000  25.403253 )

     reciprocal axes: (cart. coord. in units 2 pi/alat)
               b(1) = (  0.151112 -0.087245  0.000000 )
               b(2) = (  0.000000  0.174489  0.000000 )
               b(3) = (  0.000000  0.000000  0.039365 )

     PseudoPot. # 1 for In read from file:
     /afs/slac.stanford.edu/u/if/mamunm/psp/gbrv1.5pbe/In.UPF
     MD5 check sum: 90777abd96fbb83f2e67db2a40c566b9
     Pseudo is Ultrasoft + core correction, Zval = 13.0
     Generated by new atomic code, or converted to UPF format
     Using radial grid of  889 points,  6 beta functions with:
                l(1) =   0
                l(2) =   0
                l(3) =   1
                l(4) =   1
                l(5) =   2
                l(6) =   2
     Q(r) pseudized with  6 coefficients,  rinner =    1.400   1.400   1.400
                                                       1.400   1.400

     PseudoPot. # 2 for H  read from file:
     /afs/slac.stanford.edu/u/if/mamunm/psp/gbrv1.5pbe/H.UPF
     MD5 check sum: 761ae9a214b05c3daf00ab9f6b793d6f
     Pseudo is Ultrasoft, Zval =  1.0
     Generated by new atomic code, or converted to UPF format
     Using radial grid of  615 points,  2 beta functions with:
                l(1) =   0
                l(2) =   0
     Q(r) pseudized with  8 coefficients,  rinner =    0.700

     vdW kernel table read from file vdW_kernel_table
     MD5 check sum: 095c7af220d748ca6e76c0b4c6cfb241

     atomic species   valence    mass     pseudopotential
        In1           13.00   114.81800     In( 1.00)
        H1             1.00     1.00800     H ( 1.00)

     No symmetry found

   Cartesian axes

     site n.     atom                  positions (alat units)
         1           In1 tau(   1) = (   1.6544016   0.9551692  10.0000000  )
         2           In1 tau(   2) = (   4.9632047   0.9551692  10.0000000  )
         3           In1 tau(   3) = (   3.3088031   3.8206768  10.0000000  )
         4           In1 tau(   4) = (   6.6176063   3.8206768  10.0000000  )
         5           In1 tau(   5) = (   6.6176063   1.9103384  12.7016265  )
         6           In1 tau(   6) = (   3.3088031   1.9103384  12.7016265  )
         7           In1 tau(   7) = (   8.2720078   4.7758460  12.7016265  )
         8           In1 tau(   8) = (   4.9632047   4.7758460  12.7016265  )
         9           In1 tau(   9) = (   9.8627899   5.6942568  15.5665075  )
        10           In1 tau(  10) = (   6.6813405   5.6942722  15.5668401  )
        11           In1 tau(  11) = (   8.2721037   2.9390845  15.5667951  )
        12           In1 tau(  12) = (   4.9631883   2.8655293  15.4786786  )
        13           H1  tau(  13) = (   1.6543570   0.9550939  16.3226031  )

     number of k points=    20  Fermi-Dirac smearing, width (Ry)=  0.0110
                       cart. coord. in units 2pi/alat
        k(    1) = (   0.0000000   0.0000000   0.0000000), wk =   0.0555556
        k(    2) = (   0.0000000   0.0290815   0.0000000), wk =   0.1111111
        k(    3) = (   0.0000000   0.0581631   0.0000000), wk =   0.1111111
        k(    4) = (   0.0000000  -0.0872446   0.0000000), wk =   0.0555556
        k(    5) = (   0.0251853  -0.0145408   0.0000000), wk =   0.1111111
        k(    6) = (   0.0251853   0.0145408   0.0000000), wk =   0.1111111
        k(    7) = (   0.0251853   0.0436223   0.0000000), wk =   0.1111111
        k(    8) = (   0.0251853  -0.1017853   0.0000000), wk =   0.1111111
        k(    9) = (   0.0251853  -0.0727038   0.0000000), wk =   0.1111111
        k(   10) = (   0.0251853  -0.0436223   0.0000000), wk =   0.1111111
        k(   11) = (   0.0503707  -0.0290815   0.0000000), wk =   0.1111111
        k(   12) = (   0.0503707   0.0000000   0.0000000), wk =   0.1111111
        k(   13) = (   0.0503707   0.0290815   0.0000000), wk =   0.1111111
        k(   14) = (   0.0503707  -0.1163261   0.0000000), wk =   0.1111111
        k(   15) = (   0.0503707  -0.0872446   0.0000000), wk =   0.1111111
        k(   16) = (   0.0503707  -0.0581631   0.0000000), wk =   0.1111111
        k(   17) = (  -0.0755560   0.0436223   0.0000000), wk =   0.0555556
        k(   18) = (  -0.0755560   0.0727038   0.0000000), wk =   0.1111111
        k(   19) = (  -0.0755560   0.1017853   0.0000000), wk =   0.1111111
        k(   20) = (  -0.0755560  -0.0436223   0.0000000), wk =   0.0555556

     Largest allocated arrays     est. size (Mb)     dimensions
     Largest temporary arrays     est. size (Mb)     dimensions

     Initial potential from superposition of free atoms
     Check: negative starting charge=   -0.000190

     starting charge  138.99999, renormalised to  157.00000

[...]

     *
     * You are using vdW-DF for exchange-correlation in this calculation.
     * Please cite the following three references that made this development
     * possible:
     *
     *   M. Dion, H. Rydberg, E. Schroder, D. C. Langreth, and
     *   B. I. Lundqvist, Phys. Rev. Lett. 92, 246401 (2004).
     *
     *   T. Thonhauser, V. R. Cooper, S. Li, A. Puzder, P. Hyldgaard, and
     *   D. C. Langreth, Phys. Rev. B 76, 125112 (2007).
     *
     *   G. Roman-Perez and J. M. Soler, Phys. Rev. Lett. 103, 096102 (2009).
     *
     *
     * If you are using vdW-DF2, please also cite:
     *
     *   K. Lee, E. D. Murray, L. Kong, B. I. Lundqvist, and
     *   D. C. Langreth, Phys. Rev. B 82, 081101(R) (2010).
     *
     *
     * If you are calculating the stress with vdW-DF, please also cite:
     *
     *   R. Sabatini, E. Kucukbenli, B. Kolb, T. Thonhauser, and
     *   S. de Gironcoli, J. Phys.: Condens. Matter 24, 424209 (2012).
     *

     Carrying out vdW-DF run using the following parameters:

     Nqs =      20    Nr_points =    1024   r_max =   100.000
     q_mesh =
               0.00001000     0.04494208     0.09755937     0.15916263
               0.23128650     0.31572767     0.41458969     0.53033537
               0.66584808     0.82450364     1.01025438     1.22772762
               1.48234092     1.78043706     2.12944203     2.53805004
               3.01644009     3.57652955     4.23227104     5.00000000

     Gradients computed in reciprocal space

[...]

     Starting wfc are  109 randomized atomic wfcs

     Self-consistent Calculation

[...]

     total energy              =   -1618.45213920 Ry
     Harris-Foulkes estimate   =   -1618.45215134 Ry
     estimated scf accuracy    <       0.00005013 Ry

     iteration # 15     ecut=    36.75 Ry     beta=0.30
     Davidson diagonalization with overlap
     ethr =  3.19E-08,  avg # of iterations =  3.0

[...]

     negative rho (up, down):  1.156E-03 0.000E+00

     Adding external electric field

     Computed dipole along edir(3) :
        Dipole                0.0311 Ry au,          0.0790 Debye
        Dipole field          0.0001 Ry au

        Potential amp.       -0.0056 Ry
        Total length         46.8051 bohr

     End of self-consistent calculation

[...]

          k = 0.0504-0.0582 0.0000 ( 24479 PWs)   bands (ev):

[...]

          k =-0.0756-0.0436 0.0000 ( 24448 PWs)   bands (ev):

   -14.4405 -14.3933 -14.3778 -14.3656 -14.3570 -14.3461 -14.3458 -14.3342
   -14.3189 -14.3114 -14.3059 -14.3052 -14.2995 -14.2917 -14.2878 -14.2855
   -14.2743 -14.2732 -14.2711 -14.2670 -14.2531 -14.2330 -14.2322 -14.2271
   -14.2196 -14.2182 -14.2128 -14.2099 -14.2042 -14.2040 -14.1918 -14.1824
   -14.1775 -14.1728 -14.1562 -14.1505 -14.1392 -14.1305 -14.1270 -14.1207
   -14.1191 -14.1136 -14.1088 -14.1014 -14.0935 -14.0923 -14.0891 -14.0867
   -14.0862 -14.0828 -14.0779 -14.0765 -14.0494 -14.0348 -14.0203 -14.0162
   -14.0092 -14.0059 -13.9691 -13.9659  -7.2697  -7.1701  -6.3879  -5.9495
    -4.8502  -4.6244  -4.4013  -4.0493  -3.6497  -3.4491  -2.0815  -1.7879
    -0.8482  -0.3158   0.1626   0.3350   0.4038   0.6774   0.9826   1.5689
     1.5802   1.6846   2.1640   2.2811   2.5956   2.6448   2.9025   3.0451

     the Fermi energy is     0.7165 ev

!    total energy              =   -1618.45214473 Ry
     Harris-Foulkes estimate   =   -1618.45214330 Ry
     estimated scf accuracy    <       0.00000047 Ry

     The total energy is the sum of the following terms:

     one-electron contribution =   -9061.04480895 Ry
     hartree contribution      =    4610.70245769 Ry
     xc contribution           =    -470.26366280 Ry
     ewald contribution        =    3302.18596683 Ry
     electric field correction =       0.00000187 Ry
     smearing contrib. (-TS)   =      -0.03209937 Ry

     convergence has been achieved in  15 iterations

 BEEF-vdW xc energy contributions
           1 :   -411.993317736957
           2 :    376.596186053739
           3 :   -316.788331940749
           4 :    249.377846457420
           5 :   -189.777600392516
           6 :    146.375279156185
           7 :   -118.902583901314
           8 :    101.001034716614
           9 :   -85.0882741794551
          10 :    66.6715542167117
          11 :   -45.9680929182753
          12 :    26.4902157678156
          13 :   -12.0166425887263
          14 :    4.03626316301006
          15 :   -1.09644814858120
          16 :   7.745508108604326E-002
          17 :    1.75273178924658
          18 :   -5.31351857130977
          19 :    9.66484783683620
          20 :   -13.0962263980657
          21 :    14.4476119114289
          22 :   -13.7895883255121
          23 :    12.1636354318013
          24 :   -10.7533643164691
          25 :    10.1525084130074
          26 :   -10.1903760633739
          27 :    10.2948689262562
          28 :   -10.0122670446692
          29 :    9.28201054769698
          30 :   -8.34006861662465
          31 :   -37.3707173133689
          32 :   -27.1274567829745

     Forces acting on atoms (Ry/au):

     negative rho (up, down):  1.156E-03 0.000E+00
     atom    1 type  1   force =     0.00000901   -0.00000064   -0.01008435
     atom    2 type  1   force =    -0.00000350   -0.00069942   -0.01005771
     atom    3 type  1   force =    -0.00060384    0.00035134   -0.01004691
     atom    4 type  1   force =     0.00059336    0.00035332   -0.01001625
     atom    5 type  1   force =     0.00092115   -0.00053075    0.01200293
     atom    6 type  1   force =    -0.00091867   -0.00053284    0.01200042
     atom    7 type  1   force =    -0.00000408   -0.00000097    0.00371361
     atom    8 type  1   force =     0.00000357    0.00106459    0.01200069
     atom    9 type  1   force =    -0.00033949   -0.00019148   -0.00008006
     atom   10 type  1   force =     0.00034331   -0.00020522   -0.00008326
     atom   11 type  1   force =    -0.00001018    0.00039128   -0.00008135
     atom   12 type  1   force =     0.00001058   -0.00000062    0.00071625
     atom   13 type  2   force =    -0.00000123    0.00000141    0.00001597

     Total force =     0.029255     Total SCF correction =     0.003269
     SCF correction compared to forces is large: reduce conv_thr to get better values

     entering subroutine stress ...

     negative rho (up, down):  1.156E-03 0.000E+00
          total   stress  (Ry/bohr**3)                   (kbar)     P=    6.90
   0.00006018  -0.00000000  -0.00000000          8.85     -0.00     -0.00
  -0.00000000   0.00006018   0.00000000         -0.00      8.85      0.00
  -0.00000000   0.00000000   0.00002045         -0.00      0.00      3.01

 !ASE

     Writing output data file calc.save

     General routines

     Parallel routines

   This run was terminated on:  10:40:15  16Jan2018

   JOB DONE.
Job  /afs/slac/g/suncat/bin/suncat-tsmpirun -x LD_LIBRARY_PATH -wdir /scratch/qe842449_AaiK6 pw.x -in pw.inp

TID   HOST_NAME   COMMAND_LINE            STATUS            TERMINATION_TIME
00000 suncat2070 pw.x -in pw.inp   Done                     01/16/2018 10:40:15
00001 suncat2070 pw.x -in pw.inp   Done                     01/16/2018 10:40:15
00002 suncat2070 pw.x -in pw.inp   Done                     01/16/2018 10:40:15
00003 suncat2070 pw.x -in pw.inp   Done                     01/16/2018 10:40:15
00004 suncat2070 pw.x -in pw.inp   Done                     01/16/2018 10:40:15
00005 suncat2070 pw.x -in pw.inp   Done                     01/16/2018 10:40:15
00006 suncat2070 pw.x -in pw.inp   Done                     01/16/2018 10:40:15
00007 suncat2070 pw.x -in pw.inp   Done                     01/16/2018 10:40:15
00008 suncat2070 pw.x -in pw.inp   Done                     01/16/2018 10:40:15
00009 suncat2070 pw.x -in pw.inp   Done                     01/16/2018 10:40:15
00010 suncat2070 pw.x -in pw.inp   Done                     01/16/2018 10:40:15
00011 suncat2070 pw.x -in pw.inp   Done                     01/16/2018 10:40:15
00012 suncat2070 pw.x -in pw.inp   Done                     01/16/2018 10:40:15
00013 suncat2070 pw.x -in pw.inp   Done                     01/16/2018 10:40:15
00014 suncat2070 pw.x -in pw.inp   Done                     01/16/2018 10:40:15
00015 suncat2070 pw.x -in pw.inp   Done                     01/16/2018 10:40:15
00016 suncat2062 pw.x -in pw.inp   Done                     01/16/2018 10:40:15
00017 suncat2062 pw.x -in pw.inp   Done                     01/16/2018 10:40:15
00018 suncat2062 pw.x -in pw.inp   Done                     01/16/2018 10:40:15
00019 suncat2062 pw.x -in pw.inp   Done                     01/16/2018 10:40:15
00020 suncat2062 pw.x -in pw.inp   Done                     01/16/2018 10:40:15
00021 suncat2062 pw.x -in pw.inp   Done                     01/16/2018 10:40:15
00022 suncat2062 pw.x -in pw.inp   Done                     01/16/2018 10:40:15
00023 suncat2062 pw.x -in pw.inp   Done                     01/16/2018 10:40:15
00024 suncat2062 pw.x -in pw.inp   Done                     01/16/2018 10:40:15
00025 suncat2062 pw.x -in pw.inp   Done                     01/16/2018 10:40:15
00026 suncat2062 pw.x -in pw.inp   Done                     01/16/2018 10:40:15
00027 suncat2062 pw.x -in pw.inp   Done                     01/16/2018 10:40:15
00028 suncat2062 pw.x -in pw.inp   Done                     01/16/2018 10:40:15
00029 suncat2062 pw.x -in pw.inp   Done                     01/16/2018 10:40:15
00030 suncat2062 pw.x -in pw.inp   Done                     01/16/2018 10:40:15
00031 suncat2062 pw.x -in pw.inp   Done                     01/16/2018 10:40:15