     Program PWSCF v.5.1rc2 (svn rev. 11289) starts on  2May2018 at 14:11:10

     Current dimensions of program PWSCF are:
     Max number of different atomic species (ntypx) = 10
     Max number of k-points (npk) =  40000
     Max angular momentum in pseudopotentials (lmaxx) =  3
     Presently stress not available with electric field

     IMPORTANT: XC functional enforced from input :
     Exchange-correlation      = BEEF-VDW ( 1  4 27 13 2)
     Any further DFT definition will be discarded
     Please, verify this is what you really want

     Subspace diagonalization in iterative solution of the eigenvalue problem:
     a serial algorithm will be used

     bravais-lattice index     =            0
     lattice parameter (alat)  =       1.8897  a.u.
     unit-cell volume          =    3724.3394 (a.u.)^3
     number of atoms/cell      =           13
     number of atomic types    =            2
     number of electrons       =       174.00
     number of Kohn-Sham states=           97
     kinetic-energy cutoff     =      36.7493  Ry
     charge density cutoff     =     367.4932  Ry
     convergence threshold     =      1.0E-05
     mixing beta               =       0.3000
     number of iterations used =           10  plain     mixing
     Exchange-correlation      = BEEF-VDW ( 1  4 27 13 2)
     nstep                     =           50

     celldm(1)=   1.889726  celldm(2)=   0.000000  celldm(3)=   0.000000
     celldm(4)=   0.000000  celldm(5)=   0.000000  celldm(6)=   0.000000

     crystal axes: (cart. coord. in units of alat)
               a(1) = (   5.132588   0.000000   0.000000 )
               a(2) = (   2.566294   4.444952   0.000000 )
               a(3) = (   0.000000   0.000000  24.190741 )

     reciprocal axes: (cart. coord. in units 2 pi/alat)
               b(1) = (  0.194833 -0.112487  0.000000 )
               b(2) = (  0.000000  0.224974  0.000000 )
               b(3) = (  0.000000  0.000000  0.041338 )

     PseudoPot. # 1 for Cr read from file:
     /u/if/mamunm/psp/gbrv1.5pbe/Cr.UPF
     MD5 check sum: 0d52af634a40206e4dee301ad30da4bf
     Pseudo is Ultrasoft + core correction, Zval = 14.0
     Generated by new atomic code, or converted to UPF format
     Using radial grid of  857 points,  6 beta functions with:
                l(1) =   0
                l(2) =   0
                l(3) =   1
                l(4) =   1
                l(5) =   2
                l(6) =   2
     Q(r) pseudized with  8 coefficients,  rinner =    0.950   0.950   0.950
                                                       0.950   0.950

     PseudoPot. # 2 for S  read from file:
     /u/if/mamunm/psp/gbrv1.5pbe/S.UPF
     MD5 check sum: 88d86576ff6df21479756cfb9bdac1df
     Pseudo is Ultrasoft + core correction, Zval =  6.0
     Generated by new atomic code, or converted to UPF format
     Using radial grid of  907 points,  6 beta functions with:
                l(1) =   0
                l(2) =   0
                l(3) =   1
                l(4) =   1
                l(5) =   2
                l(6) =   2
     Q(r) pseudized with  8 coefficients,  rinner =    1.300   1.300   1.300
                                                       1.300   1.300

     vdW kernel table read from file vdW_kernel_table
     MD5 check sum: 095c7af220d748ca6e76c0b4c6cfb241

     atomic species   valence    mass     pseudopotential
        Cr1           14.00    51.99610     Cr( 1.00)
        S1             6.00    32.06000     S ( 1.00)

     No symmetry found

   Cartesian axes

     site n.     atom                  positions (alat units)
         1           Cr1 tau(   1) = (   1.2831471   0.7408253  10.0000000  )
         2           Cr1 tau(   2) = (   3.8494412   0.7408253  10.0000000  )
         3           Cr1 tau(   3) = (   2.5662941   2.9633012  10.0000000  )
         4           Cr1 tau(   4) = (   5.1325882   2.9633012  10.0000000  )
         5           Cr1 tau(   5) = (   5.1325882   1.4816506  12.0953704  )
         6           Cr1 tau(   6) = (   2.5662941   1.4816506  12.0953704  )
         7           Cr1 tau(   7) = (   6.4157353   3.7041265  12.0953704  )
         8           Cr1 tau(   8) = (   3.8494412   3.7041265  12.0953704  )
         9           Cr1 tau(   9) = (   0.0000000   0.0000000  14.1907408  )
        10           Cr1 tau(  10) = (   2.5662941   0.0000000  14.1907408  )
        11           Cr1 tau(  11) = (   1.2831471   2.2224759  14.1907408  )
        12           Cr1 tau(  12) = (   3.8494412   2.2224759  14.1907408  )
        13           S1  tau(  13) = (   2.5662941   1.4816506  15.7767408  )

     number of k points=    20  Fermi-Dirac smearing, width (Ry)=  0.0110
                       cart. coord. in units 2pi/alat
        k(    1) = (   0.0000000   0.0000000   0.0000000), wk =   0.0555556
        k(    2) = (   0.0000000   0.0374957   0.0000000), wk =   0.1111111
        k(    3) = (   0.0000000   0.0749914   0.0000000), wk =   0.1111111
        k(    4) = (   0.0000000  -0.1124872   0.0000000), wk =   0.0555556
        k(    5) = (   0.0324722  -0.0187479   0.0000000), wk =   0.1111111
        k(    6) = (   0.0324722   0.0187479   0.0000000), wk =   0.1111111
        k(    7) = (   0.0324722   0.0562436   0.0000000), wk =   0.1111111
        k(    8) = (   0.0324722  -0.1312350   0.0000000), wk =   0.1111111
        k(    9) = (   0.0324722  -0.0937393   0.0000000), wk =   0.1111111
        k(   10) = (   0.0324722  -0.0562436   0.0000000), wk =   0.1111111
        k(   11) = (   0.0649445  -0.0374957   0.0000000), wk =   0.1111111
        k(   12) = (   0.0649445   0.0000000   0.0000000), wk =   0.1111111
        k(   13) = (   0.0649445   0.0374957   0.0000000), wk =   0.1111111
        k(   14) = (   0.0649445  -0.1499829   0.0000000), wk =   0.1111111
        k(   15) = (   0.0649445  -0.1124872   0.0000000), wk =   0.1111111
        k(   16) = (   0.0649445  -0.0749914   0.0000000), wk =   0.1111111
        k(   17) = (  -0.0974167   0.0562436   0.0000000), wk =   0.0555556
        k(   18) = (  -0.0974167   0.0937393   0.0000000), wk =   0.1111111
        k(   19) = (  -0.0974167   0.1312350   0.0000000), wk =   0.1111111
        k(   20) = (  -0.0974167  -0.0562436   0.0000000), wk =   0.0555556

     Largest allocated arrays     est. size (Mb)     dimensions
     Largest temporary arrays     est. size (Mb)     dimensions

     Check: negative/imaginary core charge=   -0.000004    0.000000

     Initial potential from superposition of free atoms
     Check: negative starting charge=   -0.014893

     starting charge  161.99978, renormalised to  174.00000

     negative rho (up, down):  1.600E-02 0.000E+00

     *
     * You are using vdW-DF for exchange-correlation in this calculation.
     * Please cite the following three references that made this development
     * possible:
     *
     *   M. Dion, H. Rydberg, E. Schroder, D. C. Langreth, and
     *   B. I. Lundqvist, Phys. Rev. Lett. 92, 246401 (2004).
     *
     *   T. Thonhauser, V. R. Cooper, S. Li, A. Puzder, P. Hyldgaard, and
     *   D. C. Langreth, Phys. Rev. B 76, 125112 (2007).
     *
     *   G. Roman-Perez and J. M. Soler, Phys. Rev. Lett. 103, 096102 (2009).
     *
     *
     * If you are using vdW-DF2, please also cite:
     *
     *   K. Lee, E. D. Murray, L. Kong, B. I. Lundqvist, and
     *   D. C. Langreth, Phys. Rev. B 82, 081101(R) (2010).
     *
     *
     * If you are calculating the stress with vdW-DF, please also cite:
     *
     *   R. Sabatini, E. Kucukbenli, B. Kolb, T. Thonhauser, and
     *   S. de Gironcoli, J. Phys.: Condens. Matter 24, 424209 (2012).
     *

     Carrying out vdW-DF run using the following parameters:

     Nqs =      20    Nr_points =    1024   r_max =   100.000
     q_mesh =
               0.00001000     0.04494208     0.09755937     0.15916263
               0.23128650     0.31572767     0.41458969     0.53033537
               0.66584808     0.82450364     1.01025438     1.22772762
               1.48234092     1.78043706     2.12944203     2.53805004
               3.01644009     3.57652955     4.23227104     5.00000000

     Gradients computed in reciprocal space

     Adding external electric field

     Computed dipole along edir(3) :
        Dipole               -3.0917 Ry au,         -7.8583 Debye
        Dipole field         -0.0104 Ry au

        Potential amp.        0.9299 Ry
        Total length         44.5710 bohr

     Starting wfc are  124 randomized atomic wfcs

     Self-consistent Calculation

     iteration #  1     ecut=    36.75 Ry     beta=0.30
     Davidson diagonalization with overlap
     ethr =  1.00E-02,  avg # of iterations =  7.2

[...]

     total energy              =   -1906.04967084 Ry
     Harris-Foulkes estimate   =   -2140.81894322 Ry
     estimated scf accuracy    <     488.44257915 Ry

[...]

     End of self-consistent calculation

          k = 0.0000 0.0000 0.0000 ( 14081 PWs)   bands (ev):

   -70.3156 -70.2274 -70.1773 -70.1768 -70.1675 -70.1605 -70.1302 -70.1296
   -70.1287 -70.0740 -70.0716 -70.0711 -41.9300 -41.9041 -41.9038 -41.8721
   -41.8409 -41.8197 -41.8195 -41.7365 -41.7279 -41.7277 -41.5821 -41.5070
   -41.5036 -41.5031 -41.4635 -41.4599 -41.4596 -41.4001 -41.3999 -41.3982
   -41.3343 -41.3341 -41.3274 -41.2986 -41.2983 -41.2790 -41.2666 -41.2336
   -41.2335 -41.2157 -41.2144 -41.2142 -41.1521 -41.1519 -41.0831 -41.0831
   -11.9748  -5.2516  -3.7135  -2.9891  -2.9751  -2.9751  -2.4414  -2.2439
    -2.2439  -2.0909  -1.7497  -1.7265  -1.7264  -1.5006  -1.4647  -1.4646
    -1.1679  -1.1679  -0.9610  -0.3889  -0.3889  -0.1018   0.4232   0.5300
     0.5301   0.6865   0.9093   0.9738   0.9738   1.1288   1.1288   1.2280
     1.2280   1.2387   1.2389   1.3115   1.3115   1.4302   1.5568   1.5569
     1.9883   1.9885   2.2133   2.3025   2.3870   2.3871   2.5935   2.5936
     2.8214

[...]

          k =-0.0974 0.0562 0.0000 ( 14010 PWs)   bands (ev):

[...]

     the Fermi energy is     1.4029 ev

!    total energy              =   -2139.47659387 Ry
     Harris-Foulkes estimate   =   -2139.47659909 Ry
     estimated scf accuracy    <       0.00000499 Ry

     The total energy is the sum of the following terms:

     one-electron contribution =  -20045.29880391 Ry
     hartree contribution      =   10016.90775048 Ry
     xc contribution           =    -288.13214669 Ry
     ewald contribution        =    8177.18164170 Ry
     electric field correction =       0.00000124 Ry
     smearing contrib. (-TS)   =      -0.13503669 Ry

     convergence has been achieved in  65 iterations

 BEEF-vdW xc energy contributions
           1 :   -249.341382034717
           2 :    224.443682698799
           3 :   -182.804817202981
           4 :    136.851796508688
           5 :   -97.9465234566291
           6 :    72.2854464269779
           7 :   -59.6981314634990
           8 :    55.4271414767487
           9 :   -53.5298095736380
          10 :    49.9573881778205
          11 :   -43.8882421078551
          12 :    37.0444480322111
          13 :   -31.8248294503459
          14 :    29.5382969425136
          15 :   -29.7044275066991
          16 :    30.5996848554592
          17 :   -30.4913945884666
          18 :    28.6946614416914
          19 :   -25.8281229130126
          20 :    23.2166871088820
          21 :   -21.9260707293965
          22 :    22.0839480442302
          23 :   -22.8882045492860
          24 :    23.2191710513661
          25 :   -22.3976374705103
          26 :    20.5840098442138
          27 :   -18.5971872737229
          28 :    17.3232486925514
          29 :   -17.1312120369354
          30 :    17.6697987702920
          31 :   -24.7982463739260
          32 :   -17.8287804833934

     Forces acting on atoms (Ry/au):

     negative rho (up, down):  1.462E-02 0.000E+00
     atom    1 type  1   force =    -0.00161963   -0.00093383    0.00033350
     atom    2 type  1   force =     0.00159578   -0.00093660    0.00029552
     atom    3 type  1   force =    -0.00001702    0.00185318    0.00032396
     atom    4 type  1   force =    -0.00000657    0.00000246    0.00157292
     atom    5 type  1   force =    -0.00003592   -0.00026358   -0.00406358
     atom    6 type  1   force =     0.00001984    0.00000400    0.00805238
     atom    7 type  1   force =     0.00022549    0.00014884   -0.00408647
     atom    8 type  1   force =    -0.00024338    0.00011254   -0.00400836
     atom    9 type  1   force =    -0.00002255   -0.00000087   -0.02055624
     atom   10 type  1   force =     0.00000105   -0.06611776   -0.02118354
     atom   11 type  1   force =    -0.05726536    0.03305230   -0.02118365
     atom   12 type  1   force =     0.05726934    0.03307332   -0.02118594
     atom   13 type  2   force =     0.00009894    0.00000600    0.08568950

     Total force =     0.149092     Total SCF correction =     0.001137

     entering subroutine stress ...

     negative rho (up, down):  1.462E-02 0.000E+00
          total   stress  (Ry/bohr**3)                   (kbar)     P=  -13.97
  -0.00017144  -0.00000010   0.00000024        -25.22     -0.02      0.04
  -0.00000010  -0.00017143   0.00000001         -0.02    -25.22      0.00
   0.00000024   0.00000001   0.00005803          0.04      0.00      8.54

     BFGS Geometry Optimization

     number of scf cycles    =   1
     number of bfgs steps    =   0

     energy   new            =   -2139.4765938676 Ry

     new trust radius        =       0.0856895592 bohr
     new conv_thr            =       0.0000099958 Ry

ATOMIC_POSITIONS (crystal)
Cr1      0.166666667   0.166666667   0.413381306    0   0   0
Cr1      0.666666667   0.166666667   0.413381306    0   0   0
Cr1      0.166666667   0.666666667   0.413381306    0   0   0
Cr1      0.666666667   0.666666667   0.413381306    0   0   0
Cr1      0.833333333   0.333333333   0.500000000    0   0   0
Cr1      0.333333333   0.333333333   0.500000000    0   0   0
Cr1      0.833333333   0.833333333   0.500000000    0   0   0
Cr1      0.333333333   0.833333333   0.500000000    0   0   0
Cr1     -0.000002274  -0.000000103   0.586169022
Cr1      0.503935810  -0.007871404   0.586155300
Cr1     -0.007871601   0.503934919   0.586155298
Cr1      0.503935840   0.503937421   0.586155248
S1       0.333343177   0.333334047   0.654055444

     Writing output data file calc.save
     Check: negative starting charge=   -0.014893
     NEW-OLD atomic charge density approx. for the potential

     Check: negative/imaginary core charge=   -0.000004    0.000000
     Check: negative starting charge=   -0.013880

[...]

     Total force =     0.059707     Total SCF correction =     0.006462
     SCF correction compared to forces is large: reduce conv_thr to get better values

[...]

     energy   old            =   -2139.4765938676 Ry
     energy   new            =   -2139.4917328909 Ry

     CASE: energy  _new < energy  _old

[...]

     iteration #  1     ecut=    36.75 Ry     beta=0.30
     Davidson diagonalization with overlap
     c_bands:  1 eigenvalues not converged
     ethr =  1.00E-06,  avg # of iterations = 10.2

[...]

     CASE: energy  _new > energy  _old

[...]

     Total force =     0.005176     Total SCF correction =     0.000148

[...]

     number of scf cycles    =  18
     number of bfgs steps    =  16

     energy   old            =   -2139.5083328215 Ry
     energy   new            =   -2139.5083949432 Ry

     CASE: energy  _new < energy  _old

     new trust radius        =       0.0151846606 bohr
     new conv_thr            =       0.0000001000 Ry

ATOMIC_POSITIONS (crystal)
Cr1      0.166666667   0.166666667   0.413381306    0   0   0
Cr1      0.666666667   0.166666667   0.413381306    0   0   0
Cr1      0.166666667   0.666666667   0.413381306    0   0   0
Cr1      0.666666667   0.666666667   0.413381306    0   0   0
Cr1      0.833333333   0.333333333   0.500000000    0   0   0
Cr1      0.333333333   0.333333333   0.500000000    0   0   0
Cr1      0.833333333   0.833333333   0.500000000    0   0   0
Cr1      0.333333333   0.833333333   0.500000000    0   0   0
Cr1     -0.000003298   0.000002534   0.570686486
Cr1      0.510250819  -0.020500457   0.590573141
Cr1     -0.020489849   0.510245340   0.590572670
Cr1      0.510257145   0.510258940   0.590573239
S1       0.333334507   0.333337046   0.658405219

     Writing output data file calc.save
     Check: negative starting charge=   -0.014543
     NEW-OLD atomic charge density approx. for the potential

     Check: negative/imaginary core charge=   -0.000004    0.000000
     Check: negative starting charge=   -0.014817

[...]

     Self-consistent Calculation

[...]

     total energy              =   -2139.50846111 Ry
     Harris-Foulkes estimate   =   -2139.50846113 Ry
     estimated scf accuracy    <       0.00000039 Ry

     iteration # 21     ecut=    36.75 Ry     beta=0.30
     Davidson diagonalization with overlap
     ethr =  2.26E-10,  avg # of iterations =  2.3

[...]

     negative rho (up, down):  1.469E-02 0.000E+00

     Adding external electric field

     Computed dipole along edir(3) :
        Dipole               -0.0771 Ry au,         -0.1960 Debye
        Dipole field         -0.0003 Ry au

        Potential amp.        0.0232 Ry
        Total length         44.5710 bohr

     End of self-consistent calculation

[...]

          k = 0.0649-0.0750 0.0000 ( 13990 PWs)   bands (ev):

[...]

          k =-0.0974-0.0562 0.0000 ( 14010 PWs)   bands (ev):

   -70.4221 -70.4015 -70.3501 -70.3041 -70.2802 -70.2777 -70.2560 -70.2346
   -70.2225 -70.1996 -70.1740 -70.1684 -42.1274 -41.9784 -41.9727 -41.9129
   -41.9113 -41.8540 -41.8297 -41.7658 -41.7587 -41.7195 -41.7085 -41.6987
   -41.6985 -41.6183 -41.6012 -41.5918 -41.5833 -41.5751 -41.5443 -41.5062
   -41.4931 -41.4870 -41.4855 -41.4851 -41.4529 -41.4522 -41.4456 -41.4431
   -41.4028 -41.3942 -41.3310 -41.3130 -41.2796 -41.2485 -41.2407 -41.2190
   -11.5603  -3.7407  -3.5773  -2.8433  -2.6859  -2.3303  -1.9880  -1.8259
    -1.6213  -1.5664  -1.5548  -1.5220  -1.4514  -1.0737  -0.9767  -0.9546
    -0.7845  -0.7538  -0.5663  -0.4884  -0.4193  -0.1823  -0.1620  -0.1227
    -0.1069   0.0693   0.1270   0.1803   0.3434   0.3751   0.5724   0.5774
     0.6087   0.7016   0.8368   0.8580   0.9792   0.9804   1.0413   1.0935
     1.3327   1.4435   1.6065   1.7833   1.8207   1.8486   1.9425   2.1644
     2.2044

     the Fermi energy is     1.3181 ev

!    total energy              =   -2139.50846109 Ry
     Harris-Foulkes estimate   =   -2139.50846141 Ry
     estimated scf accuracy    <       0.00000005 Ry

     The total energy is the sum of the following terms:

     one-electron contribution =  -20030.95440337 Ry
     hartree contribution      =   10009.07647450 Ry
     xc contribution           =    -288.12087703 Ry
     ewald contribution        =    8170.61475984 Ry
     electric field correction =       0.00002006 Ry
     smearing contrib. (-TS)   =      -0.12443509 Ry

     convergence has been achieved in  21 iterations

 BEEF-vdW xc energy contributions
           1 :   -249.330108781419
           2 :    224.398735401039
           3 :   -182.705739968904
           4 :    136.689670633980
           5 :   -97.7172465966208
           6 :    71.9868376353459
           7 :   -59.3313246309021
           8 :    55.0047412891274
           9 :   -53.0875262135830
          10 :    49.5545970499220
          11 :   -43.5841559830933
          12 :    36.8578889832777
          13 :   -31.7089934830677
          14 :    29.4001104337799
          15 :   -29.4651644041115
          16 :    30.2550007030084
          17 :   -30.1228101207479
          18 :    28.4188744704639
          19 :   -25.7167834122210
          20 :    23.2421689359682
          21 :   -21.9720697315468
          22 :    22.0156727012443
          23 :   -22.6373243086120
          24 :    22.8288935539677
          25 :   -21.9980822849631
          26 :    20.3119098816173
          27 :   -18.5101842222932
          28 :    17.3640140771183
          29 :   -17.1656367588498
          30 :    17.5763415722938
          31 :   -24.7962091254445
          32 :   -17.8136051203883

     Forces acting on atoms (Ry/au):

     negative rho (up, down):  1.469E-02 0.000E+00
     atom    1 type  1   force =    -0.00126474   -0.00073100   -0.00069854
     atom    2 type  1   force =     0.00126541   -0.00073293   -0.00068306
     atom    3 type  1   force =     0.00000034    0.00146287   -0.00069365
     atom    4 type  1   force =    -0.00000007    0.00000217    0.00704616
     atom    5 type  1   force =     0.00000047    0.01856748   -0.01581558
     atom    6 type  1   force =     0.00000170   -0.00000048    0.04650005
     atom    7 type  1   force =    -0.01608620   -0.00928605   -0.01583066
     atom    8 type  1   force =     0.01608164   -0.00928224   -0.01581931
     atom    9 type  1   force =    -0.00000125   -0.00000301   -0.00158000
     atom   10 type  1   force =     0.00000380   -0.00063168   -0.00028112
     atom   11 type  1   force =    -0.00054782    0.00032273   -0.00028076
     atom   12 type  1   force =     0.00054107    0.00031286   -0.00027182
     atom   13 type  2   force =     0.00000566   -0.00000072   -0.00159169

     Total force =     0.002541     Total SCF correction =     0.000465
     SCF correction compared to forces is large: reduce conv_thr to get better values

     entering subroutine stress ...

     negative rho (up, down):  1.469E-02 0.000E+00
          total   stress  (Ry/bohr**3)                   (kbar)     P=  -16.59
  -0.00015896  -0.00000001   0.00000000        -23.38     -0.00      0.00
  -0.00000001  -0.00015896  -0.00000000         -0.00    -23.38     -0.00
   0.00000000  -0.00000000  -0.00002033          0.00     -0.00     -2.99

     bfgs converged in  19 scf cycles and  17 bfgs steps
     (criteria: energy <  1.0E+00, force <  1.9E-03)

     End of BFGS Geometry Optimization

     Final energy   =   -2139.5084610906 Ry
Begin final coordinates

ATOMIC_POSITIONS (crystal)
Cr1      0.166666667   0.166666667   0.413381306    0   0   0
Cr1      0.666666667   0.166666667   0.413381306    0   0   0
Cr1      0.166666667   0.666666667   0.413381306    0   0   0
Cr1      0.666666667   0.666666667   0.413381306    0   0   0
Cr1      0.833333333   0.333333333   0.500000000    0   0   0
Cr1      0.333333333   0.333333333   0.500000000    0   0   0
Cr1      0.833333333   0.833333333   0.500000000    0   0   0
Cr1      0.333333333   0.833333333   0.500000000    0   0   0
Cr1     -0.000003298   0.000002534   0.570686486
Cr1      0.510250819  -0.020500457   0.590573141
Cr1     -0.020489849   0.510245340   0.590572670
Cr1      0.510257145   0.510258940   0.590573239
S1       0.333334507   0.333337046   0.658405219
End final coordinates

     Writing output data file calc.save

     General routines

     Parallel routines

   This run was terminated on:  16:54:22   2May2018

   JOB DONE.
Job  /afs/slac/g/suncat/bin/suncat-tsmpirun -x LD_LIBRARY_PATH -wdir /scratch/qe737330_ZZ06h pw.x -npool 4 -in pw.inp

TID   HOST_NAME   COMMAND_LINE            STATUS            TERMINATION_TIME
00000 suncat0019 pw.x -npool 4 -i  Done                     05/02/2018 16:54:22
00001 suncat0019 pw.x -npool 4 -i  Done                     05/02/2018 16:54:22
00002 suncat0019 pw.x -npool 4 -i  Done                     05/02/2018 16:54:22
00003 suncat0019 pw.x -npool 4 -i  Done                     05/02/2018 16:54:22
00004 suncat0019 pw.x -npool 4 -i  Done                     05/02/2018 16:54:22
00005 suncat0019 pw.x -npool 4 -i  Done                     05/02/2018 16:54:22
00006 suncat0019 pw.x -npool 4 -i  Done                     05/02/2018 16:54:22
00007 suncat0019 pw.x -npool 4 -i  Done                     05/02/2018 16:54:22
00008 suncat0004 pw.x -npool 4 -i  Done                     05/02/2018 16:54:22
00009 suncat0004 pw.x -npool 4 -i  Done                     05/02/2018 16:54:22
00010 suncat0004 pw.x -npool 4 -i  Done                     05/02/2018 16:54:22
00011 suncat0004 pw.x -npool 4 -i  Done                     05/02/2018 16:54:22
00012 suncat0004 pw.x -npool 4 -i  Done                     05/02/2018 16:54:22
00013 suncat0004 pw.x -npool 4 -i  Done                     05/02/2018 16:54:22
00014 suncat0004 pw.x -npool 4 -i  Done                     05/02/2018 16:54:22
00015 suncat0004 pw.x -npool 4 -i  Done                     05/02/2018 16:54:22
00016 suncat0278 pw.x -npool 4 -i  Done                     05/02/2018 16:54:22
00017 suncat0278 pw.x -npool 4 -i  Done                     05/02/2018 16:54:22
00018 suncat0278 pw.x -npool 4 -i  Done                     05/02/2018 16:54:22
00019 suncat0278 pw.x -npool 4 -i  Done                     05/02/2018 16:54:22
00020 suncat0278 pw.x -npool 4 -i  Done                     05/02/2018 16:54:22
00021 suncat0278 pw.x -npool 4 -i  Done                     05/02/2018 16:54:22
00022 suncat0278 pw.x -npool 4 -i  Done                     05/02/2018 16:54:22
00023 suncat0278 pw.x -npool 4 -i  Done                     05/02/2018 16:54:22
00024 suncat0264 pw.x -npool 4 -i  Done                     05/02/2018 16:54:22
00025 suncat0264 pw.x -npool 4 -i  Done                     05/02/2018 16:54:22
00026 suncat0264 pw.x -npool 4 -i  Done                     05/02/2018 16:54:22
00027 suncat0264 pw.x -npool 4 -i  Done                     05/02/2018 16:54:22
00028 suncat0264 pw.x -npool 4 -i  Done                     05/02/2018 16:54:22
00029 suncat0264 pw.x -npool 4 -i  Done                     05/02/2018 16:54:22
00030 suncat0264 pw.x -npool 4 -i  Done                     05/02/2018 16:54:22
00031 suncat0264 pw.x -npool 4 -i  Done                     05/02/2018 16:54:22