     Program PWSCF v.5.1rc2 (svn rev. 11289) starts on 25Apr2018 at  8: 1: 3

     Current dimensions of program PWSCF are:
     Max number of different atomic species (ntypx) = 10
     Max number of k-points (npk) =  40000
     Max angular momentum in pseudopotentials (lmaxx) =  3
     Presently stress not available with electric field

     IMPORTANT: XC functional enforced from input :
     Exchange-correlation      = BEEF-VDW ( 1  4 27 13 2)
     Any further DFT definition will be discarded
     Please, verify this is what you really want

     Subspace diagonalization in iterative solution of the eigenvalue problem:
     a serial algorithm will be used

     bravais-lattice index     =            0
     lattice parameter (alat)  =       1.8897  a.u.
     unit-cell volume          =    6082.7792 (a.u.)^3
     number of atoms/cell      =           14
     number of atomic types    =            3
     number of electrons       =       151.00
     number of Kohn-Sham states=           85
     kinetic-energy cutoff     =      36.7493  Ry
     charge density cutoff     =     367.4932  Ry
     convergence threshold     =      1.0E-05
     mixing beta               =       0.3000
     number of iterations used =           10  plain     mixing
     Exchange-correlation      = BEEF-VDW ( 1  4 27 13 2)
     nstep                     =           50

     celldm(1)=   1.889726  celldm(2)=   0.000000  celldm(3)=   0.000000
     celldm(4)=   0.000000  celldm(5)=   0.000000  celldm(6)=   0.000000

     crystal axes: (cart. coord. in units of alat)
               a(1) = (   6.421223   0.000000   0.000000 )
               a(2) = (   3.210611   5.560942   0.000000 )
               a(3) = (   0.000000   0.000000  25.242906 )

     reciprocal axes: (cart. coord. in units 2 pi/alat)
               b(1) = (  0.155734 -0.089913  0.000000 )
               b(2) = (  0.000000  0.179826  0.000000 )
               b(3) = (  0.000000  0.000000  0.039615 )

     PseudoPot. # 1 for Zr read from file:
     /u/if/mamunm/psp/gbrv1.5pbe/Zr.UPF
     MD5 check sum: 5db81b1e868ab7776c4564c113de050b
     Pseudo is Ultrasoft + core correction, Zval = 12.0
     Generated by new atomic code, or converted to UPF format
     Using radial grid of  887 points,  6 beta functions with:
                l(1) =   0
                l(2) =   0
                l(3) =   1
                l(4) =   1
                l(5) =   2
                l(6) =   2
     Q(r) pseudized with  6 coefficients,  rinner =    1.200   1.200   1.200
                                                       1.200   1.200

     PseudoPot. # 2 for O  read from file:
     /u/if/mamunm/psp/gbrv1.5pbe/O.UPF
     MD5 check sum: 734c27235a0248c51dbae37a1fbe46ec
     Pseudo is Ultrasoft + core correction, Zval =  6.0
     Generated by new atomic code, or converted to UPF format
     Using radial grid of  737 points,  5 beta functions with:
                l(1) =   0
                l(2) =   0
                l(3) =   1
                l(4) =   1
                l(5) =   2
     Q(r) pseudized with  8 coefficients,  rinner =    0.900   0.900   0.900
                                                       0.900   0.900

     PseudoPot. # 3 for H  read from file:
     /u/if/mamunm/psp/gbrv1.5pbe/H.UPF
     MD5 check sum: 761ae9a214b05c3daf00ab9f6b793d6f
     Pseudo is Ultrasoft, Zval =  1.0
     Generated by new atomic code, or converted to UPF format
     Using radial grid of  615 points,  2 beta functions with:
                l(1) =   0
                l(2) =   0
     Q(r) pseudized with  8 coefficients,  rinner =    0.700

     vdW kernel table read from file vdW_kernel_table
     MD5 check sum: 095c7af220d748ca6e76c0b4c6cfb241

     atomic species   valence    mass     pseudopotential
        Zr1           12.00    91.22400     Zr( 1.00)
        O1             6.00    15.99900     O ( 1.00)
        H1             1.00     1.00800     H ( 1.00)

     No symmetry found

   Cartesian axes

     site n.     atom                  positions (alat units)
         1           Zr1 tau(   1) = (   1.6053057   0.9268237  10.0000000  )
         2           Zr1 tau(   2) = (   4.8159170   0.9268237  10.0000000  )
         3           Zr1 tau(   3) = (   3.2106113   3.7072946  10.0000000  )
         4           Zr1 tau(   4) = (   6.4212227   3.7072946  10.0000000  )
         5           Zr1 tau(   5) = (   6.4212227   1.8536473  12.6214532  )
         6           Zr1 tau(   6) = (   3.2106113   1.8536473  12.6214532  )
         7           Zr1 tau(   7) = (   8.0265283   4.6341183  12.6214532  )
         8           Zr1 tau(   8) = (   4.8159170   4.6341183  12.6214532  )
         9           Zr1 tau(   9) = (   0.0000000   0.0000000  15.2429064  )
        10           Zr1 tau(  10) = (   3.2106113   0.0000000  15.2429064  )
        11           Zr1 tau(  11) = (   1.6053057   2.7804710  15.2429064  )
        12           Zr1 tau(  12) = (   4.8159170   2.7804710  15.2429064  )
        13           O1  tau(  13) = (   0.0000000   0.0000000  17.2914064  )
        14           H1  tau(  14) = (   0.0000000   0.0000000  18.2414064  )

     number of k points=    20  Fermi-Dirac smearing, width (Ry)=  0.0110
                       cart. coord. in units 2pi/alat
        k(    1) = (   0.0000000   0.0000000   0.0000000), wk =   0.0555556
        k(    2) = (   0.0000000   0.0299709   0.0000000), wk =   0.1111111
        k(    3) = (   0.0000000   0.0599419   0.0000000), wk =   0.1111111
        k(    4) = (   0.0000000  -0.0899128   0.0000000), wk =   0.0555556
        k(    5) = (   0.0259556  -0.0149855   0.0000000), wk =   0.1111111
        k(    6) = (   0.0259556   0.0149855   0.0000000), wk =   0.1111111
        k(    7) = (   0.0259556   0.0449564   0.0000000), wk =   0.1111111
        k(    8) = (   0.0259556  -0.1048983   0.0000000), wk =   0.1111111
        k(    9) = (   0.0259556  -0.0749274   0.0000000), wk =   0.1111111
        k(   10) = (   0.0259556  -0.0449564   0.0000000), wk =   0.1111111
        k(   11) = (   0.0519112  -0.0299709   0.0000000), wk =   0.1111111
        k(   12) = (   0.0519112   0.0000000   0.0000000), wk =   0.1111111
        k(   13) = (   0.0519112   0.0299709   0.0000000), wk =   0.1111111
        k(   14) = (   0.0519112  -0.1198838   0.0000000), wk =   0.1111111
        k(   15) = (   0.0519112  -0.0899128   0.0000000), wk =   0.1111111
        k(   16) = (   0.0519112  -0.0599419   0.0000000), wk =   0.1111111
        k(   17) = (  -0.0778668   0.0449564   0.0000000), wk =   0.0555556
        k(   18) = (  -0.0778668   0.0749274   0.0000000), wk =   0.1111111
        k(   19) = (  -0.0778668   0.1048983   0.0000000), wk =   0.1111111
        k(   20) = (  -0.0778668  -0.0449564   0.0000000), wk =   0.0555556

     Largest allocated arrays     est. size (Mb)     dimensions
     Largest temporary arrays     est. size (Mb)     dimensions

     Initial potential from superposition of free atoms
     Check: negative starting charge=   -0.729221

     starting charge  150.97420, renormalised to  151.00000

     negative rho (up, down):  7.293E-01 0.000E+00

     *
     * You are using vdW-DF for exchange-correlation in this calculation.
     * Please cite the following three references that made this development
     * possible:
     *
     *   M. Dion, H. Rydberg, E. Schroder, D. C. Langreth, and
     *   B. I. Lundqvist, Phys. Rev. Lett. 92, 246401 (2004).
     *
     *   T. Thonhauser, V. R. Cooper, S. Li, A. Puzder, P. Hyldgaard, and
     *   D. C. Langreth, Phys. Rev. B 76, 125112 (2007).
     *
     *   G. Roman-Perez and J. M. Soler, Phys. Rev. Lett. 103, 096102 (2009).
     *
     *
     * If you are using vdW-DF2, please also cite:
     *
     *   K. Lee, E. D. Murray, L. Kong, B. I. Lundqvist, and
     *   D. C. Langreth, Phys. Rev. B 82, 081101(R) (2010).
     *
     *
     * If you are calculating the stress with vdW-DF, please also cite:
     *
     *   R. Sabatini, E. Kucukbenli, B. Kolb, T. Thonhauser, and
     *   S. de Gironcoli, J. Phys.: Condens. Matter 24, 424209 (2012).
     *

     Carrying out vdW-DF run using the following parameters:

     Nqs =      20    Nr_points =    1024   r_max =   100.000
     q_mesh =
               0.00001000     0.04494208     0.09755937     0.15916263
               0.23128650     0.31572767     0.41458969     0.53033537
               0.66584808     0.82450364     1.01025438     1.22772762
               1.48234092     1.78043706     2.12944203     2.53805004
               3.01644009     3.57652955     4.23227104     5.00000000

     Gradients computed in reciprocal space

     Adding external electric field

     Computed dipole along edir(3) :
        Dipole               -0.0108 Ry au,         -0.0273 Debye
        Dipole field         -0.0000 Ry au

        Potential amp.        0.0021 Ry
        Total length         46.5096 bohr

     Starting wfc are  161 randomized atomic wfcs

     Self-consistent Calculation

     iteration #  1     ecut=    36.75 Ry     beta=0.30
     Davidson diagonalization with overlap
     ethr =  1.00E-02,  avg # of iterations =  2.0

[...]

     total energy              =   -1227.84456182 Ry
     Harris-Foulkes estimate   =   -1231.48105659 Ry
     estimated scf accuracy    <       7.67850995 Ry

[...]

     End of self-consistent calculation

          k = 0.0000 0.0000 0.0000 ( 22923 PWs)   bands (ev):

   -47.4935 -47.4161 -47.4136 -47.3855 -47.3847 -47.3308 -47.3200 -47.3194
   -47.1018 -47.0274 -47.0140 -47.0137 -25.7809 -25.7805 -25.7323 -25.7180
   -25.6823 -25.6821 -25.6671 -25.6073 -25.5576 -25.5573 -25.4865 -25.4118
   -25.3671 -25.3668 -25.2365 -25.2175 -25.2100 -25.2099 -25.2040 -25.2037
   -25.1484 -25.1482 -25.1444 -25.0405 -25.0403 -24.9824 -24.9824 -24.9485
   -24.9378 -24.9376 -24.9303 -24.8394 -24.8393 -24.8325 -24.6860 -24.6860
   -18.2091  -6.2803  -3.0821  -2.1450  -2.1450  -1.9988  -1.1805  -0.6934
    -0.6879  -0.6878  -0.5739  -0.5724  -0.5723  -0.1922  -0.1922  -0.1631
     0.0530   0.0689   0.0689   0.8676   1.0470   1.0471   1.7776   1.9768
     2.0458   2.1322   2.1323   2.4169   2.5573   2.5595   2.5597   2.7330
     2.7331   2.7869   2.9781   2.9793   3.0208

[...]

          k =-0.0779 0.0450 0.0000 ( 22880 PWs)   bands (ev):

[...]

     the Fermi energy is     1.8665 ev

!    total energy              =   -1230.73957337 Ry
     Harris-Foulkes estimate   =   -1230.73954637 Ry
     estimated scf accuracy    <       0.00000791 Ry

     The total energy is the sum of the following terms:

     one-electron contribution =   -8447.15346805 Ry
     hartree contribution      =    4219.03463512 Ry
     xc contribution           =    -228.90224694 Ry
     ewald contribution        =    3226.40070891 Ry
     electric field correction =       0.00027450 Ry
     smearing contrib. (-TS)   =      -0.11947691 Ry

     convergence has been achieved in  16 iterations

 BEEF-vdW xc energy contributions
           1 :   -195.998884360599
           2 :    177.109419512353
           3 :   -145.396745000584
           4 :    109.891170052529
           5 :   -78.6145702224631
           6 :    55.8296435833100
           7 :   -41.4646276175549
           8 :    32.5184383643967
           9 :   -25.3830248926598
          10 :    17.7822360987005
          11 :   -9.49780965017413
          12 :    1.82238048691778
          13 :    3.67494855015713
          14 :   -6.26021102545974
          15 :    6.42992854373358
          16 :   -5.49982215486847
          17 :    4.77003946083647
          18 :   -4.83050197846029
          19 :    5.39845686968141
          20 :   -5.71308854074485
          21 :    5.16405927443600
          22 :   -3.72580369931330
          23 :    1.94815506582202
          24 :  -0.569753974634921
          25 :   4.865647578174048E-002
          26 :  -0.319747502995028
          27 :   0.901891806706118
          28 :   -1.24301151369704
          29 :    1.06361615732189
          30 :  -0.492943061533879
          31 :   -22.6958118322725
          32 :   -16.8414295069737

     Forces acting on atoms (Ry/au):

     negative rho (up, down):  7.490E-01 0.000E+00
     atom    1 type  1   force =     0.00060617    0.00030253    0.01466031
     atom    2 type  1   force =    -0.00060284    0.00032792    0.01469187
     atom    3 type  1   force =     0.00002499   -0.00066605    0.01469888
     atom    4 type  1   force =    -0.00002873    0.00003674    0.01582415
     atom    5 type  1   force =    -0.00012923    0.00490194   -0.00828591
     atom    6 type  1   force =     0.00012555   -0.00006030    0.00450931
     atom    7 type  1   force =    -0.00429652   -0.00234750   -0.00830497
     atom    8 type  1   force =     0.00429509   -0.00249601   -0.00818757
     atom    9 type  1   force =     0.00001647   -0.00002354    0.06622696
     atom   10 type  1   force =    -0.00001008    0.00280829   -0.02407110
     atom   11 type  1   force =     0.00244793   -0.00139659   -0.02397006
     atom   12 type  1   force =    -0.00245111   -0.00138655   -0.02401191
     atom   13 type  2   force =     0.00000092   -0.00000026   -0.07186571
     atom   14 type  3   force =     0.00000139   -0.00000060    0.03808574

     Total force =     0.112940     Total SCF correction =     0.001904

     entering subroutine stress ...

     negative rho (up, down):  7.490E-01 0.000E+00
          total   stress  (Ry/bohr**3)                   (kbar)     P=  -10.79
  -0.00006183   0.00000000   0.00000000         -9.10      0.00      0.00
   0.00000000  -0.00006182   0.00000000          0.00     -9.09      0.00
   0.00000000   0.00000000  -0.00009631          0.00      0.00    -14.17

     BFGS Geometry Optimization

     number of scf cycles    =   1
     number of bfgs steps    =   0

     energy   new            =   -1230.7395733701 Ry

     new trust radius        =       0.0718657114 bohr
     new conv_thr            =       0.0000099958 Ry

ATOMIC_POSITIONS (crystal)
Zr1      0.166666667   0.166666667   0.396150897    0   0   0
Zr1      0.666666667   0.166666667   0.396150897    0   0   0
Zr1      0.166666667   0.666666667   0.396150897    0   0   0
Zr1      0.666666667   0.666666667   0.396150897    0   0   0
Zr1      0.833333333   0.333333333   0.500000000    0   0   0
Zr1      0.333333333   0.333333333   0.500000000    0   0   0
Zr1      0.833333333   0.833333333   0.500000000    0   0   0
Zr1      0.333333333   0.833333333   0.500000000    0   0   0
Zr1      0.000002477  -0.000002240   0.605237445
Zr1      0.499865551   0.000267235   0.603344491
Zr1      0.000268185   0.499867101   0.603346609
Zr1      0.499863975   0.499868056   0.603345731
O1       0.000000089  -0.000000025   0.683494064
H1       0.000000143  -0.000000057   0.723433356

     Writing output data file calc.save
     Check: negative starting charge=   -0.729221
     NEW-OLD atomic charge density approx. for the potential
     Check: negative starting charge=   -0.728409

[...]

     iteration #  1     ecut=    36.75 Ry     beta=0.30
     Davidson diagonalization with overlap
     c_bands:  1 eigenvalues not converged
     c_bands:  1 eigenvalues not converged
     ethr =  1.00E-06,  avg # of iterations = 16.2

[...]

     energy   old            =   -1230.7395733701 Ry
     energy   new            =   -1230.7430975278 Ry

     CASE: energy  _new < energy  _old

[...]

     iteration #  1     ecut=    36.75 Ry     beta=0.30
     Davidson diagonalization with overlap
     c_bands:  1 eigenvalues not converged
     ethr =  1.00E-06,  avg # of iterations = 13.1

[...]

     Total force =     0.006653     Total SCF correction =     0.000106

[...]

     number of scf cycles    =  15
     number of bfgs steps    =  14

     energy   old            =   -1230.7667325001 Ry
     energy   new            =   -1230.7668775239 Ry

     CASE: energy  _new < energy  _old

     new trust radius        =       0.0058594524 bohr
     new conv_thr            =       0.0000001000 Ry

ATOMIC_POSITIONS (crystal)
Zr1      0.166666667   0.166666667   0.396150897    0   0   0
Zr1      0.666666667   0.166666667   0.396150897    0   0   0
Zr1      0.166666667   0.666666667   0.396150897    0   0   0
Zr1      0.666666667   0.666666667   0.396150897    0   0   0
Zr1      0.833333333   0.333333333   0.500000000    0   0   0
Zr1      0.333333333   0.333333333   0.500000000    0   0   0
Zr1      0.833333333   0.833333333   0.500000000    0   0   0
Zr1      0.333333333   0.833333333   0.500000000    0   0   0
Zr1     -0.000019795   0.000001207   0.617254562
Zr1      0.496517182   0.007000156   0.596903431
Zr1      0.006993782   0.496509886   0.596899405
Zr1      0.496507948   0.496484499   0.596894203
O1       0.000001298   0.000000820   0.694693638
H1      -0.000000660  -0.000000087   0.732953133

     Writing output data file calc.save
     Check: negative starting charge=   -0.729343
     NEW-OLD atomic charge density approx. for the potential
     Check: negative starting charge=   -0.729282

[...]

     Self-consistent Calculation

[...]

     Threshold (ethr) on eigenvalues was too large:
     Diagonalizing with lowered threshold

     Davidson diagonalization with overlap
     ethr =  1.34E-08,  avg # of iterations =  5.6

[...]

     total energy              =   -1230.76690115 Ry
     Harris-Foulkes estimate   =   -1230.76690121 Ry
     estimated scf accuracy    <       0.00000023 Ry

     iteration #  8     ecut=    36.75 Ry     beta=0.30
     Davidson diagonalization with overlap
     ethr =  1.54E-10,  avg # of iterations =  3.4

[...]

     negative rho (up, down):  7.492E-01 0.000E+00

     Adding external electric field

     Computed dipole along edir(3) :
        Dipole                0.3079 Ry au,          0.7826 Debye
        Dipole field          0.0006 Ry au

        Potential amp.       -0.0592 Ry
        Total length         46.5096 bohr

     End of self-consistent calculation

[...]

          k = 0.0519-0.0599 0.0000 ( 22856 PWs)   bands (ev):

[...]

          k =-0.0779-0.0450 0.0000 ( 22880 PWs)   bands (ev):

   -47.6206 -47.4432 -47.4357 -47.3963 -47.3908 -47.3421 -47.3121 -47.2899
   -47.1030 -47.0858 -47.0631 -46.9521 -25.8950 -25.6763 -25.6400 -25.6284
   -25.6025 -25.5811 -25.5642 -25.5529 -25.5146 -25.5085 -25.4780 -25.4469
   -25.4452 -25.4100 -25.3984 -25.3585 -25.3523 -25.3456 -25.2898 -25.2734
   -25.2047 -25.1928 -25.1396 -25.1324 -25.0809 -25.0527 -25.0416 -25.0201
   -24.9965 -24.9533 -24.9276 -24.9187 -24.8786 -24.8122 -24.8087 -24.7308
   -18.1566  -6.3923  -2.2646  -2.2454  -1.7241  -1.6886  -0.7902  -0.7332
    -0.0923  -0.0487  -0.0418  -0.0034   0.0583   0.0733   0.6756   0.7074
     0.7233   0.8219   0.9078   0.9192   1.1495   1.1846   1.2819   1.3164
     1.3317   1.3679   1.5451   1.6255   1.7442   1.7793   1.8344   1.8916
     1.9249   2.0595   2.0890   2.2270   2.4034

     the Fermi energy is     1.7898 ev

!    total energy              =   -1230.76690111 Ry
     Harris-Foulkes estimate   =   -1230.76690152 Ry
     estimated scf accuracy    <       0.00000008 Ry

     The total energy is the sum of the following terms:

     one-electron contribution =   -8441.98802771 Ry
     hartree contribution      =    4216.37199373 Ry
     xc contribution           =    -228.99812553 Ry
     ewald contribution        =    3223.96236722 Ry
     electric field correction =       0.00019584 Ry
     smearing contrib. (-TS)   =      -0.11530466 Ry

     convergence has been achieved in   8 iterations

 BEEF-vdW xc energy contributions
           1 :   -196.100927244344
           2 :    177.243556493202
           3 :   -145.567390731846
           4 :    110.052078305563
           5 :   -78.6956692434776
           6 :    55.7921749548397
           7 :   -41.3261053557841
           8 :    32.3348539817586
           9 :   -25.2125167064783
          10 :    17.6587650717701
          11 :   -9.42306727255277
          12 :    1.76807972288140
          13 :    3.75793763551997
          14 :   -6.42049935872535
          15 :    6.68370035340573
          16 :   -5.81217590317056
          17 :    5.07300422846336
          18 :   -5.06844761323686
          19 :    5.56670293489091
          20 :   -5.85991722860899
          21 :    5.35408406046491
          22 :   -3.99257970219918
          23 :    2.27060004533712
          24 :  -0.886325343406014
          25 :   0.298405531784198
          26 :  -0.484223228582778
          27 :    1.01888693952674
          28 :   -1.38146988587647
          29 :    1.27799487336301
          30 :  -0.786598386896287
          31 :   -22.7026982080843
          32 :   -16.8532079930157

     Forces acting on atoms (Ry/au):

     negative rho (up, down):  7.492E-01 0.000E+00
     atom    1 type  1   force =     0.00006053    0.00003374    0.01221653
     atom    2 type  1   force =    -0.00006034    0.00003569    0.01221747
     atom    3 type  1   force =     0.00000189   -0.00006986    0.01221937
     atom    4 type  1   force =    -0.00000259    0.00000131    0.01723223
     atom    5 type  1   force =     0.00000564   -0.00402623   -0.00781604
     atom    6 type  1   force =    -0.00001059   -0.00000919   -0.02941355
     atom    7 type  1   force =     0.00348131    0.00201355   -0.00780843
     atom    8 type  1   force =    -0.00347672    0.00201677   -0.00780022
     atom    9 type  1   force =     0.00001795   -0.00000093    0.00055685
     atom   10 type  1   force =    -0.00001913   -0.00046050   -0.00029788
     atom   11 type  1   force =    -0.00039811    0.00022105   -0.00028122
     atom   12 type  1   force =     0.00039816    0.00024501   -0.00025906
     atom   13 type  2   force =     0.00000322   -0.00000058    0.00059555
     atom   14 type  3   force =    -0.00000121    0.00000017   -0.00136162

     Total force =     0.001842     Total SCF correction =     0.000663
     SCF correction compared to forces is large: reduce conv_thr to get better values

     entering subroutine stress ...

     negative rho (up, down):  7.492E-01 0.000E+00
          total   stress  (Ry/bohr**3)                   (kbar)     P=   -7.76
  -0.00005605  -0.00000000   0.00000000         -8.25     -0.00      0.00
  -0.00000000  -0.00005605   0.00000000         -0.00     -8.25      0.00
   0.00000000   0.00000000  -0.00004621          0.00      0.00     -6.80

     bfgs converged in  16 scf cycles and  15 bfgs steps
     (criteria: energy <  1.0E+00, force <  1.9E-03)

     End of BFGS Geometry Optimization

     Final energy   =   -1230.7669011090 Ry
Begin final coordinates

ATOMIC_POSITIONS (crystal)
Zr1      0.166666667   0.166666667   0.396150897    0   0   0
Zr1      0.666666667   0.166666667   0.396150897    0   0   0
Zr1      0.166666667   0.666666667   0.396150897    0   0   0
Zr1      0.666666667   0.666666667   0.396150897    0   0   0
Zr1      0.833333333   0.333333333   0.500000000    0   0   0
Zr1      0.333333333   0.333333333   0.500000000    0   0   0
Zr1      0.833333333   0.833333333   0.500000000    0   0   0
Zr1      0.333333333   0.833333333   0.500000000    0   0   0
Zr1     -0.000019795   0.000001207   0.617254562
Zr1      0.496517182   0.007000156   0.596903431
Zr1      0.006993782   0.496509886   0.596899405
Zr1      0.496507948   0.496484499   0.596894203
O1       0.000001298   0.000000820   0.694693638
H1      -0.000000660  -0.000000087   0.732953133
End final coordinates

     Writing output data file calc.save

     General routines

     Parallel routines

   This run was terminated on:  10:12:11  25Apr2018

   JOB DONE.
Job  /afs/slac/g/suncat/bin/suncat-tsmpirun -x LD_LIBRARY_PATH -wdir /scratch/qe385102_huygg pw.x -npool 4 -in pw.inp

TID   HOST_NAME   COMMAND_LINE            STATUS            TERMINATION_TIME
00000 suncat0068 pw.x -npool 4 -i  Done                     04/25/2018 10:12:11
00001 suncat0068 pw.x -npool 4 -i  Done                     04/25/2018 10:12:11
00002 suncat0068 pw.x -npool 4 -i  Done                     04/25/2018 10:12:11
00003 suncat0068 pw.x -npool 4 -i  Done                     04/25/2018 10:12:11
00004 suncat0068 pw.x -npool 4 -i  Done                     04/25/2018 10:12:11
00005 suncat0068 pw.x -npool 4 -i  Done                     04/25/2018 10:12:11
00006 suncat0068 pw.x -npool 4 -i  Done                     04/25/2018 10:12:11
00007 suncat0068 pw.x -npool 4 -i  Done                     04/25/2018 10:12:11
00008 suncat0066 pw.x -npool 4 -i  Done                     04/25/2018 10:12:11
00009 suncat0066 pw.x -npool 4 -i  Done                     04/25/2018 10:12:11
00010 suncat0066 pw.x -npool 4 -i  Done                     04/25/2018 10:12:11
00011 suncat0066 pw.x -npool 4 -i  Done                     04/25/2018 10:12:11
00012 suncat0066 pw.x -npool 4 -i  Done                     04/25/2018 10:12:11
00013 suncat0066 pw.x -npool 4 -i  Done                     04/25/2018 10:12:11
00014 suncat0066 pw.x -npool 4 -i  Done                     04/25/2018 10:12:11
00015 suncat0066 pw.x -npool 4 -i  Done                     04/25/2018 10:12:11
00016 suncat0050 pw.x -npool 4 -i  Done                     04/25/2018 10:12:11
00017 suncat0050 pw.x -npool 4 -i  Done                     04/25/2018 10:12:11
00018 suncat0050 pw.x -npool 4 -i  Done                     04/25/2018 10:12:11
00019 suncat0050 pw.x -npool 4 -i  Done                     04/25/2018 10:12:11
00020 suncat0050 pw.x -npool 4 -i  Done                     04/25/2018 10:12:11
00021 suncat0050 pw.x -npool 4 -i  Done                     04/25/2018 10:12:11
00022 suncat0050 pw.x -npool 4 -i  Done                     04/25/2018 10:12:11
00023 suncat0050 pw.x -npool 4 -i  Done                     04/25/2018 10:12:11
00024 suncat0042 pw.x -npool 4 -i  Done                     04/25/2018 10:12:11
00025 suncat0042 pw.x -npool 4 -i  Done                     04/25/2018 10:12:11
00026 suncat0042 pw.x -npool 4 -i  Done                     04/25/2018 10:12:11
00027 suncat0042 pw.x -npool 4 -i  Done                     04/25/2018 10:12:11
00028 suncat0042 pw.x -npool 4 -i  Done                     04/25/2018 10:12:11
00029 suncat0042 pw.x -npool 4 -i  Done                     04/25/2018 10:12:11
00030 suncat0042 pw.x -npool 4 -i  Done                     04/25/2018 10:12:11
00031 suncat0042 pw.x -npool 4 -i  Done                     04/25/2018 10:12:11