     Program PWSCF v.5.1rc2 (svn rev. 11289) starts on 19Jan2018 at 17:21:23

     Current dimensions of program PWSCF are:
     Max number of different atomic species (ntypx) = 10
     Max number of k-points (npk) =  40000
     Max angular momentum in pseudopotentials (lmaxx) =  3
     Presently stress not available with electric field

     IMPORTANT: XC functional enforced from input :
     Exchange-correlation      = BEEF-VDW ( 1  4 27 13 2)
     Any further DFT definition will be discarded
     Please, verify this is what you really want

     Subspace diagonalization in iterative solution of the eigenvalue problem:
     a serial algorithm will be used

     bravais-lattice index     =            0
     lattice parameter (alat)  =       1.8897  a.u.
     unit-cell volume          =    4552.2840 (a.u.)^3
     number of atoms/cell      =           13
     number of atomic types    =            2
     number of electrons       =       172.00
     number of Kohn-Sham states=           96
     kinetic-energy cutoff     =      36.7493  Ry
     charge density cutoff     =     367.4932  Ry
     convergence threshold     =      1.0E-05
     mixing beta               =       0.3000
     number of iterations used =           10  plain     mixing
     Exchange-correlation      = BEEF-VDW ( 1  4 27 13 2)
     nstep                     =           50

     celldm(1)=   1.889726  celldm(2)=   0.000000  celldm(3)=   0.000000
     celldm(4)=   0.000000  celldm(5)=   0.000000  celldm(6)=   0.000000

     crystal axes: (cart. coord. in units of alat)
               a(1) = (   5.627661   0.000000   0.000000 )
               a(2) = (   2.813831   4.873698   0.000000 )
               a(3) = (   0.000000   0.000000  24.594966 )

     reciprocal axes: (cart. coord. in units 2 pi/alat)
               b(1) = (  0.177694 -0.102592  0.000000 )
               b(2) = (  0.000000  0.205183  0.000000 )
               b(3) = (  0.000000  0.000000  0.040659 )

     PseudoPot. # 1 for Mo read from file:
     /afs/slac.stanford.edu/u/if/mamunm/psp/gbrv1.5pbe/Mo.UPF
     MD5 check sum: 30c4dcd161f5d35cd49bb5239c51a633
     Pseudo is Ultrasoft + core correction, Zval = 14.0
     Generated by new atomic code, or converted to UPF format
     Using radial grid of  889 points,  6 beta functions with:
                l(1) =   0
                l(2) =   0
                l(3) =   1
                l(4) =   1
                l(5) =   2
                l(6) =   2
     Q(r) pseudized with  6 coefficients,  rinner =    1.000   1.000   1.000
                                                       1.000   1.000

     PseudoPot. # 2 for C  read from file:
     /afs/slac.stanford.edu/u/if/mamunm/psp/gbrv1.5pbe/C.UPF
     MD5 check sum: d1aef80898a10debaa0f26306b886e00
     Pseudo is Ultrasoft + core correction, Zval =  4.0
     Generated by new atomic code, or converted to UPF format
     Using radial grid of  721 points,  4 beta functions with:
                l(1) =   0
                l(2) =   0
                l(3) =   1
                l(4) =   1
     Q(r) pseudized with  8 coefficients,  rinner =    1.100   1.100   1.100

     vdW kernel table read from file vdW_kernel_table
     MD5 check sum: 095c7af220d748ca6e76c0b4c6cfb241

     atomic species   valence    mass     pseudopotential
        Mo1           14.00    95.95000     Mo( 1.00)
        C1             4.00    12.01100     C ( 1.00)

     No symmetry found

   Cartesian axes

     site n.     atom                  positions (alat units)
         1           Mo1 tau(   1) = (   1.4069153   0.8122829  10.0000000  )
         2           Mo1 tau(   2) = (   4.2207459   0.8122829  10.0000000  )
         3           Mo1 tau(   3) = (   2.8138306   3.2491317  10.0000000  )
         4           Mo1 tau(   4) = (   5.6276612   3.2491317  10.0000000  )
         5           Mo1 tau(   5) = (   5.6276612   1.6245658  12.2974831  )
         6           Mo1 tau(   6) = (   2.8138306   1.6245658  12.2974831  )
         7           Mo1 tau(   7) = (   7.0345765   4.0614146  12.2974831  )
         8           Mo1 tau(   8) = (   4.2207459   4.0614146  12.2974831  )
         9           Mo1 tau(   9) = (   0.0000000   0.0000000  14.5949661  )
        10           Mo1 tau(  10) = (   2.8138306   0.0000000  14.5949661  )
        11           Mo1 tau(  11) = (   1.4069153   2.4368488  14.5949661  )
        12           Mo1 tau(  12) = (   4.2207459   2.4368488  14.5949661  )
        13           C1  tau(  13) = (   1.4069153   0.8122829  16.8949661  )

     number of k points=    20  Fermi-Dirac smearing, width (Ry)=  0.0110
                       cart. coord. in units 2pi/alat
        k(    1) = (   0.0000000   0.0000000   0.0000000), wk =   0.0555556
        k(    2) = (   0.0000000   0.0341972   0.0000000), wk =   0.1111111
        k(    3) = (   0.0000000   0.0683943   0.0000000), wk =   0.1111111
        k(    4) = (   0.0000000  -0.1025915   0.0000000), wk =   0.0555556
        k(    5) = (   0.0296156  -0.0170986   0.0000000), wk =   0.1111111
        k(    6) = (   0.0296156   0.0170986   0.0000000), wk =   0.1111111
        k(    7) = (   0.0296156   0.0512958   0.0000000), wk =   0.1111111
        k(    8) = (   0.0296156  -0.1196901   0.0000000), wk =   0.1111111
        k(    9) = (   0.0296156  -0.0854929   0.0000000), wk =   0.1111111
        k(   10) = (   0.0296156  -0.0512958   0.0000000), wk =   0.1111111
        k(   11) = (   0.0592312  -0.0341972   0.0000000), wk =   0.1111111
        k(   12) = (   0.0592312   0.0000000   0.0000000), wk =   0.1111111
        k(   13) = (   0.0592312   0.0341972   0.0000000), wk =   0.1111111
        k(   14) = (   0.0592312  -0.1367887   0.0000000), wk =   0.1111111
        k(   15) = (   0.0592312  -0.1025915   0.0000000), wk =   0.1111111
        k(   16) = (   0.0592312  -0.0683943   0.0000000), wk =   0.1111111
        k(   17) = (  -0.0888469   0.0512958   0.0000000), wk =   0.0555556
        k(   18) = (  -0.0888469   0.0854929   0.0000000), wk =   0.1111111
        k(   19) = (  -0.0888469   0.1196901   0.0000000), wk =   0.1111111
        k(   20) = (  -0.0888469  -0.0512958   0.0000000), wk =   0.0555556

     Largest allocated arrays     est. size (Mb)     dimensions
     Largest temporary arrays     est. size (Mb)     dimensions

     Initial potential from superposition of free atoms
     Check: negative starting charge=   -0.004672

     starting charge  171.98720, renormalised to  172.00000

     negative rho (up, down):  4.672E-03 0.000E+00

     *
     * You are using vdW-DF for exchange-correlation in this calculation.
     * Please cite the following three references that made this development
     * possible:
     *
     *   M. Dion, H. Rydberg, E. Schroder, D. C. Langreth, and
     *   B. I. Lundqvist, Phys. Rev. Lett. 92, 246401 (2004).
     *
     *   T. Thonhauser, V. R. Cooper, S. Li, A. Puzder, P. Hyldgaard, and
     *   D. C. Langreth, Phys. Rev. B 76, 125112 (2007).
     *
     *   G. Roman-Perez and J. M. Soler, Phys. Rev. Lett. 103, 096102 (2009).
     *
     *
     * If you are using vdW-DF2, please also cite:
     *
     *   K. Lee, E. D. Murray, L. Kong, B. I. Lundqvist, and
     *   D. C. Langreth, Phys. Rev. B 82, 081101(R) (2010).
     *
     *
     * If you are calculating the stress with vdW-DF, please also cite:
     *
     *   R. Sabatini, E. Kucukbenli, B. Kolb, T. Thonhauser, and
     *   S. de Gironcoli, J. Phys.: Condens. Matter 24, 424209 (2012).
     *

     Carrying out vdW-DF run using the following parameters:

     Nqs =      20    Nr_points =    1024   r_max =   100.000
     q_mesh =
               0.00001000     0.04494208     0.09755937     0.15916263
               0.23128650     0.31572767     0.41458969     0.53033537
               0.66584808     0.82450364     1.01025438     1.22772762
               1.48234092     1.78043706     2.12944203     2.53805004
               3.01644009     3.57652955     4.23227104     5.00000000

     Gradients computed in reciprocal space

     Adding external electric field

     Computed dipole along edir(3) :
        Dipole               -0.0022 Ry au,         -0.0057 Debye
        Dipole field         -0.0000 Ry au

        Potential amp.        0.0006 Ry
        Total length         45.3158 bohr

     Starting wfc are  160 randomized atomic wfcs

     Self-consistent Calculation

     iteration #  1     ecut=    36.75 Ry     beta=0.30
     Davidson diagonalization with overlap
     ethr =  1.00E-02,  avg # of iterations =  2.0

[...]

     total energy              =   -1685.21540070 Ry
     Harris-Foulkes estimate   =   -1691.16198791 Ry
     estimated scf accuracy    <      12.23467678 Ry

[...]

     End of self-consistent calculation

          k = 0.0000 0.0000 0.0000 ( 17111 PWs)   bands (ev):

   -59.1071 -59.0192 -58.9297 -58.9201 -58.9093 -58.9089 -58.8550 -58.8545
   -58.8508 -58.8174 -58.8171 -58.8090 -33.6273 -33.6271 -33.6254 -33.5466
   -33.5416 -33.5416 -33.5323 -33.4454 -33.4419 -33.4418 -33.1178 -32.9953
   -32.9666 -32.9663 -32.9280 -32.9279 -32.9187 -32.8119 -32.8117 -32.8101
   -32.6940 -32.6938 -32.6903 -32.6891 -32.6888 -32.6886 -32.6033 -32.5843
   -32.5841 -32.5817 -32.5333 -32.5333 -32.4586 -32.4586 -32.3853 -32.3853
    -6.4022  -3.9758  -2.6303  -2.5411  -2.5410  -2.5383  -2.4928  -2.0941
    -2.0940  -2.0710  -1.8808  -1.8807  -1.8655  -1.6306  -1.6306  -1.6259
    -0.4538  -0.4537  -0.4529   0.5526   0.5560   0.5561   0.7428   0.9001
     1.2397   1.2397   1.4611   1.4612   1.5473   1.5474   1.6213   1.6750
     1.6781   1.6782   1.7312   1.7312   1.9701   2.3015   2.3015   2.4777
     3.1526   3.1527   3.1996   3.2391   3.3371   3.3372   3.7703   3.7703

[...]

          k =-0.0888 0.0513 0.0000 ( 17160 PWs)   bands (ev):

[...]

     the Fermi energy is     1.9556 ev

!    total energy              =   -1690.46557922 Ry
     Harris-Foulkes estimate   =   -1690.46558291 Ry
     estimated scf accuracy    <       0.00000406 Ry

     The total energy is the sum of the following terms:

     one-electron contribution =  -15346.50858951 Ry
     hartree contribution      =    7667.35179950 Ry
     xc contribution           =    -243.28777321 Ry
     ewald contribution        =    6232.08660068 Ry
     electric field correction =       0.00040106 Ry
     smearing contrib. (-TS)   =      -0.10801774 Ry

     convergence has been achieved in  26 iterations

 BEEF-vdW xc energy contributions
           1 :   -208.857896913239
           2 :    190.692384683598
           3 :   -159.640395801322
           4 :    123.963147039005
           5 :   -91.8568474711461
           6 :    68.8713045910681
           7 :   -56.6557256184385
           8 :    53.2434723510063
           9 :   -54.5557581809014
          10 :    56.3369882375133
          11 :   -55.7280031567996
          12 :    51.9384530261473
          13 :   -45.9644587218150
          14 :    39.6636294611765
          15 :   -34.7011045434776
          16 :    31.8019229056870
          17 :   -30.5687775028586
          18 :    29.8476037239051
          19 :   -28.4028168158460
          20 :    25.5414167179592
          21 :   -21.4018644963285
[...]
00031 suncat1056 pw.x -in pw.inp   Done                     01/19/2018 17:40:48

[...]

   This run was terminated on:  18: 7:40  19Jan2018

[...]

     Program PWSCF v.5.1rc2 (svn rev. 11289) starts on 19Jan2018 at 18: 7:45

[...]

     Total force =     0.149753     Total SCF correction =     0.023701
     SCF correction compared to forces is large: reduce conv_thr to get better values

[...]

   This run was terminated on:  19: 0:28  19Jan2018

[...]

     Program PWSCF v.5.1rc2 (svn rev. 11289) starts on 19Jan2018 at 19: 0:33

[...]

     Total force =     0.060328     Total SCF correction =     0.005015

[...]

     Program PWSCF v.5.1rc2 (svn rev. 11289) starts on 19Jan2018 at 19:43:56

     Current dimensions of program PWSCF are:
     Max number of different atomic species (ntypx) = 10
     Max number of k-points (npk) =  40000
     Max angular momentum in pseudopotentials (lmaxx) =  3
     Presently stress not available with electric field

     IMPORTANT: XC functional enforced from input :
     Exchange-correlation      = BEEF-VDW ( 1  4 27 13 2)
     Any further DFT definition will be discarded
     Please, verify this is what you really want

     Subspace diagonalization in iterative solution of the eigenvalue problem:
     a serial algorithm will be used

     bravais-lattice index     =            0
     lattice parameter (alat)  =       1.8897  a.u.
     unit-cell volume          =    4552.2840 (a.u.)^3
     number of atoms/cell      =           13
     number of atomic types    =            2
     number of electrons       =       172.00
     number of Kohn-Sham states=           96
     kinetic-energy cutoff     =      36.7493  Ry
     charge density cutoff     =     367.4932  Ry
     convergence threshold     =      1.0E-05
     mixing beta               =       0.3000
     number of iterations used =           10  plain     mixing
     Exchange-correlation      = BEEF-VDW ( 1  4 27 13 2)
     nstep                     =           50

     celldm(1)=   1.889726  celldm(2)=   0.000000  celldm(3)=   0.000000
     celldm(4)=   0.000000  celldm(5)=   0.000000  celldm(6)=   0.000000

     crystal axes: (cart. coord. in units of alat)
               a(1) = (   5.627661   0.000000   0.000000 )
               a(2) = (   2.813831   4.873698   0.000000 )
               a(3) = (   0.000000   0.000000  24.594966 )

     reciprocal axes: (cart. coord. in units 2 pi/alat)
               b(1) = (  0.177694 -0.102592  0.000000 )
               b(2) = (  0.000000  0.205183  0.000000 )
               b(3) = (  0.000000  0.000000  0.040659 )

     PseudoPot. # 1 for Mo read from file:
     /afs/slac.stanford.edu/u/if/mamunm/psp/gbrv1.5pbe/Mo.UPF
     MD5 check sum: 30c4dcd161f5d35cd49bb5239c51a633
     Pseudo is Ultrasoft + core correction, Zval = 14.0
     Generated by new atomic code, or converted to UPF format
     Using radial grid of  889 points,  6 beta functions with:
                l(1) =   0
                l(2) =   0
                l(3) =   1
                l(4) =   1
                l(5) =   2
                l(6) =   2
     Q(r) pseudized with  6 coefficients,  rinner =    1.000   1.000   1.000
                                                       1.000   1.000

     PseudoPot. # 2 for C  read from file:
     /afs/slac.stanford.edu/u/if/mamunm/psp/gbrv1.5pbe/C.UPF
     MD5 check sum: d1aef80898a10debaa0f26306b886e00
     Pseudo is Ultrasoft + core correction, Zval =  4.0
     Generated by new atomic code, or converted to UPF format
     Using radial grid of  721 points,  4 beta functions with:
                l(1) =   0
                l(2) =   0
                l(3) =   1
                l(4) =   1
     Q(r) pseudized with  8 coefficients,  rinner =    1.100   1.100   1.100

     vdW kernel table read from file vdW_kernel_table
     MD5 check sum: 095c7af220d748ca6e76c0b4c6cfb241

     atomic species   valence    mass     pseudopotential
        Mo1           14.00    95.95000     Mo( 1.00)
        C1             4.00    12.01100     C ( 1.00)

     No symmetry found

   Cartesian axes

     site n.     atom                  positions (alat units)
         1           Mo1 tau(   1) = (   1.4069153   0.8122829  10.0000000  )
         2           Mo1 tau(   2) = (   4.2207459   0.8122829  10.0000000  )
         3           Mo1 tau(   3) = (   2.8138306   3.2491317  10.0000000  )
         4           Mo1 tau(   4) = (   5.6276612   3.2491317  10.0000000  )
         5           Mo1 tau(   5) = (   5.6276612   1.6245658  12.2974831  )
         6           Mo1 tau(   6) = (   2.8138306   1.6245658  12.2974831  )
         7           Mo1 tau(   7) = (   7.0345765   4.0614146  12.2974831  )
         8           Mo1 tau(   8) = (   4.2207459   4.0614146  12.2974831  )
         9           Mo1 tau(   9) = (   8.4173131   4.8597752  14.6728364  )
        10           Mo1 tau(  10) = (   5.6518458   4.8597051  14.6728214  )
        11           Mo1 tau(  11) = (   7.0345200   2.4647373  14.6728224  )
        12           Mo1 tau(  12) = (   4.2207538   2.4368668  14.3287851  )
        13           C1  tau(  13) = (   1.4068672   0.8122704  15.7544976  )

     number of k points=    20  Fermi-Dirac smearing, width (Ry)=  0.0110
                       cart. coord. in units 2pi/alat
        k(    1) = (   0.0000000   0.0000000   0.0000000), wk =   0.0555556
        k(    2) = (   0.0000000   0.0341972   0.0000000), wk =   0.1111111
        k(    3) = (   0.0000000   0.0683943   0.0000000), wk =   0.1111111
        k(    4) = (   0.0000000  -0.1025915   0.0000000), wk =   0.0555556
        k(    5) = (   0.0296156  -0.0170986   0.0000000), wk =   0.1111111
        k(    6) = (   0.0296156   0.0170986   0.0000000), wk =   0.1111111
        k(    7) = (   0.0296156   0.0512958   0.0000000), wk =   0.1111111
        k(    8) = (   0.0296156  -0.1196901   0.0000000), wk =   0.1111111
        k(    9) = (   0.0296156  -0.0854929   0.0000000), wk =   0.1111111
        k(   10) = (   0.0296156  -0.0512958   0.0000000), wk =   0.1111111
        k(   11) = (   0.0592312  -0.0341972   0.0000000), wk =   0.1111111
        k(   12) = (   0.0592312   0.0000000   0.0000000), wk =   0.1111111
        k(   13) = (   0.0592312   0.0341972   0.0000000), wk =   0.1111111
        k(   14) = (   0.0592312  -0.1367887   0.0000000), wk =   0.1111111
        k(   15) = (   0.0592312  -0.1025915   0.0000000), wk =   0.1111111
        k(   16) = (   0.0592312  -0.0683943   0.0000000), wk =   0.1111111
        k(   17) = (  -0.0888469   0.0512958   0.0000000), wk =   0.0555556
        k(   18) = (  -0.0888469   0.0854929   0.0000000), wk =   0.1111111
        k(   19) = (  -0.0888469   0.1196901   0.0000000), wk =   0.1111111
        k(   20) = (  -0.0888469  -0.0512958   0.0000000), wk =   0.0555556

     Largest allocated arrays     est. size (Mb)     dimensions
     Largest temporary arrays     est. size (Mb)     dimensions

     Initial potential from superposition of free atoms
     Check: negative starting charge=   -0.004905

     starting charge  171.98720, renormalised to  172.00000

[...]

     *
     * You are using vdW-DF for exchange-correlation in this calculation.
     * Please cite the following three references that made this development
     * possible:
     *
     *   M. Dion, H. Rydberg, E. Schroder, D. C. Langreth, and
     *   B. I. Lundqvist, Phys. Rev. Lett. 92, 246401 (2004).
     *
     *   T. Thonhauser, V. R. Cooper, S. Li, A. Puzder, P. Hyldgaard, and
     *   D. C. Langreth, Phys. Rev. B 76, 125112 (2007).
     *
     *   G. Roman-Perez and J. M. Soler, Phys. Rev. Lett. 103, 096102 (2009).
     *
     *
     * If you are using vdW-DF2, please also cite:
     *
     *   K. Lee, E. D. Murray, L. Kong, B. I. Lundqvist, and
     *   D. C. Langreth, Phys. Rev. B 82, 081101(R) (2010).
     *
     *
     * If you are calculating the stress with vdW-DF, please also cite:
     *
     *   R. Sabatini, E. Kucukbenli, B. Kolb, T. Thonhauser, and
     *   S. de Gironcoli, J. Phys.: Condens. Matter 24, 424209 (2012).
     *

     Carrying out vdW-DF run using the following parameters:

     Nqs =      20    Nr_points =    1024   r_max =   100.000
     q_mesh =
               0.00001000     0.04494208     0.09755937     0.15916263
               0.23128650     0.31572767     0.41458969     0.53033537
               0.66584808     0.82450364     1.01025438     1.22772762
               1.48234092     1.78043706     2.12944203     2.53805004
               3.01644009     3.57652955     4.23227104     5.00000000

     Gradients computed in reciprocal space

[...]

     Starting wfc are  160 randomized atomic wfcs

     Self-consistent Calculation

[...]

     total energy              =   -1690.82212881 Ry
     Harris-Foulkes estimate   =   -1690.82213214 Ry
     estimated scf accuracy    <       0.00001539 Ry

     iteration # 20     ecut=    36.75 Ry     beta=0.30
     Davidson diagonalization with overlap
     ethr =  8.94E-09,  avg # of iterations =  3.2

[...]

     negative rho (up, down):  4.956E-03 0.000E+00

     Adding external electric field

     Computed dipole along edir(3) :
        Dipole               -0.1427 Ry au,         -0.3627 Debye
        Dipole field         -0.0004 Ry au

        Potential amp.        0.0357 Ry
        Total length         45.3158 bohr

     End of self-consistent calculation

[...]

          k = 0.0592-0.0684 0.0000 ( 17122 PWs)   bands (ev):

[...]

          k =-0.0888-0.0513 0.0000 ( 17160 PWs)   bands (ev):

   -58.7824 -58.7608 -58.7170 -58.6875 -58.6637 -58.6633 -58.6457 -58.6052
   -58.5995 -58.5738 -58.5591 -58.5513 -33.3110 -33.2638 -33.2094 -33.1733
   -33.1664 -33.1071 -33.0664 -33.0009 -32.9876 -32.9707 -32.9188 -32.8550
   -32.8273 -32.7975 -32.7375 -32.7175 -32.7111 -32.6849 -32.6530 -32.6314
   -32.6190 -32.5874 -32.5722 -32.5692 -32.5459 -32.5110 -32.4635 -32.4438
   -32.4278 -32.3811 -32.3634 -32.3162 -32.2951 -32.2493 -32.2154 -32.2036
    -7.7669  -2.4360  -2.1416  -1.8102  -1.5068  -1.3682  -1.3650  -1.1877
    -1.1156  -1.0164  -1.0032  -0.9065  -0.6562  -0.5790  -0.4352  -0.3818
    -0.3529  -0.2992  -0.0437   0.1143   0.2669   0.3978   0.4802   0.5166
     0.5399   0.6282   0.9176   1.0966   1.1590   1.2339   1.4158   1.4402
     1.4612   1.5350   1.6188   1.7693   1.7919   1.8616   2.0820   2.1413
     2.2474   2.8063   2.8117   2.9644   2.9890   3.0242   3.2113   3.2770

     the Fermi energy is     2.2258 ev

!    total energy              =   -1690.82212846 Ry
     Harris-Foulkes estimate   =   -1690.82213181 Ry
     estimated scf accuracy    <       0.00000177 Ry

     The total energy is the sum of the following terms:

     one-electron contribution =  -15603.82421016 Ry
     hartree contribution      =    7797.12775736 Ry
     xc contribution           =    -243.98846527 Ry
     ewald contribution        =    6359.95325548 Ry
     electric field correction =       0.00005620 Ry
     smearing contrib. (-TS)   =      -0.09052208 Ry

     convergence has been achieved in  20 iterations

 BEEF-vdW xc energy contributions
           1 :   -209.557403773688
           2 :    191.585972965066
           3 :   -160.764083344647
           4 :    125.181684214119
           5 :   -92.9517635008099
           6 :    69.6381648367404
           7 :   -56.9785856132420
           8 :    53.1324029634520
           9 :   -54.1347179532547
          10 :    55.7902623494577
          11 :   -55.2286871108215
          12 :    51.5898258697796
          13 :   -45.7797964847164
          14 :    39.5866886334396
          15 :   -34.6493066270010
          16 :    31.7123923105755
          17 :   -30.4291309137179
          18 :    29.6986227250999
          19 :   -28.3144878644765
          20 :    25.5795282473406
          21 :   -21.6015907782142
          22 :    17.1561060304428
          23 :   -13.2320527602529
          24 :    10.5154761003042
          25 :   -9.07618949057451
          26 :    8.38867492294617
          27 :   -7.64621602849661
          28 :    6.18112514955510
          29 :   -3.77770269814408
          30 :   0.734615217200144
          31 :   -23.9572623332984
          32 :   -18.4138558506471

     Forces acting on atoms (Ry/au):

     negative rho (up, down):  4.956E-03 0.000E+00
     atom    1 type  1   force =    -0.00000106   -0.00000090    0.00134898
     atom    2 type  1   force =    -0.00000220    0.00001774   -0.00902654
     atom    3 type  1   force =     0.00001835   -0.00000649   -0.00900873
     atom    4 type  1   force =    -0.00002177   -0.00000370   -0.00904714
     atom    5 type  1   force =     0.02052917   -0.01185683    0.00442739
     atom    6 type  1   force =    -0.02053062   -0.01185014    0.00443717
     atom    7 type  1   force =     0.00001101   -0.00000732    0.01195377
     atom    8 type  1   force =    -0.00000499    0.02370872    0.00444406
     atom    9 type  1   force =    -0.00054358   -0.00033312   -0.00020524
     atom   10 type  1   force =     0.00051083   -0.00028520   -0.00020483
     atom   11 type  1   force =     0.00002570    0.00062033   -0.00019006
     atom   12 type  1   force =    -0.00002175    0.00000060    0.00057664
     atom   13 type  2   force =     0.00003091   -0.00000369    0.00049453

     Total force =     0.046218     Total SCF correction =     0.007952
     SCF correction compared to forces is large: reduce conv_thr to get better values

     entering subroutine stress ...

     negative rho (up, down):  4.956E-03 0.000E+00
          total   stress  (Ry/bohr**3)                   (kbar)     P=   -4.27
  -0.00005801   0.00000003   0.00000002         -8.53      0.01      0.00
   0.00000003  -0.00005798  -0.00000001          0.01     -8.53     -0.00
   0.00000002  -0.00000001   0.00002889          0.00     -0.00      4.25

 !ASE

     Writing output data file calc.save

     General routines

     Parallel routines

   This run was terminated on:  19:59:30  19Jan2018

   JOB DONE.
Job  /afs/slac/g/suncat/bin/suncat-tsmpirun -x LD_LIBRARY_PATH -wdir /scratch/qe891410_v9gbp pw.x -in pw.inp

TID   HOST_NAME   COMMAND_LINE            STATUS            TERMINATION_TIME
00000 suncat1009 pw.x -in pw.inp   Done                     01/19/2018 19:59:30
00001 suncat1009 pw.x -in pw.inp   Done                     01/19/2018 19:59:30
00002 suncat1009 pw.x -in pw.inp   Done                     01/19/2018 19:59:30
00003 suncat1009 pw.x -in pw.inp   Done                     01/19/2018 19:59:30
00004 suncat1009 pw.x -in pw.inp   Done                     01/19/2018 19:59:30
00005 suncat1009 pw.x -in pw.inp   Done                     01/19/2018 19:59:30
00006 suncat1009 pw.x -in pw.inp   Done                     01/19/2018 19:59:30
00007 suncat1009 pw.x -in pw.inp   Done                     01/19/2018 19:59:30
00008 suncat1059 pw.x -in pw.inp   Done                     01/19/2018 19:59:30
00009 suncat1059 pw.x -in pw.inp   Done                     01/19/2018 19:59:30
00010 suncat1059 pw.x -in pw.inp   Done                     01/19/2018 19:59:30
00011 suncat1059 pw.x -in pw.inp   Done                     01/19/2018 19:59:30
00012 suncat1059 pw.x -in pw.inp   Done                     01/19/2018 19:59:30
00013 suncat1059 pw.x -in pw.inp   Done                     01/19/2018 19:59:30
00014 suncat1059 pw.x -in pw.inp   Done                     01/19/2018 19:59:30
00015 suncat1059 pw.x -in pw.inp   Done                     01/19/2018 19:59:30
00016 suncat1059 pw.x -in pw.inp   Done                     01/19/2018 19:59:30
00017 suncat1059 pw.x -in pw.inp   Done                     01/19/2018 19:59:30
00018 suncat1059 pw.x -in pw.inp   Done                     01/19/2018 19:59:30
00019 suncat1059 pw.x -in pw.inp   Done                     01/19/2018 19:59:30
00020 suncat1056 pw.x -in pw.inp   Done                     01/19/2018 19:59:30
00021 suncat1056 pw.x -in pw.inp   Done                     01/19/2018 19:59:30
00022 suncat1056 pw.x -in pw.inp   Done                     01/19/2018 19:59:30
00023 suncat1056 pw.x -in pw.inp   Done                     01/19/2018 19:59:30
00024 suncat1056 pw.x -in pw.inp   Done                     01/19/2018 19:59:30
00025 suncat1056 pw.x -in pw.inp   Done                     01/19/2018 19:59:30
00026 suncat1056 pw.x -in pw.inp   Done                     01/19/2018 19:59:30
00027 suncat1056 pw.x -in pw.inp   Done                     01/19/2018 19:59:30
00028 suncat1056 pw.x -in pw.inp   Done                     01/19/2018 19:59:30
00029 suncat1056 pw.x -in pw.inp   Done                     01/19/2018 19:59:30
00030 suncat1056 pw.x -in pw.inp   Done                     01/19/2018 19:59:30
00031 suncat1056 pw.x -in pw.inp   Done                     01/19/2018 19:59:30