     Program PWSCF v.5.1rc2 (svn rev. 11289) starts on 20Jan2018 at  0:59:19

     Current dimensions of program PWSCF are:
     Max number of different atomic species (ntypx) = 10
     Max number of k-points (npk) =  40000
     Max angular momentum in pseudopotentials (lmaxx) =  3
     Presently stress not available with electric field

     IMPORTANT: XC functional enforced from input :
     Exchange-correlation      = BEEF-VDW ( 1  4 27 13 2)
     Any further DFT definition will be discarded
     Please, verify this is what you really want

     Subspace diagonalization in iterative solution of the eigenvalue problem:
     a serial algorithm will be used

     bravais-lattice index     =            0
     lattice parameter (alat)  =       1.8897  a.u.
     unit-cell volume          =    4806.0858 (a.u.)^3
     number of atoms/cell      =           13
     number of atomic types    =            2
     number of electrons       =       149.00
     number of Kohn-Sham states=           84
     kinetic-energy cutoff     =      36.7493  Ry
     charge density cutoff     =     367.4932  Ry
     convergence threshold     =      1.0E-05
     mixing beta               =       0.3000
     number of iterations used =           10  plain     mixing
     Exchange-correlation      = BEEF-VDW ( 1  4 27 13 2)
     nstep                     =           50

     celldm(1)=   1.889726  celldm(2)=   0.000000  celldm(3)=   0.000000
     celldm(4)=   0.000000  celldm(5)=   0.000000  celldm(6)=   0.000000

     crystal axes: (cart. coord. in units of alat)
               a(1) = (   5.768903   0.000000   0.000000 )
               a(2) = (   2.884451   4.996016   0.000000 )
               a(3) = (   0.000000   0.000000  24.710289 )

     reciprocal axes: (cart. coord. in units 2 pi/alat)
               b(1) = (  0.173343 -0.100080  0.000000 )
               b(2) = (  0.000000  0.200159  0.000000 )
               b(3) = (  0.000000  0.000000  0.040469 )

     PseudoPot. # 1 for Ti read from file:
     /afs/slac.stanford.edu/u/if/mamunm/psp/gbrv1.5pbe/Ti.UPF
     MD5 check sum: 88a00a6731bd790ddea75d31a80cb452
     Pseudo is Ultrasoft + core correction, Zval = 12.0
     Generated by new atomic code, or converted to UPF format
     Using radial grid of  851 points,  6 beta functions with:
                l(1) =   0
                l(2) =   0
                l(3) =   1
                l(4) =   1
                l(5) =   2
                l(6) =   2
     Q(r) pseudized with  6 coefficients,  rinner =    1.000   1.000   1.000
                                                       1.000   1.000

     PseudoPot. # 2 for N  read from file:
     /afs/slac.stanford.edu/u/if/mamunm/psp/gbrv1.5pbe/N.UPF
     MD5 check sum: 95339753478d7afb44899504a8723017
     Pseudo is Ultrasoft + core correction, Zval =  5.0
     Generated by new atomic code, or converted to UPF format
     Using radial grid of  729 points,  4 beta functions with:
                l(1) =   0
                l(2) =   0
                l(3) =   1
                l(4) =   1
     Q(r) pseudized with  8 coefficients,  rinner =    0.900   0.900   0.900

     vdW kernel table read from file vdW_kernel_table
     MD5 check sum: 095c7af220d748ca6e76c0b4c6cfb241

     atomic species   valence    mass     pseudopotential
        Ti1           12.00    47.86700     Ti( 1.00)
        N1             5.00    14.00700     N ( 1.00)

     No symmetry found

   Cartesian axes

     site n.     atom                  positions (alat units)
         1           Ti1 tau(   1) = (   1.4422257   0.8326694  10.0000000  )
         2           Ti1 tau(   2) = (   4.3266771   0.8326694  10.0000000  )
         3           Ti1 tau(   3) = (   2.8844514   3.3306776  10.0000000  )
         4           Ti1 tau(   4) = (   5.7689029   3.3306776  10.0000000  )
         5           Ti1 tau(   5) = (   5.7689029   1.6653388  12.3551447  )
         6           Ti1 tau(   6) = (   2.8844514   1.6653388  12.3551447  )
         7           Ti1 tau(   7) = (   7.2111286   4.1633470  12.3551447  )
         8           Ti1 tau(   8) = (   4.3266771   4.1633470  12.3551447  )
         9           Ti1 tau(   9) = (   5.7102652   0.1363779  14.6778240  )
        10           Ti1 tau(  10) = (   2.9547555   0.1413713  14.6681986  )
        11           Ti1 tau(  11) = (   1.4408001   2.3582584  14.7088870  )
        12           Ti1 tau(  12) = (   4.3261638   2.7004349  14.8523523  )
        13           N1  tau(  13) = (   4.3176690   4.5332545  15.7598628  )

     number of k points=    20  Fermi-Dirac smearing, width (Ry)=  0.0110
                       cart. coord. in units 2pi/alat
        k(    1) = (   0.0000000   0.0000000   0.0000000), wk =   0.0555556
        k(    2) = (   0.0000000   0.0333599   0.0000000), wk =   0.1111111
        k(    3) = (   0.0000000   0.0667198   0.0000000), wk =   0.1111111
        k(    4) = (   0.0000000  -0.1000797   0.0000000), wk =   0.0555556
        k(    5) = (   0.0288905  -0.0166800   0.0000000), wk =   0.1111111
        k(    6) = (   0.0288905   0.0166800   0.0000000), wk =   0.1111111
        k(    7) = (   0.0288905   0.0500399   0.0000000), wk =   0.1111111
        k(    8) = (   0.0288905  -0.1167597   0.0000000), wk =   0.1111111
        k(    9) = (   0.0288905  -0.0833998   0.0000000), wk =   0.1111111
        k(   10) = (   0.0288905  -0.0500399   0.0000000), wk =   0.1111111
        k(   11) = (   0.0577811  -0.0333599   0.0000000), wk =   0.1111111
        k(   12) = (   0.0577811  -0.0000000   0.0000000), wk =   0.1111111
        k(   13) = (   0.0577811   0.0333599   0.0000000), wk =   0.1111111
        k(   14) = (   0.0577811  -0.1334396   0.0000000), wk =   0.1111111
        k(   15) = (   0.0577811  -0.1000797   0.0000000), wk =   0.1111111
        k(   16) = (   0.0577811  -0.0667198   0.0000000), wk =   0.1111111
        k(   17) = (  -0.0866716   0.0500399   0.0000000), wk =   0.0555556
        k(   18) = (  -0.0866716   0.0833998   0.0000000), wk =   0.1111111
        k(   19) = (  -0.0866716   0.1167597   0.0000000), wk =   0.1111111
        k(   20) = (  -0.0866716  -0.0500399   0.0000000), wk =   0.0555556

     Largest allocated arrays     est. size (Mb)     dimensions
     Largest temporary arrays     est. size (Mb)     dimensions

     Check: negative/imaginary core charge=   -0.000006    0.000000

     Initial potential from superposition of free atoms
     Check: negative starting charge=   -0.013568

     starting charge  136.99946, renormalised to  149.00000

     negative rho (up, down):  1.476E-02 0.000E+00

     *
     * You are using vdW-DF for exchange-correlation in this calculation.
     * Please cite the following three references that made this development
     * possible:
     *
     *   M. Dion, H. Rydberg, E. Schroder, D. C. Langreth, and
     *   B. I. Lundqvist, Phys. Rev. Lett. 92, 246401 (2004).
     *
     *   T. Thonhauser, V. R. Cooper, S. Li, A. Puzder, P. Hyldgaard, and
     *   D. C. Langreth, Phys. Rev. B 76, 125112 (2007).
     *
     *   G. Roman-Perez and J. M. Soler, Phys. Rev. Lett. 103, 096102 (2009).
     *
     *
     * If you are using vdW-DF2, please also cite:
     *
     *   K. Lee, E. D. Murray, L. Kong, B. I. Lundqvist, and
     *   D. C. Langreth, Phys. Rev. B 82, 081101(R) (2010).
     *
     *
     * If you are calculating the stress with vdW-DF, please also cite:
     *
     *   R. Sabatini, E. Kucukbenli, B. Kolb, T. Thonhauser, and
     *   S. de Gironcoli, J. Phys.: Condens. Matter 24, 424209 (2012).
     *

     Carrying out vdW-DF run using the following parameters:

     Nqs =      20    Nr_points =    1024   r_max =   100.000
     q_mesh =
               0.00001000     0.04494208     0.09755937     0.15916263
               0.23128650     0.31572767     0.41458969     0.53033537
               0.66584808     0.82450364     1.01025438     1.22772762
               1.48234092     1.78043706     2.12944203     2.53805004
               3.01644009     3.57652955     4.23227104     5.00000000

     Gradients computed in reciprocal space

     Adding external electric field

     Computed dipole along edir(3) :
        Dipole               -2.8133 Ry au,         -7.1507 Debye
        Dipole field         -0.0074 Ry au

        Potential amp.        0.6698 Ry
        Total length         45.5283 bohr

     Starting wfc are  124 randomized atomic wfcs

     Self-consistent Calculation

     iteration #  1     ecut=    36.75 Ry     beta=0.30
     Davidson diagonalization with overlap
     ethr =  1.00E-02,  avg # of iterations =  5.2

[...]

     total energy              =   -1347.69629338 Ry
     Harris-Foulkes estimate   =   -1460.30115083 Ry
     estimated scf accuracy    <     232.70850689 Ry

[...]

     iteration # 24     ecut=    36.75 Ry     beta=0.30
     Davidson diagonalization with overlap
     c_bands:  1 eigenvalues not converged
     ethr =  7.25E-07,  avg # of iterations =  6.8

[...]

     End of self-consistent calculation

          k = 0.0000 0.0000 0.0000 ( 18103 PWs)   bands (ev):

   -56.3600 -56.3011 -56.2840 -56.2121 -56.2091 -56.2055 -56.1429 -56.0976
   -56.0874 -56.0301 -56.0085 -55.9956 -32.8197 -32.8005 -32.7760 -32.7529
   -32.7450 -32.7386 -32.7364 -32.6761 -32.6566 -32.6445 -32.5943 -32.5441
   -32.4609 -32.4412 -32.4039 -32.3820 -32.3710 -32.3591 -32.3393 -32.3299
   -32.3286 -32.3280 -32.2432 -32.2379 -32.2227 -32.2031 -32.2005 -32.1759
   -32.1698 -32.1484 -32.1412 -32.1213 -32.1083 -32.0970 -31.9988 -31.9982
   -12.7305  -4.6668  -3.2595  -3.0123  -2.6534  -2.5479  -2.0211  -1.6404
    -1.5590  -1.5477  -1.3378  -1.3265  -1.3222  -0.8999  -0.8819  -0.8212
    -0.6900  -0.6028  -0.1297  -0.0711   0.0243   0.1930   0.6331   0.8841
     0.9540   1.0465   1.1260   1.1759   1.2921   1.3522   1.4570   1.5201
     1.5552   1.6134   1.6933   1.7024

[...]

          k =-0.0867 0.0500 0.0000 ( 18044 PWs)   bands (ev):

[...]

     the Fermi energy is     0.7080 ev

!    total energy              =   -1459.00790732 Ry
     Harris-Foulkes estimate   =   -1459.00790958 Ry
     estimated scf accuracy    <       0.00000985 Ry

     The total energy is the sum of the following terms:

     one-electron contribution =  -11287.38214503 Ry
     hartree contribution      =    5630.69347424 Ry
     xc contribution           =    -230.47676052 Ry
     ewald contribution        =    4428.28302544 Ry
     electric field correction =       0.00002691 Ry
     smearing contrib. (-TS)   =      -0.12552836 Ry

     convergence has been achieved in  31 iterations

 BEEF-vdW xc energy contributions
           1 :   -198.095307313840
           2 :    177.043082206048
           3 :   -142.470326616246
           4 :    105.325234982625
           5 :   -74.6292918874981
           6 :    53.9956414406609
           7 :   -41.6065730779720
           8 :    32.9280957488711
           9 :   -24.0630578160717
          10 :    13.7193247578541
          11 :   -3.06354843781423
          12 :   -5.88709450767436
          13 :    11.9618717264315
          14 :   -15.5259478231671
          15 :    17.9221280156932
          16 :   -20.3005210740064
[...]

[...]

   This run was terminated on:   2:55: 5  20Jan2018

[...]

     Total force =     0.041712     Total SCF correction =     0.004152

[...]

     Program PWSCF v.5.1rc2 (svn rev. 11289) starts on 20Jan2018 at  3:21: 1

[...]

   This run was terminated on:   5: 0:43  20Jan2018

[...]

     Program PWSCF v.5.1rc2 (svn rev. 11289) starts on 20Jan2018 at  5: 0:48

[...]

     Program PWSCF v.5.1rc2 (svn rev. 11289) starts on 20Jan2018 at  6:34: 5

[...]

     iteration # 22     ecut=    36.75 Ry     beta=0.30
     Davidson diagonalization with overlap
     c_bands:  2 eigenvalues not converged
     ethr =  5.07E-05,  avg # of iterations =  8.7

[...]

     Program PWSCF v.5.1rc2 (svn rev. 11289) starts on 20Jan2018 at  6:57:58

     Current dimensions of program PWSCF are:
     Max number of different atomic species (ntypx) = 10
     Max number of k-points (npk) =  40000
     Max angular momentum in pseudopotentials (lmaxx) =  3
     Presently stress not available with electric field

     IMPORTANT: XC functional enforced from input :
     Exchange-correlation      = BEEF-VDW ( 1  4 27 13 2)
     Any further DFT definition will be discarded
     Please, verify this is what you really want

     Subspace diagonalization in iterative solution of the eigenvalue problem:
     a serial algorithm will be used

     bravais-lattice index     =            0
     lattice parameter (alat)  =       1.8897  a.u.
     unit-cell volume          =    4806.0858 (a.u.)^3
     number of atoms/cell      =           13
     number of atomic types    =            2
     number of electrons       =       149.00
     number of Kohn-Sham states=           84
     kinetic-energy cutoff     =      36.7493  Ry
     charge density cutoff     =     367.4932  Ry
     convergence threshold     =      1.0E-05
     mixing beta               =       0.3000
     number of iterations used =           10  plain     mixing
     Exchange-correlation      = BEEF-VDW ( 1  4 27 13 2)
     nstep                     =           50

     celldm(1)=   1.889726  celldm(2)=   0.000000  celldm(3)=   0.000000
     celldm(4)=   0.000000  celldm(5)=   0.000000  celldm(6)=   0.000000

     crystal axes: (cart. coord. in units of alat)
               a(1) = (   5.768903   0.000000   0.000000 )
               a(2) = (   2.884451   4.996016   0.000000 )
               a(3) = (   0.000000   0.000000  24.710289 )

     reciprocal axes: (cart. coord. in units 2 pi/alat)
               b(1) = (  0.173343 -0.100080  0.000000 )
               b(2) = (  0.000000  0.200159  0.000000 )
               b(3) = (  0.000000  0.000000  0.040469 )

     PseudoPot. # 1 for Ti read from file:
     /afs/slac.stanford.edu/u/if/mamunm/psp/gbrv1.5pbe/Ti.UPF
     MD5 check sum: 88a00a6731bd790ddea75d31a80cb452
     Pseudo is Ultrasoft + core correction, Zval = 12.0
     Generated by new atomic code, or converted to UPF format
     Using radial grid of  851 points,  6 beta functions with:
                l(1) =   0
                l(2) =   0
                l(3) =   1
                l(4) =   1
                l(5) =   2
                l(6) =   2
     Q(r) pseudized with  6 coefficients,  rinner =    1.000   1.000   1.000
                                                       1.000   1.000

     PseudoPot. # 2 for N  read from file:
     /afs/slac.stanford.edu/u/if/mamunm/psp/gbrv1.5pbe/N.UPF
     MD5 check sum: 95339753478d7afb44899504a8723017
     Pseudo is Ultrasoft + core correction, Zval =  5.0
     Generated by new atomic code, or converted to UPF format
     Using radial grid of  729 points,  4 beta functions with:
                l(1) =   0
                l(2) =   0
                l(3) =   1
                l(4) =   1
     Q(r) pseudized with  8 coefficients,  rinner =    0.900   0.900   0.900

     vdW kernel table read from file vdW_kernel_table
     MD5 check sum: 095c7af220d748ca6e76c0b4c6cfb241

     atomic species   valence    mass     pseudopotential
        Ti1           12.00    47.86700     Ti( 1.00)
        N1             5.00    14.00700     N ( 1.00)

     No symmetry found

   Cartesian axes

     site n.     atom                  positions (alat units)
         1           Ti1 tau(   1) = (   1.4422257   0.8326694  10.0000000  )
         2           Ti1 tau(   2) = (   4.3266771   0.8326694  10.0000000  )
         3           Ti1 tau(   3) = (   2.8844514   3.3306776  10.0000000  )
         4           Ti1 tau(   4) = (   5.7689029   3.3306776  10.0000000  )
         5           Ti1 tau(   5) = (   5.7689029   1.6653388  12.3551447  )
         6           Ti1 tau(   6) = (   2.8844514   1.6653388  12.3551447  )
         7           Ti1 tau(   7) = (   7.2111286   4.1633470  12.3551447  )
         8           Ti1 tau(   8) = (   4.3266771   4.1633470  12.3551447  )
         9           Ti1 tau(   9) = (   5.7084709   0.0354715  14.7855533  )
        10           Ti1 tau(  10) = (   2.9448783   0.0355794  14.7856911  )
        11           Ti1 tau(  11) = (   1.4422931   2.4957904  14.5361856  )
        12           Ti1 tau(  12) = (   4.3267779   2.4287004  14.7847197  )
        13           N1  tau(  13) = (   4.3266750   4.1641692  15.5573578  )

     number of k points=    20  Fermi-Dirac smearing, width (Ry)=  0.0110
                       cart. coord. in units 2pi/alat
        k(    1) = (   0.0000000   0.0000000   0.0000000), wk =   0.0555556
        k(    2) = (   0.0000000   0.0333599   0.0000000), wk =   0.1111111
        k(    3) = (   0.0000000   0.0667198   0.0000000), wk =   0.1111111
        k(    4) = (   0.0000000  -0.1000797   0.0000000), wk =   0.0555556
        k(    5) = (   0.0288905  -0.0166800   0.0000000), wk =   0.1111111
        k(    6) = (   0.0288905   0.0166800   0.0000000), wk =   0.1111111
        k(    7) = (   0.0288905   0.0500399   0.0000000), wk =   0.1111111
        k(    8) = (   0.0288905  -0.1167597   0.0000000), wk =   0.1111111
        k(    9) = (   0.0288905  -0.0833998   0.0000000), wk =   0.1111111
        k(   10) = (   0.0288905  -0.0500399   0.0000000), wk =   0.1111111
        k(   11) = (   0.0577811  -0.0333599   0.0000000), wk =   0.1111111
        k(   12) = (   0.0577811  -0.0000000   0.0000000), wk =   0.1111111
        k(   13) = (   0.0577811   0.0333599   0.0000000), wk =   0.1111111
        k(   14) = (   0.0577811  -0.1334396   0.0000000), wk =   0.1111111
        k(   15) = (   0.0577811  -0.1000797   0.0000000), wk =   0.1111111
        k(   16) = (   0.0577811  -0.0667198   0.0000000), wk =   0.1111111
        k(   17) = (  -0.0866716   0.0500399   0.0000000), wk =   0.0555556
        k(   18) = (  -0.0866716   0.0833998   0.0000000), wk =   0.1111111
        k(   19) = (  -0.0866716   0.1167597   0.0000000), wk =   0.1111111
        k(   20) = (  -0.0866716  -0.0500399   0.0000000), wk =   0.0555556

     Largest allocated arrays     est. size (Mb)     dimensions
     Largest temporary arrays     est. size (Mb)     dimensions

     Check: negative/imaginary core charge=   -0.000006    0.000000

     Initial potential from superposition of free atoms
     Check: negative starting charge=   -0.014271

     starting charge  136.99946, renormalised to  149.00000

[...]

     *
     * You are using vdW-DF for exchange-correlation in this calculation.
     * Please cite the following three references that made this development
     * possible:
     *
     *   M. Dion, H. Rydberg, E. Schroder, D. C. Langreth, and
     *   B. I. Lundqvist, Phys. Rev. Lett. 92, 246401 (2004).
     *
     *   T. Thonhauser, V. R. Cooper, S. Li, A. Puzder, P. Hyldgaard, and
     *   D. C. Langreth, Phys. Rev. B 76, 125112 (2007).
     *
     *   G. Roman-Perez and J. M. Soler, Phys. Rev. Lett. 103, 096102 (2009).
     *
     *
     * If you are using vdW-DF2, please also cite:
     *
     *   K. Lee, E. D. Murray, L. Kong, B. I. Lundqvist, and
     *   D. C. Langreth, Phys. Rev. B 82, 081101(R) (2010).
     *
     *
     * If you are calculating the stress with vdW-DF, please also cite:
     *
     *   R. Sabatini, E. Kucukbenli, B. Kolb, T. Thonhauser, and
     *   S. de Gironcoli, J. Phys.: Condens. Matter 24, 424209 (2012).
     *

     Carrying out vdW-DF run using the following parameters:

     Nqs =      20    Nr_points =    1024   r_max =   100.000
     q_mesh =
               0.00001000     0.04494208     0.09755937     0.15916263
               0.23128650     0.31572767     0.41458969     0.53033537
               0.66584808     0.82450364     1.01025438     1.22772762
               1.48234092     1.78043706     2.12944203     2.53805004
               3.01644009     3.57652955     4.23227104     5.00000000

     Gradients computed in reciprocal space

[...]

     Starting wfc are  124 randomized atomic wfcs

     Self-consistent Calculation

[...]

     total energy              =   -1459.04135502 Ry
     Harris-Foulkes estimate   =   -1459.04135659 Ry
     estimated scf accuracy    <       0.00002208 Ry

     iteration # 32     ecut=    36.75 Ry     beta=0.30
     Davidson diagonalization with overlap
     ethr =  1.48E-08,  avg # of iterations =  2.5

[...]

     negative rho (up, down):  8.750E-03 0.000E+00

     Adding external electric field

     Computed dipole along edir(3) :
        Dipole               -0.0632 Ry au,         -0.1605 Debye
        Dipole field         -0.0002 Ry au

        Potential amp.        0.0150 Ry
        Total length         45.5283 bohr

     End of self-consistent calculation

[...]

          k = 0.0578-0.0667 0.0000 ( 18031 PWs)   bands (ev):

[...]

          k =-0.0867-0.0500 0.0000 ( 18044 PWs)   bands (ev):

   -56.2351 -56.2302 -56.1877 -56.1837 -56.1802 -56.1561 -56.1194 -56.1166
   -56.1054 -56.0017 -55.9794 -55.9664 -32.6676 -32.6316 -32.6311 -32.6175
   -32.6110 -32.5640 -32.5597 -32.5480 -32.5186 -32.5110 -32.4947 -32.4656
   -32.4639 -32.4485 -32.4466 -32.4073 -32.4052 -32.3877 -32.3582 -32.3522
   -32.3261 -32.2887 -32.2755 -32.2657 -32.2478 -32.2386 -32.2013 -32.1977
   -32.1831 -32.1731 -32.1599 -32.1177 -32.1106 -32.0915 -32.0606 -32.0102
   -12.9493  -3.6795  -3.2015  -2.9673  -2.8517  -2.6166  -1.8237  -1.5382
    -1.1478  -1.0594  -0.9156  -0.8637  -0.7886  -0.5808  -0.2193  -0.1962
    -0.1526  -0.1367   0.0015   0.0541   0.2462   0.3047   0.3503   0.4246
     0.4366   0.4762   0.5763   0.6673   0.7023   0.7652   0.8509   0.9217
     0.9812   1.1323   1.3303   1.3973

     the Fermi energy is     0.7297 ev

!    total energy              =   -1459.04135356 Ry
     Harris-Foulkes estimate   =   -1459.04135616 Ry
     estimated scf accuracy    <       0.00000282 Ry

     The total energy is the sum of the following terms:

     one-electron contribution =  -11332.52307728 Ry
     hartree contribution      =    5653.37958683 Ry
     xc contribution           =    -230.57623655 Ry
     ewald contribution        =    4450.79969043 Ry
     electric field correction =       0.00001043 Ry
     smearing contrib. (-TS)   =      -0.12132741 Ry

     convergence has been achieved in  32 iterations

 BEEF-vdW xc energy contributions
           1 :   -198.198852484843
           2 :    177.176752607219
           3 :   -142.624912348825
           4 :    105.458079656545
           5 :   -74.7005755296047
           6 :    53.9945038132027
           7 :   -41.5515925526176
           8 :    32.8531414403553
           9 :   -24.0035737056611
          10 :    13.7013299249222
          11 :   -3.09217209411506
          12 :   -5.83445207783691
          13 :    11.9259817427156
          14 :   -15.5398416033323
          15 :    17.9882489554120
          16 :   -20.3911773855710
          17 :    22.8546945086684
          18 :   -24.5350757799941
          19 :    24.4275871480903
          20 :   -22.2119350402263
          21 :    18.5093280677139
          22 :   -14.4233148423949
          23 :    10.7810593668280
          24 :   -7.67313971409888
          25 :    4.59172670517458
          26 :  -0.991775089046655
          27 :   -3.19240396539288
          28 :    7.44609749544472
          29 :   -11.0183344203789
          30 :    13.4123750976771
          31 :   -21.1032168089261
          32 :   -15.0406165386006

     Forces acting on atoms (Ry/au):

     negative rho (up, down):  8.750E-03 0.000E+00
     atom    1 type  1   force =    -0.00001029   -0.00265540    0.01211895
     atom    2 type  1   force =     0.00001647    0.00000802    0.00760995
     atom    3 type  1   force =     0.00228599    0.00133622    0.01214921
     atom    4 type  1   force =    -0.00228501    0.00132521    0.01213995
     atom    5 type  1   force =    -0.00612670   -0.00354900   -0.00859072
     atom    6 type  1   force =     0.00613440   -0.00355151   -0.00858723
     atom    7 type  1   force =    -0.00001057    0.00693453   -0.00838397
     atom    8 type  1   force =     0.00000148    0.00006905   -0.01872171
     atom    9 type  1   force =    -0.00008935   -0.00012235   -0.00034542
     atom   10 type  1   force =     0.00009898   -0.00015720   -0.00034332
     atom   11 type  1   force =    -0.00002627    0.00054030   -0.00004150
     atom   12 type  1   force =     0.00000249    0.00000491   -0.00021447
     atom   13 type  2   force =     0.00000838   -0.00018278    0.00121028

     Total force =     0.035210     Total SCF correction =     0.005182
     SCF correction compared to forces is large: reduce conv_thr to get better values

     entering subroutine stress ...

     negative rho (up, down):  8.750E-03 0.000E+00
          total   stress  (Ry/bohr**3)                   (kbar)     P=    1.91
   0.00004323  -0.00000003   0.00000001          6.36     -0.00      0.00
  -0.00000003   0.00004297  -0.00000003         -0.00      6.32     -0.00
   0.00000001  -0.00000003  -0.00004733          0.00     -0.00     -6.96

 !ASE

     Writing output data file calc.save

     General routines

     Parallel routines

   This run was terminated on:   7:21:35  20Jan2018

   JOB DONE.
Job  /afs/slac/g/suncat/bin/suncat-tsmpirun -x LD_LIBRARY_PATH -wdir /scratch/qe870136_UWDsu pw.x -in pw.inp

TID   HOST_NAME   COMMAND_LINE            STATUS            TERMINATION_TIME
00000 suncat1042 pw.x -in pw.inp   Done                     01/20/2018 07:21:35
00001 suncat1042 pw.x -in pw.inp   Done                     01/20/2018 07:21:35
00002 suncat1042 pw.x -in pw.inp   Done                     01/20/2018 07:21:35
00003 suncat1042 pw.x -in pw.inp   Done                     01/20/2018 07:21:35
00004 suncat1042 pw.x -in pw.inp   Done                     01/20/2018 07:21:35
00005 suncat1042 pw.x -in pw.inp   Done                     01/20/2018 07:21:35
00006 suncat1042 pw.x -in pw.inp   Done                     01/20/2018 07:21:35
00007 suncat1042 pw.x -in pw.inp   Done                     01/20/2018 07:21:35
00008 suncat1033 pw.x -in pw.inp   Done                     01/20/2018 07:21:35
00009 suncat1033 pw.x -in pw.inp   Done                     01/20/2018 07:21:35
00010 suncat1033 pw.x -in pw.inp   Done                     01/20/2018 07:21:35
00011 suncat1033 pw.x -in pw.inp   Done                     01/20/2018 07:21:35
00012 suncat1033 pw.x -in pw.inp   Done                     01/20/2018 07:21:35
00013 suncat1033 pw.x -in pw.inp   Done                     01/20/2018 07:21:35
00014 suncat1033 pw.x -in pw.inp   Done                     01/20/2018 07:21:35
00015 suncat1033 pw.x -in pw.inp   Done                     01/20/2018 07:21:35
00016 suncat1033 pw.x -in pw.inp   Done                     01/20/2018 07:21:35
00017 suncat1033 pw.x -in pw.inp   Done                     01/20/2018 07:21:35
00018 suncat1033 pw.x -in pw.inp   Done                     01/20/2018 07:21:35
00019 suncat1033 pw.x -in pw.inp   Done                     01/20/2018 07:21:35
00020 suncat1006 pw.x -in pw.inp   Done                     01/20/2018 07:21:35
00021 suncat1006 pw.x -in pw.inp   Done                     01/20/2018 07:21:35
00022 suncat1006 pw.x -in pw.inp   Done                     01/20/2018 07:21:35
00023 suncat1006 pw.x -in pw.inp   Done                     01/20/2018 07:21:35
00024 suncat1006 pw.x -in pw.inp   Done                     01/20/2018 07:21:35
00025 suncat1006 pw.x -in pw.inp   Done                     01/20/2018 07:21:35
00026 suncat1006 pw.x -in pw.inp   Done                     01/20/2018 07:21:35
00027 suncat1006 pw.x -in pw.inp   Done                     01/20/2018 07:21:35
00028 suncat1006 pw.x -in pw.inp   Done                     01/20/2018 07:21:35
00029 suncat1006 pw.x -in pw.inp   Done                     01/20/2018 07:21:35
00030 suncat1006 pw.x -in pw.inp   Done                     01/20/2018 07:21:35
00031 suncat1006 pw.x -in pw.inp   Done                     01/20/2018 07:21:35