     Program PWSCF v.5.1rc2 starts on 16Jul2018 at 10:59:20

     Current dimensions of program PWSCF are:
     Max number of different atomic species (ntypx) = 10
     Max number of k-points (npk) =  40000
     Max angular momentum in pseudopotentials (lmaxx) =  3
     Presently stress not available with electric field

     IMPORTANT: XC functional enforced from input :
     Exchange-correlation      = BEEF-VDW ( 1  4 27 13 2)
     Any further DFT definition will be discarded
     Please, verify this is what you really want

     Generating pointlists ...
     new r_m :   0.4125 (alat units)  0.7795 (a.u.) for type    1
     new r_m :   0.4125 (alat units)  0.7795 (a.u.) for type    2
     new r_m :   0.4125 (alat units)  0.7795 (a.u.) for type    3

     bravais-lattice index     =            0
     lattice parameter (alat)  =       1.8897  a.u.
     unit-cell volume          =    3747.1846 (a.u.)^3
     number of atoms/cell      =           14
     number of atomic types    =            3
     number of electrons       =       187.00
     number of Kohn-Sham states=          103
     kinetic-energy cutoff     =      36.7493  Ry
     charge density cutoff     =     367.4932  Ry
     convergence threshold     =      1.0E-05
     mixing beta               =       0.3000
     number of iterations used =           10  plain     mixing
     Exchange-correlation      = BEEF-VDW ( 1  4 27 13 2)
     nstep                     =           50

     celldm(1)=   1.889726  celldm(2)=   0.000000  celldm(3)=   0.000000
     celldm(4)=   0.000000  celldm(5)=   0.000000  celldm(6)=   0.000000

     crystal axes: (cart. coord. in units of alat)
               a(1) = (   5.147050   0.000000   0.000000 )
               a(2) = (   2.573525   4.457476   0.000000 )
               a(3) = (   0.000000   0.000000  24.202549 )

     reciprocal axes: (cart. coord. in units 2 pi/alat)
               b(1) = (  0.194286 -0.112171  0.000000 )
               b(2) = (  0.000000  0.224342  0.000000 )
               b(3) = (  0.000000  0.000000  0.041318 )

     PseudoPot. # 1 for Mn read from file:
     /home/users/mamunm/src/pseudo/gbrv1.5pbe/Mn.UPF
     MD5 check sum: 82ef2b46521d7a7d9e736dc3972e4928
     Pseudo is Ultrasoft + core correction, Zval = 15.0
     Generated by new atomic code, or converted to UPF format
     Using radial grid of  859 points,  6 beta functions with:
                l(1) =   0
                l(2) =   0
                l(3) =   1
                l(4) =   1
                l(5) =   2
                l(6) =   2
     Q(r) pseudized with  8 coefficients,  rinner =    0.950   0.950   0.950
                                                       0.950   0.950

     PseudoPot. # 2 for S  read from file:
     /home/users/mamunm/src/pseudo/gbrv1.5pbe/S.UPF
     MD5 check sum: 88d86576ff6df21479756cfb9bdac1df
     Pseudo is Ultrasoft + core correction, Zval =  6.0
     Generated by new atomic code, or converted to UPF format
     Using radial grid of  907 points,  6 beta functions with:
                l(1) =   0
                l(2) =   0
                l(3) =   1
                l(4) =   1
                l(5) =   2
                l(6) =   2
     Q(r) pseudized with  8 coefficients,  rinner =    1.300   1.300   1.300
                                                       1.300   1.300

     PseudoPot. # 3 for H  read from file:
     /home/users/mamunm/src/pseudo/gbrv1.5pbe/H.UPF
     MD5 check sum: 761ae9a214b05c3daf00ab9f6b793d6f
     Pseudo is Ultrasoft, Zval =  1.0
     Generated by new atomic code, or converted to UPF format
     Using radial grid of  615 points,  2 beta functions with:
                l(1) =   0
                l(2) =   0
     Q(r) pseudized with  8 coefficients,  rinner =    0.700

     vdW kernel table read from file vdW_kernel_table
     MD5 check sum: 095c7af220d748ca6e76c0b4c6cfb241

     atomic species   valence    mass     pseudopotential
        Mn1           15.00    54.93804     Mn( 1.00)
        S1             6.00    32.06000     S ( 1.00)
        H1             1.00     1.00800     H ( 1.00)

     Starting magnetic structure
     atomic species   magnetization
        Mn1          0.133
        S1           0.000
        H1           0.000

     No symmetry found

   Cartesian axes

     site n.     atom                  positions (alat units)
         1           Mn1 tau(   1) = (   1.2867625   0.7429127  10.0000000  )
         2           Mn1 tau(   2) = (   3.8602874   0.7429127  10.0000000  )
         3           Mn1 tau(   3) = (   2.5735249   2.9716506  10.0000000  )
         4           Mn1 tau(   4) = (   5.1470499   2.9716506  10.0000000  )
         5           Mn1 tau(   5) = (   5.1470499   1.4858253  12.1012743  )
         6           Mn1 tau(   6) = (   2.5735249   1.4858253  12.1012743  )
         7           Mn1 tau(   7) = (   6.4338123   3.7145633  12.1012743  )
         8           Mn1 tau(   8) = (   3.8602874   3.7145633  12.1012743  )
         9           Mn1 tau(   9) = (   0.0000000   0.0000000  14.2025486  )
        10           Mn1 tau(  10) = (   2.5735249   0.0000000  14.2025486  )
        11           Mn1 tau(  11) = (   1.2867625   2.2287380  14.2025486  )
        12           Mn1 tau(  12) = (   3.8602874   2.2287380  14.2025486  )
        13           S1  tau(  13) = (   0.0000000   0.0000000  16.2765486  )
        14           H1  tau(  14) = (   0.0000000   0.0000000  17.5265486  )

     number of k points=    40  Fermi-Dirac smearing, width (Ry)=  0.0110
                       cart. coord. in units 2pi/alat
        k(    1) = (   0.0000000   0.0000000   0.0000000), wk =   0.0277778
        k(    2) = (   0.0000000   0.0373904   0.0000000), wk =   0.0555556
        k(    3) = (   0.0000000   0.0747807   0.0000000), wk =   0.0555556
        k(    4) = (   0.0000000  -0.1121711   0.0000000), wk =   0.0277778
        k(    5) = (   0.0323810  -0.0186952   0.0000000), wk =   0.0555556
        k(    6) = (   0.0323810   0.0186952   0.0000000), wk =   0.0555556
        k(    7) = (   0.0323810   0.0560856   0.0000000), wk =   0.0555556
        k(    8) = (   0.0323810  -0.1308663   0.0000000), wk =   0.0555556
        k(    9) = (   0.0323810  -0.0934759   0.0000000), wk =   0.0555556
        k(   10) = (   0.0323810  -0.0560856   0.0000000), wk =   0.0555556
        k(   11) = (   0.0647620  -0.0373904   0.0000000), wk =   0.0555556
        k(   12) = (   0.0647620  -0.0000000   0.0000000), wk =   0.0555556
        k(   13) = (   0.0647620   0.0373904   0.0000000), wk =   0.0555556
        k(   14) = (   0.0647620  -0.1495615   0.0000000), wk =   0.0555556
        k(   15) = (   0.0647620  -0.1121711   0.0000000), wk =   0.0555556
        k(   16) = (   0.0647620  -0.0747807   0.0000000), wk =   0.0555556
        k(   17) = (  -0.0971430   0.0560856   0.0000000), wk =   0.0277778
        k(   18) = (  -0.0971430   0.0934759   0.0000000), wk =   0.0555556
        k(   19) = (  -0.0971430   0.1308663   0.0000000), wk =   0.0555556
        k(   20) = (  -0.0971430  -0.0560856   0.0000000), wk =   0.0277778
        k(   21) = (   0.0000000   0.0000000   0.0000000), wk =   0.0277778
        k(   22) = (   0.0000000   0.0373904   0.0000000), wk =   0.0555556
        k(   23) = (   0.0000000   0.0747807   0.0000000), wk =   0.0555556
        k(   24) = (   0.0000000  -0.1121711   0.0000000), wk =   0.0277778
        k(   25) = (   0.0323810  -0.0186952   0.0000000), wk =   0.0555556
        k(   26) = (   0.0323810   0.0186952   0.0000000), wk =   0.0555556
        k(   27) = (   0.0323810   0.0560856   0.0000000), wk =   0.0555556
        k(   28) = (   0.0323810  -0.1308663   0.0000000), wk =   0.0555556
        k(   29) = (   0.0323810  -0.0934759   0.0000000), wk =   0.0555556
        k(   30) = (   0.0323810  -0.0560856   0.0000000), wk =   0.0555556
        k(   31) = (   0.0647620  -0.0373904   0.0000000), wk =   0.0555556
        k(   32) = (   0.0647620  -0.0000000   0.0000000), wk =   0.0555556
        k(   33) = (   0.0647620   0.0373904   0.0000000), wk =   0.0555556
        k(   34) = (   0.0647620  -0.1495615   0.0000000), wk =   0.0555556
        k(   35) = (   0.0647620  -0.1121711   0.0000000), wk =   0.0555556
        k(   36) = (   0.0647620  -0.0747807   0.0000000), wk =   0.0555556
        k(   37) = (  -0.0971430   0.0560856   0.0000000), wk =   0.0277778
        k(   38) = (  -0.0971430   0.0934759   0.0000000), wk =   0.0555556
        k(   39) = (  -0.0971430   0.1308663   0.0000000), wk =   0.0555556
        k(   40) = (  -0.0971430  -0.0560856   0.0000000), wk =   0.0277778

     Largest allocated arrays     est. size (Mb)     dimensions
     Largest temporary arrays     est. size (Mb)     dimensions

     Check: negative/imaginary core charge=   -0.000010    0.000000

     Initial potential from superposition of free atoms
     Check: negative starting charge=(component1):   -0.001330
     Check: negative starting charge=(component2):   -0.001005

     starting charge  180.99893, renormalised to  187.00000

     negative rho (up, down):  1.374E-03 1.038E-03

     *
     * You are using vdW-DF for exchange-correlation in this calculation.
     * Please cite the following three references that made this development
     * possible:
     *
     *   M. Dion, H. Rydberg, E. Schroder, D. C. Langreth, and
     *   B. I. Lundqvist, Phys. Rev. Lett. 92, 246401 (2004).
     *
     *   T. Thonhauser, V. R. Cooper, S. Li, A. Puzder, P. Hyldgaard, and
     *   D. C. Langreth, Phys. Rev. B 76, 125112 (2007).
     *
     *   G. Roman-Perez and J. M. Soler, Phys. Rev. Lett. 103, 096102 (2009).
     *
     *
     * If you are using vdW-DF2, please also cite:
     *
     *   K. Lee, E. D. Murray, L. Kong, B. I. Lundqvist, and
     *   D. C. Langreth, Phys. Rev. B 82, 081101(R) (2010).
     *
     *
     * If you are calculating the stress with vdW-DF, please also cite:
     *
     *   R. Sabatini, E. Kucukbenli, B. Kolb, T. Thonhauser, and
     *   S. de Gironcoli, J. Phys.: Condens. Matter 24, 424209 (2012).
     *

     Carrying out vdW-DF run using the following parameters:

     Nqs =      20    Nr_points =    1024   r_max =   100.000
     q_mesh =
               0.00001000     0.04494208     0.09755937     0.15916263
               0.23128650     0.31572767     0.41458969     0.53033537
               0.66584808     0.82450364     1.01025438     1.22772762
               1.48234092     1.78043706     2.12944203     2.53805004
               3.01644009     3.57652955     4.23227104     5.00000000

     Gradients computed in reciprocal space

     Adding external electric field

     Computed dipole along edir(3) :
        Dipole               -1.9091 Ry au,         -4.8525 Debye
        Dipole field         -0.0064 Ry au

        Potential amp.        0.5710 Ry
        Total length         44.5928 bohr

[...]

     Starting wfc are  161 randomized atomic wfcs

     Self-consistent Calculation

     iteration #  1     ecut=    36.75 Ry     beta=0.30
     Davidson diagonalization with overlap
     ethr =  1.00E-02,  avg # of iterations =  2.0

[...]

     Magnetic moment per site:
[...]
     atom:   10    charge:    5.6709    magn:    0.6436    constr:    0.0000
     atom:   11    charge:    5.6710    magn:    0.6437    constr:    0.0000
     atom:   12    charge:    5.6709    magn:    0.6436    constr:    0.0000
     atom:   13    charge:    0.2985    magn:   -0.0020    constr:    0.0000
     atom:   14    charge:    0.3347    magn:   -0.0012    constr:    0.0000

     total energy              =   -2460.00568925 Ry
     Harris-Foulkes estimate   =   -2571.99358825 Ry
     estimated scf accuracy    <     230.99670183 Ry

     total magnetization       =    13.89 Bohr mag/cell
     absolute magnetization    =    14.47 Bohr mag/cell

[...]

     iteration # 39     ecut=    36.75 Ry     beta=0.30
     Davidson diagonalization with overlap
     c_bands:  2 eigenvalues not converged
     ethr =  7.11E-06,  avg # of iterations =  4.2

[...]

     End of self-consistent calculation

 ------ SPIN UP ------------

          k = 0.0000 0.0000 0.0000 ( 14177 PWs)   bands (ev):

   -78.6463 -78.5986 -78.5980 -78.5276 -78.4827 -78.4776 -78.1901 -77.4708
   -76.1391 -76.0812 -76.0691 -76.0587 -47.5265 -47.4825 -47.4816 -47.4204
   -47.4194 -47.3890 -47.3810 -47.3400 -47.3324 -47.3292 -47.2379 -47.2356
   -47.2210 -47.1529 -47.0589 -47.0585 -47.0455 -46.9897 -46.9874 -46.7713
   -46.7710 -46.3823 -46.0756 -46.0730 -45.1058 -45.0948 -45.0861 -44.8215
   -44.7880 -44.7854 -44.7794 -44.7756 -44.7633 -44.7623 -44.6846 -44.6830
   -12.7713  -6.0517  -5.0330  -3.5732  -2.4281  -2.3648  -2.3553  -2.0622
    -2.0376  -2.0203  -1.9131  -1.8260  -1.6884  -1.6850  -1.6189  -1.5115
    -1.0938  -1.0604  -1.0161  -0.9943  -0.5962  -0.5545  -0.2221   0.2510
     0.2539   0.2628   0.2847   0.4465   0.5003   0.5008   0.5781   0.5891
     0.6293   0.6960   0.7577   0.8209   0.9348   0.9582   1.0127   1.0317
     1.1656   1.1945   1.6162   1.6339   1.6717   1.8987   2.0763   2.1154
     2.3103   2.3652   2.3895   2.4040   2.4485   2.5059   2.5075

[...]

          k =-0.0971 0.0561 0.0000 ( 14098 PWs)   bands (ev):

[...]

 ------ SPIN DOWN ----------

[...]

     the Fermi energy is     1.9968 ev

!    total energy              =   -2570.86010984 Ry
     Harris-Foulkes estimate   =   -2570.86012165 Ry
     estimated scf accuracy    <       0.00000784 Ry

     The total energy is the sum of the following terms:

     one-electron contribution =  -22860.35107849 Ry
     hartree contribution      =   11433.33553593 Ry
     xc contribution           =    -340.29300430 Ry
     ewald contribution        =    9196.55224820 Ry
     electric field correction =       0.00024111 Ry
     smearing contrib. (-TS)   =      -0.10405228 Ry

[...]

     convergence has been achieved in 215 iterations

 BEEF-vdW xc energy contributions
           1 :   -296.554916108034
           2 :    267.649311223831
           3 :   -219.375957494151
           4 :    165.964751205445
           5 :   -119.986594458851
           6 :    87.9407583379396
           7 :   -69.4361427061738
           8 :    59.5240366763106
           9 :   -52.3608669022049
          10 :    44.1636676539732
          11 :   -34.2397344379877
          12 :    24.1066176755920
          13 :   -15.7315822905705
          14 :    10.1335211061141
          15 :   -7.02258745092757
          16 :    5.32217452341354
          17 :   -3.95929201898929
          18 :    2.37585633770823
          19 :  -0.584127056010061
          20 :   -1.09087723195847
          21 :    2.31801624643884
          22 :   -2.93983753849926
          23 :    3.00310063306830
          24 :   -2.71603425245917
          25 :    2.38094450010016
          26 :   -2.29466905985225
          27 :    2.61296384579623
          28 :   -3.24911919018456
          29 :    3.90060558980520
          30 :   -4.22510636646228
          31 :   -27.4369019228128
          32 :   -19.4557674085074

     Forces acting on atoms (Ry/au):

     negative rho (up, down):  1.751E-03 1.582E-03
     atom    1 type  1   force =    -0.00014467   -0.00151805    0.00849481
     atom    2 type  1   force =     0.00008622   -0.00005811    0.03376400
     atom    3 type  1   force =     0.00122634    0.00088624    0.00855023
     atom    4 type  1   force =    -0.00106568    0.00063117    0.00739089
     atom    5 type  1   force =    -0.00437841   -0.00395863   -0.00410382
     atom    6 type  1   force =     0.00437476   -0.00252312   -0.00591394
     atom    7 type  1   force =     0.00124565    0.00575441   -0.00410166
     atom    8 type  1   force =    -0.00125751    0.00072361   -0.00159136
     atom    9 type  1   force =    -0.00001254   -0.00000725   -0.06211896
     atom   10 type  1   force =     0.00010951    0.00192890   -0.01156540
     atom   11 type  1   force =     0.00147979   -0.00083190   -0.01167889
     atom   12 type  1   force =    -0.00163069   -0.00104952   -0.01152044
     atom   13 type  2   force =    -0.00010669    0.00006462   -0.06962325
     atom   14 type  3   force =     0.00007392   -0.00004239    0.12401780

     Total force =     0.156524     Total SCF correction =     0.004219

     entering subroutine stress ...

     negative rho (up, down):  1.751E-03 1.582E-03
          total   stress  (Ry/bohr**3)                   (kbar)     P=  -10.68
  -0.00011069   0.00000006  -0.00000020        -16.28      0.01     -0.03
   0.00000006  -0.00011061   0.00000011          0.01    -16.27      0.02
  -0.00000020   0.00000011   0.00000356         -0.03      0.02      0.52

     BFGS Geometry Optimization

     number of scf cycles    =   1
     number of bfgs steps    =   0

     energy   new            =   -2570.8601098448 Ry

     new trust radius        =       0.1240178291 bohr
     new conv_thr            =       0.0000099958 Ry

ATOMIC_POSITIONS (crystal)
Mn1      0.166666667   0.166666667   0.413179627    0   0   0
Mn1      0.666666667   0.166666667   0.413179627    0   0   0
Mn1      0.166666667   0.666666667   0.413179627    0   0   0
Mn1      0.666666667   0.666666667   0.413179627    0   0   0
Mn1      0.833333333   0.333333333   0.500000000    0   0   0
Mn1      0.333333333   0.333333333   0.500000000    0   0   0
Mn1      0.833333333   0.833333333   0.500000000    0   0   0
Mn1      0.333333333   0.833333333   0.500000000    0   0   0
Mn1     -0.000000859  -0.000000860   0.585462172
Mn1      0.499896762   0.000228993   0.586567501
Mn1      0.000201520   0.499901240   0.586565020
Mn1      0.499894643   0.499875404   0.586568484
S1      -0.000014805   0.000007672   0.670991549
H1       0.000010116  -0.000005032   0.726872871

     Writing output data file calc.save
     Check: negative starting charge=(component1):   -0.002333
     NEW-OLD atomic charge density approx. for the potential

     Check: negative/imaginary core charge=   -0.000010    0.000000
     Check: negative starting charge=(component1):   -0.002323

[...]

     energy   old            =   -2570.8601098448 Ry
     energy   new            =   -2570.8714194984 Ry

     CASE: energy  _new < energy  _old

[...]

     Total force =     0.006239     Total SCF correction =     0.000905
     SCF correction compared to forces is large: reduce conv_thr to get better values

[...]

     iteration # 76     ecut=    36.75 Ry     beta=0.30
     Davidson diagonalization with overlap
     c_bands:  1 eigenvalues not converged
     ethr =  1.39E-10,  avg # of iterations =  6.2

[...]

     Total force =     0.004309     Total SCF correction =     0.000772
     SCF correction compared to forces is large: reduce conv_thr to get better values

[...]

     number of scf cycles    =   9
     number of bfgs steps    =   8

     energy   old            =   -2570.8794415325 Ry
     energy   new            =   -2570.8795151037 Ry

     CASE: energy  _new < energy  _old

     new trust radius        =       0.0097679660 bohr
     new conv_thr            =       0.0000001000 Ry

ATOMIC_POSITIONS (crystal)
Mn1      0.166666667   0.166666667   0.413179627    0   0   0
Mn1      0.666666667   0.166666667   0.413179627    0   0   0
Mn1      0.166666667   0.666666667   0.413179627    0   0   0
Mn1      0.666666667   0.666666667   0.413179627    0   0   0
Mn1      0.833333333   0.333333333   0.500000000    0   0   0
Mn1      0.333333333   0.333333333   0.500000000    0   0   0
Mn1      0.833333333   0.833333333   0.500000000    0   0   0
Mn1      0.333333333   0.833333333   0.500000000    0   0   0
Mn1     -0.000059352   0.000025644   0.582211580
Mn1      0.498519760   0.002951629   0.584427915
Mn1      0.002770098   0.498613570   0.584364130
Mn1      0.498520830   0.498528069   0.584430322
S1      -0.000765043   0.000396308   0.673252627
H1       0.000398610  -0.000205031   0.729019699

     Writing output data file calc.save
     Check: negative starting charge=(component1):   -0.002354
     NEW-OLD atomic charge density approx. for the potential

     Check: negative/imaginary core charge=   -0.000010    0.000000
     Check: negative starting charge=(component1):   -0.002357

[...]

     Self-consistent Calculation

[...]

     total energy              =   -2570.87953861 Ry
     Harris-Foulkes estimate   =   -2570.87953867 Ry
     estimated scf accuracy    <       0.00000010 Ry

[...]

     iteration # 20     ecut=    36.75 Ry     beta=0.30
     Davidson diagonalization with overlap
     ethr =  5.50E-11,  avg # of iterations =  1.0

[...]

     negative rho (up, down):  1.755E-03 1.592E-03

[...]

     Adding external electric field

     Computed dipole along edir(3) :
        Dipole                0.2167 Ry au,          0.5509 Debye
        Dipole field          0.0007 Ry au

        Potential amp.       -0.0648 Ry
        Total length         44.5928 bohr

     Magnetic moment per site:
     atom:    1    charge:    6.0007    magn:    1.0318    constr:    0.0000
     atom:    2    charge:    5.9896    magn:    0.3640    constr:    0.0000
     atom:    3    charge:    6.0007    magn:    1.0318    constr:    0.0000
     atom:    4    charge:    6.0007    magn:    1.0309    constr:    0.0000
     atom:    5    charge:    5.9898    magn:   -0.7986    constr:    0.0000
     atom:    6    charge:    5.9902    magn:   -0.8034    constr:    0.0000
     atom:    7    charge:    5.9897    magn:   -0.7986    constr:    0.0000
     atom:    8    charge:    5.9905    magn:   -0.8200    constr:    0.0000
     atom:    9    charge:    5.6887    magn:    0.7623    constr:    0.0000
     atom:   10    charge:    5.9155    magn:    1.0405    constr:    0.0000
     atom:   11    charge:    5.9113    magn:    1.0388    constr:    0.0000
     atom:   12    charge:    5.9156    magn:    1.0406    constr:    0.0000
     atom:   13    charge:    0.2956    magn:    0.0144    constr:    0.0000
     atom:   14    charge:    0.3963    magn:    0.0079    constr:    0.0000

     End of self-consistent calculation

 ------ SPIN UP ------------

[...]

 ------ SPIN DOWN ----------

[...]

          k = 0.0648-0.0748 0.0000 ( 14076 PWs)   bands (ev):

[...]

          k =-0.0971-0.0561 0.0000 ( 14098 PWs)   bands (ev):

   -78.5524 -78.5362 -78.5030 -78.4997 -76.6100 -76.1514 -75.7337 -75.7260
   -75.7176 -75.7074 -75.6998 -75.6913 -47.3675 -47.3514 -47.3197 -47.3126
   -47.3055 -47.3023 -47.2128 -47.1933 -47.1710 -47.1598 -47.0495 -47.0470
   -45.4809 -45.4598 -45.1358 -44.9753 -44.9392 -44.9308 -44.6910 -44.6786
   -44.5550 -44.5515 -44.5477 -44.5247 -44.5238 -44.5134 -44.5068 -44.4659
   -44.4409 -44.4259 -44.4126 -44.4019 -44.3999 -44.3886 -44.3831 -44.3708
   -11.8498  -5.1323  -3.6272  -3.4990  -2.2332  -1.9740  -1.6459  -1.6242
    -1.4974  -1.3843  -1.3741  -1.3184  -1.2087  -1.1270  -1.1087  -1.0418
    -0.5454  -0.5386  -0.3704  -0.3551  -0.2802  -0.2395  -0.0733  -0.0296
     0.7462   0.7652   0.7846   0.7976   0.8733   0.9404   1.1545   1.1718
     1.2534   1.2916   1.3979   1.4351   1.4684   1.5015   1.5670   1.6740
     1.7322   1.7829   1.8316   2.0452   2.1436   2.1713   2.4413   2.5973
     2.6227   2.6660   2.8762   2.9124   2.9348   3.0358   3.1663

     the Fermi energy is     1.8844 ev

!    total energy              =   -2570.87953862 Ry
     Harris-Foulkes estimate   =   -2570.87953889 Ry
     estimated scf accuracy    <       0.00000005 Ry

     The total energy is the sum of the following terms:

     one-electron contribution =  -23049.83641234 Ry
     hartree contribution      =   11527.42774637 Ry
     xc contribution           =    -340.18004425 Ry
     ewald contribution        =    9291.81352843 Ry
     electric field correction =       0.00015752 Ry
     smearing contrib. (-TS)   =      -0.10451434 Ry

     total magnetization       =    11.14 Bohr mag/cell
     absolute magnetization    =    27.50 Bohr mag/cell

     convergence has been achieved in  20 iterations

 BEEF-vdW xc energy contributions
           1 :   -296.445134091885
           2 :    267.571084961768
           3 :   -219.328404338624
           4 :    165.913105871456
           5 :   -119.895941618305
           6 :    87.8155356785146
           7 :   -69.3274806960846
           8 :    59.4942471646776
           9 :   -52.4317825492154
          10 :    44.2930941958206
          11 :   -34.3493505934847
          12 :    24.1411569045634
          13 :   -15.7000453333964
          14 :    10.0969595126371
          15 :   -7.04016899610860
          16 :    5.40313090673823
          17 :   -4.05986970631511
          18 :    2.44057204027411
          19 :  -0.594840933141427
          20 :   -1.09967086517401
          21 :    2.29203176098275
          22 :   -2.85916455611914
          23 :    2.90991749412058
          24 :   -2.68740139361557
          25 :    2.46651664539814
          26 :   -2.47321490975361
          27 :    2.80654243793668
          28 :   -3.38277664211648
          29 :    3.95662049973686
          30 :   -4.24816946880560
          31 :   -27.4483258155701
          32 :   -19.4691047204709

     Forces acting on atoms (Ry/au):

     negative rho (up, down):  1.755E-03 1.592E-03
     atom    1 type  1   force =    -0.00000805   -0.00152246    0.00738301
     atom    2 type  1   force =    -0.00002613    0.00001378    0.03169332
     atom    3 type  1   force =     0.00131372    0.00076914    0.00738587
     atom    4 type  1   force =    -0.00117540    0.00067932    0.00664328
     atom    5 type  1   force =    -0.00411618   -0.00110956   -0.01500410
     atom    6 type  1   force =     0.00405274   -0.00233545   -0.01402196
     atom    7 type  1   force =    -0.00109529    0.00411693   -0.01500844
     atom    8 type  1   force =     0.00118428   -0.00068738   -0.01223643
     atom    9 type  1   force =     0.00022346   -0.00013508    0.00110036
     atom   10 type  1   force =    -0.00001066   -0.00156839    0.00023478
     atom   11 type  1   force =    -0.00139871    0.00080908    0.00020585
     atom   12 type  1   force =     0.00134941    0.00079219    0.00022874
     atom   13 type  2   force =    -0.00059285    0.00035857    0.00040341
     atom   14 type  3   force =     0.00029965   -0.00018068    0.00099232

     Total force =     0.003271     Total SCF correction =     0.000127

     entering subroutine stress ...

     negative rho (up, down):  1.755E-03 1.592E-03
          total   stress  (Ry/bohr**3)                   (kbar)     P=  -13.62
  -0.00010545   0.00000003  -0.00000034        -15.51      0.00     -0.05
   0.00000003  -0.00010541   0.00000020          0.00    -15.51      0.03
  -0.00000034   0.00000020  -0.00006700         -0.05      0.03     -9.86

     bfgs converged in  10 scf cycles and   9 bfgs steps
     (criteria: energy <  1.0E+00, force <  1.9E-03)

     End of BFGS Geometry Optimization

     Final energy   =   -2570.8795386160 Ry
Begin final coordinates

ATOMIC_POSITIONS (crystal)
Mn1      0.166666667   0.166666667   0.413179627    0   0   0
Mn1      0.666666667   0.166666667   0.413179627    0   0   0
Mn1      0.166666667   0.666666667   0.413179627    0   0   0
Mn1      0.666666667   0.666666667   0.413179627    0   0   0
Mn1      0.833333333   0.333333333   0.500000000    0   0   0
Mn1      0.333333333   0.333333333   0.500000000    0   0   0
Mn1      0.833333333   0.833333333   0.500000000    0   0   0
Mn1      0.333333333   0.833333333   0.500000000    0   0   0
Mn1     -0.000059352   0.000025644   0.582211580
Mn1      0.498519760   0.002951629   0.584427915
Mn1      0.002770098   0.498613570   0.584364130
Mn1      0.498520830   0.498528069   0.584430322
S1      -0.000765043   0.000396308   0.673252627
H1       0.000398610  -0.000205031   0.729019699
End final coordinates

     Writing output data file calc.save

     General routines

     Parallel routines

   This run was terminated on:  14: 3:56  16Jul2018

   JOB DONE.