     Program PWSCF v.5.1rc2 (svn rev. 11289) starts on  3May2018 at  8:30:34

     Current dimensions of program PWSCF are:
     Max number of different atomic species (ntypx) = 10
     Max number of k-points (npk) =  40000
     Max angular momentum in pseudopotentials (lmaxx) =  3
     Presently stress not available with electric field

     IMPORTANT: XC functional enforced from input :
     Exchange-correlation      = BEEF-VDW ( 1  4 27 13 2)
     Any further DFT definition will be discarded
     Please, verify this is what you really want

     Subspace diagonalization in iterative solution of the eigenvalue problem:
     a serial algorithm will be used

     bravais-lattice index     =            0
     lattice parameter (alat)  =       1.8897  a.u.
     unit-cell volume          =    4569.9960 (a.u.)^3
     number of atoms/cell      =           13
     number of atomic types    =            2
     number of electrons       =       197.00
     number of Kohn-Sham states=          108
     kinetic-energy cutoff     =      36.7493  Ry
     charge density cutoff     =     367.4932  Ry
     convergence threshold     =      1.0E-05
     mixing beta               =       0.3000
     number of iterations used =           10  plain     mixing
     Exchange-correlation      = BEEF-VDW ( 1  4 27 13 2)
     nstep                     =           50

     celldm(1)=   1.889726  celldm(2)=   0.000000  celldm(3)=   0.000000
     celldm(4)=   0.000000  celldm(5)=   0.000000  celldm(6)=   0.000000

     crystal axes: (cart. coord. in units of alat)
               a(1) = (   5.637663   0.000000   0.000000 )
               a(2) = (   2.818831   4.882359   0.000000 )
               a(3) = (   0.000000   0.000000  24.603132 )

     reciprocal axes: (cart. coord. in units 2 pi/alat)
               b(1) = (  0.177378 -0.102410  0.000000 )
               b(2) = (  0.000000  0.204819  0.000000 )
               b(3) = (  0.000000  0.000000  0.040645 )

     PseudoPot. # 1 for Pd read from file:
     /u/if/mamunm/psp/gbrv1.5pbe/Pd.UPF
     MD5 check sum: 2d733d2bc2cbfd217af676df1668a4bc
     Pseudo is Ultrasoft + core correction, Zval = 16.0
     Generated by new atomic code, or converted to UPF format
     Using radial grid of  887 points,  6 beta functions with:
                l(1) =   0
                l(2) =   0
                l(3) =   1
                l(4) =   1
                l(5) =   2
                l(6) =   2
     Q(r) pseudized with  8 coefficients,  rinner =    1.130   1.130   1.130
                                                       1.130   1.130

     PseudoPot. # 2 for N  read from file:
     /u/if/mamunm/psp/gbrv1.5pbe/N.UPF
     MD5 check sum: 95339753478d7afb44899504a8723017
     Pseudo is Ultrasoft + core correction, Zval =  5.0
     Generated by new atomic code, or converted to UPF format
     Using radial grid of  729 points,  4 beta functions with:
                l(1) =   0
                l(2) =   0
                l(3) =   1
                l(4) =   1
     Q(r) pseudized with  8 coefficients,  rinner =    0.900   0.900   0.900

     vdW kernel table read from file vdW_kernel_table
     MD5 check sum: 095c7af220d748ca6e76c0b4c6cfb241

     atomic species   valence    mass     pseudopotential
        Pd1           16.00   106.42000     Pd( 1.00)
        N1             5.00    14.00700     N ( 1.00)

     No symmetry found

   Cartesian axes

     site n.     atom                  positions (alat units)
         1           Pd1 tau(   1) = (   1.4094157   0.8137265  10.0000000  )
         2           Pd1 tau(   2) = (   4.2282471   0.8137265  10.0000000  )
         3           Pd1 tau(   3) = (   2.8188314   3.2549061  10.0000000  )
         4           Pd1 tau(   4) = (   5.6376627   3.2549061  10.0000000  )
         5           Pd1 tau(   5) = (   5.6376627   1.6274531  12.3015662  )
         6           Pd1 tau(   6) = (   2.8188314   1.6274531  12.3015662  )
         7           Pd1 tau(   7) = (   7.0470784   4.0686326  12.3015662  )
         8           Pd1 tau(   8) = (   4.2282471   4.0686326  12.3015662  )
         9           Pd1 tau(   9) = (   0.0000000   0.0000000  14.6031324  )
        10           Pd1 tau(  10) = (   2.8188314   0.0000000  14.6031324  )
        11           Pd1 tau(  11) = (   1.4094157   2.4411796  14.6031324  )
        12           Pd1 tau(  12) = (   4.2282471   2.4411796  14.6031324  )
        13           N1  tau(  13) = (   1.4094157   0.8137265  15.9681324  )

     number of k points=    20  Fermi-Dirac smearing, width (Ry)=  0.0110
                       cart. coord. in units 2pi/alat
        k(    1) = (   0.0000000   0.0000000   0.0000000), wk =   0.0555556
        k(    2) = (   0.0000000   0.0341365   0.0000000), wk =   0.1111111
        k(    3) = (   0.0000000   0.0682730   0.0000000), wk =   0.1111111
        k(    4) = (   0.0000000  -0.1024095   0.0000000), wk =   0.0555556
        k(    5) = (   0.0295631  -0.0170683   0.0000000), wk =   0.1111111
        k(    6) = (   0.0295631   0.0170683   0.0000000), wk =   0.1111111
        k(    7) = (   0.0295631   0.0512048   0.0000000), wk =   0.1111111
        k(    8) = (   0.0295631  -0.1194778   0.0000000), wk =   0.1111111
        k(    9) = (   0.0295631  -0.0853413   0.0000000), wk =   0.1111111
        k(   10) = (   0.0295631  -0.0512048   0.0000000), wk =   0.1111111
        k(   11) = (   0.0591262  -0.0341365   0.0000000), wk =   0.1111111
        k(   12) = (   0.0591262  -0.0000000   0.0000000), wk =   0.1111111
        k(   13) = (   0.0591262   0.0341365   0.0000000), wk =   0.1111111
        k(   14) = (   0.0591262  -0.1365460   0.0000000), wk =   0.1111111
        k(   15) = (   0.0591262  -0.1024095   0.0000000), wk =   0.1111111
        k(   16) = (   0.0591262  -0.0682730   0.0000000), wk =   0.1111111
        k(   17) = (  -0.0886892   0.0512048   0.0000000), wk =   0.0555556
        k(   18) = (  -0.0886892   0.0853413   0.0000000), wk =   0.1111111
        k(   19) = (  -0.0886892   0.1194778   0.0000000), wk =   0.1111111
        k(   20) = (  -0.0886892  -0.0512048   0.0000000), wk =   0.0555556

     Largest allocated arrays     est. size (Mb)     dimensions
     Largest temporary arrays     est. size (Mb)     dimensions

     Initial potential from superposition of free atoms
     Check: negative starting charge=   -0.904172

     starting charge  190.99991, renormalised to  197.00000

     negative rho (up, down):  9.326E-01 0.000E+00

     *
     * You are using vdW-DF for exchange-correlation in this calculation.
     * Please cite the following three references that made this development
     * possible:
     *
     *   M. Dion, H. Rydberg, E. Schroder, D. C. Langreth, and
     *   B. I. Lundqvist, Phys. Rev. Lett. 92, 246401 (2004).
     *
     *   T. Thonhauser, V. R. Cooper, S. Li, A. Puzder, P. Hyldgaard, and
     *   D. C. Langreth, Phys. Rev. B 76, 125112 (2007).
     *
     *   G. Roman-Perez and J. M. Soler, Phys. Rev. Lett. 103, 096102 (2009).
     *
     *
     * If you are using vdW-DF2, please also cite:
     *
     *   K. Lee, E. D. Murray, L. Kong, B. I. Lundqvist, and
     *   D. C. Langreth, Phys. Rev. B 82, 081101(R) (2010).
     *
     *
     * If you are calculating the stress with vdW-DF, please also cite:
     *
     *   R. Sabatini, E. Kucukbenli, B. Kolb, T. Thonhauser, and
     *   S. de Gironcoli, J. Phys.: Condens. Matter 24, 424209 (2012).
     *

     Carrying out vdW-DF run using the following parameters:

     Nqs =      20    Nr_points =    1024   r_max =   100.000
     q_mesh =
               0.00001000     0.04494208     0.09755937     0.15916263
               0.23128650     0.31572767     0.41458969     0.53033537
               0.66584808     0.82450364     1.01025438     1.22772762
               1.48234092     1.78043706     2.12944203     2.53805004
               3.01644009     3.57652955     4.23227104     5.00000000

     Gradients computed in reciprocal space

     Adding external electric field

     Computed dipole along edir(3) :
        Dipole               -1.0882 Ry au,         -2.7661 Debye
        Dipole field         -0.0030 Ry au

        Potential amp.        0.2713 Ry
        Total length         45.3309 bohr

     Starting wfc are  148 randomized atomic wfcs

     Self-consistent Calculation

     iteration #  1     ecut=    36.75 Ry     beta=0.30
     Davidson diagonalization with overlap
     ethr =  1.00E-02,  avg # of iterations =  2.8

[...]

     total energy              =   -2385.41707504 Ry
     Harris-Foulkes estimate   =   -2421.23785971 Ry
     estimated scf accuracy    <      75.84580766 Ry

[...]

     End of self-consistent calculation

          k = 0.0000 0.0000 0.0000 ( 17231 PWs)   bands (ev):

   -49.8575 -49.7271 -49.7264 -49.4538 -49.4531 -49.3823 -49.3570 -49.3002
   -49.2992 -49.2370 -49.2360 -49.2303 -49.1467 -49.1280 -49.1176 -49.1154
   -49.0812 -49.0661 -49.0657 -49.0069 -49.0060 -48.9880 -48.9815 -48.9807
   -48.8248 -48.8243 -48.8087 -48.7613 -48.7613 -48.7563 -48.7562 -48.6862
   -48.6551 -48.6425 -48.6413 -48.6164 -12.9353  -5.0708  -4.2509  -4.0556
    -4.0555  -3.8726  -3.7802  -3.7445  -3.7103  -3.7097  -3.5166  -3.5162
    -3.5137  -3.3452  -3.3451  -3.2998  -2.9044  -2.9042  -2.4915  -2.1650
    -2.1648  -2.0660  -2.0659  -2.0600  -1.9240  -1.8149  -1.8149  -1.6288
    -1.6285  -1.5957  -1.4824  -1.4823  -1.3535  -1.3535  -1.3426  -0.8842
    -0.8837  -0.8565  -0.7068  -0.6770  -0.5208  -0.5206  -0.3145  -0.3144
    -0.2017  -0.2015   0.1419   0.1422   0.2028   0.2882   0.2888   0.3275
     0.3790   0.4021   0.4028   0.5331   0.5333   0.6482   0.6491   0.6664
     0.7450   0.8629   0.8634   0.8705   1.1761   1.1764   1.3019   2.7031
     3.1238   3.1239   3.4105   4.2775

[...]

          k =-0.0887 0.0512 0.0000 ( 17240 PWs)   bands (ev):

[...]

     the Fermi energy is     0.6436 ev

!    total energy              =   -2417.60208434 Ry
     Harris-Foulkes estimate   =   -2417.60210539 Ry
     estimated scf accuracy    <       0.00000700 Ry

     The total energy is the sum of the following terms:

     one-electron contribution =  -20646.80149310 Ry
     hartree contribution      =   10372.09932068 Ry
     xc contribution           =    -395.36914264 Ry
     ewald contribution        =    8252.57599939 Ry
     electric field correction =       0.00018603 Ry
     smearing contrib. (-TS)   =      -0.10695470 Ry

     convergence has been achieved in  18 iterations

 BEEF-vdW xc energy contributions
           1 :   -344.133264547465
           2 :    314.351826571421
           3 :   -263.583522115982
           4 :    205.502702170044
           5 :   -153.306736701989
           6 :    115.387341010434
           7 :   -93.5383658719729
           8 :    83.9777210708979
           9 :   -80.3106130370290
          10 :    76.8460963119186
          11 :   -70.7747296203138
          12 :    62.4676504974593
          13 :   -54.1809379790791
          14 :    48.1680682530160
          15 :   -45.3001119294286
          16 :    44.7848966245873
          17 :   -44.8879530095805
          18 :    44.0508605953451
          19 :   -41.7071418736062
          20 :    38.3870807307338
          21 :   -35.1821840669254
          22 :    32.9866922022637
          23 :   -31.9927951531239
          24 :    31.6871113549531
          25 :   -31.2684815952265
          26 :    30.1742828773776
          27 :   -28.3881187136051
          28 :    26.3699954212104
          29 :   -24.6990639233295
          30 :    23.6852795453891
          31 :   -33.6190675560271
          32 :   -24.8173415221455

     Forces acting on atoms (Ry/au):

     negative rho (up, down):  9.425E-01 0.000E+00
     atom    1 type  1   force =     0.00006720    0.00010031    0.00059788
     atom    2 type  1   force =    -0.00006966    0.00271653   -0.00240198
     atom    3 type  1   force =     0.00226585   -0.00145282   -0.00244145
     atom    4 type  1   force =    -0.00227270   -0.00137236   -0.00253869
     atom    5 type  1   force =    -0.00302100    0.00171380   -0.00673028
     atom    6 type  1   force =     0.00303151    0.00174068   -0.00672540
     atom    7 type  1   force =     0.00001322    0.00001682    0.01095411
     atom    8 type  1   force =    -0.00001726   -0.00347278   -0.00670941
     atom    9 type  1   force =     0.02714935    0.01574000    0.04494949
     atom   10 type  1   force =    -0.02717031    0.01584549    0.04489264
     atom   11 type  1   force =     0.00007396   -0.03149700    0.04484372
     atom   12 type  1   force =    -0.00007043   -0.00010896    0.00059575
     atom   13 type  2   force =     0.00002027    0.00003028   -0.11928638

     Total force =     0.152455     Total SCF correction =     0.002468

     entering subroutine stress ...

     negative rho (up, down):  9.425E-01 0.000E+00
          total   stress  (Ry/bohr**3)                   (kbar)     P=  -13.47
  -0.00010789   0.00000001  -0.00000001        -15.87      0.00     -0.00
   0.00000001  -0.00010792  -0.00000002          0.00    -15.88     -0.00
  -0.00000001  -0.00000002  -0.00005898         -0.00     -0.00     -8.68

     BFGS Geometry Optimization

     number of scf cycles    =   1
     number of bfgs steps    =   0

     energy   new            =   -2417.6020843427 Ry

     new trust radius        =       0.1192863839 bohr
     new conv_thr            =       0.0000099958 Ry

ATOMIC_POSITIONS (crystal)
Pd1      0.166666667   0.166666667   0.406452311    0   0   0
Pd1      0.666666667   0.166666667   0.406452311    0   0   0
Pd1      0.166666667   0.666666667   0.406452311    0   0   0
Pd1      0.666666667   0.666666667   0.406452311    0   0   0
Pd1      0.833333333   0.333333333   0.500000000    0   0   0
Pd1      0.333333333   0.333333333   0.500000000    0   0   0
Pd1      0.833333333   0.833333333   0.500000000    0   0   0
Pd1      0.333333333   0.833333333   0.500000000    0   0   0
Pd1      0.001695370   0.001705989   0.594514487
Pd1      0.496590957   0.001717422   0.594513264
Pd1      0.001713852   0.496586180   0.594512212
Pd1      0.499999294   0.499988190   0.593560503
N1       0.166666928   0.166669949   0.646462755

     Writing output data file calc.save
     Check: negative starting charge=   -0.904172
     NEW-OLD atomic charge density approx. for the potential
     Check: negative starting charge=   -0.905117

[...]

     energy   old            =   -2417.6020843427 Ry
     energy   new            =   -2417.6223844637 Ry

     CASE: energy  _new < energy  _old

[...]

     Total force =     0.005573     Total SCF correction =     0.000674
     SCF correction compared to forces is large: reduce conv_thr to get better values

[...]

     WARNING: bfgs curvature condition failed, Theta= 0.952
     new trust radius        =       0.0078397000 bohr
     new conv_thr            =       0.0000001000 Ry

[...]

     Total force =     0.004867     Total SCF correction =     0.000466

[...]

     number of scf cycles    =  10
     number of bfgs steps    =   9

     energy   old            =   -2417.6457181780 Ry
     energy   new            =   -2417.6457874712 Ry

     CASE: energy  _new < energy  _old

     new trust radius        =       0.0176393250 bohr
     new conv_thr            =       0.0000001000 Ry

ATOMIC_POSITIONS (crystal)
Pd1      0.166666667   0.166666667   0.406452311    0   0   0
Pd1      0.666666667   0.166666667   0.406452311    0   0   0
Pd1      0.166666667   0.666666667   0.406452311    0   0   0
Pd1      0.666666667   0.666666667   0.406452311    0   0   0
Pd1      0.833333333   0.333333333   0.500000000    0   0   0
Pd1      0.333333333   0.333333333   0.500000000    0   0   0
Pd1      0.833333333   0.833333333   0.500000000    0   0   0
Pd1      0.333333333   0.833333333   0.500000000    0   0   0
Pd1     -0.002038142  -0.002034230   0.596614719
Pd1      0.504073927  -0.002037358   0.596614471
Pd1     -0.002038084   0.504071246   0.596613495
Pd1      0.500003508   0.499998222   0.593019499
N1       0.166664850   0.166672765   0.637193051

     Writing output data file calc.save
     Check: negative starting charge=   -0.902968
     NEW-OLD atomic charge density approx. for the potential
     Check: negative starting charge=   -0.904085

[...]

     Self-consistent Calculation

[...]

     total energy              =   -2417.64587066 Ry
     Harris-Foulkes estimate   =   -2417.64587067 Ry
     estimated scf accuracy    <       0.00000016 Ry

     iteration # 12     ecut=    36.75 Ry     beta=0.30
     Davidson diagonalization with overlap
     ethr =  8.08E-11,  avg # of iterations =  1.0

[...]

     negative rho (up, down):  9.437E-01 0.000E+00

     Adding external electric field

     Computed dipole along edir(3) :
        Dipole               -0.1173 Ry au,         -0.2981 Debye
        Dipole field         -0.0003 Ry au

        Potential amp.        0.0292 Ry
        Total length         45.3309 bohr

     End of self-consistent calculation

[...]

          k = 0.0591-0.0683 0.0000 ( 17183 PWs)   bands (ev):

[...]

          k =-0.0887-0.0512 0.0000 ( 17240 PWs)   bands (ev):

   -50.0564 -49.9986 -49.9451 -49.4651 -49.4456 -49.4122 -49.3402 -49.3199
   -49.2942 -48.9878 -48.9674 -48.9412 -48.9218 -48.9017 -48.8927 -48.8872
   -48.8689 -48.8630 -48.8537 -48.8242 -48.7946 -48.7334 -48.7282 -48.6783
   -48.6553 -48.6508 -48.6383 -48.5776 -48.5736 -48.5541 -48.5463 -48.4775
   -48.4322 -48.4263 -48.4210 -48.4184 -14.1136  -5.1180  -4.6026  -4.1072
    -3.5504  -3.4366  -3.1238  -3.0421  -2.9899  -2.8534  -2.7793  -2.7688
    -2.6758  -2.5870  -2.5647  -2.5578  -2.4742  -2.3925  -2.3497  -2.2984
    -2.0766  -2.0252  -1.9842  -1.9301  -1.8803  -1.7854  -1.7712  -1.7502
    -1.6566  -1.4848  -1.4580  -1.3297  -1.2836  -1.2199  -1.1365  -1.0594
    -1.0277  -0.9990  -0.9794  -0.9271  -0.8809  -0.8083  -0.7580  -0.7502
    -0.6598  -0.5997  -0.5484  -0.5404  -0.4480  -0.3668  -0.2993  -0.2399
    -0.1844  -0.0108   0.0246   0.0331   0.1217   0.1275   0.3454   0.5200
     0.5781   0.6577   0.7629   0.8043   0.8559   1.4001   1.5519   2.4683
     3.2631   3.4347   3.7522   3.8675

     the Fermi energy is     0.8484 ev

!    total energy              =   -2417.64587060 Ry
     Harris-Foulkes estimate   =   -2417.64587167 Ry
     estimated scf accuracy    <       0.00000007 Ry

     The total energy is the sum of the following terms:

     one-electron contribution =  -20593.64611316 Ry
     hartree contribution      =   10346.25689691 Ry
     xc contribution           =    -395.54336911 Ry
     ewald contribution        =    8225.38593569 Ry
     electric field correction =       0.00003782 Ry
     smearing contrib. (-TS)   =      -0.09925875 Ry

     convergence has been achieved in  12 iterations

 BEEF-vdW xc energy contributions
           1 :   -344.315793431444
           2 :    314.589320833505
           3 :   -263.878761010476
           4 :    205.808387782218
           5 :   -153.558089772011
           6 :    115.529490837670
           7 :   -93.5428249967752
           8 :    83.8503136223417
           9 :   -80.0916211661465
          10 :    76.6011173509347
          11 :   -70.5743301261601
          12 :    62.3619307405594
          13 :   -54.1813536396263
          14 :    48.2440118883120
          15 :   -45.3920330343706
          16 :    44.8318983626122
          17 :   -44.8584918358030
          18 :    43.9597012451570
          19 :   -41.6081094689287
          20 :    38.3425761353881
          21 :   -35.2250638425897
          22 :    33.0975333147238
          23 :   -32.1062695733967
          24 :    31.7255212021723
          25 :   -31.1853156949330
          26 :    29.9827703852042
          27 :   -28.1567832028155
          28 :    26.1873564487574
          29 :   -24.6280656224546
          30 :    23.7320030553286
          31 :   -33.6293964684237
          32 :   -24.8380426447622

     Forces acting on atoms (Ry/au):

     negative rho (up, down):  9.437E-01 0.000E+00
     atom    1 type  1   force =     0.00000042   -0.00000775    0.00078299
     atom    2 type  1   force =    -0.00000051    0.00137210   -0.00269967
     atom    3 type  1   force =     0.00119541   -0.00068240   -0.00269892
     atom    4 type  1   force =    -0.00119505   -0.00068187   -0.00269910
     atom    5 type  1   force =    -0.00086891    0.00050370   -0.00241799
     atom    6 type  1   force =     0.00086894    0.00050510   -0.00241751
     atom    7 type  1   force =     0.00000105   -0.00000218    0.01929556
     atom    8 type  1   force =    -0.00000094   -0.00100718   -0.00241871
     atom    9 type  1   force =     0.00024799    0.00012756   -0.00152143
     atom   10 type  1   force =    -0.00024758    0.00013688   -0.00152281
     atom   11 type  1   force =     0.00000847   -0.00026104   -0.00151899
     atom   12 type  1   force =    -0.00000816    0.00001299    0.00008950
     atom   13 type  2   force =    -0.00000114   -0.00001591   -0.00025292

     Total force =     0.002691     Total SCF correction =     0.000751
     SCF correction compared to forces is large: reduce conv_thr to get better values

     entering subroutine stress ...

     negative rho (up, down):  9.437E-01 0.000E+00
          total   stress  (Ry/bohr**3)                   (kbar)     P=   -6.64
  -0.00006047  -0.00000000   0.00000000         -8.90     -0.00      0.00
  -0.00000000  -0.00006046  -0.00000000         -0.00     -8.89     -0.00
   0.00000000  -0.00000000  -0.00001453          0.00     -0.00     -2.14

     bfgs converged in  11 scf cycles and  10 bfgs steps
     (criteria: energy <  1.0E+00, force <  1.9E-03)

     End of BFGS Geometry Optimization

     Final energy   =   -2417.6458706027 Ry
Begin final coordinates

ATOMIC_POSITIONS (crystal)
Pd1      0.166666667   0.166666667   0.406452311    0   0   0
Pd1      0.666666667   0.166666667   0.406452311    0   0   0
Pd1      0.166666667   0.666666667   0.406452311    0   0   0
Pd1      0.666666667   0.666666667   0.406452311    0   0   0
Pd1      0.833333333   0.333333333   0.500000000    0   0   0
Pd1      0.333333333   0.333333333   0.500000000    0   0   0
Pd1      0.833333333   0.833333333   0.500000000    0   0   0
Pd1      0.333333333   0.833333333   0.500000000    0   0   0
Pd1     -0.002038142  -0.002034230   0.596614719
Pd1      0.504073927  -0.002037358   0.596614471
Pd1     -0.002038084   0.504071246   0.596613495
Pd1      0.500003508   0.499998222   0.593019499
N1       0.166664850   0.166672765   0.637193051
End final coordinates

     Writing output data file calc.save

     General routines

     Parallel routines

   This run was terminated on:   9:37:48   3May2018

   JOB DONE.
Job  /afs/slac/g/suncat/bin/suncat-tsmpirun -x LD_LIBRARY_PATH -wdir /scratch/qe684262_2AMzG pw.x -npool 4 -in pw.inp

TID   HOST_NAME   COMMAND_LINE            STATUS            TERMINATION_TIME
00000 suncat0182 pw.x -npool 4 -i  Done                     05/03/2018 09:37:48
00001 suncat0182 pw.x -npool 4 -i  Done                     05/03/2018 09:37:48
00002 suncat0182 pw.x -npool 4 -i  Done                     05/03/2018 09:37:48
00003 suncat0182 pw.x -npool 4 -i  Done                     05/03/2018 09:37:48
00004 suncat0182 pw.x -npool 4 -i  Done                     05/03/2018 09:37:48
00005 suncat0182 pw.x -npool 4 -i  Done                     05/03/2018 09:37:48
00006 suncat0182 pw.x -npool 4 -i  Done                     05/03/2018 09:37:48
00007 suncat0182 pw.x -npool 4 -i  Done                     05/03/2018 09:37:48
00008 suncat0173 pw.x -npool 4 -i  Done                     05/03/2018 09:37:48
00009 suncat0173 pw.x -npool 4 -i  Done                     05/03/2018 09:37:48
00010 suncat0173 pw.x -npool 4 -i  Done                     05/03/2018 09:37:48
00011 suncat0173 pw.x -npool 4 -i  Done                     05/03/2018 09:37:48
00012 suncat0173 pw.x -npool 4 -i  Done                     05/03/2018 09:37:48
00013 suncat0173 pw.x -npool 4 -i  Done                     05/03/2018 09:37:48
00014 suncat0173 pw.x -npool 4 -i  Done                     05/03/2018 09:37:48
00015 suncat0173 pw.x -npool 4 -i  Done                     05/03/2018 09:37:48
00016 suncat0244 pw.x -npool 4 -i  Done                     05/03/2018 09:37:48
00017 suncat0244 pw.x -npool 4 -i  Done                     05/03/2018 09:37:48
00018 suncat0244 pw.x -npool 4 -i  Done                     05/03/2018 09:37:48
00019 suncat0244 pw.x -npool 4 -i  Done                     05/03/2018 09:37:48
00020 suncat0244 pw.x -npool 4 -i  Done                     05/03/2018 09:37:48
00021 suncat0244 pw.x -npool 4 -i  Done                     05/03/2018 09:37:48
00022 suncat0244 pw.x -npool 4 -i  Done                     05/03/2018 09:37:48
00023 suncat0244 pw.x -npool 4 -i  Done                     05/03/2018 09:37:48
00024 suncat0243 pw.x -npool 4 -i  Done                     05/03/2018 09:37:48
00025 suncat0243 pw.x -npool 4 -i  Done                     05/03/2018 09:37:48
00026 suncat0243 pw.x -npool 4 -i  Done                     05/03/2018 09:37:48
00027 suncat0243 pw.x -npool 4 -i  Done                     05/03/2018 09:37:48
00028 suncat0243 pw.x -npool 4 -i  Done                     05/03/2018 09:37:48
00029 suncat0243 pw.x -npool 4 -i  Done                     05/03/2018 09:37:48
00030 suncat0243 pw.x -npool 4 -i  Done                     05/03/2018 09:37:48
00031 suncat0243 pw.x -npool 4 -i  Done                     05/03/2018 09:37:48