     Program PWSCF v.5.1rc2 (svn rev. 11289) starts on  2May2018 at 16: 0:23

     Current dimensions of program PWSCF are:
     Max number of different atomic species (ntypx) = 10
     Max number of k-points (npk) =  40000
     Max angular momentum in pseudopotentials (lmaxx) =  3
     Presently stress not available with electric field

     IMPORTANT: XC functional enforced from input :
     Exchange-correlation      = BEEF-VDW ( 1  4 27 13 2)
     Any further DFT definition will be discarded
     Please, verify this is what you really want

     Subspace diagonalization in iterative solution of the eigenvalue problem:
     a serial algorithm will be used

     bravais-lattice index     =            0
     lattice parameter (alat)  =       1.8897  a.u.
     unit-cell volume          =    4301.6107 (a.u.)^3
     number of atoms/cell      =           13
     number of atomic types    =            2
     number of electrons       =       184.00
     number of Kohn-Sham states=          102
     kinetic-energy cutoff     =      36.7493  Ry
     charge density cutoff     =     367.4932  Ry
     convergence threshold     =      1.0E-05
     mixing beta               =       0.3000
     number of iterations used =           10  plain     mixing
     Exchange-correlation      = BEEF-VDW ( 1  4 27 13 2)
     nstep                     =           50

     celldm(1)=   1.889726  celldm(2)=   0.000000  celldm(3)=   0.000000
     celldm(4)=   0.000000  celldm(5)=   0.000000  celldm(6)=   0.000000

     crystal axes: (cart. coord. in units of alat)
               a(1) = (   5.483647   0.000000   0.000000 )
               a(2) = (   2.741823   4.748977   0.000000 )
               a(3) = (   0.000000   0.000000  24.477379 )

     reciprocal axes: (cart. coord. in units 2 pi/alat)
               b(1) = (  0.182360 -0.105286  0.000000 )
               b(2) = (  0.000000  0.210572  0.000000 )
               b(3) = (  0.000000  0.000000  0.040854 )

     PseudoPot. # 1 for Tc read from file:
     /u/if/mamunm/psp/gbrv1.5pbe/Tc.UPF
     MD5 check sum: 9eb49e5b028550b2339a02317eb7b844
     Pseudo is Ultrasoft + core correction, Zval = 15.0
     Generated by new atomic code, or converted to UPF format
     Using radial grid of  965 points,  6 beta functions with:
                l(1) =   0
                l(2) =   0
                l(3) =   1
                l(4) =   1
                l(5) =   2
                l(6) =   2
     Q(r) pseudized with  8 coefficients,  rinner =    1.300   1.300   1.300
                                                       1.300   1.300

     PseudoPot. # 2 for C  read from file:
     /u/if/mamunm/psp/gbrv1.5pbe/C.UPF
     MD5 check sum: d1aef80898a10debaa0f26306b886e00
     Pseudo is Ultrasoft + core correction, Zval =  4.0
     Generated by new atomic code, or converted to UPF format
     Using radial grid of  721 points,  4 beta functions with:
                l(1) =   0
                l(2) =   0
                l(3) =   1
                l(4) =   1
     Q(r) pseudized with  8 coefficients,  rinner =    1.100   1.100   1.100

     vdW kernel table read from file vdW_kernel_table
     MD5 check sum: 095c7af220d748ca6e76c0b4c6cfb241

     atomic species   valence    mass     pseudopotential
        Tc1           15.00    97.90721     Tc( 1.00)
        C1             4.00    12.01100     C ( 1.00)

     No symmetry found

   Cartesian axes

     site n.     atom                  positions (alat units)
         1           Tc1 tau(   1) = (   1.3709117   0.7914962  10.0000000  )
         2           Tc1 tau(   2) = (   4.1127351   0.7914962  10.0000000  )
         3           Tc1 tau(   3) = (   2.7418234   3.1659850  10.0000000  )
         4           Tc1 tau(   4) = (   5.4836469   3.1659850  10.0000000  )
         5           Tc1 tau(   5) = (   5.4836469   1.5829925  12.2386895  )
         6           Tc1 tau(   6) = (   2.7418234   1.5829925  12.2386895  )
         7           Tc1 tau(   7) = (   6.8545586   3.9574812  12.2386895  )
         8           Tc1 tau(   8) = (   4.1127351   3.9574812  12.2386895  )
         9           Tc1 tau(   9) = (   0.0000000   0.0000000  14.4773789  )
        10           Tc1 tau(  10) = (   2.7418234   0.0000000  14.4773789  )
        11           Tc1 tau(  11) = (   1.3709117   2.3744887  14.4773789  )
        12           Tc1 tau(  12) = (   4.1127351   2.3744887  14.4773789  )
        13           C1  tau(  13) = (   1.3709117   0.7914962  15.9268789  )

     number of k points=    20  Fermi-Dirac smearing, width (Ry)=  0.0110
                       cart. coord. in units 2pi/alat
        k(    1) = (   0.0000000   0.0000000   0.0000000), wk =   0.0555556
        k(    2) = (   0.0000000   0.0350953   0.0000000), wk =   0.1111111
        k(    3) = (   0.0000000   0.0701905   0.0000000), wk =   0.1111111
        k(    4) = (   0.0000000  -0.1052858   0.0000000), wk =   0.0555556
        k(    5) = (   0.0303934  -0.0175476   0.0000000), wk =   0.1111111
        k(    6) = (   0.0303934   0.0175476   0.0000000), wk =   0.1111111
        k(    7) = (   0.0303934   0.0526429   0.0000000), wk =   0.1111111
        k(    8) = (   0.0303934  -0.1228335   0.0000000), wk =   0.1111111
        k(    9) = (   0.0303934  -0.0877382   0.0000000), wk =   0.1111111
        k(   10) = (   0.0303934  -0.0526429   0.0000000), wk =   0.1111111
        k(   11) = (   0.0607868  -0.0350953   0.0000000), wk =   0.1111111
        k(   12) = (   0.0607868   0.0000000   0.0000000), wk =   0.1111111
        k(   13) = (   0.0607868   0.0350953   0.0000000), wk =   0.1111111
        k(   14) = (   0.0607868  -0.1403811   0.0000000), wk =   0.1111111
        k(   15) = (   0.0607868  -0.1052858   0.0000000), wk =   0.1111111
        k(   16) = (   0.0607868  -0.0701905   0.0000000), wk =   0.1111111
        k(   17) = (  -0.0911802   0.0526429   0.0000000), wk =   0.0555556
        k(   18) = (  -0.0911802   0.0877382   0.0000000), wk =   0.1111111
        k(   19) = (  -0.0911802   0.1228335   0.0000000), wk =   0.1111111
        k(   20) = (  -0.0911802  -0.0526429   0.0000000), wk =   0.0555556

     Largest allocated arrays     est. size (Mb)     dimensions
     Largest temporary arrays     est. size (Mb)     dimensions

     Check: negative/imaginary core charge=   -0.000022    0.000000

     Initial potential from superposition of free atoms
     Check: negative starting charge=   -1.504774

     starting charge  171.99963, renormalised to  184.00000

     negative rho (up, down):  1.610E+00 0.000E+00

     *
     * You are using vdW-DF for exchange-correlation in this calculation.
     * Please cite the following three references that made this development
     * possible:
     *
     *   M. Dion, H. Rydberg, E. Schroder, D. C. Langreth, and
     *   B. I. Lundqvist, Phys. Rev. Lett. 92, 246401 (2004).
     *
     *   T. Thonhauser, V. R. Cooper, S. Li, A. Puzder, P. Hyldgaard, and
     *   D. C. Langreth, Phys. Rev. B 76, 125112 (2007).
     *
     *   G. Roman-Perez and J. M. Soler, Phys. Rev. Lett. 103, 096102 (2009).
     *
     *
     * If you are using vdW-DF2, please also cite:
     *
     *   K. Lee, E. D. Murray, L. Kong, B. I. Lundqvist, and
     *   D. C. Langreth, Phys. Rev. B 82, 081101(R) (2010).
     *
     *
     * If you are calculating the stress with vdW-DF, please also cite:
     *
     *   R. Sabatini, E. Kucukbenli, B. Kolb, T. Thonhauser, and
     *   S. de Gironcoli, J. Phys.: Condens. Matter 24, 424209 (2012).
     *

     Carrying out vdW-DF run using the following parameters:

     Nqs =      20    Nr_points =    1024   r_max =   100.000
     q_mesh =
               0.00001000     0.04494208     0.09755937     0.15916263
               0.23128650     0.31572767     0.41458969     0.53033537
               0.66584808     0.82450364     1.01025438     1.22772762
               1.48234092     1.78043706     2.12944203     2.53805004
               3.01644009     3.57652955     4.23227104     5.00000000

     Gradients computed in reciprocal space

     Adding external electric field

     Computed dipole along edir(3) :
        Dipole               -1.9448 Ry au,         -4.9432 Debye
        Dipole field         -0.0057 Ry au

        Potential amp.        0.5124 Ry
        Total length         45.0992 bohr

     Starting wfc are  160 randomized atomic wfcs

     Self-consistent Calculation

     iteration #  1     ecut=    36.75 Ry     beta=0.30
     Davidson diagonalization with overlap
     ethr =  1.00E-02,  avg # of iterations =  3.4

[...]

     total energy              =   -2043.70609042 Ry
     Harris-Foulkes estimate   =   -2118.28275390 Ry
     estimated scf accuracy    <     156.00882457 Ry

[...]

     End of self-consistent calculation

          k = 0.0000 0.0000 0.0000 ( 16073 PWs)   bands (ev):

   -65.0609 -64.9169 -64.9031 -64.9028 -64.8953 -64.8087 -64.8078 -64.7958
   -64.7525 -64.6735 -64.6729 -64.6725 -37.4970 -37.4941 -37.4939 -37.4231
   -37.3711 -37.3516 -37.3512 -37.2094 -37.2049 -37.2049 -36.8961 -36.8601
   -36.8598 -36.8351 -36.7778 -36.7778 -36.7697 -36.7647 -36.7646 -36.7591
   -36.6126 -36.6125 -36.6044 -36.5980 -36.5852 -36.5848 -36.5355 -36.5330
   -36.5330 -36.4683 -36.4639 -36.4637 -36.3916 -36.3915 -36.2683 -36.2683
    -7.6637  -4.1789  -3.0535  -3.0535  -3.0154  -2.8849  -2.7872  -2.6217
    -2.6216  -2.5238  -2.3752  -2.3751  -2.2347  -2.1081  -2.1081  -2.0977
    -1.0635  -1.0635  -0.7750  -0.1392  -0.1392   0.0076   0.2291   0.2733
     0.2735   0.5380   0.5380   0.5500   0.8735   0.8736   0.9317   1.0412
     1.0412   1.2255   1.2256   1.4917   1.8446   1.8447   1.9242   2.5567
     2.5578   2.5811   2.5811   2.9160   2.9161   3.1666   3.1668   3.4742
     3.4742   3.7044   3.9630   4.1473   4.1474   4.2541

[...]

          k =-0.0912 0.0526 0.0000 ( 16164 PWs)   bands (ev):

[...]

     the Fermi energy is     2.2100 ev

!    total energy              =   -2114.83448305 Ry
     Harris-Foulkes estimate   =   -2114.83449205 Ry
     estimated scf accuracy    <       0.00000131 Ry

     The total energy is the sum of the following terms:

     one-electron contribution =  -18970.10477759 Ry
     hartree contribution      =    9483.84007731 Ry
     xc contribution           =    -400.46118419 Ry
     ewald contribution        =    7771.98124734 Ry
     electric field correction =       0.00013825 Ry
     smearing contrib. (-TS)   =      -0.08998416 Ry

     convergence has been achieved in  25 iterations

 BEEF-vdW xc energy contributions
           1 :   -350.829362547964
           2 :    322.617054523978
           3 :   -272.426358406181
           4 :    210.312319691140
           5 :   -147.019951831118
           6 :    91.0171989406881
           7 :   -46.8367844243546
           8 :    14.9552351267789
           9 :    6.95952498130214
          10 :   -22.2064846795266
          11 :    33.3720197823612
          12 :   -41.4640844804089
          13 :    45.9816945100297
          14 :   -45.7262143923691
          15 :    39.8505846340120
          16 :   -28.6733373438254
          17 :    13.9129507074565
          18 :    1.69961149211457
          19 :   -15.2406239746753
          20 :    24.4640228892863
          21 :   -28.3782545016039
          22 :    27.3186586523900
          23 :   -22.5593317120841
          24 :    15.6853695778695
          25 :   -8.03366933844109
          26 :   0.420771240382919
          27 :    6.78490648064559
          28 :   -13.3746758239442
          29 :    19.0006187442877
          30 :   -23.0532693418461
          31 :   -33.4633370170629
          32 :   -24.5835313365517

     Forces acting on atoms (Ry/au):

     negative rho (up, down):  1.591E+00 0.000E+00
     atom    1 type  1   force =    -0.00000188   -0.00001542    0.02841428
     atom    2 type  1   force =     0.00000346   -0.00118034    0.03028780
     atom    3 type  1   force =    -0.00101484    0.00060216    0.03030128
     atom    4 type  1   force =     0.00101114    0.00059480    0.03031284
     atom    5 type  1   force =    -0.00101285    0.00051385   -0.00203438
     atom    6 type  1   force =     0.00102756    0.00058826   -0.00211206
     atom    7 type  1   force =     0.00004229    0.00003362   -0.04715996
     atom    8 type  1   force =    -0.00005925   -0.00114192   -0.00206129
     atom    9 type  1   force =     0.01247455    0.00719335    0.04284571
     atom   10 type  1   force =    -0.01245169    0.00718537    0.04284580
     atom   11 type  1   force =     0.00000037   -0.01438160    0.04288324
     atom   12 type  1   force =    -0.00000572    0.00000954   -0.05042199
     atom   13 type  2   force =    -0.00001313   -0.00000167   -0.14410129

     Total force =     0.171578     Total SCF correction =     0.001275

     entering subroutine stress ...

     negative rho (up, down):  1.591E+00 0.000E+00
          total   stress  (Ry/bohr**3)                   (kbar)     P=  -35.48
  -0.00021648  -0.00000002  -0.00000003        -31.85     -0.00     -0.00
  -0.00000002  -0.00021645  -0.00000002         -0.00    -31.84     -0.00
  -0.00000003  -0.00000002  -0.00029072         -0.00     -0.00    -42.77

     BFGS Geometry Optimization

     number of scf cycles    =   1
     number of bfgs steps    =   0

     energy   new            =   -2114.8344830472 Ry

     new trust radius        =       0.1441012933 bohr
     new conv_thr            =       0.0000099958 Ry

ATOMIC_POSITIONS (crystal)
Tc1      0.166666667   0.166666667   0.408540475    0   0   0
Tc1      0.666666667   0.166666667   0.408540475    0   0   0
Tc1      0.166666667   0.666666667   0.408540475    0   0   0
Tc1      0.666666667   0.666666667   0.408540475    0   0   0
Tc1      0.833333333   0.333333333   0.500000000    0   0   0
Tc1      0.333333333   0.333333333   0.500000000    0   0   0
Tc1      0.833333333   0.833333333   0.500000000    0   0   0
Tc1      0.333333333   0.833333333   0.500000000    0   0   0
Tc1      0.000803029   0.000801553   0.592385808
Tc1      0.498398068   0.000800664   0.592385810
Tc1      0.000801304   0.498397463   0.592386619
Tc1      0.499998916   0.500001063   0.590369451
C1       0.166665493   0.166666481   0.647562137

     Writing output data file calc.save
     Check: negative starting charge=   -1.504774
     NEW-OLD atomic charge density approx. for the potential

     Check: negative/imaginary core charge=   -0.000022    0.000000
     Check: negative starting charge=   -1.508120

[...]

     energy   old            =   -2114.8344830472 Ry
     energy   new            =   -2114.8603091824 Ry

     CASE: energy  _new < energy  _old

[...]

     iteration #  1     ecut=    36.75 Ry     beta=0.30
     Davidson diagonalization with overlap
     c_bands:  1 eigenvalues not converged
     ethr =  1.00E-06,  avg # of iterations = 13.8

[...]

     Total force =     0.014456     Total SCF correction =     0.001560
     SCF correction compared to forces is large: reduce conv_thr to get better values

[...]

     Threshold (ethr) on eigenvalues was too large:
     Diagonalizing with lowered threshold

     Davidson diagonalization with overlap
     ethr =  6.30E-08,  avg # of iterations =  2.0

[...]

     Total force =     0.004602     Total SCF correction =     0.000717
     SCF correction compared to forces is large: reduce conv_thr to get better values

[...]

     number of scf cycles    =  12
     number of bfgs steps    =  11

     energy   old            =   -2114.8945356912 Ry
     energy   new            =   -2114.8945793659 Ry

     CASE: energy  _new < energy  _old

     new trust radius        =       0.0117458297 bohr
     new conv_thr            =       0.0000001000 Ry

ATOMIC_POSITIONS (crystal)
Tc1      0.166666667   0.166666667   0.408540475    0   0   0
Tc1      0.666666667   0.166666667   0.408540475    0   0   0
Tc1      0.166666667   0.666666667   0.408540475    0   0   0
Tc1      0.666666667   0.666666667   0.408540475    0   0   0
Tc1      0.833333333   0.333333333   0.500000000    0   0   0
Tc1      0.333333333   0.333333333   0.500000000    0   0   0
Tc1      0.833333333   0.833333333   0.500000000    0   0   0
Tc1      0.333333333   0.833333333   0.500000000    0   0   0
Tc1     -0.003120369  -0.003118336   0.592029724
Tc1      0.506238932  -0.003120552   0.592029930
Tc1     -0.003122192   0.506238961   0.592029941
Tc1      0.500001311   0.499999327   0.583936965
C1       0.166666817   0.166667084   0.637276666

     Writing output data file calc.save
     Check: negative starting charge=   -1.503883
     NEW-OLD atomic charge density approx. for the potential

     Check: negative/imaginary core charge=   -0.000022    0.000000
     Check: negative starting charge=   -1.503307

[...]

     Self-consistent Calculation

[...]

     total energy              =   -2114.89461314 Ry
     Harris-Foulkes estimate   =   -2114.89461316 Ry
     estimated scf accuracy    <       0.00000012 Ry

     iteration # 12     ecut=    36.75 Ry     beta=0.30
     Davidson diagonalization with overlap
     ethr =  6.50E-11,  avg # of iterations =  3.4

[...]

     negative rho (up, down):  1.589E+00 0.000E+00

     Adding external electric field

     Computed dipole along edir(3) :
        Dipole               -0.1268 Ry au,         -0.3223 Debye
        Dipole field         -0.0004 Ry au

        Potential amp.        0.0334 Ry
        Total length         45.0992 bohr

     End of self-consistent calculation

[...]

          k = 0.0608-0.0702 0.0000 ( 16203 PWs)   bands (ev):

[...]

          k =-0.0912-0.0526 0.0000 ( 16164 PWs)   bands (ev):

   -64.8921 -64.8733 -64.8047 -64.7868 -64.7537 -64.7325 -64.6942 -64.6535
   -64.6094 -64.5881 -64.5384 -64.5258 -37.2943 -37.2596 -37.2192 -37.1681
   -37.1519 -37.1503 -37.0226 -37.0100 -36.9684 -36.9231 -36.9168 -36.8918
   -36.8089 -36.7649 -36.7603 -36.6821 -36.6705 -36.6491 -36.6479 -36.6144
   -36.5929 -36.5924 -36.5674 -36.5581 -36.5413 -36.5336 -36.5074 -36.5052
   -36.4400 -36.4313 -36.4118 -36.4020 -36.3632 -36.3463 -36.2425 -36.2222
    -8.1297  -2.8892  -2.6150  -2.3261  -2.0592  -1.9887  -1.9556  -1.7811
    -1.6644  -1.6061  -1.5435  -1.4591  -1.2920  -1.1283  -1.0643  -1.0416
    -1.0078  -0.8597  -0.6454  -0.4269  -0.3945  -0.2619  -0.1668  -0.1466
    -0.1153   0.1010   0.3652   0.4900   0.6208   0.6512   0.9163   0.9733
     0.9789   0.9846   1.1062   1.1630   1.1818   1.2678   1.3515   1.3706
     1.4184   1.9992   2.1052   2.1238   2.1975   2.2648   2.3718   2.5501
     2.6785   2.7794   2.8786   3.0056   3.0286   3.0447

     the Fermi energy is     2.3395 ev

!    total energy              =   -2114.89461313 Ry
     Harris-Foulkes estimate   =   -2114.89461337 Ry
     estimated scf accuracy    <       0.00000002 Ry

     The total energy is the sum of the following terms:

     one-electron contribution =  -19141.38956536 Ry
     hartree contribution      =    9570.10589659 Ry
     xc contribution           =    -400.82019688 Ry
     ewald contribution        =    7857.29723172 Ry
     electric field correction =       0.00004698 Ry
     smearing contrib. (-TS)   =      -0.08802616 Ry

     convergence has been achieved in  12 iterations

 BEEF-vdW xc energy contributions
           1 :   -351.188171898234
           2 :    323.066814806900
           3 :   -272.990473084589
           4 :    210.929108660921
           5 :   -147.573609390325
           6 :    91.3894997351740
           7 :   -46.9564880430991
           8 :    14.8276879333724
           9 :    7.25135200550932
          10 :   -22.5335979148638
          11 :    33.6119608997648
          12 :   -41.5498881605817
          13 :    45.9261023424926
          14 :   -45.6092909565295
          15 :    39.7775306971554
          16 :   -28.7238715308065
          17 :    14.1035697304695
          18 :    1.42325442243964
          19 :   -14.9782051190244
          20 :    24.3157192990029
          21 :   -28.4001761998557
          22 :    27.4997586050750
          23 :   -22.8285931434075
          24 :    15.9446813156096
          25 :   -8.20088014433890
          26 :   0.461738054539865
          27 :    6.84756881987011
          28 :   -13.4778988314553
          29 :    19.0725731800533
          30 :   -23.0455433167279
          31 :   -33.4859561372846
          32 :   -24.6262172095107

     Forces acting on atoms (Ry/au):

     negative rho (up, down):  1.589E+00 0.000E+00
     atom    1 type  1   force =    -0.00000221    0.00000080    0.02383981
     atom    2 type  1   force =     0.00000242   -0.00348673    0.02783844
     atom    3 type  1   force =    -0.00302071    0.00174437    0.02783481
     atom    4 type  1   force =     0.00301933    0.00174032    0.02783923
     atom    5 type  1   force =     0.00264070   -0.00152174   -0.01134944
     atom    6 type  1   force =    -0.00264018   -0.00152148   -0.01134817
     atom    7 type  1   force =     0.00000111   -0.00000168   -0.07314439
     atom    8 type  1   force =    -0.00000050    0.00304617   -0.01135020
     atom    9 type  1   force =    -0.00132431   -0.00076376   -0.00026751
     atom   10 type  1   force =     0.00132344   -0.00076369   -0.00026796
     atom   11 type  1   force =     0.00000006    0.00152915   -0.00027260
     atom   12 type  1   force =     0.00000000   -0.00000074    0.00016011
     atom   13 type  2   force =     0.00000085   -0.00000100    0.00048786

     Total force =     0.002737     Total SCF correction =     0.000234

     entering subroutine stress ...

     negative rho (up, down):  1.589E+00 0.000E+00
          total   stress  (Ry/bohr**3)                   (kbar)     P=  -18.59
  -0.00012830   0.00000000   0.00000000        -18.87      0.00      0.00
   0.00000000  -0.00012830   0.00000000          0.00    -18.87      0.00
   0.00000000   0.00000000  -0.00012245          0.00      0.00    -18.01

     bfgs converged in  13 scf cycles and  12 bfgs steps
     (criteria: energy <  1.0E+00, force <  1.9E-03)

     End of BFGS Geometry Optimization

     Final energy   =   -2114.8946131305 Ry
Begin final coordinates

ATOMIC_POSITIONS (crystal)
Tc1      0.166666667   0.166666667   0.408540475    0   0   0
Tc1      0.666666667   0.166666667   0.408540475    0   0   0
Tc1      0.166666667   0.666666667   0.408540475    0   0   0
Tc1      0.666666667   0.666666667   0.408540475    0   0   0
Tc1      0.833333333   0.333333333   0.500000000    0   0   0
Tc1      0.333333333   0.333333333   0.500000000    0   0   0
Tc1      0.833333333   0.833333333   0.500000000    0   0   0
Tc1      0.333333333   0.833333333   0.500000000    0   0   0
Tc1     -0.003120369  -0.003118336   0.592029724
Tc1      0.506238932  -0.003120552   0.592029930
Tc1     -0.003122192   0.506238961   0.592029941
Tc1      0.500001311   0.499999327   0.583936965
C1       0.166666817   0.166667084   0.637276666
End final coordinates

     Writing output data file calc.save

     General routines

     Parallel routines

   This run was terminated on:  17:31:31   2May2018

   JOB DONE.
Job  /afs/slac/g/suncat/bin/suncat-tsmpirun -x LD_LIBRARY_PATH -wdir /scratch/qe791674_39w01 pw.x -npool 4 -in pw.inp

TID   HOST_NAME   COMMAND_LINE            STATUS            TERMINATION_TIME
00000 suncat0169 pw.x -npool 4 -i  Done                     05/02/2018 17:31:31
00001 suncat0169 pw.x -npool 4 -i  Done                     05/02/2018 17:31:31
00002 suncat0169 pw.x -npool 4 -i  Done                     05/02/2018 17:31:31
00003 suncat0169 pw.x -npool 4 -i  Done                     05/02/2018 17:31:31
00004 suncat0169 pw.x -npool 4 -i  Done                     05/02/2018 17:31:31
00005 suncat0169 pw.x -npool 4 -i  Done                     05/02/2018 17:31:31
00006 suncat0169 pw.x -npool 4 -i  Done                     05/02/2018 17:31:31
00007 suncat0169 pw.x -npool 4 -i  Done                     05/02/2018 17:31:31
00008 suncat0167 pw.x -npool 4 -i  Done                     05/02/2018 17:31:31
00009 suncat0167 pw.x -npool 4 -i  Done                     05/02/2018 17:31:31
00010 suncat0167 pw.x -npool 4 -i  Done                     05/02/2018 17:31:31
00011 suncat0167 pw.x -npool 4 -i  Done                     05/02/2018 17:31:31
00012 suncat0167 pw.x -npool 4 -i  Done                     05/02/2018 17:31:31
00013 suncat0167 pw.x -npool 4 -i  Done                     05/02/2018 17:31:31
00014 suncat0167 pw.x -npool 4 -i  Done                     05/02/2018 17:31:31
00015 suncat0167 pw.x -npool 4 -i  Done                     05/02/2018 17:31:31
00016 suncat0123 pw.x -npool 4 -i  Done                     05/02/2018 17:31:31
00017 suncat0123 pw.x -npool 4 -i  Done                     05/02/2018 17:31:31
00018 suncat0123 pw.x -npool 4 -i  Done                     05/02/2018 17:31:31
00019 suncat0123 pw.x -npool 4 -i  Done                     05/02/2018 17:31:31
00020 suncat0123 pw.x -npool 4 -i  Done                     05/02/2018 17:31:31
00021 suncat0123 pw.x -npool 4 -i  Done                     05/02/2018 17:31:31
00022 suncat0123 pw.x -npool 4 -i  Done                     05/02/2018 17:31:31
00023 suncat0123 pw.x -npool 4 -i  Done                     05/02/2018 17:31:31
00024 suncat0121 pw.x -npool 4 -i  Done                     05/02/2018 17:31:31
00025 suncat0121 pw.x -npool 4 -i  Done                     05/02/2018 17:31:31
00026 suncat0121 pw.x -npool 4 -i  Done                     05/02/2018 17:31:31
00027 suncat0121 pw.x -npool 4 -i  Done                     05/02/2018 17:31:31
00028 suncat0121 pw.x -npool 4 -i  Done                     05/02/2018 17:31:31
00029 suncat0121 pw.x -npool 4 -i  Done                     05/02/2018 17:31:31
00030 suncat0121 pw.x -npool 4 -i  Done                     05/02/2018 17:31:31
00031 suncat0121 pw.x -npool 4 -i  Done                     05/02/2018 17:31:31