     Program PWSCF v.5.1rc2 (svn rev. 11289) starts on 16Apr2018 at 12:54:57

     Current dimensions of program PWSCF are:
     Max number of different atomic species (ntypx) = 10
     Max number of k-points (npk) =  40000
     Max angular momentum in pseudopotentials (lmaxx) =  3
     Presently stress not available with electric field

     IMPORTANT: XC functional enforced from input :
     Exchange-correlation      = BEEF-VDW ( 1  4 27 13 2)
     Any further DFT definition will be discarded
     Please, verify this is what you really want

     Subspace diagonalization in iterative solution of the eigenvalue problem:
     a serial algorithm will be used

     bravais-lattice index     =            0
     lattice parameter (alat)  =       1.8897  a.u.
     unit-cell volume          =    5739.2980 (a.u.)^3
     number of atoms/cell      =           14
     number of atomic types    =            3
     number of electrons       =       149.00
     number of Kohn-Sham states=           84
     kinetic-energy cutoff     =      36.7493  Ry
     charge density cutoff     =     367.4932  Ry
     convergence threshold     =      1.0E-05
     mixing beta               =       0.3000
     number of iterations used =           10  plain     mixing
     Exchange-correlation      = BEEF-VDW ( 1  4 27 13 2)
     nstep                     =           50

     celldm(1)=   1.889726  celldm(2)=   0.000000  celldm(3)=   0.000000
     celldm(4)=   0.000000  celldm(5)=   0.000000  celldm(6)=   0.000000

     crystal axes: (cart. coord. in units of alat)
               a(1) = (   6.254208   0.000000   0.000000 )
               a(2) = (   3.127104   5.416303   0.000000 )
               a(3) = (   0.000000   0.000000  25.106540 )

     reciprocal axes: (cart. coord. in units 2 pi/alat)
               b(1) = (  0.159892 -0.092314  0.000000 )
               b(2) = (  0.000000  0.184628  0.000000 )
               b(3) = (  0.000000  0.000000  0.039830 )

     PseudoPot. # 1 for Cd read from file:
     /u/if/mamunm/psp/gbrv1.5pbe/Cd.UPF
     MD5 check sum: 17164a7926edb8e0dc231208abae86a6
     Pseudo is Ultrasoft + core correction, Zval = 12.0
     Generated by new atomic code, or converted to UPF format
     Using radial grid of  889 points,  6 beta functions with:
                l(1) =   0
                l(2) =   0
                l(3) =   1
                l(4) =   1
                l(5) =   2
                l(6) =   2
     Q(r) pseudized with  6 coefficients,  rinner =    1.000   1.000   1.000
                                                       1.000   1.000

     PseudoPot. # 2 for C  read from file:
     /u/if/mamunm/psp/gbrv1.5pbe/C.UPF
     MD5 check sum: d1aef80898a10debaa0f26306b886e00
     Pseudo is Ultrasoft + core correction, Zval =  4.0
     Generated by new atomic code, or converted to UPF format
     Using radial grid of  721 points,  4 beta functions with:
                l(1) =   0
                l(2) =   0
                l(3) =   1
                l(4) =   1
     Q(r) pseudized with  8 coefficients,  rinner =    1.100   1.100   1.100

     PseudoPot. # 3 for H  read from file:
     /u/if/mamunm/psp/gbrv1.5pbe/H.UPF
     MD5 check sum: 761ae9a214b05c3daf00ab9f6b793d6f
     Pseudo is Ultrasoft, Zval =  1.0
     Generated by new atomic code, or converted to UPF format
     Using radial grid of  615 points,  2 beta functions with:
                l(1) =   0
                l(2) =   0
     Q(r) pseudized with  8 coefficients,  rinner =    0.700

     vdW kernel table read from file vdW_kernel_table
     MD5 check sum: 095c7af220d748ca6e76c0b4c6cfb241

     atomic species   valence    mass     pseudopotential
        Cd1           12.00   112.41400     Cd( 1.00)
        C1             4.00    12.01100     C ( 1.00)
        H1             1.00     1.00800     H ( 1.00)

     No symmetry found

   Cartesian axes

     site n.     atom                  positions (alat units)
         1           Cd1 tau(   1) = (   1.5635521   0.9027172  10.0000000  )
         2           Cd1 tau(   2) = (   4.6906562   0.9027172  10.0000000  )
         3           Cd1 tau(   3) = (   3.1271041   3.6108688  10.0000000  )
         4           Cd1 tau(   4) = (   6.2542083   3.6108688  10.0000000  )
         5           Cd1 tau(   5) = (   6.2542083   1.8054344  12.5532698  )
         6           Cd1 tau(   6) = (   3.1271041   1.8054344  12.5532698  )
         7           Cd1 tau(   7) = (   7.8177603   4.5135860  12.5532698  )
         8           Cd1 tau(   8) = (   4.6906562   4.5135860  12.5532698  )
         9           Cd1 tau(   9) = (   0.0000000   0.0000000  15.1065397  )
        10           Cd1 tau(  10) = (   3.1271041   0.0000000  15.1065397  )
        11           Cd1 tau(  11) = (   1.5635521   2.7081516  15.1065397  )
        12           Cd1 tau(  12) = (   4.6906562   2.7081516  15.1065397  )
        13           C1  tau(  13) = (   1.5635521   0.9027172  16.5365397  )
        14           H1  tau(  14) = (   1.5635521   0.9027172  17.6365397  )

     number of k points=    20  Fermi-Dirac smearing, width (Ry)=  0.0110
                       cart. coord. in units 2pi/alat
        k(    1) = (   0.0000000   0.0000000   0.0000000), wk =   0.0555556
        k(    2) = (   0.0000000   0.0307713   0.0000000), wk =   0.1111111
        k(    3) = (   0.0000000   0.0615426   0.0000000), wk =   0.1111111
        k(    4) = (   0.0000000  -0.0923139   0.0000000), wk =   0.0555556
        k(    5) = (   0.0266487  -0.0153856   0.0000000), wk =   0.1111111
        k(    6) = (   0.0266487   0.0153856   0.0000000), wk =   0.1111111
        k(    7) = (   0.0266487   0.0461569   0.0000000), wk =   0.1111111
        k(    8) = (   0.0266487  -0.1076995   0.0000000), wk =   0.1111111
        k(    9) = (   0.0266487  -0.0769282   0.0000000), wk =   0.1111111
        k(   10) = (   0.0266487  -0.0461569   0.0000000), wk =   0.1111111
        k(   11) = (   0.0532974  -0.0307713   0.0000000), wk =   0.1111111
        k(   12) = (   0.0532974   0.0000000   0.0000000), wk =   0.1111111
        k(   13) = (   0.0532974   0.0307713   0.0000000), wk =   0.1111111
        k(   14) = (   0.0532974  -0.1230852   0.0000000), wk =   0.1111111
        k(   15) = (   0.0532974  -0.0923139   0.0000000), wk =   0.1111111
        k(   16) = (   0.0532974  -0.0615426   0.0000000), wk =   0.1111111
        k(   17) = (  -0.0799462   0.0461569   0.0000000), wk =   0.0555556
        k(   18) = (  -0.0799462   0.0769282   0.0000000), wk =   0.1111111
        k(   19) = (  -0.0799462   0.1076995   0.0000000), wk =   0.1111111
        k(   20) = (  -0.0799462  -0.0461569   0.0000000), wk =   0.0555556

     Largest allocated arrays     est. size (Mb)     dimensions
     Largest temporary arrays     est. size (Mb)     dimensions

     Initial potential from superposition of free atoms
     Check: negative starting charge=   -0.257795

     starting charge  142.99945, renormalised to  149.00000

     negative rho (up, down):  2.686E-01 0.000E+00

     *
     * You are using vdW-DF for exchange-correlation in this calculation.
     * Please cite the following three references that made this development
     * possible:
     *
     *   M. Dion, H. Rydberg, E. Schroder, D. C. Langreth, and
     *   B. I. Lundqvist, Phys. Rev. Lett. 92, 246401 (2004).
     *
     *   T. Thonhauser, V. R. Cooper, S. Li, A. Puzder, P. Hyldgaard, and
     *   D. C. Langreth, Phys. Rev. B 76, 125112 (2007).
     *
     *   G. Roman-Perez and J. M. Soler, Phys. Rev. Lett. 103, 096102 (2009).
     *
     *
     * If you are using vdW-DF2, please also cite:
     *
     *   K. Lee, E. D. Murray, L. Kong, B. I. Lundqvist, and
     *   D. C. Langreth, Phys. Rev. B 82, 081101(R) (2010).
     *
     *
     * If you are calculating the stress with vdW-DF, please also cite:
     *
     *   R. Sabatini, E. Kucukbenli, B. Kolb, T. Thonhauser, and
     *   S. de Gironcoli, J. Phys.: Condens. Matter 24, 424209 (2012).
     *

     Carrying out vdW-DF run using the following parameters:

     Nqs =      20    Nr_points =    1024   r_max =   100.000
     q_mesh =
               0.00001000     0.04494208     0.09755937     0.15916263
               0.23128650     0.31572767     0.41458969     0.53033537
               0.66584808     0.82450364     1.01025438     1.22772762
               1.48234092     1.78043706     2.12944203     2.53805004
               3.01644009     3.57652955     4.23227104     5.00000000

     Gradients computed in reciprocal space

     Adding external electric field

     Computed dipole along edir(3) :
        Dipole               -1.6661 Ry au,         -4.2349 Debye
        Dipole field         -0.0036 Ry au

        Potential amp.        0.3375 Ry
        Total length         46.2584 bohr

     Starting wfc are  113 randomized atomic wfcs

     Self-consistent Calculation

     iteration #  1     ecut=    36.75 Ry     beta=0.30
     Davidson diagonalization with overlap
     ethr =  1.00E-02,  avg # of iterations =  5.2

[...]

     total energy              =   -1403.29863543 Ry
     Harris-Foulkes estimate   =   -1406.19013912 Ry
     estimated scf accuracy    <       6.07659948 Ry

[...]

     End of self-consistent calculation

          k = 0.0000 0.0000 0.0000 ( 21643 PWs)   bands (ev):

   -10.7346  -9.3909  -9.3909  -9.3909  -9.2499  -9.2499  -9.2498  -9.2427
    -9.1352  -9.1352  -9.1003  -9.0464  -9.0464  -8.9702  -8.9122  -8.8621
    -8.8621  -8.8200  -8.8146  -8.8146  -8.7927  -8.7283  -8.7283  -8.7154
    -8.7154  -8.7109  -8.6921  -8.6921  -8.5877  -8.5877  -8.5449  -8.3791
    -8.3791  -8.2912  -8.2912  -8.2530  -8.2313  -8.2068  -8.2068  -8.1757
    -8.1757  -8.1581  -8.1581  -8.1106  -8.1106  -8.1102  -8.0974  -8.0511
    -8.0511  -8.0182  -8.0182  -8.0160  -7.9459  -7.9459  -7.9409  -7.8861
    -7.8860  -7.8675  -7.8019  -7.8019  -7.7722  -7.6732  -5.9539  -3.8251
    -2.5434  -1.7561  -1.7561  -1.6306  -1.6306  -1.6119  -1.1795  -0.9654
    -0.9654  -0.4591  -0.0124   0.0935   0.0935   0.7497   0.7497   1.3061
     2.1399   2.1399   2.3967   2.8645

[...]

          k =-0.0799 0.0462 0.0000 ( 21576 PWs)   bands (ev):

[...]

     the Fermi energy is     0.5455 ev

!    total energy              =   -1405.60603375 Ry
     Harris-Foulkes estimate   =   -1405.60603580 Ry
     estimated scf accuracy    <       0.00000826 Ry

     The total energy is the sum of the following terms:

     one-electron contribution =   -8996.74094831 Ry
     hartree contribution      =    4592.59307196 Ry
     xc contribution           =    -494.05299155 Ry
     ewald contribution        =    3492.62432444 Ry
     electric field correction =       0.00004059 Ry
     smearing contrib. (-TS)   =      -0.02953087 Ry

     convergence has been achieved in  10 iterations

 BEEF-vdW xc energy contributions
           1 :   -432.805647323671
           2 :    395.912252750488
           3 :   -333.657212102891
           4 :    263.692786151164
           5 :   -202.314194931373
           6 :    158.679585922451
           7 :   -133.064526777439
           8 :    119.324812665338
           9 :   -109.653993445252
          10 :    98.8557897804142
          11 :   -86.0776929006387
          12 :    73.6845091079020
          13 :   -64.5922478402323
          14 :    59.9786288377902
          15 :   -58.6550399894123
          16 :    58.1193957097370
          17 :   -56.2784257043983
          18 :    52.6122334048207
          19 :   -48.1475029279751
          20 :    44.4743053364641
          21 :   -42.5951170199752
          22 :    42.3583000369993
          23 :   -42.7241302930374
          24 :    42.5422269389344
          25 :   -41.2608435720453
          26 :    39.1425188426963
          27 :   -36.9499436955712
          28 :    35.3961630708079
          29 :   -34.7344668878152
          30 :    34.7000317755691
          31 :   -39.1342286129531
          32 :   -28.5869933797781

     Forces acting on atoms (Ry/au):

     negative rho (up, down):  2.665E-01 0.000E+00
     atom    1 type  1   force =     0.00000116   -0.00000349   -0.01546639
     atom    2 type  1   force =     0.00001006    0.00009930   -0.01743570
     atom    3 type  1   force =     0.00010614   -0.00005224   -0.01751200
     atom    4 type  1   force =    -0.00008848   -0.00005379   -0.01740347
     atom    5 type  1   force =     0.00157419   -0.00092736    0.00294596
     atom    6 type  1   force =    -0.00158997   -0.00090473    0.00292101
     atom    7 type  1   force =    -0.00000450    0.00000234    0.01094848
     atom    8 type  1   force =    -0.00000990    0.00183938    0.00293538
     atom    9 type  1   force =    -0.01243995   -0.00718087    0.03116299
     atom   10 type  1   force =     0.01242709   -0.00719571    0.03116439
     atom   11 type  1   force =     0.00002097    0.01436565    0.03116168
     atom   12 type  1   force =     0.00000096   -0.00000277    0.01129567
     atom   13 type  2   force =    -0.00000233    0.00000831   -0.04637555
     atom   14 type  3   force =    -0.00000543    0.00000597   -0.01034246

     Total force =     0.076926     Total SCF correction =     0.005752

     entering subroutine stress ...

     negative rho (up, down):  2.665E-01 0.000E+00
          total   stress  (Ry/bohr**3)                   (kbar)     P=    2.98
   0.00001021   0.00000000   0.00000000          1.50      0.00      0.00
   0.00000000   0.00001021  -0.00000000          0.00      1.50     -0.00
   0.00000000  -0.00000000   0.00004036          0.00     -0.00      5.94

     BFGS Geometry Optimization

     number of scf cycles    =   1
     number of bfgs steps    =   0

     energy   new            =   -1405.6060337454 Ry

     new trust radius        =       0.0463755463 bohr
     new conv_thr            =       0.0000099958 Ry

ATOMIC_POSITIONS (crystal)
Cd1      0.166666667   0.166666667   0.398302599    0   0   0
Cd1      0.666666667   0.166666667   0.398302599    0   0   0
Cd1      0.166666667   0.666666667   0.398302599    0   0   0
Cd1      0.666666667   0.666666667   0.398302599    0   0   0
Cd1      0.833333333   0.333333333   0.500000000    0   0   0
Cd1      0.333333333   0.333333333   0.500000000    0   0   0
Cd1      0.833333333   0.833333333   0.500000000    0   0   0
Cd1      0.333333333   0.833333333   0.500000000    0   0   0
Cd1     -0.000701773  -0.000701577   0.602354232
Cd1      0.501402986  -0.000703026   0.602354261
Cd1     -0.000699994   0.501403536   0.602354204
Cd1      0.500000216   0.499999730   0.601935483
C1       0.166666063   0.166667479   0.657677203
H1       0.166665916   0.166667250   0.702249968

     Writing output data file calc.save
     Check: negative starting charge=   -0.257795
     NEW-OLD atomic charge density approx. for the potential
     Check: negative starting charge=   -0.259199

[...]

     energy   old            =   -1405.6060337454 Ry
     energy   new            =   -1405.6111715891 Ry

     CASE: energy  _new < energy  _old

[...]

     iteration #  1     ecut=    36.75 Ry     beta=0.30
     Davidson diagonalization with overlap
     c_bands:  1 eigenvalues not converged
     ethr =  1.00E-06,  avg # of iterations =  9.8

[...]

     Threshold (ethr) on eigenvalues was too large:
     Diagonalizing with lowered threshold

     Davidson diagonalization with overlap
     ethr =  1.30E-08,  avg # of iterations =  2.0

[...]

     Total force =     0.010642     Total SCF correction =     0.001148
     SCF correction compared to forces is large: reduce conv_thr to get better values

[...]

     Total force =     0.004046     Total SCF correction =     0.000248

[...]

     Threshold (ethr) on eigenvalues was too large:
     Diagonalizing with lowered threshold

     Davidson diagonalization with overlap
     ethr =  5.71E-08,  avg # of iterations =  1.0

[...]

     number of scf cycles    =  23
     number of bfgs steps    =  22

     energy   old            =   -1405.6550536701 Ry
     energy   new            =   -1405.6551766612 Ry

     CASE: energy  _new < energy  _old

     new trust radius        =       0.0478623755 bohr
     new conv_thr            =       0.0000001000 Ry

ATOMIC_POSITIONS (crystal)
Cd1      0.166666667   0.166666667   0.398302599    0   0   0
Cd1      0.666666667   0.166666667   0.398302599    0   0   0
Cd1      0.166666667   0.666666667   0.398302599    0   0   0
Cd1      0.666666667   0.666666667   0.398302599    0   0   0
Cd1      0.833333333   0.333333333   0.500000000    0   0   0
Cd1      0.333333333   0.333333333   0.500000000    0   0   0
Cd1      0.833333333   0.833333333   0.500000000    0   0   0
Cd1      0.333333333   0.833333333   0.500000000    0   0   0
Cd1     -0.014742298  -0.014784460   0.622155574
Cd1      0.529433418  -0.014759159   0.622132075
Cd1     -0.014740296   0.529433068   0.622125853
Cd1      0.499950052   0.499986740   0.606883450
C1       0.166640019   0.166660465   0.658643580
H1       0.166661971   0.166672431   0.702305774

     Writing output data file calc.save
     Check: negative starting charge=   -0.258195
     NEW-OLD atomic charge density approx. for the potential
     Check: negative starting charge=   -0.258667

[...]

     Self-consistent Calculation

[...]

     total energy              =   -1405.65533652 Ry
     Harris-Foulkes estimate   =   -1405.65533625 Ry
     estimated scf accuracy    <       0.00000028 Ry

     iteration #  8     ecut=    36.75 Ry     beta=0.30
     Davidson diagonalization with overlap
     ethr =  1.85E-10,  avg # of iterations =  2.7

[...]

     negative rho (up, down):  2.673E-01 0.000E+00

     Adding external electric field

     Computed dipole along edir(3) :
        Dipole               -0.0187 Ry au,         -0.0474 Debye
        Dipole field         -0.0000 Ry au

        Potential amp.        0.0038 Ry
        Total length         46.2584 bohr

     End of self-consistent calculation

[...]

          k = 0.0533-0.0615 0.0000 ( 21571 PWs)   bands (ev):

[...]

          k =-0.0799-0.0462 0.0000 ( 21576 PWs)   bands (ev):

   -11.0203  -8.9195  -8.9186  -8.8423  -8.8274  -8.8063  -8.7848  -8.7662
    -8.7353  -8.7253  -8.7147  -8.7118  -8.6387  -8.6140  -8.6014  -8.5732
    -8.5732  -8.5709  -8.5459  -8.5244  -8.5069  -8.4860  -8.4370  -8.4358
    -8.3787  -8.3726  -8.3654  -8.3550  -8.3348  -8.3270  -8.3145  -8.3132
    -8.2504  -8.2352  -8.2324  -8.2104  -8.1952  -8.1913  -8.1885  -8.1758
    -8.1370  -8.1321  -8.1218  -8.0922  -8.0899  -8.0851  -8.0689  -8.0436
    -8.0349  -8.0032  -7.9820  -7.9621  -7.9502  -7.9205  -7.8852  -7.8665
    -7.8351  -7.8107  -7.8091  -7.6737  -7.5235  -5.7810  -5.6752  -4.4938
    -4.3323  -2.9551  -2.7147  -2.4433  -2.4010  -1.9756  -1.7404  -0.1427
     0.0250   0.1407   1.0903   1.5678   1.9494   2.5648   3.0097   3.0322
     3.3937   3.4838   3.7395   3.9665

     the Fermi energy is     0.7404 ev

!    total energy              =   -1405.65533675 Ry
     Harris-Foulkes estimate   =   -1405.65533653 Ry
     estimated scf accuracy    <       0.00000003 Ry

     The total energy is the sum of the following terms:

     one-electron contribution =   -8512.55416658 Ry
     hartree contribution      =    4351.44541636 Ry
     xc contribution           =    -494.01867794 Ry
     ewald contribution        =    3249.49625218 Ry
     electric field correction =       0.00000076 Ry
     smearing contrib. (-TS)   =      -0.02416152 Ry

     convergence has been achieved in   8 iterations

 BEEF-vdW xc energy contributions
           1 :   -432.758850088767
           2 :    395.749354824033
           3 :   -333.345879496157
           4 :    263.312587114120
           5 :   -201.994179109852
           6 :    158.493849448198
           7 :   -132.978532704520
           8 :    119.235330076103
           9 :   -109.484447740384
          10 :    98.6237010301233
          11 :   -85.8770558965974
          12 :    73.5996257858229
          13 :   -64.6180735887619
          14 :    60.0187819898518
          15 :   -58.6030877048025
          16 :    57.9552832772762
          17 :   -56.0972968220836
          18 :    52.5581039525115
          19 :   -48.2996458858436
          20 :    44.7753585346648
          21 :   -42.8822013027200
          22 :    42.4785699880272
          23 :   -42.6476650701485
          24 :    42.3827691581713
          25 :   -41.1856907805345
          26 :    39.2414049725132
          27 :   -37.1651748139624
          28 :    35.5679476021527
          29 :   -34.7254367644371
          30 :    34.5021365882740
          31 :   -39.1267606244789
          32 :   -28.5448938555261

     Forces acting on atoms (Ry/au):

     negative rho (up, down):  2.673E-01 0.000E+00
     atom    1 type  1   force =     0.00000202    0.00000118   -0.01774016
     atom    2 type  1   force =     0.00000099    0.00056129   -0.01878574
     atom    3 type  1   force =     0.00048650   -0.00027967   -0.01878535
     atom    4 type  1   force =    -0.00048384   -0.00027920   -0.01878353
     atom    5 type  1   force =     0.00313957   -0.00181236    0.01751077
     atom    6 type  1   force =    -0.00313935   -0.00181364    0.01750557
     atom    7 type  1   force =     0.00000213    0.00000214    0.02104840
     atom    8 type  1   force =     0.00000119    0.00362752    0.01750593
     atom    9 type  1   force =    -0.00108823   -0.00060312    0.00059651
     atom   10 type  1   force =     0.00106906   -0.00062259    0.00059302
     atom   11 type  1   force =    -0.00002630    0.00122889    0.00059128
     atom   12 type  1   force =     0.00002563   -0.00001152   -0.00182584
     atom   13 type  2   force =     0.00000746   -0.00000583    0.00103680
     atom   14 type  3   force =     0.00000316    0.00000690   -0.00046767

     Total force =     0.003205     Total SCF correction =     0.000605
     SCF correction compared to forces is large: reduce conv_thr to get better values

     entering subroutine stress ...

     negative rho (up, down):  2.673E-01 0.000E+00
          total   stress  (Ry/bohr**3)                   (kbar)     P=    3.13
   0.00001448   0.00000001   0.00000000          2.13      0.00      0.00
   0.00000001   0.00001449   0.00000000          0.00      2.13      0.00
   0.00000000   0.00000000   0.00003479          0.00      0.00      5.12

     bfgs converged in  24 scf cycles and  23 bfgs steps
     (criteria: energy <  1.0E+00, force <  1.9E-03)

     End of BFGS Geometry Optimization

     Final energy   =   -1405.6553367453 Ry
Begin final coordinates

ATOMIC_POSITIONS (crystal)
Cd1      0.166666667   0.166666667   0.398302599    0   0   0
Cd1      0.666666667   0.166666667   0.398302599    0   0   0
Cd1      0.166666667   0.666666667   0.398302599    0   0   0
Cd1      0.666666667   0.666666667   0.398302599    0   0   0
Cd1      0.833333333   0.333333333   0.500000000    0   0   0
Cd1      0.333333333   0.333333333   0.500000000    0   0   0
Cd1      0.833333333   0.833333333   0.500000000    0   0   0
Cd1      0.333333333   0.833333333   0.500000000    0   0   0
Cd1     -0.014742298  -0.014784460   0.622155574
Cd1      0.529433418  -0.014759159   0.622132075
Cd1     -0.014740296   0.529433068   0.622125853
Cd1      0.499950052   0.499986740   0.606883450
C1       0.166640019   0.166660465   0.658643580
H1       0.166661971   0.166672431   0.702305774
End final coordinates

     Writing output data file calc.save

     General routines

     Parallel routines

   This run was terminated on:  15:13:24  16Apr2018

   JOB DONE.
Job  /afs/slac/g/suncat/bin/suncat-tsmpirun -x LD_LIBRARY_PATH -wdir /scratch/qe129134_a3ECY pw.x -npool 4 -in pw.inp

TID   HOST_NAME   COMMAND_LINE            STATUS            TERMINATION_TIME
00000 suncat0144 pw.x -npool 4 -i  Done                     04/16/2018 15:13:24
00001 suncat0144 pw.x -npool 4 -i  Done                     04/16/2018 15:13:24
00002 suncat0144 pw.x -npool 4 -i  Done                     04/16/2018 15:13:24
00003 suncat0144 pw.x -npool 4 -i  Done                     04/16/2018 15:13:24
00004 suncat0144 pw.x -npool 4 -i  Done                     04/16/2018 15:13:24
00005 suncat0144 pw.x -npool 4 -i  Done                     04/16/2018 15:13:24
00006 suncat0144 pw.x -npool 4 -i  Done                     04/16/2018 15:13:24
00007 suncat0144 pw.x -npool 4 -i  Done                     04/16/2018 15:13:24
00008 suncat0133 pw.x -npool 4 -i  Done                     04/16/2018 15:13:24
00009 suncat0133 pw.x -npool 4 -i  Done                     04/16/2018 15:13:24
00010 suncat0133 pw.x -npool 4 -i  Done                     04/16/2018 15:13:24
00011 suncat0133 pw.x -npool 4 -i  Done                     04/16/2018 15:13:24
00012 suncat0133 pw.x -npool 4 -i  Done                     04/16/2018 15:13:24
00013 suncat0133 pw.x -npool 4 -i  Done                     04/16/2018 15:13:24
00014 suncat0133 pw.x -npool 4 -i  Done                     04/16/2018 15:13:24
00015 suncat0133 pw.x -npool 4 -i  Done                     04/16/2018 15:13:24
00016 suncat0120 pw.x -npool 4 -i  Done                     04/16/2018 15:13:24
00017 suncat0120 pw.x -npool 4 -i  Done                     04/16/2018 15:13:24
00018 suncat0120 pw.x -npool 4 -i  Done                     04/16/2018 15:13:24
00019 suncat0120 pw.x -npool 4 -i  Done                     04/16/2018 15:13:24
00020 suncat0120 pw.x -npool 4 -i  Done                     04/16/2018 15:13:24
00021 suncat0120 pw.x -npool 4 -i  Done                     04/16/2018 15:13:24
00022 suncat0120 pw.x -npool 4 -i  Done                     04/16/2018 15:13:24
00023 suncat0120 pw.x -npool 4 -i  Done                     04/16/2018 15:13:24
00024 suncat0105 pw.x -npool 4 -i  Done                     04/16/2018 15:13:24
00025 suncat0105 pw.x -npool 4 -i  Done                     04/16/2018 15:13:24
00026 suncat0105 pw.x -npool 4 -i  Done                     04/16/2018 15:13:24
00027 suncat0105 pw.x -npool 4 -i  Done                     04/16/2018 15:13:24
00028 suncat0105 pw.x -npool 4 -i  Done                     04/16/2018 15:13:24
00029 suncat0105 pw.x -npool 4 -i  Done                     04/16/2018 15:13:24
00030 suncat0105 pw.x -npool 4 -i  Done                     04/16/2018 15:13:24
00031 suncat0105 pw.x -npool 4 -i  Done                     04/16/2018 15:13:24