     Program PWSCF v.5.1rc2 (svn rev. 11289) starts on  4May2018 at 11:16:25

     Current dimensions of program PWSCF are:
     Max number of different atomic species (ntypx) = 10
     Max number of k-points (npk) =  40000
     Max angular momentum in pseudopotentials (lmaxx) =  3
     Presently stress not available with electric field

     IMPORTANT: XC functional enforced from input :
     Exchange-correlation      = BEEF-VDW ( 1  4 27 13 2)
     Any further DFT definition will be discarded
     Please, verify this is what you really want

     Subspace diagonalization in iterative solution of the eigenvalue problem:
     a serial algorithm will be used

     bravais-lattice index     =            0
     lattice parameter (alat)  =       1.8897  a.u.
     unit-cell volume          =    5174.6160 (a.u.)^3
     number of atoms/cell      =           13
     number of atomic types    =            2
     number of electrons       =       234.00
     number of Kohn-Sham states=          127
     kinetic-energy cutoff     =      36.7493  Ry
     charge density cutoff     =     367.4932  Ry
     convergence threshold     =      1.0E-05
     mixing beta               =       0.3000
     number of iterations used =           10  plain     mixing
     Exchange-correlation      = BEEF-VDW ( 1  4 27 13 2)
     nstep                     =           50

     celldm(1)=   1.889726  celldm(2)=   0.000000  celldm(3)=   0.000000
     celldm(4)=   0.000000  celldm(5)=   0.000000  celldm(6)=   0.000000

     crystal axes: (cart. coord. in units of alat)
               a(1) = (   5.966546   0.000000   0.000000 )
               a(2) = (   2.983273   5.167181   0.000000 )
               a(3) = (   0.000000   0.000000  24.871665 )

     reciprocal axes: (cart. coord. in units 2 pi/alat)
               b(1) = (  0.167601 -0.096765  0.000000 )
               b(2) = (  0.000000  0.193529  0.000000 )
               b(3) = (  0.000000  0.000000  0.040206 )

     PseudoPot. # 1 for Ag read from file:
     /u/if/mamunm/psp/gbrv1.5pbe/Ag.UPF
     MD5 check sum: d66d668201baa78d5eb5b04ef7011058
     Pseudo is Ultrasoft + core correction, Zval = 19.0
     Generated by new atomic code, or converted to UPF format
     Using radial grid of  887 points,  6 beta functions with:
                l(1) =   0
                l(2) =   0
                l(3) =   1
                l(4) =   1
                l(5) =   2
                l(6) =   2
     Q(r) pseudized with  6 coefficients,  rinner =    1.300   1.300   1.300
                                                       1.300   1.300

     PseudoPot. # 2 for S  read from file:
     /u/if/mamunm/psp/gbrv1.5pbe/S.UPF
     MD5 check sum: 88d86576ff6df21479756cfb9bdac1df
     Pseudo is Ultrasoft + core correction, Zval =  6.0
     Generated by new atomic code, or converted to UPF format
     Using radial grid of  907 points,  6 beta functions with:
                l(1) =   0
                l(2) =   0
                l(3) =   1
                l(4) =   1
                l(5) =   2
                l(6) =   2
     Q(r) pseudized with  8 coefficients,  rinner =    1.300   1.300   1.300
                                                       1.300   1.300

     vdW kernel table read from file vdW_kernel_table
     MD5 check sum: 095c7af220d748ca6e76c0b4c6cfb241

     atomic species   valence    mass     pseudopotential
        Ag1           19.00   107.86820     Ag( 1.00)
        S1             6.00    32.06000     S ( 1.00)

     No symmetry found

   Cartesian axes

     site n.     atom                  positions (alat units)
         1           Ag1 tau(   1) = (   1.4916366   0.8611968  10.0000000  )
         2           Ag1 tau(   2) = (   4.4749098   0.8611968  10.0000000  )
         3           Ag1 tau(   3) = (   2.9832732   3.4447871  10.0000000  )
         4           Ag1 tau(   4) = (   5.9665464   3.4447871  10.0000000  )
         5           Ag1 tau(   5) = (   5.9665464   1.7223936  12.4358324  )
         6           Ag1 tau(   6) = (   2.9832732   1.7223936  12.4358324  )
         7           Ag1 tau(   7) = (   7.4581830   4.3059839  12.4358324  )
         8           Ag1 tau(   8) = (   4.4749098   4.3059839  12.4358324  )
         9           Ag1 tau(   9) = (   0.0000000   0.0000000  14.8716647  )
        10           Ag1 tau(  10) = (   2.9832732   0.0000000  14.8716647  )
        11           Ag1 tau(  11) = (   1.4916366   2.5835904  14.8716647  )
        12           Ag1 tau(  12) = (   4.4749098   2.5835904  14.8716647  )
        13           S1  tau(  13) = (   0.0000000   0.0000000  16.9966647  )

     number of k points=    20  Fermi-Dirac smearing, width (Ry)=  0.0110
                       cart. coord. in units 2pi/alat
        k(    1) = (   0.0000000   0.0000000   0.0000000), wk =   0.0555556
        k(    2) = (   0.0000000   0.0322549   0.0000000), wk =   0.1111111
        k(    3) = (   0.0000000   0.0645097   0.0000000), wk =   0.1111111
        k(    4) = (   0.0000000  -0.0967646   0.0000000), wk =   0.0555556
        k(    5) = (   0.0279335  -0.0161274   0.0000000), wk =   0.1111111
        k(    6) = (   0.0279335   0.0161274   0.0000000), wk =   0.1111111
        k(    7) = (   0.0279335   0.0483823   0.0000000), wk =   0.1111111
        k(    8) = (   0.0279335  -0.1128920   0.0000000), wk =   0.1111111
        k(    9) = (   0.0279335  -0.0806371   0.0000000), wk =   0.1111111
        k(   10) = (   0.0279335  -0.0483823   0.0000000), wk =   0.1111111
        k(   11) = (   0.0558670  -0.0322549   0.0000000), wk =   0.1111111
        k(   12) = (   0.0558670   0.0000000   0.0000000), wk =   0.1111111
        k(   13) = (   0.0558670   0.0322549   0.0000000), wk =   0.1111111
        k(   14) = (   0.0558670  -0.1290194   0.0000000), wk =   0.1111111
        k(   15) = (   0.0558670  -0.0967646   0.0000000), wk =   0.1111111
        k(   16) = (   0.0558670  -0.0645097   0.0000000), wk =   0.1111111
        k(   17) = (  -0.0838006   0.0483823   0.0000000), wk =   0.0555556
        k(   18) = (  -0.0838006   0.0806371   0.0000000), wk =   0.1111111
        k(   19) = (  -0.0838006   0.1128920   0.0000000), wk =   0.1111111
        k(   20) = (  -0.0838006  -0.0483823   0.0000000), wk =   0.0555556

     Largest allocated arrays     est. size (Mb)     dimensions
     Largest temporary arrays     est. size (Mb)     dimensions

     Initial potential from superposition of free atoms
     Check: negative starting charge=   -0.001999

     starting charge  227.99940, renormalised to  234.00000

     negative rho (up, down):  2.051E-03 0.000E+00

     *
     * You are using vdW-DF for exchange-correlation in this calculation.
     * Please cite the following three references that made this development
     * possible:
     *
     *   M. Dion, H. Rydberg, E. Schroder, D. C. Langreth, and
     *   B. I. Lundqvist, Phys. Rev. Lett. 92, 246401 (2004).
     *
     *   T. Thonhauser, V. R. Cooper, S. Li, A. Puzder, P. Hyldgaard, and
     *   D. C. Langreth, Phys. Rev. B 76, 125112 (2007).
     *
     *   G. Roman-Perez and J. M. Soler, Phys. Rev. Lett. 103, 096102 (2009).
     *
     *
     * If you are using vdW-DF2, please also cite:
     *
     *   K. Lee, E. D. Murray, L. Kong, B. I. Lundqvist, and
     *   D. C. Langreth, Phys. Rev. B 82, 081101(R) (2010).
     *
     *
     * If you are calculating the stress with vdW-DF, please also cite:
     *
     *   R. Sabatini, E. Kucukbenli, B. Kolb, T. Thonhauser, and
     *   S. de Gironcoli, J. Phys.: Condens. Matter 24, 424209 (2012).
     *

     Carrying out vdW-DF run using the following parameters:

     Nqs =      20    Nr_points =    1024   r_max =   100.000
     q_mesh =
               0.00001000     0.04494208     0.09755937     0.15916263
               0.23128650     0.31572767     0.41458969     0.53033537
               0.66584808     0.82450364     1.01025438     1.22772762
               1.48234092     1.78043706     2.12944203     2.53805004
               3.01644009     3.57652955     4.23227104     5.00000000

     Gradients computed in reciprocal space

     Adding external electric field

     Computed dipole along edir(3) :
        Dipole               -1.3607 Ry au,         -3.4585 Debye
        Dipole field         -0.0033 Ry au

        Potential amp.        0.3028 Ry
        Total length         45.8256 bohr

     Starting wfc are  160 randomized atomic wfcs

     Self-consistent Calculation

     iteration #  1     ecut=    36.75 Ry     beta=0.30
     Davidson diagonalization with overlap
     ethr =  1.00E-02,  avg # of iterations =  5.2

[...]

     total energy              =   -3573.23979986 Ry
     Harris-Foulkes estimate   =   -3587.38910811 Ry
     estimated scf accuracy    <      30.44864033 Ry

[...]

     End of self-consistent calculation

          k = 0.0000 0.0000 0.0000 ( 19435 PWs)   bands (ev):

   -91.5623 -91.1563 -91.1501 -91.1482 -91.1482 -90.9852 -90.9677 -90.9631
   -90.9630 -90.9135 -90.9083 -90.9083 -55.2181 -54.9706 -54.9706 -54.6908
   -54.6908 -54.6887 -54.6582 -54.6472 -54.6428 -54.6428 -54.6286 -54.6277
   -54.6277 -54.6073 -54.6073 -54.5192 -54.5191 -54.5098 -54.4853 -54.4644
   -54.4583 -54.4583 -54.4525 -54.4440 -54.4391 -54.4390 -54.4359 -54.4359
   -54.4338 -54.4338 -54.3971 -54.3971 -54.3872 -54.3851 -54.3794 -54.3794
   -10.8850  -5.5766  -5.0307  -4.9260  -4.9260  -4.8864  -4.7940  -4.7793
    -4.7793  -4.7679  -4.7679  -4.7268  -4.6604  -4.5447  -4.5447  -4.5168
    -4.2091  -4.2091  -4.0634  -3.8885  -3.8366  -3.8366  -3.7656  -3.7144
    -3.7144  -3.6080  -3.6080  -3.5502  -3.5502  -3.5032  -3.5030  -3.4858
    -3.4858  -3.0849  -3.0849  -2.9529  -2.9529  -2.9246  -2.8861  -2.8861
    -2.8381  -2.7211  -2.7211  -2.6637  -2.6198  -2.6198  -2.4724  -2.4451
    -2.4451  -2.3818  -2.3507  -2.3507  -2.3001  -2.3000  -2.2461  -2.2461
    -2.2311  -2.1621  -2.1621  -2.0677  -2.0676  -2.0659  -2.0343  -0.6730
    -0.1001  -0.1001   0.7291   1.3685   1.5025   1.5025   2.1322   2.2700
     2.2970   2.2970   2.5660   2.9165   2.9165   4.5672   4.5672

[...]

          k =-0.0838 0.0484 0.0000 ( 19500 PWs)   bands (ev):

[...]

     the Fermi energy is     0.8942 ev

!    total energy              =   -3584.16683869 Ry
     Harris-Foulkes estimate   =   -3584.16692401 Ry
     estimated scf accuracy    <       0.00000881 Ry

     The total energy is the sum of the following terms:

     one-electron contribution =  -26036.64316114 Ry
     hartree contribution      =   13008.70162051 Ry
     xc contribution           =    -369.69265455 Ry
     ewald contribution        =    9813.49591909 Ry
     electric field correction =       0.00061371 Ry
     smearing contrib. (-TS)   =      -0.02917632 Ry

     convergence has been achieved in  16 iterations

 BEEF-vdW xc energy contributions
           1 :   -320.181108894840
           2 :    289.612988257613
           3 :   -238.661723003403
           4 :    182.723958452132
           5 :   -135.730291270156
           6 :    105.164186197496
           7 :   -90.7152764042281
           8 :    86.5072029540222
           9 :   -85.2045838741289
          10 :    81.6861507771950
          11 :   -74.6317494718023
          12 :    65.7406422700283
          13 :   -57.6157954050698
          14 :    51.8412489513206
          15 :   -48.3025748145088
          16 :    45.7899942178939
          17 :   -43.1395486485133
          18 :    40.0121815586619
          19 :   -36.8732357709512
          20 :    34.3748501345133
          21 :   -32.7222271030411
          22 :    31.5002471190770
          23 :   -30.0277652685697
          24 :    27.9110090478476
          25 :   -25.3624997358605
          26 :    23.0559093892520
          27 :   -21.6415994637421
          28 :    21.2832810294277
          29 :   -21.5470382689280
          30 :    21.7067797180061
          31 :   -32.0784297842215
          32 :   -23.2804282868302

     Forces acting on atoms (Ry/au):

     negative rho (up, down):  1.969E-03 0.000E+00
     atom    1 type  1   force =    -0.00052115   -0.00030137   -0.00026244
     atom    2 type  1   force =     0.00052126   -0.00030148   -0.00026840
     atom    3 type  1   force =    -0.00000011    0.00060239   -0.00024894
     atom    4 type  1   force =     0.00000022    0.00000020    0.00037351
     atom    5 type  1   force =     0.00000015   -0.00097770    0.00181663
     atom    6 type  1   force =     0.00000004    0.00000179    0.00279498
     atom    7 type  1   force =     0.00084804    0.00048790    0.00181583
     atom    8 type  1   force =    -0.00084817    0.00048810    0.00181618
     atom    9 type  1   force =    -0.00000034    0.00000135   -0.11235313
     atom   10 type  1   force =     0.00000025   -0.00011433    0.00334151
     atom   11 type  1   force =    -0.00009937    0.00005681    0.00333975
     atom   12 type  1   force =     0.00009947    0.00005653    0.00334066
     atom   13 type  2   force =    -0.00000029   -0.00000019    0.09449387

     Total force =     0.146921     Total SCF correction =     0.013410

     entering subroutine stress ...

     negative rho (up, down):  1.969E-03 0.000E+00
          total   stress  (Ry/bohr**3)                   (kbar)     P=   -1.85
  -0.00005014   0.00000000   0.00000000         -7.38      0.00      0.00
   0.00000000  -0.00005015   0.00000000          0.00     -7.38      0.00
   0.00000000   0.00000000   0.00006260          0.00      0.00      9.21

     BFGS Geometry Optimization

     number of scf cycles    =   1
     number of bfgs steps    =   0

     energy   new            =   -3584.1668386894 Ry

     new trust radius        =       0.1123531281 bohr
     new conv_thr            =       0.0000099958 Ry

ATOMIC_POSITIONS (crystal)
Ag1      0.166666667   0.166666667   0.402063960    0   0   0
Ag1      0.666666667   0.166666667   0.402063960    0   0   0
Ag1      0.166666667   0.666666667   0.402063960    0   0   0
Ag1      0.666666667   0.666666667   0.402063960    0   0   0
Ag1      0.833333333   0.333333333   0.500000000    0   0   0
Ag1      0.333333333   0.333333333   0.500000000    0   0   0
Ag1      0.833333333   0.833333333   0.500000000    0   0   0
Ag1      0.333333333   0.833333333   0.500000000    0   0   0
Ag1     -0.000000099   0.000000138   0.595545580
Ag1      0.500005877  -0.000011708   0.598007135
Ag1     -0.000011723   0.500005818   0.598007098
Ag1      0.500005927   0.500005790   0.598007117
S1      -0.000000017  -0.000000019   0.685385112

     Writing output data file calc.save
     Check: negative starting charge=   -0.001999
     NEW-OLD atomic charge density approx. for the potential
     Check: negative starting charge=   -0.001991

[...]

     Total force =     0.049149     Total SCF correction =     0.008690
     SCF correction compared to forces is large: reduce conv_thr to get better values

[...]

     energy   old            =   -3584.1668386894 Ry
     energy   new            =   -3584.1805877938 Ry

     CASE: energy  _new < energy  _old

[...]

     Threshold (ethr) on eigenvalues was too large:
     Diagonalizing with lowered threshold

     Davidson diagonalization with overlap
     ethr =  3.22E-08,  avg # of iterations =  1.2

[...]

     Total force =     0.012473     Total SCF correction =     0.000277

[...]

     number of scf cycles    =   9
     number of bfgs steps    =   8

     energy   old            =   -3584.1853247199 Ry
     energy   new            =   -3584.1855044487 Ry

     CASE: energy  _new < energy  _old

     new trust radius        =       0.0111787176 bohr
     new conv_thr            =       0.0000001000 Ry

ATOMIC_POSITIONS (crystal)
Ag1      0.166666667   0.166666667   0.402063960    0   0   0
Ag1      0.666666667   0.166666667   0.402063960    0   0   0
Ag1      0.166666667   0.666666667   0.402063960    0   0   0
Ag1      0.666666667   0.666666667   0.402063960    0   0   0
Ag1      0.833333333   0.333333333   0.500000000    0   0   0
Ag1      0.333333333   0.333333333   0.500000000    0   0   0
Ag1      0.833333333   0.833333333   0.500000000    0   0   0
Ag1      0.333333333   0.833333333   0.500000000    0   0   0
Ag1      0.000000059  -0.000000025   0.589564854
Ag1      0.499961553   0.000076862   0.601226795
Ag1      0.000076897   0.499961586   0.601226785
Ag1      0.499961509   0.499961624   0.601226782
S1      -0.000000027  -0.000000165   0.682234281

     Writing output data file calc.save
     Check: negative starting charge=   -0.002001
     NEW-OLD atomic charge density approx. for the potential
     Check: negative starting charge=   -0.002001

[...]

     Self-consistent Calculation

[...]

     Threshold (ethr) on eigenvalues was too large:
     Diagonalizing with lowered threshold

     Davidson diagonalization with overlap
     ethr =  9.40E-08,  avg # of iterations =  1.0

[...]

     total energy              =   -3584.18553818 Ry
     Harris-Foulkes estimate   =   -3584.18553852 Ry
     estimated scf accuracy    <       0.00000042 Ry

     iteration #  6     ecut=    36.75 Ry     beta=0.30
     Davidson diagonalization with overlap
     ethr =  1.81E-10,  avg # of iterations =  2.0

[...]

     negative rho (up, down):  1.958E-03 0.000E+00

     Adding external electric field

     Computed dipole along edir(3) :
        Dipole               -0.5342 Ry au,         -1.3577 Debye
        Dipole field         -0.0013 Ry au

        Potential amp.        0.1189 Ry
        Total length         45.8256 bohr

     End of self-consistent calculation

[...]

          k = 0.0559-0.0645 0.0000 ( 19479 PWs)   bands (ev):

[...]

          k =-0.0838-0.0484 0.0000 ( 19500 PWs)   bands (ev):

   -91.3217 -91.1651 -91.1635 -91.1616 -91.1421 -90.9996 -90.9721 -90.9702
   -90.9686 -90.8770 -90.8753 -90.8735 -54.8918 -54.7765 -54.7754 -54.6874
   -54.6787 -54.6662 -54.6627 -54.6595 -54.6551 -54.6524 -54.6506 -54.6388
   -54.6382 -54.6290 -54.6183 -54.5189 -54.5018 -54.5013 -54.4800 -54.4776
   -54.4735 -54.4734 -54.4585 -54.4479 -54.4465 -54.4461 -54.4445 -54.4368
   -54.4134 -54.3953 -54.3755 -54.3673 -54.3568 -54.3458 -54.3438 -54.3417
   -10.4811  -4.7639  -4.6141  -4.5652  -4.4849  -4.4771  -4.4491  -4.4365
    -4.3945  -4.3182  -4.2437  -4.2391  -4.1761  -4.1601  -4.1193  -4.1014
    -4.0078  -3.9329  -3.8809  -3.8624  -3.7751  -3.7368  -3.7173  -3.7130
    -3.6426  -3.6188  -3.5775  -3.4341  -3.3887  -3.3789  -3.3742  -3.3256
    -3.3108  -3.2515  -3.2013  -3.1862  -3.1444  -3.1406  -3.1366  -3.0963
    -3.0750  -3.0112  -2.9595  -2.9585  -2.9503  -2.9074  -2.8817  -2.8298
    -2.8191  -2.8160  -2.7750  -2.7617  -2.7504  -2.6556  -2.6543  -2.6169
    -2.5897  -2.4650  -2.3435  -2.3331  -2.3144  -2.2117  -2.1860  -1.5722
    -1.5266  -0.1164   0.0284   0.1450   0.6073   0.8220   1.6078   1.6291
     2.2503   2.5341   3.8989   4.0728   4.4609   5.1140   6.0160

     the Fermi energy is     0.8809 ev

!    total energy              =   -3584.18553820 Ry
     Harris-Foulkes estimate   =   -3584.18554038 Ry
     estimated scf accuracy    <       0.00000004 Ry

     The total energy is the sum of the following terms:

     one-electron contribution =  -26002.45675298 Ry
     hartree contribution      =   12991.77531684 Ry
     xc contribution           =    -369.65281525 Ry
     ewald contribution        =    9796.17715594 Ry
     electric field correction =       0.00069292 Ry
     smearing contrib. (-TS)   =      -0.02913567 Ry

     convergence has been achieved in   6 iterations

 BEEF-vdW xc energy contributions
           1 :   -320.132312961615
           2 :    289.526817331437
           3 :   -238.529922348953
           4 :    182.578908370136
           5 :   -135.624802616114
           6 :    105.131445914761
           7 :   -90.7424572713716
           8 :    86.5436248499753
           9 :   -85.1967352059968
          10 :    81.6137870846320
          11 :   -74.5193185274761
          12 :    65.6381974062854
          13 :   -57.5664059198955
          14 :    51.8574598167559
          15 :   -48.3652035278900
          16 :    45.8666242434078
          17 :   -43.2062381846595
          18 :    40.0630234901557
          19 :   -36.9143145786919
          20 :    34.4116473364094
          21 :   -32.7527805809640
          22 :    31.5188597967004
          23 :   -30.0339258542433
          24 :    27.9141112050359
          25 :   -25.3766393519044
          26 :    23.0877713979199
          27 :   -21.6812031230105
          28 :    21.3073425283284
          29 :   -21.5347072541704
          30 :    21.6570270246705
          31 :   -32.0745687416959
          32 :   -23.2687395423056

     Forces acting on atoms (Ry/au):

     negative rho (up, down):  1.958E-03 0.000E+00
     atom    1 type  1   force =    -0.00052406   -0.00030256   -0.00058508
     atom    2 type  1   force =     0.00052406   -0.00030257   -0.00058507
     atom    3 type  1   force =    -0.00000000    0.00060513   -0.00058507
     atom    4 type  1   force =     0.00000000   -0.00000000    0.00077812
     atom    5 type  1   force =    -0.00000000    0.00716855   -0.00325628
     atom    6 type  1   force =    -0.00000000   -0.00000001    0.00850519
     atom    7 type  1   force =    -0.00620815   -0.00358427   -0.00325630
     atom    8 type  1   force =     0.00620816   -0.00358428   -0.00325633
     atom    9 type  1   force =    -0.00000002    0.00000008    0.00064310
     atom   10 type  1   force =     0.00000005    0.00002228    0.00039077
     atom   11 type  1   force =     0.00001925   -0.00001112    0.00039078
     atom   12 type  1   force =    -0.00001924   -0.00001119    0.00039078
     atom   13 type  2   force =    -0.00000003   -0.00000003    0.00042539

     Total force =     0.001027     Total SCF correction =     0.001247
     SCF correction compared to forces is large: reduce conv_thr to get better values

     entering subroutine stress ...

     negative rho (up, down):  1.958E-03 0.000E+00
          total   stress  (Ry/bohr**3)                   (kbar)     P=   -7.48
  -0.00006767  -0.00000000  -0.00000000         -9.96     -0.00     -0.00
  -0.00000000  -0.00006767  -0.00000000         -0.00     -9.96     -0.00
  -0.00000000  -0.00000000  -0.00001728         -0.00     -0.00     -2.54

     bfgs converged in  10 scf cycles and   9 bfgs steps
     (criteria: energy <  1.0E+00, force <  1.9E-03)

     End of BFGS Geometry Optimization

     Final energy   =   -3584.1855382018 Ry
Begin final coordinates

ATOMIC_POSITIONS (crystal)
Ag1      0.166666667   0.166666667   0.402063960    0   0   0
Ag1      0.666666667   0.166666667   0.402063960    0   0   0
Ag1      0.166666667   0.666666667   0.402063960    0   0   0
Ag1      0.666666667   0.666666667   0.402063960    0   0   0
Ag1      0.833333333   0.333333333   0.500000000    0   0   0
Ag1      0.333333333   0.333333333   0.500000000    0   0   0
Ag1      0.833333333   0.833333333   0.500000000    0   0   0
Ag1      0.333333333   0.833333333   0.500000000    0   0   0
Ag1      0.000000059  -0.000000025   0.589564854
Ag1      0.499961553   0.000076862   0.601226795
Ag1      0.000076897   0.499961586   0.601226785
Ag1      0.499961509   0.499961624   0.601226782
S1      -0.000000027  -0.000000165   0.682234281
End final coordinates

     Writing output data file calc.save

     General routines

     Parallel routines

   This run was terminated on:  12: 2:25   4May2018

   JOB DONE.
Job  /afs/slac/g/suncat/bin/suncat-tsmpirun -x LD_LIBRARY_PATH -wdir /scratch/qe31700_JbABZ pw.x -npool 3 -in pw.inp

TID   HOST_NAME   COMMAND_LINE            STATUS            TERMINATION_TIME
00000 suncat2070 pw.x -npool 3 -i  Done                     05/04/2018 12:02:25
00001 suncat2070 pw.x -npool 3 -i  Done                     05/04/2018 12:02:25
00002 suncat2070 pw.x -npool 3 -i  Done                     05/04/2018 12:02:25
00003 suncat2070 pw.x -npool 3 -i  Done                     05/04/2018 12:02:25
00004 suncat2064 pw.x -npool 3 -i  Done                     05/04/2018 12:02:25
00005 suncat2064 pw.x -npool 3 -i  Done                     05/04/2018 12:02:25
00006 suncat2064 pw.x -npool 3 -i  Done                     05/04/2018 12:02:25
00007 suncat2064 pw.x -npool 3 -i  Done                     05/04/2018 12:02:25
00008 suncat2064 pw.x -npool 3 -i  Done                     05/04/2018 12:02:25
00009 suncat2064 pw.x -npool 3 -i  Done                     05/04/2018 12:02:25
00010 suncat2064 pw.x -npool 3 -i  Done                     05/04/2018 12:02:25
00011 suncat2064 pw.x -npool 3 -i  Done                     05/04/2018 12:02:25
00012 suncat2064 pw.x -npool 3 -i  Done                     05/04/2018 12:02:25
00013 suncat2064 pw.x -npool 3 -i  Done                     05/04/2018 12:02:25
00014 suncat2064 pw.x -npool 3 -i  Done                     05/04/2018 12:02:25
00015 suncat2064 pw.x -npool 3 -i  Done                     05/04/2018 12:02:25
00016 suncat2064 pw.x -npool 3 -i  Done                     05/04/2018 12:02:25
00017 suncat2064 pw.x -npool 3 -i  Done                     05/04/2018 12:02:25
00018 suncat2064 pw.x -npool 3 -i  Done                     05/04/2018 12:02:25
00019 suncat2064 pw.x -npool 3 -i  Done                     05/04/2018 12:02:25
00020 suncat2005 pw.x -npool 3 -i  Done                     05/04/2018 12:02:25
00021 suncat2005 pw.x -npool 3 -i  Done                     05/04/2018 12:02:25
00022 suncat2005 pw.x -npool 3 -i  Done                     05/04/2018 12:02:25
00023 suncat2005 pw.x -npool 3 -i  Done                     05/04/2018 12:02:25
00024 suncat2005 pw.x -npool 3 -i  Done                     05/04/2018 12:02:25
00025 suncat2005 pw.x -npool 3 -i  Done                     05/04/2018 12:02:25
00026 suncat2005 pw.x -npool 3 -i  Done                     05/04/2018 12:02:25
00027 suncat2005 pw.x -npool 3 -i  Done                     05/04/2018 12:02:25
00028 suncat2005 pw.x -npool 3 -i  Done                     05/04/2018 12:02:25
00029 suncat2005 pw.x -npool 3 -i  Done                     05/04/2018 12:02:25
00030 suncat2005 pw.x -npool 3 -i  Done                     05/04/2018 12:02:25
00031 suncat2005 pw.x -npool 3 -i  Done                     05/04/2018 12:02:25
00032 suncat2005 pw.x -npool 3 -i  Done                     05/04/2018 12:02:25
00033 suncat2005 pw.x -npool 3 -i  Done                     05/04/2018 12:02:25
00034 suncat2005 pw.x -npool 3 -i  Done                     05/04/2018 12:02:25
00035 suncat2005 pw.x -npool 3 -i  Done                     05/04/2018 12:02:25