     Program PWSCF v.5.1rc2 (svn rev. 11289) starts on  3May2018 at 19:57:13

     Current dimensions of program PWSCF are:
     Max number of different atomic species (ntypx) = 10
     Max number of k-points (npk) =  40000
     Max angular momentum in pseudopotentials (lmaxx) =  3
     Presently stress not available with electric field

     IMPORTANT: XC functional enforced from input :
     Exchange-correlation      = BEEF-VDW ( 1  4 27 13 2)
     Any further DFT definition will be discarded
     Please, verify this is what you really want

     Subspace diagonalization in iterative solution of the eigenvalue problem:
     a serial algorithm will be used

     bravais-lattice index     =            0
     lattice parameter (alat)  =       1.8897  a.u.
     unit-cell volume          =    5409.9593 (a.u.)^3
     number of atoms/cell      =           13
     number of atomic types    =            2
     number of electrons       =       234.00
     number of Kohn-Sham states=          127
     kinetic-energy cutoff     =      36.7493  Ry
     charge density cutoff     =     367.4932  Ry
     convergence threshold     =      1.0E-05
     mixing beta               =       0.3000
     number of iterations used =           10  plain     mixing
     Exchange-correlation      = BEEF-VDW ( 1  4 27 13 2)
     nstep                     =           50

     celldm(1)=   1.889726  celldm(2)=   0.000000  celldm(3)=   0.000000
     celldm(4)=   0.000000  celldm(5)=   0.000000  celldm(6)=   0.000000

     crystal axes: (cart. coord. in units of alat)
               a(1) = (   6.088539   0.000000   0.000000 )
               a(2) = (   3.044269   5.272829   0.000000 )
               a(3) = (   0.000000   0.000000  24.971271 )

     reciprocal axes: (cart. coord. in units 2 pi/alat)
               b(1) = (  0.164243 -0.094826  0.000000 )
               b(2) = (  0.000000  0.189652  0.000000 )
               b(3) = (  0.000000  0.000000  0.040046 )

     PseudoPot. # 1 for Ga read from file:
     /u/if/mamunm/psp/gbrv1.5pbe/Ga.UPF
     MD5 check sum: ccd671392a58a050fbb373893b4fcd66
     Pseudo is Ultrasoft + core correction, Zval = 19.0
     Generated by new atomic code, or converted to UPF format
     Using radial grid of  871 points,  6 beta functions with:
                l(1) =   0
                l(2) =   0
                l(3) =   1
                l(4) =   1
                l(5) =   2
                l(6) =   2
     Q(r) pseudized with  8 coefficients,  rinner =    1.250   1.250   1.250
                                                       1.250   1.250

     PseudoPot. # 2 for O  read from file:
     /u/if/mamunm/psp/gbrv1.5pbe/O.UPF
     MD5 check sum: 734c27235a0248c51dbae37a1fbe46ec
     Pseudo is Ultrasoft + core correction, Zval =  6.0
     Generated by new atomic code, or converted to UPF format
     Using radial grid of  737 points,  5 beta functions with:
                l(1) =   0
                l(2) =   0
                l(3) =   1
                l(4) =   1
                l(5) =   2
     Q(r) pseudized with  8 coefficients,  rinner =    0.900   0.900   0.900
                                                       0.900   0.900

     vdW kernel table read from file vdW_kernel_table
     MD5 check sum: 095c7af220d748ca6e76c0b4c6cfb241

     atomic species   valence    mass     pseudopotential
        Ga1           19.00    69.72300     Ga( 1.00)
        O1             6.00    15.99900     O ( 1.00)

     No symmetry found

   Cartesian axes

     site n.     atom                  positions (alat units)
         1           Ga1 tau(   1) = (   1.5221346   0.8788048  10.0000000  )
         2           Ga1 tau(   2) = (   4.5664039   0.8788048  10.0000000  )
         3           Ga1 tau(   3) = (   3.0442693   3.5152194  10.0000000  )
         4           Ga1 tau(   4) = (   6.0885386   3.5152194  10.0000000  )
         5           Ga1 tau(   5) = (   6.0885386   1.7576097  12.4856355  )
         6           Ga1 tau(   6) = (   3.0442693   1.7576097  12.4856355  )
         7           Ga1 tau(   7) = (   7.6106732   4.3940242  12.4856355  )
         8           Ga1 tau(   8) = (   4.5664039   4.3940242  12.4856355  )
         9           Ga1 tau(   9) = (   0.0000000   0.0000000  14.9712709  )
        10           Ga1 tau(  10) = (   3.0442693   0.0000000  14.9712709  )
        11           Ga1 tau(  11) = (   1.5221346   2.6364145  14.9712709  )
        12           Ga1 tau(  12) = (   4.5664039   2.6364145  14.9712709  )
        13           O1  tau(  13) = (   1.5221346   0.8788048  16.1932709  )

     number of k points=    20  Fermi-Dirac smearing, width (Ry)=  0.0110
                       cart. coord. in units 2pi/alat
        k(    1) = (   0.0000000   0.0000000   0.0000000), wk =   0.0555556
        k(    2) = (   0.0000000   0.0316086   0.0000000), wk =   0.1111111
        k(    3) = (   0.0000000   0.0632172   0.0000000), wk =   0.1111111
        k(    4) = (   0.0000000  -0.0948258   0.0000000), wk =   0.0555556
        k(    5) = (   0.0273738  -0.0158043   0.0000000), wk =   0.1111111
        k(    6) = (   0.0273738   0.0158043   0.0000000), wk =   0.1111111
        k(    7) = (   0.0273738   0.0474129   0.0000000), wk =   0.1111111
        k(    8) = (   0.0273738  -0.1106300   0.0000000), wk =   0.1111111
        k(    9) = (   0.0273738  -0.0790215   0.0000000), wk =   0.1111111
        k(   10) = (   0.0273738  -0.0474129   0.0000000), wk =   0.1111111
        k(   11) = (   0.0547477  -0.0316086   0.0000000), wk =   0.1111111
        k(   12) = (   0.0547477   0.0000000   0.0000000), wk =   0.1111111
        k(   13) = (   0.0547477   0.0316086   0.0000000), wk =   0.1111111
        k(   14) = (   0.0547477  -0.1264343   0.0000000), wk =   0.1111111
        k(   15) = (   0.0547477  -0.0948258   0.0000000), wk =   0.1111111
        k(   16) = (   0.0547477  -0.0632172   0.0000000), wk =   0.1111111
        k(   17) = (  -0.0821215   0.0474129   0.0000000), wk =   0.0555556
        k(   18) = (  -0.0821215   0.0790215   0.0000000), wk =   0.1111111
        k(   19) = (  -0.0821215   0.1106300   0.0000000), wk =   0.1111111
        k(   20) = (  -0.0821215  -0.0474129   0.0000000), wk =   0.0555556

     Largest allocated arrays     est. size (Mb)     dimensions
     Largest temporary arrays     est. size (Mb)     dimensions

     Initial potential from superposition of free atoms
     Check: negative starting charge=   -0.001367

     starting charge  221.99999, renormalised to  234.00000

     negative rho (up, down):  1.441E-03 0.000E+00

     *
     * You are using vdW-DF for exchange-correlation in this calculation.
     * Please cite the following three references that made this development
     * possible:
     *
     *   M. Dion, H. Rydberg, E. Schroder, D. C. Langreth, and
     *   B. I. Lundqvist, Phys. Rev. Lett. 92, 246401 (2004).
     *
     *   T. Thonhauser, V. R. Cooper, S. Li, A. Puzder, P. Hyldgaard, and
     *   D. C. Langreth, Phys. Rev. B 76, 125112 (2007).
     *
     *   G. Roman-Perez and J. M. Soler, Phys. Rev. Lett. 103, 096102 (2009).
     *
     *
     * If you are using vdW-DF2, please also cite:
     *
     *   K. Lee, E. D. Murray, L. Kong, B. I. Lundqvist, and
     *   D. C. Langreth, Phys. Rev. B 82, 081101(R) (2010).
     *
     *
     * If you are calculating the stress with vdW-DF, please also cite:
     *
     *   R. Sabatini, E. Kucukbenli, B. Kolb, T. Thonhauser, and
     *   S. de Gironcoli, J. Phys.: Condens. Matter 24, 424209 (2012).
     *

     Carrying out vdW-DF run using the following parameters:

     Nqs =      20    Nr_points =    1024   r_max =   100.000
     q_mesh =
               0.00001000     0.04494208     0.09755937     0.15916263
               0.23128650     0.31572767     0.41458969     0.53033537
               0.66584808     0.82450364     1.01025438     1.22772762
               1.48234092     1.78043706     2.12944203     2.53805004
               3.01644009     3.57652955     4.23227104     5.00000000

     Gradients computed in reciprocal space

     Adding external electric field

     Computed dipole along edir(3) :
        Dipole               -2.2723 Ry au,         -5.7757 Debye
        Dipole field         -0.0053 Ry au

        Potential amp.        0.4857 Ry
        Total length         46.0091 bohr

     Starting wfc are  148 randomized atomic wfcs

     Self-consistent Calculation

     iteration #  1     ecut=    36.75 Ry     beta=0.30
     Davidson diagonalization with overlap
     ethr =  1.00E-02,  avg # of iterations =  6.9

[...]

     total energy              =   -4729.43522442 Ry
     Harris-Foulkes estimate   =   -5041.26733902 Ry
     estimated scf accuracy    <     658.68708405 Ry

     iteration #  2     ecut=    36.75 Ry     beta=0.30
     Davidson diagonalization with overlap
     c_bands:  2 eigenvalues not converged
     ethr =  1.00E-02,  avg # of iterations = 20.6

[...]

     End of self-consistent calculation

          k = 0.0000 0.0000 0.0000 ( 20347 PWs)   bands (ev):

   -95.0192 -95.0098 -95.0098 -94.9769 -94.9768 -94.9767 -94.9680 -94.9634
   -94.9621 -94.9621 -94.9604 -94.9604 -94.9599 -94.9507 -94.9507 -94.9502
   -94.9474 -94.9474 -94.9472 -94.9457 -94.9457 -94.9373 -94.9371 -94.9371
   -94.9309 -94.9179 -94.9173 -94.9173 -94.9071 -94.9070 -94.9027 -94.9026
   -94.9022 -94.8501 -94.8491 -94.8491 -18.0438 -15.4669 -15.4669 -15.4638
   -15.4232 -15.4232 -15.4069 -15.4069 -15.4066 -15.4027 -15.3990 -15.3782
   -15.3753 -15.3753 -15.3598 -15.3514 -15.3514 -15.3430 -15.3430 -15.3399
   -15.3351 -15.3351 -15.3223 -15.3223 -15.3131 -15.3107 -15.3107 -15.3085
   -15.2856 -15.2856 -15.2497 -15.2496 -15.2496 -15.2405 -15.2405 -15.2379
   -15.2204 -15.2204 -15.2142 -15.2114 -15.2114 -15.1818 -15.1817 -15.1733
   -15.1733 -15.1707 -15.1665 -15.1643 -15.1643 -15.1620 -15.1596 -15.1596
   -15.1525 -15.1525 -15.1480 -15.1357 -15.1357 -15.0959 -15.0959 -15.0902
   -14.9878 -10.2838  -8.6796  -6.4130  -5.4882  -5.4882  -5.1422  -4.9351
    -4.9351  -4.7661  -4.0437  -4.0437  -3.9161  -3.2166  -3.2166  -3.1342
    -2.4220  -2.2424  -2.2424  -2.0934  -1.1256  -1.1255  -1.0771  -0.0679
    -0.0679   0.6850   1.1523   2.8283   2.8283   2.8748   3.0422

[...]

          k =-0.0821 0.0474 0.0000 ( 20384 PWs)   bands (ev):

[...]

     the Fermi energy is    -0.2166 ev

!    total energy              =   -5031.61629220 Ry
     Harris-Foulkes estimate   =   -5031.61626841 Ry
     estimated scf accuracy    <       0.00000184 Ry

     The total energy is the sum of the following terms:

     one-electron contribution =  -27733.54899935 Ry
     hartree contribution      =   13871.08649534 Ry
     xc contribution           =    -604.03363687 Ry
     ewald contribution        =    9434.91536603 Ry
     electric field correction =       0.00033441 Ry
     smearing contrib. (-TS)   =      -0.03585176 Ry

     convergence has been achieved in  18 iterations

 BEEF-vdW xc energy contributions
           1 :   -539.801686580074
           2 :    489.856638097938
           3 :   -406.155739571942
           4 :    313.064010869278
           5 :   -232.114637557066
           6 :    173.942604632667
           7 :   -136.792138858476
           8 :    111.331366327327
           9 :   -88.1360245962265
          10 :    63.1970802863885
          11 :   -38.6843710369807
          12 :    19.5019284319221
          13 :   -8.71400739958369
          14 :    5.13032369089899
          15 :   -4.36467582003127
          16 :    2.08582052538316
          17 :    3.15859212550038
          18 :   -9.50831364905468
          19 :    13.7642438136460
          20 :   -14.0721365843061
          21 :    11.2906304945558
          22 :   -8.18498596588699
          23 :    7.25772875375992
          24 :   -8.95533281824135
          25 :    11.5553540973913
          26 :   -12.6833881058513
          27 :    11.1965637830066
          28 :   -7.99989510488206
          29 :    5.26139155249200
          30 :   -4.72041834225809
          31 :   -39.9931411882461
          32 :   -27.1344479963627

     Forces acting on atoms (Ry/au):

     negative rho (up, down):  1.107E-03 0.000E+00
     atom    1 type  1   force =    -0.00003453   -0.00004042    0.00256329
     atom    2 type  1   force =     0.00000705   -0.00030404    0.00231513
     atom    3 type  1   force =    -0.00031253    0.00011865    0.00198532
     atom    4 type  1   force =     0.00024458    0.00019876    0.00205331
     atom    5 type  1   force =    -0.00103312    0.00059122    0.00290659
     atom    6 type  1   force =     0.00104018    0.00060290    0.00292543
     atom    7 type  1   force =     0.00002155    0.00000377   -0.00992041
     atom    8 type  1   force =    -0.00000317   -0.00117432    0.00305704
     atom    9 type  1   force =     0.01260889    0.00727862    0.02626108
     atom   10 type  1   force =    -0.01256458    0.00725554    0.02643008
     atom   11 type  1   force =     0.00000613   -0.01454591    0.02622241
     atom   12 type  1   force =     0.00001231    0.00000860   -0.00744058
     atom   13 type  2   force =     0.00000723    0.00000664   -0.07935869

     Total force =     0.095200     Total SCF correction =     0.001355

     entering subroutine stress ...

     negative rho (up, down):  1.107E-03 0.000E+00
          total   stress  (Ry/bohr**3)                   (kbar)     P=   -9.29
  -0.00006874  -0.00000000   0.00000000        -10.11     -0.00      0.00
  -0.00000000  -0.00006874  -0.00000000         -0.00    -10.11     -0.00
   0.00000000  -0.00000000  -0.00005192          0.00     -0.00     -7.64

     BFGS Geometry Optimization

     number of scf cycles    =   1
     number of bfgs steps    =   0

     energy   new            =   -5031.6162921975 Ry

     new trust radius        =       0.0793586939 bohr
     new conv_thr            =       0.0000099958 Ry

ATOMIC_POSITIONS (crystal)
Ga1      0.166666667   0.166666667   0.400460194    0   0   0
Ga1      0.666666667   0.166666667   0.400460194    0   0   0
Ga1      0.166666667   0.666666667   0.400460194    0   0   0
Ga1      0.666666667   0.666666667   0.400460194    0   0   0
Ga1      0.833333333   0.333333333   0.500000000    0   0   0
Ga1      0.333333333   0.333333333   0.500000000    0   0   0
Ga1      0.833333333   0.833333333   0.500000000    0   0   0
Ga1      0.333333333   0.833333333   0.500000000    0   0   0
Ga1      0.000730646   0.000730477   0.600096316
Ga1      0.498543886   0.000728160   0.600099897
Ga1      0.000730441   0.498540184   0.600095497
Ga1      0.500000639   0.500000863   0.599382129
O1       0.166666962   0.166667333   0.646794317

     Writing output data file calc.save
     Check: negative starting charge=   -0.001367
     NEW-OLD atomic charge density approx. for the potential
     Check: negative starting charge=   -0.001348

[...]

     energy   old            =   -5031.6162921975 Ry
     energy   new            =   -5031.6244577599 Ry

     CASE: energy  _new < energy  _old

     WARNING: bfgs curvature condition failed, Theta= 0.993
     new trust radius        =       0.0872945633 bohr
     new conv_thr            =       0.0000001000 Ry

[...]

     WARNING: bfgs curvature condition failed, Theta= 0.868
     new trust radius        =       0.0123827055 bohr
     new conv_thr            =       0.0000001000 Ry

[...]

     Total force =     0.007638     Total SCF correction =     0.001490
     SCF correction compared to forces is large: reduce conv_thr to get better values

[...]

     Total force =     0.002459     Total SCF correction =     0.000446
     SCF correction compared to forces is large: reduce conv_thr to get better values

[...]

     number of scf cycles    =  16
     number of bfgs steps    =  15

     energy   old            =   -5031.6473812732 Ry
     energy   new            =   -5031.6474030916 Ry

     CASE: energy  _new < energy  _old

     new trust radius        =       0.0085079525 bohr
     new conv_thr            =       0.0000001000 Ry

ATOMIC_POSITIONS (crystal)
Ga1      0.166666667   0.166666667   0.400460194    0   0   0
Ga1      0.666666667   0.166666667   0.400460194    0   0   0
Ga1      0.166666667   0.666666667   0.400460194    0   0   0
Ga1      0.666666667   0.666666667   0.400460194    0   0   0
Ga1      0.833333333   0.333333333   0.500000000    0   0   0
Ga1      0.333333333   0.333333333   0.500000000    0   0   0
Ga1      0.833333333   0.833333333   0.500000000    0   0   0
Ga1      0.333333333   0.833333333   0.500000000    0   0   0
Ga1     -0.006912929  -0.006922288   0.602523203
Ga1      0.513846012  -0.006921264   0.602529428
Ga1     -0.006911940   0.513836866   0.602523300
Ga1      0.499997787   0.500001904   0.591643999
O1       0.166666226   0.166667702   0.633316874

     Writing output data file calc.save
     Check: negative starting charge=   -0.001351
     NEW-OLD atomic charge density approx. for the potential
     Check: negative starting charge=   -0.001351

[...]

     Self-consistent Calculation

[...]

     Threshold (ethr) on eigenvalues was too large:
     Diagonalizing with lowered threshold

     Davidson diagonalization with overlap
     ethr =  4.30E-09,  avg # of iterations =  4.5

[...]

     total energy              =   -5031.64741506 Ry
     Harris-Foulkes estimate   =   -5031.64741508 Ry
     estimated scf accuracy    <       0.00000011 Ry

     iteration #  6     ecut=    36.75 Ry     beta=0.30
     Davidson diagonalization with overlap
     ethr =  4.51E-11,  avg # of iterations =  3.0

[...]

     negative rho (up, down):  1.061E-03 0.000E+00

     Adding external electric field

     Computed dipole along edir(3) :
        Dipole               -0.1191 Ry au,         -0.3028 Debye
        Dipole field         -0.0003 Ry au

        Potential amp.        0.0255 Ry
        Total length         46.0091 bohr

     End of self-consistent calculation

[...]

          k = 0.0547-0.0632 0.0000 ( 20377 PWs)   bands (ev):

[...]

          k =-0.0821-0.0474 0.0000 ( 20384 PWs)   bands (ev):

   -94.7336 -94.7336 -94.7327 -94.7144 -94.7090 -94.7088 -94.7085 -94.7085
   -94.7083 -94.7082 -94.7061 -94.7057 -94.7052 -94.6983 -94.6983 -94.6982
   -94.6948 -94.6948 -94.6945 -94.6943 -94.6943 -94.6938 -94.6937 -94.6933
   -94.6878 -94.6873 -94.6869 -94.6864 -94.6862 -94.6860 -94.6451 -94.6360
   -94.6360 -94.6306 -94.6300 -94.6295 -19.0634 -15.1764 -15.1603 -15.1447
   -15.1447 -15.1361 -15.1334 -15.1279 -15.1203 -15.1150 -15.1133 -15.1067
   -15.0974 -15.0945 -15.0916 -15.0901 -15.0870 -15.0777 -15.0766 -15.0650
   -15.0647 -15.0630 -15.0630 -15.0551 -15.0457 -15.0440 -15.0406 -15.0375
   -15.0306 -15.0293 -15.0279 -15.0197 -15.0195 -15.0145 -15.0094 -15.0046
   -15.0012 -14.9928 -14.9897 -14.9864 -14.9839 -14.9831 -14.9769 -14.9743
   -14.9742 -14.9696 -14.9678 -14.9626 -14.9561 -14.9536 -14.9406 -14.9366
   -14.9336 -14.9330 -14.9246 -14.9068 -14.9049 -14.8984 -14.8892 -14.8868
   -14.6268  -8.8293  -8.5751  -7.5329  -6.9301  -6.5274  -5.9799  -5.6454
    -5.4923  -4.8017  -4.4677  -3.9119  -3.6068  -3.0683  -1.7690  -1.6392
    -0.8355  -0.6522  -0.3450  -0.3053  -0.0291   0.3154   1.0574   1.3103
     1.3785   1.8933   2.0001   2.3935   2.4668   2.6729   2.7595

     the Fermi energy is     0.0291 ev

!    total energy              =   -5031.64741510 Ry
     Harris-Foulkes estimate   =   -5031.64741500 Ry
     estimated scf accuracy    <       0.00000002 Ry

     The total energy is the sum of the following terms:

     one-electron contribution =  -27844.43296535 Ry
     hartree contribution      =   13928.26261954 Ry
     xc contribution           =    -604.19558550 Ry
     ewald contribution        =    9488.75261104 Ry
     electric field correction =       0.00003296 Ry
     smearing contrib. (-TS)   =      -0.03412779 Ry

     convergence has been achieved in   6 iterations

 BEEF-vdW xc energy contributions
           1 :   -539.968831636335
           2 :    490.069082511574
           3 :   -406.393737805756
           4 :    313.257888719783
           5 :   -232.202797399374
           6 :    173.910518401096
           7 :   -136.676357561602
           8 :    111.196166719394
           9 :   -88.0383867376199
          10 :    63.1595894334295
          11 :   -38.6896947052669
          12 :    19.5119266487704
          13 :   -8.70127512281465
          14 :    5.09726582309145
          15 :   -4.33483771749286
          16 :    2.07919969975342
          17 :    3.14399223942542
          18 :   -9.49662223986684
          19 :    13.7837993452983
          20 :   -14.1307228731355
          21 :    11.3627077998094
          22 :   -8.22382357219612
          23 :    7.22712671455565
          24 :   -8.85978364337757
          25 :    11.4461842717387
          26 :   -12.6341563388482
          27 :    11.2626902041185
          28 :   -8.18456951119742
          29 :    5.50408388484698
          30 :   -4.91541347470184
          31 :   -40.0032920047391
          32 :   -27.1508863954351

     Forces acting on atoms (Ry/au):

     negative rho (up, down):  1.061E-03 0.000E+00
     atom    1 type  1   force =     0.00000056   -0.00000033    0.00328783
     atom    2 type  1   force =    -0.00000008   -0.00159357    0.00159227
     atom    3 type  1   force =    -0.00138049    0.00079696    0.00159266
     atom    4 type  1   force =     0.00138005    0.00079685    0.00159217
     atom    5 type  1   force =     0.00280343   -0.00161858   -0.00025135
     atom    6 type  1   force =    -0.00280329   -0.00162133   -0.00025118
     atom    7 type  1   force =    -0.00000300    0.00000159   -0.00634982
     atom    8 type  1   force =     0.00000249    0.00323843   -0.00025114
     atom    9 type  1   force =    -0.00007476   -0.00004178   -0.00023111
     atom   10 type  1   force =     0.00007663   -0.00004483   -0.00023807
     atom   11 type  1   force =    -0.00000182    0.00008624   -0.00023112
     atom   12 type  1   force =     0.00000174   -0.00000039    0.00103808
     atom   13 type  2   force =    -0.00000147    0.00000073   -0.00129921

     Total force =     0.001718     Total SCF correction =     0.000157

     entering subroutine stress ...

     negative rho (up, down):  1.061E-03 0.000E+00
          total   stress  (Ry/bohr**3)                   (kbar)     P=   -5.22
  -0.00004574  -0.00000000  -0.00000000         -6.73     -0.00     -0.00
  -0.00000000  -0.00004574   0.00000000         -0.00     -6.73      0.00
  -0.00000000   0.00000000  -0.00001494         -0.00      0.00     -2.20

     bfgs converged in  17 scf cycles and  16 bfgs steps
     (criteria: energy <  1.0E+00, force <  1.9E-03)

     End of BFGS Geometry Optimization

     Final energy   =   -5031.6474150956 Ry
Begin final coordinates

ATOMIC_POSITIONS (crystal)
Ga1      0.166666667   0.166666667   0.400460194    0   0   0
Ga1      0.666666667   0.166666667   0.400460194    0   0   0
Ga1      0.166666667   0.666666667   0.400460194    0   0   0
Ga1      0.666666667   0.666666667   0.400460194    0   0   0
Ga1      0.833333333   0.333333333   0.500000000    0   0   0
Ga1      0.333333333   0.333333333   0.500000000    0   0   0
Ga1      0.833333333   0.833333333   0.500000000    0   0   0
Ga1      0.333333333   0.833333333   0.500000000    0   0   0
Ga1     -0.006912929  -0.006922288   0.602523203
Ga1      0.513846012  -0.006921264   0.602529428
Ga1     -0.006911940   0.513836866   0.602523300
Ga1      0.499997787   0.500001904   0.591643999
O1       0.166666226   0.166667702   0.633316874
End final coordinates

     Writing output data file calc.save

     General routines

     Parallel routines

   This run was terminated on:  21:47:15   3May2018

   JOB DONE.
Job  /afs/slac/g/suncat/bin/suncat-tsmpirun -x LD_LIBRARY_PATH -wdir /scratch/qe831791_TF216 pw.x -npool 4 -in pw.inp

TID   HOST_NAME   COMMAND_LINE            STATUS            TERMINATION_TIME
00000 suncat0025 pw.x -npool 4 -i  Done                     05/03/2018 21:47:15
00001 suncat0025 pw.x -npool 4 -i  Done                     05/03/2018 21:47:15
00002 suncat0025 pw.x -npool 4 -i  Done                     05/03/2018 21:47:15
00003 suncat0025 pw.x -npool 4 -i  Done                     05/03/2018 21:47:15
00004 suncat0025 pw.x -npool 4 -i  Done                     05/03/2018 21:47:15
00005 suncat0025 pw.x -npool 4 -i  Done                     05/03/2018 21:47:15
00006 suncat0025 pw.x -npool 4 -i  Done                     05/03/2018 21:47:15
00007 suncat0025 pw.x -npool 4 -i  Done                     05/03/2018 21:47:15
00008 suncat0199 pw.x -npool 4 -i  Done                     05/03/2018 21:47:15
00009 suncat0199 pw.x -npool 4 -i  Done                     05/03/2018 21:47:15
00010 suncat0199 pw.x -npool 4 -i  Done                     05/03/2018 21:47:15
00011 suncat0199 pw.x -npool 4 -i  Done                     05/03/2018 21:47:15
00012 suncat0199 pw.x -npool 4 -i  Done                     05/03/2018 21:47:15
00013 suncat0199 pw.x -npool 4 -i  Done                     05/03/2018 21:47:15
00014 suncat0199 pw.x -npool 4 -i  Done                     05/03/2018 21:47:15
00015 suncat0199 pw.x -npool 4 -i  Done                     05/03/2018 21:47:15
00016 suncat0004 pw.x -npool 4 -i  Done                     05/03/2018 21:47:15
00017 suncat0004 pw.x -npool 4 -i  Done                     05/03/2018 21:47:15
00018 suncat0004 pw.x -npool 4 -i  Done                     05/03/2018 21:47:15
00019 suncat0004 pw.x -npool 4 -i  Done                     05/03/2018 21:47:15
00020 suncat0004 pw.x -npool 4 -i  Done                     05/03/2018 21:47:15
00021 suncat0004 pw.x -npool 4 -i  Done                     05/03/2018 21:47:15
00022 suncat0004 pw.x -npool 4 -i  Done                     05/03/2018 21:47:15
00023 suncat0004 pw.x -npool 4 -i  Done                     05/03/2018 21:47:15
00024 suncat0162 pw.x -npool 4 -i  Done                     05/03/2018 21:47:15
00025 suncat0162 pw.x -npool 4 -i  Done                     05/03/2018 21:47:15
00026 suncat0162 pw.x -npool 4 -i  Done                     05/03/2018 21:47:15
00027 suncat0162 pw.x -npool 4 -i  Done                     05/03/2018 21:47:15
00028 suncat0162 pw.x -npool 4 -i  Done                     05/03/2018 21:47:15
00029 suncat0162 pw.x -npool 4 -i  Done                     05/03/2018 21:47:15
00030 suncat0162 pw.x -npool 4 -i  Done                     05/03/2018 21:47:15
00031 suncat0162 pw.x -npool 4 -i  Done                     05/03/2018 21:47:15