     Program PWSCF v.5.1rc2 (svn rev. 11289) starts on 16Jan2018 at 13:13: 8

     Current dimensions of program PWSCF are:
     Max number of different atomic species (ntypx) = 10
     Max number of k-points (npk) =  40000
     Max angular momentum in pseudopotentials (lmaxx) =  3
     Presently stress not available with electric field

     IMPORTANT: XC functional enforced from input :
     Exchange-correlation      = BEEF-VDW ( 1  4 27 13 2)
     Any further DFT definition will be discarded
     Please, verify this is what you really want

     Subspace diagonalization in iterative solution of the eigenvalue problem:
     a serial algorithm will be used

     bravais-lattice index     =            0
     lattice parameter (alat)  =       1.8897  a.u.
     unit-cell volume          =    4481.2752 (a.u.)^3
     number of atoms/cell      =           13
     number of atomic types    =            2
     number of electrons       =       193.00
     number of Kohn-Sham states=          106
     kinetic-energy cutoff     =      36.7493  Ry
     charge density cutoff     =     367.4932  Ry
     convergence threshold     =      1.0E-05
     mixing beta               =       0.3000
     number of iterations used =           10  plain     mixing
     Exchange-correlation      = BEEF-VDW ( 1  4 27 13 2)
     nstep                     =           50

     celldm(1)=   1.889726  celldm(2)=   0.000000  celldm(3)=   0.000000
     celldm(4)=   0.000000  celldm(5)=   0.000000  celldm(6)=   0.000000

     crystal axes: (cart. coord. in units of alat)
               a(1) = (   5.587338   0.000000   0.000000 )
               a(2) = (   2.793669   4.838777   0.000000 )
               a(3) = (   0.000000   0.000000  24.562042 )

     reciprocal axes: (cart. coord. in units 2 pi/alat)
               b(1) = (  0.178976 -0.103332  0.000000 )
               b(2) = (  0.000000  0.206664  0.000000 )
               b(3) = (  0.000000  0.000000  0.040713 )

     PseudoPot. # 1 for Pt read from file:
     /afs/slac.stanford.edu/u/if/mamunm/psp/gbrv1.5pbe/Pt.UPF
     MD5 check sum: f09d6de1a584b5a045c4fc126da2d0c4
     Pseudo is Ultrasoft + core correction, Zval = 16.0
     Generated by new atomic code, or converted to UPF format
     Using radial grid of  985 points,  6 beta functions with:
                l(1) =   0
                l(2) =   0
                l(3) =   1
                l(4) =   1
                l(5) =   2
                l(6) =   2
     Q(r) pseudized with  8 coefficients,  rinner =    1.300   1.300   1.300
                                                       1.300   1.300

     PseudoPot. # 2 for H  read from file:
     /afs/slac.stanford.edu/u/if/mamunm/psp/gbrv1.5pbe/H.UPF
     MD5 check sum: 761ae9a214b05c3daf00ab9f6b793d6f
     Pseudo is Ultrasoft, Zval =  1.0
     Generated by new atomic code, or converted to UPF format
     Using radial grid of  615 points,  2 beta functions with:
                l(1) =   0
                l(2) =   0
     Q(r) pseudized with  8 coefficients,  rinner =    0.700

     vdW kernel table read from file vdW_kernel_table
     MD5 check sum: 095c7af220d748ca6e76c0b4c6cfb241

     atomic species   valence    mass     pseudopotential
        Pt1           16.00   195.08400     Pt( 1.00)
        H1             1.00     1.00800     H ( 1.00)

     No symmetry found

   Cartesian axes

     site n.     atom                  positions (alat units)
         1           Pt1 tau(   1) = (   1.3968345   0.8064628  10.0000000  )
         2           Pt1 tau(   2) = (   4.1905036   0.8064628  10.0000000  )
         3           Pt1 tau(   3) = (   2.7936691   3.2258512  10.0000000  )
         4           Pt1 tau(   4) = (   5.5873381   3.2258512  10.0000000  )
         5           Pt1 tau(   5) = (   5.5873381   1.6129256  12.2810212  )
         6           Pt1 tau(   6) = (   2.7936691   1.6129256  12.2810212  )
         7           Pt1 tau(   7) = (   6.9841727   4.0323140  12.2810212  )
         8           Pt1 tau(   8) = (   4.1905036   4.0323140  12.2810212  )
         9           Pt1 tau(   9) = (   0.0000000   0.0000000  14.5620425  )
        10           Pt1 tau(  10) = (   2.7936691   0.0000000  14.5620425  )
        11           Pt1 tau(  11) = (   1.3968345   2.4193884  14.5620425  )
        12           Pt1 tau(  12) = (   4.1905036   2.4193884  14.5620425  )
        13           H1  tau(  13) = (   1.3968345   0.0000000  16.2320425  )

     number of k points=    20  Fermi-Dirac smearing, width (Ry)=  0.0110
                       cart. coord. in units 2pi/alat
        k(    1) = (   0.0000000   0.0000000   0.0000000), wk =   0.0555556
        k(    2) = (   0.0000000   0.0344440   0.0000000), wk =   0.1111111
        k(    3) = (   0.0000000   0.0688879   0.0000000), wk =   0.1111111
        k(    4) = (   0.0000000  -0.1033319   0.0000000), wk =   0.0555556
        k(    5) = (   0.0298294  -0.0172220   0.0000000), wk =   0.1111111
        k(    6) = (   0.0298294   0.0172220   0.0000000), wk =   0.1111111
        k(    7) = (   0.0298294   0.0516660   0.0000000), wk =   0.1111111
        k(    8) = (   0.0298294  -0.1205539   0.0000000), wk =   0.1111111
        k(    9) = (   0.0298294  -0.0861099   0.0000000), wk =   0.1111111
        k(   10) = (   0.0298294  -0.0516660   0.0000000), wk =   0.1111111
        k(   11) = (   0.0596587  -0.0344440   0.0000000), wk =   0.1111111
        k(   12) = (   0.0596587   0.0000000   0.0000000), wk =   0.1111111
        k(   13) = (   0.0596587   0.0344440   0.0000000), wk =   0.1111111
        k(   14) = (   0.0596587  -0.1377759   0.0000000), wk =   0.1111111
        k(   15) = (   0.0596587  -0.1033319   0.0000000), wk =   0.1111111
        k(   16) = (   0.0596587  -0.0688879   0.0000000), wk =   0.1111111
        k(   17) = (  -0.0894881   0.0516660   0.0000000), wk =   0.0555556
        k(   18) = (  -0.0894881   0.0861099   0.0000000), wk =   0.1111111
        k(   19) = (  -0.0894881   0.1205539   0.0000000), wk =   0.1111111
        k(   20) = (  -0.0894881  -0.0516660   0.0000000), wk =   0.0555556

     Largest allocated arrays     est. size (Mb)     dimensions
     Largest temporary arrays     est. size (Mb)     dimensions

     Initial potential from superposition of free atoms
     Check: negative starting charge=   -2.200752

     starting charge  186.99986, renormalised to  193.00000

     negative rho (up, down):  2.271E+00 0.000E+00

     *
     * You are using vdW-DF for exchange-correlation in this calculation.
     * Please cite the following three references that made this development
     * possible:
     *
     *   M. Dion, H. Rydberg, E. Schroder, D. C. Langreth, and
     *   B. I. Lundqvist, Phys. Rev. Lett. 92, 246401 (2004).
     *
     *   T. Thonhauser, V. R. Cooper, S. Li, A. Puzder, P. Hyldgaard, and
     *   D. C. Langreth, Phys. Rev. B 76, 125112 (2007).
     *
     *   G. Roman-Perez and J. M. Soler, Phys. Rev. Lett. 103, 096102 (2009).
     *
     *
     * If you are using vdW-DF2, please also cite:
     *
     *   K. Lee, E. D. Murray, L. Kong, B. I. Lundqvist, and
     *   D. C. Langreth, Phys. Rev. B 82, 081101(R) (2010).
     *
     *
     * If you are calculating the stress with vdW-DF, please also cite:
     *
     *   R. Sabatini, E. Kucukbenli, B. Kolb, T. Thonhauser, and
     *   S. de Gironcoli, J. Phys.: Condens. Matter 24, 424209 (2012).
     *

     Carrying out vdW-DF run using the following parameters:

     Nqs =      20    Nr_points =    1024   r_max =   100.000
     q_mesh =
               0.00001000     0.04494208     0.09755937     0.15916263
               0.23128650     0.31572767     0.41458969     0.53033537
               0.66584808     0.82450364     1.01025438     1.22772762
               1.48234092     1.78043706     2.12944203     2.53805004
               3.01644009     3.57652955     4.23227104     5.00000000

     Gradients computed in reciprocal space

     Adding external electric field

     Computed dipole along edir(3) :
        Dipole               -0.2395 Ry au,         -0.6087 Debye
        Dipole field         -0.0007 Ry au

        Potential amp.        0.0608 Ry
        Total length         45.2551 bohr

     Starting wfc are  145 randomized atomic wfcs

     Self-consistent Calculation

     iteration #  1     ecut=    36.75 Ry     beta=0.30
     Davidson diagonalization with overlap
     ethr =  1.00E-02,  avg # of iterations =  3.0

[...]

     total energy              =   -2545.41946644 Ry
     Harris-Foulkes estimate   =   -2552.53664766 Ry
     estimated scf accuracy    <      16.37378459 Ry

[...]

     End of self-consistent calculation

          k = 0.0000 0.0000 0.0000 ( 16787 PWs)   bands (ev):

   -51.2500 -51.2487 -51.2282 -51.1588 -51.0962 -51.0833 -51.0751 -51.0096
   -51.0009 -50.9967 -50.9828 -50.9602 -50.9368 -50.9075 -50.9071 -50.8785
   -50.8769 -50.8688 -50.8123 -50.7390 -50.6823 -50.6621 -50.6597 -50.6473
   -50.6313 -50.6253 -50.6225 -50.5911 -50.5764 -50.5729 -50.4793 -50.4572
   -50.4347 -50.4223 -50.4206 -50.4107  -7.0380  -5.3669  -4.8785  -4.5180
    -4.5035  -4.4992  -4.3235  -4.2828  -4.2791  -3.8802  -3.8274  -3.8264
    -3.7066  -3.6798  -3.6636  -2.5971  -2.2798  -2.2643  -1.9348  -1.8919
    -1.8888  -1.7301  -1.6261  -1.6260  -1.5102  -1.3310  -1.3305  -1.1872
    -1.1810  -1.1767  -1.1091  -1.1022  -0.7650  -0.6057  -0.5380  -0.3438
     0.2964   0.3172   0.3535   0.3592   0.3686   0.5079   0.5296   0.6848
     0.9625   0.9790   1.4826   1.5046   1.5320   1.5516   1.5548   1.5868
     1.6834   1.6849   1.9262   1.9283   1.9343   2.0150   2.1927   2.2178
     2.2381   2.3044   2.3047   2.3076   2.9663   3.0824   3.0962   4.2497
     4.7180   4.7391

[...]

          k =-0.0895 0.0517 0.0000 ( 16880 PWs)   bands (ev):

[...]

     the Fermi energy is     1.7651 ev

!    total energy              =   -2549.32120167 Ry
     Harris-Foulkes estimate   =   -2549.32120666 Ry
     estimated scf accuracy    <       0.00000711 Ry

     The total energy is the sum of the following terms:

     one-electron contribution =  -20229.64518466 Ry
     hartree contribution      =   10151.73640656 Ry
     xc contribution           =    -704.08592547 Ry
     ewald contribution        =    8232.78206333 Ry
     electric field correction =       0.00000036 Ry
     smearing contrib. (-TS)   =      -0.10856179 Ry

     convergence has been achieved in  15 iterations

 BEEF-vdW xc energy contributions
           1 :   -626.980024196910
           2 :    583.693153100118
           3 :   -505.983054038599
           4 :    408.543010403167
           5 :   -307.533040292536
           6 :    216.447918072199
           7 :   -143.404354346632
           8 :    90.4142001728979
           9 :   -54.5883560117202
          10 :    30.5484043015994
          11 :   -13.0094709650764
          12 :   -1.42805195663232
          13 :    13.7482075390416
          14 :   -23.1540186889541
          15 :    28.3203084601225
          16 :   -28.5983028498677
          17 :    24.6432443639766
          18 :   -18.2895372294131
          19 :    11.8504740261960
          20 :   -7.24889242187783
          21 :    5.38316222737126
[...]
00029 suncat0256 pw.x -in pw.inp   Done                     01/16/2018 13:24:26
00030 suncat0256 pw.x -in pw.inp   Done                     01/16/2018 13:24:26
00031 suncat0256 pw.x -in pw.inp   Done                     01/16/2018 13:24:26

     Program PWSCF v.5.1rc2 (svn rev. 11289) starts on 16Jan2018 at 13:24:31

[...]

     Check: negative/imaginary core charge=   -0.000001    0.000000

[...]

   This run was terminated on:  13:59: 5  16Jan2018

[...]

   This run was terminated on:  14:32: 9  16Jan2018

[...]

     Program PWSCF v.5.1rc2 (svn rev. 11289) starts on 16Jan2018 at 14:32:15

     Current dimensions of program PWSCF are:
     Max number of different atomic species (ntypx) = 10
     Max number of k-points (npk) =  40000
     Max angular momentum in pseudopotentials (lmaxx) =  3
     Presently stress not available with electric field

     IMPORTANT: XC functional enforced from input :
     Exchange-correlation      = BEEF-VDW ( 1  4 27 13 2)
     Any further DFT definition will be discarded
     Please, verify this is what you really want

     Subspace diagonalization in iterative solution of the eigenvalue problem:
     a serial algorithm will be used

     bravais-lattice index     =            0
     lattice parameter (alat)  =       1.8897  a.u.
     unit-cell volume          =    4481.2752 (a.u.)^3
     number of atoms/cell      =           13
     number of atomic types    =            2
     number of electrons       =       193.00
     number of Kohn-Sham states=          106
     kinetic-energy cutoff     =      36.7493  Ry
     charge density cutoff     =     367.4932  Ry
     convergence threshold     =      1.0E-05
     mixing beta               =       0.3000
     number of iterations used =           10  plain     mixing
     Exchange-correlation      = BEEF-VDW ( 1  4 27 13 2)
     nstep                     =           50

     celldm(1)=   1.889726  celldm(2)=   0.000000  celldm(3)=   0.000000
     celldm(4)=   0.000000  celldm(5)=   0.000000  celldm(6)=   0.000000

     crystal axes: (cart. coord. in units of alat)
               a(1) = (   5.587338   0.000000   0.000000 )
               a(2) = (   2.793669   4.838777   0.000000 )
               a(3) = (   0.000000   0.000000  24.562042 )

     reciprocal axes: (cart. coord. in units 2 pi/alat)
               b(1) = (  0.178976 -0.103332  0.000000 )
               b(2) = (  0.000000  0.206664  0.000000 )
               b(3) = (  0.000000  0.000000  0.040713 )

     PseudoPot. # 1 for Pt read from file:
     /afs/slac.stanford.edu/u/if/mamunm/psp/gbrv1.5pbe/Pt.UPF
     MD5 check sum: f09d6de1a584b5a045c4fc126da2d0c4
     Pseudo is Ultrasoft + core correction, Zval = 16.0
     Generated by new atomic code, or converted to UPF format
     Using radial grid of  985 points,  6 beta functions with:
                l(1) =   0
                l(2) =   0
                l(3) =   1
                l(4) =   1
                l(5) =   2
                l(6) =   2
     Q(r) pseudized with  8 coefficients,  rinner =    1.300   1.300   1.300
                                                       1.300   1.300

     PseudoPot. # 2 for H  read from file:
     /afs/slac.stanford.edu/u/if/mamunm/psp/gbrv1.5pbe/H.UPF
     MD5 check sum: 761ae9a214b05c3daf00ab9f6b793d6f
     Pseudo is Ultrasoft, Zval =  1.0
     Generated by new atomic code, or converted to UPF format
     Using radial grid of  615 points,  2 beta functions with:
                l(1) =   0
                l(2) =   0
     Q(r) pseudized with  8 coefficients,  rinner =    0.700

     vdW kernel table read from file vdW_kernel_table
     MD5 check sum: 095c7af220d748ca6e76c0b4c6cfb241

     atomic species   valence    mass     pseudopotential
        Pt1           16.00   195.08400     Pt( 1.00)
        H1             1.00     1.00800     H ( 1.00)

     No symmetry found

   Cartesian axes

     site n.     atom                  positions (alat units)
         1           Pt1 tau(   1) = (   1.3968345   0.8064628  10.0000000  )
         2           Pt1 tau(   2) = (   4.1905036   0.8064628  10.0000000  )
         3           Pt1 tau(   3) = (   2.7936691   3.2258512  10.0000000  )
         4           Pt1 tau(   4) = (   5.5873381   3.2258512  10.0000000  )
         5           Pt1 tau(   5) = (   5.5873381   1.6129256  12.2810212  )
         6           Pt1 tau(   6) = (   2.7936691   1.6129256  12.2810212  )
         7           Pt1 tau(   7) = (   6.9841727   4.0323140  12.2810212  )
         8           Pt1 tau(   8) = (   4.1905036   4.0323140  12.2810212  )
         9           Pt1 tau(   9) = (   8.3693127   4.8292222  14.6912535  )
        10           Pt1 tau(  10) = (   5.5990457   4.8292263  14.6912760  )
        11           Pt1 tau(  11) = (   6.9841749   2.4362460  14.6090102  )
        12           Pt1 tau(  12) = (   4.1904997   2.3941652  14.6189506  )
        13           H1  tau(  13) = (   1.3968229   0.0122301  15.7479330  )

     number of k points=    20  Fermi-Dirac smearing, width (Ry)=  0.0110
                       cart. coord. in units 2pi/alat
        k(    1) = (   0.0000000   0.0000000   0.0000000), wk =   0.0555556
        k(    2) = (   0.0000000   0.0344440   0.0000000), wk =   0.1111111
        k(    3) = (   0.0000000   0.0688879   0.0000000), wk =   0.1111111
        k(    4) = (   0.0000000  -0.1033319   0.0000000), wk =   0.0555556
        k(    5) = (   0.0298294  -0.0172220   0.0000000), wk =   0.1111111
        k(    6) = (   0.0298294   0.0172220   0.0000000), wk =   0.1111111
        k(    7) = (   0.0298294   0.0516660   0.0000000), wk =   0.1111111
        k(    8) = (   0.0298294  -0.1205539   0.0000000), wk =   0.1111111
        k(    9) = (   0.0298294  -0.0861099   0.0000000), wk =   0.1111111
        k(   10) = (   0.0298294  -0.0516660   0.0000000), wk =   0.1111111
        k(   11) = (   0.0596587  -0.0344440   0.0000000), wk =   0.1111111
        k(   12) = (   0.0596587   0.0000000   0.0000000), wk =   0.1111111
        k(   13) = (   0.0596587   0.0344440   0.0000000), wk =   0.1111111
        k(   14) = (   0.0596587  -0.1377759   0.0000000), wk =   0.1111111
        k(   15) = (   0.0596587  -0.1033319   0.0000000), wk =   0.1111111
        k(   16) = (   0.0596587  -0.0688879   0.0000000), wk =   0.1111111
        k(   17) = (  -0.0894881   0.0516660   0.0000000), wk =   0.0555556
        k(   18) = (  -0.0894881   0.0861099   0.0000000), wk =   0.1111111
        k(   19) = (  -0.0894881   0.1205539   0.0000000), wk =   0.1111111
        k(   20) = (  -0.0894881  -0.0516660   0.0000000), wk =   0.0555556

     Largest allocated arrays     est. size (Mb)     dimensions
     Largest temporary arrays     est. size (Mb)     dimensions

     Check: negative/imaginary core charge=   -0.000001    0.000000

     Initial potential from superposition of free atoms
     Check: negative starting charge=   -2.197385

     starting charge  186.99986, renormalised to  193.00000

[...]

     *
     * You are using vdW-DF for exchange-correlation in this calculation.
     * Please cite the following three references that made this development
     * possible:
     *
     *   M. Dion, H. Rydberg, E. Schroder, D. C. Langreth, and
     *   B. I. Lundqvist, Phys. Rev. Lett. 92, 246401 (2004).
     *
     *   T. Thonhauser, V. R. Cooper, S. Li, A. Puzder, P. Hyldgaard, and
     *   D. C. Langreth, Phys. Rev. B 76, 125112 (2007).
     *
     *   G. Roman-Perez and J. M. Soler, Phys. Rev. Lett. 103, 096102 (2009).
     *
     *
     * If you are using vdW-DF2, please also cite:
     *
     *   K. Lee, E. D. Murray, L. Kong, B. I. Lundqvist, and
     *   D. C. Langreth, Phys. Rev. B 82, 081101(R) (2010).
     *
     *
     * If you are calculating the stress with vdW-DF, please also cite:
     *
     *   R. Sabatini, E. Kucukbenli, B. Kolb, T. Thonhauser, and
     *   S. de Gironcoli, J. Phys.: Condens. Matter 24, 424209 (2012).
     *

     Carrying out vdW-DF run using the following parameters:

     Nqs =      20    Nr_points =    1024   r_max =   100.000
     q_mesh =
               0.00001000     0.04494208     0.09755937     0.15916263
               0.23128650     0.31572767     0.41458969     0.53033537
               0.66584808     0.82450364     1.01025438     1.22772762
               1.48234092     1.78043706     2.12944203     2.53805004
               3.01644009     3.57652955     4.23227104     5.00000000

     Gradients computed in reciprocal space

[...]

     Starting wfc are  145 randomized atomic wfcs

     Self-consistent Calculation

[...]

     total energy              =   -2549.38260848 Ry
     Harris-Foulkes estimate   =   -2549.38261989 Ry
     estimated scf accuracy    <       0.00004817 Ry

     iteration # 14     ecut=    36.75 Ry     beta=0.30
     Davidson diagonalization with overlap
     ethr =  2.50E-08,  avg # of iterations =  2.2

[...]

     negative rho (up, down):  2.114E+00 0.000E+00

     Adding external electric field

     Computed dipole along edir(3) :
        Dipole                0.0285 Ry au,          0.0724 Debye
        Dipole field          0.0001 Ry au

        Potential amp.       -0.0072 Ry
        Total length         45.2551 bohr

     End of self-consistent calculation

[...]

          k = 0.0597-0.0689 0.0000 ( 16875 PWs)   bands (ev):

[...]

          k =-0.0895-0.0517 0.0000 ( 16880 PWs)   bands (ev):

   -51.1311 -51.1247 -51.0317 -51.0310 -51.0219 -51.0060 -51.0032 -50.9996
   -50.9981 -50.9790 -50.9489 -50.9442 -50.9015 -50.8957 -50.8662 -50.8582
   -50.8295 -50.8273 -50.7577 -50.7529 -50.7272 -50.7181 -50.7149 -50.6949
   -50.6623 -50.6354 -50.6281 -50.6279 -50.5127 -50.5087 -50.4761 -50.4696
   -50.4275 -50.4214 -50.4192 -50.3953  -5.2875  -5.1408  -4.7108  -3.8716
    -3.6989  -3.4920  -3.4269  -3.4112  -3.3652  -3.3311  -3.2767  -2.8863
    -2.8832  -2.7044  -2.6705  -2.5249  -2.4761  -2.1864  -2.1631  -2.1330
    -2.1103  -2.0563  -1.9734  -1.6790  -1.6509  -1.3702  -1.3078  -1.2916
    -1.2457  -1.2002  -1.0958  -1.0042  -0.9714  -0.9521  -0.9174  -0.8914
    -0.8258  -0.7714  -0.7109  -0.6758  -0.2383  -0.1834  -0.1612  -0.0874
     0.0125   0.0171   0.1934   0.2428   0.2638   0.3585   0.4658   0.4867
     0.7750   0.8640   0.9353   0.9683   1.0185   1.0800   1.4687   1.5165
     1.6643   1.6844   1.9474   1.9811   3.0935   3.3012   3.9445   3.9700
     4.5133   4.7691

     the Fermi energy is     1.7417 ev

!    total energy              =   -2549.38261312 Ry
     Harris-Foulkes estimate   =   -2549.38261486 Ry
     estimated scf accuracy    <       0.00000640 Ry

     The total energy is the sum of the following terms:

     one-electron contribution =  -20002.29242250 Ry
     hartree contribution      =   10038.19127971 Ry
     xc contribution           =    -704.10834499 Ry
     ewald contribution        =    8118.93357341 Ry
     electric field correction =       0.00000228 Ry
     smearing contrib. (-TS)   =      -0.10670103 Ry

     convergence has been achieved in  14 iterations

 BEEF-vdW xc energy contributions
           1 :   -626.993715872322
           2 :    583.656283213181
           3 :   -505.868624999932
           4 :    408.361762918223
           5 :   -307.327995618755
           6 :    216.271465418167
           7 :   -143.292166959829
           8 :    90.3680293527284
           9 :   -54.5756116875297
          10 :    30.5200151001840
          11 :   -12.9276498020104
          12 :   -1.56642836447509
          13 :    13.9064197586895
          14 :   -23.2723190881361
          15 :    28.3467161246364
          16 :   -28.5184725293520
          17 :    24.4923602276848
          18 :   -18.1377327269225
          19 :    11.7676091685546
          20 :   -7.26771627659275
          21 :    5.48163971888755
          22 :   -6.08847174222444
          23 :    7.95529653881329
          24 :   -9.75124317116808
          25 :    10.5245802600261
          26 :   -10.0109461238222
          27 :    8.58956807172888
          28 :   -6.97379463562822
          29 :    5.81759181924076
          30 :   -5.42787679300147
          31 :   -51.3653940986671
          32 :   -37.9982789450747

     Forces acting on atoms (Ry/au):

     negative rho (up, down):  2.114E+00 0.000E+00
     atom    1 type  1   force =    -0.00000149    0.00040940   -0.01487402
     atom    2 type  1   force =     0.00000108   -0.00123489   -0.01343927
     atom    3 type  1   force =    -0.00015703   -0.00001364   -0.01964796
     atom    4 type  1   force =     0.00015713   -0.00001495   -0.01964575
     atom    5 type  1   force =    -0.00072220   -0.00209493    0.01378086
     atom    6 type  1   force =     0.00072085   -0.00209513    0.01378092
     atom    7 type  1   force =     0.00000001    0.00313302    0.02395166
     atom    8 type  1   force =    -0.00000012    0.00164756    0.01603782
     atom    9 type  1   force =     0.00010048   -0.00022049    0.00023152
     atom   10 type  1   force =    -0.00010077   -0.00022268    0.00023198
     atom   11 type  1   force =    -0.00000154    0.00048571   -0.00029036
     atom   12 type  1   force =     0.00000313   -0.00046754   -0.00026700
     atom   13 type  2   force =     0.00000047    0.00068857    0.00014961

     Total force =     0.049092     Total SCF correction =     0.015757
     SCF correction compared to forces is large: reduce conv_thr to get better values

     entering subroutine stress ...

     negative rho (up, down):  2.114E+00 0.000E+00
          total   stress  (Ry/bohr**3)                   (kbar)     P=  -11.47
  -0.00014778   0.00000000   0.00000000        -21.74      0.00      0.00
   0.00000000  -0.00013859   0.00000143          0.00    -20.39      0.21
   0.00000000   0.00000143   0.00005239          0.00      0.21      7.71

 !ASE

     Writing output data file calc.save

     General routines

     Parallel routines

   This run was terminated on:  14:42:57  16Jan2018

   JOB DONE.
Job  /afs/slac/g/suncat/bin/suncat-tsmpirun -x LD_LIBRARY_PATH -wdir /scratch/qe842471_6KT9J pw.x -in pw.inp

TID   HOST_NAME   COMMAND_LINE            STATUS            TERMINATION_TIME
00000 suncat0264 pw.x -in pw.inp   Done                     01/16/2018 14:42:57
00001 suncat0264 pw.x -in pw.inp   Done                     01/16/2018 14:42:57
00002 suncat0264 pw.x -in pw.inp   Done                     01/16/2018 14:42:57
00003 suncat0264 pw.x -in pw.inp   Done                     01/16/2018 14:42:57
00004 suncat0264 pw.x -in pw.inp   Done                     01/16/2018 14:42:57
00005 suncat0264 pw.x -in pw.inp   Done                     01/16/2018 14:42:57
00006 suncat0264 pw.x -in pw.inp   Done                     01/16/2018 14:42:57
00007 suncat0264 pw.x -in pw.inp   Done                     01/16/2018 14:42:57
00008 suncat0259 pw.x -in pw.inp   Done                     01/16/2018 14:42:57
00009 suncat0259 pw.x -in pw.inp   Done                     01/16/2018 14:42:57
00010 suncat0259 pw.x -in pw.inp   Done                     01/16/2018 14:42:57
00011 suncat0259 pw.x -in pw.inp   Done                     01/16/2018 14:42:57
00012 suncat0259 pw.x -in pw.inp   Done                     01/16/2018 14:42:57
00013 suncat0259 pw.x -in pw.inp   Done                     01/16/2018 14:42:57
00014 suncat0259 pw.x -in pw.inp   Done                     01/16/2018 14:42:57
00015 suncat0259 pw.x -in pw.inp   Done                     01/16/2018 14:42:57
00016 suncat0258 pw.x -in pw.inp   Done                     01/16/2018 14:42:57
00017 suncat0258 pw.x -in pw.inp   Done                     01/16/2018 14:42:57
00018 suncat0258 pw.x -in pw.inp   Done                     01/16/2018 14:42:57
00019 suncat0258 pw.x -in pw.inp   Done                     01/16/2018 14:42:57
00020 suncat0258 pw.x -in pw.inp   Done                     01/16/2018 14:42:57
00021 suncat0258 pw.x -in pw.inp   Done                     01/16/2018 14:42:57
00022 suncat0258 pw.x -in pw.inp   Done                     01/16/2018 14:42:57
00023 suncat0258 pw.x -in pw.inp   Done                     01/16/2018 14:42:57
00024 suncat0256 pw.x -in pw.inp   Done                     01/16/2018 14:42:57
00025 suncat0256 pw.x -in pw.inp   Done                     01/16/2018 14:42:57
00026 suncat0256 pw.x -in pw.inp   Done                     01/16/2018 14:42:57
00027 suncat0256 pw.x -in pw.inp   Done                     01/16/2018 14:42:57
00028 suncat0256 pw.x -in pw.inp   Done                     01/16/2018 14:42:57
00029 suncat0256 pw.x -in pw.inp   Done                     01/16/2018 14:42:57
00030 suncat0256 pw.x -in pw.inp   Done                     01/16/2018 14:42:57
00031 suncat0256 pw.x -in pw.inp   Done                     01/16/2018 14:42:57