     Program PWSCF v.5.1rc2 (svn rev. 11289) starts on 17Jan2018 at  4: 7:43

     Current dimensions of program PWSCF are:
     Max number of different atomic species (ntypx) = 10
     Max number of k-points (npk) =  40000
     Max angular momentum in pseudopotentials (lmaxx) =  3
     Presently stress not available with electric field

     IMPORTANT: XC functional enforced from input :
     Exchange-correlation      = BEEF-VDW ( 1  4 27 13 2)
     Any further DFT definition will be discarded
     Please, verify this is what you really want

     Subspace diagonalization in iterative solution of the eigenvalue problem:
     a serial algorithm will be used

     bravais-lattice index     =            0
     lattice parameter (alat)  =       1.8897  a.u.
     unit-cell volume          =    4806.0858 (a.u.)^3
     number of atoms/cell      =           13
     number of atomic types    =            2
     number of electrons       =       150.00
     number of Kohn-Sham states=           85
     kinetic-energy cutoff     =      36.7493  Ry
     charge density cutoff     =     367.4932  Ry
     convergence threshold     =      1.0E-05
     mixing beta               =       0.3000
     number of iterations used =           10  plain     mixing
     Exchange-correlation      = BEEF-VDW ( 1  4 27 13 2)
     nstep                     =           50

     celldm(1)=   1.889726  celldm(2)=   0.000000  celldm(3)=   0.000000
     celldm(4)=   0.000000  celldm(5)=   0.000000  celldm(6)=   0.000000

     crystal axes: (cart. coord. in units of alat)
               a(1) = (   5.768903   0.000000   0.000000 )
               a(2) = (   2.884451   4.996016   0.000000 )
               a(3) = (   0.000000   0.000000  24.710289 )

     reciprocal axes: (cart. coord. in units 2 pi/alat)
               b(1) = (  0.173343 -0.100080  0.000000 )
               b(2) = (  0.000000  0.200159  0.000000 )
               b(3) = (  0.000000  0.000000  0.040469 )

     PseudoPot. # 1 for Ti read from file:
     /afs/slac.stanford.edu/u/if/mamunm/psp/gbrv1.5pbe/Ti.UPF
     MD5 check sum: 88a00a6731bd790ddea75d31a80cb452
     Pseudo is Ultrasoft + core correction, Zval = 12.0
     Generated by new atomic code, or converted to UPF format
     Using radial grid of  851 points,  6 beta functions with:
                l(1) =   0
                l(2) =   0
                l(3) =   1
                l(4) =   1
                l(5) =   2
                l(6) =   2
     Q(r) pseudized with  6 coefficients,  rinner =    1.000   1.000   1.000
                                                       1.000   1.000

     PseudoPot. # 2 for O  read from file:
     /afs/slac.stanford.edu/u/if/mamunm/psp/gbrv1.5pbe/O.UPF
     MD5 check sum: 734c27235a0248c51dbae37a1fbe46ec
     Pseudo is Ultrasoft + core correction, Zval =  6.0
     Generated by new atomic code, or converted to UPF format
     Using radial grid of  737 points,  5 beta functions with:
                l(1) =   0
                l(2) =   0
                l(3) =   1
                l(4) =   1
                l(5) =   2
     Q(r) pseudized with  8 coefficients,  rinner =    0.900   0.900   0.900
                                                       0.900   0.900

     vdW kernel table read from file vdW_kernel_table
     MD5 check sum: 095c7af220d748ca6e76c0b4c6cfb241

     atomic species   valence    mass     pseudopotential
        Ti1           12.00    47.86700     Ti( 1.00)
        O1             6.00    15.99900     O ( 1.00)

     No symmetry found

   Cartesian axes

     site n.     atom                  positions (alat units)
         1           Ti1 tau(   1) = (   1.4422257   0.8326694  10.0000000  )
         2           Ti1 tau(   2) = (   4.3266771   0.8326694  10.0000000  )
         3           Ti1 tau(   3) = (   2.8844514   3.3306776  10.0000000  )
         4           Ti1 tau(   4) = (   5.7689029   3.3306776  10.0000000  )
         5           Ti1 tau(   5) = (   5.7689029   1.6653388  12.3551447  )
         6           Ti1 tau(   6) = (   2.8844514   1.6653388  12.3551447  )
         7           Ti1 tau(   7) = (   7.2111286   4.1633470  12.3551447  )
         8           Ti1 tau(   8) = (   4.3266771   4.1633470  12.3551447  )
         9           Ti1 tau(   9) = (   0.0000000   0.0000000  14.7102895  )
        10           Ti1 tau(  10) = (   2.8844514   0.0000000  14.7102895  )
        11           Ti1 tau(  11) = (   1.4422257   2.4980082  14.7102895  )
        12           Ti1 tau(  12) = (   4.3266771   2.4980082  14.7102895  )
        13           O1  tau(  13) = (   0.0000000   0.0000000  16.9702895  )

     number of k points=    20  Fermi-Dirac smearing, width (Ry)=  0.0110
                       cart. coord. in units 2pi/alat
        k(    1) = (   0.0000000   0.0000000   0.0000000), wk =   0.0555556
        k(    2) = (   0.0000000   0.0333599   0.0000000), wk =   0.1111111
        k(    3) = (   0.0000000   0.0667198   0.0000000), wk =   0.1111111
        k(    4) = (   0.0000000  -0.1000797   0.0000000), wk =   0.0555556
        k(    5) = (   0.0288905  -0.0166800   0.0000000), wk =   0.1111111
        k(    6) = (   0.0288905   0.0166800   0.0000000), wk =   0.1111111
        k(    7) = (   0.0288905   0.0500399   0.0000000), wk =   0.1111111
        k(    8) = (   0.0288905  -0.1167597   0.0000000), wk =   0.1111111
        k(    9) = (   0.0288905  -0.0833998   0.0000000), wk =   0.1111111
        k(   10) = (   0.0288905  -0.0500399   0.0000000), wk =   0.1111111
        k(   11) = (   0.0577811  -0.0333599   0.0000000), wk =   0.1111111
        k(   12) = (   0.0577811  -0.0000000   0.0000000), wk =   0.1111111
        k(   13) = (   0.0577811   0.0333599   0.0000000), wk =   0.1111111
        k(   14) = (   0.0577811  -0.1334396   0.0000000), wk =   0.1111111
        k(   15) = (   0.0577811  -0.1000797   0.0000000), wk =   0.1111111
        k(   16) = (   0.0577811  -0.0667198   0.0000000), wk =   0.1111111
        k(   17) = (  -0.0866716   0.0500399   0.0000000), wk =   0.0555556
        k(   18) = (  -0.0866716   0.0833998   0.0000000), wk =   0.1111111
        k(   19) = (  -0.0866716   0.1167597   0.0000000), wk =   0.1111111
        k(   20) = (  -0.0866716  -0.0500399   0.0000000), wk =   0.0555556

     Largest allocated arrays     est. size (Mb)     dimensions
     Largest temporary arrays     est. size (Mb)     dimensions

     Check: negative/imaginary core charge=   -0.000006    0.000000

     Initial potential from superposition of free atoms
     Check: negative starting charge=   -0.012806

     starting charge  137.99947, renormalised to  150.00000

     negative rho (up, down):  1.392E-02 0.000E+00

     *
     * You are using vdW-DF for exchange-correlation in this calculation.
     * Please cite the following three references that made this development
     * possible:
     *
     *   M. Dion, H. Rydberg, E. Schroder, D. C. Langreth, and
     *   B. I. Lundqvist, Phys. Rev. Lett. 92, 246401 (2004).
     *
     *   T. Thonhauser, V. R. Cooper, S. Li, A. Puzder, P. Hyldgaard, and
     *   D. C. Langreth, Phys. Rev. B 76, 125112 (2007).
     *
     *   G. Roman-Perez and J. M. Soler, Phys. Rev. Lett. 103, 096102 (2009).
     *
     *
     * If you are using vdW-DF2, please also cite:
     *
     *   K. Lee, E. D. Murray, L. Kong, B. I. Lundqvist, and
     *   D. C. Langreth, Phys. Rev. B 82, 081101(R) (2010).
     *
     *
     * If you are calculating the stress with vdW-DF, please also cite:
     *
     *   R. Sabatini, E. Kucukbenli, B. Kolb, T. Thonhauser, and
     *   S. de Gironcoli, J. Phys.: Condens. Matter 24, 424209 (2012).
     *

     Carrying out vdW-DF run using the following parameters:

     Nqs =      20    Nr_points =    1024   r_max =   100.000
     q_mesh =
               0.00001000     0.04494208     0.09755937     0.15916263
               0.23128650     0.31572767     0.41458969     0.53033537
               0.66584808     0.82450364     1.01025438     1.22772762
               1.48234092     1.78043706     2.12944203     2.53805004
               3.01644009     3.57652955     4.23227104     5.00000000

     Gradients computed in reciprocal space

     Adding external electric field

     Computed dipole along edir(3) :
        Dipole               -4.5505 Ry au,        -11.5662 Debye
        Dipole field         -0.0119 Ry au

        Potential amp.        1.0834 Ry
        Total length         45.5283 bohr

     Starting wfc are  124 randomized atomic wfcs

     Self-consistent Calculation

     iteration #  1     ecut=    36.75 Ry     beta=0.30
     Davidson diagonalization with overlap
     ethr =  1.00E-02,  avg # of iterations =  6.3

[...]

     total energy              =   -1314.91866473 Ry
     Harris-Foulkes estimate   =   -1474.48580183 Ry
     estimated scf accuracy    <     330.45293911 Ry

[...]

     iteration # 43     ecut=    36.75 Ry     beta=0.30
     Davidson diagonalization with overlap
     c_bands:  1 eigenvalues not converged
     ethr =  2.38E-06,  avg # of iterations =  6.1

[...]

     End of self-consistent calculation

          k = 0.0000 0.0000 0.0000 ( 18103 PWs)   bands (ev):

   -57.1369 -57.0602 -57.0596 -57.0246 -56.9658 -56.9361 -56.9303 -56.9300
   -56.8396 -56.7627 -56.7612 -56.7607 -33.5822 -33.5819 -33.5445 -33.5302
   -33.4742 -33.4741 -33.4702 -33.4544 -33.4541 -33.3933 -33.3323 -33.2863
   -33.2861 -33.1943 -33.1819 -33.1353 -33.1353 -33.1159 -33.1156 -33.0987
   -33.0543 -33.0542 -33.0520 -33.0127 -33.0126 -32.9607 -32.9604 -32.9572
   -32.9316 -32.9256 -32.9256 -32.8643 -32.8641 -32.8588 -32.7485 -32.7485
   -15.6311  -5.4951  -4.1581  -2.9343  -2.3666  -2.3665  -2.3502  -2.2876
    -2.2245  -2.2245  -1.8524  -1.8129  -1.8129  -1.6487  -1.6118  -1.6118
    -1.3668  -1.3539  -1.3539  -0.9341  -0.6907  -0.6906  -0.1135   0.1644
     0.2331   0.2885   0.2886   0.4711   0.5557   0.5558   0.5992   0.7299
     0.7299   0.9159   0.9159   0.9505   0.9508

[...]

          k =-0.0867 0.0500 0.0000 ( 18044 PWs)   bands (ev):

[...]

     the Fermi energy is    -0.0208 ev

!    total energy              =   -1471.02860403 Ry
     Harris-Foulkes estimate   =   -1471.02864472 Ry
     estimated scf accuracy    <       0.00000662 Ry

     The total energy is the sum of the following terms:

     one-electron contribution =  -11101.16500643 Ry
     hartree contribution      =    5535.26026491 Ry
     xc contribution           =    -232.16180432 Ry
     ewald contribution        =    4327.16496540 Ry
     electric field correction =       0.00121734 Ry
     smearing contrib. (-TS)   =      -0.12824092 Ry

     convergence has been achieved in  54 iterations

 BEEF-vdW xc energy contributions
           1 :   -199.464034929308
           2 :    177.958101981040
           3 :   -142.826714028155
           4 :    105.351089304370
           5 :   -74.6369344864633
           6 :    54.1877436725989
           7 :   -42.0309612467863
           8 :    33.5239181490824
           9 :   -24.7178298092289
          10 :    14.3146851785333
          11 :   -3.52192684368626
          12 :   -5.57263410930787
          13 :    11.7477123692218
[...]

[...]

     Program PWSCF v.5.1rc2 (svn rev. 11289) starts on 17Jan2018 at  7: 9:56

[...]

   This run was terminated on:   7:55: 2  17Jan2018

[...]

     Program PWSCF v.5.1rc2 (svn rev. 11289) starts on 17Jan2018 at  8:16:55

[...]

     Total force =     0.035326     Total SCF correction =     0.003306

[...]

   This run was terminated on:   8:39:54  17Jan2018

[...]

     Program PWSCF v.5.1rc2 (svn rev. 11289) starts on 17Jan2018 at  8:40: 0

     Current dimensions of program PWSCF are:
     Max number of different atomic species (ntypx) = 10
     Max number of k-points (npk) =  40000
     Max angular momentum in pseudopotentials (lmaxx) =  3
     Presently stress not available with electric field

     IMPORTANT: XC functional enforced from input :
     Exchange-correlation      = BEEF-VDW ( 1  4 27 13 2)
     Any further DFT definition will be discarded
     Please, verify this is what you really want

     Subspace diagonalization in iterative solution of the eigenvalue problem:
     a serial algorithm will be used

     bravais-lattice index     =            0
     lattice parameter (alat)  =       1.8897  a.u.
     unit-cell volume          =    4806.0858 (a.u.)^3
     number of atoms/cell      =           13
     number of atomic types    =            2
     number of electrons       =       150.00
     number of Kohn-Sham states=           85
     kinetic-energy cutoff     =      36.7493  Ry
     charge density cutoff     =     367.4932  Ry
     convergence threshold     =      1.0E-05
     mixing beta               =       0.3000
     number of iterations used =           10  plain     mixing
     Exchange-correlation      = BEEF-VDW ( 1  4 27 13 2)
     nstep                     =           50

     celldm(1)=   1.889726  celldm(2)=   0.000000  celldm(3)=   0.000000
     celldm(4)=   0.000000  celldm(5)=   0.000000  celldm(6)=   0.000000

     crystal axes: (cart. coord. in units of alat)
               a(1) = (   5.768903   0.000000   0.000000 )
               a(2) = (   2.884451   4.996016   0.000000 )
               a(3) = (   0.000000   0.000000  24.710289 )

     reciprocal axes: (cart. coord. in units 2 pi/alat)
               b(1) = (  0.173343 -0.100080  0.000000 )
               b(2) = (  0.000000  0.200159  0.000000 )
               b(3) = (  0.000000  0.000000  0.040469 )

     PseudoPot. # 1 for Ti read from file:
     /afs/slac.stanford.edu/u/if/mamunm/psp/gbrv1.5pbe/Ti.UPF
     MD5 check sum: 88a00a6731bd790ddea75d31a80cb452
     Pseudo is Ultrasoft + core correction, Zval = 12.0
     Generated by new atomic code, or converted to UPF format
     Using radial grid of  851 points,  6 beta functions with:
                l(1) =   0
                l(2) =   0
                l(3) =   1
                l(4) =   1
                l(5) =   2
                l(6) =   2
     Q(r) pseudized with  6 coefficients,  rinner =    1.000   1.000   1.000
                                                       1.000   1.000

     PseudoPot. # 2 for O  read from file:
     /afs/slac.stanford.edu/u/if/mamunm/psp/gbrv1.5pbe/O.UPF
     MD5 check sum: 734c27235a0248c51dbae37a1fbe46ec
     Pseudo is Ultrasoft + core correction, Zval =  6.0
     Generated by new atomic code, or converted to UPF format
     Using radial grid of  737 points,  5 beta functions with:
                l(1) =   0
                l(2) =   0
                l(3) =   1
                l(4) =   1
                l(5) =   2
     Q(r) pseudized with  8 coefficients,  rinner =    0.900   0.900   0.900
                                                       0.900   0.900

     vdW kernel table read from file vdW_kernel_table
     MD5 check sum: 095c7af220d748ca6e76c0b4c6cfb241

     atomic species   valence    mass     pseudopotential
        Ti1           12.00    47.86700     Ti( 1.00)
        O1             6.00    15.99900     O ( 1.00)

     No symmetry found

   Cartesian axes

     site n.     atom                  positions (alat units)
         1           Ti1 tau(   1) = (   1.4422257   0.8326694  10.0000000  )
         2           Ti1 tau(   2) = (   4.3266771   0.8326694  10.0000000  )
         3           Ti1 tau(   3) = (   2.8844514   3.3306776  10.0000000  )
         4           Ti1 tau(   4) = (   5.7689029   3.3306776  10.0000000  )
         5           Ti1 tau(   5) = (   5.7689029   1.6653388  12.3551447  )
         6           Ti1 tau(   6) = (   2.8844514   1.6653388  12.3551447  )
         7           Ti1 tau(   7) = (   7.2111286   4.1633470  12.3551447  )
         8           Ti1 tau(   8) = (   4.3266771   4.1633470  12.3551447  )
         9           Ti1 tau(   9) = (   8.6531856   4.9959959  14.7069361  )
        10           Ti1 tau(  10) = (   5.7690734   4.9931083  14.6573347  )
        11           Ti1 tau(  11) = (   7.2086887   2.4994165  14.6571755  )
        12           Ti1 tau(  12) = (   4.3290594   2.4992507  14.6572559  )
        13           O1  tau(  13) = (   5.7689530   0.0001325  16.4076158  )

     number of k points=    20  Fermi-Dirac smearing, width (Ry)=  0.0110
                       cart. coord. in units 2pi/alat
        k(    1) = (   0.0000000   0.0000000   0.0000000), wk =   0.0555556
        k(    2) = (   0.0000000   0.0333599   0.0000000), wk =   0.1111111
        k(    3) = (   0.0000000   0.0667198   0.0000000), wk =   0.1111111
        k(    4) = (   0.0000000  -0.1000797   0.0000000), wk =   0.0555556
        k(    5) = (   0.0288905  -0.0166800   0.0000000), wk =   0.1111111
        k(    6) = (   0.0288905   0.0166800   0.0000000), wk =   0.1111111
        k(    7) = (   0.0288905   0.0500399   0.0000000), wk =   0.1111111
        k(    8) = (   0.0288905  -0.1167597   0.0000000), wk =   0.1111111
        k(    9) = (   0.0288905  -0.0833998   0.0000000), wk =   0.1111111
        k(   10) = (   0.0288905  -0.0500399   0.0000000), wk =   0.1111111
        k(   11) = (   0.0577811  -0.0333599   0.0000000), wk =   0.1111111
        k(   12) = (   0.0577811  -0.0000000   0.0000000), wk =   0.1111111
        k(   13) = (   0.0577811   0.0333599   0.0000000), wk =   0.1111111
        k(   14) = (   0.0577811  -0.1334396   0.0000000), wk =   0.1111111
        k(   15) = (   0.0577811  -0.1000797   0.0000000), wk =   0.1111111
        k(   16) = (   0.0577811  -0.0667198   0.0000000), wk =   0.1111111
        k(   17) = (  -0.0866716   0.0500399   0.0000000), wk =   0.0555556
        k(   18) = (  -0.0866716   0.0833998   0.0000000), wk =   0.1111111
        k(   19) = (  -0.0866716   0.1167597   0.0000000), wk =   0.1111111
        k(   20) = (  -0.0866716  -0.0500399   0.0000000), wk =   0.0555556

     Largest allocated arrays     est. size (Mb)     dimensions
     Largest temporary arrays     est. size (Mb)     dimensions

     Check: negative/imaginary core charge=   -0.000006    0.000000

     Initial potential from superposition of free atoms
     Check: negative starting charge=   -0.012743

     starting charge  137.99947, renormalised to  150.00000

[...]

     *
     * You are using vdW-DF for exchange-correlation in this calculation.
     * Please cite the following three references that made this development
     * possible:
     *
     *   M. Dion, H. Rydberg, E. Schroder, D. C. Langreth, and
     *   B. I. Lundqvist, Phys. Rev. Lett. 92, 246401 (2004).
     *
     *   T. Thonhauser, V. R. Cooper, S. Li, A. Puzder, P. Hyldgaard, and
     *   D. C. Langreth, Phys. Rev. B 76, 125112 (2007).
     *
     *   G. Roman-Perez and J. M. Soler, Phys. Rev. Lett. 103, 096102 (2009).
     *
     *
     * If you are using vdW-DF2, please also cite:
     *
     *   K. Lee, E. D. Murray, L. Kong, B. I. Lundqvist, and
     *   D. C. Langreth, Phys. Rev. B 82, 081101(R) (2010).
     *
     *
     * If you are calculating the stress with vdW-DF, please also cite:
     *
     *   R. Sabatini, E. Kucukbenli, B. Kolb, T. Thonhauser, and
     *   S. de Gironcoli, J. Phys.: Condens. Matter 24, 424209 (2012).
     *

     Carrying out vdW-DF run using the following parameters:

     Nqs =      20    Nr_points =    1024   r_max =   100.000
     q_mesh =
               0.00001000     0.04494208     0.09755937     0.15916263
               0.23128650     0.31572767     0.41458969     0.53033537
               0.66584808     0.82450364     1.01025438     1.22772762
               1.48234092     1.78043706     2.12944203     2.53805004
               3.01644009     3.57652955     4.23227104     5.00000000

     Gradients computed in reciprocal space

[...]

     Starting wfc are  124 randomized atomic wfcs

     Self-consistent Calculation

[...]

     iteration # 30     ecut=    36.75 Ry     beta=0.30
     Davidson diagonalization with overlap
     ethr =  2.15E-08,  avg # of iterations =  4.1

[...]

     total energy              =   -1471.19122933 Ry
     Harris-Foulkes estimate   =   -1471.19123263 Ry
     estimated scf accuracy    <       0.00002432 Ry

     iteration # 35     ecut=    36.75 Ry     beta=0.30
     Davidson diagonalization with overlap
     c_bands:  1 eigenvalues not converged
     ethr =  8.35E-09,  avg # of iterations =  1.9

[...]

     negative rho (up, down):  8.271E-03 0.000E+00

     Adding external electric field

     Computed dipole along edir(3) :
        Dipole               -0.2410 Ry au,         -0.6125 Debye
        Dipole field         -0.0006 Ry au

        Potential amp.        0.0574 Ry
        Total length         45.5283 bohr

     End of self-consistent calculation

[...]

          k = 0.0578-0.0667 0.0000 ( 18031 PWs)   bands (ev):

[...]

          k =-0.0867-0.0500 0.0000 ( 18044 PWs)   bands (ev):

   -56.4937 -56.4720 -56.4475 -56.4233 -56.4151 -56.3756 -56.3691 -56.2224
   -56.2142 -56.1790 -56.1757 -56.1404 -32.8937 -32.8755 -32.8727 -32.8512
   -32.8284 -32.8096 -32.7994 -32.7786 -32.7580 -32.7292 -32.7239 -32.6995
   -32.6937 -32.6680 -32.6468 -32.6418 -32.6268 -32.6049 -32.6035 -32.5110
   -32.4982 -32.4551 -32.4442 -32.4328 -32.4269 -32.4030 -32.4024 -32.3960
   -32.3752 -32.3542 -32.3500 -32.3419 -32.3292 -32.3145 -32.2212 -32.2152
   -16.5291  -3.4302  -3.4099  -2.9905  -2.8908  -2.6838  -2.1429  -2.1173
    -1.3990  -1.3771  -1.1339  -1.1335  -1.0971  -1.0460  -0.4278  -0.3961
    -0.3841  -0.3600  -0.2559  -0.2019   0.0558   0.0707   0.0940   0.1622
     0.1926   0.2628   0.3385   0.4291   0.4959   0.4975   0.6139   0.6978
     0.7885   0.8473   0.8768   0.9945   1.2042

     the Fermi energy is     0.5376 ev

!    total energy              =   -1471.19122793 Ry
     Harris-Foulkes estimate   =   -1471.19123097 Ry
     estimated scf accuracy    <       0.00000232 Ry

     The total energy is the sum of the following terms:

     one-electron contribution =  -11312.54230799 Ry
     hartree contribution      =    5643.43965375 Ry
     xc contribution           =    -232.55088095 Ry
     ewald contribution        =    4430.58891410 Ry
     electric field correction =       0.00015185 Ry
     smearing contrib. (-TS)   =      -0.12675870 Ry

     convergence has been achieved in  35 iterations

 BEEF-vdW xc energy contributions
           1 :   -199.859369318029
           2 :    178.461875591766
           3 :   -143.421107391284
           4 :    105.899407735142
           5 :   -74.9917482300058
           6 :    54.2918181227232
           7 :   -41.9431001347111
           8 :    33.3678545194622
           9 :   -24.6025272654107
          10 :    14.2799468404179
          11 :   -3.53774706704746
          12 :   -5.56065644298741
          13 :    11.7654456036486
          14 :   -15.3948190495510
          15 :    17.7995339922803
          16 :   -20.1696292604687
          17 :    22.6528080137733
          18 :   -24.3916201594257
          19 :    24.3307480168412
          20 :   -22.1042601577151
          21 :    18.3278498031665
          22 :   -14.1474633348020
          23 :    10.4548487659634
          24 :   -7.38220013352139
          25 :    4.40680514070687
          26 :  -0.919397132754000
          27 :   -3.21152393536579
          28 :    7.48806289305440
          29 :   -11.1174195086248
          30 :    13.5397432024415
          31 :   -21.2469238718738
          32 :   -15.0955559759868

     Forces acting on atoms (Ry/au):

     negative rho (up, down):  8.271E-03 0.000E+00
     atom    1 type  1   force =     0.00090284    0.00051116    0.00902355
     atom    2 type  1   force =    -0.00089246    0.00050725    0.00896765
     atom    3 type  1   force =    -0.00000700   -0.00102728    0.00901861
     atom    4 type  1   force =     0.00000628    0.00000849    0.00985094
     atom    5 type  1   force =    -0.00001727    0.01218072   -0.01273199
     atom    6 type  1   force =     0.00000389   -0.00001047    0.00164966
     atom    7 type  1   force =    -0.01055804   -0.00608104   -0.01272814
     atom    8 type  1   force =     0.01055452   -0.00609188   -0.01269299
     atom    9 type  1   force =     0.00004205   -0.00002245    0.00037278
     atom   10 type  1   force =    -0.00004237    0.00012667   -0.00002950
     atom   11 type  1   force =     0.00010993   -0.00007465    0.00000722
     atom   12 type  1   force =    -0.00010899   -0.00003894    0.00001466
     atom   13 type  2   force =     0.00000662    0.00001241   -0.00072244

     Total force =     0.035741     Total SCF correction =     0.004118
     SCF correction compared to forces is large: reduce conv_thr to get better values

     entering subroutine stress ...

     negative rho (up, down):  8.271E-03 0.000E+00
          total   stress  (Ry/bohr**3)                   (kbar)     P=   -0.13
   0.00001727  -0.00000001   0.00000000          2.54     -0.00      0.00
  -0.00000001   0.00001729   0.00000002         -0.00      2.54      0.00
   0.00000000   0.00000002  -0.00003715          0.00      0.00     -5.47

 !ASE

     Writing output data file calc.save

     General routines

     Parallel routines

   This run was terminated on:   9: 3:23  17Jan2018

   JOB DONE.
Job  /afs/slac/g/suncat/bin/suncat-tsmpirun -x LD_LIBRARY_PATH -wdir /scratch/qe842487_DN9hR pw.x -in pw.inp

TID   HOST_NAME   COMMAND_LINE            STATUS            TERMINATION_TIME
00000 suncat0267 pw.x -in pw.inp   Done                     01/17/2018 09:03:23
00001 suncat0267 pw.x -in pw.inp   Done                     01/17/2018 09:03:23
00002 suncat0267 pw.x -in pw.inp   Done                     01/17/2018 09:03:23
00003 suncat0267 pw.x -in pw.inp   Done                     01/17/2018 09:03:23
00004 suncat0267 pw.x -in pw.inp   Done                     01/17/2018 09:03:23
00005 suncat0267 pw.x -in pw.inp   Done                     01/17/2018 09:03:23
00006 suncat0267 pw.x -in pw.inp   Done                     01/17/2018 09:03:23
00007 suncat0267 pw.x -in pw.inp   Done                     01/17/2018 09:03:23
00008 suncat0220 pw.x -in pw.inp   Done                     01/17/2018 09:03:23
00009 suncat0220 pw.x -in pw.inp   Done                     01/17/2018 09:03:23
00010 suncat0220 pw.x -in pw.inp   Done                     01/17/2018 09:03:23
00011 suncat0220 pw.x -in pw.inp   Done                     01/17/2018 09:03:23
00012 suncat0220 pw.x -in pw.inp   Done                     01/17/2018 09:03:23
00013 suncat0220 pw.x -in pw.inp   Done                     01/17/2018 09:03:23
00014 suncat0220 pw.x -in pw.inp   Done                     01/17/2018 09:03:23
00015 suncat0220 pw.x -in pw.inp   Done                     01/17/2018 09:03:23
00016 suncat0209 pw.x -in pw.inp   Done                     01/17/2018 09:03:23
00017 suncat0209 pw.x -in pw.inp   Done                     01/17/2018 09:03:23
00018 suncat0209 pw.x -in pw.inp   Done                     01/17/2018 09:03:23
00019 suncat0209 pw.x -in pw.inp   Done                     01/17/2018 09:03:23
00020 suncat0209 pw.x -in pw.inp   Done                     01/17/2018 09:03:23
00021 suncat0209 pw.x -in pw.inp   Done                     01/17/2018 09:03:23
00022 suncat0209 pw.x -in pw.inp   Done                     01/17/2018 09:03:23
00023 suncat0209 pw.x -in pw.inp   Done                     01/17/2018 09:03:23
00024 suncat0205 pw.x -in pw.inp   Done                     01/17/2018 09:03:23
00025 suncat0205 pw.x -in pw.inp   Done                     01/17/2018 09:03:23
00026 suncat0205 pw.x -in pw.inp   Done                     01/17/2018 09:03:23
00027 suncat0205 pw.x -in pw.inp   Done                     01/17/2018 09:03:23
00028 suncat0205 pw.x -in pw.inp   Done                     01/17/2018 09:03:23
00029 suncat0205 pw.x -in pw.inp   Done                     01/17/2018 09:03:23
00030 suncat0205 pw.x -in pw.inp   Done                     01/17/2018 09:03:23
00031 suncat0205 pw.x -in pw.inp   Done                     01/17/2018 09:03:23