     Program PWSCF v.5.1rc2 (svn rev. 11289) starts on 16Apr2018 at 11:27:40

     Current dimensions of program PWSCF are:
     Max number of different atomic species (ntypx) = 10
     Max number of k-points (npk) =  40000
     Max angular momentum in pseudopotentials (lmaxx) =  3
     Presently stress not available with electric field

     IMPORTANT: XC functional enforced from input :
     Exchange-correlation      = BEEF-VDW ( 1  4 27 13 2)
     Any further DFT definition will be discarded
     Please, verify this is what you really want

     Subspace diagonalization in iterative solution of the eigenvalue problem:
     a serial algorithm will be used

     bravais-lattice index     =            0
     lattice parameter (alat)  =       1.8897  a.u.
     unit-cell volume          =    4650.5773 (a.u.)^3
     number of atoms/cell      =           14
     number of atomic types    =            3
     number of electrons       =        43.00
     number of Kohn-Sham states=           31
     kinetic-energy cutoff     =      36.7493  Ry
     charge density cutoff     =     367.4932  Ry
     convergence threshold     =      1.0E-05
     mixing beta               =       0.3000
     number of iterations used =           10  plain     mixing
     Exchange-correlation      = BEEF-VDW ( 1  4 27 13 2)
     nstep                     =           50

     celldm(1)=   1.889726  celldm(2)=   0.000000  celldm(3)=   0.000000
     celldm(4)=   0.000000  celldm(5)=   0.000000  celldm(6)=   0.000000

     crystal axes: (cart. coord. in units of alat)
               a(1) = (   5.682886   0.000000   0.000000 )
               a(2) = (   2.841443   4.921524   0.000000 )
               a(3) = (   0.000000   0.000000  24.640057 )

     reciprocal axes: (cart. coord. in units 2 pi/alat)
               b(1) = (  0.175967 -0.101595  0.000000 )
               b(2) = (  0.000000  0.203189  0.000000 )
               b(3) = (  0.000000  0.000000  0.040584 )

     PseudoPot. # 1 for Al read from file:
     /u/if/mamunm/psp/gbrv1.5pbe/Al.UPF
     MD5 check sum: 0a6289f5291fc8f409219462bc851e1f
     Pseudo is Ultrasoft + core correction, Zval =  3.0
     Generated by new atomic code, or converted to UPF format
     Using radial grid of  893 points,  3 beta functions with:
                l(1) =   0
                l(2) =   1
                l(3) =   2
     Q(r) pseudized with  8 coefficients,  rinner =    0.900   0.900   0.900
                                                       0.900   0.900

     PseudoPot. # 2 for S  read from file:
     /u/if/mamunm/psp/gbrv1.5pbe/S.UPF
     MD5 check sum: 88d86576ff6df21479756cfb9bdac1df
     Pseudo is Ultrasoft + core correction, Zval =  6.0
     Generated by new atomic code, or converted to UPF format
     Using radial grid of  907 points,  6 beta functions with:
                l(1) =   0
                l(2) =   0
                l(3) =   1
                l(4) =   1
                l(5) =   2
                l(6) =   2
     Q(r) pseudized with  8 coefficients,  rinner =    1.300   1.300   1.300
                                                       1.300   1.300

     PseudoPot. # 3 for H  read from file:
     /u/if/mamunm/psp/gbrv1.5pbe/H.UPF
     MD5 check sum: 761ae9a214b05c3daf00ab9f6b793d6f
     Pseudo is Ultrasoft, Zval =  1.0
     Generated by new atomic code, or converted to UPF format
     Using radial grid of  615 points,  2 beta functions with:
                l(1) =   0
                l(2) =   0
     Q(r) pseudized with  8 coefficients,  rinner =    0.700

     vdW kernel table read from file vdW_kernel_table
     MD5 check sum: 095c7af220d748ca6e76c0b4c6cfb241

     atomic species   valence    mass     pseudopotential
        Al1            3.00    26.98154     Al( 1.00)
        S1             6.00    32.06000     S ( 1.00)
        H1             1.00     1.00800     H ( 1.00)

     No symmetry found

   Cartesian axes

     site n.     atom                  positions (alat units)
         1           Al1 tau(   1) = (   1.4207216   0.8202540  10.0000000  )
         2           Al1 tau(   2) = (   4.2621647   0.8202540  10.0000000  )
         3           Al1 tau(   3) = (   2.8414431   3.2810159  10.0000000  )
         4           Al1 tau(   4) = (   5.6828862   3.2810159  10.0000000  )
         5           Al1 tau(   5) = (   5.6828862   1.6405079  12.3200286  )
         6           Al1 tau(   6) = (   2.8414431   1.6405079  12.3200286  )
         7           Al1 tau(   7) = (   7.1036078   4.1012699  12.3200286  )
         8           Al1 tau(   8) = (   4.2621647   4.1012699  12.3200286  )
         9           Al1 tau(   9) = (   0.0000000   0.0000000  14.6400572  )
        10           Al1 tau(  10) = (   2.8414431   0.0000000  14.6400572  )
        11           Al1 tau(  11) = (   1.4207216   2.4607619  14.6400572  )
        12           Al1 tau(  12) = (   4.2621647   2.4607619  14.6400572  )
        13           S1  tau(  13) = (   1.4207216   0.0000000  16.3350572  )
        14           H1  tau(  14) = (   1.4207216   0.0000000  17.5850572  )

     number of k points=    20  Fermi-Dirac smearing, width (Ry)=  0.0110
                       cart. coord. in units 2pi/alat
        k(    1) = (   0.0000000   0.0000000   0.0000000), wk =   0.0555556
        k(    2) = (   0.0000000   0.0338648   0.0000000), wk =   0.1111111
        k(    3) = (   0.0000000   0.0677297   0.0000000), wk =   0.1111111
        k(    4) = (   0.0000000  -0.1015945   0.0000000), wk =   0.0555556
        k(    5) = (   0.0293278  -0.0169324   0.0000000), wk =   0.1111111
        k(    6) = (   0.0293278   0.0169324   0.0000000), wk =   0.1111111
        k(    7) = (   0.0293278   0.0507973   0.0000000), wk =   0.1111111
        k(    8) = (   0.0293278  -0.1185270   0.0000000), wk =   0.1111111
        k(    9) = (   0.0293278  -0.0846621   0.0000000), wk =   0.1111111
        k(   10) = (   0.0293278  -0.0507973   0.0000000), wk =   0.1111111
        k(   11) = (   0.0586556  -0.0338648   0.0000000), wk =   0.1111111
        k(   12) = (   0.0586556   0.0000000   0.0000000), wk =   0.1111111
        k(   13) = (   0.0586556   0.0338648   0.0000000), wk =   0.1111111
        k(   14) = (   0.0586556  -0.1354594   0.0000000), wk =   0.1111111
        k(   15) = (   0.0586556  -0.1015945   0.0000000), wk =   0.1111111
        k(   16) = (   0.0586556  -0.0677297   0.0000000), wk =   0.1111111
        k(   17) = (  -0.0879835   0.0507973   0.0000000), wk =   0.0555556
        k(   18) = (  -0.0879835   0.0846621   0.0000000), wk =   0.1111111
        k(   19) = (  -0.0879835   0.1185270   0.0000000), wk =   0.1111111
        k(   20) = (  -0.0879835  -0.0507973   0.0000000), wk =   0.0555556

     Largest allocated arrays     est. size (Mb)     dimensions
     Largest temporary arrays     est. size (Mb)     dimensions

     Initial potential from superposition of free atoms
     Check: negative starting charge=   -0.000136

     starting charge   42.97037, renormalised to   43.00000

     negative rho (up, down):  1.361E-04 0.000E+00

     *
     * You are using vdW-DF for exchange-correlation in this calculation.
     * Please cite the following three references that made this development
     * possible:
     *
     *   M. Dion, H. Rydberg, E. Schroder, D. C. Langreth, and
     *   B. I. Lundqvist, Phys. Rev. Lett. 92, 246401 (2004).
     *
     *   T. Thonhauser, V. R. Cooper, S. Li, A. Puzder, P. Hyldgaard, and
     *   D. C. Langreth, Phys. Rev. B 76, 125112 (2007).
     *
     *   G. Roman-Perez and J. M. Soler, Phys. Rev. Lett. 103, 096102 (2009).
     *
     *
     * If you are using vdW-DF2, please also cite:
     *
     *   K. Lee, E. D. Murray, L. Kong, B. I. Lundqvist, and
     *   D. C. Langreth, Phys. Rev. B 82, 081101(R) (2010).
     *
     *
     * If you are calculating the stress with vdW-DF, please also cite:
     *
     *   R. Sabatini, E. Kucukbenli, B. Kolb, T. Thonhauser, and
     *   S. de Gironcoli, J. Phys.: Condens. Matter 24, 424209 (2012).
     *

     Carrying out vdW-DF run using the following parameters:

     Nqs =      20    Nr_points =    1024   r_max =   100.000
     q_mesh =
               0.00001000     0.04494208     0.09755937     0.15916263
               0.23128650     0.31572767     0.41458969     0.53033537
               0.66584808     0.82450364     1.01025438     1.22772762
               1.48234092     1.78043706     2.12944203     2.53805004
               3.01644009     3.57652955     4.23227104     5.00000000

     Gradients computed in reciprocal space

     Adding external electric field

     Computed dipole along edir(3) :
        Dipole               -0.0379 Ry au,         -0.0963 Debye
        Dipole field         -0.0001 Ry au

        Potential amp.        0.0093 Ry
        Total length         45.3989 bohr

     Starting wfc are   53 randomized atomic wfcs

     Self-consistent Calculation

     iteration #  1     ecut=    36.75 Ry     beta=0.30
     Davidson diagonalization with overlap
     ethr =  1.00E-02,  avg # of iterations =  3.2

[...]

     total energy              =    -107.70824121 Ry
     Harris-Foulkes estimate   =    -108.15522566 Ry
     estimated scf accuracy    <       1.05142380 Ry

[...]

     End of self-consistent calculation

          k = 0.0000 0.0000 0.0000 ( 17579 PWs)   bands (ev):

   -15.8490 -10.8072  -9.7320  -8.2215  -5.9022  -5.8585  -5.4590  -4.7608
    -4.7348  -4.7157  -4.5983  -4.5438  -4.3513  -3.4279  -3.3748  -3.2356
    -2.8201  -2.5715  -2.5082  -2.1337  -0.5635  -0.4140  -0.3580  -0.2806
     0.1856   0.3395   0.8418   1.9363   2.2606   2.3371   2.3731

[...]

          k =-0.0880 0.0508 0.0000 ( 17464 PWs)   bands (ev):

[...]

     the Fermi energy is    -0.0392 ev

!    total energy              =    -107.97268920 Ry
     Harris-Foulkes estimate   =    -107.97269313 Ry
     estimated scf accuracy    <       0.00000064 Ry

     The total energy is the sum of the following terms:

     one-electron contribution =    -770.53450658 Ry
     hartree contribution      =     394.45258704 Ry
     xc contribution           =     -62.90362652 Ry
     ewald contribution        =     331.04396233 Ry
     electric field correction =       0.00022514 Ry
     smearing contrib. (-TS)   =      -0.03133062 Ry

     convergence has been achieved in  10 iterations

 BEEF-vdW xc energy contributions
           1 :   -51.8058499315493
           2 :    44.5292152058582
           3 :   -33.2860650524776
           4 :    22.3974659557388
           5 :   -14.6972084162073
           6 :    10.5201275532504
           7 :   -8.43487472317369
           8 :    6.83267756095099
           9 :   -5.08758783385782
          10 :    3.56649281236796
          11 :   -2.81078416517866
          12 :    2.79866602539743
          13 :   -2.93452943019302
          14 :    2.63612347929529
          15 :   -1.86141940140696
          16 :    1.06975561281761
          17 :  -0.719052272069504
          18 :   0.827601091630129
          19 :   -1.00467191555993
          20 :   0.861113218648462
          21 :  -0.368762853211557
          22 :  -0.160514464826619
          23 :   0.406056596067891
          24 :  -0.331381813813962
          25 :   0.172600748321081
          26 :  -0.175809229048035
          27 :   0.364014383361088
          28 :  -0.552058642846227
          29 :   0.563097918582834
          30 :  -0.411748016507921
          31 :   -7.58900727391779
          32 :   -5.50473081219466

     Forces acting on atoms (Ry/au):

     negative rho (up, down):  3.378E-04 0.000E+00
     atom    1 type  1   force =    -0.00000028    0.00421435    0.00030266
     atom    2 type  1   force =    -0.00000020    0.00038339   -0.00395447
     atom    3 type  1   force =    -0.00131137   -0.00208632   -0.00211179
     atom    4 type  1   force =     0.00131123   -0.00208640   -0.00211225
     atom    5 type  1   force =    -0.00191108    0.00019338    0.00081702
     atom    6 type  1   force =     0.00191150    0.00019323    0.00081689
     atom    7 type  1   force =     0.00000001   -0.00269925   -0.00524622
     atom    8 type  1   force =    -0.00000008   -0.00564420    0.01256032
     atom    9 type  1   force =    -0.06660643   -0.00080118   -0.04837291
     atom   10 type  1   force =     0.06660649   -0.00080157   -0.04837313
     atom   11 type  1   force =     0.00000006    0.02166067   -0.01820071
     atom   12 type  1   force =    -0.00000038   -0.01922551   -0.01651687
     atom   13 type  2   force =     0.00000032    0.00738386   -0.02238594
     atom   14 type  3   force =     0.00000019   -0.00068445    0.15277742

     Total force =     0.197216     Total SCF correction =     0.000657

     entering subroutine stress ...

     negative rho (up, down):  3.378E-04 0.000E+00
          total   stress  (Ry/bohr**3)                   (kbar)     P=    6.33
  -0.00001109   0.00000000   0.00000000         -1.63      0.00      0.00
   0.00000000  -0.00003383   0.00001095          0.00     -4.98      1.61
   0.00000000   0.00001095   0.00017399          0.00      1.61     25.59

     BFGS Geometry Optimization

     number of scf cycles    =   1
     number of bfgs steps    =   0

     energy   new            =    -107.9726892028 Ry

     new trust radius        =       0.1527789548 bohr
     new conv_thr            =       0.0000099958 Ry

ATOMIC_POSITIONS (crystal)
Al1      0.166666667   0.166666667   0.405843214    0   0   0
Al1      0.666666667   0.166666667   0.405843214    0   0   0
Al1      0.166666667   0.666666667   0.405843214    0   0   0
Al1      0.666666667   0.666666667   0.405843214    0   0   0
Al1      0.833333333   0.333333333   0.500000000    0   0   0
Al1      0.333333333   0.333333333   0.500000000    0   0   0
Al1      0.833333333   0.833333333   0.500000000    0   0   0
Al1      0.333333333   0.833333333   0.500000000    0   0   0
Al1     -0.006159164  -0.000086146   0.593117915
Al1      0.506245336  -0.000086188   0.593117910
Al1     -0.001164505   0.502329021   0.593765902
Al1      0.501033558   0.497932814   0.593802065
S1       0.249603062   0.000793935   0.662466444
H1       0.250036815  -0.000073595   0.716958706

     Writing output data file calc.save
     Check: negative starting charge=   -0.000136
     NEW-OLD atomic charge density approx. for the potential
     Check: negative starting charge=   -0.000136

[...]

     energy   old            =    -107.9726892028 Ry
     energy   new            =    -107.9993655670 Ry

     CASE: energy  _new < energy  _old

[...]

     Threshold (ethr) on eigenvalues was too large:
     Diagonalizing with lowered threshold

     Davidson diagonalization with overlap
     ethr =  8.66E-08,  avg # of iterations =  1.0

[...]

     Total force =     0.005018     Total SCF correction =     0.000097

[...]

     number of scf cycles    =  47
     number of bfgs steps    =  46

     energy   old            =    -108.0731014216 Ry
     energy   new            =    -108.0731958846 Ry

     CASE: energy  _new < energy  _old

     new trust radius        =       0.0486538717 bohr
     new conv_thr            =       0.0000001000 Ry

ATOMIC_POSITIONS (crystal)
Al1      0.166666667   0.166666667   0.405843214    0   0   0
Al1      0.666666667   0.166666667   0.405843214    0   0   0
Al1      0.166666667   0.666666667   0.405843214    0   0   0
Al1      0.666666667   0.666666667   0.405843214    0   0   0
Al1      0.833333333   0.333333333   0.500000000    0   0   0
Al1      0.333333333   0.333333333   0.500000000    0   0   0
Al1      0.833333333   0.833333333   0.500000000    0   0   0
Al1      0.333333333   0.833333333   0.500000000    0   0   0
Al1     -0.004897227   0.003940542   0.599233925
Al1      0.500956907   0.003940442   0.599233910
Al1     -0.011613773   0.523227541   0.589807951
Al1      0.503995192   0.492009540   0.590482681
S1       0.222949682   0.054100929   0.681883667
H1       0.350669661  -0.201339155   0.702693646

     Writing output data file calc.save
     Check: negative starting charge=   -0.000131
     NEW-OLD atomic charge density approx. for the potential
     Check: negative starting charge=   -0.000130

[...]

     Self-consistent Calculation

[...]

     total energy              =    -108.07328839 Ry
     Harris-Foulkes estimate   =    -108.07328840 Ry
     estimated scf accuracy    <       0.00000023 Ry

     iteration #  7     ecut=    36.75 Ry     beta=0.30
     Davidson diagonalization with overlap
     ethr =  5.32E-10,  avg # of iterations =  3.0

[...]

     negative rho (up, down):  3.255E-04 0.000E+00

     Adding external electric field

     Computed dipole along edir(3) :
        Dipole               -0.0607 Ry au,         -0.1542 Debye
        Dipole field         -0.0002 Ry au

        Potential amp.        0.0149 Ry
        Total length         45.3989 bohr

     End of self-consistent calculation

[...]

          k = 0.0587-0.0677 0.0000 ( 17495 PWs)   bands (ev):

[...]

          k =-0.0880-0.0508 0.0000 ( 17464 PWs)   bands (ev):

   -14.7102  -9.6291  -9.5780  -8.1326  -7.9886  -7.1356  -6.6314  -6.4920
    -5.6261  -5.4227  -5.0394  -4.7477  -3.9235  -3.6127  -2.4349  -2.2871
    -1.7929  -1.2410  -0.9164  -0.8512  -0.6147  -0.4319   0.5010   0.6040
     0.9085   0.9690   1.1034   1.2482   1.5162   1.9879   2.3026

     the Fermi energy is    -0.4427 ev

!    total energy              =    -108.07328846 Ry
     Harris-Foulkes estimate   =    -108.07328851 Ry
     estimated scf accuracy    <       0.00000008 Ry

     The total energy is the sum of the following terms:

     one-electron contribution =    -741.12611006 Ry
     hartree contribution      =     379.42016985 Ry
     xc contribution           =     -62.66963711 Ry
     ewald contribution        =     316.33262170 Ry
     electric field correction =       0.00000994 Ry
     smearing contrib. (-TS)   =      -0.03034279 Ry

     convergence has been achieved in   7 iterations

 BEEF-vdW xc energy contributions
           1 :   -51.5758972897558
           2 :    44.2377387949107
           3 :   -32.9354480346503
           4 :    22.0455068130802
           5 :   -14.4050856674862
           6 :    10.3134939068183
           7 :   -8.29974669431920
           8 :    6.73859473438009
           9 :   -5.01118841378722
          10 :    3.49704031569291
          11 :   -2.74069004214527
          12 :    2.71595371137278
          13 :   -2.82763661260313
          14 :    2.50533996096240
          15 :   -1.72342173332589
          16 :   0.947361072845219
          17 :  -0.622584536495843
          18 :   0.745604091738457
          19 :  -0.913535068921249
          20 :   0.744565729707055
          21 :  -0.229255946594876
          22 :  -0.307277767946523
          23 :   0.545924644860285
          24 :  -0.461389147189763
          25 :   0.297895476741672
          26 :  -0.299686752720234
          27 :   0.483250742419244
          28 :  -0.661516634346206
          29 :   0.662234930428113
          30 :  -0.504184163959792
          31 :   -7.57197443219823
          32 :   -5.47254641180603

     Forces acting on atoms (Ry/au):

     negative rho (up, down):  3.255E-04 0.000E+00
     atom    1 type  1   force =    -0.00000001    0.00367338    0.00175413
     atom    2 type  1   force =     0.00000003    0.00250739   -0.00199933
     atom    3 type  1   force =    -0.00106353   -0.00226137   -0.00024469
     atom    4 type  1   force =     0.00106352   -0.00226137   -0.00024471
     atom    5 type  1   force =    -0.00166123   -0.00552168   -0.00316401
     atom    6 type  1   force =     0.00166123   -0.00552167   -0.00316402
     atom    7 type  1   force =     0.00000001    0.00529853   -0.00821829
     atom    8 type  1   force =    -0.00000001    0.00474973    0.01486555
     atom    9 type  1   force =     0.00177646    0.00059038    0.00024443
     atom   10 type  1   force =    -0.00177648    0.00059045    0.00024446
     atom   11 type  1   force =     0.00000002   -0.00083385    0.00072975
     atom   12 type  1   force =     0.00000002   -0.00031541   -0.00048449
     atom   13 type  2   force =    -0.00000005   -0.00001988   -0.00105442
     atom   14 type  3   force =     0.00000001   -0.00067462    0.00073565

     Total force =     0.003286     Total SCF correction =     0.000352
     SCF correction compared to forces is large: reduce conv_thr to get better values

     entering subroutine stress ...

     negative rho (up, down):  3.255E-04 0.000E+00
          total   stress  (Ry/bohr**3)                   (kbar)     P=   -5.22
  -0.00006358  -0.00000000  -0.00000000         -9.35     -0.00     -0.00
  -0.00000000  -0.00004400  -0.00000277         -0.00     -6.47     -0.41
  -0.00000000  -0.00000277   0.00000104         -0.00     -0.41      0.15

     bfgs converged in  48 scf cycles and  47 bfgs steps
     (criteria: energy <  1.0E+00, force <  1.9E-03)

     End of BFGS Geometry Optimization

     Final energy   =    -108.0732884623 Ry
Begin final coordinates

ATOMIC_POSITIONS (crystal)
Al1      0.166666667   0.166666667   0.405843214    0   0   0
Al1      0.666666667   0.166666667   0.405843214    0   0   0
Al1      0.166666667   0.666666667   0.405843214    0   0   0
Al1      0.666666667   0.666666667   0.405843214    0   0   0
Al1      0.833333333   0.333333333   0.500000000    0   0   0
Al1      0.333333333   0.333333333   0.500000000    0   0   0
Al1      0.833333333   0.833333333   0.500000000    0   0   0
Al1      0.333333333   0.833333333   0.500000000    0   0   0
Al1     -0.004897227   0.003940542   0.599233925
Al1      0.500956907   0.003940442   0.599233910
Al1     -0.011613773   0.523227541   0.589807951
Al1      0.503995192   0.492009540   0.590482681
S1       0.222949682   0.054100929   0.681883667
H1       0.350669661  -0.201339155   0.702693646
End final coordinates

     Writing output data file calc.save

     General routines

     Parallel routines

   This run was terminated on:  13:31:14  16Apr2018

   JOB DONE.
Job  /afs/slac/g/suncat/bin/suncat-tsmpirun -x LD_LIBRARY_PATH -wdir /scratch/qe111884_yv809 pw.x -npool 4 -in pw.inp

TID   HOST_NAME   COMMAND_LINE            STATUS            TERMINATION_TIME
00000 suncat0095 pw.x -npool 4 -i  Done                     04/16/2018 13:31:14
00001 suncat0095 pw.x -npool 4 -i  Done                     04/16/2018 13:31:14
00002 suncat0095 pw.x -npool 4 -i  Done                     04/16/2018 13:31:14
00003 suncat0095 pw.x -npool 4 -i  Done                     04/16/2018 13:31:14
00004 suncat0095 pw.x -npool 4 -i  Done                     04/16/2018 13:31:14
00005 suncat0095 pw.x -npool 4 -i  Done                     04/16/2018 13:31:14
00006 suncat0095 pw.x -npool 4 -i  Done                     04/16/2018 13:31:14
00007 suncat0095 pw.x -npool 4 -i  Done                     04/16/2018 13:31:14
00008 suncat0092 pw.x -npool 4 -i  Done                     04/16/2018 13:31:14
00009 suncat0092 pw.x -npool 4 -i  Done                     04/16/2018 13:31:14
00010 suncat0092 pw.x -npool 4 -i  Done                     04/16/2018 13:31:14
00011 suncat0092 pw.x -npool 4 -i  Done                     04/16/2018 13:31:14
00012 suncat0092 pw.x -npool 4 -i  Done                     04/16/2018 13:31:14
00013 suncat0092 pw.x -npool 4 -i  Done                     04/16/2018 13:31:14
00014 suncat0092 pw.x -npool 4 -i  Done                     04/16/2018 13:31:14
00015 suncat0092 pw.x -npool 4 -i  Done                     04/16/2018 13:31:14
00016 suncat0042 pw.x -npool 4 -i  Done                     04/16/2018 13:31:14
00017 suncat0042 pw.x -npool 4 -i  Done                     04/16/2018 13:31:14
00018 suncat0042 pw.x -npool 4 -i  Done                     04/16/2018 13:31:14
00019 suncat0042 pw.x -npool 4 -i  Done                     04/16/2018 13:31:14
00020 suncat0042 pw.x -npool 4 -i  Done                     04/16/2018 13:31:14
00021 suncat0042 pw.x -npool 4 -i  Done                     04/16/2018 13:31:14
00022 suncat0042 pw.x -npool 4 -i  Done                     04/16/2018 13:31:14
00023 suncat0042 pw.x -npool 4 -i  Done                     04/16/2018 13:31:14
00024 suncat0280 pw.x -npool 4 -i  Done                     04/16/2018 13:31:14
00025 suncat0280 pw.x -npool 4 -i  Done                     04/16/2018 13:31:14
00026 suncat0280 pw.x -npool 4 -i  Done                     04/16/2018 13:31:14
00027 suncat0280 pw.x -npool 4 -i  Done                     04/16/2018 13:31:14
00028 suncat0280 pw.x -npool 4 -i  Done                     04/16/2018 13:31:14
00029 suncat0280 pw.x -npool 4 -i  Done                     04/16/2018 13:31:14
00030 suncat0280 pw.x -npool 4 -i  Done                     04/16/2018 13:31:14
00031 suncat0280 pw.x -npool 4 -i  Done                     04/16/2018 13:31:14