     Program PWSCF v.5.1rc2 (svn rev. 11289) starts on 18Apr2018 at 22: 6:31

     Current dimensions of program PWSCF are:
     Max number of different atomic species (ntypx) = 10
     Max number of k-points (npk) =  40000
     Max angular momentum in pseudopotentials (lmaxx) =  3
     Presently stress not available with electric field

     IMPORTANT: XC functional enforced from input :
     Exchange-correlation      = BEEF-VDW ( 1  4 27 13 2)
     Any further DFT definition will be discarded
     Please, verify this is what you really want

     Subspace diagonalization in iterative solution of the eigenvalue problem:
     a serial algorithm will be used

     bravais-lattice index     =            0
     lattice parameter (alat)  =       1.8897  a.u.
     unit-cell volume          =    8507.0471 (a.u.)^3
     number of atoms/cell      =           14
     number of atomic types    =            3
     number of electrons       =       139.00
     number of Kohn-Sham states=           79
     kinetic-energy cutoff     =      36.7493  Ry
     charge density cutoff     =     367.4932  Ry
     convergence threshold     =      1.0E-05
     mixing beta               =       0.3000
     number of iterations used =           10  plain     mixing
     Exchange-correlation      = BEEF-VDW ( 1  4 27 13 2)
     nstep                     =           50

     celldm(1)=   1.889726  celldm(2)=   0.000000  celldm(3)=   0.000000
     celldm(4)=   0.000000  celldm(5)=   0.000000  celldm(6)=   0.000000

     crystal axes: (cart. coord. in units of alat)
               a(1) = (   7.468327   0.000000   0.000000 )
               a(2) = (   3.734164   6.467761   0.000000 )
               a(3) = (   0.000000   0.000000  26.097863 )

     reciprocal axes: (cart. coord. in units 2 pi/alat)
               b(1) = (  0.133899 -0.077307  0.000000 )
               b(2) = (  0.000000  0.154613  0.000000 )
               b(3) = (  0.000000  0.000000  0.038317 )

     PseudoPot. # 1 for La read from file:
     /u/if/mamunm/psp/gbrv1.5pbe/La.UPF
     MD5 check sum: 5937b0c7494ba0601a847275249473aa
     Pseudo is Ultrasoft + core correction, Zval = 11.0
     Generated by new atomic code, or converted to UPF format
     Using radial grid of  995 points,  8 beta functions with:
                l(1) =   0
                l(2) =   0
                l(3) =   1
                l(4) =   1
                l(5) =   2
                l(6) =   2
                l(7) =   3
                l(8) =   3
     Q(r) pseudized with  8 coefficients,  rinner =    1.700   1.700   1.700
                                                       1.700   1.700   1.700
                                                       1.700

     PseudoPot. # 2 for S  read from file:
     /u/if/mamunm/psp/gbrv1.5pbe/S.UPF
     MD5 check sum: 88d86576ff6df21479756cfb9bdac1df
     Pseudo is Ultrasoft + core correction, Zval =  6.0
     Generated by new atomic code, or converted to UPF format
     Using radial grid of  907 points,  6 beta functions with:
                l(1) =   0
                l(2) =   0
                l(3) =   1
                l(4) =   1
                l(5) =   2
                l(6) =   2
     Q(r) pseudized with  8 coefficients,  rinner =    1.300   1.300   1.300
                                                       1.300   1.300

     PseudoPot. # 3 for H  read from file:
     /u/if/mamunm/psp/gbrv1.5pbe/H.UPF
     MD5 check sum: 761ae9a214b05c3daf00ab9f6b793d6f
     Pseudo is Ultrasoft, Zval =  1.0
     Generated by new atomic code, or converted to UPF format
     Using radial grid of  615 points,  2 beta functions with:
                l(1) =   0
                l(2) =   0
     Q(r) pseudized with  8 coefficients,  rinner =    0.700

     vdW kernel table read from file vdW_kernel_table
     MD5 check sum: 095c7af220d748ca6e76c0b4c6cfb241

     atomic species   valence    mass     pseudopotential
        La1           11.00   138.90547     La( 1.00)
        S1             6.00    32.06000     S ( 1.00)
        H1             1.00     1.00800     H ( 1.00)

     No symmetry found

   Cartesian axes

     site n.     atom                  positions (alat units)
         1           La1 tau(   1) = (   1.8670818   1.0779602  10.0000000  )
         2           La1 tau(   2) = (   5.6012453   1.0779602  10.0000000  )
         3           La1 tau(   3) = (   3.7341635   4.3118406  10.0000000  )
         4           La1 tau(   4) = (   7.4683270   4.3118406  10.0000000  )
         5           La1 tau(   5) = (   7.4683270   2.1559203  13.0489317  )
         6           La1 tau(   6) = (   3.7341635   2.1559203  13.0489317  )
         7           La1 tau(   7) = (   9.3354088   5.3898008  13.0489317  )
         8           La1 tau(   8) = (   5.6012453   5.3898008  13.0489317  )
         9           La1 tau(   9) = (   0.0000000   0.0000000  16.0978635  )
        10           La1 tau(  10) = (   3.7341635   0.0000000  16.0978635  )
        11           La1 tau(  11) = (   1.8670818   3.2338805  16.0978635  )
        12           La1 tau(  12) = (   5.6012453   3.2338805  16.0978635  )
        13           S1  tau(  13) = (   0.0000000   0.0000000  18.7498635  )
        14           H1  tau(  14) = (   0.0000000   0.0000000  19.9998635  )

     number of k points=    20  Fermi-Dirac smearing, width (Ry)=  0.0110
                       cart. coord. in units 2pi/alat
        k(    1) = (   0.0000000   0.0000000   0.0000000), wk =   0.0555556
        k(    2) = (   0.0000000   0.0257688   0.0000000), wk =   0.1111111
        k(    3) = (   0.0000000   0.0515377   0.0000000), wk =   0.1111111
        k(    4) = (   0.0000000  -0.0773065   0.0000000), wk =   0.0555556
        k(    5) = (   0.0223165  -0.0128844   0.0000000), wk =   0.1111111
        k(    6) = (   0.0223165   0.0128844   0.0000000), wk =   0.1111111
        k(    7) = (   0.0223165   0.0386533   0.0000000), wk =   0.1111111
        k(    8) = (   0.0223165  -0.0901909   0.0000000), wk =   0.1111111
        k(    9) = (   0.0223165  -0.0644221   0.0000000), wk =   0.1111111
        k(   10) = (   0.0223165  -0.0386533   0.0000000), wk =   0.1111111
        k(   11) = (   0.0446329  -0.0257688   0.0000000), wk =   0.1111111
        k(   12) = (   0.0446329   0.0000000   0.0000000), wk =   0.1111111
        k(   13) = (   0.0446329   0.0257688   0.0000000), wk =   0.1111111
        k(   14) = (   0.0446329  -0.1030753   0.0000000), wk =   0.1111111
        k(   15) = (   0.0446329  -0.0773065   0.0000000), wk =   0.1111111
        k(   16) = (   0.0446329  -0.0515377   0.0000000), wk =   0.1111111
        k(   17) = (  -0.0669494   0.0386533   0.0000000), wk =   0.0555556
        k(   18) = (  -0.0669494   0.0644221   0.0000000), wk =   0.1111111
        k(   19) = (  -0.0669494   0.0901909   0.0000000), wk =   0.1111111
        k(   20) = (  -0.0669494  -0.0386533   0.0000000), wk =   0.0555556

     Largest allocated arrays     est. size (Mb)     dimensions
     Largest temporary arrays     est. size (Mb)     dimensions

     Initial potential from superposition of free atoms
     Check: negative starting charge=   -0.830796

     starting charge  138.61513, renormalised to  139.00000

     negative rho (up, down):  8.331E-01 0.000E+00

     *
     * You are using vdW-DF for exchange-correlation in this calculation.
     * Please cite the following three references that made this development
     * possible:
     *
     *   M. Dion, H. Rydberg, E. Schroder, D. C. Langreth, and
     *   B. I. Lundqvist, Phys. Rev. Lett. 92, 246401 (2004).
     *
     *   T. Thonhauser, V. R. Cooper, S. Li, A. Puzder, P. Hyldgaard, and
     *   D. C. Langreth, Phys. Rev. B 76, 125112 (2007).
     *
     *   G. Roman-Perez and J. M. Soler, Phys. Rev. Lett. 103, 096102 (2009).
     *
     *
     * If you are using vdW-DF2, please also cite:
     *
     *   K. Lee, E. D. Murray, L. Kong, B. I. Lundqvist, and
     *   D. C. Langreth, Phys. Rev. B 82, 081101(R) (2010).
     *
     *
     * If you are calculating the stress with vdW-DF, please also cite:
     *
     *   R. Sabatini, E. Kucukbenli, B. Kolb, T. Thonhauser, and
     *   S. de Gironcoli, J. Phys.: Condens. Matter 24, 424209 (2012).
     *

     Carrying out vdW-DF run using the following parameters:

     Nqs =      20    Nr_points =    1024   r_max =   100.000
     q_mesh =
               0.00001000     0.04494208     0.09755937     0.15916263
               0.23128650     0.31572767     0.41458969     0.53033537
               0.66584808     0.82450364     1.01025438     1.22772762
               1.48234092     1.78043706     2.12944203     2.53805004
               3.01644009     3.57652955     4.23227104     5.00000000

     Gradients computed in reciprocal space

     Adding external electric field

     Computed dipole along edir(3) :
        Dipole               -0.2154 Ry au,         -0.5476 Debye
        Dipole field         -0.0003 Ry au

        Potential amp.        0.0306 Ry
        Total length         48.0849 bohr

     Starting wfc are  245 randomized atomic wfcs

     Self-consistent Calculation

     iteration #  1     ecut=    36.75 Ry     beta=0.30
     Davidson diagonalization with overlap
     ethr =  1.00E-02,  avg # of iterations =  2.0

[...]

     total energy              =   -1270.95879457 Ry
     Harris-Foulkes estimate   =   -1274.67307443 Ry
     estimated scf accuracy    <       7.73907557 Ry

[...]

     iteration #  9     ecut=    36.75 Ry     beta=0.30
     Davidson diagonalization with overlap
     c_bands:  1 eigenvalues not converged
     c_bands:  1 eigenvalues not converged
     ethr =  9.45E-06,  avg # of iterations = 14.9

[...]

     End of self-consistent calculation

          k = 0.0000 0.0000 0.0000 ( 31997 PWs)   bands (ev):

   -31.4566 -31.3965 -31.3478 -31.3472 -31.2658 -31.2655 -31.2628 -31.1352
   -30.9360 -30.8191 -30.8189 -30.8030 -15.5337 -15.5094 -15.5093 -15.4512
   -15.4394 -15.4393 -15.4054 -15.2897 -15.2692 -15.2691 -15.1195 -14.9836
   -14.9519 -14.9517 -14.7490 -14.7389 -14.7388 -14.7353 -14.6614 -14.6613
   -14.6513 -14.6354 -14.6351 -14.4060 -14.4059 -14.3975 -14.3974 -14.3281
   -14.3259 -14.3257 -14.3025 -14.2176 -14.2116 -14.2115 -13.9852 -13.9852
   -11.9217  -4.5151  -0.8862  -0.8861  -0.8213  -0.1342   0.2518   0.3061
     0.3297   0.3298   0.5984   0.6225   0.6225   0.7804   0.7829   0.7830
     0.9282   0.9465   0.9465   1.6309   1.8384   1.8385   2.1535   2.4538
     2.5553   2.5848   2.5848   2.7644   3.0343   3.1339   3.1349

[...]

          k =-0.0669 0.0387 0.0000 ( 31970 PWs)   bands (ev):

[...]

     the Fermi energy is     1.9635 ev

!    total energy              =   -1273.88365528 Ry
     Harris-Foulkes estimate   =   -1273.88367098 Ry
     estimated scf accuracy    <       0.00000791 Ry

     The total energy is the sum of the following terms:

     one-electron contribution =   -4694.34770848 Ry
     hartree contribution      =    2361.19422787 Ry
     xc contribution           =    -618.14308242 Ry
     ewald contribution        =    1677.53406420 Ry
     electric field correction =       0.00000624 Ry
     smearing contrib. (-TS)   =      -0.12116270 Ry

     convergence has been achieved in  17 iterations

 BEEF-vdW xc energy contributions
           1 :   -547.384399895283
           2 :    503.199518264269
           3 :   -425.160283461536
           4 :    329.984995187749
           5 :   -235.346639417599
           6 :    155.219313558244
           7 :   -97.2521703498772
           8 :    62.4401139510020
           9 :   -46.6149318567080
          10 :    42.8866188451971
          11 :   -44.1081902129752
          12 :    44.6427790522304
          13 :   -41.1665938825321
          14 :    32.6771047618553
          15 :   -20.0706549810740
          16 :    5.54900686153860
          17 :    8.06310398034759
          18 :   -18.0805736793302
          19 :    22.7157182117190
          20 :   -21.6408074846889
          21 :    16.1305942715338
          22 :   -8.66436530540591
          23 :    2.07117187962251
          24 :    1.47327694586772
          25 :   -1.18769016156602
          26 :   -2.15467606067762
          27 :    6.70245032354853
          28 :   -10.4023964932784
          29 :    11.8652728203118
          30 :   -10.8463074989833
          31 :   -46.7683083959441
          32 :   -33.5194023432033

     Forces acting on atoms (Ry/au):

     negative rho (up, down):  5.841E-01 0.000E+00
     atom    1 type  1   force =    -0.00028481   -0.00016536    0.00437861
     atom    2 type  1   force =     0.00028582   -0.00016317    0.00433124
     atom    3 type  1   force =    -0.00000378    0.00033213    0.00436470
     atom    4 type  1   force =    -0.00000361    0.00000810    0.00446692
     atom    5 type  1   force =     0.00007447    0.00339266   -0.00547455
     atom    6 type  1   force =    -0.00007037   -0.00001595    0.00020081
     atom    7 type  1   force =    -0.00294861   -0.00173701   -0.00544443
     atom    8 type  1   force =     0.00294952   -0.00164726   -0.00552463
     atom    9 type  1   force =    -0.00002434    0.00001910   -0.01151044
     atom   10 type  1   force =     0.00002625    0.00098111   -0.00021484
     atom   11 type  1   force =     0.00083161   -0.00048589   -0.00022215
     atom   12 type  1   force =    -0.00082970   -0.00051949   -0.00015830
     atom   13 type  2   force =    -0.00000226    0.00000041   -0.10958451
     atom   14 type  3   force =    -0.00000019    0.00000064    0.12039156

     Total force =     0.163213     Total SCF correction =     0.006073

     entering subroutine stress ...

     negative rho (up, down):  5.841E-01 0.000E+00
          total   stress  (Ry/bohr**3)                   (kbar)     P=    0.62
  -0.00000663  -0.00000000  -0.00000000         -0.98     -0.00     -0.00
  -0.00000000  -0.00000664  -0.00000001         -0.00     -0.98     -0.00
  -0.00000000  -0.00000001   0.00002582         -0.00     -0.00      3.80

     BFGS Geometry Optimization

     number of scf cycles    =   1
     number of bfgs steps    =   0

     energy   new            =   -1273.8836552790 Ry

     new trust radius        =       0.1203915641 bohr
     new conv_thr            =       0.0000099958 Ry

ATOMIC_POSITIONS (crystal)
La1      0.166666667   0.166666667   0.383173129    0   0   0
La1      0.666666667   0.166666667   0.383173129    0   0   0
La1      0.166666667   0.666666667   0.383173129    0   0   0
La1      0.666666667   0.666666667   0.383173129    0   0   0
La1      0.833333333   0.333333333   0.500000000    0   0   0
La1      0.333333333   0.333333333   0.500000000    0   0   0
La1      0.833333333   0.833333333   0.500000000    0   0   0
La1      0.333333333   0.833333333   0.500000000    0   0   0
La1     -0.000002506   0.000001562   0.616593478
La1      0.499961724   0.000080272   0.616822515
La1      0.000078802   0.499960245   0.616822367
La1      0.499962462   0.499957496   0.616823661
S1      -0.000000177   0.000000034   0.716222378
H1      -0.000000039   0.000000052   0.768782163

     Writing output data file calc.save
     Check: negative starting charge=   -0.830796
     NEW-OLD atomic charge density approx. for the potential
     Check: negative starting charge=   -0.830767

[...]

     Total force =     0.057079     Total SCF correction =     0.007683
     SCF correction compared to forces is large: reduce conv_thr to get better values

[...]

     energy   old            =   -1273.8836552790 Ry
     energy   new            =   -1273.8914228879 Ry

     CASE: energy  _new < energy  _old

[...]

     Total force =     0.003401     Total SCF correction =     0.000172

[...]

     number of scf cycles    =   6
     number of bfgs steps    =   5

     energy   old            =   -1273.8938061712 Ry
     energy   new            =   -1273.8939361713 Ry

     CASE: energy  _new < energy  _old

     new trust radius        =       0.0037141885 bohr
     new conv_thr            =       0.0000001000 Ry

ATOMIC_POSITIONS (crystal)
La1      0.166666667   0.166666667   0.383173129    0   0   0
La1      0.666666667   0.166666667   0.383173129    0   0   0
La1      0.166666667   0.666666667   0.383173129    0   0   0
La1      0.666666667   0.666666667   0.383173129    0   0   0
La1      0.833333333   0.333333333   0.500000000    0   0   0
La1      0.333333333   0.333333333   0.500000000    0   0   0
La1      0.833333333   0.833333333   0.500000000    0   0   0
La1      0.333333333   0.833333333   0.500000000    0   0   0
La1     -0.000000931   0.000001095   0.614611807
La1      0.499670716   0.000659741   0.616845756
La1      0.000659074   0.499670108   0.616845357
La1      0.499671740   0.499668928   0.616846295
S1      -0.000000204  -0.000000120   0.717729187
H1      -0.000000169   0.000000167   0.769234789

     Writing output data file calc.save
     Check: negative starting charge=   -0.830760
     NEW-OLD atomic charge density approx. for the potential
     Check: negative starting charge=   -0.830715

[...]

     Self-consistent Calculation

[...]

     Threshold (ethr) on eigenvalues was too large:
     Diagonalizing with lowered threshold

     Davidson diagonalization with overlap
     ethr =  5.55E-08,  avg # of iterations =  1.0

[...]

     iteration #  5     ecut=    36.75 Ry     beta=0.30
     Davidson diagonalization with overlap
     c_bands:  1 eigenvalues not converged
     ethr =  2.65E-09,  avg # of iterations =  8.2

[...]

     total energy              =   -1273.89394302 Ry
     Harris-Foulkes estimate   =   -1273.89394302 Ry
     estimated scf accuracy    <       0.00000017 Ry

     iteration #  7     ecut=    36.75 Ry     beta=0.30
     Davidson diagonalization with overlap
     ethr =  1.21E-10,  avg # of iterations =  9.6

[...]

     negative rho (up, down):  5.835E-01 0.000E+00

     Adding external electric field

     Computed dipole along edir(3) :
        Dipole               -0.1084 Ry au,         -0.2754 Debye
        Dipole field         -0.0002 Ry au

        Potential amp.        0.0154 Ry
        Total length         48.0849 bohr

     End of self-consistent calculation

[...]

          k = 0.0446-0.0515 0.0000 ( 31991 PWs)   bands (ev):

[...]

          k =-0.0669-0.0387 0.0000 ( 31970 PWs)   bands (ev):

   -31.4257 -31.3973 -31.3597 -31.3362 -31.3345 -31.2696 -31.2678 -31.1445
   -30.8768 -30.8715 -30.8161 -30.8083 -15.3611 -15.3192 -15.2770 -15.2746
   -15.2569 -15.2567 -15.1733 -15.1522 -15.1069 -15.0941 -15.0343 -15.0326
   -15.0195 -14.9710 -14.9558 -14.9546 -14.9360 -14.8798 -14.8795 -14.7876
   -14.6459 -14.6430 -14.6001 -14.5361 -14.5321 -14.5031 -14.4748 -14.4701
   -14.4168 -14.4164 -14.2954 -14.2926 -14.2818 -14.2752 -14.1032 -14.0966
   -11.5427  -4.3159  -0.8334  -0.8101   0.3608   0.3905   0.7914   0.8125
     1.1143   1.1187   1.1834   1.1863   1.2107   1.2682   1.5864   1.6154
     1.7392   1.7658   1.7972   1.8000   2.0531   2.0718   2.1367   2.1528
     2.1591   2.2497   2.2829   2.3236   2.4425   2.5209   2.5395

     the Fermi energy is     1.9590 ev

!    total energy              =   -1273.89394301 Ry
     Harris-Foulkes estimate   =   -1273.89394330 Ry
     estimated scf accuracy    <       0.00000006 Ry

     The total energy is the sum of the following terms:

     one-electron contribution =   -4702.89863041 Ry
     hartree contribution      =    2365.46645073 Ry
     xc contribution           =    -618.08796171 Ry
     ewald contribution        =    1681.74705823 Ry
     electric field correction =       0.00001734 Ry
     smearing contrib. (-TS)   =      -0.12087719 Ry

     convergence has been achieved in   7 iterations

 BEEF-vdW xc energy contributions
           1 :   -547.334316701912
           2 :    503.152919487704
           3 :   -425.119231212543
           4 :    329.949538308594
           5 :   -235.315309588319
           6 :    155.191058264699
           7 :   -97.2290191258975
           8 :    62.4274405424261
           9 :   -46.6174676183007
          10 :    42.9032004291889
          11 :   -44.1302980991063
          12 :    44.6586799996884
          13 :   -41.1683221323515
          14 :    32.6657026389555
          15 :   -20.0560492631550
          16 :    5.54415490195026
          17 :    8.05020469281976
          18 :   -18.0520713635841
          19 :    22.6829002127795
          20 :   -21.6174312594823
          21 :    16.1247627065525
          22 :   -8.67399026062697
          23 :    2.08602752351476
          24 :    1.46448192301489
          25 :   -1.19007491875777
          26 :   -2.14495448480830
          27 :    6.69475199225667
          28 :   -10.4046233610908
          29 :    11.8780156020431
          30 :   -10.8619891146457
          31 :   -46.7653107697444
          32 :   -33.5170019689048

     Forces acting on atoms (Ry/au):

     negative rho (up, down):  5.835E-01 0.000E+00
     atom    1 type  1   force =    -0.00028394   -0.00016371    0.00411324
     atom    2 type  1   force =     0.00028374   -0.00016355    0.00411326
     atom    3 type  1   force =     0.00000017    0.00032736    0.00411323
     atom    4 type  1   force =    -0.00000020   -0.00000039    0.00404384
     atom    5 type  1   force =    -0.00000106    0.00378194   -0.00625143
     atom    6 type  1   force =     0.00000069    0.00000050    0.00051300
     atom    7 type  1   force =    -0.00327488   -0.00189070   -0.00625154
     atom    8 type  1   force =     0.00327515   -0.00189187   -0.00625089
     atom    9 type  1   force =     0.00000088   -0.00000115    0.00043492
     atom   10 type  1   force =    -0.00000025    0.00047545    0.00037313
     atom   11 type  1   force =     0.00041227   -0.00023743    0.00037293
     atom   12 type  1   force =    -0.00041257   -0.00023640    0.00037201
     atom   13 type  2   force =     0.00000002   -0.00000018   -0.00020897
     atom   14 type  3   force =    -0.00000002    0.00000014    0.00051327

     Total force =     0.001262     Total SCF correction =     0.000464
     SCF correction compared to forces is large: reduce conv_thr to get better values

     entering subroutine stress ...

     negative rho (up, down):  5.835E-01 0.000E+00
          total   stress  (Ry/bohr**3)                   (kbar)     P=   -1.07
  -0.00000578   0.00000000   0.00000000         -0.85      0.00      0.00
   0.00000000  -0.00000578  -0.00000000          0.00     -0.85     -0.00
   0.00000000  -0.00000000  -0.00001036          0.00     -0.00     -1.52

     bfgs converged in   7 scf cycles and   6 bfgs steps
     (criteria: energy <  1.0E+00, force <  1.9E-03)

     End of BFGS Geometry Optimization

     Final energy   =   -1273.8939430130 Ry
Begin final coordinates

ATOMIC_POSITIONS (crystal)
La1      0.166666667   0.166666667   0.383173129    0   0   0
La1      0.666666667   0.166666667   0.383173129    0   0   0
La1      0.166666667   0.666666667   0.383173129    0   0   0
La1      0.666666667   0.666666667   0.383173129    0   0   0
La1      0.833333333   0.333333333   0.500000000    0   0   0
La1      0.333333333   0.333333333   0.500000000    0   0   0
La1      0.833333333   0.833333333   0.500000000    0   0   0
La1      0.333333333   0.833333333   0.500000000    0   0   0
La1     -0.000000931   0.000001095   0.614611807
La1      0.499670716   0.000659741   0.616845756
La1      0.000659074   0.499670108   0.616845357
La1      0.499671740   0.499668928   0.616846295
S1      -0.000000204  -0.000000120   0.717729187
H1      -0.000000169   0.000000167   0.769234789
End final coordinates

     Writing output data file calc.save

     General routines

     Parallel routines

   This run was terminated on:   0:43:24  19Apr2018

   JOB DONE.
Job  /afs/slac/g/suncat/bin/suncat-tsmpirun -x LD_LIBRARY_PATH -wdir /scratch/qe325803_zddjt pw.x -npool 4 -in pw.inp

TID   HOST_NAME   COMMAND_LINE            STATUS            TERMINATION_TIME
00000 suncat0016 pw.x -npool 4 -i  Done                     04/19/2018 00:43:24
00001 suncat0016 pw.x -npool 4 -i  Done                     04/19/2018 00:43:24
00002 suncat0016 pw.x -npool 4 -i  Done                     04/19/2018 00:43:24
00003 suncat0016 pw.x -npool 4 -i  Done                     04/19/2018 00:43:24
00004 suncat0016 pw.x -npool 4 -i  Done                     04/19/2018 00:43:24
00005 suncat0016 pw.x -npool 4 -i  Done                     04/19/2018 00:43:24
00006 suncat0016 pw.x -npool 4 -i  Done                     04/19/2018 00:43:24
00007 suncat0016 pw.x -npool 4 -i  Done                     04/19/2018 00:43:24
00008 suncat0014 pw.x -npool 4 -i  Done                     04/19/2018 00:43:24
00009 suncat0014 pw.x -npool 4 -i  Done                     04/19/2018 00:43:24
00010 suncat0014 pw.x -npool 4 -i  Done                     04/19/2018 00:43:24
00011 suncat0014 pw.x -npool 4 -i  Done                     04/19/2018 00:43:24
00012 suncat0014 pw.x -npool 4 -i  Done                     04/19/2018 00:43:24
00013 suncat0014 pw.x -npool 4 -i  Done                     04/19/2018 00:43:24
00014 suncat0014 pw.x -npool 4 -i  Done                     04/19/2018 00:43:24
00015 suncat0014 pw.x -npool 4 -i  Done                     04/19/2018 00:43:24
00016 suncat0116 pw.x -npool 4 -i  Done                     04/19/2018 00:43:24
00017 suncat0116 pw.x -npool 4 -i  Done                     04/19/2018 00:43:24
00018 suncat0116 pw.x -npool 4 -i  Done                     04/19/2018 00:43:24
00019 suncat0116 pw.x -npool 4 -i  Done                     04/19/2018 00:43:24
00020 suncat0116 pw.x -npool 4 -i  Done                     04/19/2018 00:43:24
00021 suncat0116 pw.x -npool 4 -i  Done                     04/19/2018 00:43:24
00022 suncat0116 pw.x -npool 4 -i  Done                     04/19/2018 00:43:24
00023 suncat0116 pw.x -npool 4 -i  Done                     04/19/2018 00:43:24
00024 suncat0234 pw.x -npool 4 -i  Done                     04/19/2018 00:43:24
00025 suncat0234 pw.x -npool 4 -i  Done                     04/19/2018 00:43:24
00026 suncat0234 pw.x -npool 4 -i  Done                     04/19/2018 00:43:24
00027 suncat0234 pw.x -npool 4 -i  Done                     04/19/2018 00:43:24
00028 suncat0234 pw.x -npool 4 -i  Done                     04/19/2018 00:43:24
00029 suncat0234 pw.x -npool 4 -i  Done                     04/19/2018 00:43:24
00030 suncat0234 pw.x -npool 4 -i  Done                     04/19/2018 00:43:24
00031 suncat0234 pw.x -npool 4 -i  Done                     04/19/2018 00:43:24