     Program PWSCF v.5.1rc2 (svn rev. 11289) starts on 25Apr2018 at 10:16:30

     Current dimensions of program PWSCF are:
     Max number of different atomic species (ntypx) = 10
     Max number of k-points (npk) =  40000
     Max angular momentum in pseudopotentials (lmaxx) =  3
     Presently stress not available with electric field

     IMPORTANT: XC functional enforced from input :
     Exchange-correlation      = BEEF-VDW ( 1  4 27 13 2)
     Any further DFT definition will be discarded
     Please, verify this is what you really want

     Subspace diagonalization in iterative solution of the eigenvalue problem:
     a serial algorithm will be used

     bravais-lattice index     =            0
     lattice parameter (alat)  =       1.8897  a.u.
     unit-cell volume          =    6082.7792 (a.u.)^3
     number of atoms/cell      =           14
     number of atomic types    =            3
     number of electrons       =       151.00
     number of Kohn-Sham states=           85
     kinetic-energy cutoff     =      36.7493  Ry
     charge density cutoff     =     367.4932  Ry
     convergence threshold     =      1.0E-05
     mixing beta               =       0.3000
     number of iterations used =           10  plain     mixing
     Exchange-correlation      = BEEF-VDW ( 1  4 27 13 2)
     nstep                     =           50

     celldm(1)=   1.889726  celldm(2)=   0.000000  celldm(3)=   0.000000
     celldm(4)=   0.000000  celldm(5)=   0.000000  celldm(6)=   0.000000

     crystal axes: (cart. coord. in units of alat)
               a(1) = (   6.421223   0.000000   0.000000 )
               a(2) = (   3.210611   5.560942   0.000000 )
               a(3) = (   0.000000   0.000000  25.242906 )

     reciprocal axes: (cart. coord. in units 2 pi/alat)
               b(1) = (  0.155734 -0.089913  0.000000 )
               b(2) = (  0.000000  0.179826  0.000000 )
               b(3) = (  0.000000  0.000000  0.039615 )

     PseudoPot. # 1 for Zr read from file:
     /u/if/mamunm/psp/gbrv1.5pbe/Zr.UPF
     MD5 check sum: 5db81b1e868ab7776c4564c113de050b
     Pseudo is Ultrasoft + core correction, Zval = 12.0
     Generated by new atomic code, or converted to UPF format
     Using radial grid of  887 points,  6 beta functions with:
                l(1) =   0
                l(2) =   0
                l(3) =   1
                l(4) =   1
                l(5) =   2
                l(6) =   2
     Q(r) pseudized with  6 coefficients,  rinner =    1.200   1.200   1.200
                                                       1.200   1.200

     PseudoPot. # 2 for S  read from file:
     /u/if/mamunm/psp/gbrv1.5pbe/S.UPF
     MD5 check sum: 88d86576ff6df21479756cfb9bdac1df
     Pseudo is Ultrasoft + core correction, Zval =  6.0
     Generated by new atomic code, or converted to UPF format
     Using radial grid of  907 points,  6 beta functions with:
                l(1) =   0
                l(2) =   0
                l(3) =   1
                l(4) =   1
                l(5) =   2
                l(6) =   2
     Q(r) pseudized with  8 coefficients,  rinner =    1.300   1.300   1.300
                                                       1.300   1.300

     PseudoPot. # 3 for H  read from file:
     /u/if/mamunm/psp/gbrv1.5pbe/H.UPF
     MD5 check sum: 761ae9a214b05c3daf00ab9f6b793d6f
     Pseudo is Ultrasoft, Zval =  1.0
     Generated by new atomic code, or converted to UPF format
     Using radial grid of  615 points,  2 beta functions with:
                l(1) =   0
                l(2) =   0
     Q(r) pseudized with  8 coefficients,  rinner =    0.700

     vdW kernel table read from file vdW_kernel_table
     MD5 check sum: 095c7af220d748ca6e76c0b4c6cfb241

     atomic species   valence    mass     pseudopotential
        Zr1           12.00    91.22400     Zr( 1.00)
        S1             6.00    32.06000     S ( 1.00)
        H1             1.00     1.00800     H ( 1.00)

     No symmetry found

   Cartesian axes

     site n.     atom                  positions (alat units)
         1           Zr1 tau(   1) = (   1.6053057   0.9268237  10.0000000  )
         2           Zr1 tau(   2) = (   4.8159170   0.9268237  10.0000000  )
         3           Zr1 tau(   3) = (   3.2106113   3.7072946  10.0000000  )
         4           Zr1 tau(   4) = (   6.4212227   3.7072946  10.0000000  )
         5           Zr1 tau(   5) = (   6.4212227   1.8536473  12.6214532  )
         6           Zr1 tau(   6) = (   3.2106113   1.8536473  12.6214532  )
         7           Zr1 tau(   7) = (   8.0265283   4.6341183  12.6214532  )
         8           Zr1 tau(   8) = (   4.8159170   4.6341183  12.6214532  )
         9           Zr1 tau(   9) = (   0.0000000   0.0000000  15.2429064  )
        10           Zr1 tau(  10) = (   3.2106113   0.0000000  15.2429064  )
        11           Zr1 tau(  11) = (   1.6053057   2.7804710  15.2429064  )
        12           Zr1 tau(  12) = (   4.8159170   2.7804710  15.2429064  )
        13           S1  tau(  13) = (   1.6053057   0.0000000  17.3429064  )
        14           H1  tau(  14) = (   1.6053057   0.0000000  18.5929064  )

     number of k points=    20  Fermi-Dirac smearing, width (Ry)=  0.0110
                       cart. coord. in units 2pi/alat
        k(    1) = (   0.0000000   0.0000000   0.0000000), wk =   0.0555556
        k(    2) = (   0.0000000   0.0299709   0.0000000), wk =   0.1111111
        k(    3) = (   0.0000000   0.0599419   0.0000000), wk =   0.1111111
        k(    4) = (   0.0000000  -0.0899128   0.0000000), wk =   0.0555556
        k(    5) = (   0.0259556  -0.0149855   0.0000000), wk =   0.1111111
        k(    6) = (   0.0259556   0.0149855   0.0000000), wk =   0.1111111
        k(    7) = (   0.0259556   0.0449564   0.0000000), wk =   0.1111111
        k(    8) = (   0.0259556  -0.1048983   0.0000000), wk =   0.1111111
        k(    9) = (   0.0259556  -0.0749274   0.0000000), wk =   0.1111111
        k(   10) = (   0.0259556  -0.0449564   0.0000000), wk =   0.1111111
        k(   11) = (   0.0519112  -0.0299709   0.0000000), wk =   0.1111111
        k(   12) = (   0.0519112   0.0000000   0.0000000), wk =   0.1111111
        k(   13) = (   0.0519112   0.0299709   0.0000000), wk =   0.1111111
        k(   14) = (   0.0519112  -0.1198838   0.0000000), wk =   0.1111111
        k(   15) = (   0.0519112  -0.0899128   0.0000000), wk =   0.1111111
        k(   16) = (   0.0519112  -0.0599419   0.0000000), wk =   0.1111111
        k(   17) = (  -0.0778668   0.0449564   0.0000000), wk =   0.0555556
        k(   18) = (  -0.0778668   0.0749274   0.0000000), wk =   0.1111111
        k(   19) = (  -0.0778668   0.1048983   0.0000000), wk =   0.1111111
        k(   20) = (  -0.0778668  -0.0449564   0.0000000), wk =   0.0555556

     Largest allocated arrays     est. size (Mb)     dimensions
     Largest temporary arrays     est. size (Mb)     dimensions

     Initial potential from superposition of free atoms
     Check: negative starting charge=   -0.729046

     starting charge  150.97416, renormalised to  151.00000

     negative rho (up, down):  7.292E-01 0.000E+00

     *
     * You are using vdW-DF for exchange-correlation in this calculation.
     * Please cite the following three references that made this development
     * possible:
     *
     *   M. Dion, H. Rydberg, E. Schroder, D. C. Langreth, and
     *   B. I. Lundqvist, Phys. Rev. Lett. 92, 246401 (2004).
     *
     *   T. Thonhauser, V. R. Cooper, S. Li, A. Puzder, P. Hyldgaard, and
     *   D. C. Langreth, Phys. Rev. B 76, 125112 (2007).
     *
     *   G. Roman-Perez and J. M. Soler, Phys. Rev. Lett. 103, 096102 (2009).
     *
     *
     * If you are using vdW-DF2, please also cite:
     *
     *   K. Lee, E. D. Murray, L. Kong, B. I. Lundqvist, and
     *   D. C. Langreth, Phys. Rev. B 82, 081101(R) (2010).
     *
     *
     * If you are calculating the stress with vdW-DF, please also cite:
     *
     *   R. Sabatini, E. Kucukbenli, B. Kolb, T. Thonhauser, and
     *   S. de Gironcoli, J. Phys.: Condens. Matter 24, 424209 (2012).
     *

     Carrying out vdW-DF run using the following parameters:

     Nqs =      20    Nr_points =    1024   r_max =   100.000
     q_mesh =
               0.00001000     0.04494208     0.09755937     0.15916263
               0.23128650     0.31572767     0.41458969     0.53033537
               0.66584808     0.82450364     1.01025438     1.22772762
               1.48234092     1.78043706     2.12944203     2.53805004
               3.01644009     3.57652955     4.23227104     5.00000000

     Gradients computed in reciprocal space

     Adding external electric field

     Computed dipole along edir(3) :
        Dipole               -0.0107 Ry au,         -0.0271 Debye
        Dipole field         -0.0000 Ry au

        Potential amp.        0.0020 Ry
        Total length         46.5096 bohr

     Starting wfc are  161 randomized atomic wfcs

     Self-consistent Calculation

     iteration #  1     ecut=    36.75 Ry     beta=0.30
     Davidson diagonalization with overlap
     ethr =  1.00E-02,  avg # of iterations =  2.0

[...]

     total energy              =   -1219.65856427 Ry
     Harris-Foulkes estimate   =   -1223.18132521 Ry
     estimated scf accuracy    <       7.37441527 Ry

[...]

     End of self-consistent calculation

          k = 0.0000 0.0000 0.0000 ( 22923 PWs)   bands (ev):

   -47.3838 -47.3398 -47.3162 -47.2621 -47.2527 -47.2500 -47.2469 -47.2368
   -47.0366 -46.9614 -46.9561 -46.9443 -25.6665 -25.6578 -25.6530 -25.6044
   -25.6005 -25.5971 -25.5674 -25.4918 -25.4772 -25.4677 -25.3806 -25.2992
   -25.2785 -25.2586 -25.1399 -25.1333 -25.1272 -25.1135 -25.0931 -25.0865
   -25.0715 -25.0700 -25.0687 -24.9436 -24.9186 -24.9077 -24.9074 -24.8800
   -24.8707 -24.8663 -24.8492 -24.7740 -24.7712 -24.7688 -24.6212 -24.6206
   -12.8327  -5.7074  -2.9512  -1.9477  -1.8738  -1.7977  -1.0597  -0.6325
    -0.6235  -0.5527  -0.4942  -0.4423  -0.4091  -0.0688  -0.0580   0.0126
     0.1357   0.1381   0.1817   0.9314   1.0611   1.1412   1.8022   1.9824
     2.0711   2.1843   2.3563   2.4738   2.5800   2.6228   2.7115   2.7525
     2.8131   2.8470   3.0445   3.0508   3.0945

[...]

          k =-0.0779 0.0450 0.0000 ( 22880 PWs)   bands (ev):

[...]

     the Fermi energy is     1.9414 ev

!    total energy              =   -1222.60322382 Ry
     Harris-Foulkes estimate   =   -1222.60325170 Ry
     estimated scf accuracy    <       0.00000631 Ry

     The total energy is the sum of the following terms:

     one-electron contribution =   -8399.64657314 Ry
     hartree contribution      =    4194.72079844 Ry
     xc contribution           =    -230.13075433 Ry
     ewald contribution        =    3212.57112334 Ry
     electric field correction =       0.00013617 Ry
     smearing contrib. (-TS)   =      -0.11795430 Ry

     convergence has been achieved in  18 iterations

 BEEF-vdW xc energy contributions
           1 :   -196.993218772900
           2 :    178.016394051232
           3 :   -146.071615048457
           4 :    110.165659759576
           5 :   -78.4088646931184
           6 :    55.2297154660124
           7 :   -40.6838484086915
           8 :    31.7850835962483
           9 :   -24.8341054444132
          10 :    17.4286120948982
          11 :   -9.26108963764938
          12 :    1.60130680071973
          13 :    3.94826359772225
          14 :   -6.58858727889077
          15 :    6.75178745570827
          16 :   -5.72354149594887
          17 :    4.82393371580525
          18 :   -4.69988759316249
          19 :    5.13328924352751
          20 :   -5.40268950622939
          21 :    4.89327529551002
          22 :   -3.53795917113757
          23 :    1.83501471912052
          24 :  -0.489140113940550
          25 :  -4.468528033905272E-002
          26 :  -0.189147004454469
          27 :   0.737095907196448
          28 :   -1.06979153409571
          29 :   0.921546692737451
          30 :  -0.421994126118591
          31 :   -22.8907374481880
          32 :   -17.0000783238647

     Forces acting on atoms (Ry/au):

     negative rho (up, down):  7.485E-01 0.000E+00
     atom    1 type  1   force =     0.00001963   -0.00071185    0.01500726
     atom    2 type  1   force =     0.00000120    0.00104623    0.01570933
     atom    3 type  1   force =     0.00071026   -0.00002777    0.01539688
     atom    4 type  1   force =    -0.00069369   -0.00001360    0.01539286
     atom    5 type  1   force =    -0.00080163    0.00268757   -0.00331503
     atom    6 type  1   force =     0.00082164    0.00268191   -0.00330459
     atom    7 type  1   force =     0.00000468   -0.00101682   -0.01134429
     atom    8 type  1   force =     0.00001125   -0.00130685   -0.00556810
     atom    9 type  1   force =    -0.02780261   -0.00332173    0.00923444
     atom   10 type  1   force =     0.02781886   -0.00330878    0.00922524
     atom   11 type  1   force =     0.00002082    0.00354571   -0.01268631
     atom   12 type  1   force =    -0.00000102   -0.00121510   -0.01011981
     atom   13 type  2   force =    -0.00011786    0.00236919   -0.15942659
     atom   14 type  3   force =     0.00000846   -0.00140811    0.12579871

     Total force =     0.208006     Total SCF correction =     0.008622

     entering subroutine stress ...

     negative rho (up, down):  7.485E-01 0.000E+00
          total   stress  (Ry/bohr**3)                   (kbar)     P=   -9.24
  -0.00005541   0.00000000   0.00000000         -8.15      0.00      0.00
   0.00000000  -0.00007793  -0.00000285          0.00    -11.46     -0.42
   0.00000000  -0.00000285  -0.00005501          0.00     -0.42     -8.09

     BFGS Geometry Optimization

     number of scf cycles    =   1
     number of bfgs steps    =   0

     energy   new            =   -1222.6032238243 Ry

     new trust radius        =       0.1594442355 bohr
     new conv_thr            =       0.0000099958 Ry

ATOMIC_POSITIONS (crystal)
Zr1      0.166666667   0.166666667   0.396150897    0   0   0
Zr1      0.666666667   0.166666667   0.396150897    0   0   0
Zr1      0.166666667   0.666666667   0.396150897    0   0   0
Zr1      0.666666667   0.666666667   0.396150897    0   0   0
Zr1      0.833333333   0.333333333   0.500000000    0   0   0
Zr1      0.333333333   0.333333333   0.500000000    0   0   0
Zr1      0.833333333   0.833333333   0.500000000    0   0   0
Zr1      0.333333333   0.833333333   0.500000000    0   0   0
Zr1     -0.002133184  -0.000316095   0.604042688
Zr1      0.502450002  -0.000314862   0.604042495
Zr1     -0.000166988   0.500337408   0.603583154
Zr1      0.500057731   0.499884371   0.603636957
S1       0.249877562   0.000225451   0.683698667
H1       0.250067695  -0.000133995   0.739196822

     Writing output data file calc.save
     Check: negative starting charge=   -0.729046
     NEW-OLD atomic charge density approx. for the potential
     Check: negative starting charge=   -0.728903

[...]

     energy   old            =   -1222.6032238243 Ry
     energy   new            =   -1222.6197076274 Ry

     CASE: energy  _new < energy  _old

[...]

     WARNING: bfgs curvature condition failed, Theta= 0.936
     new trust radius        =       0.0434287200 bohr
     new conv_thr            =       0.0000001000 Ry

[...]

     Total force =     0.005670     Total SCF correction =     0.000145

[...]

     Threshold (ethr) on eigenvalues was too large:
     Diagonalizing with lowered threshold

     Davidson diagonalization with overlap
     ethr =  7.27E-08,  avg # of iterations =  5.2

[...]

     Total force =     0.003599     Total SCF correction =     0.000388
     SCF correction compared to forces is large: reduce conv_thr to get better values

[...]

     number of scf cycles    =  19
     number of bfgs steps    =  18

     energy   old            =   -1222.6362498830 Ry
     energy   new            =   -1222.6362855554 Ry

     CASE: energy  _new < energy  _old

     new trust radius        =       0.0049814972 bohr
     new conv_thr            =       0.0000001000 Ry

ATOMIC_POSITIONS (crystal)
Zr1      0.166666667   0.166666667   0.396150897    0   0   0
Zr1      0.666666667   0.166666667   0.396150897    0   0   0
Zr1      0.166666667   0.666666667   0.396150897    0   0   0
Zr1      0.666666667   0.666666667   0.396150897    0   0   0
Zr1      0.833333333   0.333333333   0.500000000    0   0   0
Zr1      0.333333333   0.333333333   0.500000000    0   0   0
Zr1      0.833333333   0.833333333   0.500000000    0   0   0
Zr1      0.333333333   0.833333333   0.500000000    0   0   0
Zr1     -0.018029138  -0.009042531   0.600759547
Zr1      0.526904704  -0.009039787   0.600769808
Zr1      0.004764831   0.490390968   0.599441023
Zr1      0.498719014   0.502477618   0.601349506
S1       0.251707809  -0.003769979   0.673906536
H1       0.248387142   0.003080489   0.727850113

     Writing output data file calc.save
     Check: negative starting charge=   -0.728499
     NEW-OLD atomic charge density approx. for the potential
     Check: negative starting charge=   -0.728476

[...]

     Self-consistent Calculation

[...]

     Threshold (ethr) on eigenvalues was too large:
     Diagonalizing with lowered threshold

     Davidson diagonalization with overlap
     ethr =  7.69E-09,  avg # of iterations =  8.0

[...]

     total energy              =   -1222.63629786 Ry
     Harris-Foulkes estimate   =   -1222.63629786 Ry
     estimated scf accuracy    <       0.00000016 Ry

     iteration #  8     ecut=    36.75 Ry     beta=0.30
     Davidson diagonalization with overlap
     ethr =  1.09E-10,  avg # of iterations =  3.2

[...]

     negative rho (up, down):  7.482E-01 0.000E+00

     Adding external electric field

     Computed dipole along edir(3) :
        Dipole                0.2777 Ry au,          0.7058 Debye
        Dipole field          0.0006 Ry au

        Potential amp.       -0.0534 Ry
        Total length         46.5096 bohr

     End of self-consistent calculation

[...]

          k = 0.0519-0.0599 0.0000 ( 22856 PWs)   bands (ev):

[...]

          k =-0.0779-0.0450 0.0000 ( 22880 PWs)   bands (ev):

   -47.3512 -47.2977 -47.2946 -47.2648 -47.2527 -47.2488 -47.1223 -47.0703
   -46.9957 -46.9512 -46.9385 -46.8677 -25.5276 -25.5191 -25.4955 -25.4787
   -25.4655 -25.4383 -25.3937 -25.3794 -25.3521 -25.3394 -25.2980 -25.2880
   -25.2772 -25.2577 -25.2477 -25.2443 -25.2179 -25.1929 -25.1900 -25.0648
   -25.0084 -24.9957 -24.9912 -24.9819 -24.9428 -24.9238 -24.8993 -24.8921
   -24.8730 -24.8293 -24.8070 -24.8018 -24.7753 -24.7199 -24.6871 -24.6324
   -12.6371  -5.4860  -2.4992  -2.2268  -1.5463  -1.4203  -0.5283  -0.4675
     0.0132   0.0711   0.1232   0.1682   0.2214   0.2701   0.8332   0.8505
     0.8777   0.9267   0.9983   1.0218   1.3135   1.3287   1.3989   1.4373
     1.4500   1.5484   1.7047   1.7524   1.8662   1.9097   1.9811   2.0780
     2.1186   2.1336   2.3709   2.4549   2.6474

     the Fermi energy is     1.9328 ev

!    total energy              =   -1222.63629786 Ry
     Harris-Foulkes estimate   =   -1222.63629785 Ry
     estimated scf accuracy    <       0.00000006 Ry

     The total energy is the sum of the following terms:

     one-electron contribution =   -8559.72791243 Ry
     hartree contribution      =    4274.94599633 Ry
     xc contribution           =    -230.26672966 Ry
     ewald contribution        =    3292.52439063 Ry
     electric field correction =       0.00015928 Ry
     smearing contrib. (-TS)   =      -0.11220201 Ry

     convergence has been achieved in   8 iterations

 BEEF-vdW xc energy contributions
           1 :   -197.139273034863
           2 :    178.242126922165
           3 :   -146.377310977247
           4 :    110.466936802713
           5 :   -78.5977408791501
           6 :    55.2486358181243
           7 :   -40.5623158120663
           8 :    31.6189745920638
           9 :   -24.7265904848719
          10 :    17.4314537844463
          11 :   -9.35000062781683
          12 :    1.69678901468234
          13 :    3.92865939847815
          14 :   -6.67764702109986
          15 :    6.91171318270594
          16 :   -5.87085251560319
          17 :    4.88501498056087
          18 :   -4.66044706154790
          19 :    5.04793014645463
          20 :   -5.35760116750612
          21 :    4.94823244742690
          22 :   -3.68758197594221
          23 :    2.01392055245509
          24 :  -0.615103544051209
          25 :  -1.925939424052103E-002
          26 :  -0.128420679092017
          27 :   0.654246293735696
          28 :   -1.03576937629117
          29 :   0.968851658044230
          30 :  -0.525460922313670
          31 :   -22.9030916613813
          32 :   -17.0285746064081

     Forces acting on atoms (Ry/au):

     negative rho (up, down):  7.482E-01 0.000E+00
     atom    1 type  1   force =     0.00000629   -0.00147411    0.01293801
     atom    2 type  1   force =     0.00000960    0.00169246    0.01466796
     atom    3 type  1   force =     0.00123283    0.00012890    0.01418757
     atom    4 type  1   force =    -0.00121438    0.00012728    0.01418247
     atom    5 type  1   force =    -0.00465049    0.00174455   -0.00880054
     atom    6 type  1   force =     0.00466604    0.00173244   -0.00877308
     atom    7 type  1   force =    -0.00003156   -0.00769215   -0.03481133
     atom    8 type  1   force =    -0.00000403    0.00498126   -0.00388124
     atom    9 type  1   force =    -0.00026847    0.00033758   -0.00005221
     atom   10 type  1   force =     0.00023950    0.00033477   -0.00004391
     atom   11 type  1   force =    -0.00001049   -0.00116248   -0.00044228
     atom   12 type  1   force =    -0.00001054   -0.00008643    0.00024417
     atom   13 type  2   force =     0.00005374   -0.00124859    0.00056599
     atom   14 type  3   force =    -0.00001804    0.00058453    0.00001843

     Total force =     0.002049     Total SCF correction =     0.000393
     SCF correction compared to forces is large: reduce conv_thr to get better values

     entering subroutine stress ...

     negative rho (up, down):  7.482E-01 0.000E+00
          total   stress  (Ry/bohr**3)                   (kbar)     P=   -5.81
  -0.00000716   0.00000005   0.00000010         -1.05      0.01      0.01
   0.00000005  -0.00006623  -0.00000144          0.01     -9.74     -0.21
   0.00000010  -0.00000144  -0.00004512          0.01     -0.21     -6.64

     bfgs converged in  20 scf cycles and  19 bfgs steps
     (criteria: energy <  1.0E+00, force <  1.9E-03)

     End of BFGS Geometry Optimization

     Final energy   =   -1222.6362978574 Ry
Begin final coordinates

ATOMIC_POSITIONS (crystal)
Zr1      0.166666667   0.166666667   0.396150897    0   0   0
Zr1      0.666666667   0.166666667   0.396150897    0   0   0
Zr1      0.166666667   0.666666667   0.396150897    0   0   0
Zr1      0.666666667   0.666666667   0.396150897    0   0   0
Zr1      0.833333333   0.333333333   0.500000000    0   0   0
Zr1      0.333333333   0.333333333   0.500000000    0   0   0
Zr1      0.833333333   0.833333333   0.500000000    0   0   0
Zr1      0.333333333   0.833333333   0.500000000    0   0   0
Zr1     -0.018029138  -0.009042531   0.600759547
Zr1      0.526904704  -0.009039787   0.600769808
Zr1      0.004764831   0.490390968   0.599441023
Zr1      0.498719014   0.502477618   0.601349506
S1       0.251707809  -0.003769979   0.673906536
H1       0.248387142   0.003080489   0.727850113
End final coordinates

     Writing output data file calc.save

     General routines

     Parallel routines

   This run was terminated on:  12:53:45  25Apr2018

   JOB DONE.
Job  /afs/slac/g/suncat/bin/suncat-tsmpirun -x LD_LIBRARY_PATH -wdir /scratch/qe414705_kFRsx pw.x -npool 4 -in pw.inp

TID   HOST_NAME   COMMAND_LINE            STATUS            TERMINATION_TIME
00000 suncat0050 pw.x -npool 4 -i  Done                     04/25/2018 12:53:45
00001 suncat0050 pw.x -npool 4 -i  Done                     04/25/2018 12:53:45
00002 suncat0050 pw.x -npool 4 -i  Done                     04/25/2018 12:53:45
00003 suncat0050 pw.x -npool 4 -i  Done                     04/25/2018 12:53:45
00004 suncat0050 pw.x -npool 4 -i  Done                     04/25/2018 12:53:45
00005 suncat0050 pw.x -npool 4 -i  Done                     04/25/2018 12:53:45
00006 suncat0050 pw.x -npool 4 -i  Done                     04/25/2018 12:53:45
00007 suncat0050 pw.x -npool 4 -i  Done                     04/25/2018 12:53:45
00008 suncat0042 pw.x -npool 4 -i  Done                     04/25/2018 12:53:45
00009 suncat0042 pw.x -npool 4 -i  Done                     04/25/2018 12:53:45
00010 suncat0042 pw.x -npool 4 -i  Done                     04/25/2018 12:53:45
00011 suncat0042 pw.x -npool 4 -i  Done                     04/25/2018 12:53:45
00012 suncat0042 pw.x -npool 4 -i  Done                     04/25/2018 12:53:45
00013 suncat0042 pw.x -npool 4 -i  Done                     04/25/2018 12:53:45
00014 suncat0042 pw.x -npool 4 -i  Done                     04/25/2018 12:53:45
00015 suncat0042 pw.x -npool 4 -i  Done                     04/25/2018 12:53:45
00016 suncat0107 pw.x -npool 4 -i  Done                     04/25/2018 12:53:45
00017 suncat0107 pw.x -npool 4 -i  Done                     04/25/2018 12:53:45
00018 suncat0107 pw.x -npool 4 -i  Done                     04/25/2018 12:53:45
00019 suncat0107 pw.x -npool 4 -i  Done                     04/25/2018 12:53:45
00020 suncat0107 pw.x -npool 4 -i  Done                     04/25/2018 12:53:45
00021 suncat0107 pw.x -npool 4 -i  Done                     04/25/2018 12:53:45
00022 suncat0107 pw.x -npool 4 -i  Done                     04/25/2018 12:53:45
00023 suncat0107 pw.x -npool 4 -i  Done                     04/25/2018 12:53:45
00024 suncat0277 pw.x -npool 4 -i  Done                     04/25/2018 12:53:45
00025 suncat0277 pw.x -npool 4 -i  Done                     04/25/2018 12:53:45
00026 suncat0277 pw.x -npool 4 -i  Done                     04/25/2018 12:53:45
00027 suncat0277 pw.x -npool 4 -i  Done                     04/25/2018 12:53:45
00028 suncat0277 pw.x -npool 4 -i  Done                     04/25/2018 12:53:45
00029 suncat0277 pw.x -npool 4 -i  Done                     04/25/2018 12:53:45
00030 suncat0277 pw.x -npool 4 -i  Done                     04/25/2018 12:53:45
00031 suncat0277 pw.x -npool 4 -i  Done                     04/25/2018 12:53:45