     Program PWSCF v.5.1rc2 (svn rev. 11289) starts on 20Jan2018 at 15:12:52

     Current dimensions of program PWSCF are:
     Max number of different atomic species (ntypx) = 10
     Max number of k-points (npk) =  40000
     Max angular momentum in pseudopotentials (lmaxx) =  3
     Presently stress not available with electric field

     IMPORTANT: XC functional enforced from input :
     Exchange-correlation      = BEEF-VDW ( 1  4 27 13 2)
     Any further DFT definition will be discarded
     Please, verify this is what you really want

     Subspace diagonalization in iterative solution of the eigenvalue problem:
     a serial algorithm will be used

     bravais-lattice index     =            0
     lattice parameter (alat)  =       1.8897  a.u.
     unit-cell volume          =    4481.2752 (a.u.)^3
     number of atoms/cell      =           13
     number of atomic types    =            2
     number of electrons       =       198.00
     number of Kohn-Sham states=          109
     kinetic-energy cutoff     =      36.7493  Ry
     charge density cutoff     =     367.4932  Ry
     convergence threshold     =      1.0E-05
     mixing beta               =       0.3000
     number of iterations used =           10  plain     mixing
     Exchange-correlation      = BEEF-VDW ( 1  4 27 13 2)
     nstep                     =           50

     celldm(1)=   1.889726  celldm(2)=   0.000000  celldm(3)=   0.000000
     celldm(4)=   0.000000  celldm(5)=   0.000000  celldm(6)=   0.000000

     crystal axes: (cart. coord. in units of alat)
               a(1) = (   5.587338   0.000000   0.000000 )
               a(2) = (   2.793669   4.838777   0.000000 )
               a(3) = (   0.000000   0.000000  24.562042 )

     reciprocal axes: (cart. coord. in units 2 pi/alat)
               b(1) = (  0.178976 -0.103332  0.000000 )
               b(2) = (  0.000000  0.206664  0.000000 )
               b(3) = (  0.000000  0.000000  0.040713 )

     PseudoPot. # 1 for Pt read from file:
     /afs/slac.stanford.edu/u/if/mamunm/psp/gbrv1.5pbe/Pt.UPF
     MD5 check sum: f09d6de1a584b5a045c4fc126da2d0c4
     Pseudo is Ultrasoft + core correction, Zval = 16.0
     Generated by new atomic code, or converted to UPF format
     Using radial grid of  985 points,  6 beta functions with:
                l(1) =   0
                l(2) =   0
                l(3) =   1
                l(4) =   1
                l(5) =   2
                l(6) =   2
     Q(r) pseudized with  8 coefficients,  rinner =    1.300   1.300   1.300
                                                       1.300   1.300

     PseudoPot. # 2 for S  read from file:
     /afs/slac.stanford.edu/u/if/mamunm/psp/gbrv1.5pbe/S.UPF
     MD5 check sum: 88d86576ff6df21479756cfb9bdac1df
     Pseudo is Ultrasoft + core correction, Zval =  6.0
     Generated by new atomic code, or converted to UPF format
     Using radial grid of  907 points,  6 beta functions with:
                l(1) =   0
                l(2) =   0
                l(3) =   1
                l(4) =   1
                l(5) =   2
                l(6) =   2
     Q(r) pseudized with  8 coefficients,  rinner =    1.300   1.300   1.300
                                                       1.300   1.300

     vdW kernel table read from file vdW_kernel_table
     MD5 check sum: 095c7af220d748ca6e76c0b4c6cfb241

     atomic species   valence    mass     pseudopotential
        Pt1           16.00   195.08400     Pt( 1.00)
        S1             6.00    32.06000     S ( 1.00)

     No symmetry found

   Cartesian axes

     site n.     atom                  positions (alat units)
         1           Pt1 tau(   1) = (   1.3968345   0.8064628  10.0000000  )
         2           Pt1 tau(   2) = (   4.1905036   0.8064628  10.0000000  )
         3           Pt1 tau(   3) = (   2.7936691   3.2258512  10.0000000  )
         4           Pt1 tau(   4) = (   5.5873381   3.2258512  10.0000000  )
         5           Pt1 tau(   5) = (   5.5873381   1.6129256  12.2810212  )
         6           Pt1 tau(   6) = (   2.7936691   1.6129256  12.2810212  )
         7           Pt1 tau(   7) = (   6.9841727   4.0323140  12.2810212  )
         8           Pt1 tau(   8) = (   4.1905036   4.0323140  12.2810212  )
         9           Pt1 tau(   9) = (   0.0000000   0.0000000  14.5620425  )
        10           Pt1 tau(  10) = (   2.7936691   0.0000000  14.5620425  )
        11           Pt1 tau(  11) = (   1.3968345   2.4193884  14.5620425  )
        12           Pt1 tau(  12) = (   4.1905036   2.4193884  14.5620425  )
        13           S1  tau(  13) = (   0.0000000   0.0000000  16.9720425  )

     number of k points=    20  Fermi-Dirac smearing, width (Ry)=  0.0110
                       cart. coord. in units 2pi/alat
        k(    1) = (   0.0000000   0.0000000   0.0000000), wk =   0.0555556
        k(    2) = (   0.0000000   0.0344440   0.0000000), wk =   0.1111111
        k(    3) = (   0.0000000   0.0688879   0.0000000), wk =   0.1111111
        k(    4) = (   0.0000000  -0.1033319   0.0000000), wk =   0.0555556
        k(    5) = (   0.0298294  -0.0172220   0.0000000), wk =   0.1111111
        k(    6) = (   0.0298294   0.0172220   0.0000000), wk =   0.1111111
        k(    7) = (   0.0298294   0.0516660   0.0000000), wk =   0.1111111
        k(    8) = (   0.0298294  -0.1205539   0.0000000), wk =   0.1111111
        k(    9) = (   0.0298294  -0.0861099   0.0000000), wk =   0.1111111
        k(   10) = (   0.0298294  -0.0516660   0.0000000), wk =   0.1111111
        k(   11) = (   0.0596587  -0.0344440   0.0000000), wk =   0.1111111
        k(   12) = (   0.0596587   0.0000000   0.0000000), wk =   0.1111111
        k(   13) = (   0.0596587   0.0344440   0.0000000), wk =   0.1111111
        k(   14) = (   0.0596587  -0.1377759   0.0000000), wk =   0.1111111
        k(   15) = (   0.0596587  -0.1033319   0.0000000), wk =   0.1111111
        k(   16) = (   0.0596587  -0.0688879   0.0000000), wk =   0.1111111
        k(   17) = (  -0.0894881   0.0516660   0.0000000), wk =   0.0555556
        k(   18) = (  -0.0894881   0.0861099   0.0000000), wk =   0.1111111
        k(   19) = (  -0.0894881   0.1205539   0.0000000), wk =   0.1111111
        k(   20) = (  -0.0894881  -0.0516660   0.0000000), wk =   0.0555556

     Largest allocated arrays     est. size (Mb)     dimensions
     Largest temporary arrays     est. size (Mb)     dimensions

     Initial potential from superposition of free atoms
     Check: negative starting charge=   -2.200662

     starting charge  191.99983, renormalised to  198.00000

     negative rho (up, down):  2.269E+00 0.000E+00

     *
     * You are using vdW-DF for exchange-correlation in this calculation.
     * Please cite the following three references that made this development
     * possible:
     *
     *   M. Dion, H. Rydberg, E. Schroder, D. C. Langreth, and
     *   B. I. Lundqvist, Phys. Rev. Lett. 92, 246401 (2004).
     *
     *   T. Thonhauser, V. R. Cooper, S. Li, A. Puzder, P. Hyldgaard, and
     *   D. C. Langreth, Phys. Rev. B 76, 125112 (2007).
     *
     *   G. Roman-Perez and J. M. Soler, Phys. Rev. Lett. 103, 096102 (2009).
     *
     *
     * If you are using vdW-DF2, please also cite:
     *
     *   K. Lee, E. D. Murray, L. Kong, B. I. Lundqvist, and
     *   D. C. Langreth, Phys. Rev. B 82, 081101(R) (2010).
     *
     *
     * If you are calculating the stress with vdW-DF, please also cite:
     *
     *   R. Sabatini, E. Kucukbenli, B. Kolb, T. Thonhauser, and
     *   S. de Gironcoli, J. Phys.: Condens. Matter 24, 424209 (2012).
     *

     Carrying out vdW-DF run using the following parameters:

     Nqs =      20    Nr_points =    1024   r_max =   100.000
     q_mesh =
               0.00001000     0.04494208     0.09755937     0.15916263
               0.23128650     0.31572767     0.41458969     0.53033537
               0.66584808     0.82450364     1.01025438     1.22772762
               1.48234092     1.78043706     2.12944203     2.53805004
               3.01644009     3.57652955     4.23227104     5.00000000

     Gradients computed in reciprocal space

     Adding external electric field

     Computed dipole along edir(3) :
        Dipole               -1.6619 Ry au,         -4.2240 Debye
        Dipole field         -0.0047 Ry au

        Potential amp.        0.4218 Ry
        Total length         45.2551 bohr

     Starting wfc are  148 randomized atomic wfcs

     Self-consistent Calculation

     iteration #  1     ecut=    36.75 Ry     beta=0.30
     Davidson diagonalization with overlap
     ethr =  1.00E-02,  avg # of iterations =  4.0

[...]

     total energy              =   -2542.23850384 Ry
     Harris-Foulkes estimate   =   -2575.25546902 Ry
     estimated scf accuracy    <      69.65774645 Ry

[...]

     End of self-consistent calculation

          k = 0.0000 0.0000 0.0000 ( 16787 PWs)   bands (ev):

   -51.3578 -51.2333 -51.2332 -51.1813 -51.1514 -51.1510 -51.0390 -51.0037
   -51.0030 -50.9831 -50.9303 -50.9298 -50.9114 -50.8312 -50.8310 -50.8211
   -50.7981 -50.7978 -50.7757 -50.6578 -50.6576 -50.5842 -50.5756 -50.5753
   -50.5444 -50.5042 -50.5039 -50.4960 -50.4960 -50.4038 -50.3720 -50.3715
   -50.3679 -50.3543 -50.3538 -50.3427  -9.5947  -6.9358  -5.2126  -4.8013
    -4.4620  -4.4395  -4.4394  -4.2266  -4.2265  -4.2245  -3.7967  -3.7967
    -3.7798  -3.6208  -3.6207  -3.5897  -2.3847  -2.3846  -2.2069  -2.0877
    -1.8423  -1.8423  -1.7184  -1.5577  -1.5577  -1.5162  -1.2784  -1.2783
    -1.1469  -1.1468  -1.0918  -1.0373  -1.0373  -0.9510  -0.4733  -0.4730
     0.0251   0.0252   0.2087   0.4158   0.4160   0.4381   0.4423   0.4424
     0.6286   1.0111   1.0111   1.3832   1.3833   1.3902   1.6155   1.6155
     1.6270   1.6826   1.6827   1.7533   1.7534   1.9988   1.9990   2.0037
     2.2268   2.2270   2.2564   2.3384   2.3798   2.3799   2.3971   3.1302
     3.3579   3.3579   3.9083   4.8334   4.8455

[...]

          k =-0.0895 0.0517 0.0000 ( 16880 PWs)   bands (ev):

[...]

     the Fermi energy is     1.8533 ev

!    total energy              =   -2572.55315698 Ry
     Harris-Foulkes estimate   =   -2572.55314634 Ry
     estimated scf accuracy    <       0.00000912 Ry

     The total energy is the sum of the following terms:

     one-electron contribution =  -20436.27194974 Ry
     hartree contribution      =   10257.67795918 Ry
     xc contribution           =    -712.05217029 Ry
     ewald contribution        =    8318.21109005 Ry
     electric field correction =       0.00009402 Ry
     smearing contrib. (-TS)   =      -0.11818020 Ry

     convergence has been achieved in  19 iterations

 BEEF-vdW xc energy contributions
           1 :   -633.678627430999
           2 :    589.444973100106
           3 :   -510.195266136904
           4 :    411.078843804144
           5 :   -308.609639704453
           6 :    216.480421555017
           7 :   -142.858734738566
           8 :    89.6922864498454
           9 :   -53.9570337179778
          10 :    30.1180169912986
          11 :   -12.7594282000746
          12 :   -1.59092562999069
          13 :    13.9247689267092
          14 :   -23.4023028927484
[...]
00030 suncat0253 pw.x -in pw.inp   Done                     01/20/2018 15:28:57
00031 suncat0253 pw.x -in pw.inp   Done                     01/20/2018 15:28:57

     Program PWSCF v.5.1rc2 (svn rev. 11289) starts on 20Jan2018 at 15:29: 3

[...]

   This run was terminated on:  16: 3:19  20Jan2018

[...]

     Program PWSCF v.5.1rc2 (svn rev. 11289) starts on 20Jan2018 at 16: 3:25

[...]

     Program PWSCF v.5.1rc2 (svn rev. 11289) starts on 20Jan2018 at 17:30:25

     Current dimensions of program PWSCF are:
     Max number of different atomic species (ntypx) = 10
     Max number of k-points (npk) =  40000
     Max angular momentum in pseudopotentials (lmaxx) =  3
     Presently stress not available with electric field

     IMPORTANT: XC functional enforced from input :
     Exchange-correlation      = BEEF-VDW ( 1  4 27 13 2)
     Any further DFT definition will be discarded
     Please, verify this is what you really want

     Subspace diagonalization in iterative solution of the eigenvalue problem:
     a serial algorithm will be used

     bravais-lattice index     =            0
     lattice parameter (alat)  =       1.8897  a.u.
     unit-cell volume          =    4481.2752 (a.u.)^3
     number of atoms/cell      =           13
     number of atomic types    =            2
     number of electrons       =       198.00
     number of Kohn-Sham states=          109
     kinetic-energy cutoff     =      36.7493  Ry
     charge density cutoff     =     367.4932  Ry
     convergence threshold     =      1.0E-05
     mixing beta               =       0.3000
     number of iterations used =           10  plain     mixing
     Exchange-correlation      = BEEF-VDW ( 1  4 27 13 2)
     nstep                     =           50

     celldm(1)=   1.889726  celldm(2)=   0.000000  celldm(3)=   0.000000
     celldm(4)=   0.000000  celldm(5)=   0.000000  celldm(6)=   0.000000

     crystal axes: (cart. coord. in units of alat)
               a(1) = (   5.587338   0.000000   0.000000 )
               a(2) = (   2.793669   4.838777   0.000000 )
               a(3) = (   0.000000   0.000000  24.562042 )

     reciprocal axes: (cart. coord. in units 2 pi/alat)
               b(1) = (  0.178976 -0.103332  0.000000 )
               b(2) = (  0.000000  0.206664  0.000000 )
               b(3) = (  0.000000  0.000000  0.040713 )

     PseudoPot. # 1 for Pt read from file:
     /afs/slac.stanford.edu/u/if/mamunm/psp/gbrv1.5pbe/Pt.UPF
     MD5 check sum: f09d6de1a584b5a045c4fc126da2d0c4
     Pseudo is Ultrasoft + core correction, Zval = 16.0
     Generated by new atomic code, or converted to UPF format
     Using radial grid of  985 points,  6 beta functions with:
                l(1) =   0
                l(2) =   0
                l(3) =   1
                l(4) =   1
                l(5) =   2
                l(6) =   2
     Q(r) pseudized with  8 coefficients,  rinner =    1.300   1.300   1.300
                                                       1.300   1.300

     PseudoPot. # 2 for S  read from file:
     /afs/slac.stanford.edu/u/if/mamunm/psp/gbrv1.5pbe/S.UPF
     MD5 check sum: 88d86576ff6df21479756cfb9bdac1df
     Pseudo is Ultrasoft + core correction, Zval =  6.0
     Generated by new atomic code, or converted to UPF format
     Using radial grid of  907 points,  6 beta functions with:
                l(1) =   0
                l(2) =   0
                l(3) =   1
                l(4) =   1
                l(5) =   2
                l(6) =   2
     Q(r) pseudized with  8 coefficients,  rinner =    1.300   1.300   1.300
                                                       1.300   1.300

     vdW kernel table read from file vdW_kernel_table
     MD5 check sum: 095c7af220d748ca6e76c0b4c6cfb241

     atomic species   valence    mass     pseudopotential
        Pt1           16.00   195.08400     Pt( 1.00)
        S1             6.00    32.06000     S ( 1.00)

     No symmetry found

   Cartesian axes

     site n.     atom                  positions (alat units)
         1           Pt1 tau(   1) = (   1.3968345   0.8064628  10.0000000  )
         2           Pt1 tau(   2) = (   4.1905036   0.8064628  10.0000000  )
         3           Pt1 tau(   3) = (   2.7936691   3.2258512  10.0000000  )
         4           Pt1 tau(   4) = (   5.5873381   3.2258512  10.0000000  )
         5           Pt1 tau(   5) = (   5.5873381   1.6129256  12.2810212  )
         6           Pt1 tau(   6) = (   2.7936691   1.6129256  12.2810212  )
         7           Pt1 tau(   7) = (   6.9841727   4.0323140  12.2810212  )
         8           Pt1 tau(   8) = (   4.1905036   4.0323140  12.2810212  )
         9           Pt1 tau(   9) = (   8.3808163   4.8385843  14.6338672  )
        10           Pt1 tau(  10) = (   5.5875650   4.8347458  14.6248071  )
        11           Pt1 tau(  11) = (   6.9807366   2.4216160  14.6246732  )
        12           Pt1 tau(  12) = (   4.1938662   2.4214534  14.6246879  )
        13           S1  tau(  13) = (   5.5873399   0.0000143  16.8086929  )

     number of k points=    20  Fermi-Dirac smearing, width (Ry)=  0.0110
                       cart. coord. in units 2pi/alat
        k(    1) = (   0.0000000   0.0000000   0.0000000), wk =   0.0555556
        k(    2) = (   0.0000000   0.0344440   0.0000000), wk =   0.1111111
        k(    3) = (   0.0000000   0.0688879   0.0000000), wk =   0.1111111
        k(    4) = (   0.0000000  -0.1033319   0.0000000), wk =   0.0555556
        k(    5) = (   0.0298294  -0.0172220   0.0000000), wk =   0.1111111
        k(    6) = (   0.0298294   0.0172220   0.0000000), wk =   0.1111111
        k(    7) = (   0.0298294   0.0516660   0.0000000), wk =   0.1111111
        k(    8) = (   0.0298294  -0.1205539   0.0000000), wk =   0.1111111
        k(    9) = (   0.0298294  -0.0861099   0.0000000), wk =   0.1111111
        k(   10) = (   0.0298294  -0.0516660   0.0000000), wk =   0.1111111
        k(   11) = (   0.0596587  -0.0344440   0.0000000), wk =   0.1111111
        k(   12) = (   0.0596587   0.0000000   0.0000000), wk =   0.1111111
        k(   13) = (   0.0596587   0.0344440   0.0000000), wk =   0.1111111
        k(   14) = (   0.0596587  -0.1377759   0.0000000), wk =   0.1111111
        k(   15) = (   0.0596587  -0.1033319   0.0000000), wk =   0.1111111
        k(   16) = (   0.0596587  -0.0688879   0.0000000), wk =   0.1111111
        k(   17) = (  -0.0894881   0.0516660   0.0000000), wk =   0.0555556
        k(   18) = (  -0.0894881   0.0861099   0.0000000), wk =   0.1111111
        k(   19) = (  -0.0894881   0.1205539   0.0000000), wk =   0.1111111
        k(   20) = (  -0.0894881  -0.0516660   0.0000000), wk =   0.0555556

     Largest allocated arrays     est. size (Mb)     dimensions
     Largest temporary arrays     est. size (Mb)     dimensions

     Initial potential from superposition of free atoms
     Check: negative starting charge=   -2.200078

     starting charge  191.99983, renormalised to  198.00000

[...]

     *
     * You are using vdW-DF for exchange-correlation in this calculation.
     * Please cite the following three references that made this development
     * possible:
     *
     *   M. Dion, H. Rydberg, E. Schroder, D. C. Langreth, and
     *   B. I. Lundqvist, Phys. Rev. Lett. 92, 246401 (2004).
     *
     *   T. Thonhauser, V. R. Cooper, S. Li, A. Puzder, P. Hyldgaard, and
     *   D. C. Langreth, Phys. Rev. B 76, 125112 (2007).
     *
     *   G. Roman-Perez and J. M. Soler, Phys. Rev. Lett. 103, 096102 (2009).
     *
     *
     * If you are using vdW-DF2, please also cite:
     *
     *   K. Lee, E. D. Murray, L. Kong, B. I. Lundqvist, and
     *   D. C. Langreth, Phys. Rev. B 82, 081101(R) (2010).
     *
     *
     * If you are calculating the stress with vdW-DF, please also cite:
     *
     *   R. Sabatini, E. Kucukbenli, B. Kolb, T. Thonhauser, and
     *   S. de Gironcoli, J. Phys.: Condens. Matter 24, 424209 (2012).
     *

     Carrying out vdW-DF run using the following parameters:

     Nqs =      20    Nr_points =    1024   r_max =   100.000
     q_mesh =
               0.00001000     0.04494208     0.09755937     0.15916263
               0.23128650     0.31572767     0.41458969     0.53033537
               0.66584808     0.82450364     1.01025438     1.22772762
               1.48234092     1.78043706     2.12944203     2.53805004
               3.01644009     3.57652955     4.23227104     5.00000000

     Gradients computed in reciprocal space

[...]

     Starting wfc are  148 randomized atomic wfcs

     Self-consistent Calculation

[...]

     total energy              =   -2572.57999248 Ry
     Harris-Foulkes estimate   =   -2572.57999415 Ry
     estimated scf accuracy    <       0.00002962 Ry

     iteration # 21     ecut=    36.75 Ry     beta=0.30
     Davidson diagonalization with overlap
     ethr =  1.50E-08,  avg # of iterations =  1.1

[...]

     negative rho (up, down):  2.117E+00 0.000E+00

     Adding external electric field

     Computed dipole along edir(3) :
        Dipole               -0.0831 Ry au,         -0.2113 Debye
        Dipole field         -0.0002 Ry au

        Potential amp.        0.0211 Ry
        Total length         45.2551 bohr

     End of self-consistent calculation

[...]

          k = 0.0597-0.0689 0.0000 ( 16875 PWs)   bands (ev):

[...]

          k =-0.0895-0.0517 0.0000 ( 16880 PWs)   bands (ev):

   -51.5712 -51.2755 -51.2619 -50.9564 -50.9138 -50.8561 -50.8327 -50.8292
   -50.8231 -50.8174 -50.8092 -50.7904 -50.7758 -50.7261 -50.6867 -50.6269
   -50.6096 -50.5549 -50.5350 -50.5306 -50.5163 -50.4888 -50.4560 -50.4481
   -50.4312 -50.4209 -50.4199 -50.3990 -50.3399 -50.2487 -50.2436 -50.2352
   -50.2139 -50.1752 -50.1676 -50.1602 -10.2516  -4.9957  -4.9488  -3.7460
    -3.6709  -3.4586  -3.3654  -3.2976  -3.2616  -3.2240  -3.2080  -2.8787
    -2.7414  -2.6722  -2.5226  -2.4270  -2.3902  -2.2633  -2.1970  -2.1772
    -1.9708  -1.9579  -1.8686  -1.8121  -1.5816  -1.5489  -1.3814  -1.3353
    -1.2200  -1.1009  -1.0406  -1.0168  -0.9288  -0.8251  -0.7704  -0.7392
    -0.7050  -0.6993  -0.6123  -0.5841  -0.5094  -0.4933  -0.0372  -0.0132
     0.0174   0.2022   0.2042   0.3294   0.3977   0.4657   0.5422   0.5868
     0.6557   0.6889   0.8304   0.9938   1.0839   1.1637   1.1802   1.5555
     1.6012   1.7947   1.9281   1.9783   2.0018   2.1479   2.1868   2.7233
     3.7681   4.1039   4.2272   4.4606   5.1688

     the Fermi energy is     1.9742 ev

!    total energy              =   -2572.57999110 Ry
     Harris-Foulkes estimate   =   -2572.57998750 Ry
     estimated scf accuracy    <       0.00000204 Ry

     The total energy is the sum of the following terms:

     one-electron contribution =  -20319.24019585 Ry
     hartree contribution      =   10199.88486970 Ry
     xc contribution           =    -712.08345407 Ry
     ewald contribution        =    8258.97265737 Ry
     electric field correction =       0.00001938 Ry
     smearing contrib. (-TS)   =      -0.11388763 Ry

     convergence has been achieved in  21 iterations

 BEEF-vdW xc energy contributions
           1 :   -633.707992453577
           2 :    589.471389872813
           3 :   -510.206519033692
           4 :    411.065365169463
           5 :   -308.581756313895
           6 :    216.465145759393
           7 :   -142.878994391831
           8 :    89.7469598360757
           9 :   -54.0173103068392
          10 :    30.1434385364834
          11 :   -12.7233702194563
          12 :   -1.68259858261024
          13 :    14.0335518899354
          14 :   -23.4757851118989
          15 :    28.6321568026898
          16 :   -28.8333506227095
          17 :    24.7527048999696
          18 :   -18.2678521500394
          19 :    11.7360269476798
          20 :   -7.10292634415498
          21 :    5.25946329388285
          22 :   -5.89689542286703
          23 :    7.85415140921884
          24 :   -9.74738722463587
          25 :    10.5747402776716
          26 :   -10.0503282722053
          27 :    8.57151239083805
          28 :   -6.89828143295199
          29 :    5.73229692022085
          30 :   -5.40123824925411
          31 :   -52.2069009806208
          32 :   -38.5688559510842

     Forces acting on atoms (Ry/au):

     negative rho (up, down):  2.117E+00 0.000E+00
     atom    1 type  1   force =    -0.00010999   -0.00006267   -0.01349284
     atom    2 type  1   force =     0.00011054   -0.00006402   -0.01348804
     atom    3 type  1   force =    -0.00000145    0.00012739   -0.01347196
     atom    4 type  1   force =    -0.00000069   -0.00000107   -0.01970499
     atom    5 type  1   force =     0.00000180   -0.00254696    0.01601208
     atom    6 type  1   force =    -0.00000499   -0.00000580    0.01353696
     atom    7 type  1   force =     0.00219745    0.00127300    0.01597326
     atom    8 type  1   force =    -0.00219668    0.00127990    0.01601130
     atom    9 type  1   force =     0.00012591    0.00012637    0.00122186
     atom   10 type  1   force =    -0.00013721    0.00047717   -0.00048539
     atom   11 type  1   force =     0.00032964   -0.00036828   -0.00046272
     atom   12 type  1   force =    -0.00032030   -0.00024021   -0.00046696
     atom   13 type  2   force =     0.00000597    0.00000518   -0.00118255

     Total force =     0.043688     Total SCF correction =     0.013705
     SCF correction compared to forces is large: reduce conv_thr to get better values

     entering subroutine stress ...

     negative rho (up, down):  2.117E+00 0.000E+00
          total   stress  (Ry/bohr**3)                   (kbar)     P=  -10.07
  -0.00012197  -0.00000000   0.00000001        -17.94     -0.00      0.00
  -0.00000000  -0.00012197   0.00000001         -0.00    -17.94      0.00
   0.00000001   0.00000001   0.00003855          0.00      0.00      5.67

 !ASE

     Writing output data file calc.save

     General routines

     Parallel routines

   This run was terminated on:  17:47:44  20Jan2018

   JOB DONE.
Job  /afs/slac/g/suncat/bin/suncat-tsmpirun -x LD_LIBRARY_PATH -wdir /scratch/qe864735_RshQI pw.x -in pw.inp

TID   HOST_NAME   COMMAND_LINE            STATUS            TERMINATION_TIME
00000 suncat0018 pw.x -in pw.inp   Done                     01/20/2018 17:47:44
00001 suncat0018 pw.x -in pw.inp   Done                     01/20/2018 17:47:44
00002 suncat0018 pw.x -in pw.inp   Done                     01/20/2018 17:47:44
00003 suncat0018 pw.x -in pw.inp   Done                     01/20/2018 17:47:44
00004 suncat0018 pw.x -in pw.inp   Done                     01/20/2018 17:47:44
00005 suncat0018 pw.x -in pw.inp   Done                     01/20/2018 17:47:44
00006 suncat0018 pw.x -in pw.inp   Done                     01/20/2018 17:47:44
00007 suncat0018 pw.x -in pw.inp   Done                     01/20/2018 17:47:44
00008 suncat0165 pw.x -in pw.inp   Done                     01/20/2018 17:47:44
00009 suncat0165 pw.x -in pw.inp   Done                     01/20/2018 17:47:44
00010 suncat0165 pw.x -in pw.inp   Done                     01/20/2018 17:47:44
00011 suncat0165 pw.x -in pw.inp   Done                     01/20/2018 17:47:44
00012 suncat0165 pw.x -in pw.inp   Done                     01/20/2018 17:47:44
00013 suncat0165 pw.x -in pw.inp   Done                     01/20/2018 17:47:44
00014 suncat0165 pw.x -in pw.inp   Done                     01/20/2018 17:47:44
00015 suncat0165 pw.x -in pw.inp   Done                     01/20/2018 17:47:44
00016 suncat0277 pw.x -in pw.inp   Done                     01/20/2018 17:47:44
00017 suncat0277 pw.x -in pw.inp   Done                     01/20/2018 17:47:44
00018 suncat0277 pw.x -in pw.inp   Done                     01/20/2018 17:47:44
00019 suncat0277 pw.x -in pw.inp   Done                     01/20/2018 17:47:44
00020 suncat0277 pw.x -in pw.inp   Done                     01/20/2018 17:47:44
00021 suncat0277 pw.x -in pw.inp   Done                     01/20/2018 17:47:44
00022 suncat0277 pw.x -in pw.inp   Done                     01/20/2018 17:47:44
00023 suncat0277 pw.x -in pw.inp   Done                     01/20/2018 17:47:44
00024 suncat0253 pw.x -in pw.inp   Done                     01/20/2018 17:47:44
00025 suncat0253 pw.x -in pw.inp   Done                     01/20/2018 17:47:44
00026 suncat0253 pw.x -in pw.inp   Done                     01/20/2018 17:47:44
00027 suncat0253 pw.x -in pw.inp   Done                     01/20/2018 17:47:44
00028 suncat0253 pw.x -in pw.inp   Done                     01/20/2018 17:47:44
00029 suncat0253 pw.x -in pw.inp   Done                     01/20/2018 17:47:44
00030 suncat0253 pw.x -in pw.inp   Done                     01/20/2018 17:47:44
00031 suncat0253 pw.x -in pw.inp   Done                     01/20/2018 17:47:44