     Program PWSCF v.5.1rc2 (svn rev. 11289) starts on 15Jan2018 at  3:28:32

     Current dimensions of program PWSCF are:
     Max number of different atomic species (ntypx) = 10
     Max number of k-points (npk) =  40000
     Max angular momentum in pseudopotentials (lmaxx) =  3
     Presently stress not available with electric field

     IMPORTANT: XC functional enforced from input :
     Exchange-correlation      = BEEF-VDW ( 1  4 27 13 2)
     Any further DFT definition will be discarded
     Please, verify this is what you really want

     Subspace diagonalization in iterative solution of the eigenvalue problem:
     a serial algorithm will be used

     bravais-lattice index     =            0
     lattice parameter (alat)  =       1.8897  a.u.
     unit-cell volume          =    4552.2840 (a.u.)^3
     number of atoms/cell      =           13
     number of atomic types    =            2
     number of electrons       =       173.00
     number of Kohn-Sham states=           96
     kinetic-energy cutoff     =      36.7493  Ry
     charge density cutoff     =     367.4932  Ry
     convergence threshold     =      1.0E-05
     mixing beta               =       0.3000
     number of iterations used =           10  plain     mixing
     Exchange-correlation      = BEEF-VDW ( 1  4 27 13 2)
     nstep                     =           50

     celldm(1)=   1.889726  celldm(2)=   0.000000  celldm(3)=   0.000000
     celldm(4)=   0.000000  celldm(5)=   0.000000  celldm(6)=   0.000000

     crystal axes: (cart. coord. in units of alat)
               a(1) = (   5.627661   0.000000   0.000000 )
               a(2) = (   2.813831   4.873698   0.000000 )
               a(3) = (   0.000000   0.000000  24.594966 )

     reciprocal axes: (cart. coord. in units 2 pi/alat)
               b(1) = (  0.177694 -0.102592  0.000000 )
               b(2) = (  0.000000  0.205183  0.000000 )
               b(3) = (  0.000000  0.000000  0.040659 )

     PseudoPot. # 1 for Mo read from file:
     /afs/slac.stanford.edu/u/if/mamunm/psp/gbrv1.5pbe/Mo.UPF
     MD5 check sum: 30c4dcd161f5d35cd49bb5239c51a633
     Pseudo is Ultrasoft + core correction, Zval = 14.0
     Generated by new atomic code, or converted to UPF format
     Using radial grid of  889 points,  6 beta functions with:
                l(1) =   0
                l(2) =   0
                l(3) =   1
                l(4) =   1
                l(5) =   2
                l(6) =   2
     Q(r) pseudized with  6 coefficients,  rinner =    1.000   1.000   1.000
                                                       1.000   1.000

     PseudoPot. # 2 for N  read from file:
     /afs/slac.stanford.edu/u/if/mamunm/psp/gbrv1.5pbe/N.UPF
     MD5 check sum: 95339753478d7afb44899504a8723017
     Pseudo is Ultrasoft + core correction, Zval =  5.0
     Generated by new atomic code, or converted to UPF format
     Using radial grid of  729 points,  4 beta functions with:
                l(1) =   0
                l(2) =   0
                l(3) =   1
                l(4) =   1
     Q(r) pseudized with  8 coefficients,  rinner =    0.900   0.900   0.900

     vdW kernel table read from file vdW_kernel_table
     MD5 check sum: 095c7af220d748ca6e76c0b4c6cfb241

     atomic species   valence    mass     pseudopotential
        Mo1           14.00    95.95000     Mo( 1.00)
        N1             5.00    14.00700     N ( 1.00)

     No symmetry found

   Cartesian axes

     site n.     atom                  positions (alat units)
         1           Mo1 tau(   1) = (   1.4069153   0.8122829  10.0000000  )
         2           Mo1 tau(   2) = (   4.2207459   0.8122829  10.0000000  )
         3           Mo1 tau(   3) = (   2.8138306   3.2491317  10.0000000  )
         4           Mo1 tau(   4) = (   5.6276612   3.2491317  10.0000000  )
         5           Mo1 tau(   5) = (   5.6276612   1.6245658  12.2974831  )
         6           Mo1 tau(   6) = (   2.8138306   1.6245658  12.2974831  )
         7           Mo1 tau(   7) = (   7.0345765   4.0614146  12.2974831  )
         8           Mo1 tau(   8) = (   4.2207459   4.0614146  12.2974831  )
         9           Mo1 tau(   9) = (   0.0000000   0.0000000  14.5949661  )
        10           Mo1 tau(  10) = (   2.8138306   0.0000000  14.5949661  )
        11           Mo1 tau(  11) = (   1.4069153   2.4368488  14.5949661  )
        12           Mo1 tau(  12) = (   4.2207459   2.4368488  14.5949661  )
        13           N1  tau(  13) = (   1.4069153   0.8122829  16.8449661  )

     number of k points=    20  Fermi-Dirac smearing, width (Ry)=  0.0110
                       cart. coord. in units 2pi/alat
        k(    1) = (   0.0000000   0.0000000   0.0000000), wk =   0.0555556
        k(    2) = (   0.0000000   0.0341972   0.0000000), wk =   0.1111111
        k(    3) = (   0.0000000   0.0683943   0.0000000), wk =   0.1111111
        k(    4) = (   0.0000000  -0.1025915   0.0000000), wk =   0.0555556
        k(    5) = (   0.0296156  -0.0170986   0.0000000), wk =   0.1111111
        k(    6) = (   0.0296156   0.0170986   0.0000000), wk =   0.1111111
        k(    7) = (   0.0296156   0.0512958   0.0000000), wk =   0.1111111
        k(    8) = (   0.0296156  -0.1196901   0.0000000), wk =   0.1111111
        k(    9) = (   0.0296156  -0.0854929   0.0000000), wk =   0.1111111
        k(   10) = (   0.0296156  -0.0512958   0.0000000), wk =   0.1111111
        k(   11) = (   0.0592312  -0.0341972   0.0000000), wk =   0.1111111
        k(   12) = (   0.0592312   0.0000000   0.0000000), wk =   0.1111111
        k(   13) = (   0.0592312   0.0341972   0.0000000), wk =   0.1111111
        k(   14) = (   0.0592312  -0.1367887   0.0000000), wk =   0.1111111
        k(   15) = (   0.0592312  -0.1025915   0.0000000), wk =   0.1111111
        k(   16) = (   0.0592312  -0.0683943   0.0000000), wk =   0.1111111
        k(   17) = (  -0.0888469   0.0512958   0.0000000), wk =   0.0555556
        k(   18) = (  -0.0888469   0.0854929   0.0000000), wk =   0.1111111
        k(   19) = (  -0.0888469   0.1196901   0.0000000), wk =   0.1111111
        k(   20) = (  -0.0888469  -0.0512958   0.0000000), wk =   0.0555556

     Largest allocated arrays     est. size (Mb)     dimensions
     Largest temporary arrays     est. size (Mb)     dimensions

     Initial potential from superposition of free atoms
     Check: negative starting charge=   -0.004868

     starting charge  172.98723, renormalised to  173.00000

     negative rho (up, down):  4.868E-03 0.000E+00

     *
     * You are using vdW-DF for exchange-correlation in this calculation.
     * Please cite the following three references that made this development
     * possible:
     *
     *   M. Dion, H. Rydberg, E. Schroder, D. C. Langreth, and
     *   B. I. Lundqvist, Phys. Rev. Lett. 92, 246401 (2004).
     *
     *   T. Thonhauser, V. R. Cooper, S. Li, A. Puzder, P. Hyldgaard, and
     *   D. C. Langreth, Phys. Rev. B 76, 125112 (2007).
     *
     *   G. Roman-Perez and J. M. Soler, Phys. Rev. Lett. 103, 096102 (2009).
     *
     *
     * If you are using vdW-DF2, please also cite:
     *
     *   K. Lee, E. D. Murray, L. Kong, B. I. Lundqvist, and
     *   D. C. Langreth, Phys. Rev. B 82, 081101(R) (2010).
     *
     *
     * If you are calculating the stress with vdW-DF, please also cite:
     *
     *   R. Sabatini, E. Kucukbenli, B. Kolb, T. Thonhauser, and
     *   S. de Gironcoli, J. Phys.: Condens. Matter 24, 424209 (2012).
     *

     Carrying out vdW-DF run using the following parameters:

     Nqs =      20    Nr_points =    1024   r_max =   100.000
     q_mesh =
               0.00001000     0.04494208     0.09755937     0.15916263
               0.23128650     0.31572767     0.41458969     0.53033537
               0.66584808     0.82450364     1.01025438     1.22772762
               1.48234092     1.78043706     2.12944203     2.53805004
               3.01644009     3.57652955     4.23227104     5.00000000

     Gradients computed in reciprocal space

     Adding external electric field

     Computed dipole along edir(3) :
        Dipole               -0.0031 Ry au,         -0.0079 Debye
        Dipole field         -0.0000 Ry au

        Potential amp.        0.0008 Ry
        Total length         45.3158 bohr

     Starting wfc are  160 randomized atomic wfcs

     Self-consistent Calculation

     iteration #  1     ecut=    36.75 Ry     beta=0.30
     Davidson diagonalization with overlap
     ethr =  1.00E-02,  avg # of iterations =  2.0

[...]

     total energy              =   -1695.52658103 Ry
     Harris-Foulkes estimate   =   -1699.86236547 Ry
     estimated scf accuracy    <       8.92528006 Ry

[...]

     End of self-consistent calculation

          k = 0.0000 0.0000 0.0000 ( 17111 PWs)   bands (ev):

   -59.3962 -59.2923 -59.2208 -59.2206 -59.2080 -59.1863 -59.1195 -59.1191
   -59.1125 -59.0818 -59.0815 -59.0727 -33.9038 -33.8998 -33.8997 -33.8226
   -33.8182 -33.8181 -33.8170 -33.7230 -33.7133 -33.7132 -33.3979 -33.2708
   -33.2650 -33.2648 -33.1932 -33.1930 -33.1839 -33.0924 -33.0915 -33.0915
   -32.9728 -32.9728 -32.9725 -32.9574 -32.9570 -32.9536 -32.8719 -32.8516
   -32.8515 -32.8482 -32.8204 -32.8204 -32.7345 -32.7345 -32.6514 -32.6514
    -9.9173  -4.2681  -2.9349  -2.8077  -2.8039  -2.8038  -2.7692  -2.3595
    -2.3594  -2.3514  -2.1483  -2.1479  -2.1479  -1.9117  -1.9077  -1.9077
    -0.7645  -0.7197  -0.7196   0.2686   0.2904   0.2905   0.4467   0.6230
     0.9648   0.9648   1.0495   1.0496   1.1522   1.2502   1.2503   1.3555
     1.3882   1.3882   1.4389   1.4389   1.6935   1.8759   1.8759   2.1422
     2.8675   2.8677   2.9357   2.9618   3.0265   3.0266   3.5017   3.5019

[...]

          k =-0.0888 0.0513 0.0000 ( 17160 PWs)   bands (ev):

[...]

     the Fermi energy is     1.6888 ev

!    total energy              =   -1699.30084841 Ry
     Harris-Foulkes estimate   =   -1699.30086933 Ry
     estimated scf accuracy    <       0.00000362 Ry

     The total energy is the sum of the following terms:

     one-electron contribution =  -15414.63452293 Ry
     hartree contribution      =    7700.78088365 Ry
     xc contribution           =    -245.19379463 Ry
     ewald contribution        =    6259.85509191 Ry
     electric field correction =       0.00089112 Ry
     smearing contrib. (-TS)   =      -0.10939752 Ry

     convergence has been achieved in  18 iterations

 BEEF-vdW xc energy contributions
           1 :   -210.479121338245
           2 :    192.034583843242
           3 :   -160.562896030183
           4 :    124.487162671386
           5 :   -92.0945649153189
           6 :    68.9417070387545
           7 :   -56.6374788173377
           8 :    53.1714034271964
           9 :   -54.4406147158820
          10 :    56.1849074284686
          11 :   -55.5481293254722
          12 :    51.7404244644787
          13 :   -45.7525391913425
          14 :    39.4344229601005
          15 :   -34.4491546898199
          16 :    31.5299950091646
          17 :   -30.2934784042410
          18 :    29.5943838032616
          19 :   -28.1945679483220
          20 :    25.3890166175165
          21 :   -21.3014276761184
[...]
     c_bands:  1 eigenvalues not converged
     ethr =  4.27E-06,  avg # of iterations =  6.1

[...]

     Total force =     0.239079     Total SCF correction =     0.024254
     SCF correction compared to forces is large: reduce conv_thr to get better values

[...]

     Program PWSCF v.5.1rc2 (svn rev. 11289) starts on 15Jan2018 at  4:55: 3

[...]

     Total force =     0.130985     Total SCF correction =     0.007670

[...]

   This run was terminated on:   5: 7:50  15Jan2018

[...]

     Program PWSCF v.5.1rc2 (svn rev. 11289) starts on 15Jan2018 at  5: 7:56

[...]

   This run was terminated on:   5:49:22  15Jan2018

[...]

     Program PWSCF v.5.1rc2 (svn rev. 11289) starts on 15Jan2018 at  5:49:28

     Current dimensions of program PWSCF are:
     Max number of different atomic species (ntypx) = 10
     Max number of k-points (npk) =  40000
     Max angular momentum in pseudopotentials (lmaxx) =  3
     Presently stress not available with electric field

     IMPORTANT: XC functional enforced from input :
     Exchange-correlation      = BEEF-VDW ( 1  4 27 13 2)
     Any further DFT definition will be discarded
     Please, verify this is what you really want

     Subspace diagonalization in iterative solution of the eigenvalue problem:
     a serial algorithm will be used

     bravais-lattice index     =            0
     lattice parameter (alat)  =       1.8897  a.u.
     unit-cell volume          =    4552.2840 (a.u.)^3
     number of atoms/cell      =           13
     number of atomic types    =            2
     number of electrons       =       173.00
     number of Kohn-Sham states=           96
     kinetic-energy cutoff     =      36.7493  Ry
     charge density cutoff     =     367.4932  Ry
     convergence threshold     =      1.0E-05
     mixing beta               =       0.3000
     number of iterations used =           10  plain     mixing
     Exchange-correlation      = BEEF-VDW ( 1  4 27 13 2)
     nstep                     =           50

     celldm(1)=   1.889726  celldm(2)=   0.000000  celldm(3)=   0.000000
     celldm(4)=   0.000000  celldm(5)=   0.000000  celldm(6)=   0.000000

     crystal axes: (cart. coord. in units of alat)
               a(1) = (   5.627661   0.000000   0.000000 )
               a(2) = (   2.813831   4.873698   0.000000 )
               a(3) = (   0.000000   0.000000  24.594966 )

     reciprocal axes: (cart. coord. in units 2 pi/alat)
               b(1) = (  0.177694 -0.102592  0.000000 )
               b(2) = (  0.000000  0.205183  0.000000 )
               b(3) = (  0.000000  0.000000  0.040659 )

     PseudoPot. # 1 for Mo read from file:
     /afs/slac.stanford.edu/u/if/mamunm/psp/gbrv1.5pbe/Mo.UPF
     MD5 check sum: 30c4dcd161f5d35cd49bb5239c51a633
     Pseudo is Ultrasoft + core correction, Zval = 14.0
     Generated by new atomic code, or converted to UPF format
     Using radial grid of  889 points,  6 beta functions with:
                l(1) =   0
                l(2) =   0
                l(3) =   1
                l(4) =   1
                l(5) =   2
                l(6) =   2
     Q(r) pseudized with  6 coefficients,  rinner =    1.000   1.000   1.000
                                                       1.000   1.000

     PseudoPot. # 2 for N  read from file:
     /afs/slac.stanford.edu/u/if/mamunm/psp/gbrv1.5pbe/N.UPF
     MD5 check sum: 95339753478d7afb44899504a8723017
     Pseudo is Ultrasoft + core correction, Zval =  5.0
     Generated by new atomic code, or converted to UPF format
     Using radial grid of  729 points,  4 beta functions with:
                l(1) =   0
                l(2) =   0
                l(3) =   1
                l(4) =   1
     Q(r) pseudized with  8 coefficients,  rinner =    0.900   0.900   0.900

     vdW kernel table read from file vdW_kernel_table
     MD5 check sum: 095c7af220d748ca6e76c0b4c6cfb241

     atomic species   valence    mass     pseudopotential
        Mo1           14.00    95.95000     Mo( 1.00)
        N1             5.00    14.00700     N ( 1.00)

     No symmetry found

   Cartesian axes

     site n.     atom                  positions (alat units)
         1           Mo1 tau(   1) = (   1.4069153   0.8122829  10.0000000  )
         2           Mo1 tau(   2) = (   4.2207459   0.8122829  10.0000000  )
         3           Mo1 tau(   3) = (   2.8138306   3.2491317  10.0000000  )
         4           Mo1 tau(   4) = (   5.6276612   3.2491317  10.0000000  )
         5           Mo1 tau(   5) = (   5.6276612   1.6245658  12.2974831  )
         6           Mo1 tau(   6) = (   2.8138306   1.6245658  12.2974831  )
         7           Mo1 tau(   7) = (   7.0345765   4.0614146  12.2974831  )
         8           Mo1 tau(   8) = (   4.2207459   4.0614146  12.2974831  )
         9           Mo1 tau(   9) = (   8.4227227   4.8627927  14.6805803  )
        10           Mo1 tau(  10) = (   5.6464134   4.8628016  14.6805961  )
        11           Mo1 tau(  11) = (   7.0345825   2.4586127  14.6806075  )
        12           Mo1 tau(  12) = (   4.2207301   2.4368900  14.2801585  )
        13           N1  tau(  13) = (   1.4069231   0.8122668  15.7423407  )

     number of k points=    20  Fermi-Dirac smearing, width (Ry)=  0.0110
                       cart. coord. in units 2pi/alat
        k(    1) = (   0.0000000   0.0000000   0.0000000), wk =   0.0555556
        k(    2) = (   0.0000000   0.0341972   0.0000000), wk =   0.1111111
        k(    3) = (   0.0000000   0.0683943   0.0000000), wk =   0.1111111
        k(    4) = (   0.0000000  -0.1025915   0.0000000), wk =   0.0555556
        k(    5) = (   0.0296156  -0.0170986   0.0000000), wk =   0.1111111
        k(    6) = (   0.0296156   0.0170986   0.0000000), wk =   0.1111111
        k(    7) = (   0.0296156   0.0512958   0.0000000), wk =   0.1111111
        k(    8) = (   0.0296156  -0.1196901   0.0000000), wk =   0.1111111
        k(    9) = (   0.0296156  -0.0854929   0.0000000), wk =   0.1111111
        k(   10) = (   0.0296156  -0.0512958   0.0000000), wk =   0.1111111
        k(   11) = (   0.0592312  -0.0341972   0.0000000), wk =   0.1111111
        k(   12) = (   0.0592312   0.0000000   0.0000000), wk =   0.1111111
        k(   13) = (   0.0592312   0.0341972   0.0000000), wk =   0.1111111
        k(   14) = (   0.0592312  -0.1367887   0.0000000), wk =   0.1111111
        k(   15) = (   0.0592312  -0.1025915   0.0000000), wk =   0.1111111
        k(   16) = (   0.0592312  -0.0683943   0.0000000), wk =   0.1111111
        k(   17) = (  -0.0888469   0.0512958   0.0000000), wk =   0.0555556
        k(   18) = (  -0.0888469   0.0854929   0.0000000), wk =   0.1111111
        k(   19) = (  -0.0888469   0.1196901   0.0000000), wk =   0.1111111
        k(   20) = (  -0.0888469  -0.0512958   0.0000000), wk =   0.0555556

     Largest allocated arrays     est. size (Mb)     dimensions
     Largest temporary arrays     est. size (Mb)     dimensions

     Initial potential from superposition of free atoms
     Check: negative starting charge=   -0.004879

     starting charge  172.98723, renormalised to  173.00000

[...]

     *
     * You are using vdW-DF for exchange-correlation in this calculation.
     * Please cite the following three references that made this development
     * possible:
     *
     *   M. Dion, H. Rydberg, E. Schroder, D. C. Langreth, and
     *   B. I. Lundqvist, Phys. Rev. Lett. 92, 246401 (2004).
     *
     *   T. Thonhauser, V. R. Cooper, S. Li, A. Puzder, P. Hyldgaard, and
     *   D. C. Langreth, Phys. Rev. B 76, 125112 (2007).
     *
     *   G. Roman-Perez and J. M. Soler, Phys. Rev. Lett. 103, 096102 (2009).
     *
     *
     * If you are using vdW-DF2, please also cite:
     *
     *   K. Lee, E. D. Murray, L. Kong, B. I. Lundqvist, and
     *   D. C. Langreth, Phys. Rev. B 82, 081101(R) (2010).
     *
     *
     * If you are calculating the stress with vdW-DF, please also cite:
     *
     *   R. Sabatini, E. Kucukbenli, B. Kolb, T. Thonhauser, and
     *   S. de Gironcoli, J. Phys.: Condens. Matter 24, 424209 (2012).
     *

     Carrying out vdW-DF run using the following parameters:

     Nqs =      20    Nr_points =    1024   r_max =   100.000
     q_mesh =
               0.00001000     0.04494208     0.09755937     0.15916263
               0.23128650     0.31572767     0.41458969     0.53033537
               0.66584808     0.82450364     1.01025438     1.22772762
               1.48234092     1.78043706     2.12944203     2.53805004
               3.01644009     3.57652955     4.23227104     5.00000000

     Gradients computed in reciprocal space

[...]

     Starting wfc are  160 randomized atomic wfcs

     Self-consistent Calculation

[...]

     total energy              =   -1699.69276861 Ry
     Harris-Foulkes estimate   =   -1699.69277400 Ry
     estimated scf accuracy    <       0.00012306 Ry

     iteration # 17     ecut=    36.75 Ry     beta=0.30
     Davidson diagonalization with overlap
     ethr =  1.99E-08,  avg # of iterations =  3.9

[...]

     negative rho (up, down):  5.004E-03 0.000E+00

     Adding external electric field

     Computed dipole along edir(3) :
        Dipole               -0.0610 Ry au,         -0.1551 Debye
        Dipole field         -0.0002 Ry au

        Potential amp.        0.0153 Ry
        Total length         45.3158 bohr

     End of self-consistent calculation

[...]

          k = 0.0592-0.0684 0.0000 ( 17122 PWs)   bands (ev):

[...]

          k =-0.0888-0.0513 0.0000 ( 17160 PWs)   bands (ev):

   -58.8077 -58.7739 -58.7197 -58.6612 -58.6431 -58.5718 -58.5541 -58.5158
   -58.5075 -58.4786 -58.4687 -58.4493 -33.3362 -33.2748 -33.1681 -33.1367
   -33.0963 -33.0665 -33.0222 -32.9679 -32.9171 -32.9081 -32.8788 -32.8332
   -32.8097 -32.8058 -32.7748 -32.6537 -32.6400 -32.6178 -32.6177 -32.5562
   -32.5415 -32.5377 -32.4952 -32.4911 -32.4657 -32.4646 -32.4171 -32.3969
   -32.3451 -32.3033 -32.2893 -32.2076 -32.1982 -32.1574 -32.1099 -32.0834
   -12.1066  -2.9799  -2.2426  -2.1340  -1.9915  -1.9004  -1.4329  -1.2629
    -1.1131  -1.0753  -0.9210  -0.8736  -0.8384  -0.5489  -0.3985  -0.3509
    -0.3400  -0.2701  -0.0214   0.0210   0.2778   0.4540   0.5439   0.5556
     0.5920   0.6401   0.9273   1.1240   1.1483   1.2962   1.5071   1.5191
     1.5292   1.6271   1.6737   1.8144   1.8475   1.9314   2.0991   2.1673
     2.2751   2.8053   2.8367   2.9884   3.0078   3.0750   3.2690   3.2993

     the Fermi energy is     2.3270 ev

!    total energy              =   -1699.69276731 Ry
     Harris-Foulkes estimate   =   -1699.69277456 Ry
     estimated scf accuracy    <       0.00000561 Ry

     The total energy is the sum of the following terms:

     one-electron contribution =  -15738.31532715 Ry
     hartree contribution      =    7865.25952958 Ry
     xc contribution           =    -245.88415184 Ry
     ewald contribution        =    6419.33726478 Ry
     electric field correction =       0.00001028 Ry
     smearing contrib. (-TS)   =      -0.09009295 Ry

     convergence has been achieved in  17 iterations

 BEEF-vdW xc energy contributions
           1 :   -211.185172302068
           2 :    192.969782951240
           3 :   -161.750838205821
           4 :    125.737756448539
           5 :   -93.1323641430225
           6 :    69.5384823247233
           7 :   -56.6981822235831
           8 :    52.7596840960931
           9 :   -53.7443865746472
          10 :    55.4427423421425
          11 :   -54.9661640876810
          12 :    51.4308911875292
          13 :   -45.7183062583686
          14 :    39.5963821212451
          15 :   -34.6921439357107
          16 :    31.7482496601082
          17 :   -30.4242007690485
          18 :    29.6309342368170
          19 :   -28.1767940066975
          20 :    25.3801770637741
          21 :   -21.3622922425660
          22 :    16.9049165833228
          23 :   -12.9936490448295
          24 :    10.3040113577104
          25 :   -8.89558739349260
          26 :    8.23952995522873
          27 :   -7.53267503230472
          28 :    6.11217849761377
          29 :   -3.76233299611860
          30 :   0.774654355700335
          31 :   -24.1174402313233
          32 :   -18.5014705257504

     Forces acting on atoms (Ry/au):

     negative rho (up, down):  5.004E-03 0.000E+00
     atom    1 type  1   force =     0.00000091    0.00000411    0.00194126
     atom    2 type  1   force =    -0.00000183    0.00028165   -0.00965629
     atom    3 type  1   force =     0.00024150   -0.00014296   -0.00964592
     atom    4 type  1   force =    -0.00024667   -0.00014445   -0.00965840
     atom    5 type  1   force =     0.02173030   -0.01254976    0.00264302
     atom    6 type  1   force =    -0.02172495   -0.01254546    0.00262445
     atom    7 type  1   force =    -0.00000221   -0.00000180    0.01873349
     atom    8 type  1   force =    -0.00000299    0.02509379    0.00262672
     atom    9 type  1   force =     0.00009874    0.00009637    0.00020534
     atom   10 type  1   force =    -0.00009310    0.00009055    0.00021731
     atom   11 type  1   force =    -0.00000301   -0.00018072    0.00023338
     atom   12 type  1   force =     0.00000629   -0.00001884   -0.00006616
     atom   13 type  2   force =    -0.00000298    0.00001752   -0.00019818

     Total force =     0.050441     Total SCF correction =     0.009780
     SCF correction compared to forces is large: reduce conv_thr to get better values

     entering subroutine stress ...

     negative rho (up, down):  5.004E-03 0.000E+00
          total   stress  (Ry/bohr**3)                   (kbar)     P=   -5.32
  -0.00006721  -0.00000001  -0.00000001         -9.89     -0.00     -0.00
  -0.00000001  -0.00006724   0.00000001         -0.00     -9.89      0.00
  -0.00000001   0.00000001   0.00002586         -0.00      0.00      3.80

 !ASE

     Writing output data file calc.save

     General routines

     Parallel routines

   This run was terminated on:   6: 3:35  15Jan2018

   JOB DONE.
Job  /afs/slac/g/suncat/bin/suncat-tsmpirun -x LD_LIBRARY_PATH -wdir /scratch/qe842458_otlk6 pw.x -in pw.inp

TID   HOST_NAME   COMMAND_LINE            STATUS            TERMINATION_TIME
00000 suncat1058 pw.x -in pw.inp   Done                     01/15/2018 06:03:35
00001 suncat1058 pw.x -in pw.inp   Done                     01/15/2018 06:03:35
00002 suncat1058 pw.x -in pw.inp   Done                     01/15/2018 06:03:35
00003 suncat1058 pw.x -in pw.inp   Done                     01/15/2018 06:03:35
00004 suncat1058 pw.x -in pw.inp   Done                     01/15/2018 06:03:35
00005 suncat1058 pw.x -in pw.inp   Done                     01/15/2018 06:03:35
00006 suncat1058 pw.x -in pw.inp   Done                     01/15/2018 06:03:35
00007 suncat1058 pw.x -in pw.inp   Done                     01/15/2018 06:03:35
00008 suncat1037 pw.x -in pw.inp   Done                     01/15/2018 06:03:35
00009 suncat1037 pw.x -in pw.inp   Done                     01/15/2018 06:03:35
00010 suncat1037 pw.x -in pw.inp   Done                     01/15/2018 06:03:35
00011 suncat1037 pw.x -in pw.inp   Done                     01/15/2018 06:03:35
00012 suncat1037 pw.x -in pw.inp   Done                     01/15/2018 06:03:35
00013 suncat1037 pw.x -in pw.inp   Done                     01/15/2018 06:03:35
00014 suncat1037 pw.x -in pw.inp   Done                     01/15/2018 06:03:35
00015 suncat1037 pw.x -in pw.inp   Done                     01/15/2018 06:03:35
00016 suncat1037 pw.x -in pw.inp   Done                     01/15/2018 06:03:35
00017 suncat1037 pw.x -in pw.inp   Done                     01/15/2018 06:03:35
00018 suncat1037 pw.x -in pw.inp   Done                     01/15/2018 06:03:35
00019 suncat1037 pw.x -in pw.inp   Done                     01/15/2018 06:03:35
00020 suncat1036 pw.x -in pw.inp   Done                     01/15/2018 06:03:35
00021 suncat1036 pw.x -in pw.inp   Done                     01/15/2018 06:03:35
00022 suncat1036 pw.x -in pw.inp   Done                     01/15/2018 06:03:35
00023 suncat1036 pw.x -in pw.inp   Done                     01/15/2018 06:03:35
00024 suncat1036 pw.x -in pw.inp   Done                     01/15/2018 06:03:35
00025 suncat1036 pw.x -in pw.inp   Done                     01/15/2018 06:03:35
00026 suncat1036 pw.x -in pw.inp   Done                     01/15/2018 06:03:35
00027 suncat1036 pw.x -in pw.inp   Done                     01/15/2018 06:03:35
00028 suncat1036 pw.x -in pw.inp   Done                     01/15/2018 06:03:35
00029 suncat1036 pw.x -in pw.inp   Done                     01/15/2018 06:03:35
00030 suncat1036 pw.x -in pw.inp   Done                     01/15/2018 06:03:35
00031 suncat1036 pw.x -in pw.inp   Done                     01/15/2018 06:03:35