     Program PWSCF v.5.1rc2 (svn rev. 11289) starts on 10Jan2019 at 15:10:16

     Current dimensions of program PWSCF are:
     Max number of different atomic species (ntypx) = 10
     Max number of k-points (npk) =  40000
     Max angular momentum in pseudopotentials (lmaxx) =  3

     IMPORTANT: XC functional enforced from input :
     Exchange-correlation      = BEEF-VDW ( 1  4 27 13 2)
     Any further DFT definition will be discarded
     Please, verify this is what you really want

     Subspace diagonalization in iterative solution of the eigenvalue problem:
     a serial algorithm will be used

     Generating pointlists ...
     new r_m :   0.1317 (alat units)  1.2808 (a.u.) for type    1
     new r_m :   0.0817 (alat units)  0.7943 (a.u.) for type    2
     new r_m :   0.0817 (alat units)  0.7943 (a.u.) for type    3

     bravais-lattice index     =            0
     lattice parameter (alat)  =       9.7265  a.u.
     unit-cell volume          =    3747.1846 (a.u.)^3
     number of atoms/cell      =           14
     number of atomic types    =            3
     number of electrons       =       186.00
     number of Kohn-Sham states=          103
     kinetic-energy cutoff     =      36.7493  Ry
     charge density cutoff     =     367.4933  Ry
     convergence threshold     =      1.0E-04
     mixing beta               =       0.1000
     number of iterations used =            8  plain     mixing
     Exchange-correlation      = BEEF-VDW ( 1  4 27 13 2)
     nstep                     =           50

     celldm(1)=   9.726515  celldm(2)=   0.000000  celldm(3)=   0.000000
     celldm(4)=   0.000000  celldm(5)=   0.000000  celldm(6)=   0.000000

     crystal axes: (cart. coord. in units of alat)
               a(1) = (   1.000000   0.000000   0.000000 )
               a(2) = (   0.500000   0.866025   0.000000 )
               a(3) = (   0.000000   0.000000   4.702218 )

     reciprocal axes: (cart. coord. in units 2 pi/alat)
               b(1) = (  1.000000 -0.577350  0.000000 )
               b(2) = (  0.000000  1.154701  0.000000 )
               b(3) = (  0.000000  0.000000  0.212666 )

     PseudoPot. # 1 for Mn read from file:
     /u/if/jboes/code/decaf-espresso/gbrv15pbe/Mn.UPF
     MD5 check sum: 82ef2b46521d7a7d9e736dc3972e4928
     Pseudo is Ultrasoft + core correction, Zval = 15.0
     Generated by new atomic code, or converted to UPF format
     Using radial grid of  859 points,  6 beta functions with:
                l(1) =   0
                l(2) =   0
                l(3) =   1
                l(4) =   1
                l(5) =   2
                l(6) =   2
     Q(r) pseudized with  8 coefficients,  rinner =    0.950   0.950   0.950
                                                       0.950   0.950

     PseudoPot. # 2 for N  read from file:
     /u/if/jboes/code/decaf-espresso/gbrv15pbe/N.UPF
     MD5 check sum: 95339753478d7afb44899504a8723017
     Pseudo is Ultrasoft + core correction, Zval =  5.0
     Generated by new atomic code, or converted to UPF format
     Using radial grid of  729 points,  4 beta functions with:
                l(1) =   0
                l(2) =   0
                l(3) =   1
                l(4) =   1
     Q(r) pseudized with  8 coefficients,  rinner =    0.900   0.900   0.900

     PseudoPot. # 3 for H  read from file:
     /u/if/jboes/code/decaf-espresso/gbrv15pbe/H.UPF
     MD5 check sum: 761ae9a214b05c3daf00ab9f6b793d6f
     Pseudo is Ultrasoft, Zval =  1.0
     Generated by new atomic code, or converted to UPF format
     Using radial grid of  615 points,  2 beta functions with:
                l(1) =   0
                l(2) =   0
     Q(r) pseudized with  8 coefficients,  rinner =    0.700

     vdW kernel table read from file vdW_kernel_table
     MD5 check sum: 095c7af220d748ca6e76c0b4c6cfb241

     atomic species   valence    mass     pseudopotential
        Mn            15.00    54.93804     Mn( 1.00)
        N              5.00    14.00700     N ( 1.00)
        H              1.00     1.00800     H ( 1.00)

     Starting magnetic structure
     atomic species   magnetization
        Mn           0.200
        N            0.000
        H            0.000

     No symmetry found

   Cartesian axes

     site n.     atom                  positions (alat units)
         1           Mn  tau(   1) = (   0.2500000   0.1443376   1.9428605  )
         2           Mn  tau(   2) = (   0.7500000   0.1443376   1.9428605  )
         3           Mn  tau(   3) = (   0.5000000   0.5773503   1.9428605  )
         4           Mn  tau(   4) = (   1.0000000   0.5773503   1.9428605  )
         5           Mn  tau(   5) = (   1.0000000   0.2886751   2.3511088  )
         6           Mn  tau(   6) = (   0.5000000   0.2886751   2.3511088  )
         7           Mn  tau(   7) = (   1.2500000   0.7216878   2.3511088  )
         8           Mn  tau(   8) = (   0.7500000   0.7216878   2.3511088  )
         9           Mn  tau(   9) = (  -0.0000008  -0.0000031   2.7824092  )
        10           Mn  tau(  10) = (   0.5000012  -0.0000700   2.7484364  )
        11           Mn  tau(  11) = (   0.2499393   0.4330488   2.7484389  )
        12           Mn  tau(  12) = (   0.7500627   0.4330476   2.7484438  )
        13           N   tau(  13) = (   0.0000004   0.0000020   3.1016265  )
        14           H   tau(  14) = (   0.0000001   0.0000001   3.2995913  )

     number of k points=    40  Fermi-Dirac smearing, width (Ry)=  0.0110
                       cart. coord. in units 2pi/alat
        k(    1) = (   0.0000000   0.0000000   0.0000000), wk =   0.0277778
        k(    2) = (   0.0000000   0.1924501   0.0000000), wk =   0.0555556
        k(    3) = (   0.0000000   0.3849002   0.0000000), wk =   0.0555556
        k(    4) = (   0.0000000  -0.5773503   0.0000000), wk =   0.0277778
        k(    5) = (   0.1666667  -0.0962250   0.0000000), wk =   0.0555556
        k(    6) = (   0.1666667   0.0962250   0.0000000), wk =   0.0555556
        k(    7) = (   0.1666667   0.2886751   0.0000000), wk =   0.0555556
        k(    8) = (   0.1666667  -0.6735753   0.0000000), wk =   0.0555556
        k(    9) = (   0.1666667  -0.4811252   0.0000000), wk =   0.0555556
        k(   10) = (   0.1666667  -0.2886751   0.0000000), wk =   0.0555556
        k(   11) = (   0.3333333  -0.1924501   0.0000000), wk =   0.0555556
        k(   12) = (   0.3333333   0.0000000   0.0000000), wk =   0.0555556
        k(   13) = (   0.3333333   0.1924501   0.0000000), wk =   0.0555556
        k(   14) = (   0.3333333  -0.7698004   0.0000000), wk =   0.0555556
        k(   15) = (   0.3333333  -0.5773503   0.0000000), wk =   0.0555556
        k(   16) = (   0.3333333  -0.3849002   0.0000000), wk =   0.0555556
        k(   17) = (  -0.5000000   0.2886751   0.0000000), wk =   0.0277778
        k(   18) = (  -0.5000000   0.4811252   0.0000000), wk =   0.0555556
        k(   19) = (  -0.5000000   0.6735753   0.0000000), wk =   0.0555556
        k(   20) = (  -0.5000000  -0.2886751   0.0000000), wk =   0.0277778
        k(   21) = (   0.0000000   0.0000000   0.0000000), wk =   0.0277778
        k(   22) = (   0.0000000   0.1924501   0.0000000), wk =   0.0555556
        k(   23) = (   0.0000000   0.3849002   0.0000000), wk =   0.0555556
        k(   24) = (   0.0000000  -0.5773503   0.0000000), wk =   0.0277778
        k(   25) = (   0.1666667  -0.0962250   0.0000000), wk =   0.0555556
        k(   26) = (   0.1666667   0.0962250   0.0000000), wk =   0.0555556
        k(   27) = (   0.1666667   0.2886751   0.0000000), wk =   0.0555556
        k(   28) = (   0.1666667  -0.6735753   0.0000000), wk =   0.0555556
        k(   29) = (   0.1666667  -0.4811252   0.0000000), wk =   0.0555556
        k(   30) = (   0.1666667  -0.2886751   0.0000000), wk =   0.0555556
        k(   31) = (   0.3333333  -0.1924501   0.0000000), wk =   0.0555556
        k(   32) = (   0.3333333   0.0000000   0.0000000), wk =   0.0555556
        k(   33) = (   0.3333333   0.1924501   0.0000000), wk =   0.0555556
        k(   34) = (   0.3333333  -0.7698004   0.0000000), wk =   0.0555556
        k(   35) = (   0.3333333  -0.5773503   0.0000000), wk =   0.0555556
        k(   36) = (   0.3333333  -0.3849002   0.0000000), wk =   0.0555556
        k(   37) = (  -0.5000000   0.2886751   0.0000000), wk =   0.0277778
        k(   38) = (  -0.5000000   0.4811252   0.0000000), wk =   0.0555556
        k(   39) = (  -0.5000000   0.6735753   0.0000000), wk =   0.0555556
        k(   40) = (  -0.5000000  -0.2886751   0.0000000), wk =   0.0277778

     Largest allocated arrays     est. size (Mb)     dimensions
     Largest temporary arrays     est. size (Mb)     dimensions

     Check: negative/imaginary core charge=   -0.000010    0.000000

     Initial potential from superposition of free atoms
     Check: negative starting charge=(component1):   -0.001537
     Check: negative starting charge=(component2):   -0.001006

     starting charge  179.99896, renormalised to  186.00000

     negative rho (up, down):  1.588E-03 1.039E-03

     *
     * You are using vdW-DF for exchange-correlation in this calculation.
     * Please cite the following three references that made this development
     * possible:
     *
     *   M. Dion, H. Rydberg, E. Schroder, D. C. Langreth, and
     *   B. I. Lundqvist, Phys. Rev. Lett. 92, 246401 (2004).
     *
     *   T. Thonhauser, V. R. Cooper, S. Li, A. Puzder, P. Hyldgaard, and
     *   D. C. Langreth, Phys. Rev. B 76, 125112 (2007).
     *
     *   G. Roman-Perez and J. M. Soler, Phys. Rev. Lett. 103, 096102 (2009).
     *
     *
     * If you are using vdW-DF2, please also cite:
     *
     *   K. Lee, E. D. Murray, L. Kong, B. I. Lundqvist, and
     *   D. C. Langreth, Phys. Rev. B 82, 081101(R) (2010).
     *
     *
     * If you are calculating the stress with vdW-DF, please also cite:
     *
     *   R. Sabatini, E. Kucukbenli, B. Kolb, T. Thonhauser, and
     *   S. de Gironcoli, J. Phys.: Condens. Matter 24, 424209 (2012).
     *

     Carrying out vdW-DF run using the following parameters:

     Nqs =      20    Nr_points =    1024   r_max =   100.000
     q_mesh =
               0.00001000     0.04494208     0.09755937     0.15916263
               0.23128650     0.31572767     0.41458969     0.53033537
               0.66584808     0.82450364     1.01025438     1.22772762
               1.48234092     1.78043706     2.12944203     2.53805004
               3.01644009     3.57652955     4.23227104     5.00000000

     Gradients computed in reciprocal space

     Adding external electric field

     Computed dipole along edir(3) :
        Dipole               -1.5259 Ry au,         -3.8784 Debye
        Dipole field         -0.0051 Ry au

        Potential amp.        0.4213 Ry
        Total length         41.1626 bohr

[...]

     Starting wfc are  161 randomized atomic wfcs

     Self-consistent Calculation

     iteration #  1     ecut=    36.75 Ry     beta=0.10
     Davidson diagonalization with overlap
     ethr =  1.00E-02,  avg # of iterations =  2.0

[...]

     Magnetic moment per site:
     atom:    1    charge:   11.3214    magn:    2.1863    constr:    0.0000
[...]

     total energy              =   -2541.95679662 Ry
     Harris-Foulkes estimate   =   -2570.67394619 Ry
     estimated scf accuracy    <     156.38339261 Ry

     total magnetization       =    18.63 Bohr mag/cell
     absolute magnetization    =    19.26 Bohr mag/cell

[...]

     iteration # 95     ecut=    36.75 Ry     beta=0.10
     Davidson diagonalization with overlap
     c_bands:  1 eigenvalues not converged
     c_bands:  1 eigenvalues not converged
     ethr =  9.08E-08,  avg # of iterations =  4.3

[...]

     End of self-consistent calculation

 ------ SPIN UP ------------

          k = 0.0000 0.0000 0.0000 ( 14177 PWs)   bands (ev):

   -78.8342 -78.7878 -78.7871 -78.5341 -78.4846 -78.4836 -78.3289 -77.1217
   -76.3306 -76.2795 -76.2658 -76.1354 -47.7297 -47.6867 -47.6856 -47.6234
   -47.6229 -47.5046 -47.4620 -47.4012 -47.3556 -47.3549 -47.3268 -47.2936
   -47.2931 -47.1880 -47.1788 -47.1784 -47.0494 -47.0005 -46.9994 -46.8758
   -46.8757 -46.3609 -45.6261 -45.6259 -45.2937 -45.2584 -45.2487 -45.0035
   -44.9873 -44.9772 -44.9659 -44.9382 -44.9244 -44.8517 -44.8171 -44.8144
   -13.8837  -5.7807  -5.1118  -3.7697  -2.5466  -2.2992  -2.2985  -2.2094
    -2.1078  -2.0390  -2.0388  -1.8978  -1.8148  -1.8145  -1.6270  -1.6257
    -1.2565  -1.2229  -1.2222  -1.0064  -0.5994  -0.5989  -0.3652   0.1528
     0.1532   0.2877   0.2986   0.2986   0.3609   0.3623   0.3625   0.4729
     0.5085   0.5099   0.7148   0.7151   0.8575   0.9337   0.9340   1.0977
     1.2540   1.2549   1.4806   1.5673   1.5696   1.8583   2.1685   2.1768
     2.1770   2.2269   2.3698   2.3703   2.4448   2.5078   2.5085

[...]

          k =-0.5000 0.2887 0.0000 ( 14098 PWs)   bands (ev):

[...]

 ------ SPIN DOWN ----------

[...]

     the Fermi energy is     1.9179 ev

!    total energy              =   -2566.79204631 Ry
     Harris-Foulkes estimate   =   -2566.79203248 Ry
     estimated scf accuracy    <       0.00008862 Ry

     The total energy is the sum of the following terms:

     one-electron contribution =  -22960.92783818 Ry
     hartree contribution      =   11482.19527277 Ry
     xc contribution           =    -336.84103542 Ry
     ewald contribution        =    9248.88669969 Ry
     electric field correction =       0.00031189 Ry
     smearing contrib. (-TS)   =      -0.10545706 Ry

[...]

     convergence has been achieved in 100 iterations

     Forces acting on atoms (Ry/au):

     negative rho (up, down):  1.933E-03 1.717E-03
     atom    1 type  1   force =    -0.00064449   -0.00052523    0.01316752
     atom    2 type  1   force =     0.00064014   -0.00033907    0.01306069
     atom    3 type  1   force =     0.00016143    0.00080154    0.01313477
     atom    4 type  1   force =    -0.00013506    0.00006305    0.01791082
     atom    5 type  1   force =    -0.00001288   -0.00707325   -0.01105945
     atom    6 type  1   force =    -0.00001193   -0.00002360   -0.01010257
     atom    7 type  1   force =     0.00605198    0.00353577   -0.01101425
     atom    8 type  1   force =    -0.00611478    0.00356032   -0.01114628
     atom    9 type  1   force =     0.00013518   -0.00005625    0.00294537
     atom   10 type  1   force =    -0.00008797    0.00046351   -0.00744491
     atom   11 type  1   force =     0.00047498   -0.00026852   -0.00738104
     atom   12 type  1   force =    -0.00043946   -0.00014932   -0.00742991
     atom   13 type  2   force =    -0.00003844    0.00001696    0.00357789
     atom   14 type  3   force =     0.00002130   -0.00000591    0.00178136

     Total force =     0.013803     Total SCF correction =     0.007573
     SCF correction compared to forces is large: reduce conv_thr to get better values

     BFGS Geometry Optimization

     number of scf cycles    =   1
     number of bfgs steps    =   0

     energy   new            =   -2566.7920463120 Ry

     new trust radius        =       0.0074598452 bohr
     new conv_thr            =       0.0001000000 Ry

ATOMIC_POSITIONS (angstrom)
Mn       1.286762465   0.742912655  10.000000000    0   0   0
Mn       3.860287394   0.742912655  10.000000000    0   0   0
Mn       2.573524929   2.971650622  10.000000000    0   0   0
Mn       5.147049859   2.971650622  10.000000000    0   0   0
Mn       5.147049859   1.485825311  12.101274306    0   0   0
Mn       2.573524929   1.485825311  12.101274306    0   0   0
Mn       6.433812323   3.714563277  12.101274306    0   0   0
Mn       3.860287394   3.714563277  12.101274306    0   0   0
Mn       0.000067162  -0.000045977  14.322757654
Mn       2.573484759  -0.000115002  14.142399257
Mn       1.286701207   2.228781498  14.142446415
Mn       3.860377472   2.228838365  14.142445385
N       -0.000018080   0.000019244  15.966119484
H        0.000011560  -0.000002409  16.984103772

     Writing output data file calc.save
     Check: negative starting charge=(component1):   -0.002540
     NEW-OLD atomic charge density approx. for the potential

     Check: negative/imaginary core charge=   -0.000010    0.000000
     Check: negative starting charge=(component1):   -0.002543

[...]

     energy   old            =   -2566.7920463120 Ry
     energy   new            =   -2566.7923116693 Ry

     CASE: energy  _new < energy  _old

     WARNING: bfgs curvature condition failed, Theta= 0.901
     new trust radius        =       0.0111897679 bohr
     new conv_thr            =       0.0000010000 Ry

[...]

     Total force =     0.010189     Total SCF correction =     0.000965

[...]

     iteration #  8     ecut=    36.75 Ry     beta=0.10
     Davidson diagonalization with overlap
     c_bands:  1 eigenvalues not converged
     c_bands:  1 eigenvalues not converged
     c_bands:  1 eigenvalues not converged
     ethr =  8.56E-08,  avg # of iterations =  7.3

[...]

     number of scf cycles    =   7
     number of bfgs steps    =   6

     energy   old            =   -2566.7932310881 Ry
     energy   new            =   -2566.7932441492 Ry

     CASE: energy  _new < energy  _old

     new trust radius        =       0.0044626570 bohr
     new conv_thr            =       0.0000010000 Ry

ATOMIC_POSITIONS (angstrom)
Mn       1.286762465   0.742912655  10.000000000    0   0   0
Mn       3.860287394   0.742912655  10.000000000    0   0   0
Mn       2.573524929   2.971650621  10.000000000    0   0   0
Mn       5.147049859   2.971650621  10.000000000    0   0   0
Mn       5.147049859   1.485825311  12.101274306    0   0   0
Mn       2.573524929   1.485825311  12.101274306    0   0   0
Mn       6.433812324   3.714563277  12.101274306    0   0   0
Mn       3.860287394   3.714563277  12.101274306    0   0   0
Mn       0.000205590  -0.000085944  14.346917389
Mn       2.573529629   0.001950355  14.103789513
Mn       1.288532439   2.227749739  14.103970036
Mn       3.858612881   2.227790852  14.103841035
N       -0.000109336   0.000059334  15.986979920
H        0.000026511   0.000001096  17.006253624

     Writing output data file calc.save
     Check: negative starting charge=(component1):   -0.002543
     NEW-OLD atomic charge density approx. for the potential

     Check: negative/imaginary core charge=   -0.000010    0.000000
     Check: negative starting charge=(component1):   -0.002540

[...]

     Self-consistent Calculation

[...]

     Threshold (ethr) on eigenvalues was too large:
     Diagonalizing with lowered threshold

     Davidson diagonalization with overlap
     ethr =  8.48E-08,  avg # of iterations =  1.3

[...]

     total energy              =   -2566.79325657 Ry
     Harris-Foulkes estimate   =   -2566.79325635 Ry
     estimated scf accuracy    <       0.00000301 Ry

[...]

     iteration #  9     ecut=    36.75 Ry     beta=0.10
     Davidson diagonalization with overlap
     ethr =  1.62E-09,  avg # of iterations =  5.7

     negative rho (up, down):  1.938E-03 1.744E-03

[...]

     Adding external electric field

     Computed dipole along edir(3) :
        Dipole                0.2846 Ry au,          0.7233 Debye
        Dipole field          0.0010 Ry au

        Potential amp.       -0.0786 Ry
        Total length         41.1626 bohr

     Magnetic moment per site:
     atom:    1    charge:   10.9864    magn:    1.8744    constr:    0.0000
     atom:    2    charge:   10.9864    magn:    1.8744    constr:    0.0000
     atom:    3    charge:   10.9865    magn:    1.8744    constr:    0.0000
     atom:    4    charge:   10.9854    magn:    1.8358    constr:    0.0000
     atom:    5    charge:   10.9609    magn:   -1.4083    constr:    0.0000
     atom:    6    charge:   10.9654    magn:   -1.5960    constr:    0.0000
     atom:    7    charge:   10.9611    magn:   -1.4084    constr:    0.0000
     atom:    8    charge:   10.9610    magn:   -1.4077    constr:    0.0000
     atom:    9    charge:   10.9269    magn:   -1.0320    constr:    0.0000
     atom:   10    charge:   10.9686    magn:    2.0171    constr:    0.0000
     atom:   11    charge:   10.9688    magn:    2.0175    constr:    0.0000
     atom:   12    charge:   10.9687    magn:    2.0171    constr:    0.0000
     atom:   13    charge:    1.3153    magn:    0.0389    constr:    0.0000
     atom:   14    charge:    0.4576    magn:   -0.0003    constr:    0.0000

     End of self-consistent calculation

 ------ SPIN UP ------------

[...]

 ------ SPIN DOWN ----------

[...]

          k = 0.3333-0.3849 0.0000 ( 14076 PWs)   bands (ev):

[...]

          k =-0.5000-0.2887 0.0000 ( 14098 PWs)   bands (ev):

   -78.7170 -78.6013 -78.4366 -78.4202 -78.4055 -75.8395 -75.8224 -75.8055
   -75.7685 -75.7632 -75.7334 -75.7294 -47.6980 -47.4385 -47.3233 -47.3158
   -47.3132 -47.2841 -47.2543 -47.2440 -47.2283 -47.1744 -47.0858 -47.0598
   -47.0508 -47.0060 -46.9304 -44.7831 -44.7175 -44.7124 -44.6520 -44.6405
   -44.6278 -44.6204 -44.5923 -44.5831 -44.5593 -44.5520 -44.5432 -44.5295
   -44.5160 -44.4930 -44.4393 -44.4377 -44.4285 -44.4237 -44.4108 -44.4092
   -13.7440  -5.6177  -3.6268  -3.5047  -2.2796  -2.1175  -2.0750  -1.9616
    -1.6273  -1.5631  -1.3940  -1.3333  -1.2938  -1.2880  -1.0737  -0.9851
    -0.6180  -0.5681  -0.4476  -0.3818  -0.2601  -0.2080  -0.1885  -0.0515
     0.1380   0.1386   0.4818   0.7205   0.8355   0.8421   0.9429   0.9835
     1.2068   1.2708   1.3414   1.4034   1.4922   1.5153   1.6534   1.6567
     1.6997   1.7793   1.8205   1.8672   2.2501   2.3861   2.5065   2.5479
     2.6119   2.6430   2.7823   2.8066   2.8664   2.9877   2.9914

     the Fermi energy is     1.8908 ev

!    total energy              =   -2566.79325772 Ry
     Harris-Foulkes estimate   =   -2566.79325820 Ry
     estimated scf accuracy    <       0.00000062 Ry

     The total energy is the sum of the following terms:

     one-electron contribution =  -23024.06364373 Ry
     hartree contribution      =   11513.72239344 Ry
     xc contribution           =    -336.83188030 Ry
     ewald contribution        =    9280.48476738 Ry
     electric field correction =       0.00027159 Ry
     smearing contrib. (-TS)   =      -0.10516610 Ry

     total magnetization       =     9.30 Bohr mag/cell
     absolute magnetization    =    27.63 Bohr mag/cell

     convergence has been achieved in   9 iterations

     Forces acting on atoms (Ry/au):

     negative rho (up, down):  1.938E-03 1.744E-03
     atom    1 type  1   force =    -0.00044806   -0.00026089    0.01224610
     atom    2 type  1   force =     0.00044977   -0.00025412    0.01224507
     atom    3 type  1   force =     0.00000620    0.00051189    0.01223686
     atom    4 type  1   force =    -0.00000423   -0.00000186    0.01387829
     atom    5 type  1   force =     0.00000705   -0.00963051   -0.01336019
     atom    6 type  1   force =    -0.00000445    0.00000234   -0.01758649
     atom    7 type  1   force =     0.00834385    0.00481151   -0.01335479
     atom    8 type  1   force =    -0.00833983    0.00481674   -0.01338806
     atom    9 type  1   force =    -0.00003901    0.00002135    0.00175900
     atom   10 type  1   force =     0.00002489   -0.00022493    0.00096833
     atom   11 type  1   force =    -0.00021558    0.00011788    0.00092727
     atom   12 type  1   force =     0.00021724    0.00009135    0.00094911
     atom   13 type  2   force =     0.00001300   -0.00000577    0.00072931
     atom   14 type  3   force =    -0.00001083    0.00000503    0.00175018

     Total force =     0.003091     Total SCF correction =     0.002614
     SCF correction compared to forces is large: reduce conv_thr to get better values

     bfgs converged in   8 scf cycles and   7 bfgs steps
     (criteria: energy <  1.0E+12, force <  1.9E-03)

     End of BFGS Geometry Optimization

     Final energy   =   -2566.7932577181 Ry
Begin final coordinates

ATOMIC_POSITIONS (angstrom)
Mn       1.286762465   0.742912655  10.000000000    0   0   0
Mn       3.860287394   0.742912655  10.000000000    0   0   0
Mn       2.573524929   2.971650621  10.000000000    0   0   0
Mn       5.147049859   2.971650621  10.000000000    0   0   0
Mn       5.147049859   1.485825311  12.101274306    0   0   0
Mn       2.573524929   1.485825311  12.101274306    0   0   0
Mn       6.433812324   3.714563277  12.101274306    0   0   0
Mn       3.860287394   3.714563277  12.101274306    0   0   0
Mn       0.000205590  -0.000085944  14.346917389
Mn       2.573529629   0.001950355  14.103789513
Mn       1.288532439   2.227749739  14.103970036
Mn       3.858612881   2.227790852  14.103841035
N       -0.000109336   0.000059334  15.986979920
H        0.000026511   0.000001096  17.006253624
End final coordinates

     Writing output data file calc.save

     General routines

     Parallel routines

   This run was terminated on:  16:46:53  10Jan2019

   JOB DONE.
Job  /afs/slac/g/suncat/bin/suncat-tsmpirun -x LD_LIBRARY_PATH -wdir /tmp/qe_308995qtx9tnh3_scratch pw.x -npool 3 -in pw.pwi

TID   HOST_NAME   COMMAND_LINE            STATUS            TERMINATION_TIME
00000 suncat1053 pw.x -npool 3 -i  Done                     01/10/2019 16:46:53
00001 suncat1053 pw.x -npool 3 -i  Done                     01/10/2019 16:46:53
00002 suncat1053 pw.x -npool 3 -i  Done                     01/10/2019 16:46:53
00003 suncat1053 pw.x -npool 3 -i  Done                     01/10/2019 16:46:53
00004 suncat1053 pw.x -npool 3 -i  Done                     01/10/2019 16:46:53
00005 suncat1053 pw.x -npool 3 -i  Done                     01/10/2019 16:46:53
00006 suncat1053 pw.x -npool 3 -i  Done                     01/10/2019 16:46:53
00007 suncat1053 pw.x -npool 3 -i  Done                     01/10/2019 16:46:53
00008 suncat1053 pw.x -npool 3 -i  Done                     01/10/2019 16:46:53
00009 suncat1053 pw.x -npool 3 -i  Done                     01/10/2019 16:46:53
00010 suncat1053 pw.x -npool 3 -i  Done                     01/10/2019 16:46:53
00011 suncat1053 pw.x -npool 3 -i  Done                     01/10/2019 16:46:53
00012 suncat1052 pw.x -npool 3 -i  Done                     01/10/2019 16:46:53
00013 suncat1052 pw.x -npool 3 -i  Done                     01/10/2019 16:46:53
00014 suncat1052 pw.x -npool 3 -i  Done                     01/10/2019 16:46:53
00015 suncat1052 pw.x -npool 3 -i  Done                     01/10/2019 16:46:53
00016 suncat1052 pw.x -npool 3 -i  Done                     01/10/2019 16:46:53
00017 suncat1052 pw.x -npool 3 -i  Done                     01/10/2019 16:46:53
00018 suncat1052 pw.x -npool 3 -i  Done                     01/10/2019 16:46:53
00019 suncat1052 pw.x -npool 3 -i  Done                     01/10/2019 16:46:53
00020 suncat1052 pw.x -npool 3 -i  Done                     01/10/2019 16:46:53
00021 suncat1052 pw.x -npool 3 -i  Done                     01/10/2019 16:46:53
00022 suncat1052 pw.x -npool 3 -i  Done                     01/10/2019 16:46:53
00023 suncat1052 pw.x -npool 3 -i  Done                     01/10/2019 16:46:53
00024 suncat1049 pw.x -npool 3 -i  Done                     01/10/2019 16:46:53
00025 suncat1049 pw.x -npool 3 -i  Done                     01/10/2019 16:46:53
00026 suncat1049 pw.x -npool 3 -i  Done                     01/10/2019 16:46:53
00027 suncat1049 pw.x -npool 3 -i  Done                     01/10/2019 16:46:53
00028 suncat1049 pw.x -npool 3 -i  Done                     01/10/2019 16:46:53
00029 suncat1049 pw.x -npool 3 -i  Done                     01/10/2019 16:46:53
00030 suncat1049 pw.x -npool 3 -i  Done                     01/10/2019 16:46:53
00031 suncat1049 pw.x -npool 3 -i  Done                     01/10/2019 16:46:53
00032 suncat1049 pw.x -npool 3 -i  Done                     01/10/2019 16:46:53
00033 suncat1049 pw.x -npool 3 -i  Done                     01/10/2019 16:46:53
00034 suncat1049 pw.x -npool 3 -i  Done                     01/10/2019 16:46:53
00035 suncat1049 pw.x -npool 3 -i  Done                     01/10/2019 16:46:53