     Program PWSCF v.5.1rc2 (svn rev. 11289) starts on 19Jan2018 at 14:13:43

     Current dimensions of program PWSCF are:
     Max number of different atomic species (ntypx) = 10
     Max number of k-points (npk) =  40000
     Max angular momentum in pseudopotentials (lmaxx) =  3
     Presently stress not available with electric field

     IMPORTANT: XC functional enforced from input :
     Exchange-correlation      = BEEF-VDW ( 1  4 27 13 2)
     Any further DFT definition will be discarded
     Please, verify this is what you really want

     Subspace diagonalization in iterative solution of the eigenvalue problem:
     a serial algorithm will be used

     bravais-lattice index     =            0
     lattice parameter (alat)  =       1.8897  a.u.
     unit-cell volume          =    4228.3700 (a.u.)^3
     number of atoms/cell      =           13
     number of atomic types    =            2
     number of electrons       =       198.00
     number of Kohn-Sham states=          109
     kinetic-energy cutoff     =      36.7493  Ry
     charge density cutoff     =     367.4932  Ry
     convergence threshold     =      1.0E-05
     mixing beta               =       0.3000
     number of iterations used =           10  plain     mixing
     Exchange-correlation      = BEEF-VDW ( 1  4 27 13 2)
     nstep                     =           50

     celldm(1)=   1.889726  celldm(2)=   0.000000  celldm(3)=   0.000000
     celldm(4)=   0.000000  celldm(5)=   0.000000  celldm(6)=   0.000000

     crystal axes: (cart. coord. in units of alat)
               a(1) = (   5.440665   0.000000   0.000000 )
               a(2) = (   2.720332   4.711754   0.000000 )
               a(3) = (   0.000000   0.000000  24.442284 )

     reciprocal axes: (cart. coord. in units 2 pi/alat)
               b(1) = (  0.183801 -0.106118  0.000000 )
               b(2) = (  0.000000  0.212235  0.000000 )
               b(3) = (  0.000000  0.000000  0.040913 )

     PseudoPot. # 1 for Os read from file:
     /afs/slac.stanford.edu/u/if/mamunm/psp/gbrv1.5pbe/Os.UPF
     MD5 check sum: a3fb40a04f0c37c25c34bbc47164c9a8
     Pseudo is Ultrasoft + core correction, Zval = 16.0
     Generated by new atomic code, or converted to UPF format
     Using radial grid of  983 points,  8 beta functions with:
                l(1) =   0
                l(2) =   0
                l(3) =   1
                l(4) =   1
                l(5) =   2
                l(6) =   2
                l(7) =   3
                l(8) =   3
     Q(r) pseudized with  8 coefficients,  rinner =    1.150   1.150   1.150
                                                       1.150   1.150   1.150
                                                       1.150

     PseudoPot. # 2 for S  read from file:
     /afs/slac.stanford.edu/u/if/mamunm/psp/gbrv1.5pbe/S.UPF
     MD5 check sum: 88d86576ff6df21479756cfb9bdac1df
     Pseudo is Ultrasoft + core correction, Zval =  6.0
     Generated by new atomic code, or converted to UPF format
     Using radial grid of  907 points,  6 beta functions with:
                l(1) =   0
                l(2) =   0
                l(3) =   1
                l(4) =   1
                l(5) =   2
                l(6) =   2
     Q(r) pseudized with  8 coefficients,  rinner =    1.300   1.300   1.300
                                                       1.300   1.300

     vdW kernel table read from file vdW_kernel_table
     MD5 check sum: 095c7af220d748ca6e76c0b4c6cfb241

     atomic species   valence    mass     pseudopotential
        Os1           16.00   190.23000     Os( 1.00)
        S1             6.00    32.06000     S ( 1.00)

     No symmetry found

   Cartesian axes

     site n.     atom                  positions (alat units)
         1           Os1 tau(   1) = (   1.3601662   0.7852923  10.0000000  )
         2           Os1 tau(   2) = (   4.0804987   0.7852923  10.0000000  )
         3           Os1 tau(   3) = (   2.7203325   3.1411694  10.0000000  )
         4           Os1 tau(   4) = (   5.4406649   3.1411694  10.0000000  )
         5           Os1 tau(   5) = (   5.4406649   1.5705847  12.2211422  )
         6           Os1 tau(   6) = (   2.7203325   1.5705847  12.2211422  )
         7           Os1 tau(   7) = (   6.8008312   3.9264617  12.2211422  )
         8           Os1 tau(   8) = (   4.0804987   3.9264617  12.2211422  )
         9           Os1 tau(   9) = (   0.0000000   0.0000000  14.4422843  )
        10           Os1 tau(  10) = (   2.7203325   0.0000000  14.4422843  )
        11           Os1 tau(  11) = (   1.3601662   2.3558770  14.4422843  )
        12           Os1 tau(  12) = (   4.0804987   2.3558770  14.4422843  )
        13           S1  tau(  13) = (   2.7203325   1.5705847  16.9322843  )

     number of k points=    20  Fermi-Dirac smearing, width (Ry)=  0.0110
                       cart. coord. in units 2pi/alat
        k(    1) = (   0.0000000   0.0000000   0.0000000), wk =   0.0555556
        k(    2) = (   0.0000000   0.0353725   0.0000000), wk =   0.1111111
        k(    3) = (   0.0000000   0.0707451   0.0000000), wk =   0.1111111
        k(    4) = (   0.0000000  -0.1061176   0.0000000), wk =   0.0555556
        k(    5) = (   0.0306335  -0.0176863   0.0000000), wk =   0.1111111
        k(    6) = (   0.0306335   0.0176863   0.0000000), wk =   0.1111111
        k(    7) = (   0.0306335   0.0530588   0.0000000), wk =   0.1111111
        k(    8) = (   0.0306335  -0.1238039   0.0000000), wk =   0.1111111
        k(    9) = (   0.0306335  -0.0884313   0.0000000), wk =   0.1111111
        k(   10) = (   0.0306335  -0.0530588   0.0000000), wk =   0.1111111
        k(   11) = (   0.0612670  -0.0353725   0.0000000), wk =   0.1111111
        k(   12) = (   0.0612670   0.0000000   0.0000000), wk =   0.1111111
        k(   13) = (   0.0612670   0.0353725   0.0000000), wk =   0.1111111
        k(   14) = (   0.0612670  -0.1414901   0.0000000), wk =   0.1111111
        k(   15) = (   0.0612670  -0.1061176   0.0000000), wk =   0.1111111
        k(   16) = (   0.0612670  -0.0707451   0.0000000), wk =   0.1111111
        k(   17) = (  -0.0919005   0.0530588   0.0000000), wk =   0.0555556
        k(   18) = (  -0.0919005   0.0884313   0.0000000), wk =   0.1111111
        k(   19) = (  -0.0919005   0.1238039   0.0000000), wk =   0.1111111
        k(   20) = (  -0.0919005  -0.0530588   0.0000000), wk =   0.0555556

     Largest allocated arrays     est. size (Mb)     dimensions
     Largest temporary arrays     est. size (Mb)     dimensions

     Initial potential from superposition of free atoms
     Check: negative starting charge=   -1.495750

     starting charge  191.99953, renormalised to  198.00000

     negative rho (up, down):  1.542E+00 0.000E+00

     *
     * You are using vdW-DF for exchange-correlation in this calculation.
     * Please cite the following three references that made this development
     * possible:
     *
     *   M. Dion, H. Rydberg, E. Schroder, D. C. Langreth, and
     *   B. I. Lundqvist, Phys. Rev. Lett. 92, 246401 (2004).
     *
     *   T. Thonhauser, V. R. Cooper, S. Li, A. Puzder, P. Hyldgaard, and
     *   D. C. Langreth, Phys. Rev. B 76, 125112 (2007).
     *
     *   G. Roman-Perez and J. M. Soler, Phys. Rev. Lett. 103, 096102 (2009).
     *
     *
     * If you are using vdW-DF2, please also cite:
     *
     *   K. Lee, E. D. Murray, L. Kong, B. I. Lundqvist, and
     *   D. C. Langreth, Phys. Rev. B 82, 081101(R) (2010).
     *
     *
     * If you are calculating the stress with vdW-DF, please also cite:
     *
     *   R. Sabatini, E. Kucukbenli, B. Kolb, T. Thonhauser, and
     *   S. de Gironcoli, J. Phys.: Condens. Matter 24, 424209 (2012).
     *

     Carrying out vdW-DF run using the following parameters:

     Nqs =      20    Nr_points =    1024   r_max =   100.000
     q_mesh =
               0.00001000     0.04494208     0.09755937     0.15916263
               0.23128650     0.31572767     0.41458969     0.53033537
               0.66584808     0.82450364     1.01025438     1.22772762
               1.48234092     1.78043706     2.12944203     2.53805004
               3.01644009     3.57652955     4.23227104     5.00000000

     Gradients computed in reciprocal space

     Adding external electric field

     Computed dipole along edir(3) :
        Dipole               -1.6691 Ry au,         -4.2424 Debye
        Dipole field         -0.0050 Ry au

        Potential amp.        0.4468 Ry
        Total length         45.0345 bohr

     Starting wfc are  160 randomized atomic wfcs

     Self-consistent Calculation

     iteration #  1     ecut=    36.75 Ry     beta=0.30
     Davidson diagonalization with overlap
     ethr =  1.00E-02,  avg # of iterations =  2.0

[...]

     total energy              =   -2374.75697504 Ry
     Harris-Foulkes estimate   =   -2421.36696663 Ry
     estimated scf accuracy    <      96.58927364 Ry

[...]

     End of self-consistent calculation

          k = 0.0000 0.0000 0.0000 ( 15845 PWs)   bands (ev):

   -84.1276 -84.0614 -84.0287 -84.0285 -83.7033 -83.6542 -83.6537 -83.6037
   -83.5832 -83.5462 -83.5455 -83.5436 -43.7779 -43.7778 -43.7672 -43.6056
   -43.5127 -43.4760 -43.4758 -43.2824 -43.2528 -43.2525 -43.1851 -43.1850
   -43.1499 -43.1104 -43.0860 -43.0858 -42.9809 -42.9809 -42.9618 -42.8923
   -42.8918 -42.8455 -42.7624 -42.7619 -42.7595 -42.7463 -42.7331 -42.7192
   -42.7188 -42.6450 -42.6447 -42.6445 -42.5444 -42.5443 -42.4689 -42.4689
    -8.3546  -6.6703  -4.6875  -4.2830  -3.9452  -3.9452  -3.9409  -3.6240
    -3.6138  -3.6138  -3.0206  -3.0206  -3.0204  -2.7617  -2.7394  -2.7393
    -1.2735  -1.1895  -1.1893  -0.4606  -0.3918  -0.3918  -0.1386  -0.0430
     0.0952   0.0952   0.5955   0.5955   0.6166   0.6167   0.6455   0.7845
     0.7847   0.9411   0.9411   0.9854   1.0364   1.9856   1.9856   2.3227
     2.5804   2.5804   2.6728   2.7412   2.7414   2.9328   2.9595   2.9595
     3.6743   3.6743   3.9254   4.2647   4.3797   4.3797   4.4920   4.4922
     4.5973   4.6090   4.6092   4.8150   4.8151

[...]

          k =-0.0919 0.0531 0.0000 ( 15968 PWs)   bands (ev):

[...]

     the Fermi energy is     2.9665 ev

!    total energy              =   -2421.71242380 Ry
     Harris-Foulkes estimate   =   -2421.71241307 Ry
     estimated scf accuracy    <       0.00000302 Ry

     The total energy is the sum of the following terms:

     one-electron contribution =  -21717.73313070 Ry
     hartree contribution      =   10843.40317166 Ry
     xc contribution           =    -472.84772476 Ry
     ewald contribution        =    8925.53500257 Ry
     electric field correction =       0.00015067 Ry
     smearing contrib. (-TS)   =      -0.06989324 Ry

     convergence has been achieved in  22 iterations

 BEEF-vdW xc energy contributions
           1 :   -414.018415809704
           2 :    383.284511143231
           3 :   -329.099446748675
           4 :    263.331249425711
           5 :   -198.689702810718
           6 :    145.287255442289
           7 :   -108.401041416550
           8 :    87.9426357897555
           9 :   -79.6332896258181
          10 :    77.2730514287817
[...]

[...]

   This run was terminated on:  15:23: 4  19Jan2018

[...]

     Total force =     0.141301     Total SCF correction =     0.004504

[...]

   This run was terminated on:  17: 7:39  19Jan2018

[...]

     Program PWSCF v.5.1rc2 (svn rev. 11289) starts on 19Jan2018 at 17: 7:46

[...]

     Program PWSCF v.5.1rc2 (svn rev. 11289) starts on 19Jan2018 at 17:25:21

     Current dimensions of program PWSCF are:
     Max number of different atomic species (ntypx) = 10
     Max number of k-points (npk) =  40000
     Max angular momentum in pseudopotentials (lmaxx) =  3
     Presently stress not available with electric field

     IMPORTANT: XC functional enforced from input :
     Exchange-correlation      = BEEF-VDW ( 1  4 27 13 2)
     Any further DFT definition will be discarded
     Please, verify this is what you really want

     Subspace diagonalization in iterative solution of the eigenvalue problem:
     a serial algorithm will be used

     bravais-lattice index     =            0
     lattice parameter (alat)  =       1.8897  a.u.
     unit-cell volume          =    4228.3700 (a.u.)^3
     number of atoms/cell      =           13
     number of atomic types    =            2
     number of electrons       =       198.00
     number of Kohn-Sham states=          109
     kinetic-energy cutoff     =      36.7493  Ry
     charge density cutoff     =     367.4932  Ry
     convergence threshold     =      1.0E-05
     mixing beta               =       0.3000
     number of iterations used =           10  plain     mixing
     Exchange-correlation      = BEEF-VDW ( 1  4 27 13 2)
     nstep                     =           50

     celldm(1)=   1.889726  celldm(2)=   0.000000  celldm(3)=   0.000000
     celldm(4)=   0.000000  celldm(5)=   0.000000  celldm(6)=   0.000000

     crystal axes: (cart. coord. in units of alat)
               a(1) = (   5.440665   0.000000   0.000000 )
               a(2) = (   2.720332   4.711754   0.000000 )
               a(3) = (   0.000000   0.000000  24.442284 )

     reciprocal axes: (cart. coord. in units 2 pi/alat)
               b(1) = (  0.183801 -0.106118  0.000000 )
               b(2) = (  0.000000  0.212235  0.000000 )
               b(3) = (  0.000000  0.000000  0.040913 )

     PseudoPot. # 1 for Os read from file:
     /afs/slac.stanford.edu/u/if/mamunm/psp/gbrv1.5pbe/Os.UPF
     MD5 check sum: a3fb40a04f0c37c25c34bbc47164c9a8
     Pseudo is Ultrasoft + core correction, Zval = 16.0
     Generated by new atomic code, or converted to UPF format
     Using radial grid of  983 points,  8 beta functions with:
                l(1) =   0
                l(2) =   0
                l(3) =   1
                l(4) =   1
                l(5) =   2
                l(6) =   2
                l(7) =   3
                l(8) =   3
     Q(r) pseudized with  8 coefficients,  rinner =    1.150   1.150   1.150
                                                       1.150   1.150   1.150
                                                       1.150

     PseudoPot. # 2 for S  read from file:
     /afs/slac.stanford.edu/u/if/mamunm/psp/gbrv1.5pbe/S.UPF
     MD5 check sum: 88d86576ff6df21479756cfb9bdac1df
     Pseudo is Ultrasoft + core correction, Zval =  6.0
     Generated by new atomic code, or converted to UPF format
     Using radial grid of  907 points,  6 beta functions with:
                l(1) =   0
                l(2) =   0
                l(3) =   1
                l(4) =   1
                l(5) =   2
                l(6) =   2
     Q(r) pseudized with  8 coefficients,  rinner =    1.300   1.300   1.300
                                                       1.300   1.300

     vdW kernel table read from file vdW_kernel_table
     MD5 check sum: 095c7af220d748ca6e76c0b4c6cfb241

     atomic species   valence    mass     pseudopotential
        Os1           16.00   190.23000     Os( 1.00)
        S1             6.00    32.06000     S ( 1.00)

     No symmetry found

   Cartesian axes

     site n.     atom                  positions (alat units)
         1           Os1 tau(   1) = (   1.3601662   0.7852923  10.0000000  )
         2           Os1 tau(   2) = (   4.0804987   0.7852923  10.0000000  )
         3           Os1 tau(   3) = (   2.7203325   3.1411694  10.0000000  )
         4           Os1 tau(   4) = (   5.4406649   3.1411694  10.0000000  )
         5           Os1 tau(   5) = (   5.4406649   1.5705847  12.2211422  )
         6           Os1 tau(   6) = (   2.7203325   1.5705847  12.2211422  )
         7           Os1 tau(   7) = (   6.8008312   3.9264617  12.2211422  )
         8           Os1 tau(   8) = (   4.0804987   3.9264617  12.2211422  )
         9           Os1 tau(   9) = (   5.4406265   0.0001730  14.3209791  )
        10           Os1 tau(  10) = (   5.4407039   4.6309279  14.4127189  )
        11           Os1 tau(  11) = (   6.7307043   2.3961825  14.4125728  )
        12           Os1 tau(  12) = (   4.1507017   2.3961721  14.4125897  )
        13           S1  tau(  13) = (   2.7203525   1.5706415  16.0993994  )

     number of k points=    20  Fermi-Dirac smearing, width (Ry)=  0.0110
                       cart. coord. in units 2pi/alat
        k(    1) = (   0.0000000   0.0000000   0.0000000), wk =   0.0555556
        k(    2) = (   0.0000000   0.0353725   0.0000000), wk =   0.1111111
        k(    3) = (   0.0000000   0.0707451   0.0000000), wk =   0.1111111
        k(    4) = (   0.0000000  -0.1061176   0.0000000), wk =   0.0555556
        k(    5) = (   0.0306335  -0.0176863   0.0000000), wk =   0.1111111
        k(    6) = (   0.0306335   0.0176863   0.0000000), wk =   0.1111111
        k(    7) = (   0.0306335   0.0530588   0.0000000), wk =   0.1111111
        k(    8) = (   0.0306335  -0.1238039   0.0000000), wk =   0.1111111
        k(    9) = (   0.0306335  -0.0884313   0.0000000), wk =   0.1111111
        k(   10) = (   0.0306335  -0.0530588   0.0000000), wk =   0.1111111
        k(   11) = (   0.0612670  -0.0353725   0.0000000), wk =   0.1111111
        k(   12) = (   0.0612670   0.0000000   0.0000000), wk =   0.1111111
        k(   13) = (   0.0612670   0.0353725   0.0000000), wk =   0.1111111
        k(   14) = (   0.0612670  -0.1414901   0.0000000), wk =   0.1111111
        k(   15) = (   0.0612670  -0.1061176   0.0000000), wk =   0.1111111
        k(   16) = (   0.0612670  -0.0707451   0.0000000), wk =   0.1111111
        k(   17) = (  -0.0919005   0.0530588   0.0000000), wk =   0.0555556
        k(   18) = (  -0.0919005   0.0884313   0.0000000), wk =   0.1111111
        k(   19) = (  -0.0919005   0.1238039   0.0000000), wk =   0.1111111
        k(   20) = (  -0.0919005  -0.0530588   0.0000000), wk =   0.0555556

     Largest allocated arrays     est. size (Mb)     dimensions
     Largest temporary arrays     est. size (Mb)     dimensions

     Initial potential from superposition of free atoms
     Check: negative starting charge=   -1.486683

     starting charge  191.99953, renormalised to  198.00000

[...]

     *
     * You are using vdW-DF for exchange-correlation in this calculation.
     * Please cite the following three references that made this development
     * possible:
     *
     *   M. Dion, H. Rydberg, E. Schroder, D. C. Langreth, and
     *   B. I. Lundqvist, Phys. Rev. Lett. 92, 246401 (2004).
     *
     *   T. Thonhauser, V. R. Cooper, S. Li, A. Puzder, P. Hyldgaard, and
     *   D. C. Langreth, Phys. Rev. B 76, 125112 (2007).
     *
     *   G. Roman-Perez and J. M. Soler, Phys. Rev. Lett. 103, 096102 (2009).
     *
     *
     * If you are using vdW-DF2, please also cite:
     *
     *   K. Lee, E. D. Murray, L. Kong, B. I. Lundqvist, and
     *   D. C. Langreth, Phys. Rev. B 82, 081101(R) (2010).
     *
     *
     * If you are calculating the stress with vdW-DF, please also cite:
     *
     *   R. Sabatini, E. Kucukbenli, B. Kolb, T. Thonhauser, and
     *   S. de Gironcoli, J. Phys.: Condens. Matter 24, 424209 (2012).
     *

     Carrying out vdW-DF run using the following parameters:

     Nqs =      20    Nr_points =    1024   r_max =   100.000
     q_mesh =
               0.00001000     0.04494208     0.09755937     0.15916263
               0.23128650     0.31572767     0.41458969     0.53033537
               0.66584808     0.82450364     1.01025438     1.22772762
               1.48234092     1.78043706     2.12944203     2.53805004
               3.01644009     3.57652955     4.23227104     5.00000000

     Gradients computed in reciprocal space

[...]

     Starting wfc are  160 randomized atomic wfcs

     Self-consistent Calculation

[...]

     total energy              =   -2421.87434759 Ry
     Harris-Foulkes estimate   =   -2421.87434820 Ry
     estimated scf accuracy    <       0.00001258 Ry

     iteration # 22     ecut=    36.75 Ry     beta=0.30
     Davidson diagonalization with overlap
     ethr =  6.11E-09,  avg # of iterations =  1.0

[...]

     negative rho (up, down):  1.508E+00 0.000E+00

     Adding external electric field

     Computed dipole along edir(3) :
        Dipole                0.0944 Ry au,          0.2399 Debye
        Dipole field          0.0003 Ry au

        Potential amp.       -0.0253 Ry
        Total length         45.0345 bohr

     End of self-consistent calculation

[...]

          k = 0.0613-0.0707 0.0000 ( 15922 PWs)   bands (ev):

[...]

          k =-0.0919-0.0531 0.0000 ( 15968 PWs)   bands (ev):

   -83.6188 -83.6124 -83.5869 -83.5767 -83.3852 -83.3503 -83.3397 -83.1052
   -83.0836 -83.0783 -83.0543 -83.0448 -43.2266 -43.1869 -43.1731 -43.1184
   -43.0618 -43.0288 -42.9685 -42.9576 -42.9183 -42.9045 -42.8547 -42.7611
   -42.7071 -42.6503 -42.6288 -42.6135 -42.5988 -42.5500 -42.5314 -42.5284
   -42.4944 -42.4499 -42.3767 -42.3595 -42.3439 -42.3387 -42.3379 -42.2939
   -42.2885 -42.2722 -42.2718 -42.2549 -42.2447 -42.1850 -42.0638 -42.0595
   -10.4145  -4.5118  -4.2760  -3.1605  -2.8299  -2.5950  -2.4321  -2.3618
    -2.3476  -2.3008  -2.2764  -1.9023  -1.7263  -1.5573  -1.4066  -1.3944
    -1.2744  -1.1515  -1.0307  -0.8736  -0.6959  -0.6414  -0.4132  -0.4037
    -0.1806  -0.1346   0.1994   0.3768   0.5186   0.5763   0.6159   0.7251
     0.9175   0.9190   1.0458   1.1509   1.1584   1.2201   1.2430   1.3178
     1.3828   1.6970   1.7149   2.2605   2.3428   2.3645   2.4695   2.7735
     2.8896   2.9467   2.9883   3.0888   3.4208   3.5279   3.6791   3.7089
     3.7132   4.0709   4.1981   4.2628   4.5214

     the Fermi energy is     3.4770 ev

!    total energy              =   -2421.87434589 Ry
     Harris-Foulkes estimate   =   -2421.87434680 Ry
     estimated scf accuracy    <       0.00000232 Ry

     The total energy is the sum of the following terms:

     one-electron contribution =  -22194.49749867 Ry
     hartree contribution      =   11084.12070712 Ry
     xc contribution           =    -473.48838977 Ry
     ewald contribution        =    9162.05734308 Ry
     electric field correction =       0.00002646 Ry
     smearing contrib. (-TS)   =      -0.06653411 Ry

     convergence has been achieved in  22 iterations

 BEEF-vdW xc energy contributions
           1 :   -414.672719225227
           2 :    384.198461821726
           3 :   -330.349249559642
           4 :    264.768402219591
           5 :   -200.034945615074
           6 :    146.273604013455
           7 :   -108.894495654831
           8 :    87.9925266655561
           9 :   -79.4338393587846
          10 :    77.0609898901120
          11 :   -75.1227347495783
          12 :    70.0507730800633
          13 :   -61.0927103956117
          14 :    49.8070843648057
          15 :   -38.8365425078369
          16 :    30.5413341191253
          17 :   -26.0327206231938
          18 :    24.8996521366524
          19 :   -25.6124589230650
          20 :    26.3189151335852
          21 :   -25.6431477028016
          22 :    23.1558769026591
          23 :   -19.3771666787234
          24 :    15.3808614310056
          25 :   -12.2291382462108
          26 :    10.5015975667964
          27 :   -10.1082562855117
          28 :    10.4248078262623
          29 :   -10.6482847830512
          30 :    10.1848212242675
          31 :   -39.4821534297067
          32 :   -30.1419925722180

     Forces acting on atoms (Ry/au):

     negative rho (up, down):  1.508E+00 0.000E+00
     atom    1 type  1   force =     0.00757529    0.00431296    0.03185075
     atom    2 type  1   force =    -0.00757465    0.00433629    0.03198655
     atom    3 type  1   force =     0.00004207   -0.00871224    0.03188269
     atom    4 type  1   force =    -0.00003947    0.00004869    0.01588066
     atom    5 type  1   force =    -0.00000802   -0.01386812   -0.02345297
     atom    6 type  1   force =     0.00001431   -0.00003185   -0.03705831
     atom    7 type  1   force =     0.01192745    0.00692886   -0.02331970
     atom    8 type  1   force =    -0.01191934    0.00691313   -0.02328891
     atom    9 type  1   force =     0.00008527   -0.00020924   -0.00119017
     atom   10 type  1   force =    -0.00008516    0.00028028   -0.00095502
     atom   11 type  1   force =     0.00037846   -0.00004961   -0.00076822
     atom   12 type  1   force =    -0.00040173    0.00004650   -0.00082296
     atom   13 type  2   force =     0.00000553    0.00000435   -0.00074438

     Total force =     0.084386     Total SCF correction =     0.009754
     SCF correction compared to forces is large: reduce conv_thr to get better values

     entering subroutine stress ...

     negative rho (up, down):  1.508E+00 0.000E+00
          total   stress  (Ry/bohr**3)                   (kbar)     P=  -16.62
  -0.00010678  -0.00000002   0.00000000        -15.71     -0.00      0.00
  -0.00000002  -0.00010677   0.00000007         -0.00    -15.71      0.01
   0.00000000   0.00000007  -0.00012541          0.00      0.01    -18.45

 !ASE

     Writing output data file calc.save

     General routines

     Parallel routines

   This run was terminated on:  17:43:15  19Jan2018

   JOB DONE.
Job  /afs/slac/g/suncat/bin/suncat-tsmpirun -x LD_LIBRARY_PATH -wdir /scratch/qe505179_XTyRm pw.x -in pw.inp

TID   HOST_NAME   COMMAND_LINE            STATUS            TERMINATION_TIME
00000 suncat0041 pw.x -in pw.inp   Done                     01/19/2018 17:43:15
00001 suncat0041 pw.x -in pw.inp   Done                     01/19/2018 17:43:15
00002 suncat0041 pw.x -in pw.inp   Done                     01/19/2018 17:43:15
00003 suncat0041 pw.x -in pw.inp   Done                     01/19/2018 17:43:15
00004 suncat0041 pw.x -in pw.inp   Done                     01/19/2018 17:43:15
00005 suncat0041 pw.x -in pw.inp   Done                     01/19/2018 17:43:15
00006 suncat0041 pw.x -in pw.inp   Done                     01/19/2018 17:43:15
00007 suncat0041 pw.x -in pw.inp   Done                     01/19/2018 17:43:15
00008 suncat0034 pw.x -in pw.inp   Done                     01/19/2018 17:43:15
00009 suncat0034 pw.x -in pw.inp   Done                     01/19/2018 17:43:15
00010 suncat0034 pw.x -in pw.inp   Done                     01/19/2018 17:43:15
00011 suncat0034 pw.x -in pw.inp   Done                     01/19/2018 17:43:15
00012 suncat0034 pw.x -in pw.inp   Done                     01/19/2018 17:43:15
00013 suncat0034 pw.x -in pw.inp   Done                     01/19/2018 17:43:15
00014 suncat0034 pw.x -in pw.inp   Done                     01/19/2018 17:43:15
00015 suncat0034 pw.x -in pw.inp   Done                     01/19/2018 17:43:15
00016 suncat0028 pw.x -in pw.inp   Done                     01/19/2018 17:43:15
00017 suncat0028 pw.x -in pw.inp   Done                     01/19/2018 17:43:15
00018 suncat0028 pw.x -in pw.inp   Done                     01/19/2018 17:43:15
00019 suncat0028 pw.x -in pw.inp   Done                     01/19/2018 17:43:15
00020 suncat0028 pw.x -in pw.inp   Done                     01/19/2018 17:43:15
00021 suncat0028 pw.x -in pw.inp   Done                     01/19/2018 17:43:15
00022 suncat0028 pw.x -in pw.inp   Done                     01/19/2018 17:43:15
00023 suncat0028 pw.x -in pw.inp   Done                     01/19/2018 17:43:15
00024 suncat0017 pw.x -in pw.inp   Done                     01/19/2018 17:43:15
00025 suncat0017 pw.x -in pw.inp   Done                     01/19/2018 17:43:15
00026 suncat0017 pw.x -in pw.inp   Done                     01/19/2018 17:43:15
00027 suncat0017 pw.x -in pw.inp   Done                     01/19/2018 17:43:15
00028 suncat0017 pw.x -in pw.inp   Done                     01/19/2018 17:43:15
00029 suncat0017 pw.x -in pw.inp   Done                     01/19/2018 17:43:15
00030 suncat0017 pw.x -in pw.inp   Done                     01/19/2018 17:43:15
00031 suncat0017 pw.x -in pw.inp   Done                     01/19/2018 17:43:15