     Program PWSCF v.5.1rc2 (svn rev. ) starts on 18Apr2018 at 22:27:24

     Current dimensions of program PWSCF are:
     Max number of different atomic species (ntypx) = 10
     Max number of k-points (npk) =  40000
     Max angular momentum in pseudopotentials (lmaxx) =  3
     Presently stress not available with electric field

     IMPORTANT: XC functional enforced from input :
     Exchange-correlation      = BEEF-VDW ( 1  4 27 13 2)
     Any further DFT definition will be discarded
     Please, verify this is what you really want

     Subspace diagonalization in iterative solution of the eigenvalue problem:
     a serial algorithm will be used

     bravais-lattice index     =            0
     lattice parameter (alat)  =       1.8897  a.u.
     unit-cell volume          =    8507.0471 (a.u.)^3
     number of atoms/cell      =           15
     number of atomic types    =            3
     number of electrons       =       138.00
     number of Kohn-Sham states=           79
     kinetic-energy cutoff     =      36.7493  Ry
     charge density cutoff     =     367.4932  Ry
     convergence threshold     =      1.0E-05
     mixing beta               =       0.3000
     number of iterations used =           10  plain     mixing
     Exchange-correlation      = BEEF-VDW ( 1  4 27 13 2)
     nstep                     =           50

     celldm(1)=   1.889726  celldm(2)=   0.000000  celldm(3)=   0.000000
     celldm(4)=   0.000000  celldm(5)=   0.000000  celldm(6)=   0.000000

     crystal axes: (cart. coord. in units of alat)
               a(1) = (   7.468327   0.000000   0.000000 )
               a(2) = (   3.734164   6.467761   0.000000 )
               a(3) = (   0.000000   0.000000  26.097863 )

     reciprocal axes: (cart. coord. in units 2 pi/alat)
               b(1) = (  0.133899 -0.077307  0.000000 )
               b(2) = (  0.000000  0.154613  0.000000 )
               b(3) = (  0.000000  0.000000  0.038317 )

     PseudoPot. # 1 for La read from file:
     /home/mamunm/src/pseudo/gbrv1.5pbe/La.UPF
     MD5 check sum: 5937b0c7494ba0601a847275249473aa
     Pseudo is Ultrasoft + core correction, Zval = 11.0
     Generated by new atomic code, or converted to UPF format
     Using radial grid of  995 points,  8 beta functions with:
                l(1) =   0
                l(2) =   0
                l(3) =   1
                l(4) =   1
                l(5) =   2
                l(6) =   2
                l(7) =   3
                l(8) =   3
     Q(r) pseudized with  8 coefficients,  rinner =    1.700   1.700   1.700
                                                       1.700   1.700   1.700
                                                       1.700

     PseudoPot. # 2 for C  read from file:
     /home/mamunm/src/pseudo/gbrv1.5pbe/C.UPF
     MD5 check sum: d1aef80898a10debaa0f26306b886e00
     Pseudo is Ultrasoft + core correction, Zval =  4.0
     Generated by new atomic code, or converted to UPF format
     Using radial grid of  721 points,  4 beta functions with:
                l(1) =   0
                l(2) =   0
                l(3) =   1
                l(4) =   1
     Q(r) pseudized with  8 coefficients,  rinner =    1.100   1.100   1.100

     PseudoPot. # 3 for H  read from file:
     /home/mamunm/src/pseudo/gbrv1.5pbe/H.UPF
     MD5 check sum: 761ae9a214b05c3daf00ab9f6b793d6f
     Pseudo is Ultrasoft, Zval =  1.0
     Generated by new atomic code, or converted to UPF format
     Using radial grid of  615 points,  2 beta functions with:
                l(1) =   0
                l(2) =   0
     Q(r) pseudized with  8 coefficients,  rinner =    0.700

     vdW kernel table read from file vdW_kernel_table
     MD5 check sum: 095c7af220d748ca6e76c0b4c6cfb241

     atomic species   valence    mass     pseudopotential
        La1           11.00   138.90547     La( 1.00)
        C1             4.00    12.01100     C ( 1.00)
        H1             1.00     1.00800     H ( 1.00)

     No symmetry found

   Cartesian axes

     site n.     atom                  positions (alat units)
         1           La1 tau(   1) = (   1.8670818   1.0779602  10.0000000  )
         2           La1 tau(   2) = (   5.6012453   1.0779602  10.0000000  )
         3           La1 tau(   3) = (   3.7341635   4.3118406  10.0000000  )
         4           La1 tau(   4) = (   7.4683270   4.3118406  10.0000000  )
         5           La1 tau(   5) = (   7.4683270   2.1559203  13.0489317  )
         6           La1 tau(   6) = (   3.7341635   2.1559203  13.0489317  )
         7           La1 tau(   7) = (   9.3354088   5.3898008  13.0489317  )
         8           La1 tau(   8) = (   5.6012453   5.3898008  13.0489317  )
         9           La1 tau(   9) = (   0.0000000   0.0000000  16.0978635  )
        10           La1 tau(  10) = (   3.7341635   0.0000000  16.0978635  )
        11           La1 tau(  11) = (   1.8670818   3.2338805  16.0978635  )
        12           La1 tau(  12) = (   5.6012453   3.2338805  16.0978635  )
        13           C1  tau(  13) = (   1.8670818   0.0000000  18.2203635  )
        14           H1  tau(  14) = (   2.4970818   0.6300000  18.8503635  )
        15           H1  tau(  15) = (   4.9712453   5.8377609  18.8503635  )

     number of k points=    20  Fermi-Dirac smearing, width (Ry)=  0.0110
                       cart. coord. in units 2pi/alat
        k(    1) = (   0.0000000   0.0000000   0.0000000), wk =   0.0555556
        k(    2) = (   0.0000000   0.0257688   0.0000000), wk =   0.1111111
        k(    3) = (   0.0000000   0.0515377   0.0000000), wk =   0.1111111
        k(    4) = (   0.0000000  -0.0773065   0.0000000), wk =   0.0555556
        k(    5) = (   0.0223165  -0.0128844   0.0000000), wk =   0.1111111
        k(    6) = (   0.0223165   0.0128844   0.0000000), wk =   0.1111111
        k(    7) = (   0.0223165   0.0386533   0.0000000), wk =   0.1111111
        k(    8) = (   0.0223165  -0.0901909   0.0000000), wk =   0.1111111
        k(    9) = (   0.0223165  -0.0644221   0.0000000), wk =   0.1111111
        k(   10) = (   0.0223165  -0.0386533   0.0000000), wk =   0.1111111
        k(   11) = (   0.0446329  -0.0257688   0.0000000), wk =   0.1111111
        k(   12) = (   0.0446329   0.0000000   0.0000000), wk =   0.1111111
        k(   13) = (   0.0446329   0.0257688   0.0000000), wk =   0.1111111
        k(   14) = (   0.0446329  -0.1030753   0.0000000), wk =   0.1111111
        k(   15) = (   0.0446329  -0.0773065   0.0000000), wk =   0.1111111
        k(   16) = (   0.0446329  -0.0515377   0.0000000), wk =   0.1111111
        k(   17) = (  -0.0669494   0.0386533   0.0000000), wk =   0.0555556
        k(   18) = (  -0.0669494   0.0644221   0.0000000), wk =   0.1111111
        k(   19) = (  -0.0669494   0.0901909   0.0000000), wk =   0.1111111
        k(   20) = (  -0.0669494  -0.0386533   0.0000000), wk =   0.0555556

     Largest allocated arrays     est. size (Mb)     dimensions
     Largest temporary arrays     est. size (Mb)     dimensions

     Initial potential from superposition of free atoms
     Check: negative starting charge=   -0.830966

     starting charge  137.61512, renormalised to  138.00000

     negative rho (up, down):  8.333E-01 0.000E+00

     *
     * You are using vdW-DF for exchange-correlation in this calculation.
     * Please cite the following three references that made this development
     * possible:
     *
     *   M. Dion, H. Rydberg, E. Schroder, D. C. Langreth, and
     *   B. I. Lundqvist, Phys. Rev. Lett. 92, 246401 (2004).
     *
     *   T. Thonhauser, V. R. Cooper, S. Li, A. Puzder, P. Hyldgaard, and
     *   D. C. Langreth, Phys. Rev. B 76, 125112 (2007).
     *
     *   G. Roman-Perez and J. M. Soler, Phys. Rev. Lett. 103, 096102 (2009).
     *
     *
     * If you are using vdW-DF2, please also cite:
     *
     *   K. Lee, E. D. Murray, L. Kong, B. I. Lundqvist, and
     *   D. C. Langreth, Phys. Rev. B 82, 081101(R) (2010).
     *
     *
     * If you are calculating the stress with vdW-DF, please also cite:
     *
     *   R. Sabatini, E. Kucukbenli, B. Kolb, T. Thonhauser, and
     *   S. de Gironcoli, J. Phys.: Condens. Matter 24, 424209 (2012).
     *

     Carrying out vdW-DF run using the following parameters:

     Nqs =      20    Nr_points =    1024   r_max =   100.000
     q_mesh =
               0.00001000     0.04494208     0.09755937     0.15916263
               0.23128650     0.31572767     0.41458969     0.53033537
               0.66584808     0.82450364     1.01025438     1.22772762
               1.48234092     1.78043706     2.12944203     2.53805004
               3.01644009     3.57652955     4.23227104     5.00000000

     Gradients computed in reciprocal space

     Adding external electric field

     Computed dipole along edir(3) :
        Dipole               -0.1701 Ry au,         -0.4322 Debye
        Dipole field         -0.0003 Ry au

        Potential amp.        0.0242 Ry
        Total length         48.0849 bohr

     Starting wfc are  246 randomized atomic wfcs

     Self-consistent Calculation

     iteration #  1     ecut=    36.75 Ry     beta=0.30
     Davidson diagonalization with overlap
     ethr =  1.00E-02,  avg # of iterations =  2.0

[...]

     total energy              =   -1259.57449283 Ry
     Harris-Foulkes estimate   =   -1263.07917601 Ry
     estimated scf accuracy    <       7.48111333 Ry

[...]

     iteration # 12     ecut=    36.75 Ry     beta=0.30
     Davidson diagonalization with overlap
     c_bands:  1 eigenvalues not converged
     ethr =  6.08E-05,  avg # of iterations =  4.5

[...]

     End of self-consistent calculation

          k = 0.0000 0.0000 0.0000 ( 31997 PWs)   bands (ev):

   -31.6442 -31.6111 -31.5587 -31.4797 -31.4793 -31.4791 -31.3533 -31.3008
   -31.1483 -31.0358 -31.0263 -31.0194 -15.7285 -15.7109 -15.6976 -15.6571
   -15.6380 -15.5922 -15.5646 -15.4782 -15.4541 -15.4394 -15.2797 -15.1565
   -15.0663 -15.0412 -14.9504 -14.9100 -14.8799 -14.8791 -14.8681 -14.8591
   -14.8543 -14.8328 -14.7691 -14.6166 -14.6156 -14.5784 -14.5422 -14.5306
   -14.5236 -14.4991 -14.4917 -14.4297 -14.4232 -14.4163 -14.1993 -14.1974
    -9.6338  -3.8981  -1.1583  -0.7410  -0.2279   0.0559   0.0885   0.0942
     0.1717   0.3586   0.3845   0.4561   0.5358   0.5904   0.6766   0.6931
     0.7249   0.9062   1.2050   1.4540   1.7262   1.8940   1.9474   2.2872
     2.3020   2.4227   2.5809   2.6395   2.8506   2.9423   2.9473

[...]

          k =-0.0669 0.0387 0.0000 ( 31970 PWs)   bands (ev):

[...]

     the Fermi energy is     1.7467 ev

!    total energy              =   -1262.14632680 Ry
     Harris-Foulkes estimate   =   -1262.14634635 Ry
     estimated scf accuracy    <       0.00000299 Ry

     The total energy is the sum of the following terms:

     one-electron contribution =   -4741.94635156 Ry
     hartree contribution      =    2384.07261121 Ry
     xc contribution           =    -613.68844662 Ry
     ewald contribution        =    1709.53907828 Ry
     electric field correction =       0.00012742 Ry
     smearing contrib. (-TS)   =      -0.12334553 Ry

     convergence has been achieved in  20 iterations

 BEEF-vdW xc energy contributions
           1 :   -543.577579212003
           2 :    499.919621110867
           3 :   -422.771037737394
           4 :    328.627084932907
           5 :   -234.943696308794
           6 :    155.518789673591
           7 :   -97.9097496549455
           8 :    63.1335242684023
           9 :   -47.1478414381788
          10 :    43.2284286339589
          11 :   -44.3507201314757
          12 :    44.9110987558809
          13 :   -41.5407559950661
          14 :    33.1573314474405
          15 :   -20.5846532780113
          16 :    5.98794221243907
          17 :    7.79322056960928
          18 :   -18.0138904455727
          19 :    22.8127305523408
          20 :   -21.8125636476557
          21 :    16.2838581495637
          22 :   -8.74266260366562
          23 :    2.07406939002703
          24 :    1.49873760416858
          25 :   -1.17830931789558
          26 :   -2.24017313355080
          27 :    6.85971631659640
          28 :   -10.5854319627488
          29 :    12.0130122629776
          30 :   -10.9140393797250
          31 :   -46.3624873916280
          32 :   -33.2650296567372

     Forces acting on atoms (Ry/au):

     negative rho (up, down):  5.859E-01 0.000E+00
     atom    1 type  1   force =     0.00038615    0.00067118    0.00328514
     atom    2 type  1   force =    -0.00029946   -0.00173405    0.00454435
     atom    3 type  1   force =    -0.00167031    0.00066127    0.00432008
     atom    4 type  1   force =     0.00096664   -0.00006098    0.00390165
     atom    5 type  1   force =    -0.00095292    0.00275820   -0.00417505
     atom    6 type  1   force =     0.00229589    0.00065349   -0.00289666
     atom    7 type  1   force =     0.00203919    0.00089354   -0.00423342
     atom    8 type  1   force =    -0.00028929   -0.00293426   -0.00541249
     atom    9 type  1   force =     0.03321550   -0.00382264    0.03147578
     atom   10 type  1   force =    -0.03684757   -0.00159864    0.03185219
     atom   11 type  1   force =    -0.00254953   -0.01296612    0.00394496
     atom   12 type  1   force =     0.00236785    0.01657521    0.00438862
     atom   13 type  2   force =     0.00291009   -0.00064116   -0.08957748
     atom   14 type  3   force =     0.01140721   -0.00002401    0.00962622
     atom   15 type  3   force =    -0.01297943    0.00156898    0.00895613

     Total force =     0.116104     Total SCF correction =     0.003434

     entering subroutine stress ...

     negative rho (up, down):  5.859E-01 0.000E+00
          total   stress  (Ry/bohr**3)                   (kbar)     P=   -3.42
  -0.00001685   0.00000152  -0.00000085         -2.48      0.22     -0.13
   0.00000152  -0.00000924   0.00000031          0.22     -1.36      0.05
  -0.00000085   0.00000031  -0.00004372         -0.13      0.05     -6.43

     BFGS Geometry Optimization

     number of scf cycles    =   1
     number of bfgs steps    =   0

     energy   new            =   -1262.1463268004 Ry

     new trust radius        =       0.0896270346 bohr
     new conv_thr            =       0.0000099958 Ry

ATOMIC_POSITIONS (crystal)
La1      0.166666667   0.166666667   0.383173129    0   0   0
La1      0.666666667   0.166666667   0.383173129    0   0   0
La1      0.166666667   0.666666667   0.383173129    0   0   0
La1      0.666666667   0.666666667   0.383173129    0   0   0
La1      0.833333333   0.333333333   0.500000000    0   0   0
La1      0.333333333   0.333333333   0.500000000    0   0   0
La1      0.833333333   0.833333333   0.500000000    0   0   0
La1      0.333333333   0.833333333   0.500000000    0   0   0
La1      0.002509904  -0.000312760   0.617465094
La1      0.497454520  -0.000130797   0.617472727
La1      0.000349779   0.498939142   0.616906862
La1      0.499489704   0.501356145   0.616915858
C1       0.250232427  -0.000052458   0.696339037
H1       0.286462396   0.097404234   0.722490462
H1       0.213362999   0.902722172   0.722476875

     Writing output data file calc.save
     Check: negative starting charge=   -0.830966
     NEW-OLD atomic charge density approx. for the potential
     Check: negative starting charge=   -0.831371

[...]

     energy   old            =   -1262.1463268004 Ry
     energy   new            =   -1262.1567138632 Ry

     CASE: energy  _new < energy  _old

[...]

     iteration #  4     ecut=    36.75 Ry     beta=0.30
     Davidson diagonalization with overlap
     c_bands:  1 eigenvalues not converged
     ethr =  1.91E-06,  avg # of iterations =  9.5

[...]

     number of scf cycles    =  22
     number of bfgs steps    =  21

     energy   old            =   -1262.2155682549 Ry
     energy   new            =   -1262.2159986706 Ry

     CASE: energy  _new < energy  _old

     new trust radius        =       0.0546490540 bohr
     new conv_thr            =       0.0000001000 Ry

ATOMIC_POSITIONS (crystal)
La1      0.166666667   0.166666667   0.383173129    0   0   0
La1      0.666666667   0.166666667   0.383173129    0   0   0
La1      0.166666667   0.666666667   0.383173129    0   0   0
La1      0.666666667   0.666666667   0.383173129    0   0   0
La1      0.833333333   0.333333333   0.500000000    0   0   0
La1      0.333333333   0.333333333   0.500000000    0   0   0
La1      0.833333333   0.833333333   0.500000000    0   0   0
La1      0.333333333   0.833333333   0.500000000    0   0   0
La1      0.005276869  -0.003096253   0.617460667
La1      0.491839874  -0.000740247   0.617087555
La1      0.014363818   0.466594870   0.622091834
La1      0.479060882   0.539768864   0.622200043
C1       0.249454991  -0.003198359   0.681202052
H1       0.364979286   0.000116783   0.707507577
H1       0.132379055   0.998560224   0.707863298

     Writing output data file calc.save
     Check: negative starting charge=   -0.832604
     NEW-OLD atomic charge density approx. for the potential
     Check: negative starting charge=   -0.832956

[...]

     Self-consistent Calculation

[...]

     total energy              =   -1262.21618792 Ry
     Harris-Foulkes estimate   =   -1262.21618792 Ry
     estimated scf accuracy    <       0.00000012 Ry

     iteration # 11     ecut=    36.75 Ry     beta=0.30
     Davidson diagonalization with overlap
     ethr =  8.64E-11,  avg # of iterations =  7.2

[...]

     negative rho (up, down):  5.841E-01 0.000E+00

     Adding external electric field

     Computed dipole along edir(3) :
        Dipole               -0.0163 Ry au,         -0.0415 Debye
        Dipole field         -0.0000 Ry au

        Potential amp.        0.0023 Ry
        Total length         48.0849 bohr

     End of self-consistent calculation

[...]

          k = 0.0446-0.0515 0.0000 ( 31991 PWs)   bands (ev):

[...]

          k =-0.0669-0.0387 0.0000 ( 31970 PWs)   bands (ev):

   -31.4843 -31.4211 -31.3290 -31.3272 -31.2622 -31.2598 -31.0728 -31.0636
   -30.9254 -30.8971 -30.8625 -30.8099 -15.4135 -15.3574 -15.2815 -15.2716
   -15.2411 -15.2075 -15.1762 -15.1306 -15.1110 -15.0913 -15.0458 -15.0407
   -14.9757 -14.9723 -14.9477 -14.9293 -14.8651 -14.8572 -14.7390 -14.6805
   -14.6666 -14.6189 -14.5293 -14.5271 -14.5170 -14.5041 -14.4924 -14.4536
   -14.4190 -14.3817 -14.3378 -14.3159 -14.3056 -14.2440 -14.1437 -14.1095
   -10.1036  -4.4414  -1.4691  -0.2000   0.3702   0.4138   0.8250   0.8663
     1.0828   1.1407   1.2028   1.2084   1.2407   1.3428   1.5774   1.6114
     1.7262   1.7907   1.8201   1.9141   2.0436   2.0904   2.1099   2.1552
     2.1708   2.2130   2.2998   2.3793   2.4353   2.5322   2.5618

     the Fermi energy is     1.9635 ev

!    total energy              =   -1262.21618795 Ry
     Harris-Foulkes estimate   =   -1262.21618793 Ry
     estimated scf accuracy    <       0.00000001 Ry

     The total energy is the sum of the following terms:

     one-electron contribution =   -4753.96243636 Ry
     hartree contribution      =    2390.72205392 Ry
     xc contribution           =    -613.80002552 Ry
     ewald contribution        =    1714.94622815 Ry
     electric field correction =       0.00000039 Ry
     smearing contrib. (-TS)   =      -0.12200853 Ry

     convergence has been achieved in  11 iterations

 BEEF-vdW xc energy contributions
           1 :   -543.699536377598
           2 :    500.109630530484
           3 :   -423.028492876757
           4 :    328.896268131777
           5 :   -235.165909923434
           6 :    155.658387905547
           7 :   -97.9484510627487
           8 :    63.0601521286534
           9 :   -46.9672658569604
          10 :    42.9821498577219
          11 :   -44.1188096263332
          12 :    44.7791466175618
          13 :   -41.5501864097373
          14 :    33.2763691684817
          15 :   -20.7243997730850
          16 :    6.05469675658037
          17 :    7.84397365097038
          18 :   -18.1556069340008
          19 :    22.9694793241554
          20 :   -21.9095209888092
          21 :    16.2943446540901
          22 :   -8.70084277668934
          23 :    2.04527092493061
          24 :    1.46786719401007
          25 :   -1.09285167916823
          26 :   -2.33081014403410
          27 :    6.90176728755125
          28 :   -10.5623375726520
          29 :    11.9585835326985
          30 :   -10.8887874723080
          31 :   -46.3705547982304
          32 :   -33.2899723554782

     Forces acting on atoms (Ry/au):

     negative rho (up, down):  5.841E-01 0.000E+00
     atom    1 type  1   force =    -0.00000984    0.00022718    0.00389532
     atom    2 type  1   force =     0.00000621   -0.00188364    0.00472675
     atom    3 type  1   force =    -0.00121862    0.00038724    0.00483139
     atom    4 type  1   force =     0.00115428    0.00043061    0.00487793
     atom    5 type  1   force =    -0.00190709    0.00205548   -0.00011935
     atom    6 type  1   force =     0.00165451    0.00263096   -0.00048793
     atom    7 type  1   force =    -0.00017431   -0.00338927   -0.00525364
     atom    8 type  1   force =    -0.00027988    0.00016321   -0.00789738
     atom    9 type  1   force =    -0.00046327    0.00001939   -0.00030276
     atom   10 type  1   force =     0.00070566   -0.00115151    0.00038114
     atom   11 type  1   force =     0.00026486    0.00170890    0.00016849
     atom   12 type  1   force =    -0.00018921   -0.00150590   -0.00044162
     atom   13 type  2   force =     0.00077740    0.00001147   -0.00147427
     atom   14 type  3   force =    -0.00117044    0.00009664   -0.00135059
     atom   15 type  3   force =     0.00084974    0.00019924   -0.00155349

     Total force =     0.004117     Total SCF correction =     0.000121

     entering subroutine stress ...

     negative rho (up, down):  5.841E-01 0.000E+00
          total   stress  (Ry/bohr**3)                   (kbar)     P=   -1.45
  -0.00000148   0.00000017   0.00000071         -0.22      0.02      0.10
   0.00000017  -0.00000962   0.00000029          0.02     -1.41      0.04
   0.00000071   0.00000029  -0.00001850          0.10      0.04     -2.72

     bfgs converged in  23 scf cycles and  22 bfgs steps
     (criteria: energy <  1.0E+00, force <  1.9E-03)

     End of BFGS Geometry Optimization

     Final energy   =   -1262.2161879482 Ry
Begin final coordinates

ATOMIC_POSITIONS (crystal)
La1      0.166666667   0.166666667   0.383173129    0   0   0
La1      0.666666667   0.166666667   0.383173129    0   0   0
La1      0.166666667   0.666666667   0.383173129    0   0   0
La1      0.666666667   0.666666667   0.383173129    0   0   0
La1      0.833333333   0.333333333   0.500000000    0   0   0
La1      0.333333333   0.333333333   0.500000000    0   0   0
La1      0.833333333   0.833333333   0.500000000    0   0   0
La1      0.333333333   0.833333333   0.500000000    0   0   0
La1      0.005276869  -0.003096253   0.617460667
La1      0.491839874  -0.000740247   0.617087555
La1      0.014363818   0.466594870   0.622091834
La1      0.479060882   0.539768864   0.622200043
C1       0.249454991  -0.003198359   0.681202052
H1       0.364979286   0.000116783   0.707507577
H1       0.132379055   0.998560224   0.707863298
End final coordinates

     Writing output data file calc.save

     General routines

     Parallel routines

   This run was terminated on:   2:39:17  19Apr2018

   JOB DONE.