     Program PWSCF v.5.1rc2 (svn rev. 11289) starts on 16Apr2018 at 13:17: 3

     Current dimensions of program PWSCF are:
     Max number of different atomic species (ntypx) = 10
     Max number of k-points (npk) =  40000
     Max angular momentum in pseudopotentials (lmaxx) =  3
     Presently stress not available with electric field

     IMPORTANT: XC functional enforced from input :
     Exchange-correlation      = BEEF-VDW ( 1  4 27 13 2)
     Any further DFT definition will be discarded
     Please, verify this is what you really want

     Subspace diagonalization in iterative solution of the eigenvalue problem:
     a serial algorithm will be used

     bravais-lattice index     =            0
     lattice parameter (alat)  =       1.8897  a.u.
     unit-cell volume          =    5739.2980 (a.u.)^3
     number of atoms/cell      =           14
     number of atomic types    =            3
     number of electrons       =       151.00
     number of Kohn-Sham states=           85
     kinetic-energy cutoff     =      36.7493  Ry
     charge density cutoff     =     367.4932  Ry
     convergence threshold     =      1.0E-05
     mixing beta               =       0.3000
     number of iterations used =           10  plain     mixing
     Exchange-correlation      = BEEF-VDW ( 1  4 27 13 2)
     nstep                     =           50

     celldm(1)=   1.889726  celldm(2)=   0.000000  celldm(3)=   0.000000
     celldm(4)=   0.000000  celldm(5)=   0.000000  celldm(6)=   0.000000

     crystal axes: (cart. coord. in units of alat)
               a(1) = (   6.254208   0.000000   0.000000 )
               a(2) = (   3.127104   5.416303   0.000000 )
               a(3) = (   0.000000   0.000000  25.106540 )

     reciprocal axes: (cart. coord. in units 2 pi/alat)
               b(1) = (  0.159892 -0.092314  0.000000 )
               b(2) = (  0.000000  0.184628  0.000000 )
               b(3) = (  0.000000  0.000000  0.039830 )

     PseudoPot. # 1 for Cd read from file:
     /u/if/mamunm/psp/gbrv1.5pbe/Cd.UPF
     MD5 check sum: 17164a7926edb8e0dc231208abae86a6
     Pseudo is Ultrasoft + core correction, Zval = 12.0
     Generated by new atomic code, or converted to UPF format
     Using radial grid of  889 points,  6 beta functions with:
                l(1) =   0
                l(2) =   0
                l(3) =   1
                l(4) =   1
                l(5) =   2
                l(6) =   2
     Q(r) pseudized with  6 coefficients,  rinner =    1.000   1.000   1.000
                                                       1.000   1.000

     PseudoPot. # 2 for O  read from file:
     /u/if/mamunm/psp/gbrv1.5pbe/O.UPF
     MD5 check sum: 734c27235a0248c51dbae37a1fbe46ec
     Pseudo is Ultrasoft + core correction, Zval =  6.0
     Generated by new atomic code, or converted to UPF format
     Using radial grid of  737 points,  5 beta functions with:
                l(1) =   0
                l(2) =   0
                l(3) =   1
                l(4) =   1
                l(5) =   2
     Q(r) pseudized with  8 coefficients,  rinner =    0.900   0.900   0.900
                                                       0.900   0.900

     PseudoPot. # 3 for H  read from file:
     /u/if/mamunm/psp/gbrv1.5pbe/H.UPF
     MD5 check sum: 761ae9a214b05c3daf00ab9f6b793d6f
     Pseudo is Ultrasoft, Zval =  1.0
     Generated by new atomic code, or converted to UPF format
     Using radial grid of  615 points,  2 beta functions with:
                l(1) =   0
                l(2) =   0
     Q(r) pseudized with  8 coefficients,  rinner =    0.700

     vdW kernel table read from file vdW_kernel_table
     MD5 check sum: 095c7af220d748ca6e76c0b4c6cfb241

     atomic species   valence    mass     pseudopotential
        Cd1           12.00   112.41400     Cd( 1.00)
        O1             6.00    15.99900     O ( 1.00)
        H1             1.00     1.00800     H ( 1.00)

     No symmetry found

   Cartesian axes

     site n.     atom                  positions (alat units)
         1           Cd1 tau(   1) = (   1.5635521   0.9027172  10.0000000  )
         2           Cd1 tau(   2) = (   4.6906562   0.9027172  10.0000000  )
         3           Cd1 tau(   3) = (   3.1271041   3.6108688  10.0000000  )
         4           Cd1 tau(   4) = (   6.2542083   3.6108688  10.0000000  )
         5           Cd1 tau(   5) = (   6.2542083   1.8054344  12.5532698  )
         6           Cd1 tau(   6) = (   3.1271041   1.8054344  12.5532698  )
         7           Cd1 tau(   7) = (   7.8177603   4.5135860  12.5532698  )
         8           Cd1 tau(   8) = (   4.6906562   4.5135860  12.5532698  )
         9           Cd1 tau(   9) = (   0.0000000   0.0000000  15.1065397  )
        10           Cd1 tau(  10) = (   3.1271041   0.0000000  15.1065397  )
        11           Cd1 tau(  11) = (   1.5635521   2.7081516  15.1065397  )
        12           Cd1 tau(  12) = (   4.6906562   2.7081516  15.1065397  )
        13           O1  tau(  13) = (   3.1271041   1.8054344  16.4715397  )
        14           H1  tau(  14) = (   3.1271041   1.8054344  17.4215397  )

     number of k points=    20  Fermi-Dirac smearing, width (Ry)=  0.0110
                       cart. coord. in units 2pi/alat
        k(    1) = (   0.0000000   0.0000000   0.0000000), wk =   0.0555556
        k(    2) = (   0.0000000   0.0307713   0.0000000), wk =   0.1111111
        k(    3) = (   0.0000000   0.0615426   0.0000000), wk =   0.1111111
        k(    4) = (   0.0000000  -0.0923139   0.0000000), wk =   0.0555556
        k(    5) = (   0.0266487  -0.0153856   0.0000000), wk =   0.1111111
        k(    6) = (   0.0266487   0.0153856   0.0000000), wk =   0.1111111
        k(    7) = (   0.0266487   0.0461569   0.0000000), wk =   0.1111111
        k(    8) = (   0.0266487  -0.1076995   0.0000000), wk =   0.1111111
        k(    9) = (   0.0266487  -0.0769282   0.0000000), wk =   0.1111111
        k(   10) = (   0.0266487  -0.0461569   0.0000000), wk =   0.1111111
        k(   11) = (   0.0532974  -0.0307713   0.0000000), wk =   0.1111111
        k(   12) = (   0.0532974   0.0000000   0.0000000), wk =   0.1111111
        k(   13) = (   0.0532974   0.0307713   0.0000000), wk =   0.1111111
        k(   14) = (   0.0532974  -0.1230852   0.0000000), wk =   0.1111111
        k(   15) = (   0.0532974  -0.0923139   0.0000000), wk =   0.1111111
        k(   16) = (   0.0532974  -0.0615426   0.0000000), wk =   0.1111111
        k(   17) = (  -0.0799462   0.0461569   0.0000000), wk =   0.0555556
        k(   18) = (  -0.0799462   0.0769282   0.0000000), wk =   0.1111111
        k(   19) = (  -0.0799462   0.1076995   0.0000000), wk =   0.1111111
        k(   20) = (  -0.0799462  -0.0461569   0.0000000), wk =   0.0555556

     Largest allocated arrays     est. size (Mb)     dimensions
     Largest temporary arrays     est. size (Mb)     dimensions

     Initial potential from superposition of free atoms
     Check: negative starting charge=   -0.257931

     starting charge  144.99949, renormalised to  151.00000

     negative rho (up, down):  2.686E-01 0.000E+00

     *
     * You are using vdW-DF for exchange-correlation in this calculation.
     * Please cite the following three references that made this development
     * possible:
     *
     *   M. Dion, H. Rydberg, E. Schroder, D. C. Langreth, and
     *   B. I. Lundqvist, Phys. Rev. Lett. 92, 246401 (2004).
     *
     *   T. Thonhauser, V. R. Cooper, S. Li, A. Puzder, P. Hyldgaard, and
     *   D. C. Langreth, Phys. Rev. B 76, 125112 (2007).
     *
     *   G. Roman-Perez and J. M. Soler, Phys. Rev. Lett. 103, 096102 (2009).
     *
     *
     * If you are using vdW-DF2, please also cite:
     *
     *   K. Lee, E. D. Murray, L. Kong, B. I. Lundqvist, and
     *   D. C. Langreth, Phys. Rev. B 82, 081101(R) (2010).
     *
     *
     * If you are calculating the stress with vdW-DF, please also cite:
     *
     *   R. Sabatini, E. Kucukbenli, B. Kolb, T. Thonhauser, and
     *   S. de Gironcoli, J. Phys.: Condens. Matter 24, 424209 (2012).
     *

     Carrying out vdW-DF run using the following parameters:

     Nqs =      20    Nr_points =    1024   r_max =   100.000
     q_mesh =
               0.00001000     0.04494208     0.09755937     0.15916263
               0.23128650     0.31572767     0.41458969     0.53033537
               0.66584808     0.82450364     1.01025438     1.22772762
               1.48234092     1.78043706     2.12944203     2.53805004
               3.01644009     3.57652955     4.23227104     5.00000000

     Gradients computed in reciprocal space

     Adding external electric field

     Computed dipole along edir(3) :
        Dipole               -2.2191 Ry au,         -5.6404 Debye
        Dipole field         -0.0049 Ry au

        Potential amp.        0.4495 Ry
        Total length         46.2584 bohr

     Starting wfc are  113 randomized atomic wfcs

     Self-consistent Calculation

     iteration #  1     ecut=    36.75 Ry     beta=0.30
     Davidson diagonalization with overlap
     ethr =  1.00E-02,  avg # of iterations =  6.0

[...]

     total energy              =   -1420.05480278 Ry
     Harris-Foulkes estimate   =   -1427.42685278 Ry
     estimated scf accuracy    <      15.35950026 Ry

[...]

     End of self-consistent calculation

          k = 0.0000 0.0000 0.0000 ( 21643 PWs)   bands (ev):

   -19.6298  -9.2725  -8.9734  -8.9734  -8.9574  -8.8373  -8.8372  -8.8291
    -8.8033  -8.7485  -8.7485  -8.7110  -8.6777  -8.6777  -8.5945  -8.4831
    -8.4395  -8.4394  -8.4343  -8.4343  -8.4272  -8.3751  -8.3750  -8.3657
    -8.3263  -8.3262  -8.3136  -8.3006  -8.3005  -8.2254  -8.2254  -8.0048
    -8.0048  -7.9377  -7.9376  -7.9018  -7.8568  -7.8567  -7.8566  -7.8068
    -7.7930  -7.7930  -7.7784  -7.7783  -7.7093  -7.7092  -7.7070  -7.6587
    -7.6587  -7.6455  -7.6413  -7.6412  -7.6020  -7.6020  -7.6000  -7.4974
    -7.4961  -7.4961  -7.4541  -7.4539  -7.4531  -7.4159  -6.5124  -5.1632
    -3.3780  -3.3779  -2.6018  -1.2848  -1.1981  -1.1981  -1.0052  -1.0051
    -0.8293  -0.1732  -0.0823  -0.0823   0.7105   0.8824   1.1355   1.1355
     2.3436   2.7096   2.7096   2.8778   3.1295

[...]

          k =-0.0799 0.0462 0.0000 ( 21576 PWs)   bands (ev):

[...]

     the Fermi energy is     0.9649 ev

!    total energy              =   -1426.80165953 Ry
     Harris-Foulkes estimate   =   -1426.80166237 Ry
     estimated scf accuracy    <       0.00000040 Ry

     The total energy is the sum of the following terms:

     one-electron contribution =   -9178.92786540 Ry
     hartree contribution      =    4686.69288828 Ry
     xc contribution           =    -498.22260791 Ry
     ewald contribution        =    3563.68213855 Ry
     electric field correction =       0.00011717 Ry
     smearing contrib. (-TS)   =      -0.02633021 Ry

     convergence has been achieved in  21 iterations

 BEEF-vdW xc energy contributions
           1 :   -436.393101003951
           2 :    398.961064379540
           3 :   -335.857505922159
           4 :    265.056139497474
           5 :   -203.080505084392
           6 :    159.135899598969
           7 :   -133.410722612501
           8 :    119.632983591332
           9 :   -109.909805278690
          10 :    99.0264374641663
          11 :   -86.1549852774141
          12 :    73.6866765735701
          13 :   -64.5399970622606
          14 :    59.8722447594837
          15 :   -58.4745359785965
          16 :    57.8475754261905
          17 :   -55.9273547811885
          18 :    52.2304891895628
          19 :   -47.8027163428008
          20 :    44.2243008212108
          21 :   -42.4659343245333
          22 :    42.3365207036513
          23 :   -42.7650459164809
          24 :    42.5900131679036
          25 :   -41.2721156708433
          26 :    39.1034376758921
          27 :   -36.8795145441921
          28 :    35.3322935853546
          29 :   -34.7091543060350
          30 :    34.7183233515111
          31 :   -39.4553134019948
          32 :   -28.7637123881666

     Forces acting on atoms (Ry/au):

     negative rho (up, down):  2.667E-01 0.000E+00
     atom    1 type  1   force =     0.00189659    0.00108796   -0.01676259
     atom    2 type  1   force =    -0.00189459    0.00108724   -0.01676227
     atom    3 type  1   force =     0.00000218   -0.00218443   -0.01678942
     atom    4 type  1   force =    -0.00000379    0.00000372   -0.01703284
     atom    5 type  1   force =    -0.00001199   -0.00008799    0.00010065
     atom    6 type  1   force =     0.00000927    0.00001041    0.00819831
     atom    7 type  1   force =     0.00008555    0.00004567    0.00009375
     atom    8 type  1   force =    -0.00008686    0.00003226    0.00010908
     atom    9 type  1   force =    -0.00000278   -0.00000247    0.01239207
     atom   10 type  1   force =     0.00000121   -0.04105146    0.00081010
     atom   11 type  1   force =    -0.03555170    0.02052832    0.00079047
     atom   12 type  1   force =     0.03555948    0.02052826    0.00077457
     atom   13 type  2   force =    -0.00000134    0.00000192   -0.01602278
     atom   14 type  3   force =    -0.00000121    0.00000058    0.06010089

     Total force =     0.095293     Total SCF correction =     0.001016

     entering subroutine stress ...

     negative rho (up, down):  2.667E-01 0.000E+00
          total   stress  (Ry/bohr**3)                   (kbar)     P=    8.23
   0.00002540   0.00000000   0.00000000          3.74      0.00      0.00
   0.00000000   0.00002540  -0.00000000          0.00      3.74     -0.00
   0.00000000  -0.00000000   0.00011704          0.00     -0.00     17.22

     BFGS Geometry Optimization

     number of scf cycles    =   1
     number of bfgs steps    =   0

     energy   new            =   -1426.8016595325 Ry

     new trust radius        =       0.0601008857 bohr
     new conv_thr            =       0.0000099958 Ry

ATOMIC_POSITIONS (crystal)
Cd1      0.166666667   0.166666667   0.398302599    0   0   0
Cd1      0.666666667   0.166666667   0.398302599    0   0   0
Cd1      0.166666667   0.666666667   0.398302599    0   0   0
Cd1      0.666666667   0.666666667   0.398302599    0   0   0
Cd1      0.833333333   0.333333333   0.500000000    0   0   0
Cd1      0.333333333   0.333333333   0.500000000    0   0   0
Cd1      0.833333333   0.833333333   0.500000000    0   0   0
Cd1      0.333333333   0.833333333   0.500000000    0   0   0
Cd1     -0.000000115  -0.000000241   0.601958592
Cd1      0.502005483  -0.004010761   0.601714476
Cd1     -0.004010895   0.502005633   0.601714062
Cd1      0.502005923   0.502005627   0.601713727
O1       0.333333126   0.333333521   0.655727990
H1       0.333333202   0.333333390   0.695171215

     Writing output data file calc.save
     Check: negative starting charge=   -0.257931
     NEW-OLD atomic charge density approx. for the potential
     Check: negative starting charge=   -0.259620

[...]

     energy   old            =   -1426.8016595325 Ry
     energy   new            =   -1426.8069982075 Ry

     CASE: energy  _new < energy  _old

[...]

     WARNING: bfgs curvature condition failed, Theta= 0.844
     new trust radius        =       0.0270157754 bohr
     new conv_thr            =       0.0000001000 Ry

[...]

     Total force =     0.004253     Total SCF correction =     0.000447
     SCF correction compared to forces is large: reduce conv_thr to get better values

[...]

     Threshold (ethr) on eigenvalues was too large:
     Diagonalizing with lowered threshold

     Davidson diagonalization with overlap
     ethr =  7.60E-08,  avg # of iterations =  1.1

[...]

     new trust radius        =       0.0296825824 bohr
     new conv_thr            =       0.0000001000 Ry

[...]

     Threshold (ethr) on eigenvalues was too large:
     Diagonalizing with lowered threshold

     Davidson diagonalization with overlap
     ethr =  5.24E-08,  avg # of iterations =  1.0

[...]

     Total force =     0.003034     Total SCF correction =     0.000258

[...]

     number of scf cycles    =  23
     number of bfgs steps    =  22

     energy   old            =   -1426.8317362794 Ry
     energy   new            =   -1426.8318308615 Ry

     CASE: energy  _new < energy  _old

     WARNING: bfgs curvature condition failed, Theta= 0.899
     new trust radius        =       0.0445238737 bohr
     new conv_thr            =       0.0000001000 Ry

ATOMIC_POSITIONS (crystal)
Cd1      0.166666667   0.166666667   0.398302599    0   0   0
Cd1      0.666666667   0.166666667   0.398302599    0   0   0
Cd1      0.166666667   0.666666667   0.398302599    0   0   0
Cd1      0.666666667   0.666666667   0.398302599    0   0   0
Cd1      0.833333333   0.333333333   0.500000000    0   0   0
Cd1      0.333333333   0.333333333   0.500000000    0   0   0
Cd1      0.833333333   0.833333333   0.500000000    0   0   0
Cd1      0.333333333   0.833333333   0.500000000    0   0   0
Cd1     -0.000000166   0.000001255   0.611831711
Cd1      0.508776217  -0.017549938   0.615697363
Cd1     -0.017550535   0.508776063   0.615697084
Cd1      0.508772440   0.508771459   0.615697790
O1       0.333337884   0.333338214   0.672551226
H1       0.333330818   0.333334452   0.711484527

     Writing output data file calc.save
     Check: negative starting charge=   -0.258639
     NEW-OLD atomic charge density approx. for the potential
     Check: negative starting charge=   -0.257087

[...]

     Self-consistent Calculation

[...]

     total energy              =   -1426.83195816 Ry
     Harris-Foulkes estimate   =   -1426.83195770 Ry
     estimated scf accuracy    <       0.00000040 Ry

     iteration #  7     ecut=    36.75 Ry     beta=0.30
     Davidson diagonalization with overlap
     ethr =  2.65E-10,  avg # of iterations =  3.0

[...]

     negative rho (up, down):  2.654E-01 0.000E+00

     Adding external electric field

     Computed dipole along edir(3) :
        Dipole                0.1775 Ry au,          0.4513 Debye
        Dipole field          0.0004 Ry au

        Potential amp.       -0.0360 Ry
        Total length         46.2584 bohr

     End of self-consistent calculation

[...]

          k = 0.0533-0.0615 0.0000 ( 21571 PWs)   bands (ev):

[...]

          k =-0.0799-0.0462 0.0000 ( 21576 PWs)   bands (ev):

   -18.8558  -8.7410  -8.7253  -8.6500  -8.6193  -8.6160  -8.5948  -8.5892
    -8.5526  -8.5425  -8.5315  -8.5309  -8.4750  -8.4342  -8.4209  -8.3951
    -8.3847  -8.3831  -8.3782  -8.3325  -8.2986  -8.2648  -8.2644  -8.2403
    -8.1958  -8.1865  -8.1857  -8.1681  -8.1655  -8.1474  -8.1395  -8.1092
    -8.1006  -8.0493  -8.0441  -8.0303  -8.0119  -8.0047  -7.9971  -7.9941
    -7.9504  -7.9457  -7.9451  -7.9296  -7.9294  -7.9027  -7.9012  -7.8991
    -7.8803  -7.8798  -7.8138  -7.8093  -7.7968  -7.7918  -7.7523  -7.7088
    -7.7025  -7.6466  -7.6409  -7.6008  -7.5756  -6.2909  -5.6075  -5.4001
    -4.3331  -3.5301  -3.0714  -2.7557  -2.3969  -2.3145  -1.6559  -1.4556
    -0.6323  -0.4914   1.0075   1.2243   1.4848   1.8765   3.1569   3.1693
     3.5018   3.5638   3.8384   3.8684   4.1525

     the Fermi energy is     0.9445 ev

!    total energy              =   -1426.83195809 Ry
     Harris-Foulkes estimate   =   -1426.83195813 Ry
     estimated scf accuracy    <       0.00000002 Ry

     The total energy is the sum of the following terms:

     one-electron contribution =   -8703.41081934 Ry
     hartree contribution      =    4449.05773234 Ry
     xc contribution           =    -497.99021005 Ry
     ewald contribution        =    3325.53817954 Ry
     electric field correction =       0.00006902 Ry
     smearing contrib. (-TS)   =      -0.02690958 Ry

     convergence has been achieved in   7 iterations

 BEEF-vdW xc energy contributions
           1 :   -436.138020538801
           2 :    398.529174314943
           3 :   -335.235707145533
           4 :    264.418837012032
           5 :   -202.661784960454
           6 :    159.052960234538
           7 :   -133.573129859641
           8 :    119.807361193489
           9 :   -109.888463731179
          10 :    98.7709970888733
          11 :   -85.8098442085445
          12 :    73.4577764908298
          13 :   -64.5361594636578
          14 :    60.0306356575882
          15 :   -58.6209689295412
          16 :    57.8377158727039
          17 :   -55.7568114058155
          18 :    52.0302814882178
          19 :   -47.7283342394960
          20 :    44.3294630390832
          21 :   -42.6613513059953
          22 :    42.4635747591715
          23 :   -42.7220722235219
          24 :    42.4095740761957
          25 :   -41.0901224923620
          26 :    39.0485934868217
          27 :   -36.9735176377636
          28 :    35.4785554420102
          29 :   -34.7742186010283
          30 :    34.6384181796465
          31 :   -39.4336328916073
          32 :   -28.6998099195443

     Forces acting on atoms (Ry/au):

     negative rho (up, down):  2.654E-01 0.000E+00
     atom    1 type  1   force =     0.00097948    0.00056553   -0.01779068
     atom    2 type  1   force =    -0.00097962    0.00056566   -0.01779056
     atom    3 type  1   force =     0.00000003   -0.00113123   -0.01779041
     atom    4 type  1   force =    -0.00000002   -0.00000011   -0.01878510
     atom    5 type  1   force =     0.00000005   -0.00005131    0.01518747
     atom    6 type  1   force =     0.00000000    0.00000027    0.02631462
     atom    7 type  1   force =     0.00004489    0.00002552    0.01518729
     atom    8 type  1   force =    -0.00004466    0.00002545    0.01518781
     atom    9 type  1   force =     0.00000119   -0.00000013   -0.00179516
     atom   10 type  1   force =    -0.00000284    0.00060440    0.00056455
     atom   11 type  1   force =     0.00052342   -0.00030438    0.00056486
     atom   12 type  1   force =    -0.00051617   -0.00029688    0.00056077
     atom   13 type  2   force =    -0.00000816   -0.00000388    0.00074548
     atom   14 type  3   force =     0.00000240    0.00000109   -0.00036094

     Total force =     0.002439     Total SCF correction =     0.000598
     SCF correction compared to forces is large: reduce conv_thr to get better values

     entering subroutine stress ...

     negative rho (up, down):  2.654E-01 0.000E+00
          total   stress  (Ry/bohr**3)                   (kbar)     P=   -0.09
  -0.00001712   0.00000000  -0.00000000         -2.52      0.00     -0.00
   0.00000000  -0.00001712  -0.00000000          0.00     -2.52     -0.00
  -0.00000000  -0.00000000   0.00003242         -0.00     -0.00      4.77

     bfgs converged in  24 scf cycles and  23 bfgs steps
     (criteria: energy <  1.0E+00, force <  1.9E-03)

     End of BFGS Geometry Optimization

     Final energy   =   -1426.8319580868 Ry
Begin final coordinates

ATOMIC_POSITIONS (crystal)
Cd1      0.166666667   0.166666667   0.398302599    0   0   0
Cd1      0.666666667   0.166666667   0.398302599    0   0   0
Cd1      0.166666667   0.666666667   0.398302599    0   0   0
Cd1      0.666666667   0.666666667   0.398302599    0   0   0
Cd1      0.833333333   0.333333333   0.500000000    0   0   0
Cd1      0.333333333   0.333333333   0.500000000    0   0   0
Cd1      0.833333333   0.833333333   0.500000000    0   0   0
Cd1      0.333333333   0.833333333   0.500000000    0   0   0
Cd1     -0.000000166   0.000001255   0.611831711
Cd1      0.508776217  -0.017549938   0.615697363
Cd1     -0.017550535   0.508776063   0.615697084
Cd1      0.508772440   0.508771459   0.615697790
O1       0.333337884   0.333338214   0.672551226
H1       0.333330818   0.333334452   0.711484527
End final coordinates

     Writing output data file calc.save

     General routines

     Parallel routines

   This run was terminated on:  15:43:34  16Apr2018

   JOB DONE.
Job  /afs/slac/g/suncat/bin/suncat-tsmpirun -x LD_LIBRARY_PATH -wdir /scratch/qe131187_YcbMi pw.x -npool 4 -in pw.inp

TID   HOST_NAME   COMMAND_LINE            STATUS            TERMINATION_TIME
00000 suncat0049 pw.x -npool 4 -i  Done                     04/16/2018 15:43:34
00001 suncat0049 pw.x -npool 4 -i  Done                     04/16/2018 15:43:34
00002 suncat0049 pw.x -npool 4 -i  Done                     04/16/2018 15:43:34
00003 suncat0049 pw.x -npool 4 -i  Done                     04/16/2018 15:43:34
00004 suncat0049 pw.x -npool 4 -i  Done                     04/16/2018 15:43:34
00005 suncat0049 pw.x -npool 4 -i  Done                     04/16/2018 15:43:34
00006 suncat0049 pw.x -npool 4 -i  Done                     04/16/2018 15:43:34
00007 suncat0049 pw.x -npool 4 -i  Done                     04/16/2018 15:43:34
00008 suncat0024 pw.x -npool 4 -i  Done                     04/16/2018 15:43:34
00009 suncat0024 pw.x -npool 4 -i  Done                     04/16/2018 15:43:34
00010 suncat0024 pw.x -npool 4 -i  Done                     04/16/2018 15:43:34
00011 suncat0024 pw.x -npool 4 -i  Done                     04/16/2018 15:43:34
00012 suncat0024 pw.x -npool 4 -i  Done                     04/16/2018 15:43:34
00013 suncat0024 pw.x -npool 4 -i  Done                     04/16/2018 15:43:34
00014 suncat0024 pw.x -npool 4 -i  Done                     04/16/2018 15:43:34
00015 suncat0024 pw.x -npool 4 -i  Done                     04/16/2018 15:43:34
00016 suncat0278 pw.x -npool 4 -i  Done                     04/16/2018 15:43:34
00017 suncat0278 pw.x -npool 4 -i  Done                     04/16/2018 15:43:34
00018 suncat0278 pw.x -npool 4 -i  Done                     04/16/2018 15:43:34
00019 suncat0278 pw.x -npool 4 -i  Done                     04/16/2018 15:43:34
00020 suncat0278 pw.x -npool 4 -i  Done                     04/16/2018 15:43:34
00021 suncat0278 pw.x -npool 4 -i  Done                     04/16/2018 15:43:34
00022 suncat0278 pw.x -npool 4 -i  Done                     04/16/2018 15:43:34
00023 suncat0278 pw.x -npool 4 -i  Done                     04/16/2018 15:43:34
00024 suncat0247 pw.x -npool 4 -i  Done                     04/16/2018 15:43:34
00025 suncat0247 pw.x -npool 4 -i  Done                     04/16/2018 15:43:34
00026 suncat0247 pw.x -npool 4 -i  Done                     04/16/2018 15:43:34
00027 suncat0247 pw.x -npool 4 -i  Done                     04/16/2018 15:43:34
00028 suncat0247 pw.x -npool 4 -i  Done                     04/16/2018 15:43:34
00029 suncat0247 pw.x -npool 4 -i  Done                     04/16/2018 15:43:34
00030 suncat0247 pw.x -npool 4 -i  Done                     04/16/2018 15:43:34
00031 suncat0247 pw.x -npool 4 -i  Done                     04/16/2018 15:43:34