     Program PWSCF v.5.1rc2 (svn rev. 11289) starts on 17Jan2018 at  0: 7:31

     Current dimensions of program PWSCF are:
     Max number of different atomic species (ntypx) = 10
     Max number of k-points (npk) =  40000
     Max angular momentum in pseudopotentials (lmaxx) =  3
     Presently stress not available with electric field

     IMPORTANT: XC functional enforced from input :
     Exchange-correlation      = BEEF-VDW ( 1  4 27 13 2)
     Any further DFT definition will be discarded
     Please, verify this is what you really want

     Subspace diagonalization in iterative solution of the eigenvalue problem:
     a serial algorithm will be used

     bravais-lattice index     =            0
     lattice parameter (alat)  =       1.8897  a.u.
     unit-cell volume          =    7171.5276 (a.u.)^3
     number of atoms/cell      =           13
     number of atomic types    =            2
     number of electrons       =       169.00
     number of Kohn-Sham states=           94
     kinetic-energy cutoff     =      36.7493  Ry
     charge density cutoff     =     367.4932  Ry
     convergence threshold     =      1.0E-05
     mixing beta               =       0.3000
     number of iterations used =           10  plain     mixing
     Exchange-correlation      = BEEF-VDW ( 1  4 27 13 2)
     nstep                     =           50

     celldm(1)=   1.889726  celldm(2)=   0.000000  celldm(3)=   0.000000
     celldm(4)=   0.000000  celldm(5)=   0.000000  celldm(6)=   0.000000

     crystal axes: (cart. coord. in units of alat)
               a(1) = (   6.917003   0.000000   0.000000 )
               a(2) = (   3.458501   5.990300   0.000000 )
               a(3) = (   0.000000   0.000000  25.647709 )

     reciprocal axes: (cart. coord. in units 2 pi/alat)
               b(1) = (  0.144571 -0.083468  0.000000 )
               b(2) = (  0.000000  0.166937  0.000000 )
               b(3) = (  0.000000  0.000000  0.038990 )

     PseudoPot. # 1 for Pb read from file:
     /afs/slac.stanford.edu/u/if/mamunm/psp/gbrv1.5pbe/Pb.UPF
     MD5 check sum: 3d1c1779aa92214d1e8f3a7db79003e2
     Pseudo is Ultrasoft + core correction, Zval = 14.0
     Generated by new atomic code, or converted to UPF format
     Using radial grid of  899 points,  6 beta functions with:
                l(1) =   0
                l(2) =   0
                l(3) =   1
                l(4) =   1
                l(5) =   2
                l(6) =   2
     Q(r) pseudized with  6 coefficients,  rinner =    1.000   1.000   1.000
                                                       1.000   1.000

     PseudoPot. # 2 for H  read from file:
     /afs/slac.stanford.edu/u/if/mamunm/psp/gbrv1.5pbe/H.UPF
     MD5 check sum: 761ae9a214b05c3daf00ab9f6b793d6f
     Pseudo is Ultrasoft, Zval =  1.0
     Generated by new atomic code, or converted to UPF format
     Using radial grid of  615 points,  2 beta functions with:
                l(1) =   0
                l(2) =   0
     Q(r) pseudized with  8 coefficients,  rinner =    0.700

     vdW kernel table read from file vdW_kernel_table
     MD5 check sum: 095c7af220d748ca6e76c0b4c6cfb241

     atomic species   valence    mass     pseudopotential
        Pb1           14.00   207.20000     Pb( 1.00)
        H1             1.00     1.00800     H ( 1.00)

     No symmetry found

   Cartesian axes

     site n.     atom                  positions (alat units)
         1           Pb1 tau(   1) = (   1.7292506   0.9983833  10.0000000  )
         2           Pb1 tau(   2) = (   5.1877519   0.9983833  10.0000000  )
         3           Pb1 tau(   3) = (   3.4585013   3.9935333  10.0000000  )
         4           Pb1 tau(   4) = (   6.9170025   3.9935333  10.0000000  )
         5           Pb1 tau(   5) = (   6.9170025   1.9967666  12.8238544  )
         6           Pb1 tau(   6) = (   3.4585013   1.9967666  12.8238544  )
         7           Pb1 tau(   7) = (   8.6462531   4.9919166  12.8238544  )
         8           Pb1 tau(   8) = (   5.1877519   4.9919166  12.8238544  )
         9           Pb1 tau(   9) = (   0.0000000   0.0000000  15.6477089  )
        10           Pb1 tau(  10) = (   3.4585013   0.0000000  15.6477089  )
        11           Pb1 tau(  11) = (   1.7292506   2.9951499  15.6477089  )
        12           Pb1 tau(  12) = (   5.1877519   2.9951499  15.6477089  )
        13           H1  tau(  13) = (   3.4585013   1.9967666  17.4177089  )

     number of k points=    20  Fermi-Dirac smearing, width (Ry)=  0.0110
                       cart. coord. in units 2pi/alat
        k(    1) = (   0.0000000   0.0000000   0.0000000), wk =   0.0555556
        k(    2) = (   0.0000000   0.0278228   0.0000000), wk =   0.1111111
        k(    3) = (   0.0000000   0.0556455   0.0000000), wk =   0.1111111
        k(    4) = (   0.0000000  -0.0834683   0.0000000), wk =   0.0555556
        k(    5) = (   0.0240952  -0.0139114   0.0000000), wk =   0.1111111
        k(    6) = (   0.0240952   0.0139114   0.0000000), wk =   0.1111111
        k(    7) = (   0.0240952   0.0417341   0.0000000), wk =   0.1111111
        k(    8) = (   0.0240952  -0.0973797   0.0000000), wk =   0.1111111
        k(    9) = (   0.0240952  -0.0695569   0.0000000), wk =   0.1111111
        k(   10) = (   0.0240952  -0.0417341   0.0000000), wk =   0.1111111
        k(   11) = (   0.0481904  -0.0278228   0.0000000), wk =   0.1111111
        k(   12) = (   0.0481904   0.0000000   0.0000000), wk =   0.1111111
        k(   13) = (   0.0481904   0.0278228   0.0000000), wk =   0.1111111
        k(   14) = (   0.0481904  -0.1112910   0.0000000), wk =   0.1111111
        k(   15) = (   0.0481904  -0.0834683   0.0000000), wk =   0.1111111
        k(   16) = (   0.0481904  -0.0556455   0.0000000), wk =   0.1111111
        k(   17) = (  -0.0722856   0.0417341   0.0000000), wk =   0.0555556
        k(   18) = (  -0.0722856   0.0695569   0.0000000), wk =   0.1111111
        k(   19) = (  -0.0722856   0.0973797   0.0000000), wk =   0.1111111
        k(   20) = (  -0.0722856  -0.0417341   0.0000000), wk =   0.0555556

     Largest allocated arrays     est. size (Mb)     dimensions
     Largest temporary arrays     est. size (Mb)     dimensions

     Check: negative/imaginary core charge=   -0.000001    0.000000

     Initial potential from superposition of free atoms
     Check: negative starting charge=   -0.198286

     starting charge  168.97177, renormalised to  169.00000

     negative rho (up, down):  1.983E-01 0.000E+00

     *
     * You are using vdW-DF for exchange-correlation in this calculation.
     * Please cite the following three references that made this development
     * possible:
     *
     *   M. Dion, H. Rydberg, E. Schroder, D. C. Langreth, and
     *   B. I. Lundqvist, Phys. Rev. Lett. 92, 246401 (2004).
     *
     *   T. Thonhauser, V. R. Cooper, S. Li, A. Puzder, P. Hyldgaard, and
     *   D. C. Langreth, Phys. Rev. B 76, 125112 (2007).
     *
     *   G. Roman-Perez and J. M. Soler, Phys. Rev. Lett. 103, 096102 (2009).
     *
     *
     * If you are using vdW-DF2, please also cite:
     *
     *   K. Lee, E. D. Murray, L. Kong, B. I. Lundqvist, and
     *   D. C. Langreth, Phys. Rev. B 82, 081101(R) (2010).
     *
     *
     * If you are calculating the stress with vdW-DF, please also cite:
     *
     *   R. Sabatini, E. Kucukbenli, B. Kolb, T. Thonhauser, and
     *   S. de Gironcoli, J. Phys.: Condens. Matter 24, 424209 (2012).
     *

     Carrying out vdW-DF run using the following parameters:

     Nqs =      20    Nr_points =    1024   r_max =   100.000
     q_mesh =
               0.00001000     0.04494208     0.09755937     0.15916263
               0.23128650     0.31572767     0.41458969     0.53033537
               0.66584808     0.82450364     1.01025438     1.22772762
               1.48234092     1.78043706     2.12944203     2.53805004
               3.01644009     3.57652955     4.23227104     5.00000000

     Gradients computed in reciprocal space

     Adding external electric field

     Computed dipole along edir(3) :
        Dipole               -0.0014 Ry au,         -0.0035 Debye
        Dipole field         -0.0000 Ry au

        Potential amp.        0.0002 Ry
        Total length         47.2555 bohr

     Starting wfc are  109 randomized atomic wfcs

     Self-consistent Calculation

     iteration #  1     ecut=    36.75 Ry     beta=0.30
     Davidson diagonalization with overlap
     ethr =  1.00E-02,  avg # of iterations =  2.0

     Threshold (ethr) on eigenvalues was too large:
     Diagonalizing with lowered threshold

     Davidson diagonalization with overlap
     ethr =  1.66E-04,  avg # of iterations =  2.4

[...]

     total energy              =   -1993.25612674 Ry
     Harris-Foulkes estimate   =   -1993.37116030 Ry
     estimated scf accuracy    <       0.29951003 Ry

[...]

     End of self-consistent calculation

          k = 0.0000 0.0000 0.0000 ( 27033 PWs)   bands (ev):

   -16.6259 -16.6259 -16.6249 -16.5845 -16.5829 -16.5829 -16.5418 -16.5392
   -16.5319 -16.5319 -16.5234 -16.4965 -16.4965 -16.4946 -16.4892 -16.4892
   -16.4747 -16.4711 -16.4711 -16.4691 -16.4690 -16.4520 -16.4520 -16.4486
   -16.4428 -16.4406 -16.4350 -16.4350 -16.4281 -16.4281 -16.3698 -16.3634
   -16.3634 -16.3386 -16.3386 -16.3284 -16.3284 -16.3205 -16.3205 -16.3084
   -16.2425 -16.2425 -16.2398 -16.2372 -16.2323 -16.2323 -16.2256 -16.2156
   -16.2156 -16.2071 -16.2071 -16.2046 -16.1978 -16.1978 -16.1813 -16.1813
   -16.1694 -16.1488 -16.1377 -16.1377 -10.5758  -9.4809  -7.9662  -7.0342
    -7.0342  -7.0242  -6.6044  -6.6012  -6.6012  -5.9625  -5.9623  -5.9623
    -2.9790  -2.7408  -2.7408  -2.3903  -1.8510  -1.6861  -1.6861  -1.6696
    -1.5689  -1.5689  -0.2221   1.1759   2.1523   2.1523   2.1736   2.1964
     2.1964   2.7011   3.5682   3.5714   3.5714   3.6663

[...]

          k =-0.0723 0.0417 0.0000 ( 26962 PWs)   bands (ev):

[...]

     the Fermi energy is     1.0116 ev

!    total energy              =   -1993.33044917 Ry
     Harris-Foulkes estimate   =   -1993.33046875 Ry
     estimated scf accuracy    <       0.00000357 Ry

     The total energy is the sum of the following terms:

     one-electron contribution =   -9423.40253417 Ry
     hartree contribution      =    4780.64952140 Ry
     xc contribution           =    -784.52866376 Ry
     ewald contribution        =    3433.99207842 Ry
     electric field correction =       0.00016687 Ry
     smearing contrib. (-TS)   =      -0.04101793 Ry

     convergence has been achieved in   9 iterations

 BEEF-vdW xc energy contributions
           1 :   -699.410796769325
           2 :    649.753340040094
           3 :   -562.278695867319
           4 :    456.114350137135
           5 :   -351.026226650636
           6 :    261.492918626731
           7 :   -193.557587879692
           8 :    145.223315703546
           9 :   -109.710368906261
          10 :    79.7948236323335
          11 :   -51.2133141526306
          12 :    23.8099179041900
          13 :  -0.350774808095480
          14 :   -15.9522297356535
          15 :    23.7093711839740
          16 :   -24.2718423592122
[...]

[...]

   This run was terminated on:   1:58: 0  17Jan2018

[...]

   This run was terminated on:   2: 9: 5  17Jan2018

[...]

     Program PWSCF v.5.1rc2 (svn rev. 11289) starts on 17Jan2018 at  3:49: 6

[...]

   This run was terminated on:   4: 0: 5  17Jan2018

[...]

   This run was terminated on:   6: 2:28  17Jan2018

[...]

     Program PWSCF v.5.1rc2 (svn rev. 11289) starts on 17Jan2018 at  6: 2:34

[...]

   This run was terminated on:   6:35:37  17Jan2018

[...]

     Program PWSCF v.5.1rc2 (svn rev. 11289) starts on 17Jan2018 at  6:35:42

     Current dimensions of program PWSCF are:
     Max number of different atomic species (ntypx) = 10
     Max number of k-points (npk) =  40000
     Max angular momentum in pseudopotentials (lmaxx) =  3
     Presently stress not available with electric field

     IMPORTANT: XC functional enforced from input :
     Exchange-correlation      = BEEF-VDW ( 1  4 27 13 2)
     Any further DFT definition will be discarded
     Please, verify this is what you really want

     Subspace diagonalization in iterative solution of the eigenvalue problem:
     a serial algorithm will be used

     bravais-lattice index     =            0
     lattice parameter (alat)  =       1.8897  a.u.
     unit-cell volume          =    7171.5276 (a.u.)^3
     number of atoms/cell      =           13
     number of atomic types    =            2
     number of electrons       =       169.00
     number of Kohn-Sham states=           94
     kinetic-energy cutoff     =      36.7493  Ry
     charge density cutoff     =     367.4932  Ry
     convergence threshold     =      1.0E-05
     mixing beta               =       0.3000
     number of iterations used =           10  plain     mixing
     Exchange-correlation      = BEEF-VDW ( 1  4 27 13 2)
     nstep                     =           50

     celldm(1)=   1.889726  celldm(2)=   0.000000  celldm(3)=   0.000000
     celldm(4)=   0.000000  celldm(5)=   0.000000  celldm(6)=   0.000000

     crystal axes: (cart. coord. in units of alat)
               a(1) = (   6.917003   0.000000   0.000000 )
               a(2) = (   3.458501   5.990300   0.000000 )
               a(3) = (   0.000000   0.000000  25.647709 )

     reciprocal axes: (cart. coord. in units 2 pi/alat)
               b(1) = (  0.144571 -0.083468  0.000000 )
               b(2) = (  0.000000  0.166937  0.000000 )
               b(3) = (  0.000000  0.000000  0.038990 )

     PseudoPot. # 1 for Pb read from file:
     /afs/slac.stanford.edu/u/if/mamunm/psp/gbrv1.5pbe/Pb.UPF
     MD5 check sum: 3d1c1779aa92214d1e8f3a7db79003e2
     Pseudo is Ultrasoft + core correction, Zval = 14.0
     Generated by new atomic code, or converted to UPF format
     Using radial grid of  899 points,  6 beta functions with:
                l(1) =   0
                l(2) =   0
                l(3) =   1
                l(4) =   1
                l(5) =   2
                l(6) =   2
     Q(r) pseudized with  6 coefficients,  rinner =    1.000   1.000   1.000
                                                       1.000   1.000

     PseudoPot. # 2 for H  read from file:
     /afs/slac.stanford.edu/u/if/mamunm/psp/gbrv1.5pbe/H.UPF
     MD5 check sum: 761ae9a214b05c3daf00ab9f6b793d6f
     Pseudo is Ultrasoft, Zval =  1.0
     Generated by new atomic code, or converted to UPF format
     Using radial grid of  615 points,  2 beta functions with:
                l(1) =   0
                l(2) =   0
     Q(r) pseudized with  8 coefficients,  rinner =    0.700

     vdW kernel table read from file vdW_kernel_table
     MD5 check sum: 095c7af220d748ca6e76c0b4c6cfb241

     atomic species   valence    mass     pseudopotential
        Pb1           14.00   207.20000     Pb( 1.00)
        H1             1.00     1.00800     H ( 1.00)

     No symmetry found

   Cartesian axes

     site n.     atom                  positions (alat units)
         1           Pb1 tau(   1) = (   1.7292506   0.9983833  10.0000000  )
         2           Pb1 tau(   2) = (   5.1877519   0.9983833  10.0000000  )
         3           Pb1 tau(   3) = (   3.4585013   3.9935333  10.0000000  )
         4           Pb1 tau(   4) = (   6.9170025   3.9935333  10.0000000  )
         5           Pb1 tau(   5) = (   6.9170025   1.9967666  12.8238544  )
         6           Pb1 tau(   6) = (   3.4585013   1.9967666  12.8238544  )
         7           Pb1 tau(   7) = (   8.6462531   4.9919166  12.8238544  )
         8           Pb1 tau(   8) = (   5.1877519   4.9919166  12.8238544  )
         9           Pb1 tau(   9) = (   6.9169685   0.0003738  15.7509718  )
        10           Pb1 tau(  10) = (   3.4583018   0.0236829  15.9199884  )
        11           Pb1 tau(  11) = (   1.7494386   2.9836396  15.9194376  )
        12           Pb1 tau(  12) = (   5.1673961   2.9834262  15.9208400  )
        13           H1  tau(  13) = (   3.4586552   1.9968363  17.1122505  )

     number of k points=    20  Fermi-Dirac smearing, width (Ry)=  0.0110
                       cart. coord. in units 2pi/alat
        k(    1) = (   0.0000000   0.0000000   0.0000000), wk =   0.0555556
        k(    2) = (   0.0000000   0.0278228   0.0000000), wk =   0.1111111
        k(    3) = (   0.0000000   0.0556455   0.0000000), wk =   0.1111111
        k(    4) = (   0.0000000  -0.0834683   0.0000000), wk =   0.0555556
        k(    5) = (   0.0240952  -0.0139114   0.0000000), wk =   0.1111111
        k(    6) = (   0.0240952   0.0139114   0.0000000), wk =   0.1111111
        k(    7) = (   0.0240952   0.0417341   0.0000000), wk =   0.1111111
        k(    8) = (   0.0240952  -0.0973797   0.0000000), wk =   0.1111111
        k(    9) = (   0.0240952  -0.0695569   0.0000000), wk =   0.1111111
        k(   10) = (   0.0240952  -0.0417341   0.0000000), wk =   0.1111111
        k(   11) = (   0.0481904  -0.0278228   0.0000000), wk =   0.1111111
        k(   12) = (   0.0481904   0.0000000   0.0000000), wk =   0.1111111
        k(   13) = (   0.0481904   0.0278228   0.0000000), wk =   0.1111111
        k(   14) = (   0.0481904  -0.1112910   0.0000000), wk =   0.1111111
        k(   15) = (   0.0481904  -0.0834683   0.0000000), wk =   0.1111111
        k(   16) = (   0.0481904  -0.0556455   0.0000000), wk =   0.1111111
        k(   17) = (  -0.0722856   0.0417341   0.0000000), wk =   0.0555556
        k(   18) = (  -0.0722856   0.0695569   0.0000000), wk =   0.1111111
        k(   19) = (  -0.0722856   0.0973797   0.0000000), wk =   0.1111111
        k(   20) = (  -0.0722856  -0.0417341   0.0000000), wk =   0.0555556

     Largest allocated arrays     est. size (Mb)     dimensions
     Largest temporary arrays     est. size (Mb)     dimensions

     Check: negative/imaginary core charge=   -0.000001    0.000000

     Initial potential from superposition of free atoms
     Check: negative starting charge=   -0.197184

     starting charge  168.97177, renormalised to  169.00000

[...]

     *
     * You are using vdW-DF for exchange-correlation in this calculation.
     * Please cite the following three references that made this development
     * possible:
     *
     *   M. Dion, H. Rydberg, E. Schroder, D. C. Langreth, and
     *   B. I. Lundqvist, Phys. Rev. Lett. 92, 246401 (2004).
     *
     *   T. Thonhauser, V. R. Cooper, S. Li, A. Puzder, P. Hyldgaard, and
     *   D. C. Langreth, Phys. Rev. B 76, 125112 (2007).
     *
     *   G. Roman-Perez and J. M. Soler, Phys. Rev. Lett. 103, 096102 (2009).
     *
     *
     * If you are using vdW-DF2, please also cite:
     *
     *   K. Lee, E. D. Murray, L. Kong, B. I. Lundqvist, and
     *   D. C. Langreth, Phys. Rev. B 82, 081101(R) (2010).
     *
     *
     * If you are calculating the stress with vdW-DF, please also cite:
     *
     *   R. Sabatini, E. Kucukbenli, B. Kolb, T. Thonhauser, and
     *   S. de Gironcoli, J. Phys.: Condens. Matter 24, 424209 (2012).
     *

     Carrying out vdW-DF run using the following parameters:

     Nqs =      20    Nr_points =    1024   r_max =   100.000
     q_mesh =
               0.00001000     0.04494208     0.09755937     0.15916263
               0.23128650     0.31572767     0.41458969     0.53033537
               0.66584808     0.82450364     1.01025438     1.22772762
               1.48234092     1.78043706     2.12944203     2.53805004
               3.01644009     3.57652955     4.23227104     5.00000000

     Gradients computed in reciprocal space

[...]

     Starting wfc are  109 randomized atomic wfcs

     Self-consistent Calculation

[...]

     Threshold (ethr) on eigenvalues was too large:
     Diagonalizing with lowered threshold

     Davidson diagonalization with overlap
     ethr =  1.01E-04,  avg # of iterations =  3.5

[...]

     total energy              =   -1993.35754730 Ry
     Harris-Foulkes estimate   =   -1993.35756608 Ry
     estimated scf accuracy    <       0.00001181 Ry

     iteration #  9     ecut=    36.75 Ry     beta=0.30
     Davidson diagonalization with overlap
     ethr =  6.99E-09,  avg # of iterations =  5.0

[...]

     negative rho (up, down):  2.132E-01 0.000E+00

     Adding external electric field

     Computed dipole along edir(3) :
        Dipole               -0.0802 Ry au,         -0.2039 Debye
        Dipole field         -0.0001 Ry au

        Potential amp.        0.0133 Ry
        Total length         47.2555 bohr

     End of self-consistent calculation

[...]

          k = 0.0482-0.0556 0.0000 ( 26956 PWs)   bands (ev):

[...]

          k =-0.0723-0.0417 0.0000 ( 26962 PWs)   bands (ev):

   -16.4326 -16.3937 -16.3815 -16.3804 -16.3541 -16.3485 -16.3406 -16.3242
   -16.3220 -16.3178 -16.3135 -16.3113 -16.3074 -16.3023 -16.2956 -16.2955
   -16.2913 -16.2913 -16.2893 -16.2836 -16.2755 -16.2663 -16.2661 -16.2608
   -16.2561 -16.2500 -16.2485 -16.2425 -16.2397 -16.2331 -16.2306 -16.2285
   -16.2214 -16.2088 -16.2013 -16.1925 -16.1876 -16.1850 -16.1793 -16.1767
   -16.1669 -16.1568 -16.1560 -16.1413 -16.1355 -16.1306 -16.1264 -16.1192
   -16.1175 -16.1036 -16.1035 -16.0997 -16.0992 -16.0806 -16.0751 -16.0661
   -16.0584 -16.0508 -16.0158 -16.0007  -9.2001  -9.1581  -8.4379  -8.1963
    -7.2501  -7.1910  -7.1043  -7.0184  -6.5280  -6.4997  -5.7772  -5.7542
    -2.2285  -0.9417  -0.8326  -0.8172  -0.7927  -0.6653  -0.3736  -0.0679
     0.2915   0.6599   0.6775   0.9246   1.2432   1.7448   1.8538   1.8676
     2.0761   2.1327   2.2989   2.3699   2.4928   2.5605

     the Fermi energy is     1.1530 ev

!    total energy              =   -1993.35753584 Ry
     Harris-Foulkes estimate   =   -1993.35756821 Ry
     estimated scf accuracy    <       0.00000430 Ry

     The total energy is the sum of the following terms:

     one-electron contribution =   -9133.65842873 Ry
     hartree contribution      =    4636.52029608 Ry
     xc contribution           =    -784.45284789 Ry
     ewald contribution        =    3288.27319063 Ry
     electric field correction =       0.00001128 Ry
     smearing contrib. (-TS)   =      -0.03975720 Ry

     convergence has been achieved in   9 iterations

 BEEF-vdW xc energy contributions
           1 :   -699.331134073264
           2 :    649.608327640456
           3 :   -562.039374996636
           4 :    455.820522271602
           5 :   -350.775690108209
           6 :    261.379671487503
           7 :   -193.603945466020
           8 :    145.355442043687
           9 :   -109.797163443457
          10 :    79.7278375632546
          11 :   -50.9776731026300
          12 :    23.5007725914242
          13 :  -0.122315008563874
          14 :   -15.9772558771485
          15 :    23.5162104339133
          16 :   -23.9689997895742
          17 :    20.7847799430115
          18 :   -17.6130458346825
          19 :    16.6122281474126
          20 :   -17.7401034552111
          21 :    19.2938035799177
          22 :   -19.2661064997369
          23 :    16.6823087866138
          24 :   -12.1789053184939
          25 :    7.57613485759271
          26 :   -4.78250598290515
          27 :    4.71024872377620
          28 :   -6.81667095755540
          29 :    9.48576953331246
          30 :   -10.9821350836019
          31 :   -55.8816501018462
          32 :   -40.9537975782455

     Forces acting on atoms (Ry/au):

     negative rho (up, down):  2.132E-01 0.000E+00
     atom    1 type  1   force =     0.00105649    0.00056984   -0.00989408
     atom    2 type  1   force =    -0.00104433    0.00059907   -0.00988379
     atom    3 type  1   force =     0.00000681   -0.00120742   -0.00986389
     atom    4 type  1   force =     0.00000105    0.00004586   -0.00685073
     atom    5 type  1   force =    -0.00002155    0.00051451    0.00679115
     atom    6 type  1   force =     0.00000152   -0.00001347    0.01311854
     atom    7 type  1   force =    -0.00045121   -0.00026400    0.00678888
     atom    8 type  1   force =     0.00045502   -0.00027090    0.00679349
     atom    9 type  1   force =    -0.00000246    0.00000406    0.00044398
     atom   10 type  1   force =    -0.00001527    0.00004418    0.00069800
     atom   11 type  1   force =     0.00003370   -0.00000436    0.00066098
     atom   12 type  1   force =    -0.00002910   -0.00002273    0.00071488
     atom   13 type  2   force =     0.00000933    0.00000537    0.00048258

     Total force =     0.025638     Total SCF correction =     0.013334
     SCF correction compared to forces is large: reduce conv_thr to get better values

     entering subroutine stress ...

     negative rho (up, down):  2.132E-01 0.000E+00
          total   stress  (Ry/bohr**3)                   (kbar)     P=    7.72
   0.00006826   0.00000001   0.00000001         10.04      0.00      0.00
   0.00000001   0.00006826  -0.00000000          0.00     10.04     -0.00
   0.00000001  -0.00000000   0.00002097          0.00     -0.00      3.09

 !ASE

     Writing output data file calc.save

     General routines

     Parallel routines

   This run was terminated on:   6:47: 8  17Jan2018

   JOB DONE.
Job  /afs/slac/g/suncat/bin/suncat-tsmpirun -x LD_LIBRARY_PATH -wdir /scratch/qe842467_SedKh pw.x -in pw.inp

TID   HOST_NAME   COMMAND_LINE            STATUS            TERMINATION_TIME
00000 suncat0100 pw.x -in pw.inp   Done                     01/17/2018 06:47:08
00001 suncat0100 pw.x -in pw.inp   Done                     01/17/2018 06:47:08
00002 suncat0100 pw.x -in pw.inp   Done                     01/17/2018 06:47:08
00003 suncat0100 pw.x -in pw.inp   Done                     01/17/2018 06:47:08
00004 suncat0100 pw.x -in pw.inp   Done                     01/17/2018 06:47:08
00005 suncat0100 pw.x -in pw.inp   Done                     01/17/2018 06:47:08
00006 suncat0100 pw.x -in pw.inp   Done                     01/17/2018 06:47:08
00007 suncat0100 pw.x -in pw.inp   Done                     01/17/2018 06:47:08
00008 suncat0283 pw.x -in pw.inp   Done                     01/17/2018 06:47:08
00009 suncat0283 pw.x -in pw.inp   Done                     01/17/2018 06:47:08
00010 suncat0283 pw.x -in pw.inp   Done                     01/17/2018 06:47:08
00011 suncat0283 pw.x -in pw.inp   Done                     01/17/2018 06:47:08
00012 suncat0283 pw.x -in pw.inp   Done                     01/17/2018 06:47:08
00013 suncat0283 pw.x -in pw.inp   Done                     01/17/2018 06:47:08
00014 suncat0283 pw.x -in pw.inp   Done                     01/17/2018 06:47:08
00015 suncat0283 pw.x -in pw.inp   Done                     01/17/2018 06:47:08
00016 suncat0282 pw.x -in pw.inp   Done                     01/17/2018 06:47:08
00017 suncat0282 pw.x -in pw.inp   Done                     01/17/2018 06:47:08
00018 suncat0282 pw.x -in pw.inp   Done                     01/17/2018 06:47:08
00019 suncat0282 pw.x -in pw.inp   Done                     01/17/2018 06:47:08
00020 suncat0282 pw.x -in pw.inp   Done                     01/17/2018 06:47:08
00021 suncat0282 pw.x -in pw.inp   Done                     01/17/2018 06:47:08
00022 suncat0282 pw.x -in pw.inp   Done                     01/17/2018 06:47:08
00023 suncat0282 pw.x -in pw.inp   Done                     01/17/2018 06:47:08
00024 suncat0214 pw.x -in pw.inp   Done                     01/17/2018 06:47:08
00025 suncat0214 pw.x -in pw.inp   Done                     01/17/2018 06:47:08
00026 suncat0214 pw.x -in pw.inp   Done                     01/17/2018 06:47:08
00027 suncat0214 pw.x -in pw.inp   Done                     01/17/2018 06:47:08
00028 suncat0214 pw.x -in pw.inp   Done                     01/17/2018 06:47:08
00029 suncat0214 pw.x -in pw.inp   Done                     01/17/2018 06:47:08
00030 suncat0214 pw.x -in pw.inp   Done                     01/17/2018 06:47:08
00031 suncat0214 pw.x -in pw.inp   Done                     01/17/2018 06:47:08