     Program PWSCF v.5.1rc2 (svn rev. 11289) starts on  2May2018 at 14:26:34

     Current dimensions of program PWSCF are:
     Max number of different atomic species (ntypx) = 10
     Max number of k-points (npk) =  40000
     Max angular momentum in pseudopotentials (lmaxx) =  3
     Presently stress not available with electric field

     IMPORTANT: XC functional enforced from input :
     Exchange-correlation      = BEEF-VDW ( 1  4 27 13 2)
     Any further DFT definition will be discarded
     Please, verify this is what you really want

     Subspace diagonalization in iterative solution of the eigenvalue problem:
     a serial algorithm will be used

     bravais-lattice index     =            0
     lattice parameter (alat)  =       1.8897  a.u.
     unit-cell volume          =    6116.8020 (a.u.)^3
     number of atoms/cell      =           13
     number of atomic types    =            2
     number of electrons       =       136.00
     number of Kohn-Sham states=           78
     kinetic-energy cutoff     =      36.7493  Ry
     charge density cutoff     =     367.4932  Ry
     convergence threshold     =      1.0E-05
     mixing beta               =       0.3000
     number of iterations used =           10  plain     mixing
     Exchange-correlation      = BEEF-VDW ( 1  4 27 13 2)
     nstep                     =           50

     celldm(1)=   1.889726  celldm(2)=   0.000000  celldm(3)=   0.000000
     celldm(4)=   0.000000  celldm(5)=   0.000000  celldm(6)=   0.000000

     crystal axes: (cart. coord. in units of alat)
               a(1) = (   6.437465   0.000000   0.000000 )
               a(2) = (   3.218732   5.575008   0.000000 )
               a(3) = (   0.000000   0.000000  25.256168 )

     reciprocal axes: (cart. coord. in units 2 pi/alat)
               b(1) = (  0.155341 -0.089686  0.000000 )
               b(2) = (  0.000000  0.179372  0.000000 )
               b(3) = (  0.000000  0.000000  0.039594 )

     PseudoPot. # 1 for Sc read from file:
     /u/if/mamunm/psp/gbrv1.5pbe/Sc.UPF
     MD5 check sum: db30a2753ba66ef00f23801d899b7e7f
     Pseudo is Ultrasoft + core correction, Zval = 11.0
     Generated by new atomic code, or converted to UPF format
     Using radial grid of  849 points,  6 beta functions with:
                l(1) =   0
                l(2) =   0
                l(3) =   1
                l(4) =   1
                l(5) =   2
                l(6) =   2
     Q(r) pseudized with  6 coefficients,  rinner =    1.200   1.200   1.200
                                                       1.200   1.200

     PseudoPot. # 2 for C  read from file:
     /u/if/mamunm/psp/gbrv1.5pbe/C.UPF
     MD5 check sum: d1aef80898a10debaa0f26306b886e00
     Pseudo is Ultrasoft + core correction, Zval =  4.0
     Generated by new atomic code, or converted to UPF format
     Using radial grid of  721 points,  4 beta functions with:
                l(1) =   0
                l(2) =   0
                l(3) =   1
                l(4) =   1
     Q(r) pseudized with  8 coefficients,  rinner =    1.100   1.100   1.100

     vdW kernel table read from file vdW_kernel_table
     MD5 check sum: 095c7af220d748ca6e76c0b4c6cfb241

     atomic species   valence    mass     pseudopotential
        Sc1           11.00    44.95591     Sc( 1.00)
        C1             4.00    12.01100     C ( 1.00)

     No symmetry found

   Cartesian axes

     site n.     atom                  positions (alat units)
         1           Sc1 tau(   1) = (   1.6093662   0.9291680  10.0000000  )
         2           Sc1 tau(   2) = (   4.8280986   0.9291680  10.0000000  )
         3           Sc1 tau(   3) = (   3.2187324   3.7166720  10.0000000  )
         4           Sc1 tau(   4) = (   6.4374648   3.7166720  10.0000000  )
         5           Sc1 tau(   5) = (   6.4374648   1.8583360  12.6280840  )
         6           Sc1 tau(   6) = (   3.2187324   1.8583360  12.6280840  )
         7           Sc1 tau(   7) = (   8.0468310   4.6458400  12.6280840  )
         8           Sc1 tau(   8) = (   4.8280986   4.6458400  12.6280840  )
         9           Sc1 tau(   9) = (   0.0000000   0.0000000  15.2561680  )
        10           Sc1 tau(  10) = (   3.2187324   0.0000000  15.2561680  )
        11           Sc1 tau(  11) = (   1.6093662   2.7875040  15.2561680  )
        12           Sc1 tau(  12) = (   4.8280986   2.7875040  15.2561680  )
        13           C1  tau(  13) = (   1.6093662   0.9291680  16.8551680  )

     number of k points=    20  Fermi-Dirac smearing, width (Ry)=  0.0110
                       cart. coord. in units 2pi/alat
        k(    1) = (   0.0000000   0.0000000   0.0000000), wk =   0.0555556
        k(    2) = (   0.0000000   0.0298953   0.0000000), wk =   0.1111111
        k(    3) = (   0.0000000   0.0597906   0.0000000), wk =   0.1111111
        k(    4) = (   0.0000000  -0.0896860   0.0000000), wk =   0.0555556
        k(    5) = (   0.0258901  -0.0149477   0.0000000), wk =   0.1111111
        k(    6) = (   0.0258901   0.0149477   0.0000000), wk =   0.1111111
        k(    7) = (   0.0258901   0.0448430   0.0000000), wk =   0.1111111
        k(    8) = (   0.0258901  -0.1046336   0.0000000), wk =   0.1111111
        k(    9) = (   0.0258901  -0.0747383   0.0000000), wk =   0.1111111
        k(   10) = (   0.0258901  -0.0448430   0.0000000), wk =   0.1111111
        k(   11) = (   0.0517802  -0.0298953   0.0000000), wk =   0.1111111
        k(   12) = (   0.0517802   0.0000000   0.0000000), wk =   0.1111111
        k(   13) = (   0.0517802   0.0298953   0.0000000), wk =   0.1111111
        k(   14) = (   0.0517802  -0.1195813   0.0000000), wk =   0.1111111
        k(   15) = (   0.0517802  -0.0896860   0.0000000), wk =   0.1111111
        k(   16) = (   0.0517802  -0.0597906   0.0000000), wk =   0.1111111
        k(   17) = (  -0.0776703   0.0448430   0.0000000), wk =   0.0555556
        k(   18) = (  -0.0776703   0.0747383   0.0000000), wk =   0.1111111
        k(   19) = (  -0.0776703   0.1046336   0.0000000), wk =   0.1111111
        k(   20) = (  -0.0776703  -0.0448430   0.0000000), wk =   0.0555556

     Largest allocated arrays     est. size (Mb)     dimensions
     Largest temporary arrays     est. size (Mb)     dimensions

     Initial potential from superposition of free atoms
     Check: negative starting charge=   -0.000291

     starting charge  135.97113, renormalised to  136.00000

     negative rho (up, down):  2.914E-04 0.000E+00

     *
     * You are using vdW-DF for exchange-correlation in this calculation.
     * Please cite the following three references that made this development
     * possible:
     *
     *   M. Dion, H. Rydberg, E. Schroder, D. C. Langreth, and
     *   B. I. Lundqvist, Phys. Rev. Lett. 92, 246401 (2004).
     *
     *   T. Thonhauser, V. R. Cooper, S. Li, A. Puzder, P. Hyldgaard, and
     *   D. C. Langreth, Phys. Rev. B 76, 125112 (2007).
     *
     *   G. Roman-Perez and J. M. Soler, Phys. Rev. Lett. 103, 096102 (2009).
     *
     *
     * If you are using vdW-DF2, please also cite:
     *
     *   K. Lee, E. D. Murray, L. Kong, B. I. Lundqvist, and
     *   D. C. Langreth, Phys. Rev. B 82, 081101(R) (2010).
     *
     *
     * If you are calculating the stress with vdW-DF, please also cite:
     *
     *   R. Sabatini, E. Kucukbenli, B. Kolb, T. Thonhauser, and
     *   S. de Gironcoli, J. Phys.: Condens. Matter 24, 424209 (2012).
     *

     Carrying out vdW-DF run using the following parameters:

     Nqs =      20    Nr_points =    1024   r_max =   100.000
     q_mesh =
               0.00001000     0.04494208     0.09755937     0.15916263
               0.23128650     0.31572767     0.41458969     0.53033537
               0.66584808     0.82450364     1.01025438     1.22772762
               1.48234092     1.78043706     2.12944203     2.53805004
               3.01644009     3.57652955     4.23227104     5.00000000

     Gradients computed in reciprocal space

     Adding external electric field

     Computed dipole along edir(3) :
        Dipole               -0.0065 Ry au,         -0.0164 Debye
        Dipole field         -0.0000 Ry au

        Potential amp.        0.0012 Ry
        Total length         46.5341 bohr

     Starting wfc are  160 randomized atomic wfcs

     Self-consistent Calculation

     iteration #  1     ecut=    36.75 Ry     beta=0.30
     Davidson diagonalization with overlap
     ethr =  1.00E-02,  avg # of iterations =  2.0

[...]

     total energy              =   -1145.70381339 Ry
     Harris-Foulkes estimate   =   -1149.50327038 Ry
     estimated scf accuracy    <       8.16653448 Ry

[...]

     End of self-consistent calculation

          k = 0.0000 0.0000 0.0000 ( 23031 PWs)   bands (ev):

   -50.0043 -49.9548 -49.9103 -49.9085 -49.9076 -49.6696 -49.6354 -49.6348
   -49.5278 -49.4735 -49.4481 -49.4477 -28.7106 -28.6679 -28.6678 -28.6673
   -28.6344 -28.6183 -28.6182 -28.5776 -28.5770 -28.5764 -28.4452 -28.4087
   -28.4083 -28.4064 -28.3375 -28.3371 -28.3292 -28.3292 -28.2740 -28.2711
   -28.2709 -28.2111 -28.2047 -28.2046 -28.1959 -28.0763 -28.0410 -28.0357
   -28.0355 -28.0166 -28.0163 -27.9898 -27.9896 -27.9795 -27.9100 -27.9100
    -8.1021  -4.6804  -3.4703  -2.1890  -1.5369  -1.5369  -1.4886  -1.4679
    -1.4679  -1.3855  -1.2174  -1.2173  -1.1605  -0.6084  -0.5570  -0.5570
    -0.3361  -0.3360  -0.3233  -0.0875  -0.0874   0.0844   0.2072   0.5156
     0.6271   0.6357   0.6358   0.9968   1.0293   1.0294

[...]

          k =-0.0777 0.0448 0.0000 ( 23032 PWs)   bands (ev):

[...]

     the Fermi energy is    -0.0042 ev

!    total energy              =   -1149.04125248 Ry
     Harris-Foulkes estimate   =   -1149.04126070 Ry
     estimated scf accuracy    <       0.00000296 Ry

     The total energy is the sum of the following terms:

     one-electron contribution =   -7299.90156627 Ry
     hartree contribution      =    3631.68461169 Ry
     xc contribution           =    -169.79269062 Ry
     ewald contribution        =    2689.10798016 Ry
     electric field correction =       0.00065211 Ry
     smearing contrib. (-TS)   =      -0.14023955 Ry

     convergence has been achieved in  18 iterations

 BEEF-vdW xc energy contributions
           1 :   -143.873032800577
           2 :    126.634707838190
           3 :   -99.7623662670992
           4 :    73.6404240917161
           5 :   -55.5685933725622
           6 :    46.8104805891453
           7 :   -43.8465833468758
           8 :    42.0704930312582
           9 :   -38.9502368194171
          10 :    34.7710090520442
          11 :   -31.1957307905558
          12 :    29.2994333701892
          13 :   -28.6745807726893
          14 :    28.0287443457741
          15 :   -26.4579901603302
          16 :    24.1855980878775
          17 :   -22.1994309309471
          18 :    21.2498074698298
          19 :   -21.1783086026161
          20 :    21.1375592808947
          21 :   -20.4046022072922
          22 :    18.9983879603299
          23 :   -17.5783091310937
          24 :    16.7918206613517
          25 :   -16.7041962449169
          26 :    16.8007574976390
          27 :   -16.4991182004619
          28 :    15.6672828959394
          29 :   -14.6895809606160
          30 :    14.0658516826638
          31 :   -17.0307727312877
          32 :   -12.2160982197130

     Forces acting on atoms (Ry/au):

     negative rho (up, down):  1.621E-04 0.000E+00
     atom    1 type  1   force =    -0.00001133    0.00002790    0.00240192
     atom    2 type  1   force =     0.00001001   -0.00083906    0.00268255
     atom    3 type  1   force =    -0.00075216    0.00040597    0.00268924
     atom    4 type  1   force =     0.00075275    0.00039807    0.00273346
     atom    5 type  1   force =    -0.00390418    0.00209228   -0.00329377
     atom    6 type  1   force =     0.00391165    0.00225673   -0.00342132
     atom    7 type  1   force =     0.00014317    0.00008418   -0.00902727
     atom    8 type  1   force =    -0.00014262   -0.00442076   -0.00329758
     atom    9 type  1   force =     0.05498677    0.03177850    0.04132685
     atom   10 type  1   force =    -0.05502141    0.03180284    0.04137040
     atom   11 type  1   force =     0.00000324   -0.06354887    0.04135322
     atom   12 type  1   force =     0.00000569   -0.00003670    0.01305118
     atom   13 type  2   force =     0.00001842   -0.00000107   -0.12856887

     Total force =     0.184229     Total SCF correction =     0.001304

     entering subroutine stress ...

     negative rho (up, down):  1.621E-04 0.000E+00
          total   stress  (Ry/bohr**3)                   (kbar)     P=   -3.85
  -0.00000410   0.00000001   0.00000001         -0.60      0.00      0.00
   0.00000001  -0.00000411  -0.00000000          0.00     -0.60     -0.00
   0.00000001  -0.00000000  -0.00007032          0.00     -0.00    -10.34

     BFGS Geometry Optimization

     number of scf cycles    =   1
     number of bfgs steps    =   0

     energy   new            =   -1149.0412524824 Ry

     new trust radius        =       0.1285688746 bohr
     new conv_thr            =       0.0000099958 Ry

ATOMIC_POSITIONS (crystal)
Sc1      0.166666667   0.166666667   0.395942884    0   0   0
Sc1      0.666666667   0.166666667   0.395942884    0   0   0
Sc1      0.166666667   0.666666667   0.395942884    0   0   0
Sc1      0.666666667   0.666666667   0.395942884    0   0   0
Sc1      0.833333333   0.333333333   0.500000000    0   0   0
Sc1      0.333333333   0.333333333   0.500000000    0   0   0
Sc1      0.833333333   0.833333333   0.500000000    0   0   0
Sc1      0.333333333   0.833333333   0.500000000    0   0   0
Sc1      0.003011863   0.003016400   0.604923012
Sc1      0.493967734   0.003018711   0.604923925
Sc1      0.003016281   0.493967971   0.604923565
Sc1      0.500002209   0.499996517   0.604330569
C1       0.166668232   0.166666565   0.664674557

     Writing output data file calc.save
     Check: negative starting charge=   -0.000291
     NEW-OLD atomic charge density approx. for the potential
     Check: negative starting charge=   -0.000291

[...]

     energy   old            =   -1149.0412524824 Ry
     energy   new            =   -1149.0738531039 Ry

     CASE: energy  _new < energy  _old

     WARNING: bfgs curvature condition failed, Theta= 0.878
     new trust radius        =       0.1414257620 bohr
     new conv_thr            =       0.0000001000 Ry

[...]

     WARNING: bfgs curvature condition failed, Theta= 0.937
     new trust radius        =       0.0233837929 bohr
     new conv_thr            =       0.0000001000 Ry

[...]

     Total force =     0.004788     Total SCF correction =     0.000117

[...]

     number of scf cycles    =  11
     number of bfgs steps    =  10

     energy   old            =   -1149.1474040961 Ry
     energy   new            =   -1149.1481567622 Ry

     CASE: energy  _new < energy  _old

     new trust radius        =       0.0405416923 bohr
     new conv_thr            =       0.0000001000 Ry

ATOMIC_POSITIONS (crystal)
Sc1      0.166666667   0.166666667   0.395942884    0   0   0
Sc1      0.666666667   0.166666667   0.395942884    0   0   0
Sc1      0.166666667   0.666666667   0.395942884    0   0   0
Sc1      0.666666667   0.666666667   0.395942884    0   0   0
Sc1      0.833333333   0.333333333   0.500000000    0   0   0
Sc1      0.333333333   0.333333333   0.500000000    0   0   0
Sc1      0.833333333   0.833333333   0.500000000    0   0   0
Sc1      0.333333333   0.833333333   0.500000000    0   0   0
Sc1      0.005535170   0.005533145   0.609157910
Sc1      0.488923545   0.005517569   0.609156490
Sc1      0.005518349   0.488924241   0.609156269
Sc1      0.499997005   0.499997204   0.606765286
C1       0.166661787   0.166664087   0.648493793

     Writing output data file calc.save
     Check: negative starting charge=   -0.000296
     NEW-OLD atomic charge density approx. for the potential
     Check: negative starting charge=   -0.000297

[...]

     Self-consistent Calculation

[...]

     total energy              =   -1149.14827660 Ry
     Harris-Foulkes estimate   =   -1149.14827667 Ry
     estimated scf accuracy    <       0.00000025 Ry

     iteration # 13     ecut=    36.75 Ry     beta=0.30
     Davidson diagonalization with overlap
     ethr =  1.85E-10,  avg # of iterations =  2.4

[...]

     negative rho (up, down):  1.736E-04 0.000E+00

     Adding external electric field

     Computed dipole along edir(3) :
        Dipole               -0.3015 Ry au,         -0.7664 Debye
        Dipole field         -0.0006 Ry au

        Potential amp.        0.0577 Ry
        Total length         46.5341 bohr

     End of self-consistent calculation

[...]

          k = 0.0518-0.0598 0.0000 ( 23012 PWs)   bands (ev):

[...]

          k =-0.0777-0.0448 0.0000 ( 23032 PWs)   bands (ev):

   -49.7781 -49.6692 -49.6626 -49.6438 -49.6395 -49.3618 -49.2798 -49.2669
   -49.2570 -49.1339 -49.1133 -49.1038 -28.4892 -28.3476 -28.3425 -28.3388
   -28.3386 -28.3358 -28.3203 -28.3084 -28.3043 -28.2401 -28.2343 -28.2127
   -28.2077 -28.1055 -28.1015 -28.0191 -27.9836 -27.9721 -27.9449 -27.9359
   -27.8920 -27.8772 -27.8760 -27.8529 -27.8475 -27.8218 -27.8030 -27.7988
   -27.7902 -27.7793 -27.7685 -27.7487 -27.7352 -27.6941 -27.5583 -27.4878
    -8.0560  -3.2159  -3.0925  -2.3440  -1.9824  -1.4311  -1.3611  -1.1784
    -1.0711  -0.9503  -0.8212  -0.5771  -0.4186  -0.3721   0.0186   0.0199
     0.1231   0.1340   0.1580   0.2011   0.3410   0.3480   0.4371   0.4756
     0.5300   0.5410   0.7419   0.7979   0.8064   0.8773

     the Fermi energy is     0.2512 ev

!    total energy              =   -1149.14827655 Ry
     Harris-Foulkes estimate   =   -1149.14827612 Ry
     estimated scf accuracy    <       0.00000007 Ry

     The total energy is the sum of the following terms:

     one-electron contribution =   -7260.23181928 Ry
     hartree contribution      =    3613.25813510 Ry
     xc contribution           =    -170.11484996 Ry
     ewald contribution        =    2668.07612077 Ry
     electric field correction =       0.00018677 Ry
     smearing contrib. (-TS)   =      -0.13604995 Ry

     convergence has been achieved in  13 iterations

 BEEF-vdW xc energy contributions
           1 :   -144.187603339668
           2 :    126.990634155844
           3 :   -100.164560700085
           4 :    74.0441013472624
           5 :   -55.8814882612623
           6 :    46.9219783194143
           7 :   -43.6935396798881
           8 :    41.6973020042310
           9 :   -38.5007426059339
          10 :    34.3994778135838
          11 :   -30.9601703167752
          12 :    29.1276844212398
          13 :   -28.4381793208634
          14 :    27.6662846670898
          15 :   -26.0405605370614
          16 :    23.8613418965444
          17 :   -22.0625258947277
          18 :    21.2517466097585
          19 :   -21.1629670936160
          20 :    20.9695893538391
          21 :   -20.0763170971658
          22 :    18.6204712943069
          23 :   -17.2680141626361
          24 :    16.5662636603033
          25 :   -16.4761864692634
          26 :    16.4737733614135
          27 :   -16.0652637864960
          28 :    15.2144458322862
          29 :   -14.3147487570799
          30 :    13.7814285858421
          31 :   -17.0506648101504
          32 :   -12.2441400831410

     Forces acting on atoms (Ry/au):

     negative rho (up, down):  1.736E-04 0.000E+00
     atom    1 type  1   force =    -0.00000321    0.00000454    0.00341192
     atom    2 type  1   force =    -0.00000166   -0.00139504    0.00385942
     atom    3 type  1   force =    -0.00121457    0.00069283    0.00385677
     atom    4 type  1   force =     0.00120972    0.00069203    0.00385617
     atom    5 type  1   force =    -0.00537418    0.00309168   -0.00154139
     atom    6 type  1   force =     0.00536530    0.00309480   -0.00154720
     atom    7 type  1   force =     0.00000101    0.00000349   -0.00543352
     atom    8 type  1   force =    -0.00000710   -0.00619931   -0.00153944
     atom    9 type  1   force =     0.00032939    0.00019636   -0.00171996
     atom   10 type  1   force =    -0.00033733    0.00025028   -0.00171113
     atom   11 type  1   force =     0.00004267   -0.00041705   -0.00171492
     atom   12 type  1   force =    -0.00001838   -0.00001764    0.00182609
     atom   13 type  2   force =     0.00000834    0.00000303   -0.00160282

     Total force =     0.003903     Total SCF correction =     0.000664
     SCF correction compared to forces is large: reduce conv_thr to get better values

     entering subroutine stress ...

     negative rho (up, down):  1.736E-04 0.000E+00
          total   stress  (Ry/bohr**3)                   (kbar)     P=    3.90
   0.00004960   0.00000001   0.00000001          7.30      0.00      0.00
   0.00000001   0.00004959   0.00000000          0.00      7.29      0.00
   0.00000001   0.00000000  -0.00001960          0.00      0.00     -2.88

     bfgs converged in  12 scf cycles and  11 bfgs steps
     (criteria: energy <  1.0E+00, force <  1.9E-03)

     End of BFGS Geometry Optimization

     Final energy   =   -1149.1482765480 Ry
Begin final coordinates

ATOMIC_POSITIONS (crystal)
Sc1      0.166666667   0.166666667   0.395942884    0   0   0
Sc1      0.666666667   0.166666667   0.395942884    0   0   0
Sc1      0.166666667   0.666666667   0.395942884    0   0   0
Sc1      0.666666667   0.666666667   0.395942884    0   0   0
Sc1      0.833333333   0.333333333   0.500000000    0   0   0
Sc1      0.333333333   0.333333333   0.500000000    0   0   0
Sc1      0.833333333   0.833333333   0.500000000    0   0   0
Sc1      0.333333333   0.833333333   0.500000000    0   0   0
Sc1      0.005535170   0.005533145   0.609157910
Sc1      0.488923545   0.005517569   0.609156490
Sc1      0.005518349   0.488924241   0.609156269
Sc1      0.499997005   0.499997204   0.606765286
C1       0.166661787   0.166664087   0.648493793
End final coordinates

     Writing output data file calc.save

     General routines

     Parallel routines

   This run was terminated on:  16:17:25   2May2018

   JOB DONE.
Job  /afs/slac/g/suncat/bin/suncat-tsmpirun -x LD_LIBRARY_PATH -wdir /scratch/qe753272_kvgm2 pw.x -npool 4 -in pw.inp

TID   HOST_NAME   COMMAND_LINE            STATUS            TERMINATION_TIME
00000 suncat0039 pw.x -npool 4 -i  Done                     05/02/2018 16:17:25
00001 suncat0039 pw.x -npool 4 -i  Done                     05/02/2018 16:17:25
00002 suncat0039 pw.x -npool 4 -i  Done                     05/02/2018 16:17:25
00003 suncat0039 pw.x -npool 4 -i  Done                     05/02/2018 16:17:25
00004 suncat0039 pw.x -npool 4 -i  Done                     05/02/2018 16:17:25
00005 suncat0039 pw.x -npool 4 -i  Done                     05/02/2018 16:17:25
00006 suncat0039 pw.x -npool 4 -i  Done                     05/02/2018 16:17:25
00007 suncat0039 pw.x -npool 4 -i  Done                     05/02/2018 16:17:25
00008 suncat0191 pw.x -npool 4 -i  Done                     05/02/2018 16:17:25
00009 suncat0191 pw.x -npool 4 -i  Done                     05/02/2018 16:17:25
00010 suncat0191 pw.x -npool 4 -i  Done                     05/02/2018 16:17:25
00011 suncat0191 pw.x -npool 4 -i  Done                     05/02/2018 16:17:25
00012 suncat0191 pw.x -npool 4 -i  Done                     05/02/2018 16:17:25
00013 suncat0191 pw.x -npool 4 -i  Done                     05/02/2018 16:17:25
00014 suncat0191 pw.x -npool 4 -i  Done                     05/02/2018 16:17:25
00015 suncat0191 pw.x -npool 4 -i  Done                     05/02/2018 16:17:25
00016 suncat0159 pw.x -npool 4 -i  Done                     05/02/2018 16:17:25
00017 suncat0159 pw.x -npool 4 -i  Done                     05/02/2018 16:17:25
00018 suncat0159 pw.x -npool 4 -i  Done                     05/02/2018 16:17:25
00019 suncat0159 pw.x -npool 4 -i  Done                     05/02/2018 16:17:25
00020 suncat0159 pw.x -npool 4 -i  Done                     05/02/2018 16:17:25
00021 suncat0159 pw.x -npool 4 -i  Done                     05/02/2018 16:17:25
00022 suncat0159 pw.x -npool 4 -i  Done                     05/02/2018 16:17:25
00023 suncat0159 pw.x -npool 4 -i  Done                     05/02/2018 16:17:25
00024 suncat0143 pw.x -npool 4 -i  Done                     05/02/2018 16:17:25
00025 suncat0143 pw.x -npool 4 -i  Done                     05/02/2018 16:17:25
00026 suncat0143 pw.x -npool 4 -i  Done                     05/02/2018 16:17:25
00027 suncat0143 pw.x -npool 4 -i  Done                     05/02/2018 16:17:25
00028 suncat0143 pw.x -npool 4 -i  Done                     05/02/2018 16:17:25
00029 suncat0143 pw.x -npool 4 -i  Done                     05/02/2018 16:17:25
00030 suncat0143 pw.x -npool 4 -i  Done                     05/02/2018 16:17:25
00031 suncat0143 pw.x -npool 4 -i  Done                     05/02/2018 16:17:25