     Program PWSCF v.5.1rc2 (svn rev. 11289) starts on  2May2018 at 17:23:12

     Current dimensions of program PWSCF are:
     Max number of different atomic species (ntypx) = 10
     Max number of k-points (npk) =  40000
     Max angular momentum in pseudopotentials (lmaxx) =  3
     Presently stress not available with electric field

     IMPORTANT: XC functional enforced from input :
     Exchange-correlation      = BEEF-VDW ( 1  4 27 13 2)
     Any further DFT definition will be discarded
     Please, verify this is what you really want

     Subspace diagonalization in iterative solution of the eigenvalue problem:
     a serial algorithm will be used

     bravais-lattice index     =            0
     lattice parameter (alat)  =       1.8897  a.u.
     unit-cell volume          =    4301.6107 (a.u.)^3
     number of atoms/cell      =           13
     number of atomic types    =            2
     number of electrons       =       186.00
     number of Kohn-Sham states=          103
     kinetic-energy cutoff     =      36.7493  Ry
     charge density cutoff     =     367.4932  Ry
     convergence threshold     =      1.0E-05
     mixing beta               =       0.3000
     number of iterations used =           10  plain     mixing
     Exchange-correlation      = BEEF-VDW ( 1  4 27 13 2)
     nstep                     =           50

     celldm(1)=   1.889726  celldm(2)=   0.000000  celldm(3)=   0.000000
     celldm(4)=   0.000000  celldm(5)=   0.000000  celldm(6)=   0.000000

     crystal axes: (cart. coord. in units of alat)
               a(1) = (   5.483647   0.000000   0.000000 )
               a(2) = (   2.741823   4.748977   0.000000 )
               a(3) = (   0.000000   0.000000  24.477379 )

     reciprocal axes: (cart. coord. in units 2 pi/alat)
               b(1) = (  0.182360 -0.105286  0.000000 )
               b(2) = (  0.000000  0.210572  0.000000 )
               b(3) = (  0.000000  0.000000  0.040854 )

     PseudoPot. # 1 for Tc read from file:
     /u/if/mamunm/psp/gbrv1.5pbe/Tc.UPF
     MD5 check sum: 9eb49e5b028550b2339a02317eb7b844
     Pseudo is Ultrasoft + core correction, Zval = 15.0
     Generated by new atomic code, or converted to UPF format
     Using radial grid of  965 points,  6 beta functions with:
                l(1) =   0
                l(2) =   0
                l(3) =   1
                l(4) =   1
                l(5) =   2
                l(6) =   2
     Q(r) pseudized with  8 coefficients,  rinner =    1.300   1.300   1.300
                                                       1.300   1.300

     PseudoPot. # 2 for S  read from file:
     /u/if/mamunm/psp/gbrv1.5pbe/S.UPF
     MD5 check sum: 88d86576ff6df21479756cfb9bdac1df
     Pseudo is Ultrasoft + core correction, Zval =  6.0
     Generated by new atomic code, or converted to UPF format
     Using radial grid of  907 points,  6 beta functions with:
                l(1) =   0
                l(2) =   0
                l(3) =   1
                l(4) =   1
                l(5) =   2
                l(6) =   2
     Q(r) pseudized with  8 coefficients,  rinner =    1.300   1.300   1.300
                                                       1.300   1.300

     vdW kernel table read from file vdW_kernel_table
     MD5 check sum: 095c7af220d748ca6e76c0b4c6cfb241

     atomic species   valence    mass     pseudopotential
        Tc1           15.00    97.90721     Tc( 1.00)
        S1             6.00    32.06000     S ( 1.00)

     No symmetry found

   Cartesian axes

     site n.     atom                  positions (alat units)
         1           Tc1 tau(   1) = (   1.3709117   0.7914962  10.0000000  )
         2           Tc1 tau(   2) = (   4.1127351   0.7914962  10.0000000  )
         3           Tc1 tau(   3) = (   2.7418234   3.1659850  10.0000000  )
         4           Tc1 tau(   4) = (   5.4836469   3.1659850  10.0000000  )
         5           Tc1 tau(   5) = (   5.4836469   1.5829925  12.2386895  )
         6           Tc1 tau(   6) = (   2.7418234   1.5829925  12.2386895  )
         7           Tc1 tau(   7) = (   6.8545586   3.9574812  12.2386895  )
         8           Tc1 tau(   8) = (   4.1127351   3.9574812  12.2386895  )
         9           Tc1 tau(   9) = (   0.0000000   0.0000000  14.4773789  )
        10           Tc1 tau(  10) = (   2.7418234   0.0000000  14.4773789  )
        11           Tc1 tau(  11) = (   1.3709117   2.3744887  14.4773789  )
        12           Tc1 tau(  12) = (   4.1127351   2.3744887  14.4773789  )
        13           S1  tau(  13) = (   0.0000000   0.0000000  16.6193789  )

     number of k points=    20  Fermi-Dirac smearing, width (Ry)=  0.0110
                       cart. coord. in units 2pi/alat
        k(    1) = (   0.0000000   0.0000000   0.0000000), wk =   0.0555556
        k(    2) = (   0.0000000   0.0350953   0.0000000), wk =   0.1111111
        k(    3) = (   0.0000000   0.0701905   0.0000000), wk =   0.1111111
        k(    4) = (   0.0000000  -0.1052858   0.0000000), wk =   0.0555556
        k(    5) = (   0.0303934  -0.0175476   0.0000000), wk =   0.1111111
        k(    6) = (   0.0303934   0.0175476   0.0000000), wk =   0.1111111
        k(    7) = (   0.0303934   0.0526429   0.0000000), wk =   0.1111111
        k(    8) = (   0.0303934  -0.1228335   0.0000000), wk =   0.1111111
        k(    9) = (   0.0303934  -0.0877382   0.0000000), wk =   0.1111111
        k(   10) = (   0.0303934  -0.0526429   0.0000000), wk =   0.1111111
        k(   11) = (   0.0607868  -0.0350953   0.0000000), wk =   0.1111111
        k(   12) = (   0.0607868   0.0000000   0.0000000), wk =   0.1111111
        k(   13) = (   0.0607868   0.0350953   0.0000000), wk =   0.1111111
        k(   14) = (   0.0607868  -0.1403811   0.0000000), wk =   0.1111111
        k(   15) = (   0.0607868  -0.1052858   0.0000000), wk =   0.1111111
        k(   16) = (   0.0607868  -0.0701905   0.0000000), wk =   0.1111111
        k(   17) = (  -0.0911802   0.0526429   0.0000000), wk =   0.0555556
        k(   18) = (  -0.0911802   0.0877382   0.0000000), wk =   0.1111111
        k(   19) = (  -0.0911802   0.1228335   0.0000000), wk =   0.1111111
        k(   20) = (  -0.0911802  -0.0526429   0.0000000), wk =   0.0555556

     Largest allocated arrays     est. size (Mb)     dimensions
     Largest temporary arrays     est. size (Mb)     dimensions

     Check: negative/imaginary core charge=   -0.000022    0.000000

     Initial potential from superposition of free atoms
     Check: negative starting charge=   -1.504818

     starting charge  173.99963, renormalised to  186.00000

     negative rho (up, down):  1.609E+00 0.000E+00

     *
     * You are using vdW-DF for exchange-correlation in this calculation.
     * Please cite the following three references that made this development
     * possible:
     *
     *   M. Dion, H. Rydberg, E. Schroder, D. C. Langreth, and
     *   B. I. Lundqvist, Phys. Rev. Lett. 92, 246401 (2004).
     *
     *   T. Thonhauser, V. R. Cooper, S. Li, A. Puzder, P. Hyldgaard, and
     *   D. C. Langreth, Phys. Rev. B 76, 125112 (2007).
     *
     *   G. Roman-Perez and J. M. Soler, Phys. Rev. Lett. 103, 096102 (2009).
     *
     *
     * If you are using vdW-DF2, please also cite:
     *
     *   K. Lee, E. D. Murray, L. Kong, B. I. Lundqvist, and
     *   D. C. Langreth, Phys. Rev. B 82, 081101(R) (2010).
     *
     *
     * If you are calculating the stress with vdW-DF, please also cite:
     *
     *   R. Sabatini, E. Kucukbenli, B. Kolb, T. Thonhauser, and
     *   S. de Gironcoli, J. Phys.: Condens. Matter 24, 424209 (2012).
     *

     Carrying out vdW-DF run using the following parameters:

     Nqs =      20    Nr_points =    1024   r_max =   100.000
     q_mesh =
               0.00001000     0.04494208     0.09755937     0.15916263
               0.23128650     0.31572767     0.41458969     0.53033537
               0.66584808     0.82450364     1.01025438     1.22772762
               1.48234092     1.78043706     2.12944203     2.53805004
               3.01644009     3.57652955     4.23227104     5.00000000

     Gradients computed in reciprocal space

     Adding external electric field

     Computed dipole along edir(3) :
        Dipole               -3.4253 Ry au,         -8.7062 Debye
        Dipole field         -0.0100 Ry au

        Potential amp.        0.9026 Ry
        Total length         45.0992 bohr

     Starting wfc are  160 randomized atomic wfcs

     Self-consistent Calculation

     iteration #  1     ecut=    36.75 Ry     beta=0.30
     Davidson diagonalization with overlap
     ethr =  1.00E-02,  avg # of iterations =  7.7

[...]

     total energy              =   -1851.89229157 Ry
     Harris-Foulkes estimate   =   -2120.97043197 Ry
     estimated scf accuracy    <     566.86693169 Ry

[...]

     End of self-consistent calculation

          k = 0.0000 0.0000 0.0000 ( 16073 PWs)   bands (ev):

   -64.7513 -64.6871 -64.5707 -64.5276 -64.5275 -64.4639 -64.4142 -64.3477
   -64.3368 -64.3364 -64.3306 -64.3292 -37.1822 -37.1499 -37.1498 -37.0654
   -37.0258 -37.0255 -36.9790 -36.8697 -36.8694 -36.8281 -36.7883 -36.4989
   -36.4872 -36.4871 -36.4532 -36.4119 -36.4119 -36.4021 -36.3698 -36.3692
   -36.3008 -36.2564 -36.2562 -36.2262 -36.2257 -36.1758 -36.1691 -36.1691
   -36.1604 -36.1251 -36.1249 -36.1176 -35.9860 -35.9856 -35.9303 -35.9302
    -9.8046  -3.9259  -2.6964  -2.6963  -2.6353  -2.5991  -2.5251  -2.3014
    -2.2046  -2.2045  -2.1269  -2.1268  -2.0279  -1.7123  -1.7122  -1.6805
    -1.0770  -1.0769  -0.9041  -0.4751   0.1394   0.1394   0.3645   0.6171
     0.8783   0.8784   0.9526   0.9526   1.0034   1.1813   1.1813   1.2982
     1.3502   1.3502   1.4245   1.4245   1.8594   1.8598   2.0920   2.8575
     2.8683   2.8685   2.9251   3.0912   3.2670   3.2670   3.3961   3.3962
     3.7398   3.7398   3.7663   4.2870   4.2874   4.5782   4.5787

[...]

          k =-0.0912 0.0526 0.0000 ( 16164 PWs)   bands (ev):

[...]

     the Fermi energy is     2.5743 ev

!    total energy              =   -2127.81922073 Ry
     Harris-Foulkes estimate   =   -2127.81922033 Ry
     estimated scf accuracy    <       0.00000556 Ry

     The total energy is the sum of the following terms:

     one-electron contribution =  -18943.56787118 Ry
     hartree contribution      =    9473.57335489 Ry
     xc contribution           =    -405.73100725 Ry
     ewald contribution        =    7747.99990692 Ry
     electric field correction =       0.00004093 Ry
     smearing contrib. (-TS)   =      -0.09364505 Ry

     convergence has been achieved in  28 iterations

 BEEF-vdW xc energy contributions
           1 :   -355.277259812974
           2 :    326.345687733988
           3 :   -274.977392894631
           4 :    211.580893391854
           5 :   -147.190969587230
           6 :    90.4415032324163
           7 :   -45.9033350259829
           8 :    13.9890627420234
           9 :    7.75892310627262
          10 :   -22.7766602862056
          11 :    33.7590871769368
          12 :   -41.7690228305697
          13 :    46.3006705893467
          14 :   -46.1029367043839
          15 :    40.2579811215360
          16 :   -29.0336500157324
          17 :    14.1455891876939
          18 :    1.63010140918266
          19 :   -15.3042503707729
          20 :    24.5829055567938
          21 :   -28.4700882229280
          22 :    27.3390051418160
          23 :   -22.5170816825262
          24 :    15.6258093199602
          25 :   -8.00401341923566
          26 :   0.440187299487661
          27 :    6.73525587139591
          28 :   -13.3379647514425
          29 :    19.0199979310437
          30 :   -23.1507071873199
          31 :   -33.9687206191887
          32 :   -24.8810746970831

     Forces acting on atoms (Ry/au):

     negative rho (up, down):  1.588E+00 0.000E+00
     atom    1 type  1   force =     0.00006327    0.00003888    0.02752652
     atom    2 type  1   force =    -0.00005239    0.00004363    0.02747721
     atom    3 type  1   force =    -0.00000223   -0.00008001    0.02753058
     atom    4 type  1   force =    -0.00000414   -0.00001143    0.03667650
     atom    5 type  1   force =     0.00003197    0.01060240   -0.00496185
     atom    6 type  1   force =    -0.00003685    0.00005234   -0.00359791
     atom    7 type  1   force =    -0.00913323   -0.00535318   -0.00500689
     atom    8 type  1   force =     0.00912546   -0.00530053   -0.00506875
     atom    9 type  1   force =     0.00000145    0.00000600   -0.01089635
     atom   10 type  1   force =     0.00000171   -0.00378907   -0.03531813
     atom   11 type  1   force =    -0.00329734    0.00189956   -0.03531956
     atom   12 type  1   force =     0.00330219    0.00189160   -0.03532113
     atom   13 type  2   force =     0.00000013   -0.00000020    0.01627977

     Total force =     0.064572     Total SCF correction =     0.001723

     entering subroutine stress ...

     negative rho (up, down):  1.588E+00 0.000E+00
          total   stress  (Ry/bohr**3)                   (kbar)     P=  -30.44
  -0.00020454  -0.00000007   0.00000001        -30.09     -0.01      0.00
  -0.00000007  -0.00020468   0.00000001         -0.01    -30.11      0.00
   0.00000001   0.00000001  -0.00021147          0.00      0.00    -31.11

     BFGS Geometry Optimization

     number of scf cycles    =   1
     number of bfgs steps    =   0

     energy   new            =   -2127.8192207308 Ry

     new trust radius        =       0.0355255548 bohr
     new conv_thr            =       0.0000099958 Ry

ATOMIC_POSITIONS (crystal)
Tc1      0.166666667   0.166666667   0.408540475    0   0   0
Tc1      0.666666667   0.166666667   0.408540475    0   0   0
Tc1      0.166666667   0.666666667   0.408540475    0   0   0
Tc1      0.666666667   0.666666667   0.408540475    0   0   0
Tc1      0.833333333   0.333333333   0.500000000    0   0   0
Tc1      0.333333333   0.333333333   0.500000000    0   0   0
Tc1      0.833333333   0.833333333   0.500000000    0   0   0
Tc1      0.333333333   0.833333333   0.500000000    0   0   0
Tc1     -0.000000194   0.000000668   0.591223957
Tc1      0.500211273  -0.000422215   0.590695982
Tc1     -0.000424031   0.500211667   0.590695951
Tc1      0.500213274   0.500210781   0.590695917
S1       0.000000024  -0.000000022   0.679320848

     Writing output data file calc.save
     Check: negative starting charge=   -1.504818
     NEW-OLD atomic charge density approx. for the potential

     Check: negative/imaginary core charge=   -0.000022    0.000000
     Check: negative starting charge=   -1.510420

[...]

     Total force =     0.054048     Total SCF correction =     0.008756
     SCF correction compared to forces is large: reduce conv_thr to get better values

[...]

     energy   old            =   -2127.8192207308 Ry
     energy   new            =   -2127.8229873077 Ry

     CASE: energy  _new < energy  _old

     WARNING: bfgs curvature condition failed, Theta= 0.985
     new trust radius        =       0.0390781103 bohr
     new conv_thr            =       0.0000001000 Ry

[...]

     Total force =     0.015399     Total SCF correction =     0.000590

[...]

     number of scf cycles    =  17
     number of bfgs steps    =  16

     energy   old            =   -2127.8390468641 Ry
     energy   new            =   -2127.8390685395 Ry

     CASE: energy  _new < energy  _old

     new trust radius        =       0.0113249119 bohr
     new conv_thr            =       0.0000001000 Ry

ATOMIC_POSITIONS (crystal)
Tc1      0.166666667   0.166666667   0.408540475    0   0   0
Tc1      0.666666667   0.166666667   0.408540475    0   0   0
Tc1      0.166666667   0.666666667   0.408540475    0   0   0
Tc1      0.666666667   0.666666667   0.408540475    0   0   0
Tc1      0.833333333   0.333333333   0.500000000    0   0   0
Tc1      0.333333333   0.333333333   0.500000000    0   0   0
Tc1      0.833333333   0.833333333   0.500000000    0   0   0
Tc1      0.333333333   0.833333333   0.500000000    0   0   0
Tc1     -0.000000308  -0.000000355   0.603341724
Tc1      0.501281496  -0.002560937   0.585943266
Tc1     -0.002560517   0.501278588   0.585943024
Tc1      0.501280382   0.501279551   0.585943066
S1      -0.000001013  -0.000000027   0.689549941

     Writing output data file calc.save
     Check: negative starting charge=   -1.506495
     NEW-OLD atomic charge density approx. for the potential

     Check: negative/imaginary core charge=   -0.000022    0.000000
     Check: negative starting charge=   -1.505958

[...]

     Self-consistent Calculation

[...]

     total energy              =   -2127.83907934 Ry
     Harris-Foulkes estimate   =   -2127.83907941 Ry
     estimated scf accuracy    <       0.00000014 Ry

     iteration # 12     ecut=    36.75 Ry     beta=0.30
     Davidson diagonalization with overlap
     ethr =  7.54E-11,  avg # of iterations =  3.8

[...]

     negative rho (up, down):  1.589E+00 0.000E+00

     Adding external electric field

     Computed dipole along edir(3) :
        Dipole               -0.0891 Ry au,         -0.2264 Debye
        Dipole field         -0.0003 Ry au

        Potential amp.        0.0235 Ry
        Total length         45.0992 bohr

     End of self-consistent calculation

[...]

          k = 0.0608-0.0702 0.0000 ( 16203 PWs)   bands (ev):

[...]

          k =-0.0912-0.0526 0.0000 ( 16164 PWs)   bands (ev):

   -64.7324 -64.6276 -64.6136 -64.5418 -64.5382 -64.3768 -64.3671 -64.3529
   -64.3326 -64.3124 -64.3063 -64.2782 -37.0685 -37.0105 -37.0016 -36.9441
   -36.8785 -36.8623 -36.8204 -36.7454 -36.7337 -36.7269 -36.6582 -36.6326
   -36.6075 -36.5712 -36.4491 -36.4057 -36.3788 -36.3647 -36.3545 -36.3471
   -36.3446 -36.3165 -36.3029 -36.2843 -36.2829 -36.2570 -36.2485 -36.2454
   -36.1797 -36.1595 -36.1189 -36.0994 -36.0778 -36.0189 -35.9913 -35.9784
    -9.7157  -2.4163  -2.3590  -1.8311  -1.7916  -1.6357  -1.5734  -1.4894
    -1.4610  -1.3604  -1.1984  -1.0923  -1.0615  -0.9281  -0.8044  -0.7353
    -0.6075  -0.5648  -0.5158  -0.2897  -0.1800  -0.0619  -0.0078   0.0862
     0.1828   0.3342   0.5595   0.7125   0.7342   0.8108   1.0628   1.1223
     1.1874   1.1919   1.2889   1.3277   1.3749   1.4033   1.4610   1.5369
     1.5895   1.6701   2.1861   2.3649   2.3991   2.6150   2.6184   2.7096
     2.7925   3.0284   3.0363   3.1374   3.2399   3.2696   3.2908

     the Fermi energy is     2.5953 ev

!    total energy              =   -2127.83907935 Ry
     Harris-Foulkes estimate   =   -2127.83907939 Ry
     estimated scf accuracy    <          6.0E-09 Ry

     The total energy is the sum of the following terms:

     one-electron contribution =  -18917.94981518 Ry
     hartree contribution      =    9460.81247291 Ry
     xc contribution           =    -405.80913161 Ry
     ewald contribution        =    7735.19649591 Ry
     electric field correction =       0.00002319 Ry
     smearing contrib. (-TS)   =      -0.08912456 Ry

     convergence has been achieved in  12 iterations

 BEEF-vdW xc energy contributions
           1 :   -355.353640214267
           2 :    326.414442901155
           3 :   -275.051361381184
           4 :    211.666957841940
           5 :   -147.264157278953
           6 :    90.4581310601133
           7 :   -45.8334380080407
           8 :    13.8389530240149
           9 :    7.94516331089005
          10 :   -22.9371383587416
          11 :    33.8419749830848
          12 :   -41.7526282458938
          13 :    46.2031804257591
          14 :   -45.9779280813271
          15 :    40.1768367145547
          16 :   -29.0605907153928
          17 :    14.3104988503039
          18 :    1.35093388995944
          19 :   -14.9885152744728
          20 :    24.3368724602805
          21 :   -28.3808683390660
          22 :    27.4282601842548
          23 :   -22.7245572653972
          24 :    15.8342330020354
          25 :   -8.09430481392400
          26 :   0.350785880585534
          27 :    6.97516921187611
          28 :   -13.6215685222194
          29 :    19.2145224943589
          30 :   -23.1621917015499
          31 :   -33.9723879141699
          32 :   -24.8806427269993

     Forces acting on atoms (Ry/au):

     negative rho (up, down):  1.589E+00 0.000E+00
     atom    1 type  1   force =     0.00043134    0.00024907    0.02248129
     atom    2 type  1   force =    -0.00043158    0.00024850    0.02248154
     atom    3 type  1   force =    -0.00000006   -0.00049825    0.02248091
     atom    4 type  1   force =     0.00000021    0.00000022    0.03236702
     atom    5 type  1   force =    -0.00000012    0.01224815   -0.02256528
     atom    6 type  1   force =    -0.00000018   -0.00000132   -0.03246934
     atom    7 type  1   force =    -0.01060834   -0.00612377   -0.02256348
     atom    8 type  1   force =     0.01060872   -0.00612374   -0.02256341
     atom    9 type  1   force =     0.00000079   -0.00000077    0.00096508
     atom   10 type  1   force =    -0.00000113   -0.00003400    0.00011181
     atom   11 type  1   force =    -0.00002785    0.00001767    0.00011263
     atom   12 type  1   force =     0.00002822    0.00001823    0.00011251
     atom   13 type  2   force =    -0.00000003   -0.00000000   -0.00095127

     Total force =     0.001370     Total SCF correction =     0.000171
     SCF correction compared to forces is large: reduce conv_thr to get better values

     entering subroutine stress ...

     negative rho (up, down):  1.589E+00 0.000E+00
          total   stress  (Ry/bohr**3)                   (kbar)     P=  -25.62
  -0.00020359   0.00000000   0.00000000        -29.95      0.00      0.00
   0.00000000  -0.00020359   0.00000000          0.00    -29.95      0.00
   0.00000000   0.00000000  -0.00011525          0.00      0.00    -16.95

     bfgs converged in  18 scf cycles and  17 bfgs steps
     (criteria: energy <  1.0E+00, force <  1.9E-03)

     End of BFGS Geometry Optimization

     Final energy   =   -2127.8390793496 Ry
Begin final coordinates

ATOMIC_POSITIONS (crystal)
Tc1      0.166666667   0.166666667   0.408540475    0   0   0
Tc1      0.666666667   0.166666667   0.408540475    0   0   0
Tc1      0.166666667   0.666666667   0.408540475    0   0   0
Tc1      0.666666667   0.666666667   0.408540475    0   0   0
Tc1      0.833333333   0.333333333   0.500000000    0   0   0
Tc1      0.333333333   0.333333333   0.500000000    0   0   0
Tc1      0.833333333   0.833333333   0.500000000    0   0   0
Tc1      0.333333333   0.833333333   0.500000000    0   0   0
Tc1     -0.000000308  -0.000000355   0.603341724
Tc1      0.501281496  -0.002560937   0.585943266
Tc1     -0.002560517   0.501278588   0.585943024
Tc1      0.501280382   0.501279551   0.585943066
S1      -0.000001013  -0.000000027   0.689549941
End final coordinates

     Writing output data file calc.save

     General routines

     Parallel routines

   This run was terminated on:  19:40:21   2May2018

   JOB DONE.
Job  /afs/slac/g/suncat/bin/suncat-tsmpirun -x LD_LIBRARY_PATH -wdir /scratch/qe807265_g6pjo pw.x -npool 4 -in pw.inp

TID   HOST_NAME   COMMAND_LINE            STATUS            TERMINATION_TIME
00000 suncat0145 pw.x -npool 4 -i  Done                     05/02/2018 19:40:21
00001 suncat0145 pw.x -npool 4 -i  Done                     05/02/2018 19:40:21
00002 suncat0145 pw.x -npool 4 -i  Done                     05/02/2018 19:40:21
00003 suncat0145 pw.x -npool 4 -i  Done                     05/02/2018 19:40:21
00004 suncat0145 pw.x -npool 4 -i  Done                     05/02/2018 19:40:21
00005 suncat0145 pw.x -npool 4 -i  Done                     05/02/2018 19:40:21
00006 suncat0145 pw.x -npool 4 -i  Done                     05/02/2018 19:40:21
00007 suncat0145 pw.x -npool 4 -i  Done                     05/02/2018 19:40:21
00008 suncat0140 pw.x -npool 4 -i  Done                     05/02/2018 19:40:21
00009 suncat0140 pw.x -npool 4 -i  Done                     05/02/2018 19:40:21
00010 suncat0140 pw.x -npool 4 -i  Done                     05/02/2018 19:40:21
00011 suncat0140 pw.x -npool 4 -i  Done                     05/02/2018 19:40:21
00012 suncat0140 pw.x -npool 4 -i  Done                     05/02/2018 19:40:21
00013 suncat0140 pw.x -npool 4 -i  Done                     05/02/2018 19:40:21
00014 suncat0140 pw.x -npool 4 -i  Done                     05/02/2018 19:40:21
00015 suncat0140 pw.x -npool 4 -i  Done                     05/02/2018 19:40:21
00016 suncat0209 pw.x -npool 4 -i  Done                     05/02/2018 19:40:21
00017 suncat0209 pw.x -npool 4 -i  Done                     05/02/2018 19:40:21
00018 suncat0209 pw.x -npool 4 -i  Done                     05/02/2018 19:40:21
00019 suncat0209 pw.x -npool 4 -i  Done                     05/02/2018 19:40:21
00020 suncat0209 pw.x -npool 4 -i  Done                     05/02/2018 19:40:21
00021 suncat0209 pw.x -npool 4 -i  Done                     05/02/2018 19:40:21
00022 suncat0209 pw.x -npool 4 -i  Done                     05/02/2018 19:40:21
00023 suncat0209 pw.x -npool 4 -i  Done                     05/02/2018 19:40:21
00024 suncat0208 pw.x -npool 4 -i  Done                     05/02/2018 19:40:21
00025 suncat0208 pw.x -npool 4 -i  Done                     05/02/2018 19:40:21
00026 suncat0208 pw.x -npool 4 -i  Done                     05/02/2018 19:40:21
00027 suncat0208 pw.x -npool 4 -i  Done                     05/02/2018 19:40:21
00028 suncat0208 pw.x -npool 4 -i  Done                     05/02/2018 19:40:21
00029 suncat0208 pw.x -npool 4 -i  Done                     05/02/2018 19:40:21
00030 suncat0208 pw.x -npool 4 -i  Done                     05/02/2018 19:40:21
00031 suncat0208 pw.x -npool 4 -i  Done                     05/02/2018 19:40:21