     Program PWSCF v.5.1rc2 (svn rev. 11289) starts on 11Jan2019 at 17:44:41

     Current dimensions of program PWSCF are:
     Max number of different atomic species (ntypx) = 10
     Max number of k-points (npk) =  40000
     Max angular momentum in pseudopotentials (lmaxx) =  3

     IMPORTANT: XC functional enforced from input :
     Exchange-correlation      = BEEF-VDW ( 1  4 27 13 2)
     Any further DFT definition will be discarded
     Please, verify this is what you really want

     Subspace diagonalization in iterative solution of the eigenvalue problem:
     a serial algorithm will be used

     Generating pointlists ...
     new r_m :   0.1527 (alat units)  1.4466 (a.u.) for type    1
     new r_m :   0.1527 (alat units)  1.4466 (a.u.) for type    2

     bravais-lattice index     =            0
     lattice parameter (alat)  =       9.4723  a.u.
     unit-cell volume          =    3537.7769 (a.u.)^3
     number of atoms/cell      =           13
     number of atomic types    =            2
     number of electrons       =       210.00
     number of Kohn-Sham states=          115
     kinetic-energy cutoff     =      36.7493  Ry
     charge density cutoff     =     367.4933  Ry
     convergence threshold     =      1.0E-04
     mixing beta               =       0.1000
     number of iterations used =            8  plain     mixing
     Exchange-correlation      = BEEF-VDW ( 1  4 27 13 2)
     nstep                     =           50

     celldm(1)=   9.472344  celldm(2)=   0.000000  celldm(3)=   0.000000
     celldm(4)=   0.000000  celldm(5)=   0.000000  celldm(6)=   0.000000

     crystal axes: (cart. coord. in units of alat)
               a(1) = (   1.000000   0.000000   0.000000 )
               a(2) = (   0.500000   0.866025   0.000000 )
               a(3) = (   0.000000   0.000000   4.806483 )

     reciprocal axes: (cart. coord. in units 2 pi/alat)
               b(1) = (  1.000000 -0.577350  0.000000 )
               b(2) = (  0.000000  1.154701  0.000000 )
               b(3) = (  0.000000  0.000000  0.208052 )

     PseudoPot. # 1 for Co read from file:
     /u/if/jboes/code/decaf-espresso/gbrv15pbe/Co.UPF
     MD5 check sum: 5f91765df6ddd3222702df6e7b74a16d
     Pseudo is Ultrasoft + core correction, Zval = 17.0
     Generated by new atomic code, or converted to UPF format
     Using radial grid of  863 points,  6 beta functions with:
                l(1) =   0
                l(2) =   0
                l(3) =   1
                l(4) =   1
                l(5) =   2
                l(6) =   2
     Q(r) pseudized with  8 coefficients,  rinner =    1.200   1.200   1.200
                                                       1.200   1.200

     PseudoPot. # 2 for O  read from file:
     /u/if/jboes/code/decaf-espresso/gbrv15pbe/O.UPF
     MD5 check sum: 734c27235a0248c51dbae37a1fbe46ec
     Pseudo is Ultrasoft + core correction, Zval =  6.0
     Generated by new atomic code, or converted to UPF format
     Using radial grid of  737 points,  5 beta functions with:
                l(1) =   0
                l(2) =   0
                l(3) =   1
                l(4) =   1
                l(5) =   2
     Q(r) pseudized with  8 coefficients,  rinner =    0.900   0.900   0.900
                                                       0.900   0.900

     vdW kernel table read from file vdW_kernel_table
     MD5 check sum: 095c7af220d748ca6e76c0b4c6cfb241

     atomic species   valence    mass     pseudopotential
        Co            17.00    58.93319     Co( 1.00)
        O              6.00    15.99900     O ( 1.00)

     Starting magnetic structure
     atomic species   magnetization
        Co           0.118
        O            0.000

     No symmetry found

   Cartesian axes

     site n.     atom                  positions (alat units)
         1           Co  tau(   1) = (   0.2500000   0.1443376   1.9949931  )
         2           Co  tau(   2) = (   0.7500000   0.1443376   1.9949931  )
         3           Co  tau(   3) = (   0.5000000   0.5773503   1.9949931  )
         4           Co  tau(   4) = (   1.0000000   0.5773503   1.9949931  )
         5           Co  tau(   5) = (   1.0000000   0.2886751   2.4032414  )
         6           Co  tau(   6) = (   0.5000000   0.2886751   2.4032414  )
         7           Co  tau(   7) = (   1.2500000   0.7216878   2.4032414  )
         8           Co  tau(   8) = (   0.7500000   0.7216878   2.4032414  )
         9           Co  tau(   9) = (   0.0000160   0.0000111   2.7914212  )
        10           Co  tau(  10) = (   0.4999846  -0.0095105   2.8137742  )
        11           Co  tau(  11) = (   0.2417520   0.4377557   2.8137619  )
        12           Co  tau(  12) = (   0.7582405   0.4377694   2.8137563  )
        13           O   tau(  13) = (   0.4999972   0.2886809   3.0331984  )

     number of k points=    40  Fermi-Dirac smearing, width (Ry)=  0.0110
                       cart. coord. in units 2pi/alat
        k(    1) = (   0.0000000   0.0000000   0.0000000), wk =   0.0277778
        k(    2) = (   0.0000000   0.1924501   0.0000000), wk =   0.0555556
        k(    3) = (   0.0000000   0.3849002   0.0000000), wk =   0.0555556
        k(    4) = (   0.0000000  -0.5773503   0.0000000), wk =   0.0277778
        k(    5) = (   0.1666667  -0.0962250   0.0000000), wk =   0.0555556
        k(    6) = (   0.1666667   0.0962250   0.0000000), wk =   0.0555556
        k(    7) = (   0.1666667   0.2886751   0.0000000), wk =   0.0555556
        k(    8) = (   0.1666667  -0.6735753   0.0000000), wk =   0.0555556
        k(    9) = (   0.1666667  -0.4811252   0.0000000), wk =   0.0555556
        k(   10) = (   0.1666667  -0.2886751   0.0000000), wk =   0.0555556
        k(   11) = (   0.3333333  -0.1924501   0.0000000), wk =   0.0555556
        k(   12) = (   0.3333333  -0.0000000   0.0000000), wk =   0.0555556
        k(   13) = (   0.3333333   0.1924501   0.0000000), wk =   0.0555556
        k(   14) = (   0.3333333  -0.7698004   0.0000000), wk =   0.0555556
        k(   15) = (   0.3333333  -0.5773503   0.0000000), wk =   0.0555556
        k(   16) = (   0.3333333  -0.3849002   0.0000000), wk =   0.0555556
        k(   17) = (  -0.5000000   0.2886751   0.0000000), wk =   0.0277778
        k(   18) = (  -0.5000000   0.4811252   0.0000000), wk =   0.0555556
        k(   19) = (  -0.5000000   0.6735753   0.0000000), wk =   0.0555556
        k(   20) = (  -0.5000000  -0.2886751   0.0000000), wk =   0.0277778
        k(   21) = (   0.0000000   0.0000000   0.0000000), wk =   0.0277778
        k(   22) = (   0.0000000   0.1924501   0.0000000), wk =   0.0555556
        k(   23) = (   0.0000000   0.3849002   0.0000000), wk =   0.0555556
        k(   24) = (   0.0000000  -0.5773503   0.0000000), wk =   0.0277778
        k(   25) = (   0.1666667  -0.0962250   0.0000000), wk =   0.0555556
        k(   26) = (   0.1666667   0.0962250   0.0000000), wk =   0.0555556
        k(   27) = (   0.1666667   0.2886751   0.0000000), wk =   0.0555556
        k(   28) = (   0.1666667  -0.6735753   0.0000000), wk =   0.0555556
        k(   29) = (   0.1666667  -0.4811252   0.0000000), wk =   0.0555556
        k(   30) = (   0.1666667  -0.2886751   0.0000000), wk =   0.0555556
        k(   31) = (   0.3333333  -0.1924501   0.0000000), wk =   0.0555556
        k(   32) = (   0.3333333  -0.0000000   0.0000000), wk =   0.0555556
        k(   33) = (   0.3333333   0.1924501   0.0000000), wk =   0.0555556
        k(   34) = (   0.3333333  -0.7698004   0.0000000), wk =   0.0555556
        k(   35) = (   0.3333333  -0.5773503   0.0000000), wk =   0.0555556
        k(   36) = (   0.3333333  -0.3849002   0.0000000), wk =   0.0555556
        k(   37) = (  -0.5000000   0.2886751   0.0000000), wk =   0.0277778
        k(   38) = (  -0.5000000   0.4811252   0.0000000), wk =   0.0555556
        k(   39) = (  -0.5000000   0.6735753   0.0000000), wk =   0.0555556
        k(   40) = (  -0.5000000  -0.2886751   0.0000000), wk =   0.0277778

     Largest allocated arrays     est. size (Mb)     dimensions
     Largest temporary arrays     est. size (Mb)     dimensions

     Check: negative/imaginary core charge=   -0.000007    0.000000

     Initial potential from superposition of free atoms
     Check: negative starting charge=(component1):   -0.000251
     Check: negative starting charge=(component2):   -0.000215

     starting charge  197.99991, renormalised to  210.00000

     negative rho (up, down):  2.659E-04 2.281E-04

     *
     * You are using vdW-DF for exchange-correlation in this calculation.
     * Please cite the following three references that made this development
     * possible:
     *
     *   M. Dion, H. Rydberg, E. Schroder, D. C. Langreth, and
     *   B. I. Lundqvist, Phys. Rev. Lett. 92, 246401 (2004).
     *
     *   T. Thonhauser, V. R. Cooper, S. Li, A. Puzder, P. Hyldgaard, and
     *   D. C. Langreth, Phys. Rev. B 76, 125112 (2007).
     *
     *   G. Roman-Perez and J. M. Soler, Phys. Rev. Lett. 103, 096102 (2009).
     *
     *
     * If you are using vdW-DF2, please also cite:
     *
     *   K. Lee, E. D. Murray, L. Kong, B. I. Lundqvist, and
     *   D. C. Langreth, Phys. Rev. B 82, 081101(R) (2010).
     *
     *
     * If you are calculating the stress with vdW-DF, please also cite:
     *
     *   R. Sabatini, E. Kucukbenli, B. Kolb, T. Thonhauser, and
     *   S. de Gironcoli, J. Phys.: Condens. Matter 24, 424209 (2012).
     *

     Carrying out vdW-DF run using the following parameters:

     Nqs =      20    Nr_points =    1024   r_max =   100.000
     q_mesh =
               0.00001000     0.04494208     0.09755937     0.15916263
               0.23128650     0.31572767     0.41458969     0.53033537
               0.66584808     0.82450364     1.01025438     1.22772762
               1.48234092     1.78043706     2.12944203     2.53805004
               3.01644009     3.57652955     4.23227104     5.00000000

     Gradients computed in reciprocal space

     Adding external electric field

     Computed dipole along edir(3) :
        Dipole               -2.1737 Ry au,         -5.5250 Debye
        Dipole field         -0.0077 Ry au

        Potential amp.        0.6328 Ry
        Total length         40.9758 bohr

[...]

     Starting wfc are  160 randomized atomic wfcs

     Self-consistent Calculation

     iteration #  1     ecut=    36.75 Ry     beta=0.10
     Davidson diagonalization with overlap
     ethr =  1.00E-02,  avg # of iterations =  7.7

[...]

     Magnetic moment per site:
     atom:    1    charge:   14.5243    magn:    1.6437    constr:    0.0000
     atom:    2    charge:   14.5245    magn:    1.6437    constr:    0.0000
     atom:    3    charge:   14.5245    magn:    1.6437    constr:    0.0000
     atom:    4    charge:   14.5244    magn:    1.6461    constr:    0.0000
     atom:    5    charge:   14.3759    magn:    1.6481    constr:    0.0000
     atom:    6    charge:   14.3647    magn:    1.6427    constr:    0.0000
     atom:    7    charge:   14.3758    magn:    1.6481    constr:    0.0000
     atom:    8    charge:   14.3759    magn:    1.6481    constr:    0.0000
     atom:    9    charge:   14.1294    magn:    1.5997    constr:    0.0000
     atom:   10    charge:   14.1306    magn:    1.5853    constr:    0.0000
     atom:   11    charge:   14.1306    magn:    1.5853    constr:    0.0000
     atom:   12    charge:   14.1306    magn:    1.5853    constr:    0.0000
     atom:   13    charge:    5.1120    magn:    0.0163    constr:    0.0000

     total energy              =   -3458.42611719 Ry
     Harris-Foulkes estimate   =   -3652.31584869 Ry
     estimated scf accuracy    <    1067.42531999 Ry

     total magnetization       =    10.19 Bohr mag/cell
     absolute magnetization    =    10.84 Bohr mag/cell

[...]

     End of self-consistent calculation

 ------ SPIN UP ------------

          k = 0.0000 0.0000 0.0000 ( 13257 PWs)   bands (ev):

   -95.8648 -95.7884 -95.7660 -95.7657 -95.6381 -95.6105 -95.6073 -95.6041
   -95.6017 -95.5665 -95.5482 -95.5481 -59.2033 -59.1935 -59.1935 -59.1631
   -59.1445 -59.0807 -59.0796 -59.0623 -59.0357 -59.0346 -58.9978 -58.9973
   -58.9874 -58.9540 -58.9252 -58.9250 -58.9076 -58.9038 -58.9037 -58.8847
   -58.8818 -58.8815 -58.8762 -58.8646 -58.8645 -58.8254 -58.7764 -58.7744
   -58.7442 -58.7441 -58.7262 -58.6860 -58.6847 -58.6826 -58.6826 -58.6750
   -18.4658  -7.3280  -5.5238  -5.1317  -5.1316  -4.8619  -4.3642  -4.2388
    -4.2386  -4.1802  -3.9395  -3.9394  -3.9204  -3.6213  -3.6212  -3.6158
    -3.3825  -3.3825  -2.8995  -2.7516  -2.7515  -2.6562  -2.3579  -2.3578
    -2.2415  -2.1384  -2.1384  -2.1252  -1.9537  -1.9535  -1.9276  -1.8915
    -1.8914  -1.7711  -1.7683  -1.7680  -1.4885  -1.4879  -1.4597  -1.1419
    -1.1419  -1.0934  -1.0263  -1.0263  -0.9162  -0.9158  -0.6998  -0.6995
    -0.5957  -0.5542  -0.5535  -0.5352  -0.5186  -0.4302  -0.4300  -0.3005
    -0.3003  -0.2420  -0.1300  -0.1291  -0.1170  -0.0543  -0.0084  -0.0083
     0.0003   0.3036   0.3050

[...]

          k =-0.5000 0.2887 0.0000 ( 13378 PWs)   bands (ev):

[...]

 ------ SPIN DOWN ----------

[...]

     the Fermi energy is     0.7250 ev

!    total energy              =   -3626.90275824 Ry
     Harris-Foulkes estimate   =   -3626.90275396 Ry
     estimated scf accuracy    <       0.00009196 Ry

     The total energy is the sum of the following terms:

     one-electron contribution =  -32243.01581396 Ry
     hartree contribution      =   16129.22802178 Ry
     xc contribution           =    -412.91179572 Ry
     ewald contribution        =   12899.87190741 Ry
     electric field correction =       0.00004818 Ry
     smearing contrib. (-TS)   =      -0.07512593 Ry

[...]

     convergence has been achieved in  29 iterations

     Forces acting on atoms (Ry/au):

     negative rho (up, down):  6.989E-04 3.713E-04
     atom    1 type  1   force =     0.00024344    0.00024784    0.01352753
     atom    2 type  1   force =    -0.00022286    0.00021793    0.01353273
     atom    3 type  1   force =    -0.00002364   -0.00034518    0.01345750
     atom    4 type  1   force =     0.00004472   -0.00010691    0.01253820
     atom    5 type  1   force =    -0.00020231    0.00478782   -0.00924059
     atom    6 type  1   force =     0.00021872    0.00047293   -0.01492290
     atom    7 type  1   force =    -0.00373753   -0.00249105   -0.00973442
     atom    8 type  1   force =     0.00375708   -0.00273768   -0.00952822
     atom    9 type  1   force =    -0.00005371    0.00003202    0.00260351
     atom   10 type  1   force =     0.00000085   -0.00280987   -0.00274533
     atom   11 type  1   force =    -0.00242684    0.00131198   -0.00299530
     atom   12 type  1   force =     0.00222324    0.00120094   -0.00291698
     atom   13 type  2   force =     0.00017884    0.00021922   -0.00357573

     Total force =     0.008158     Total SCF correction =     0.026668
     SCF correction compared to forces is large: reduce conv_thr to get better values

     BFGS Geometry Optimization

     number of scf cycles    =   1
     number of bfgs steps    =   0

     energy   new            =   -3626.9027582368 Ry

     new trust radius        =       0.0040721850 bohr
     new conv_thr            =       0.0001000000 Ry

ATOMIC_POSITIONS (angstrom)
Co       1.253137179   0.723499087  10.000000000    0   0   0
Co       3.759411536   0.723499087  10.000000000    0   0   0
Co       2.506274357   2.893996350  10.000000000    0   0   0
Co       5.012548715   2.893996350  10.000000000    0   0   0
Co       5.012548715   1.446998175  12.046364444    0   0   0
Co       2.506274357   1.446998175  12.046364444    0   0   0
Co       6.265685894   3.617495438  12.046364444    0   0   0
Co       3.759411536   3.617495438  12.046364444    0   0   0
Co       0.000051912   0.000072368  13.993512673
Co       2.506197510  -0.049158635  14.102727595
Co       1.210509570   2.194966028  14.102533543
Co       3.801893891   2.194975979  14.102546873
O        2.506355112   1.447143093  15.202162658

     Writing output data file calc.save
     Check: negative starting charge=(component1):   -0.000465
     NEW-OLD atomic charge density approx. for the potential

     Check: negative/imaginary core charge=   -0.000007    0.000000
     Check: negative starting charge=(component1):   -0.000465

[...]

     energy   old            =   -3626.9027582368 Ry
     energy   new            =   -3626.9027970507 Ry

     CASE: energy  _new < energy  _old

[...]

     number of scf cycles    =   3
     number of bfgs steps    =   2

     energy   old            =   -3626.9027970507 Ry
     energy   new            =   -3626.9029085388 Ry

     CASE: energy  _new < energy  _old

     new trust radius        =       0.0183077316 bohr
     new conv_thr            =       0.0000010000 Ry

ATOMIC_POSITIONS (angstrom)
Co       1.253137179   0.723499087  10.000000000    0   0   0
Co       3.759411536   0.723499087  10.000000000    0   0   0
Co       2.506274357   2.893996350  10.000000000    0   0   0
Co       5.012548715   2.893996350  10.000000000    0   0   0
Co       5.012548715   1.446998175  12.046364444    0   0   0
Co       2.506274358   1.446998175  12.046364444    0   0   0
Co       6.265685894   3.617495437  12.046364444    0   0   0
Co       3.759411536   3.617495437  12.046364444    0   0   0
Co      -0.000122180  -0.000128820  13.997155286
Co       2.506294368  -0.047721517  14.090661268
Co       1.211756078   2.194484180  14.089921681
Co       3.800758945   2.194438016  14.089742682
O        2.506288234   1.446919574  15.191918548

     Writing output data file calc.save
     Check: negative starting charge=(component1):   -0.000465
     NEW-OLD atomic charge density approx. for the potential

     Check: negative/imaginary core charge=   -0.000007    0.000000
     Check: negative starting charge=(component1):   -0.000464

[...]

     Self-consistent Calculation

[...]

     total energy              =   -3626.90299289 Ry
     Harris-Foulkes estimate   =   -3626.90299270 Ry
     estimated scf accuracy    <       0.00001804 Ry

[...]

     iteration # 13     ecut=    36.75 Ry     beta=0.10
     Davidson diagonalization with overlap
     ethr =  1.77E-09,  avg # of iterations =  1.9

     negative rho (up, down):  6.971E-04 3.685E-04

[...]

     Adding external electric field

     Computed dipole along edir(3) :
        Dipole               -0.1287 Ry au,         -0.3270 Debye
        Dipole field         -0.0005 Ry au

        Potential amp.        0.0375 Ry
        Total length         40.9758 bohr

     Magnetic moment per site:
     atom:    1    charge:   14.0122    magn:    1.6831    constr:    0.0000
     atom:    2    charge:   14.0122    magn:    1.6831    constr:    0.0000
     atom:    3    charge:   14.0122    magn:    1.6831    constr:    0.0000
     atom:    4    charge:   14.0114    magn:    1.7194    constr:    0.0000
     atom:    5    charge:   14.0164    magn:    1.6803    constr:    0.0000
     atom:    6    charge:   14.0138    magn:    1.7690    constr:    0.0000
     atom:    7    charge:   14.0164    magn:    1.6804    constr:    0.0000
     atom:    8    charge:   14.0164    magn:    1.6804    constr:    0.0000
     atom:    9    charge:   14.0353    magn:    1.7551    constr:    0.0000
     atom:   10    charge:   14.0137    magn:    1.5125    constr:    0.0000
     atom:   11    charge:   14.0135    magn:    1.5129    constr:    0.0000
     atom:   12    charge:   14.0136    magn:    1.5128    constr:    0.0000
     atom:   13    charge:    5.1037    magn:    0.0914    constr:    0.0000

     End of self-consistent calculation

 ------ SPIN UP ------------

[...]

 ------ SPIN DOWN ----------

[...]

          k = 0.3333-0.3849 0.0000 ( 13313 PWs)   bands (ev):

[...]

          k =-0.5000-0.2887 0.0000 ( 13378 PWs)   bands (ev):

   -93.5044 -93.4900 -93.4822 -93.3831 -93.3763 -93.3653 -93.3392 -93.1885
   -93.1859 -93.1716 -93.1677 -93.1364 -57.0909 -57.0243 -56.9835 -56.8313
   -56.8227 -56.8155 -56.8138 -56.7934 -56.7778 -56.7488 -56.7448 -56.7402
   -56.7278 -56.7269 -56.7223 -56.7086 -56.6838 -56.6695 -56.6613 -56.6461
   -56.6306 -56.6093 -56.6087 -56.5486 -56.5459 -56.5334 -56.5301 -56.5052
   -56.4967 -56.4882 -56.4875 -56.4825 -56.4784 -56.4662 -56.4602 -56.4570
   -18.2806  -5.7802  -5.5698  -4.6849  -4.5103  -4.3480  -3.5333  -3.2402
    -2.9241  -2.8538  -2.4715  -2.3944  -2.3548  -2.1789  -1.8660  -1.8350
    -1.7176  -1.6618  -1.4582  -1.4263  -1.2427  -1.1903  -1.1835  -1.1099
    -1.0828  -1.0724  -0.8031  -0.7250  -0.6436  -0.6235  -0.5803  -0.5506
    -0.4895  -0.4039  -0.3740  -0.2077  -0.1441  -0.1396  -0.0946  -0.0533
     0.0653   0.1760   0.1989   0.4657   0.5218   0.5512   0.6084   0.6827
     0.7334   0.7595   0.8233   0.9067   0.9388   0.9815   1.1179   1.1442
     1.2052   1.2775   1.3155   1.4903   1.4991   1.6354   1.7158   1.7495
     1.7868   1.8501   2.0431

     the Fermi energy is     0.7114 ev

!    total energy              =   -3626.90299487 Ry
     Harris-Foulkes estimate   =   -3626.90299421 Ry
     estimated scf accuracy    <       0.00000081 Ry

     The total energy is the sum of the following terms:

     one-electron contribution =  -32286.55210480 Ry
     hartree contribution      =   16150.96613148 Ry
     xc contribution           =    -412.92328195 Ry
     ewald contribution        =   12921.68062183 Ry
     electric field correction =       0.00005879 Ry
     smearing contrib. (-TS)   =      -0.07442022 Ry

     total magnetization       =    19.78 Bohr mag/cell
     absolute magnetization    =    22.35 Bohr mag/cell

     convergence has been achieved in  13 iterations

     Forces acting on atoms (Ry/au):

     negative rho (up, down):  6.971E-04 3.685E-04
     atom    1 type  1   force =     0.00010165    0.00005825    0.00822049
     atom    2 type  1   force =    -0.00010326    0.00005261    0.00822917
     atom    3 type  1   force =    -0.00000583   -0.00011637    0.00824103
     atom    4 type  1   force =     0.00000355    0.00000163    0.00772802
     atom    5 type  1   force =     0.00000798    0.00449614   -0.00670753
     atom    6 type  1   force =    -0.00000864   -0.00001571   -0.01194115
     atom    7 type  1   force =    -0.00392404   -0.00224588   -0.00666646
     atom    8 type  1   force =     0.00391712   -0.00223323   -0.00667606
     atom    9 type  1   force =     0.00001756    0.00002753    0.00008950
     atom   10 type  1   force =    -0.00000781   -0.00038510   -0.00025611
     atom   11 type  1   force =    -0.00022205    0.00010477   -0.00000179
     atom   12 type  1   force =     0.00022227    0.00011517    0.00003889
     atom   13 type  2   force =     0.00000149    0.00014019   -0.00029800

     Total force =     0.000675     Total SCF correction =     0.004887
     SCF correction compared to forces is large: reduce conv_thr to get better values

     bfgs converged in   4 scf cycles and   3 bfgs steps
     (criteria: energy <  1.0E+12, force <  1.9E-03)

     End of BFGS Geometry Optimization

     Final energy   =   -3626.9029948660 Ry
Begin final coordinates

ATOMIC_POSITIONS (angstrom)
Co       1.253137179   0.723499087  10.000000000    0   0   0
Co       3.759411536   0.723499087  10.000000000    0   0   0
Co       2.506274357   2.893996350  10.000000000    0   0   0
Co       5.012548715   2.893996350  10.000000000    0   0   0
Co       5.012548715   1.446998175  12.046364444    0   0   0
Co       2.506274358   1.446998175  12.046364444    0   0   0
Co       6.265685894   3.617495437  12.046364444    0   0   0
Co       3.759411536   3.617495437  12.046364444    0   0   0
Co      -0.000122180  -0.000128820  13.997155286
Co       2.506294368  -0.047721517  14.090661268
Co       1.211756078   2.194484180  14.089921681
Co       3.800758945   2.194438016  14.089742682
O        2.506288234   1.446919574  15.191918548
End final coordinates

     Writing output data file calc.save

     General routines

     Parallel routines

   This run was terminated on:  18:19:40  11Jan2019

   JOB DONE.
Job  /afs/slac/g/suncat/bin/suncat-tsmpirun -x LD_LIBRARY_PATH -wdir /tmp/qe_673154pe8pq5rl_scratch pw.x -npool 4 -in pw.pwi

TID   HOST_NAME   COMMAND_LINE            STATUS            TERMINATION_TIME
00000 suncat0192 pw.x -npool 4 -i  Done                     01/11/2019 18:19:40
00001 suncat0192 pw.x -npool 4 -i  Done                     01/11/2019 18:19:40
00002 suncat0192 pw.x -npool 4 -i  Done                     01/11/2019 18:19:40
00003 suncat0192 pw.x -npool 4 -i  Done                     01/11/2019 18:19:40
00004 suncat0192 pw.x -npool 4 -i  Done                     01/11/2019 18:19:40
00005 suncat0192 pw.x -npool 4 -i  Done                     01/11/2019 18:19:40
00006 suncat0192 pw.x -npool 4 -i  Done                     01/11/2019 18:19:40
00007 suncat0192 pw.x -npool 4 -i  Done                     01/11/2019 18:19:40
00008 suncat0190 pw.x -npool 4 -i  Done                     01/11/2019 18:19:40
00009 suncat0190 pw.x -npool 4 -i  Done                     01/11/2019 18:19:40
00010 suncat0190 pw.x -npool 4 -i  Done                     01/11/2019 18:19:40
00011 suncat0190 pw.x -npool 4 -i  Done                     01/11/2019 18:19:40
00012 suncat0190 pw.x -npool 4 -i  Done                     01/11/2019 18:19:40
00013 suncat0190 pw.x -npool 4 -i  Done                     01/11/2019 18:19:40
00014 suncat0190 pw.x -npool 4 -i  Done                     01/11/2019 18:19:40
00015 suncat0190 pw.x -npool 4 -i  Done                     01/11/2019 18:19:40
00016 suncat0005 pw.x -npool 4 -i  Done                     01/11/2019 18:19:40
00017 suncat0005 pw.x -npool 4 -i  Done                     01/11/2019 18:19:40
00018 suncat0005 pw.x -npool 4 -i  Done                     01/11/2019 18:19:40
00019 suncat0005 pw.x -npool 4 -i  Done                     01/11/2019 18:19:40
00020 suncat0005 pw.x -npool 4 -i  Done                     01/11/2019 18:19:40
00021 suncat0005 pw.x -npool 4 -i  Done                     01/11/2019 18:19:40
00022 suncat0005 pw.x -npool 4 -i  Done                     01/11/2019 18:19:40
00023 suncat0005 pw.x -npool 4 -i  Done                     01/11/2019 18:19:40
00024 suncat0002 pw.x -npool 4 -i  Done                     01/11/2019 18:19:40
00025 suncat0002 pw.x -npool 4 -i  Done                     01/11/2019 18:19:40
00026 suncat0002 pw.x -npool 4 -i  Done                     01/11/2019 18:19:40
00027 suncat0002 pw.x -npool 4 -i  Done                     01/11/2019 18:19:40
00028 suncat0002 pw.x -npool 4 -i  Done                     01/11/2019 18:19:40
00029 suncat0002 pw.x -npool 4 -i  Done                     01/11/2019 18:19:40
00030 suncat0002 pw.x -npool 4 -i  Done                     01/11/2019 18:19:40
00031 suncat0002 pw.x -npool 4 -i  Done                     01/11/2019 18:19:40