     Program PWSCF v.5.1rc2 (svn rev. 11289) starts on 25Apr2018 at  2:19:54

     Current dimensions of program PWSCF are:
     Max number of different atomic species (ntypx) = 10
     Max number of k-points (npk) =  40000
     Max angular momentum in pseudopotentials (lmaxx) =  3
     Presently stress not available with electric field

     IMPORTANT: XC functional enforced from input :
     Exchange-correlation      = BEEF-VDW ( 1  4 27 13 2)
     Any further DFT definition will be discarded
     Please, verify this is what you really want

     Subspace diagonalization in iterative solution of the eigenvalue problem:
     a serial algorithm will be used

     bravais-lattice index     =            0
     lattice parameter (alat)  =       1.8897  a.u.
     unit-cell volume          =    4515.4205 (a.u.)^3
     number of atoms/cell      =           14
     number of atomic types    =            3
     number of electrons       =       245.00
     number of Kohn-Sham states=          132
     kinetic-energy cutoff     =      36.7493  Ry
     charge density cutoff     =     367.4932  Ry
     convergence threshold     =      1.0E-05
     mixing beta               =       0.3000
     number of iterations used =           10  plain     mixing
     Exchange-correlation      = BEEF-VDW ( 1  4 27 13 2)
     nstep                     =           50

     celldm(1)=   1.889726  celldm(2)=   0.000000  celldm(3)=   0.000000
     celldm(4)=   0.000000  celldm(5)=   0.000000  celldm(6)=   0.000000

     crystal axes: (cart. coord. in units of alat)
               a(1) = (   5.606773   0.000000   0.000000 )
               a(2) = (   2.803387   4.855608   0.000000 )
               a(3) = (   0.000000   0.000000  24.577911 )

     reciprocal axes: (cart. coord. in units 2 pi/alat)
               b(1) = (  0.178356 -0.102974  0.000000 )
               b(2) = (  0.000000  0.205947  0.000000 )
               b(3) = (  0.000000  0.000000  0.040687 )

     PseudoPot. # 1 for Zn read from file:
     /u/if/mamunm/psp/gbrv1.5pbe/Zn.UPF
     MD5 check sum: df62231357ef9e81f77b2b3087fa5675
     Pseudo is Ultrasoft, Zval = 20.0
     Generated by new atomic code, or converted to UPF format
     Using radial grid of  943 points,  6 beta functions with:
                l(1) =   0
                l(2) =   0
                l(3) =   1
                l(4) =   1
                l(5) =   2
                l(6) =   2
     Q(r) pseudized with  8 coefficients,  rinner =    1.100   1.100   1.100
                                                       1.100   1.100

     PseudoPot. # 2 for C  read from file:
     /u/if/mamunm/psp/gbrv1.5pbe/C.UPF
     MD5 check sum: d1aef80898a10debaa0f26306b886e00
     Pseudo is Ultrasoft + core correction, Zval =  4.0
     Generated by new atomic code, or converted to UPF format
     Using radial grid of  721 points,  4 beta functions with:
                l(1) =   0
                l(2) =   0
                l(3) =   1
                l(4) =   1
     Q(r) pseudized with  8 coefficients,  rinner =    1.100   1.100   1.100

     PseudoPot. # 3 for H  read from file:
     /u/if/mamunm/psp/gbrv1.5pbe/H.UPF
     MD5 check sum: 761ae9a214b05c3daf00ab9f6b793d6f
     Pseudo is Ultrasoft, Zval =  1.0
     Generated by new atomic code, or converted to UPF format
     Using radial grid of  615 points,  2 beta functions with:
                l(1) =   0
                l(2) =   0
     Q(r) pseudized with  8 coefficients,  rinner =    0.700

     vdW kernel table read from file vdW_kernel_table
     MD5 check sum: 095c7af220d748ca6e76c0b4c6cfb241

     atomic species   valence    mass     pseudopotential
        Zn1           20.00    65.38000     Zn( 1.00)
        C1             4.00    12.01100     C ( 1.00)
        H1             1.00     1.00800     H ( 1.00)

     No symmetry found

   Cartesian axes

     site n.     atom                  positions (alat units)
         1           Zn1 tau(   1) = (   1.4016933   0.8092680  10.0000000  )
         2           Zn1 tau(   2) = (   4.2050800   0.8092680  10.0000000  )
         3           Zn1 tau(   3) = (   2.8033867   3.2370721  10.0000000  )
         4           Zn1 tau(   4) = (   5.6067733   3.2370721  10.0000000  )
         5           Zn1 tau(   5) = (   5.6067733   1.6185360  12.2889556  )
         6           Zn1 tau(   6) = (   2.8033867   1.6185360  12.2889556  )
         7           Zn1 tau(   7) = (   7.0084667   4.0463401  12.2889556  )
         8           Zn1 tau(   8) = (   4.2050800   4.0463401  12.2889556  )
         9           Zn1 tau(   9) = (   0.0000000   0.0000000  14.5779113  )
        10           Zn1 tau(  10) = (   2.8033867   0.0000000  14.5779113  )
        11           Zn1 tau(  11) = (   1.4016933   2.4278041  14.5779113  )
        12           Zn1 tau(  12) = (   4.2050800   2.4278041  14.5779113  )
        13           C1  tau(  13) = (   1.4016933   0.8092680  15.8649113  )
        14           H1  tau(  14) = (   1.4016933   0.8092680  16.9649113  )

     number of k points=    20  Fermi-Dirac smearing, width (Ry)=  0.0110
                       cart. coord. in units 2pi/alat
        k(    1) = (   0.0000000   0.0000000   0.0000000), wk =   0.0555556
        k(    2) = (   0.0000000   0.0343246   0.0000000), wk =   0.1111111
        k(    3) = (   0.0000000   0.0686491   0.0000000), wk =   0.1111111
        k(    4) = (   0.0000000  -0.1029737   0.0000000), wk =   0.0555556
        k(    5) = (   0.0297260  -0.0171623   0.0000000), wk =   0.1111111
        k(    6) = (   0.0297260   0.0171623   0.0000000), wk =   0.1111111
        k(    7) = (   0.0297260   0.0514869   0.0000000), wk =   0.1111111
        k(    8) = (   0.0297260  -0.1201360   0.0000000), wk =   0.1111111
        k(    9) = (   0.0297260  -0.0858114   0.0000000), wk =   0.1111111
        k(   10) = (   0.0297260  -0.0514869   0.0000000), wk =   0.1111111
        k(   11) = (   0.0594519  -0.0343246   0.0000000), wk =   0.1111111
        k(   12) = (   0.0594519   0.0000000   0.0000000), wk =   0.1111111
        k(   13) = (   0.0594519   0.0343246   0.0000000), wk =   0.1111111
        k(   14) = (   0.0594519  -0.1372983   0.0000000), wk =   0.1111111
        k(   15) = (   0.0594519  -0.1029737   0.0000000), wk =   0.1111111
        k(   16) = (   0.0594519  -0.0686491   0.0000000), wk =   0.1111111
        k(   17) = (  -0.0891779   0.0514869   0.0000000), wk =   0.0555556
        k(   18) = (  -0.0891779   0.0858114   0.0000000), wk =   0.1111111
        k(   19) = (  -0.0891779   0.1201360   0.0000000), wk =   0.1111111
        k(   20) = (  -0.0891779  -0.0514869   0.0000000), wk =   0.0555556

     Largest allocated arrays     est. size (Mb)     dimensions
     Largest temporary arrays     est. size (Mb)     dimensions

     Initial potential from superposition of free atoms
     Check: negative starting charge=   -0.000775

     starting charge  244.99826, renormalised to  245.00000

     negative rho (up, down):  7.746E-04 0.000E+00

     *
     * You are using vdW-DF for exchange-correlation in this calculation.
     * Please cite the following three references that made this development
     * possible:
     *
     *   M. Dion, H. Rydberg, E. Schroder, D. C. Langreth, and
     *   B. I. Lundqvist, Phys. Rev. Lett. 92, 246401 (2004).
     *
     *   T. Thonhauser, V. R. Cooper, S. Li, A. Puzder, P. Hyldgaard, and
     *   D. C. Langreth, Phys. Rev. B 76, 125112 (2007).
     *
     *   G. Roman-Perez and J. M. Soler, Phys. Rev. Lett. 103, 096102 (2009).
     *
     *
     * If you are using vdW-DF2, please also cite:
     *
     *   K. Lee, E. D. Murray, L. Kong, B. I. Lundqvist, and
     *   D. C. Langreth, Phys. Rev. B 82, 081101(R) (2010).
     *
     *
     * If you are calculating the stress with vdW-DF, please also cite:
     *
     *   R. Sabatini, E. Kucukbenli, B. Kolb, T. Thonhauser, and
     *   S. de Gironcoli, J. Phys.: Condens. Matter 24, 424209 (2012).
     *

     Carrying out vdW-DF run using the following parameters:

     Nqs =      20    Nr_points =    1024   r_max =   100.000
     q_mesh =
               0.00001000     0.04494208     0.09755937     0.15916263
               0.23128650     0.31572767     0.41458969     0.53033537
               0.66584808     0.82450364     1.01025438     1.22772762
               1.48234092     1.78043706     2.12944203     2.53805004
               3.01644009     3.57652955     4.23227104     5.00000000

     Gradients computed in reciprocal space

     Adding external electric field

     Computed dipole along edir(3) :
        Dipole                0.0001 Ry au,          0.0002 Debye
        Dipole field          0.0000 Ry au

        Potential amp.       -0.0000 Ry
        Total length         45.2844 bohr

     Starting wfc are  161 randomized atomic wfcs

     Self-consistent Calculation

     iteration #  1     ecut=    36.75 Ry     beta=0.30
     Davidson diagonalization with overlap
     ethr =  1.00E-02,  avg # of iterations =  2.4

[...]

     total energy              =   -5565.01166893 Ry
     Harris-Foulkes estimate   =   -5566.21378781 Ry
     estimated scf accuracy    <       2.66407745 Ry

[...]

     End of self-consistent calculation

          k = 0.0000 0.0000 0.0000 ( 16931 PWs)   bands (ev):

  -126.3156-126.3125-126.3117-126.3117-126.1492-126.0736-126.0727-126.0726
  -126.0623-126.0244-126.0235-126.0235 -80.4972 -80.4972 -80.4961 -80.4929
   -80.4929 -80.4917 -80.4905 -80.4849 -80.4849 -80.4813 -80.4798 -80.4798
   -80.3418 -80.3202 -80.3202 -80.2598 -80.2589 -80.2589 -80.2541 -80.2492
   -80.2491 -80.2442 -80.2442 -80.2433 -80.2411 -80.2411 -80.2390 -80.2277
   -80.2253 -80.2253 -80.2215 -80.2197 -80.2197 -80.1554 -80.1499 -80.1499
   -11.0001  -8.9482  -7.8618  -7.8593  -7.8593  -7.8593  -7.7865  -7.7762
    -7.7762  -7.7546  -7.6663  -7.6663  -7.6538  -7.5568  -7.5363  -7.5363
    -7.3212  -7.3212  -7.2886  -7.2845  -7.2845  -7.2695  -7.2687  -7.2687
    -7.2062  -7.2062  -7.1957  -7.1828  -7.1588  -7.1588  -7.0701  -7.0701
    -6.9245  -6.9245  -6.8687  -6.8680  -6.8680  -6.8248  -6.8248  -6.8023
    -6.8014  -6.8014  -6.7992  -6.7477  -6.7477  -6.7376  -6.7289  -6.7289
    -6.6859  -6.6859  -6.6477  -6.6467  -6.6467  -6.6297  -6.6036  -6.6036
    -6.5165  -6.5165  -6.4918  -6.4826  -6.4826  -6.4722  -6.4604  -4.2623
    -2.9823  -2.1773  -2.1773  -2.0696  -2.0696  -1.9789  -1.4296  -1.2821
    -1.2821  -0.7185  -0.1610  -0.0308  -0.0308   0.7196   0.7196   1.4736
     2.4436   2.4436   2.7175   2.9999

[...]

          k =-0.0892 0.0515 0.0000 ( 17028 PWs)   bands (ev):

[...]

     the Fermi energy is     0.4786 ev

!    total energy              =   -5565.91442740 Ry
     Harris-Foulkes estimate   =   -5565.91442370 Ry
     estimated scf accuracy    <       0.00000232 Ry

     The total energy is the sum of the following terms:

     one-electron contribution =  -36008.15131042 Ry
     hartree contribution      =   17984.72623524 Ry
     xc contribution           =    -525.26690969 Ry
     ewald contribution        =   12982.80380603 Ry
     electric field correction =       0.00001011 Ry
     smearing contrib. (-TS)   =      -0.02625867 Ry

     convergence has been achieved in  10 iterations

 BEEF-vdW xc energy contributions
           1 :   -466.543185311239
           2 :    422.799286926120
           3 :   -349.457750705923
           4 :    267.790412190048
           5 :   -196.578684067608
           6 :    145.110016700379
           7 :   -111.946309587818
           8 :    89.1762420096232
           9 :   -68.8839546439731
          10 :    47.7773281612314
          11 :   -27.6771868668529
          12 :    12.4888061006735
          13 :   -4.40080579823757
          14 :    2.06392832615734
          15 :   -1.68906259223775
          16 :  -0.176586761975273
          17 :    4.43981558937372
          18 :   -9.35287783844200
          19 :    12.3181528880397
          20 :   -12.0603462413660
          21 :    9.53709617661661
          22 :   -7.06588417362104
          23 :    6.50887669557738
          24 :   -7.96824200076310
          25 :    9.91717393092938
          26 :   -10.5345329619049
          27 :    9.12948234957707
          28 :   -6.57833822557461
          29 :    4.53344446967412
          30 :   -4.11105106465288
          31 :   -36.2688743123535
          32 :   -24.7627161488721

     Forces acting on atoms (Ry/au):

     negative rho (up, down):  1.129E-03 0.000E+00
     atom    1 type  1   force =    -0.00000003   -0.00000294   -0.00847565
     atom    2 type  1   force =    -0.00000258    0.00063200   -0.00920799
     atom    3 type  1   force =     0.00054019   -0.00031377   -0.00921927
     atom    4 type  1   force =    -0.00054440   -0.00031142   -0.00921821
     atom    5 type  1   force =     0.00108139   -0.00063231   -0.00020401
     atom    6 type  1   force =    -0.00108623   -0.00061926   -0.00019521
     atom    7 type  1   force =     0.00001213   -0.00000641    0.01289829
     atom    8 type  1   force =    -0.00000258    0.00125633   -0.00019923
     atom    9 type  1   force =    -0.01088399   -0.00628044    0.02691029
     atom   10 type  1   force =     0.01088482   -0.00628297    0.02690639
     atom   11 type  1   force =     0.00000304    0.01256524    0.02691185
     atom   12 type  1   force =    -0.00000308   -0.00000280    0.00200256
     atom   13 type  2   force =     0.00000070   -0.00000072   -0.04648462
     atom   14 type  3   force =     0.00000062   -0.00000053   -0.01242517

     Total force =     0.070465     Total SCF correction =     0.002173

     entering subroutine stress ...

     negative rho (up, down):  1.129E-03 0.000E+00
          total   stress  (Ry/bohr**3)                   (kbar)     P=  -15.50
  -0.00013269  -0.00000000  -0.00000000        -19.52     -0.00     -0.00
  -0.00000000  -0.00013269   0.00000000         -0.00    -19.52      0.00
  -0.00000000   0.00000000  -0.00005075         -0.00      0.00     -7.47

     BFGS Geometry Optimization

     number of scf cycles    =   1
     number of bfgs steps    =   0

     energy   new            =   -5565.9144273965 Ry

     new trust radius        =       0.0464846239 bohr
     new conv_thr            =       0.0000099958 Ry

ATOMIC_POSITIONS (crystal)
Zn1      0.166666667   0.166666667   0.406869400    0   0   0
Zn1      0.666666667   0.166666667   0.406869400    0   0   0
Zn1      0.166666667   0.666666667   0.406869400    0   0   0
Zn1      0.666666667   0.666666667   0.406869400    0   0   0
Zn1      0.833333333   0.333333333   0.500000000    0   0   0
Zn1      0.333333333   0.333333333   0.500000000    0   0   0
Zn1      0.833333333   0.833333333   0.500000000    0   0   0
Zn1      0.333333333   0.833333333   0.500000000    0   0   0
Zn1     -0.000685020  -0.000684459   0.593709995
Zn1      0.501369696  -0.000684735   0.593709911
Zn1     -0.000684410   0.501369394   0.593710029
Zn1      0.499999862   0.499999695   0.593173717
C1       0.166666772   0.166666589   0.644493850
H1       0.166666755   0.166666609   0.689982805

     Writing output data file calc.save
     Check: negative starting charge=   -0.000775
     NEW-OLD atomic charge density approx. for the potential
     Check: negative starting charge=   -0.000779

[...]

     Total force =     0.063313     Total SCF correction =     0.013974
     SCF correction compared to forces is large: reduce conv_thr to get better values

[...]

     energy   old            =   -5565.9144273965 Ry
     energy   new            =   -5565.9186852294 Ry

     CASE: energy  _new < energy  _old

[...]

     Threshold (ethr) on eigenvalues was too large:
     Diagonalizing with lowered threshold

     Davidson diagonalization with overlap
     ethr =  2.70E-09,  avg # of iterations =  3.0

[...]

     WARNING: bfgs curvature condition failed, Theta= 0.852
     new trust radius        =       0.0085697105 bohr
     new conv_thr            =       0.0000001000 Ry

[...]

     Total force =     0.004131     Total SCF correction =     0.000321

[...]

     number of scf cycles    =  17
     number of bfgs steps    =  16

     energy   old            =   -5565.9488172403 Ry
     energy   new            =   -5565.9488501314 Ry

     CASE: energy  _new < energy  _old

     new trust radius        =       0.0202140315 bohr
     new conv_thr            =       0.0000001000 Ry

ATOMIC_POSITIONS (crystal)
Zn1      0.166666667   0.166666667   0.406869400    0   0   0
Zn1      0.666666667   0.166666667   0.406869400    0   0   0
Zn1      0.166666667   0.666666667   0.406869400    0   0   0
Zn1      0.666666667   0.666666667   0.406869400    0   0   0
Zn1      0.833333333   0.333333333   0.500000000    0   0   0
Zn1      0.333333333   0.333333333   0.500000000    0   0   0
Zn1      0.833333333   0.833333333   0.500000000    0   0   0
Zn1      0.333333333   0.833333333   0.500000000    0   0   0
Zn1     -0.015668789  -0.015673273   0.607277285
Zn1      0.531339941  -0.015674067   0.607276912
Zn1     -0.015674176   0.531341687   0.607277462
Zn1      0.500002758   0.500004610   0.590533614
C1       0.166665197   0.166668530   0.642215335
H1       0.166672741   0.166662850   0.686774037

     Writing output data file calc.save
     Check: negative starting charge=   -0.000775
     NEW-OLD atomic charge density approx. for the potential
     Check: negative starting charge=   -0.000776

[...]

     Self-consistent Calculation

[...]

     Threshold (ethr) on eigenvalues was too large:
     Diagonalizing with lowered threshold

     Davidson diagonalization with overlap
     ethr =  8.76E-09,  avg # of iterations =  1.1

[...]

     total energy              =   -5565.94886381 Ry
     Harris-Foulkes estimate   =   -5565.94886373 Ry
     estimated scf accuracy    <       0.00000102 Ry

     iteration #  6     ecut=    36.75 Ry     beta=0.30
     Davidson diagonalization with overlap
     ethr =  4.15E-10,  avg # of iterations =  2.3

[...]

     negative rho (up, down):  1.062E-03 0.000E+00

     Adding external electric field

     Computed dipole along edir(3) :
        Dipole                0.0007 Ry au,          0.0019 Debye
        Dipole field          0.0000 Ry au

        Potential amp.       -0.0002 Ry
        Total length         45.2844 bohr

     End of self-consistent calculation

[...]

          k = 0.0595-0.0686 0.0000 ( 16986 PWs)   bands (ev):

[...]

          k =-0.0892-0.0515 0.0000 ( 17028 PWs)   bands (ev):

  -126.1488-126.1485-126.1482-126.1348-126.0509-125.9776-125.9773-125.9770
  -125.9597-125.9053-125.9033-125.9032 -80.3355 -80.3349 -80.3343 -80.3247
   -80.3231 -80.3209 -80.3205 -80.3195 -80.3148 -80.3144 -80.3114 -80.3092
   -80.2458 -80.2214 -80.2212 -80.1660 -80.1656 -80.1652 -80.1542 -80.1505
   -80.1503 -80.1503 -80.1484 -80.1438 -80.1392 -80.1390 -80.1346 -80.1042
   -80.1024 -80.1017 -80.0951 -80.0945 -80.0921 -80.0468 -80.0327 -80.0314
   -11.1038  -7.6529  -7.6318  -7.5316  -7.4553  -7.4445  -7.4274  -7.3981
    -7.3715  -7.3673  -7.3400  -7.3363  -7.3284  -7.2882  -7.2446  -7.2135
    -7.1922  -7.1600  -7.1536  -7.1226  -7.1153  -7.1080  -7.0789  -7.0691
    -7.0548  -7.0154  -7.0013  -6.9900  -6.9867  -6.9680  -6.9635  -6.9293
    -6.8912  -6.8880  -6.8684  -6.8643  -6.8577  -6.8491  -6.8433  -6.8261
    -6.8220  -6.8125  -6.7744  -6.7465  -6.7437  -6.7269  -6.7085  -6.7002
    -6.6796  -6.6756  -6.6552  -6.6260  -6.6167  -6.6021  -6.5799  -6.5496
    -6.5330  -6.5235  -6.5048  -6.5045  -6.4883  -6.4259  -6.2848  -5.2194
    -4.9301  -3.5544  -3.3788  -2.8794  -2.8461  -2.4194  -2.0940  -0.3513
    -0.2271   0.0277   0.9466   1.6388   2.0743   2.7872   3.2781   3.3661
     3.4907   3.8431   4.0620   4.4341

     the Fermi energy is     0.6253 ev

!    total energy              =   -5565.94886386 Ry
     Harris-Foulkes estimate   =   -5565.94886389 Ry
     estimated scf accuracy    <       0.00000005 Ry

     The total energy is the sum of the following terms:

     one-electron contribution =  -34980.05062981 Ry
     hartree contribution      =   17471.70695014 Ry
     xc contribution           =    -525.27542451 Ry
     ewald contribution        =   12467.69230909 Ry
     electric field correction =       0.00000000 Ry
     smearing contrib. (-TS)   =      -0.02206879 Ry

     convergence has been achieved in   6 iterations

 BEEF-vdW xc energy contributions
           1 :   -466.547777858189
           2 :    422.744785342080
           3 :   -349.298779751499
           4 :    267.516552255148
           5 :   -196.220033950444
           6 :    144.720861631543
           7 :   -111.582914866452
           8 :    88.8810378384541
           9 :   -68.6783574400731
          10 :    47.6591246704407
          11 :   -27.6200988439544
          12 :    12.4482052349398
          13 :   -4.32982373297949
          14 :    1.93717781581944
          15 :   -1.52024911574080
          16 :  -0.339477040814529
          17 :    4.54344996708807
          18 :   -9.37354199273040
          19 :    12.2775846209758
          20 :   -12.0085586883353
          21 :    9.51313668762481
          22 :   -7.06591523167060
          23 :    6.48705562676196
          24 :   -7.87294299704951
          25 :    9.73759897920746
          26 :   -10.3205367991436
          27 :    8.96548603077656
          28 :   -6.52663026576352
          29 :    4.58752621146772
          30 :   -4.19578345501287
          31 :   -36.2673836863553
          32 :   -24.7382339280977

     Forces acting on atoms (Ry/au):

     negative rho (up, down):  1.062E-03 0.000E+00
     atom    1 type  1   force =    -0.00000009    0.00000001   -0.00832909
     atom    2 type  1   force =     0.00000013    0.00087326   -0.00998883
     atom    3 type  1   force =     0.00075627   -0.00043657   -0.00998870
     atom    4 type  1   force =    -0.00075624   -0.00043669   -0.00998863
     atom    5 type  1   force =     0.00438236   -0.00253042    0.00676396
     atom    6 type  1   force =    -0.00438181   -0.00252985    0.00676540
     atom    7 type  1   force =     0.00000012   -0.00000005    0.01525238
     atom    8 type  1   force =    -0.00000024    0.00506062    0.00676333
     atom    9 type  1   force =    -0.00031684   -0.00018111   -0.00035241
     atom   10 type  1   force =     0.00031765   -0.00017852   -0.00035421
     atom   11 type  1   force =     0.00000288    0.00036581   -0.00035425
     atom   12 type  1   force =    -0.00000418   -0.00000392    0.00191121
     atom   13 type  2   force =     0.00000154   -0.00000396    0.00173513
     atom   14 type  3   force =    -0.00000154    0.00000139    0.00016471

     Total force =     0.002732     Total SCF correction =     0.001139
     SCF correction compared to forces is large: reduce conv_thr to get better values

     entering subroutine stress ...

     negative rho (up, down):  1.062E-03 0.000E+00
          total   stress  (Ry/bohr**3)                   (kbar)     P=  -11.96
  -0.00011502  -0.00000000  -0.00000000        -16.92     -0.00     -0.00
  -0.00000000  -0.00011501  -0.00000000         -0.00    -16.92     -0.00
  -0.00000000  -0.00000000  -0.00001390         -0.00     -0.00     -2.05

     bfgs converged in  18 scf cycles and  17 bfgs steps
     (criteria: energy <  1.0E+00, force <  1.9E-03)

     End of BFGS Geometry Optimization

     Final energy   =   -5565.9488638644 Ry
Begin final coordinates

ATOMIC_POSITIONS (crystal)
Zn1      0.166666667   0.166666667   0.406869400    0   0   0
Zn1      0.666666667   0.166666667   0.406869400    0   0   0
Zn1      0.166666667   0.666666667   0.406869400    0   0   0
Zn1      0.666666667   0.666666667   0.406869400    0   0   0
Zn1      0.833333333   0.333333333   0.500000000    0   0   0
Zn1      0.333333333   0.333333333   0.500000000    0   0   0
Zn1      0.833333333   0.833333333   0.500000000    0   0   0
Zn1      0.333333333   0.833333333   0.500000000    0   0   0
Zn1     -0.015668789  -0.015673273   0.607277285
Zn1      0.531339941  -0.015674067   0.607276912
Zn1     -0.015674176   0.531341687   0.607277462
Zn1      0.500002758   0.500004610   0.590533614
C1       0.166665197   0.166668530   0.642215335
H1       0.166672741   0.166662850   0.686774037
End final coordinates

     Writing output data file calc.save

     General routines

     Parallel routines

   This run was terminated on:   3:51:52  25Apr2018

   JOB DONE.
Job  /afs/slac/g/suncat/bin/suncat-tsmpirun -x LD_LIBRARY_PATH -wdir /scratch/qe301217_PXZ2P pw.x -npool 4 -in pw.inp

TID   HOST_NAME   COMMAND_LINE            STATUS            TERMINATION_TIME
00000 suncat0236 pw.x -npool 4 -i  Done                     04/25/2018 03:51:52
00001 suncat0236 pw.x -npool 4 -i  Done                     04/25/2018 03:51:52
00002 suncat0236 pw.x -npool 4 -i  Done                     04/25/2018 03:51:52
00003 suncat0236 pw.x -npool 4 -i  Done                     04/25/2018 03:51:52
00004 suncat0236 pw.x -npool 4 -i  Done                     04/25/2018 03:51:52
00005 suncat0236 pw.x -npool 4 -i  Done                     04/25/2018 03:51:52
00006 suncat0236 pw.x -npool 4 -i  Done                     04/25/2018 03:51:52
00007 suncat0236 pw.x -npool 4 -i  Done                     04/25/2018 03:51:52
00008 suncat0233 pw.x -npool 4 -i  Done                     04/25/2018 03:51:52
00009 suncat0233 pw.x -npool 4 -i  Done                     04/25/2018 03:51:52
00010 suncat0233 pw.x -npool 4 -i  Done                     04/25/2018 03:51:52
00011 suncat0233 pw.x -npool 4 -i  Done                     04/25/2018 03:51:52
00012 suncat0233 pw.x -npool 4 -i  Done                     04/25/2018 03:51:52
00013 suncat0233 pw.x -npool 4 -i  Done                     04/25/2018 03:51:52
00014 suncat0233 pw.x -npool 4 -i  Done                     04/25/2018 03:51:52
00015 suncat0233 pw.x -npool 4 -i  Done                     04/25/2018 03:51:52
00016 suncat0227 pw.x -npool 4 -i  Done                     04/25/2018 03:51:52
00017 suncat0227 pw.x -npool 4 -i  Done                     04/25/2018 03:51:52
00018 suncat0227 pw.x -npool 4 -i  Done                     04/25/2018 03:51:52
00019 suncat0227 pw.x -npool 4 -i  Done                     04/25/2018 03:51:52
00020 suncat0227 pw.x -npool 4 -i  Done                     04/25/2018 03:51:52
00021 suncat0227 pw.x -npool 4 -i  Done                     04/25/2018 03:51:52
00022 suncat0227 pw.x -npool 4 -i  Done                     04/25/2018 03:51:52
00023 suncat0227 pw.x -npool 4 -i  Done                     04/25/2018 03:51:52
00024 suncat0224 pw.x -npool 4 -i  Done                     04/25/2018 03:51:52
00025 suncat0224 pw.x -npool 4 -i  Done                     04/25/2018 03:51:52
00026 suncat0224 pw.x -npool 4 -i  Done                     04/25/2018 03:51:52
00027 suncat0224 pw.x -npool 4 -i  Done                     04/25/2018 03:51:52
00028 suncat0224 pw.x -npool 4 -i  Done                     04/25/2018 03:51:52
00029 suncat0224 pw.x -npool 4 -i  Done                     04/25/2018 03:51:52
00030 suncat0224 pw.x -npool 4 -i  Done                     04/25/2018 03:51:52
00031 suncat0224 pw.x -npool 4 -i  Done                     04/25/2018 03:51:52