     Program PWSCF v.5.1rc2 (svn rev. 11289) starts on  3May2018 at 20: 7:55

     Current dimensions of program PWSCF are:
     Max number of different atomic species (ntypx) = 10
     Max number of k-points (npk) =  40000
     Max angular momentum in pseudopotentials (lmaxx) =  3
     Presently stress not available with electric field

     IMPORTANT: XC functional enforced from input :
     Exchange-correlation      = BEEF-VDW ( 1  4 27 13 2)
     Any further DFT definition will be discarded
     Please, verify this is what you really want

     Subspace diagonalization in iterative solution of the eigenvalue problem:
     a serial algorithm will be used

     bravais-lattice index     =            0
     lattice parameter (alat)  =       1.8897  a.u.
     unit-cell volume          =    5409.9593 (a.u.)^3
     number of atoms/cell      =           13
     number of atomic types    =            2
     number of electrons       =       234.00
     number of Kohn-Sham states=          127
     kinetic-energy cutoff     =      36.7493  Ry
     charge density cutoff     =     367.4932  Ry
     convergence threshold     =      1.0E-05
     mixing beta               =       0.3000
     number of iterations used =           10  plain     mixing
     Exchange-correlation      = BEEF-VDW ( 1  4 27 13 2)
     nstep                     =           50

     celldm(1)=   1.889726  celldm(2)=   0.000000  celldm(3)=   0.000000
     celldm(4)=   0.000000  celldm(5)=   0.000000  celldm(6)=   0.000000

     crystal axes: (cart. coord. in units of alat)
               a(1) = (   6.088539   0.000000   0.000000 )
               a(2) = (   3.044269   5.272829   0.000000 )
               a(3) = (   0.000000   0.000000  24.971271 )

     reciprocal axes: (cart. coord. in units 2 pi/alat)
               b(1) = (  0.164243 -0.094826  0.000000 )
               b(2) = (  0.000000  0.189652  0.000000 )
               b(3) = (  0.000000  0.000000  0.040046 )

     PseudoPot. # 1 for Ga read from file:
     /u/if/mamunm/psp/gbrv1.5pbe/Ga.UPF
     MD5 check sum: ccd671392a58a050fbb373893b4fcd66
     Pseudo is Ultrasoft + core correction, Zval = 19.0
     Generated by new atomic code, or converted to UPF format
     Using radial grid of  871 points,  6 beta functions with:
                l(1) =   0
                l(2) =   0
                l(3) =   1
                l(4) =   1
                l(5) =   2
                l(6) =   2
     Q(r) pseudized with  8 coefficients,  rinner =    1.250   1.250   1.250
                                                       1.250   1.250

     PseudoPot. # 2 for S  read from file:
     /u/if/mamunm/psp/gbrv1.5pbe/S.UPF
     MD5 check sum: 88d86576ff6df21479756cfb9bdac1df
     Pseudo is Ultrasoft + core correction, Zval =  6.0
     Generated by new atomic code, or converted to UPF format
     Using radial grid of  907 points,  6 beta functions with:
                l(1) =   0
                l(2) =   0
                l(3) =   1
                l(4) =   1
                l(5) =   2
                l(6) =   2
     Q(r) pseudized with  8 coefficients,  rinner =    1.300   1.300   1.300
                                                       1.300   1.300

     vdW kernel table read from file vdW_kernel_table
     MD5 check sum: 095c7af220d748ca6e76c0b4c6cfb241

     atomic species   valence    mass     pseudopotential
        Ga1           19.00    69.72300     Ga( 1.00)
        S1             6.00    32.06000     S ( 1.00)

     No symmetry found

   Cartesian axes

     site n.     atom                  positions (alat units)
         1           Ga1 tau(   1) = (   1.5221346   0.8788048  10.0000000  )
         2           Ga1 tau(   2) = (   4.5664039   0.8788048  10.0000000  )
         3           Ga1 tau(   3) = (   3.0442693   3.5152194  10.0000000  )
         4           Ga1 tau(   4) = (   6.0885386   3.5152194  10.0000000  )
         5           Ga1 tau(   5) = (   6.0885386   1.7576097  12.4856355  )
         6           Ga1 tau(   6) = (   3.0442693   1.7576097  12.4856355  )
         7           Ga1 tau(   7) = (   7.6106732   4.3940242  12.4856355  )
         8           Ga1 tau(   8) = (   4.5664039   4.3940242  12.4856355  )
         9           Ga1 tau(   9) = (   0.0000000   0.0000000  14.9712709  )
        10           Ga1 tau(  10) = (   3.0442693   0.0000000  14.9712709  )
        11           Ga1 tau(  11) = (   1.5221346   2.6364145  14.9712709  )
        12           Ga1 tau(  12) = (   4.5664039   2.6364145  14.9712709  )
        13           S1  tau(  13) = (   0.0000000   0.0000000  16.9007709  )

     number of k points=    20  Fermi-Dirac smearing, width (Ry)=  0.0110
                       cart. coord. in units 2pi/alat
        k(    1) = (   0.0000000   0.0000000   0.0000000), wk =   0.0555556
        k(    2) = (   0.0000000   0.0316086   0.0000000), wk =   0.1111111
        k(    3) = (   0.0000000   0.0632172   0.0000000), wk =   0.1111111
        k(    4) = (   0.0000000  -0.0948258   0.0000000), wk =   0.0555556
        k(    5) = (   0.0273738  -0.0158043   0.0000000), wk =   0.1111111
        k(    6) = (   0.0273738   0.0158043   0.0000000), wk =   0.1111111
        k(    7) = (   0.0273738   0.0474129   0.0000000), wk =   0.1111111
        k(    8) = (   0.0273738  -0.1106300   0.0000000), wk =   0.1111111
        k(    9) = (   0.0273738  -0.0790215   0.0000000), wk =   0.1111111
        k(   10) = (   0.0273738  -0.0474129   0.0000000), wk =   0.1111111
        k(   11) = (   0.0547477  -0.0316086   0.0000000), wk =   0.1111111
        k(   12) = (   0.0547477   0.0000000   0.0000000), wk =   0.1111111
        k(   13) = (   0.0547477   0.0316086   0.0000000), wk =   0.1111111
        k(   14) = (   0.0547477  -0.1264343   0.0000000), wk =   0.1111111
        k(   15) = (   0.0547477  -0.0948258   0.0000000), wk =   0.1111111
        k(   16) = (   0.0547477  -0.0632172   0.0000000), wk =   0.1111111
        k(   17) = (  -0.0821215   0.0474129   0.0000000), wk =   0.0555556
        k(   18) = (  -0.0821215   0.0790215   0.0000000), wk =   0.1111111
        k(   19) = (  -0.0821215   0.1106300   0.0000000), wk =   0.1111111
        k(   20) = (  -0.0821215  -0.0474129   0.0000000), wk =   0.0555556

     Largest allocated arrays     est. size (Mb)     dimensions
     Largest temporary arrays     est. size (Mb)     dimensions

     Initial potential from superposition of free atoms
     Check: negative starting charge=   -0.001113

     starting charge  221.99995, renormalised to  234.00000

     negative rho (up, down):  1.173E-03 0.000E+00

     *
     * You are using vdW-DF for exchange-correlation in this calculation.
     * Please cite the following three references that made this development
     * possible:
     *
     *   M. Dion, H. Rydberg, E. Schroder, D. C. Langreth, and
     *   B. I. Lundqvist, Phys. Rev. Lett. 92, 246401 (2004).
     *
     *   T. Thonhauser, V. R. Cooper, S. Li, A. Puzder, P. Hyldgaard, and
     *   D. C. Langreth, Phys. Rev. B 76, 125112 (2007).
     *
     *   G. Roman-Perez and J. M. Soler, Phys. Rev. Lett. 103, 096102 (2009).
     *
     *
     * If you are using vdW-DF2, please also cite:
     *
     *   K. Lee, E. D. Murray, L. Kong, B. I. Lundqvist, and
     *   D. C. Langreth, Phys. Rev. B 82, 081101(R) (2010).
     *
     *
     * If you are calculating the stress with vdW-DF, please also cite:
     *
     *   R. Sabatini, E. Kucukbenli, B. Kolb, T. Thonhauser, and
     *   S. de Gironcoli, J. Phys.: Condens. Matter 24, 424209 (2012).
     *

     Carrying out vdW-DF run using the following parameters:

     Nqs =      20    Nr_points =    1024   r_max =   100.000
     q_mesh =
               0.00001000     0.04494208     0.09755937     0.15916263
               0.23128650     0.31572767     0.41458969     0.53033537
               0.66584808     0.82450364     1.01025438     1.22772762
               1.48234092     1.78043706     2.12944203     2.53805004
               3.01644009     3.57652955     4.23227104     5.00000000

     Gradients computed in reciprocal space

     Adding external electric field

     Computed dipole along edir(3) :
        Dipole               -2.7057 Ry au,         -6.8771 Debye
        Dipole field         -0.0063 Ry au

        Potential amp.        0.5783 Ry
        Total length         46.0091 bohr

     Starting wfc are  148 randomized atomic wfcs

     Self-consistent Calculation

     iteration #  1     ecut=    36.75 Ry     beta=0.30
     Davidson diagonalization with overlap
     ethr =  1.00E-02,  avg # of iterations =  7.1

[...]

     total energy              =   -4741.75703589 Ry
     Harris-Foulkes estimate   =   -5034.51147062 Ry
     estimated scf accuracy    <     617.62926598 Ry

     iteration #  2     ecut=    36.75 Ry     beta=0.30
     Davidson diagonalization with overlap
     c_bands:  4 eigenvalues not converged
     ethr =  1.00E-02,  avg # of iterations = 18.8

[...]

     End of self-consistent calculation

          k = 0.0000 0.0000 0.0000 ( 20347 PWs)   bands (ev):

   -95.0265 -95.0265 -94.9761 -94.9687 -94.9680 -94.9679 -94.9679 -94.9660
   -94.9659 -94.9659 -94.9606 -94.9606 -94.9601 -94.9500 -94.9500 -94.9460
   -94.9460 -94.9455 -94.9446 -94.9439 -94.9431 -94.9431 -94.9426 -94.9426
   -94.9422 -94.9408 -94.9408 -94.9399 -94.9399 -94.9394 -94.9335 -94.9334
   -94.9334 -94.9172 -94.9172 -94.9157 -15.9550 -15.4746 -15.4746 -15.4418
   -15.4404 -15.4404 -15.4254 -15.4254 -15.4035 -15.3993 -15.3846 -15.3843
   -15.3843 -15.3802 -15.3708 -15.3708 -15.3606 -15.3469 -15.3469 -15.3387
   -15.3386 -15.3386 -15.3348 -15.3285 -15.3285 -15.3207 -15.3207 -15.3162
   -15.3153 -15.3153 -15.3036 -15.2739 -15.2739 -15.2579 -15.2448 -15.2448
   -15.2338 -15.2338 -15.2333 -15.2333 -15.2006 -15.1958 -15.1958 -15.1840
   -15.1840 -15.1822 -15.1782 -15.1782 -15.1672 -15.1672 -15.1560 -15.1560
   -15.1545 -15.1542 -15.1470 -15.1458 -15.1458 -15.1391 -15.1323 -15.1323
   -12.4265 -10.2549  -8.6806  -6.4639  -5.1912  -5.1483  -5.1483  -4.9000
    -4.7426  -4.7426  -3.9501  -3.6101  -3.6101  -3.2462  -3.2462  -3.0235
    -2.6336  -2.0103  -2.0103  -1.8913  -1.1378  -1.1378  -1.0212  -0.0977
    -0.0977   0.2495   1.2120   2.8318   2.8467   2.8467   3.0124

[...]

          k =-0.0821 0.0474 0.0000 ( 20384 PWs)   bands (ev):

[...]

     the Fermi energy is    -0.2043 ev

!    total energy              =   -5023.41629623 Ry
     Harris-Foulkes estimate   =   -5023.41626831 Ry
     estimated scf accuracy    <       0.00000110 Ry

     The total energy is the sum of the following terms:

     one-electron contribution =  -27458.94555549 Ry
     hartree contribution      =   13732.99908385 Ry
     xc contribution           =    -605.33147573 Ry
     ewald contribution        =    9307.89822549 Ry
     electric field correction =       0.00059757 Ry
     smearing contrib. (-TS)   =      -0.03717192 Ry

     convergence has been achieved in  19 iterations

 BEEF-vdW xc energy contributions
           1 :   -540.860058512303
           2 :    490.810736262757
           3 :   -406.874570183875
           4 :    313.403987554919
           5 :   -231.997517640582
           6 :    173.437381273677
           7 :   -136.110368618802
           8 :    110.721490807087
           9 :   -87.7416075782679
          10 :    62.9792118032872
          11 :   -38.4671105161918
          12 :    19.1111176545418
          13 :   -8.11365589427226
          14 :    4.46010212158751
          15 :   -3.84914060622214
          16 :    1.88274494760344
          17 :    3.05656338963627
          18 :   -9.25172171615748
          19 :    13.5324428707730
          20 :   -13.9562166767089
          21 :    11.2558383492507
          22 :   -8.12991003134232
          23 :    7.11347973672139
          24 :   -8.74249802731345
          25 :    11.3567838011746
          26 :   -12.5632652266164
          27 :    11.1420107922228
          28 :   -7.93687920865887
          29 :    5.12840401571555
          30 :   -4.53442473097300
          31 :   -40.1870671897735
          32 :   -27.2845461078374

     Forces acting on atoms (Ry/au):

     negative rho (up, down):  9.324E-04 0.000E+00
     atom    1 type  1   force =    -0.00054321   -0.00033107    0.00268625
     atom    2 type  1   force =     0.00052345   -0.00030849    0.00254233
     atom    3 type  1   force =    -0.00001991    0.00061393    0.00251106
     atom    4 type  1   force =     0.00000316    0.00000881   -0.00138180
     atom    5 type  1   force =     0.00000573   -0.00188814    0.00462534
     atom    6 type  1   force =     0.00000253   -0.00000241   -0.00628836
     atom    7 type  1   force =     0.00164074    0.00094809    0.00461056
     atom    8 type  1   force =    -0.00163249    0.00094820    0.00456082
     atom    9 type  1   force =     0.00000228    0.00000566   -0.21290404
     atom   10 type  1   force =     0.00000513   -0.00150850   -0.00138318
     atom   11 type  1   force =    -0.00130441    0.00075699   -0.00139755
     atom   12 type  1   force =     0.00131286    0.00075472   -0.00140683
     atom   13 type  2   force =     0.00000413    0.00000221    0.20322541

     Total force =     0.294349     Total SCF correction =     0.003236

     entering subroutine stress ...

     negative rho (up, down):  9.324E-04 0.000E+00
          total   stress  (Ry/bohr**3)                   (kbar)     P=    2.83
  -0.00003051  -0.00000000   0.00000000         -4.49     -0.00      0.00
  -0.00000000  -0.00003051   0.00000000         -0.00     -4.49      0.00
   0.00000000   0.00000000   0.00011882          0.00      0.00     17.48

     BFGS Geometry Optimization

     number of scf cycles    =   1
     number of bfgs steps    =   0

     energy   new            =   -5023.4162962270 Ry

     new trust radius        =       0.2129040393 bohr
     new conv_thr            =       0.0000099958 Ry

ATOMIC_POSITIONS (crystal)
Ga1      0.166666667   0.166666667   0.400460194    0   0   0
Ga1      0.666666667   0.166666667   0.400460194    0   0   0
Ga1      0.166666667   0.666666667   0.400460194    0   0   0
Ga1      0.666666667   0.666666667   0.400460194    0   0   0
Ga1      0.833333333   0.333333333   0.500000000    0   0   0
Ga1      0.333333333   0.333333333   0.500000000    0   0   0
Ga1      0.833333333   0.833333333   0.500000000    0   0   0
Ga1      0.333333333   0.833333333   0.500000000    0   0   0
Ga1     -0.000000086   0.000000568   0.595028063
Ga1      0.500076142  -0.000151392   0.599510494
Ga1     -0.000151356   0.500075971   0.599510190
Ga1      0.500076234   0.500075743   0.599509993
S1       0.000000248   0.000000222   0.681115240

     Writing output data file calc.save
     Check: negative starting charge=   -0.001113
     NEW-OLD atomic charge density approx. for the potential
     Check: negative starting charge=   -0.001101

[...]

     Total force =     0.019676     Total SCF correction =     0.015545
     SCF correction compared to forces is large: reduce conv_thr to get better values

[...]

     energy   old            =   -5023.4162962270 Ry
     energy   new            =   -5023.4559255192 Ry

     CASE: energy  _new < energy  _old

[...]

     WARNING: bfgs curvature condition failed, Theta= 0.926
     new trust radius        =       0.0300026156 bohr
     new conv_thr            =       0.0000001000 Ry

[...]

     Total force =     0.010324     Total SCF correction =     0.000687

[...]

     Threshold (ethr) on eigenvalues was too large:
     Diagonalizing with lowered threshold

     Davidson diagonalization with overlap
     ethr =  3.57E-08,  avg # of iterations =  1.9

[...]

     Threshold (ethr) on eigenvalues was too large:
     Diagonalizing with lowered threshold

     Davidson diagonalization with overlap
     ethr =  4.22E-08,  avg # of iterations =  3.0

[...]

     number of scf cycles    =  24
     number of bfgs steps    =  23

     energy   old            =   -5023.4697958521 Ry
     energy   new            =   -5023.4698587331 Ry

     CASE: energy  _new < energy  _old

     new trust radius        =       0.0234835683 bohr
     new conv_thr            =       0.0000001000 Ry

ATOMIC_POSITIONS (crystal)
Ga1      0.166666667   0.166666667   0.400460194    0   0   0
Ga1      0.666666667   0.166666667   0.400460194    0   0   0
Ga1      0.166666667   0.666666667   0.400460194    0   0   0
Ga1      0.666666667   0.666666667   0.400460194    0   0   0
Ga1      0.833333333   0.333333333   0.500000000    0   0   0
Ga1      0.333333333   0.333333333   0.500000000    0   0   0
Ga1      0.833333333   0.833333333   0.500000000    0   0   0
Ga1      0.333333333   0.833333333   0.500000000    0   0   0
Ga1      0.000006523  -0.000003779   0.577940668
Ga1      0.501845488  -0.003680235   0.608571359
Ga1     -0.003673089   0.501833846   0.608569350
Ga1      0.501841405   0.501833890   0.608570922
S1      -0.000018732   0.000013889   0.665636293

     Writing output data file calc.save
     Check: negative starting charge=   -0.001141
     NEW-OLD atomic charge density approx. for the potential
     Check: negative starting charge=   -0.001136

[...]

     Self-consistent Calculation

[...]

     total energy              =   -5023.46992090 Ry
     Harris-Foulkes estimate   =   -5023.46992107 Ry
     estimated scf accuracy    <       0.00000020 Ry

     iteration #  8     ecut=    36.75 Ry     beta=0.30
     Davidson diagonalization with overlap
     ethr =  8.68E-11,  avg # of iterations =  4.0

[...]

     negative rho (up, down):  9.507E-04 0.000E+00

     Adding external electric field

     Computed dipole along edir(3) :
        Dipole               -0.3825 Ry au,         -0.9723 Debye
        Dipole field         -0.0009 Ry au

        Potential amp.        0.0818 Ry
        Total length         46.0091 bohr

     End of self-consistent calculation

[...]

          k = 0.0547-0.0632 0.0000 ( 20377 PWs)   bands (ev):

[...]

          k =-0.0821-0.0474 0.0000 ( 20384 PWs)   bands (ev):

   -94.9115 -94.9114 -94.8523 -94.8523 -94.8522 -94.8521 -94.8519 -94.8517
   -94.8387 -94.8374 -94.8260 -94.8254 -94.8250 -94.8125 -94.8125 -94.7753
   -94.7752 -94.7751 -94.7748 -94.7744 -94.7740 -94.7711 -94.7710 -94.7707
   -94.7602 -94.7600 -94.7598 -94.7566 -94.7562 -94.7557 -94.7517 -94.7517
   -94.7516 -94.7460 -94.7420 -94.7419 -15.4727 -15.3687 -15.3576 -15.3177
   -15.3052 -15.2586 -15.2279 -15.2165 -15.2080 -15.2056 -15.1966 -15.1943
   -15.1908 -15.1903 -15.1828 -15.1820 -15.1801 -15.1728 -15.1710 -15.1697
   -15.1687 -15.1660 -15.1614 -15.1582 -15.1519 -15.1480 -15.1426 -15.1352
   -15.1330 -15.1294 -15.1274 -15.1272 -15.1224 -15.1182 -15.1127 -15.1054
   -15.1024 -15.0901 -15.0869 -15.0763 -15.0677 -15.0674 -15.0653 -15.0646
   -15.0599 -15.0593 -15.0509 -15.0476 -15.0433 -15.0354 -15.0350 -15.0304
   -15.0230 -15.0222 -15.0047 -15.0028 -14.9962 -14.9765 -14.9644 -14.9610
   -12.1829  -8.9377  -8.6457  -7.3077  -7.2170  -6.1173  -6.0282  -5.3682
    -5.1199  -4.7489  -4.7454  -3.1928  -3.0590  -1.8990  -1.6996  -1.5586
    -0.9160  -0.4630  -0.3793  -0.3416   0.0015   0.2695   0.8405   0.8936
     1.4767   1.6744   1.8527   2.1854   2.3863   2.4151   2.4310

     the Fermi energy is    -0.0135 ev

!    total energy              =   -5023.46992092 Ry
     Harris-Foulkes estimate   =   -5023.46992129 Ry
     estimated scf accuracy    <       0.00000001 Ry

     The total energy is the sum of the following terms:

     one-electron contribution =  -27385.98716928 Ry
     hartree contribution      =   13697.63397176 Ry
     xc contribution           =    -605.24232495 Ry
     ewald contribution        =    9270.16054006 Ry
     electric field correction =       0.00033991 Ry
     smearing contrib. (-TS)   =      -0.03527842 Ry

     convergence has been achieved in   8 iterations

 BEEF-vdW xc energy contributions
           1 :   -540.773294990331
           2 :    490.708204971039
           3 :   -406.729453373623
           4 :    313.204483337798
           5 :   -231.767440417241
           6 :    173.218688490193
           7 :   -135.928968541347
           8 :    110.569264235075
           9 :   -87.5888570277604
          10 :    62.8040948068474
          11 :   -38.2770343679616
          12 :    18.9417440454915
          13 :   -8.00790745874031
          14 :    4.44121859326981
          15 :   -3.90521522930237
          16 :    1.97380788446344
          17 :    2.97454826237640
          18 :   -9.20274393256307
          19 :    13.5107432739111
          20 :   -13.9354221501778
          21 :    11.2095726690034
          22 :   -8.05024220437690
          23 :    7.01658659469911
          24 :   -8.65892918798670
          25 :    11.3130490042172
          26 :   -12.5663987333172
          27 :    11.1751181061843
          28 :   -7.96666810226554
          29 :    5.12015050255854
          30 :   -4.46698913903504
          31 :   -40.1821159725944
          32 :   -27.2740208170535

     Forces acting on atoms (Ry/au):

     negative rho (up, down):  9.507E-04 0.000E+00
     atom    1 type  1   force =    -0.00331067   -0.00191132    0.00398361
     atom    2 type  1   force =     0.00331057   -0.00191136    0.00398351
     atom    3 type  1   force =    -0.00000010    0.00382287    0.00398320
     atom    4 type  1   force =     0.00000068   -0.00000071    0.00297771
     atom    5 type  1   force =    -0.00000069    0.01699612   -0.00628723
     atom    6 type  1   force =     0.00000102   -0.00000092    0.00206344
     atom    7 type  1   force =    -0.01471932   -0.00849737   -0.00628687
     atom    8 type  1   force =     0.01472015   -0.00849861   -0.00628660
     atom    9 type  1   force =     0.00000088   -0.00000115   -0.00115323
     atom   10 type  1   force =     0.00000052    0.00100194    0.00036733
     atom   11 type  1   force =     0.00086842   -0.00050161    0.00036628
     atom   12 type  1   force =    -0.00086754   -0.00050180    0.00036734
     atom   13 type  2   force =    -0.00000393    0.00000392    0.00192151

     Total force =     0.002905     Total SCF correction =     0.000671
     SCF correction compared to forces is large: reduce conv_thr to get better values

     entering subroutine stress ...

     negative rho (up, down):  9.507E-04 0.000E+00
          total   stress  (Ry/bohr**3)                   (kbar)     P=   -3.61
  -0.00002890   0.00000000  -0.00000000         -4.25      0.00     -0.00
   0.00000000  -0.00002890   0.00000000          0.00     -4.25      0.00
  -0.00000000   0.00000000  -0.00001591         -0.00      0.00     -2.34

     bfgs converged in  25 scf cycles and  24 bfgs steps
     (criteria: energy <  1.0E+00, force <  1.9E-03)

     End of BFGS Geometry Optimization

     Final energy   =   -5023.4699209242 Ry
Begin final coordinates

ATOMIC_POSITIONS (crystal)
Ga1      0.166666667   0.166666667   0.400460194    0   0   0
Ga1      0.666666667   0.166666667   0.400460194    0   0   0
Ga1      0.166666667   0.666666667   0.400460194    0   0   0
Ga1      0.666666667   0.666666667   0.400460194    0   0   0
Ga1      0.833333333   0.333333333   0.500000000    0   0   0
Ga1      0.333333333   0.333333333   0.500000000    0   0   0
Ga1      0.833333333   0.833333333   0.500000000    0   0   0
Ga1      0.333333333   0.833333333   0.500000000    0   0   0
Ga1      0.000006523  -0.000003779   0.577940668
Ga1      0.501845488  -0.003680235   0.608571359
Ga1     -0.003673089   0.501833846   0.608569350
Ga1      0.501841405   0.501833890   0.608570922
S1      -0.000018732   0.000013889   0.665636293
End final coordinates

     Writing output data file calc.save

     General routines

     Parallel routines

   This run was terminated on:  22:56: 7   3May2018

   JOB DONE.
Job  /afs/slac/g/suncat/bin/suncat-tsmpirun -x LD_LIBRARY_PATH -wdir /scratch/qe834398_YoY8f pw.x -npool 4 -in pw.inp

TID   HOST_NAME   COMMAND_LINE            STATUS            TERMINATION_TIME
00000 suncat0123 pw.x -npool 4 -i  Done                     05/03/2018 22:56:07
00001 suncat0123 pw.x -npool 4 -i  Done                     05/03/2018 22:56:07
00002 suncat0123 pw.x -npool 4 -i  Done                     05/03/2018 22:56:07
00003 suncat0123 pw.x -npool 4 -i  Done                     05/03/2018 22:56:07
00004 suncat0123 pw.x -npool 4 -i  Done                     05/03/2018 22:56:07
00005 suncat0123 pw.x -npool 4 -i  Done                     05/03/2018 22:56:07
00006 suncat0123 pw.x -npool 4 -i  Done                     05/03/2018 22:56:07
00007 suncat0123 pw.x -npool 4 -i  Done                     05/03/2018 22:56:07
00008 suncat0121 pw.x -npool 4 -i  Done                     05/03/2018 22:56:07
00009 suncat0121 pw.x -npool 4 -i  Done                     05/03/2018 22:56:07
00010 suncat0121 pw.x -npool 4 -i  Done                     05/03/2018 22:56:07
00011 suncat0121 pw.x -npool 4 -i  Done                     05/03/2018 22:56:07
00012 suncat0121 pw.x -npool 4 -i  Done                     05/03/2018 22:56:07
00013 suncat0121 pw.x -npool 4 -i  Done                     05/03/2018 22:56:07
00014 suncat0121 pw.x -npool 4 -i  Done                     05/03/2018 22:56:07
00015 suncat0121 pw.x -npool 4 -i  Done                     05/03/2018 22:56:07
00016 suncat0105 pw.x -npool 4 -i  Done                     05/03/2018 22:56:07
00017 suncat0105 pw.x -npool 4 -i  Done                     05/03/2018 22:56:07
00018 suncat0105 pw.x -npool 4 -i  Done                     05/03/2018 22:56:07
00019 suncat0105 pw.x -npool 4 -i  Done                     05/03/2018 22:56:07
00020 suncat0105 pw.x -npool 4 -i  Done                     05/03/2018 22:56:07
00021 suncat0105 pw.x -npool 4 -i  Done                     05/03/2018 22:56:07
00022 suncat0105 pw.x -npool 4 -i  Done                     05/03/2018 22:56:07
00023 suncat0105 pw.x -npool 4 -i  Done                     05/03/2018 22:56:07
00024 suncat0100 pw.x -npool 4 -i  Done                     05/03/2018 22:56:07
00025 suncat0100 pw.x -npool 4 -i  Done                     05/03/2018 22:56:07
00026 suncat0100 pw.x -npool 4 -i  Done                     05/03/2018 22:56:07
00027 suncat0100 pw.x -npool 4 -i  Done                     05/03/2018 22:56:07
00028 suncat0100 pw.x -npool 4 -i  Done                     05/03/2018 22:56:07
00029 suncat0100 pw.x -npool 4 -i  Done                     05/03/2018 22:56:07
00030 suncat0100 pw.x -npool 4 -i  Done                     05/03/2018 22:56:07
00031 suncat0100 pw.x -npool 4 -i  Done                     05/03/2018 22:56:07