     Program PWSCF v.5.1rc2 (svn rev. 11289) starts on  4May2018 at  9:16:53

     Current dimensions of program PWSCF are:
     Max number of different atomic species (ntypx) = 10
     Max number of k-points (npk) =  40000
     Max angular momentum in pseudopotentials (lmaxx) =  3
     Presently stress not available with electric field

     IMPORTANT: XC functional enforced from input :
     Exchange-correlation      = BEEF-VDW ( 1  4 27 13 2)
     Any further DFT definition will be discarded
     Please, verify this is what you really want

     Subspace diagonalization in iterative solution of the eigenvalue problem:
     a serial algorithm will be used

     bravais-lattice index     =            0
     lattice parameter (alat)  =       1.8897  a.u.
     unit-cell volume          =    5144.9564 (a.u.)^3
     number of atoms/cell      =           13
     number of atomic types    =            2
     number of electrons       =       137.00
     number of Kohn-Sham states=           78
     kinetic-energy cutoff     =      36.7493  Ry
     charge density cutoff     =     367.4932  Ry
     convergence threshold     =      1.0E-05
     mixing beta               =       0.3000
     number of iterations used =           10  plain     mixing
     Exchange-correlation      = BEEF-VDW ( 1  4 27 13 2)
     nstep                     =           50

     celldm(1)=   1.889726  celldm(2)=   0.000000  celldm(3)=   0.000000
     celldm(4)=   0.000000  celldm(5)=   0.000000  celldm(6)=   0.000000

     crystal axes: (cart. coord. in units of alat)
               a(1) = (   5.950946   0.000000   0.000000 )
               a(2) = (   2.975473   5.153671   0.000000 )
               a(3) = (   0.000000   0.000000  24.858927 )

     reciprocal axes: (cart. coord. in units 2 pi/alat)
               b(1) = (  0.168040 -0.097018  0.000000 )
               b(2) = (  0.000000  0.194036  0.000000 )
               b(3) = (  0.000000  0.000000  0.040227 )

     PseudoPot. # 1 for Au read from file:
     /u/if/mamunm/psp/gbrv1.5pbe/Au.UPF
     MD5 check sum: 9d7f43293ad2c663164586bc4b293ffc
     Pseudo is Ultrasoft + core correction, Zval = 11.0
     Generated by new atomic code, or converted to UPF format
     Using radial grid of  985 points,  7 beta functions with:
                l(1) =   0
                l(2) =   0
                l(3) =   1
                l(4) =   1
                l(5) =   2
                l(6) =   2
                l(7) =   3
     Q(r) pseudized with  6 coefficients,  rinner =    1.900   1.900   1.900
                                                       1.900   1.900   1.900
                                                       1.900

     PseudoPot. # 2 for N  read from file:
     /u/if/mamunm/psp/gbrv1.5pbe/N.UPF
     MD5 check sum: 95339753478d7afb44899504a8723017
     Pseudo is Ultrasoft + core correction, Zval =  5.0
     Generated by new atomic code, or converted to UPF format
     Using radial grid of  729 points,  4 beta functions with:
                l(1) =   0
                l(2) =   0
                l(3) =   1
                l(4) =   1
     Q(r) pseudized with  8 coefficients,  rinner =    0.900   0.900   0.900

     vdW kernel table read from file vdW_kernel_table
     MD5 check sum: 095c7af220d748ca6e76c0b4c6cfb241

     atomic species   valence    mass     pseudopotential
        Au1           11.00   196.96657     Au( 1.00)
        N1             5.00    14.00700     N ( 1.00)

     No symmetry found

   Cartesian axes

     site n.     atom                  positions (alat units)
         1           Au1 tau(   1) = (   1.4877366   0.8589451  10.0000000  )
         2           Au1 tau(   2) = (   4.4632098   0.8589451  10.0000000  )
         3           Au1 tau(   3) = (   2.9754732   3.4357805  10.0000000  )
         4           Au1 tau(   4) = (   5.9509464   3.4357805  10.0000000  )
         5           Au1 tau(   5) = (   5.9509464   1.7178903  12.4294637  )
         6           Au1 tau(   6) = (   2.9754732   1.7178903  12.4294637  )
         7           Au1 tau(   7) = (   7.4386830   4.2947256  12.4294637  )
         8           Au1 tau(   8) = (   4.4632098   4.2947256  12.4294637  )
         9           Au1 tau(   9) = (   0.0000000   0.0000000  14.8589274  )
        10           Au1 tau(  10) = (   2.9754732   0.0000000  14.8589274  )
        11           Au1 tau(  11) = (   1.4877366   2.5768354  14.8589274  )
        12           Au1 tau(  12) = (   4.4632098   2.5768354  14.8589274  )
        13           N1  tau(  13) = (   2.9754732   1.7178903  16.2044274  )

     number of k points=    20  Fermi-Dirac smearing, width (Ry)=  0.0110
                       cart. coord. in units 2pi/alat
        k(    1) = (   0.0000000   0.0000000   0.0000000), wk =   0.0555556
        k(    2) = (   0.0000000   0.0323394   0.0000000), wk =   0.1111111
        k(    3) = (   0.0000000   0.0646788   0.0000000), wk =   0.1111111
        k(    4) = (   0.0000000  -0.0970182   0.0000000), wk =   0.0555556
        k(    5) = (   0.0280067  -0.0161697   0.0000000), wk =   0.1111111
        k(    6) = (   0.0280067   0.0161697   0.0000000), wk =   0.1111111
        k(    7) = (   0.0280067   0.0485091   0.0000000), wk =   0.1111111
        k(    8) = (   0.0280067  -0.1131879   0.0000000), wk =   0.1111111
        k(    9) = (   0.0280067  -0.0808485   0.0000000), wk =   0.1111111
        k(   10) = (   0.0280067  -0.0485091   0.0000000), wk =   0.1111111
        k(   11) = (   0.0560135  -0.0323394   0.0000000), wk =   0.1111111
        k(   12) = (   0.0560135   0.0000000   0.0000000), wk =   0.1111111
        k(   13) = (   0.0560135   0.0323394   0.0000000), wk =   0.1111111
        k(   14) = (   0.0560135  -0.1293576   0.0000000), wk =   0.1111111
        k(   15) = (   0.0560135  -0.0970182   0.0000000), wk =   0.1111111
        k(   16) = (   0.0560135  -0.0646788   0.0000000), wk =   0.1111111
        k(   17) = (  -0.0840202   0.0485091   0.0000000), wk =   0.0555556
        k(   18) = (  -0.0840202   0.0808485   0.0000000), wk =   0.1111111
        k(   19) = (  -0.0840202   0.1131879   0.0000000), wk =   0.1111111
        k(   20) = (  -0.0840202  -0.0485091   0.0000000), wk =   0.0555556

     Largest allocated arrays     est. size (Mb)     dimensions
     Largest temporary arrays     est. size (Mb)     dimensions

     Check: negative/imaginary core charge=   -0.000002    0.000000

     Initial potential from superposition of free atoms

     starting charge  136.99852, renormalised to  137.00000

     negative rho (up, down):  8.600E-05 0.000E+00

     *
     * You are using vdW-DF for exchange-correlation in this calculation.
     * Please cite the following three references that made this development
     * possible:
     *
     *   M. Dion, H. Rydberg, E. Schroder, D. C. Langreth, and
     *   B. I. Lundqvist, Phys. Rev. Lett. 92, 246401 (2004).
     *
     *   T. Thonhauser, V. R. Cooper, S. Li, A. Puzder, P. Hyldgaard, and
     *   D. C. Langreth, Phys. Rev. B 76, 125112 (2007).
     *
     *   G. Roman-Perez and J. M. Soler, Phys. Rev. Lett. 103, 096102 (2009).
     *
     *
     * If you are using vdW-DF2, please also cite:
     *
     *   K. Lee, E. D. Murray, L. Kong, B. I. Lundqvist, and
     *   D. C. Langreth, Phys. Rev. B 82, 081101(R) (2010).
     *
     *
     * If you are calculating the stress with vdW-DF, please also cite:
     *
     *   R. Sabatini, E. Kucukbenli, B. Kolb, T. Thonhauser, and
     *   S. de Gironcoli, J. Phys.: Condens. Matter 24, 424209 (2012).
     *

     Carrying out vdW-DF run using the following parameters:

     Nqs =      20    Nr_points =    1024   r_max =   100.000
     q_mesh =
               0.00001000     0.04494208     0.09755937     0.15916263
               0.23128650     0.31572767     0.41458969     0.53033537
               0.66584808     0.82450364     1.01025438     1.22772762
               1.48234092     1.78043706     2.12944203     2.53805004
               3.01644009     3.57652955     4.23227104     5.00000000

     Gradients computed in reciprocal space

     Adding external electric field

     Computed dipole along edir(3) :
        Dipole               -0.0003 Ry au,         -0.0008 Debye
        Dipole field         -0.0000 Ry au

        Potential amp.        0.0001 Ry
        Total length         45.8022 bohr

     Starting wfc are  112 randomized atomic wfcs

     Self-consistent Calculation

     iteration #  1     ecut=    36.75 Ry     beta=0.30
     Davidson diagonalization with overlap
     ethr =  1.00E-02,  avg # of iterations =  2.0

[...]

     total energy              =   -1419.56643331 Ry
     Harris-Foulkes estimate   =   -1420.78971810 Ry
     estimated scf accuracy    <       2.68442332 Ry

[...]

     End of self-consistent calculation

          k = 0.0000 0.0000 0.0000 ( 19315 PWs)   bands (ev):

   -13.7907  -8.1091  -6.6379  -6.3983  -6.2188  -6.2188  -6.1393  -6.0158
    -6.0158  -6.0085  -5.7422  -5.7422  -5.7237  -5.5663  -5.5663  -5.5553
    -4.8646  -4.8645  -4.5636  -4.4699  -4.4555  -4.4555  -4.3796  -4.3795
    -4.3180  -4.2252  -4.2252  -4.0534  -4.0534  -4.0219  -3.9270  -3.9270
    -3.8168  -3.7140  -3.7139  -3.3477  -3.3248  -3.3248  -3.1030  -3.0173
    -3.0173  -2.7638  -2.7638  -2.7178  -2.7178  -2.7118  -2.4343  -2.4343
    -2.3234  -2.2679  -2.2679  -2.2075  -2.2075  -2.1368  -2.0964  -2.0598
    -2.0597  -2.0154  -1.9135  -1.9135  -1.7681  -1.7592  -1.7592  -1.2109
    -0.8997  -0.5252  -0.5252   0.5599   0.5599   0.6862   0.9682   1.2612
     1.2612   1.3599   1.4816   1.4817   3.1054   3.1537

[...]

          k =-0.0840 0.0485 0.0000 ( 19380 PWs)   bands (ev):

[...]

     the Fermi energy is    -0.0871 ev

!    total energy              =   -1420.56665594 Ry
     Harris-Foulkes estimate   =   -1420.56669310 Ry
     estimated scf accuracy    <       0.00000930 Ry

     The total energy is the sum of the following terms:

     one-electron contribution =   -8310.76705993 Ry
     hartree contribution      =    4252.13657787 Ry
     xc contribution           =    -773.39421888 Ry
     ewald contribution        =    3411.48600768 Ry
     electric field correction =       0.00015891 Ry
     smearing contrib. (-TS)   =      -0.02812159 Ry

     convergence has been achieved in  10 iterations

 BEEF-vdW xc energy contributions
           1 :   -691.187622274130
           2 :    642.403518070273
           3 :   -555.189182655984
           4 :    446.471931439095
           5 :   -334.507346704359
           6 :    234.186138557623
           7 :   -154.230343966883
           8 :    96.7357251092551
           9 :   -58.7699135687456
          10 :    35.0275142288808
          11 :   -20.3470994194488
          12 :    11.1630915608303
          13 :   -5.65411321873808
          14 :    2.98327313434743
          15 :   -2.36488998801292
          16 :    2.55400416356520
          17 :   -1.99128952797514
          18 :  -0.585129461414454
          19 :    5.48882968740259
          20 :   -11.8311994420651
          21 :    17.8513694848731
          22 :   -21.6943869904186
          23 :    22.2413348456955
          24 :   -19.5835706302138
          25 :    14.9244828801384
          26 :   -9.99097260961275
          27 :    6.26522602559851
          28 :   -4.42158600846608
          29 :    4.21486599817433
          30 :   -4.82002536028426
          31 :   -54.7516548191418
          32 :   -39.8902754643918

     Forces acting on atoms (Ry/au):

     negative rho (up, down):  6.022E-04 0.000E+00
     atom    1 type  1   force =    -0.00125084   -0.00072141   -0.00289105
     atom    2 type  1   force =     0.00125176   -0.00071907   -0.00287318
     atom    3 type  1   force =    -0.00000288    0.00144780   -0.00288939
     atom    4 type  1   force =     0.00000269    0.00000011   -0.00654560
     atom    5 type  1   force =    -0.00001349    0.00330140    0.00465698
     atom    6 type  1   force =     0.00000269   -0.00001114   -0.00917535
     atom    7 type  1   force =    -0.00286076   -0.00164611    0.00465978
     atom    8 type  1   force =     0.00286597   -0.00164272    0.00465767
     atom    9 type  1   force =    -0.00000587   -0.00000498   -0.00410755
     atom   10 type  1   force =     0.00000750   -0.00473535    0.02424931
     atom   11 type  1   force =    -0.00410364    0.00236696    0.02424583
     atom   12 type  1   force =     0.00410354    0.00236602    0.02424570
     atom   13 type  2   force =     0.00000332   -0.00000151   -0.05823314

     Total force =     0.072381     Total SCF correction =     0.010870
     SCF correction compared to forces is large: reduce conv_thr to get better values

     entering subroutine stress ...

     negative rho (up, down):  6.022E-04 0.000E+00
          total   stress  (Ry/bohr**3)                   (kbar)     P=   -8.07
  -0.00008626   0.00000000  -0.00000000        -12.69      0.00     -0.00
   0.00000000  -0.00008625   0.00000000          0.00    -12.69      0.00
  -0.00000000   0.00000000   0.00000794         -0.00      0.00      1.17

     BFGS Geometry Optimization

     number of scf cycles    =   1
     number of bfgs steps    =   0

     energy   new            =   -1420.5666559372 Ry

     new trust radius        =       0.0582331433 bohr
     new conv_thr            =       0.0000099958 Ry

ATOMIC_POSITIONS (crystal)
Au1      0.166666667   0.166666667   0.402269971    0   0   0
Au1      0.666666667   0.166666667   0.402269971    0   0   0
Au1      0.166666667   0.666666667   0.402269971    0   0   0
Au1      0.666666667   0.666666667   0.402269971    0   0   0
Au1      0.833333333   0.333333333   0.500000000    0   0   0
Au1      0.333333333   0.333333333   0.500000000    0   0   0
Au1      0.833333333   0.833333333   0.500000000    0   0   0
Au1      0.333333333   0.833333333   0.500000000    0   0   0
Au1     -0.000000266  -0.000000511   0.597642591
Au1      0.500243779  -0.000486224   0.598246229
Au1     -0.000486428   0.500243039   0.598246155
Au1      0.500243428   0.500242942   0.598246152
N1       0.333333706   0.333333178   0.650615833

     Writing output data file calc.save
     NEW-OLD atomic charge density approx. for the potential

[...]

     Total force =     0.060527     Total SCF correction =     0.003299

[...]

     energy   old            =   -1420.5666559372 Ry
     energy   new            =   -1420.5714486539 Ry

     CASE: energy  _new < energy  _old

     WARNING: bfgs curvature condition failed, Theta= 0.970
     new trust radius        =       0.0873497149 bohr
     new conv_thr            =       0.0000001000 Ry

[...]

     Threshold (ethr) on eigenvalues was too large:
     Diagonalizing with lowered threshold

     Davidson diagonalization with overlap
     ethr =  2.84E-08,  avg # of iterations =  4.0

[...]

     Total force =     0.003345     Total SCF correction =     0.000495
     SCF correction compared to forces is large: reduce conv_thr to get better values

[...]

     number of scf cycles    =   9
     number of bfgs steps    =   8

     energy   old            =   -1420.5876415971 Ry
     energy   new            =   -1420.5876593383 Ry

     CASE: energy  _new < energy  _old

     new trust radius        =       0.0076540794 bohr
     new conv_thr            =       0.0000001000 Ry

ATOMIC_POSITIONS (crystal)
Au1      0.166666667   0.166666667   0.402269971    0   0   0
Au1      0.666666667   0.166666667   0.402269971    0   0   0
Au1      0.166666667   0.666666667   0.402269971    0   0   0
Au1      0.666666667   0.666666667   0.402269971    0   0   0
Au1      0.833333333   0.333333333   0.500000000    0   0   0
Au1      0.333333333   0.333333333   0.500000000    0   0   0
Au1      0.833333333   0.833333333   0.500000000    0   0   0
Au1      0.333333333   0.833333333   0.500000000    0   0   0
Au1      0.000000379  -0.000001240   0.596144514
Au1      0.508370766  -0.016740703   0.602035872
Au1     -0.016740004   0.508368977   0.602036338
Au1      0.508370407   0.508370029   0.602035496
N1       0.333334591   0.333333064   0.642756888

     Writing output data file calc.save
     NEW-OLD atomic charge density approx. for the potential

     Check: negative/imaginary core charge=   -0.000002    0.000000

[...]

     Self-consistent Calculation

[...]

     Threshold (ethr) on eigenvalues was too large:
     Diagonalizing with lowered threshold

     Davidson diagonalization with overlap
     ethr =  6.75E-09,  avg # of iterations =  2.6

[...]

     total energy              =   -1420.58767845 Ry
     Harris-Foulkes estimate   =   -1420.58767838 Ry
     estimated scf accuracy    <       0.00000023 Ry

     iteration #  6     ecut=    36.75 Ry     beta=0.30
     Davidson diagonalization with overlap
     ethr =  1.69E-10,  avg # of iterations =  2.0

[...]

     negative rho (up, down):  6.092E-04 0.000E+00

     Adding external electric field

     Computed dipole along edir(3) :
        Dipole               -0.1953 Ry au,         -0.4963 Debye
        Dipole field         -0.0005 Ry au

        Potential amp.        0.0437 Ry
        Total length         45.8022 bohr

     End of self-consistent calculation

[...]

          k = 0.0560-0.0647 0.0000 ( 19376 PWs)   bands (ev):

[...]

          k =-0.0840-0.0485 0.0000 ( 19380 PWs)   bands (ev):

   -14.3333  -6.8275  -6.5162  -6.1788  -5.5761  -5.5428  -5.4862  -5.3908
    -5.3576  -5.3342  -5.3166  -5.2057  -5.0746  -4.9785  -4.9141  -4.8914
    -4.8504  -4.7066  -4.6979  -4.5280  -4.4661  -4.4432  -4.4402  -4.3986
    -4.3006  -4.2351  -4.1602  -4.1249  -3.9965  -3.9415  -3.8893  -3.7898
    -3.7673  -3.7162  -3.6631  -3.5983  -3.5948  -3.5276  -3.5246  -3.5201
    -3.5076  -3.4681  -3.2821  -3.2817  -3.2377  -3.1991  -3.0958  -3.0280
    -3.0105  -2.9899  -2.9111  -2.8504  -2.8187  -2.6964  -2.6085  -2.5194
    -2.5114  -2.3566  -2.2505  -2.1654  -2.1111  -2.0984  -1.9440  -1.8914
    -1.7253  -0.8668  -0.8237  -0.2223   0.1246   0.2430   0.5725   0.9738
     1.7326   2.2505   3.3958   3.6200   3.9227   4.2859

     the Fermi energy is     0.0079 ev

!    total energy              =   -1420.58767847 Ry
     Harris-Foulkes estimate   =   -1420.58767823 Ry
     estimated scf accuracy    <       0.00000003 Ry

     The total energy is the sum of the following terms:

     one-electron contribution =   -8272.92497500 Ry
     hartree contribution      =    4233.43870534 Ry
     xc contribution           =    -773.44742533 Ry
     ewald contribution        =    3392.37198182 Ry
     electric field correction =       0.00009312 Ry
     smearing contrib. (-TS)   =      -0.02605842 Ry

     convergence has been achieved in   6 iterations

 BEEF-vdW xc energy contributions
           1 :   -691.245208851808
           2 :    642.470113746824
           3 :   -555.254608701361
           4 :    446.517214064956
           5 :   -334.521530153871
           6 :    234.167466779981
           7 :   -154.179011088444
           8 :    96.6510719935968
           9 :   -58.6556278690375
          10 :    34.9003704089429
          11 :   -20.2395200748909
          12 :    11.1136075317831
          13 :   -5.68867182422969
          14 :    3.09651211137316
          15 :   -2.51334178618686
          16 :    2.67102726942380
          17 :   -2.02032353457184
          18 :  -0.657944323701713
          19 :    5.62325477724346
          20 :   -11.9515336354884
          21 :    17.8867140683619
          22 :   -21.6182291790706
          23 :    22.0894647955280
          24 :   -19.4384768670794
          25 :    14.8704594898805
          26 :   -10.0646491381078
          27 :    6.43208815726939
          28 :   -4.59301498053924
          29 :    4.29583920041557
          30 :   -4.76133790397284
          31 :   -54.7550652686230
          32 :   -39.8929633275825

     Forces acting on atoms (Ry/au):

     negative rho (up, down):  6.092E-04 0.000E+00
     atom    1 type  1   force =    -0.00139980   -0.00080818   -0.00414791
     atom    2 type  1   force =     0.00139982   -0.00080817   -0.00414811
     atom    3 type  1   force =     0.00000002    0.00161635   -0.00414800
     atom    4 type  1   force =     0.00000001    0.00000002   -0.00564807
     atom    5 type  1   force =     0.00000037    0.00354184    0.00508987
     atom    6 type  1   force =    -0.00000031   -0.00000000    0.00187346
     atom    7 type  1   force =    -0.00306733   -0.00177123    0.00508985
     atom    8 type  1   force =     0.00306747   -0.00177077    0.00508940
     atom    9 type  1   force =     0.00000008    0.00000033   -0.00193915
     atom   10 type  1   force =    -0.00000026    0.00085129    0.00118428
     atom   11 type  1   force =     0.00073724   -0.00042545    0.00118344
     atom   12 type  1   force =    -0.00073740   -0.00042579    0.00118458
     atom   13 type  2   force =     0.00000010   -0.00000025   -0.00066365

     Total force =     0.003253     Total SCF correction =     0.000157

     entering subroutine stress ...

     negative rho (up, down):  6.092E-04 0.000E+00
          total   stress  (Ry/bohr**3)                   (kbar)     P=   -6.84
  -0.00007692  -0.00000000  -0.00000000        -11.32     -0.00     -0.00
  -0.00000000  -0.00007692   0.00000000         -0.00    -11.32      0.00
  -0.00000000   0.00000000   0.00001438         -0.00      0.00      2.12

     bfgs converged in  10 scf cycles and   9 bfgs steps
     (criteria: energy <  1.0E+00, force <  1.9E-03)

     End of BFGS Geometry Optimization

     Final energy   =   -1420.5876784710 Ry
Begin final coordinates

ATOMIC_POSITIONS (crystal)
Au1      0.166666667   0.166666667   0.402269971    0   0   0
Au1      0.666666667   0.166666667   0.402269971    0   0   0
Au1      0.166666667   0.666666667   0.402269971    0   0   0
Au1      0.666666667   0.666666667   0.402269971    0   0   0
Au1      0.833333333   0.333333333   0.500000000    0   0   0
Au1      0.333333333   0.333333333   0.500000000    0   0   0
Au1      0.833333333   0.833333333   0.500000000    0   0   0
Au1      0.333333333   0.833333333   0.500000000    0   0   0
Au1      0.000000379  -0.000001240   0.596144514
Au1      0.508370766  -0.016740703   0.602035872
Au1     -0.016740004   0.508368977   0.602036338
Au1      0.508370407   0.508370029   0.602035496
N1       0.333334591   0.333333064   0.642756888
End final coordinates

     Writing output data file calc.save

     General routines

     Parallel routines

   This run was terminated on:  10:21:38   4May2018

   JOB DONE.
Job  /afs/slac/g/suncat/bin/suncat-tsmpirun -x LD_LIBRARY_PATH -wdir /scratch/qe928340_8AyWk pw.x -npool 4 -in pw.inp

TID   HOST_NAME   COMMAND_LINE            STATUS            TERMINATION_TIME
00000 suncat0116 pw.x -npool 4 -i  Done                     05/04/2018 10:21:38
00001 suncat0116 pw.x -npool 4 -i  Done                     05/04/2018 10:21:38
00002 suncat0116 pw.x -npool 4 -i  Done                     05/04/2018 10:21:38
00003 suncat0116 pw.x -npool 4 -i  Done                     05/04/2018 10:21:38
00004 suncat0116 pw.x -npool 4 -i  Done                     05/04/2018 10:21:38
00005 suncat0116 pw.x -npool 4 -i  Done                     05/04/2018 10:21:38
00006 suncat0116 pw.x -npool 4 -i  Done                     05/04/2018 10:21:38
00007 suncat0116 pw.x -npool 4 -i  Done                     05/04/2018 10:21:38
00008 suncat0114 pw.x -npool 4 -i  Done                     05/04/2018 10:21:38
00009 suncat0114 pw.x -npool 4 -i  Done                     05/04/2018 10:21:38
00010 suncat0114 pw.x -npool 4 -i  Done                     05/04/2018 10:21:38
00011 suncat0114 pw.x -npool 4 -i  Done                     05/04/2018 10:21:38
00012 suncat0114 pw.x -npool 4 -i  Done                     05/04/2018 10:21:38
00013 suncat0114 pw.x -npool 4 -i  Done                     05/04/2018 10:21:38
00014 suncat0114 pw.x -npool 4 -i  Done                     05/04/2018 10:21:38
00015 suncat0114 pw.x -npool 4 -i  Done                     05/04/2018 10:21:38
00016 suncat0212 pw.x -npool 4 -i  Done                     05/04/2018 10:21:38
00017 suncat0212 pw.x -npool 4 -i  Done                     05/04/2018 10:21:38
00018 suncat0212 pw.x -npool 4 -i  Done                     05/04/2018 10:21:38
00019 suncat0212 pw.x -npool 4 -i  Done                     05/04/2018 10:21:38
00020 suncat0212 pw.x -npool 4 -i  Done                     05/04/2018 10:21:38
00021 suncat0212 pw.x -npool 4 -i  Done                     05/04/2018 10:21:38
00022 suncat0212 pw.x -npool 4 -i  Done                     05/04/2018 10:21:38
00023 suncat0212 pw.x -npool 4 -i  Done                     05/04/2018 10:21:38
00024 suncat0211 pw.x -npool 4 -i  Done                     05/04/2018 10:21:38
00025 suncat0211 pw.x -npool 4 -i  Done                     05/04/2018 10:21:38
00026 suncat0211 pw.x -npool 4 -i  Done                     05/04/2018 10:21:38
00027 suncat0211 pw.x -npool 4 -i  Done                     05/04/2018 10:21:38
00028 suncat0211 pw.x -npool 4 -i  Done                     05/04/2018 10:21:38
00029 suncat0211 pw.x -npool 4 -i  Done                     05/04/2018 10:21:38
00030 suncat0211 pw.x -npool 4 -i  Done                     05/04/2018 10:21:38
00031 suncat0211 pw.x -npool 4 -i  Done                     05/04/2018 10:21:38