     Program PWSCF v.5.1rc2 (svn rev. 11289) starts on 23Apr2018 at  9: 5: 3

     Current dimensions of program PWSCF are:
     Max number of different atomic species (ntypx) = 10
     Max number of k-points (npk) =  40000
     Max angular momentum in pseudopotentials (lmaxx) =  3
     Presently stress not available with electric field

     IMPORTANT: XC functional enforced from input :
     Exchange-correlation      = BEEF-VDW ( 1  4 27 13 2)
     Any further DFT definition will be discarded
     Please, verify this is what you really want

     Subspace diagonalization in iterative solution of the eigenvalue problem:
     a serial algorithm will be used

     bravais-lattice index     =            0
     lattice parameter (alat)  =       1.8897  a.u.
     unit-cell volume          =    5185.0501 (a.u.)^3
     number of atoms/cell      =           14
     number of atomic types    =            3
     number of electrons       =       163.00
     number of Kohn-Sham states=           91
     kinetic-energy cutoff     =      36.7493  Ry
     charge density cutoff     =     367.4932  Ry
     convergence threshold     =      1.0E-05
     mixing beta               =       0.3000
     number of iterations used =           10  plain     mixing
     Exchange-correlation      = BEEF-VDW ( 1  4 27 13 2)
     nstep                     =           50

     celldm(1)=   1.889726  celldm(2)=   0.000000  celldm(3)=   0.000000
     celldm(4)=   0.000000  celldm(5)=   0.000000  celldm(6)=   0.000000

     crystal axes: (cart. coord. in units of alat)
               a(1) = (   5.972022   0.000000   0.000000 )
               a(2) = (   2.986011   5.171923   0.000000 )
               a(3) = (   0.000000   0.000000  24.876136 )

     reciprocal axes: (cart. coord. in units 2 pi/alat)
               b(1) = (  0.167447 -0.096676  0.000000 )
               b(2) = (  0.000000  0.193352  0.000000 )
               b(3) = (  0.000000  0.000000  0.040199 )

     PseudoPot. # 1 for Ta read from file:
     /u/if/mamunm/psp/gbrv1.5pbe/Ta.UPF
     MD5 check sum: f8bbe9446314a3b8ea5d9f3e3836c939
     Pseudo is Ultrasoft + core correction, Zval = 13.0
     Generated by new atomic code, or converted to UPF format
     Using radial grid of  921 points,  7 beta functions with:
                l(1) =   0
                l(2) =   0
                l(3) =   1
                l(4) =   1
                l(5) =   2
                l(6) =   2
                l(7) =   3
     Q(r) pseudized with  6 coefficients,  rinner =    1.300   1.300   1.300
                                                       1.300   1.300   1.300
                                                       1.300

     PseudoPot. # 2 for S  read from file:
     /u/if/mamunm/psp/gbrv1.5pbe/S.UPF
     MD5 check sum: 88d86576ff6df21479756cfb9bdac1df
     Pseudo is Ultrasoft + core correction, Zval =  6.0
     Generated by new atomic code, or converted to UPF format
     Using radial grid of  907 points,  6 beta functions with:
                l(1) =   0
                l(2) =   0
                l(3) =   1
                l(4) =   1
                l(5) =   2
                l(6) =   2
     Q(r) pseudized with  8 coefficients,  rinner =    1.300   1.300   1.300
                                                       1.300   1.300

     PseudoPot. # 3 for H  read from file:
     /u/if/mamunm/psp/gbrv1.5pbe/H.UPF
     MD5 check sum: 761ae9a214b05c3daf00ab9f6b793d6f
     Pseudo is Ultrasoft, Zval =  1.0
     Generated by new atomic code, or converted to UPF format
     Using radial grid of  615 points,  2 beta functions with:
                l(1) =   0
                l(2) =   0
     Q(r) pseudized with  8 coefficients,  rinner =    0.700

     vdW kernel table read from file vdW_kernel_table
     MD5 check sum: 095c7af220d748ca6e76c0b4c6cfb241

     atomic species   valence    mass     pseudopotential
        Ta1           13.00   180.94788     Ta( 1.00)
        S1             6.00    32.06000     S ( 1.00)
        H1             1.00     1.00800     H ( 1.00)

     No symmetry found

   Cartesian axes

     site n.     atom                  positions (alat units)
         1           Ta1 tau(   1) = (   1.4930055   0.8619871  10.0000000  )
         2           Ta1 tau(   2) = (   4.4790165   0.8619871  10.0000000  )
         3           Ta1 tau(   3) = (   2.9860110   3.4479485  10.0000000  )
         4           Ta1 tau(   4) = (   5.9720221   3.4479485  10.0000000  )
         5           Ta1 tau(   5) = (   5.9720221   1.7239743  12.4380678  )
         6           Ta1 tau(   6) = (   2.9860110   1.7239743  12.4380678  )
         7           Ta1 tau(   7) = (   7.4650276   4.3099357  12.4380678  )
         8           Ta1 tau(   8) = (   4.4790165   4.3099357  12.4380678  )
         9           Ta1 tau(   9) = (   0.0000000   0.0000000  14.8761356  )
        10           Ta1 tau(  10) = (   2.9860110   0.0000000  14.8761356  )
        11           Ta1 tau(  11) = (   1.4930055   2.5859614  14.8761356  )
        12           Ta1 tau(  12) = (   4.4790165   2.5859614  14.8761356  )
        13           S1  tau(  13) = (   2.9860110   1.7239743  16.6636356  )
        14           H1  tau(  14) = (   2.9860110   1.7239743  17.9136356  )

     number of k points=    20  Fermi-Dirac smearing, width (Ry)=  0.0110
                       cart. coord. in units 2pi/alat
        k(    1) = (   0.0000000   0.0000000   0.0000000), wk =   0.0555556
        k(    2) = (   0.0000000   0.0322253   0.0000000), wk =   0.1111111
        k(    3) = (   0.0000000   0.0644506   0.0000000), wk =   0.1111111
        k(    4) = (   0.0000000  -0.0966758   0.0000000), wk =   0.0555556
        k(    5) = (   0.0279079  -0.0161126   0.0000000), wk =   0.1111111
        k(    6) = (   0.0279079   0.0161126   0.0000000), wk =   0.1111111
        k(    7) = (   0.0279079   0.0483379   0.0000000), wk =   0.1111111
        k(    8) = (   0.0279079  -0.1127885   0.0000000), wk =   0.1111111
        k(    9) = (   0.0279079  -0.0805632   0.0000000), wk =   0.1111111
        k(   10) = (   0.0279079  -0.0483379   0.0000000), wk =   0.1111111
        k(   11) = (   0.0558158  -0.0322253   0.0000000), wk =   0.1111111
        k(   12) = (   0.0558158   0.0000000   0.0000000), wk =   0.1111111
        k(   13) = (   0.0558158   0.0322253   0.0000000), wk =   0.1111111
        k(   14) = (   0.0558158  -0.1289011   0.0000000), wk =   0.1111111
        k(   15) = (   0.0558158  -0.0966758   0.0000000), wk =   0.1111111
        k(   16) = (   0.0558158  -0.0644506   0.0000000), wk =   0.1111111
        k(   17) = (  -0.0837237   0.0483379   0.0000000), wk =   0.0555556
        k(   18) = (  -0.0837237   0.0805632   0.0000000), wk =   0.1111111
        k(   19) = (  -0.0837237   0.1127885   0.0000000), wk =   0.1111111
        k(   20) = (  -0.0837237  -0.0483379   0.0000000), wk =   0.0555556

     Largest allocated arrays     est. size (Mb)     dimensions
     Largest temporary arrays     est. size (Mb)     dimensions

     Initial potential from superposition of free atoms
     Check: negative starting charge=   -1.121399

     starting charge  162.98661, renormalised to  163.00000

     negative rho (up, down):  1.121E+00 0.000E+00

     *
     * You are using vdW-DF for exchange-correlation in this calculation.
     * Please cite the following three references that made this development
     * possible:
     *
     *   M. Dion, H. Rydberg, E. Schroder, D. C. Langreth, and
     *   B. I. Lundqvist, Phys. Rev. Lett. 92, 246401 (2004).
     *
     *   T. Thonhauser, V. R. Cooper, S. Li, A. Puzder, P. Hyldgaard, and
     *   D. C. Langreth, Phys. Rev. B 76, 125112 (2007).
     *
     *   G. Roman-Perez and J. M. Soler, Phys. Rev. Lett. 103, 096102 (2009).
     *
     *
     * If you are using vdW-DF2, please also cite:
     *
     *   K. Lee, E. D. Murray, L. Kong, B. I. Lundqvist, and
     *   D. C. Langreth, Phys. Rev. B 82, 081101(R) (2010).
     *
     *
     * If you are calculating the stress with vdW-DF, please also cite:
     *
     *   R. Sabatini, E. Kucukbenli, B. Kolb, T. Thonhauser, and
     *   S. de Gironcoli, J. Phys.: Condens. Matter 24, 424209 (2012).
     *

     Carrying out vdW-DF run using the following parameters:

     Nqs =      20    Nr_points =    1024   r_max =   100.000
     q_mesh =
               0.00001000     0.04494208     0.09755937     0.15916263
               0.23128650     0.31572767     0.41458969     0.53033537
               0.66584808     0.82450364     1.01025438     1.22772762
               1.48234092     1.78043706     2.12944203     2.53805004
               3.01644009     3.57652955     4.23227104     5.00000000

     Gradients computed in reciprocal space

     Adding external electric field

     Computed dipole along edir(3) :
        Dipole               -0.0044 Ry au,         -0.0112 Debye
        Dipole field         -0.0000 Ry au

        Potential amp.        0.0010 Ry
        Total length         45.8339 bohr

     Starting wfc are  161 randomized atomic wfcs

     Self-consistent Calculation

     iteration #  1     ecut=    36.75 Ry     beta=0.30
     Davidson diagonalization with overlap
     ethr =  1.00E-02,  avg # of iterations =  2.0

[...]

     total energy              =   -1741.98520223 Ry
     Harris-Foulkes estimate   =   -1744.40015076 Ry
     estimated scf accuracy    <       5.15820498 Ry

[...]

     End of self-consistent calculation

          k = 0.0000 0.0000 0.0000 ( 19447 PWs)   bands (ev):

   -65.6327 -65.6253 -65.5781 -65.5723 -65.5702 -65.5699 -65.5543 -65.5542
   -65.5188 -65.4777 -65.4604 -65.4604 -32.3981 -32.3508 -32.3508 -32.3253
   -32.3034 -32.3033 -32.2984 -32.2693 -32.2608 -32.2607 -32.0673 -31.9716
   -31.9608 -31.9607 -31.9052 -31.8903 -31.8902 -31.7679 -31.7679 -31.7557
   -31.7122 -31.7121 -31.6968 -31.6853 -31.6678 -31.6678 -31.6257 -31.6054
   -31.6054 -31.5960 -31.5613 -31.5612 -31.5329 -31.5329 -31.4590 -31.4590
   -12.6215  -6.0178  -4.5686  -2.8942  -2.3410  -2.3410  -2.0008  -1.3992
    -1.3072  -1.3071  -1.0580  -1.0061  -1.0060  -0.4763  -0.3329  -0.3329
    -0.2294  -0.2007  -0.2006   0.9985   0.9986   1.1068   1.8177   2.2030
     2.2604   2.2604   2.5577   2.6480   2.8058   2.8867   2.8867   3.0585
     3.0585   3.2334   3.3136   3.3136   3.4099   3.4099   3.4193   3.4920
     3.4920   3.6617   3.6618

[...]

          k =-0.0837 0.0483 0.0000 ( 19532 PWs)   bands (ev):

[...]

     the Fermi energy is     2.6882 ev

!    total energy              =   -1744.00308704 Ry
     Harris-Foulkes estimate   =   -1744.00307956 Ry
     estimated scf accuracy    <       0.00000222 Ry

     The total energy is the sum of the following terms:

     one-electron contribution =  -11738.29617764 Ry
     hartree contribution      =    5856.98697685 Ry
     xc contribution           =    -532.53350264 Ry
     ewald contribution        =    4669.94751558 Ry
     electric field correction =       0.00036133 Ry
     smearing contrib. (-TS)   =      -0.10826051 Ry

     convergence has been achieved in  14 iterations

 BEEF-vdW xc energy contributions
           1 :   -468.584553209728
           2 :    432.292075059608
           3 :   -368.946552458511
           4 :    293.196868966397
           5 :   -219.749193629763
           6 :    158.885114749101
           7 :   -114.384810388113
           8 :    84.2809796101876
           9 :   -63.5914710439354
          10 :    47.4360820451992
          11 :   -33.0671641480679
          12 :    20.1692499223669
          13 :   -9.78560872302324
          14 :    2.83898456568602
          15 :   0.820014752994950
          16 :   -2.42166404246211
          17 :    3.54652607437845
          18 :   -5.23842497260506
          19 :    7.53158863882169
          20 :   -9.63252035443287
          21 :    10.5793409520144
          22 :   -9.93654509632034
          23 :    8.10372974730751
          24 :   -6.08434515727726
          25 :    4.89611108349203
          26 :   -5.00378862096858
          27 :    6.10899742974215
          28 :   -7.39114913489192
          29 :    8.02046453112933
          30 :   -7.62179434438571
          31 :   -42.0871949134831
          32 :   -31.2066237636373

     Forces acting on atoms (Ry/au):

     negative rho (up, down):  1.176E+00 0.000E+00
     atom    1 type  1   force =    -0.00152538   -0.00088179    0.00295747
     atom    2 type  1   force =     0.00152334   -0.00087261    0.00297154
     atom    3 type  1   force =     0.00000485    0.00175477    0.00295985
     atom    4 type  1   force =    -0.00000007    0.00000443    0.00310486
     atom    5 type  1   force =     0.00000637    0.00106586   -0.00712512
     atom    6 type  1   force =    -0.00001113    0.00000498   -0.00546694
     atom    7 type  1   force =    -0.00091860   -0.00054292   -0.00712572
     atom    8 type  1   force =     0.00091314   -0.00052915   -0.00711882
     atom    9 type  1   force =     0.00000477   -0.00000395   -0.03596516
     atom   10 type  1   force =    -0.00000013   -0.04964325    0.01496338
     atom   11 type  1   force =    -0.04299458    0.02482042    0.01495712
     atom   12 type  1   force =     0.04299324    0.02482476    0.01496784
     atom   13 type  2   force =     0.00000356   -0.00000149   -0.12934307
     atom   14 type  3   force =     0.00000062   -0.00000006    0.13526277

     Total force =     0.210676     Total SCF correction =     0.005289

     entering subroutine stress ...

     negative rho (up, down):  1.176E+00 0.000E+00
          total   stress  (Ry/bohr**3)                   (kbar)     P=  -23.88
  -0.00025450  -0.00000001  -0.00000000        -37.44     -0.00     -0.00
  -0.00000001  -0.00025450  -0.00000000         -0.00    -37.44     -0.00
  -0.00000000  -0.00000000   0.00002198         -0.00     -0.00      3.23

     BFGS Geometry Optimization

     number of scf cycles    =   1
     number of bfgs steps    =   0

     energy   new            =   -1744.0030870379 Ry

     new trust radius        =       0.1352627726 bohr
     new conv_thr            =       0.0000099958 Ry

ATOMIC_POSITIONS (crystal)
Ta1      0.166666667   0.166666667   0.401991699    0   0   0
Ta1      0.666666667   0.166666667   0.401991699    0   0   0
Ta1      0.166666667   0.666666667   0.401991699    0   0   0
Ta1      0.666666667   0.666666667   0.401991699    0   0   0
Ta1      0.833333333   0.333333333   0.500000000    0   0   0
Ta1      0.333333333   0.333333333   0.500000000    0   0   0
Ta1      0.833333333   0.833333333   0.500000000    0   0   0
Ta1      0.333333333   0.833333333   0.500000000    0   0   0
Ta1      0.000000625  -0.000000404   0.597243233
Ta1      0.502539670  -0.005079363   0.598326610
Ta1     -0.005079502   0.502539558   0.598326477
Ta1      0.502539603   0.502540003   0.598326704
S1       0.333333725   0.333333181   0.667112869
H1       0.333333391   0.333333327   0.722990655

     Writing output data file calc.save
     Check: negative starting charge=   -1.121399
     NEW-OLD atomic charge density approx. for the potential
     Check: negative starting charge=   -1.123598

[...]

     iteration #  1     ecut=    36.75 Ry     beta=0.30
     Davidson diagonalization with overlap
     c_bands:  1 eigenvalues not converged
     ethr =  1.00E-06,  avg # of iterations = 15.1

[...]

     energy   old            =   -1744.0030870379 Ry
     energy   new            =   -1744.0238432247 Ry

     CASE: energy  _new < energy  _old

[...]

     number of scf cycles    =  12
     number of bfgs steps    =  11

     energy   old            =   -1744.0515142970 Ry
     energy   new            =   -1744.0515965851 Ry

     CASE: energy  _new < energy  _old

     new trust radius        =       0.0085509163 bohr
     new conv_thr            =       0.0000001000 Ry

ATOMIC_POSITIONS (crystal)
Ta1      0.166666667   0.166666667   0.401991699    0   0   0
Ta1      0.666666667   0.166666667   0.401991699    0   0   0
Ta1      0.166666667   0.666666667   0.401991699    0   0   0
Ta1      0.666666667   0.666666667   0.401991699    0   0   0
Ta1      0.833333333   0.333333333   0.500000000    0   0   0
Ta1      0.333333333   0.333333333   0.500000000    0   0   0
Ta1      0.833333333   0.833333333   0.500000000    0   0   0
Ta1      0.333333333   0.833333333   0.500000000    0   0   0
Ta1      0.000000170  -0.000000032   0.586120410
Ta1      0.509684727  -0.019368689   0.601802011
Ta1     -0.019368478   0.509684330   0.601801999
Ta1      0.509684642   0.509684210   0.601802012
S1       0.333333452   0.333333345   0.670051662
H1       0.333333620   0.333333190   0.725202406

     Writing output data file calc.save
     Check: negative starting charge=   -1.124112
     NEW-OLD atomic charge density approx. for the potential
     Check: negative starting charge=   -1.124000

[...]

     Self-consistent Calculation

[...]

     Threshold (ethr) on eigenvalues was too large:
     Diagonalizing with lowered threshold

     Davidson diagonalization with overlap
     ethr =  1.05E-08,  avg # of iterations =  4.9

[...]

     total energy              =   -1744.05162286 Ry
     Harris-Foulkes estimate   =   -1744.05162245 Ry
     estimated scf accuracy    <       0.00000017 Ry

     iteration #  8     ecut=    36.75 Ry     beta=0.30
     Davidson diagonalization with overlap
     ethr =  1.05E-10,  avg # of iterations =  3.4

[...]

     negative rho (up, down):  1.179E+00 0.000E+00

     Adding external electric field

     Computed dipole along edir(3) :
        Dipole                0.3412 Ry au,          0.8673 Debye
        Dipole field          0.0008 Ry au

        Potential amp.       -0.0758 Ry
        Total length         45.8339 bohr

     End of self-consistent calculation

[...]

          k = 0.0558-0.0645 0.0000 ( 19521 PWs)   bands (ev):

[...]

          k =-0.0837-0.0483 0.0000 ( 19532 PWs)   bands (ev):

   -65.6787 -65.6466 -65.6424 -65.6415 -65.6199 -65.6140 -65.6061 -65.5971
   -65.5035 -65.4790 -65.4635 -65.4198 -32.3145 -32.3008 -32.2640 -32.2601
   -32.2571 -32.2394 -32.1996 -32.1546 -32.1421 -32.1309 -32.0896 -32.0735
   -32.0563 -31.9788 -31.9697 -31.9515 -31.9258 -31.9093 -31.9078 -31.8953
   -31.8832 -31.8487 -31.8126 -31.7960 -31.7713 -31.7655 -31.7239 -31.7137
   -31.6978 -31.6807 -31.6278 -31.6123 -31.5813 -31.5580 -31.4792 -31.4527
   -12.2042  -5.2774  -3.2086  -2.8785  -2.2986  -2.0703  -1.3959  -1.1205
    -0.6792  -0.6503  -0.4622  -0.3090  -0.2356  -0.2347   0.4353   0.5408
     0.6802   0.7379   0.8620   0.9074   1.1409   1.2409   1.3393   1.3500
     1.4786   1.5591   1.7943   1.8391   1.8499   1.9960   2.0726   2.0988
     2.1533   2.2334   2.3905   2.6439   2.8637   2.9045   2.9837   3.1684
     3.2239   3.6587   3.7895

     the Fermi energy is     2.6363 ev

!    total energy              =   -1744.05162285 Ry
     Harris-Foulkes estimate   =   -1744.05162309 Ry
     estimated scf accuracy    <       0.00000005 Ry

     The total energy is the sum of the following terms:

     one-electron contribution =  -11730.65090908 Ry
     hartree contribution      =    5852.98249694 Ry
     xc contribution           =    -532.52594815 Ry
     ewald contribution        =    4666.24002107 Ry
     electric field correction =       0.00028221 Ry
     smearing contrib. (-TS)   =      -0.09756585 Ry

     convergence has been achieved in   8 iterations

 BEEF-vdW xc energy contributions
           1 :   -468.584140181894
           2 :    432.293424340744
           3 :   -368.942068377514
           4 :    293.165758437308
           5 :   -219.664334770844
           6 :    158.726903026694
           7 :   -114.153474780566
           8 :    84.0005139413557
           9 :   -63.3031327391400
          10 :    47.1838130081873
          11 :   -32.8793955255692
          12 :    20.0439908109049
          13 :   -9.68717677402873
          14 :    2.71216304651580
          15 :    1.02115060879589
          16 :   -2.70461094851538
          17 :    3.87058853625240
          18 :   -5.53489814678505
          19 :    7.74456861388433
          20 :   -9.75517918513168
          21 :    10.6608577636467
          22 :   -10.0525138493891
          23 :    8.30721590853443
          24 :   -6.36885397033467
          25 :    5.19544443054366
          26 :   -5.23002412710031
          27 :    6.20526730338736
          28 :   -7.36680455883476
          29 :    7.94709800842861
          30 :   -7.59263456005061
          31 :   -42.0867758328673
          32 :   -31.2022689363259

     Forces acting on atoms (Ry/au):

     negative rho (up, down):  1.179E+00 0.000E+00
     atom    1 type  1   force =     0.00179172    0.00103444    0.00424665
     atom    2 type  1   force =    -0.00179173    0.00103446    0.00424661
     atom    3 type  1   force =     0.00000001   -0.00206890    0.00424665
     atom    4 type  1   force =    -0.00000007    0.00000002    0.00129325
     atom    5 type  1   force =     0.00000004    0.02161951   -0.01866512
     atom    6 type  1   force =    -0.00000009    0.00000001    0.03397614
     atom    7 type  1   force =    -0.01872304   -0.01080979   -0.01866514
     atom    8 type  1   force =     0.01872304   -0.01080974   -0.01866505
     atom    9 type  1   force =     0.00000012   -0.00000003    0.00173875
     atom   10 type  1   force =    -0.00000022   -0.00012694    0.00147831
     atom   11 type  1   force =    -0.00010976    0.00006335    0.00147839
     atom   12 type  1   force =     0.00010996    0.00006362    0.00147831
     atom   13 type  2   force =     0.00000002   -0.00000004    0.00172737
     atom   14 type  3   force =    -0.00000000    0.00000002    0.00008488

     Total force =     0.003552     Total SCF correction =     0.000250

     entering subroutine stress ...

     negative rho (up, down):  1.179E+00 0.000E+00
          total   stress  (Ry/bohr**3)                   (kbar)     P=  -24.99
  -0.00022887  -0.00000000   0.00000000        -33.67     -0.00      0.00
  -0.00000000  -0.00022887  -0.00000000         -0.00    -33.67     -0.00
   0.00000000  -0.00000000  -0.00005183          0.00     -0.00     -7.62

     bfgs converged in  13 scf cycles and  12 bfgs steps
     (criteria: energy <  1.0E+00, force <  1.9E-03)

     End of BFGS Geometry Optimization

     Final energy   =   -1744.0516228456 Ry
Begin final coordinates

ATOMIC_POSITIONS (crystal)
Ta1      0.166666667   0.166666667   0.401991699    0   0   0
Ta1      0.666666667   0.166666667   0.401991699    0   0   0
Ta1      0.166666667   0.666666667   0.401991699    0   0   0
Ta1      0.666666667   0.666666667   0.401991699    0   0   0
Ta1      0.833333333   0.333333333   0.500000000    0   0   0
Ta1      0.333333333   0.333333333   0.500000000    0   0   0
Ta1      0.833333333   0.833333333   0.500000000    0   0   0
Ta1      0.333333333   0.833333333   0.500000000    0   0   0
Ta1      0.000000170  -0.000000032   0.586120410
Ta1      0.509684727  -0.019368689   0.601802011
Ta1     -0.019368478   0.509684330   0.601801999
Ta1      0.509684642   0.509684210   0.601802012
S1       0.333333452   0.333333345   0.670051662
H1       0.333333620   0.333333190   0.725202406
End final coordinates

     Writing output data file calc.save

     General routines

     Parallel routines

   This run was terminated on:  10: 7: 7  23Apr2018

   JOB DONE.
Job  /afs/slac/g/suncat/bin/suncat-tsmpirun -x LD_LIBRARY_PATH -wdir /scratch/qe542_BDn33 pw.x -npool 3 -in pw.inp

TID   HOST_NAME   COMMAND_LINE            STATUS            TERMINATION_TIME
00000 suncat2006 pw.x -npool 3 -i  Done                     04/23/2018 10:07:07
00001 suncat2006 pw.x -npool 3 -i  Done                     04/23/2018 10:07:07
00002 suncat2006 pw.x -npool 3 -i  Done                     04/23/2018 10:07:07
00003 suncat2006 pw.x -npool 3 -i  Done                     04/23/2018 10:07:07
00004 suncat2054 pw.x -npool 3 -i  Done                     04/23/2018 10:07:07
00005 suncat2054 pw.x -npool 3 -i  Done                     04/23/2018 10:07:07
00006 suncat2054 pw.x -npool 3 -i  Done                     04/23/2018 10:07:07
00007 suncat2054 pw.x -npool 3 -i  Done                     04/23/2018 10:07:07
00008 suncat2054 pw.x -npool 3 -i  Done                     04/23/2018 10:07:07
00009 suncat2054 pw.x -npool 3 -i  Done                     04/23/2018 10:07:07
00010 suncat2054 pw.x -npool 3 -i  Done                     04/23/2018 10:07:07
00011 suncat2054 pw.x -npool 3 -i  Done                     04/23/2018 10:07:07
00012 suncat2054 pw.x -npool 3 -i  Done                     04/23/2018 10:07:07
00013 suncat2054 pw.x -npool 3 -i  Done                     04/23/2018 10:07:07
00014 suncat2054 pw.x -npool 3 -i  Done                     04/23/2018 10:07:07
00015 suncat2054 pw.x -npool 3 -i  Done                     04/23/2018 10:07:07
00016 suncat2054 pw.x -npool 3 -i  Done                     04/23/2018 10:07:07
00017 suncat2054 pw.x -npool 3 -i  Done                     04/23/2018 10:07:07
00018 suncat2054 pw.x -npool 3 -i  Done                     04/23/2018 10:07:07
00019 suncat2054 pw.x -npool 3 -i  Done                     04/23/2018 10:07:07
00020 suncat2009 pw.x -npool 3 -i  Done                     04/23/2018 10:07:07
00021 suncat2009 pw.x -npool 3 -i  Done                     04/23/2018 10:07:07
00022 suncat2009 pw.x -npool 3 -i  Done                     04/23/2018 10:07:07
00023 suncat2009 pw.x -npool 3 -i  Done                     04/23/2018 10:07:07
00024 suncat2009 pw.x -npool 3 -i  Done                     04/23/2018 10:07:07
00025 suncat2009 pw.x -npool 3 -i  Done                     04/23/2018 10:07:07
00026 suncat2009 pw.x -npool 3 -i  Done                     04/23/2018 10:07:07
00027 suncat2009 pw.x -npool 3 -i  Done                     04/23/2018 10:07:07
00028 suncat2009 pw.x -npool 3 -i  Done                     04/23/2018 10:07:07
00029 suncat2009 pw.x -npool 3 -i  Done                     04/23/2018 10:07:07
00030 suncat2009 pw.x -npool 3 -i  Done                     04/23/2018 10:07:07
00031 suncat2009 pw.x -npool 3 -i  Done                     04/23/2018 10:07:07
00032 suncat2009 pw.x -npool 3 -i  Done                     04/23/2018 10:07:07
00033 suncat2009 pw.x -npool 3 -i  Done                     04/23/2018 10:07:07
00034 suncat2009 pw.x -npool 3 -i  Done                     04/23/2018 10:07:07
00035 suncat2009 pw.x -npool 3 -i  Done                     04/23/2018 10:07:07