     Program PWSCF v.5.1rc2 (svn rev. ) starts on 18Apr2018 at  2:33:52

     Current dimensions of program PWSCF are:
     Max number of different atomic species (ntypx) = 10
     Max number of k-points (npk) =  40000
     Max angular momentum in pseudopotentials (lmaxx) =  3
     Presently stress not available with electric field

     IMPORTANT: XC functional enforced from input :
     Exchange-correlation      = BEEF-VDW ( 1  4 27 13 2)
     Any further DFT definition will be discarded
     Please, verify this is what you really want

     Subspace diagonalization in iterative solution of the eigenvalue problem:
     a serial algorithm will be used

     bravais-lattice index     =            0
     lattice parameter (alat)  =       1.8897  a.u.
     unit-cell volume          =    6024.3322 (a.u.)^3
     number of atoms/cell      =           14
     number of atomic types    =            3
     number of electrons       =       151.00
     number of Kohn-Sham states=           85
     kinetic-energy cutoff     =      36.7493  Ry
     charge density cutoff     =     367.4932  Ry
     convergence threshold     =      1.0E-05
     mixing beta               =       0.3000
     number of iterations used =           10  plain     mixing
     Exchange-correlation      = BEEF-VDW ( 1  4 27 13 2)
     nstep                     =           50

     celldm(1)=   1.889726  celldm(2)=   0.000000  celldm(3)=   0.000000
     celldm(4)=   0.000000  celldm(5)=   0.000000  celldm(6)=   0.000000

     crystal axes: (cart. coord. in units of alat)
               a(1) = (   6.393197   0.000000   0.000000 )
               a(2) = (   3.196599   5.536671   0.000000 )
               a(3) = (   0.000000   0.000000  25.220024 )

     reciprocal axes: (cart. coord. in units 2 pi/alat)
               b(1) = (  0.156416 -0.090307  0.000000 )
               b(2) = (  0.000000  0.180614  0.000000 )
               b(3) = (  0.000000  0.000000  0.039651 )

     PseudoPot. # 1 for Hf read from file:
     /home/mamunm/src/pseudo/gbrv1.5pbe/Hf.UPF
     MD5 check sum: 8ee9378dfe14276e333edf04c5e4aa26
     Pseudo is Ultrasoft + core correction, Zval = 12.0
     Generated by new atomic code, or converted to UPF format
     Using radial grid of  921 points,  8 beta functions with:
                l(1) =   0
                l(2) =   0
                l(3) =   0
                l(4) =   1
                l(5) =   1
                l(6) =   2
                l(7) =   2
                l(8) =   3
     Q(r) pseudized with  6 coefficients,  rinner =    1.200   1.200   1.200
                                                       1.200   1.200   1.200
                                                       1.200

     PseudoPot. # 2 for S  read from file:
     /home/mamunm/src/pseudo/gbrv1.5pbe/S.UPF
     MD5 check sum: 88d86576ff6df21479756cfb9bdac1df
     Pseudo is Ultrasoft + core correction, Zval =  6.0
     Generated by new atomic code, or converted to UPF format
     Using radial grid of  907 points,  6 beta functions with:
                l(1) =   0
                l(2) =   0
                l(3) =   1
                l(4) =   1
                l(5) =   2
                l(6) =   2
     Q(r) pseudized with  8 coefficients,  rinner =    1.300   1.300   1.300
                                                       1.300   1.300

     PseudoPot. # 3 for H  read from file:
     /home/mamunm/src/pseudo/gbrv1.5pbe/H.UPF
     MD5 check sum: 761ae9a214b05c3daf00ab9f6b793d6f
     Pseudo is Ultrasoft, Zval =  1.0
     Generated by new atomic code, or converted to UPF format
     Using radial grid of  615 points,  2 beta functions with:
                l(1) =   0
                l(2) =   0
     Q(r) pseudized with  8 coefficients,  rinner =    0.700

     vdW kernel table read from file vdW_kernel_table
     MD5 check sum: 095c7af220d748ca6e76c0b4c6cfb241

     atomic species   valence    mass     pseudopotential
        Hf1           12.00   178.49000     Hf( 1.00)
        S1             6.00    32.06000     S ( 1.00)
        H1             1.00     1.00800     H ( 1.00)

     No symmetry found

   Cartesian axes

     site n.     atom                  positions (alat units)
         1           Hf1 tau(   1) = (   1.5982993   0.9227785  10.0000000  )
         2           Hf1 tau(   2) = (   4.7948978   0.9227785  10.0000000  )
         3           Hf1 tau(   3) = (   3.1965986   3.6911141  10.0000000  )
         4           Hf1 tau(   4) = (   6.3931971   3.6911141  10.0000000  )
         5           Hf1 tau(   5) = (   6.3931971   1.8455570  12.6100118  )
         6           Hf1 tau(   6) = (   3.1965986   1.8455570  12.6100118  )
         7           Hf1 tau(   7) = (   7.9914964   4.6138926  12.6100118  )
         8           Hf1 tau(   8) = (   4.7948978   4.6138926  12.6100118  )
         9           Hf1 tau(   9) = (   0.0000000   0.0000000  15.2200236  )
        10           Hf1 tau(  10) = (   3.1965986   0.0000000  15.2200236  )
        11           Hf1 tau(  11) = (   1.5982993   2.7683356  15.2200236  )
        12           Hf1 tau(  12) = (   4.7948978   2.7683356  15.2200236  )
        13           S1  tau(  13) = (   0.0000000   0.0000000  17.6000236  )
        14           H1  tau(  14) = (   0.0000000   0.0000000  18.8500236  )

     number of k points=    20  Fermi-Dirac smearing, width (Ry)=  0.0110
                       cart. coord. in units 2pi/alat
        k(    1) = (   0.0000000   0.0000000   0.0000000), wk =   0.0555556
        k(    2) = (   0.0000000   0.0301023   0.0000000), wk =   0.1111111
        k(    3) = (   0.0000000   0.0602046   0.0000000), wk =   0.1111111
        k(    4) = (   0.0000000  -0.0903070   0.0000000), wk =   0.0555556
        k(    5) = (   0.0260694  -0.0150512   0.0000000), wk =   0.1111111
        k(    6) = (   0.0260694   0.0150512   0.0000000), wk =   0.1111111
        k(    7) = (   0.0260694   0.0451535   0.0000000), wk =   0.1111111
        k(    8) = (   0.0260694  -0.1053581   0.0000000), wk =   0.1111111
        k(    9) = (   0.0260694  -0.0752558   0.0000000), wk =   0.1111111
        k(   10) = (   0.0260694  -0.0451535   0.0000000), wk =   0.1111111
        k(   11) = (   0.0521388  -0.0301023   0.0000000), wk =   0.1111111
        k(   12) = (   0.0521388   0.0000000   0.0000000), wk =   0.1111111
        k(   13) = (   0.0521388   0.0301023   0.0000000), wk =   0.1111111
        k(   14) = (   0.0521388  -0.1204093   0.0000000), wk =   0.1111111
        k(   15) = (   0.0521388  -0.0903070   0.0000000), wk =   0.1111111
        k(   16) = (   0.0521388  -0.0602046   0.0000000), wk =   0.1111111
        k(   17) = (  -0.0782081   0.0451535   0.0000000), wk =   0.0555556
        k(   18) = (  -0.0782081   0.0752558   0.0000000), wk =   0.1111111
        k(   19) = (  -0.0782081   0.1053581   0.0000000), wk =   0.1111111
        k(   20) = (  -0.0782081  -0.0451535   0.0000000), wk =   0.0555556

     Largest allocated arrays     est. size (Mb)     dimensions
     Largest temporary arrays     est. size (Mb)     dimensions

     Check: negative/imaginary core charge=   -0.000003    0.000000

     Initial potential from superposition of free atoms
     Check: negative starting charge=   -1.301297

     starting charge  126.99993, renormalised to  151.00000

     negative rho (up, down):  1.547E+00 0.000E+00

     *
     * You are using vdW-DF for exchange-correlation in this calculation.
     * Please cite the following three references that made this development
     * possible:
     *
     *   M. Dion, H. Rydberg, E. Schroder, D. C. Langreth, and
     *   B. I. Lundqvist, Phys. Rev. Lett. 92, 246401 (2004).
     *
     *   T. Thonhauser, V. R. Cooper, S. Li, A. Puzder, P. Hyldgaard, and
     *   D. C. Langreth, Phys. Rev. B 76, 125112 (2007).
     *
     *   G. Roman-Perez and J. M. Soler, Phys. Rev. Lett. 103, 096102 (2009).
     *
     *
     * If you are using vdW-DF2, please also cite:
     *
     *   K. Lee, E. D. Murray, L. Kong, B. I. Lundqvist, and
     *   D. C. Langreth, Phys. Rev. B 82, 081101(R) (2010).
     *
     *
     * If you are calculating the stress with vdW-DF, please also cite:
     *
     *   R. Sabatini, E. Kucukbenli, B. Kolb, T. Thonhauser, and
     *   S. de Gironcoli, J. Phys.: Condens. Matter 24, 424209 (2012).
     *

     Carrying out vdW-DF run using the following parameters:

     Nqs =      20    Nr_points =    1024   r_max =   100.000
     q_mesh =
               0.00001000     0.04494208     0.09755937     0.15916263
               0.23128650     0.31572767     0.41458969     0.53033537
               0.66584808     0.82450364     1.01025438     1.22772762
               1.48234092     1.78043706     2.12944203     2.53805004
               3.01644009     3.57652955     4.23227104     5.00000000

     Gradients computed in reciprocal space

     Adding external electric field

     Computed dipole along edir(3) :
        Dipole              -12.9199 Ry au,        -32.8391 Debye
        Dipole field         -0.0270 Ry au

        Potential amp.        2.5046 Ry
        Total length         46.4675 bohr

     Starting wfc are  161 randomized atomic wfcs

     Self-consistent Calculation

     iteration #  1     ecut=    36.75 Ry     beta=0.30
     Davidson diagonalization with overlap
     ethr =  1.00E-02,  avg # of iterations = 10.0

[...]

     total energy              =   -1265.51752078 Ry
     Harris-Foulkes estimate   =   -1950.55128100 Ry
     estimated scf accuracy    <    1466.24415387 Ry

[...]

     iteration # 35     ecut=    36.75 Ry     beta=0.30
     Davidson diagonalization with overlap
     c_bands:  1 eigenvalues not converged
     ethr =  3.58E-05,  avg # of iterations =  7.5

[...]

     End of self-consistent calculation

          k = 0.0000 0.0000 0.0000 ( 22729 PWs)   bands (ev):

   -60.7655 -60.7387 -60.7380 -60.6720 -60.6393 -60.6371 -60.6363 -60.6273
   -60.2723 -60.2426 -60.2355 -60.2348 -29.5022 -29.5018 -29.4682 -29.4490
   -29.4200 -29.4197 -29.4166 -29.3557 -29.3551 -29.3427 -29.2904 -29.2133
   -29.2115 -29.2109 -29.1337 -29.0419 -29.0415 -29.0109 -29.0107 -29.0105
   -28.9732 -28.9730 -28.9727 -28.9404 -28.9403 -28.8830 -28.8830 -28.7355
   -28.7243 -28.7192 -28.7186 -28.6316 -28.6314 -28.6251 -28.5075 -28.5075
   -12.7264  -5.7015  -4.4584  -3.1864  -1.9670  -1.5765  -1.5765  -1.0719
    -1.0719  -1.0484  -0.8005  -0.7806  -0.7806  -0.4589  -0.4589  -0.3853
     0.2325   0.2610   0.2610   0.9636   1.1197   1.1199   1.9211   2.0775
     2.1704   2.2768   2.3775   2.3776   2.5219   2.5220   2.6049   2.8292
     3.0026   3.1212   3.1214   3.1944   3.1947

[...]

          k =-0.0782 0.0452 0.0000 ( 22668 PWs)   bands (ev):

[...]

     the Fermi energy is     1.9586 ev

!    total energy              =   -1952.27873525 Ry
     Harris-Foulkes estimate   =   -1952.27869358 Ry
     estimated scf accuracy    <       0.00000654 Ry

     The total energy is the sum of the following terms:

     one-electron contribution =   -8449.57409644 Ry
     hartree contribution      =    4212.04938656 Ry
     xc contribution           =    -937.30464140 Ry
     ewald contribution        =    3222.66782786 Ry
     electric field correction =       0.00033773 Ry
     smearing contrib. (-TS)   =      -0.11754956 Ry

     convergence has been achieved in  47 iterations

 BEEF-vdW xc energy contributions
           1 :   -847.104282115286
           2 :    786.881672005817
           3 :   -680.285768450539
           4 :    549.468860071867
           5 :   -417.257619258241
           6 :    300.792387595299
           7 :   -208.745295681043
           8 :    142.226246850275
           9 :   -97.8542575853363
          10 :    70.7989369122790
          11 :   -56.4236886693219
          12 :    50.4294545931396
          13 :   -48.4399341584549
          14 :    46.0236959962374
          15 :   -39.5375964027128
          16 :    27.3219783570294
          17 :   -10.4183001970422
          18 :   -7.81202030575696
          19 :    23.1007332437538
          20 :   -32.0528786512511
          21 :    33.4112100237552
          22 :   -28.2698409597821
          23 :    19.2993957264648
          24 :   -9.55982857038339
          25 :    1.54367105837309
          26 :    3.20899412655467
          27 :   -4.03516350017571
          28 :   0.957705335571745
          29 :    5.35443434406000
          30 :   -13.5056508768458
          31 :   -61.2012122610967
          32 :   -43.9539806228215

     Forces acting on atoms (Ry/au):

     negative rho (up, down):  1.378E+00 0.000E+00
     atom    1 type  1   force =     0.00057876    0.00042455    0.02435425
     atom    2 type  1   force =    -0.00057958    0.00039015    0.02440301
     atom    3 type  1   force =    -0.00002060   -0.00074038    0.02431036
     atom    4 type  1   force =     0.00002264   -0.00007975    0.02630536
     atom    5 type  1   force =    -0.00004484    0.00389341   -0.00904522
     atom    6 type  1   force =     0.00004459    0.00001207   -0.00189978
     atom    7 type  1   force =    -0.00336621   -0.00192287   -0.00903691
     atom    8 type  1   force =     0.00336762   -0.00197254   -0.00901333
     atom    9 type  1   force =    -0.00004103    0.00005588   -0.00148209
     atom   10 type  1   force =     0.00003551    0.00002458   -0.02864715
     atom   11 type  1   force =    -0.00001393   -0.00001875   -0.02872471
     atom   12 type  1   force =     0.00001712   -0.00006477   -0.02870828
     atom   13 type  2   force =    -0.00000061   -0.00000128   -0.10475767
     atom   14 type  3   force =     0.00000056   -0.00000030    0.12194216

     Total force =     0.168274     Total SCF correction =     0.002365

     entering subroutine stress ...

     negative rho (up, down):  1.378E+00 0.000E+00
          total   stress  (Ry/bohr**3)                   (kbar)     P=  -19.69
  -0.00014646   0.00000000   0.00000001        -21.55      0.00      0.00
   0.00000000  -0.00014650   0.00000001          0.00    -21.55      0.00
   0.00000001   0.00000001  -0.00010867          0.00      0.00    -15.99

     BFGS Geometry Optimization

     number of scf cycles    =   1
     number of bfgs steps    =   0

     energy   new            =   -1952.2787352533 Ry

     new trust radius        =       0.1219421572 bohr
     new conv_thr            =       0.0000099958 Ry

ATOMIC_POSITIONS (crystal)
Hf1      0.166666667   0.166666667   0.396510335    0   0   0
Hf1      0.666666667   0.166666667   0.396510335    0   0   0
Hf1      0.166666667   0.666666667   0.396510335    0   0   0
Hf1      0.666666667   0.666666667   0.396510335    0   0   0
Hf1      0.833333333   0.333333333   0.500000000    0   0   0
Hf1      0.333333333   0.333333333   0.500000000    0   0   0
Hf1      0.833333333   0.833333333   0.500000000    0   0   0
Hf1      0.333333333   0.833333333   0.500000000    0   0   0
Hf1     -0.000006066   0.000005341   0.603458567
Hf1      0.500001764   0.000002350   0.602888579
Hf1     -0.000000257   0.499998208   0.602886951
Hf1      0.500004512   0.499993809   0.602887296
S1       0.000000010  -0.000000122   0.695661055
H1       0.000000061  -0.000000029   0.749981559

     Writing output data file calc.save
     Check: negative starting charge=   -1.301297
     NEW-OLD atomic charge density approx. for the potential

     Check: negative/imaginary core charge=   -0.000003    0.000000
     Check: negative starting charge=   -1.300714

[...]

     energy   old            =   -1952.2787352533 Ry
     energy   new            =   -1952.2884509946 Ry

     CASE: energy  _new < energy  _old

[...]

     iteration #  1     ecut=    36.75 Ry     beta=0.30
     Davidson diagonalization with overlap
     c_bands:  1 eigenvalues not converged
     ethr =  1.00E-06,  avg # of iterations = 17.1

[...]

     Total force =     0.012688     Total SCF correction =     0.000856

[...]

     Total force =     0.005872     Total SCF correction =     0.000978
     SCF correction compared to forces is large: reduce conv_thr to get better values

[...]

     new trust radius        =       0.0026354806 bohr
     new conv_thr            =       0.0000001000 Ry

[...]

     number of scf cycles    =  12
     number of bfgs steps    =  11

     energy   old            =   -1952.3080118991 Ry
     energy   new            =   -1952.3080242911 Ry

     CASE: energy  _new < energy  _old

     WARNING: bfgs curvature condition failed, Theta= 0.988
     new trust radius        =       0.0028990286 bohr
     new conv_thr            =       0.0000001000 Ry

ATOMIC_POSITIONS (crystal)
Hf1      0.166666667   0.166666667   0.396510335    0   0   0
Hf1      0.666666667   0.166666667   0.396510335    0   0   0
Hf1      0.166666667   0.666666667   0.396510335    0   0   0
Hf1      0.666666667   0.666666667   0.396510335    0   0   0
Hf1      0.833333333   0.333333333   0.500000000    0   0   0
Hf1      0.333333333   0.333333333   0.500000000    0   0   0
Hf1      0.833333333   0.833333333   0.500000000    0   0   0
Hf1      0.333333333   0.833333333   0.500000000    0   0   0
Hf1     -0.000007295   0.000009712   0.603543292
Hf1      0.499376373   0.001248840   0.595408231
Hf1      0.001243223   0.499374774   0.595406579
Hf1      0.499381932   0.499372975   0.595406690
S1       0.000008807  -0.000010767   0.698555632
H1      -0.000001838   0.000002385   0.751842891

     Writing output data file calc.save
     Check: negative starting charge=   -1.296704
     NEW-OLD atomic charge density approx. for the potential

     Check: negative/imaginary core charge=   -0.000003    0.000000
     Check: negative starting charge=   -1.296573

[...]

     Self-consistent Calculation

[...]

     Threshold (ethr) on eigenvalues was too large:
     Diagonalizing with lowered threshold

     Davidson diagonalization with overlap
     ethr =  9.93E-08,  avg # of iterations =  1.8

[...]

     total energy              =   -1952.30803662 Ry
     Harris-Foulkes estimate   =   -1952.30803667 Ry
     estimated scf accuracy    <       0.00000018 Ry

     iteration #  7     ecut=    36.75 Ry     beta=0.30
     Davidson diagonalization with overlap
     ethr =  1.21E-10,  avg # of iterations =  4.3

[...]

     negative rho (up, down):  1.372E+00 0.000E+00

     Adding external electric field

     Computed dipole along edir(3) :
        Dipole                0.2915 Ry au,          0.7410 Debye
        Dipole field          0.0006 Ry au

        Potential amp.       -0.0565 Ry
        Total length         46.4675 bohr

     End of self-consistent calculation

[...]

          k = 0.0521-0.0602 0.0000 ( 22643 PWs)   bands (ev):

[...]

          k =-0.0782-0.0452 0.0000 ( 22668 PWs)   bands (ev):

   -60.7644 -60.7604 -60.7600 -60.7433 -60.7429 -60.6831 -60.6734 -60.6653
   -60.2437 -60.2365 -60.2270 -60.1763 -29.4658 -29.4452 -29.4315 -29.4154
   -29.4111 -29.3864 -29.3684 -29.3435 -29.3387 -29.3383 -29.3116 -29.3097
   -29.2779 -29.2593 -29.2569 -29.2224 -29.2188 -29.2176 -29.1902 -29.1668
   -29.0572 -29.0506 -29.0493 -28.9809 -28.8979 -28.8516 -28.7595 -28.7525
   -28.7302 -28.7146 -28.7043 -28.6969 -28.6767 -28.6485 -28.5724 -28.5374
   -12.2092  -5.2759  -3.1278  -3.0188  -1.9722  -1.7611  -1.3256  -1.2854
    -0.8585  -0.8266  -0.5554  -0.4292  -0.2512  -0.2181   0.5923   0.6755
     0.7482   0.7995   0.9288   0.9858   1.0707   1.2263   1.3282   1.3463
     1.3569   1.4822   1.5257   1.6710   1.7304   1.8126   1.8489   1.9965
     2.0160   2.0945   2.2293   2.2763   2.6081

     the Fermi energy is     1.8490 ev

!    total energy              =   -1952.30803660 Ry
     Harris-Foulkes estimate   =   -1952.30803769 Ry
     estimated scf accuracy    <       0.00000009 Ry

     The total energy is the sum of the following terms:

     one-electron contribution =   -8610.18241330 Ry
     hartree contribution      =    4292.38047222 Ry
     xc contribution           =    -937.49906881 Ry
     ewald contribution        =    3303.10777435 Ry
     electric field correction =       0.00017729 Ry
     smearing contrib. (-TS)   =      -0.11497836 Ry

     convergence has been achieved in   7 iterations

 BEEF-vdW xc energy contributions
           1 :   -847.305472923043
           2 :    787.153152115678
           3 :   -680.618488318019
           4 :    549.757722735174
           5 :   -417.373823963433
           6 :    300.687851436098
           7 :   -208.497528956334
           8 :    141.988328420680
           9 :   -97.7523769545411
          10 :    70.8559849323831
          11 :   -56.5576233460631
          12 :    50.5191836835072
          13 :   -48.4095760464294
          14 :    45.8899631702966
          15 :   -39.3919944542102
          16 :    27.2618792439500
          17 :   -10.4729759698977
          18 :   -7.70747027974494
          19 :    23.0617131827734
          20 :   -32.1592625854253
          21 :    33.6413797662623
          22 :   -28.5069153728621
          23 :    19.4093247031074
          24 :   -9.48464915025897
          25 :    1.34107829099980
          26 :    3.40870097301172
          27 :   -4.12233677023573
          28 :   0.917027728455309
          29 :    5.44247859929578
          30 :   -13.5351292443477
          31 :   -61.2160592384494
          32 :   -43.9773028575960

     Forces acting on atoms (Ry/au):

     negative rho (up, down):  1.372E+00 0.000E+00
     atom    1 type  1   force =     0.00025702    0.00014789    0.01846795
     atom    2 type  1   force =    -0.00025714    0.00014800    0.01846802
     atom    3 type  1   force =     0.00000006   -0.00029602    0.01846836
     atom    4 type  1   force =    -0.00000008    0.00000063    0.02352495
     atom    5 type  1   force =    -0.00000052   -0.00253286   -0.01931174
     atom    6 type  1   force =    -0.00000018   -0.00000137   -0.02561549
     atom    7 type  1   force =     0.00219048    0.00126798   -0.01930268
     atom    8 type  1   force =    -0.00219061    0.00126743   -0.01930048
     atom    9 type  1   force =     0.00000050   -0.00000252    0.00046877
     atom   10 type  1   force =    -0.00000061    0.00075719    0.00029738
     atom   11 type  1   force =     0.00065779   -0.00037649    0.00030371
     atom   12 type  1   force =    -0.00065796   -0.00037574    0.00030372
     atom   13 type  2   force =     0.00000219   -0.00000682    0.00171180
     atom   14 type  3   force =    -0.00000094    0.00000270    0.00151574

     Total force =     0.002728     Total SCF correction =     0.000696
     SCF correction compared to forces is large: reduce conv_thr to get better values

     entering subroutine stress ...

     negative rho (up, down):  1.372E+00 0.000E+00
          total   stress  (Ry/bohr**3)                   (kbar)     P=  -15.92
  -0.00012164   0.00000000   0.00000000        -17.89      0.00      0.00
   0.00000000  -0.00012163  -0.00000000          0.00    -17.89     -0.00
   0.00000000  -0.00000000  -0.00008132          0.00     -0.00    -11.96

     bfgs converged in  13 scf cycles and  12 bfgs steps
     (criteria: energy <  1.0E+00, force <  1.9E-03)

     End of BFGS Geometry Optimization

     Final energy   =   -1952.3080365963 Ry
Begin final coordinates

ATOMIC_POSITIONS (crystal)
Hf1      0.166666667   0.166666667   0.396510335    0   0   0
Hf1      0.666666667   0.166666667   0.396510335    0   0   0
Hf1      0.166666667   0.666666667   0.396510335    0   0   0
Hf1      0.666666667   0.666666667   0.396510335    0   0   0
Hf1      0.833333333   0.333333333   0.500000000    0   0   0
Hf1      0.333333333   0.333333333   0.500000000    0   0   0
Hf1      0.833333333   0.833333333   0.500000000    0   0   0
Hf1      0.333333333   0.833333333   0.500000000    0   0   0
Hf1     -0.000007295   0.000009712   0.603543292
Hf1      0.499376373   0.001248840   0.595408231
Hf1      0.001243223   0.499374774   0.595406579
Hf1      0.499381932   0.499372975   0.595406690
S1       0.000008807  -0.000010767   0.698555632
H1      -0.000001838   0.000002385   0.751842891
End final coordinates

     Writing output data file calc.save

     General routines

     Parallel routines

   This run was terminated on:   4:13: 7  18Apr2018

   JOB DONE.