     Program PWSCF v.5.1rc2 (svn rev. ) starts on 22Feb2018 at 14:33:48

     Current dimensions of program PWSCF are:
     Max number of different atomic species (ntypx) = 10
     Max number of k-points (npk) =  40000
     Max angular momentum in pseudopotentials (lmaxx) =  3
     Presently stress not available with electric field

     IMPORTANT: XC functional enforced from input :
     Exchange-correlation      = BEEF-VDW ( 1  4 27 13 2)
     Any further DFT definition will be discarded
     Please, verify this is what you really want

     Subspace diagonalization in iterative solution of the eigenvalue problem:
     a serial algorithm will be used

     bravais-lattice index     =            0
     lattice parameter (alat)  =       1.8897  a.u.
     unit-cell volume          =    7276.7660 (a.u.)^3
     number of atoms/cell      =           13
     number of atomic types    =            2
     number of electrons       =       181.00
     number of Kohn-Sham states=          100
     kinetic-energy cutoff     =      36.7493  Ry
     charge density cutoff     =     367.4932  Ry
     convergence threshold     =      1.0E-05
     mixing beta               =       0.3000
     number of iterations used =           10  plain     mixing
     Exchange-correlation      = BEEF-VDW ( 1  4 27 13 2)
     nstep                     =           50

     celldm(1)=   1.889726  celldm(2)=   0.000000  celldm(3)=   0.000000
     celldm(4)=   0.000000  celldm(5)=   0.000000  celldm(6)=   0.000000

     crystal axes: (cart. coord. in units of alat)
               a(1) = (   6.962526   0.000000   0.000000 )
               a(2) = (   3.481263   6.029724   0.000000 )
               a(3) = (   0.000000   0.000000  25.684879 )

     reciprocal axes: (cart. coord. in units 2 pi/alat)
               b(1) = (  0.143626 -0.082923  0.000000 )
               b(2) = (  0.000000  0.165845  0.000000 )
               b(3) = (  0.000000  0.000000  0.038933 )

     PseudoPot. # 1 for Bi read from file:
     /home/mamunm/src/pseudo/gbrv1.5pbe/Bi.UPF
     MD5 check sum: 81103212dc04adf40945787f699eab19
     Pseudo is Ultrasoft + core correction, Zval = 15.0
     Generated by new atomic code, or converted to UPF format
     Using radial grid of  899 points,  6 beta functions with:
                l(1) =   0
                l(2) =   0
                l(3) =   1
                l(4) =   1
                l(5) =   2
                l(6) =   2
     Q(r) pseudized with  6 coefficients,  rinner =    1.000   1.000   1.000
                                                       1.000   1.000

     PseudoPot. # 2 for H  read from file:
     /home/mamunm/src/pseudo/gbrv1.5pbe/H.UPF
     MD5 check sum: 761ae9a214b05c3daf00ab9f6b793d6f
     Pseudo is Ultrasoft, Zval =  1.0
     Generated by new atomic code, or converted to UPF format
     Using radial grid of  615 points,  2 beta functions with:
                l(1) =   0
                l(2) =   0
     Q(r) pseudized with  8 coefficients,  rinner =    0.700

     vdW kernel table read from file vdW_kernel_table
     MD5 check sum: 095c7af220d748ca6e76c0b4c6cfb241

     atomic species   valence    mass     pseudopotential
        Bi1           15.00   208.98040     Bi( 1.00)
        H1             1.00     1.00800     H ( 1.00)

     No symmetry found

   Cartesian axes

     site n.     atom                  positions (alat units)
         1           Bi1 tau(   1) = (   1.7406315   1.0049541  10.0000000  )
         2           Bi1 tau(   2) = (   5.2218945   1.0049541  10.0000000  )
         3           Bi1 tau(   3) = (   3.4812630   4.0198163  10.0000000  )
         4           Bi1 tau(   4) = (   6.9625260   4.0198163  10.0000000  )
         5           Bi1 tau(   5) = (   6.9625260   2.0099081  12.8424393  )
         6           Bi1 tau(   6) = (   3.4812630   2.0099081  12.8424393  )
         7           Bi1 tau(   7) = (   8.7031575   5.0247703  12.8424393  )
         8           Bi1 tau(   8) = (   5.2218945   5.0247703  12.8424393  )
         9           Bi1 tau(   9) = (   0.0000000   0.0000000  15.6848787  )
        10           Bi1 tau(  10) = (   3.4812630   0.0000000  15.6848787  )
        11           Bi1 tau(  11) = (   1.7406315   3.0148622  15.6848787  )
        12           Bi1 tau(  12) = (   5.2218945   3.0148622  15.6848787  )
        13           H1  tau(  13) = (   3.4812630   2.0099081  16.8483787  )

     number of k points=    20  Fermi-Dirac smearing, width (Ry)=  0.0110
                       cart. coord. in units 2pi/alat
        k(    1) = (   0.0000000   0.0000000   0.0000000), wk =   0.0555556
        k(    2) = (   0.0000000   0.0276408   0.0000000), wk =   0.1111111
        k(    3) = (   0.0000000   0.0552817   0.0000000), wk =   0.1111111
        k(    4) = (   0.0000000  -0.0829225   0.0000000), wk =   0.0555556
        k(    5) = (   0.0239377  -0.0138204   0.0000000), wk =   0.1111111
        k(    6) = (   0.0239377   0.0138204   0.0000000), wk =   0.1111111
        k(    7) = (   0.0239377   0.0414613   0.0000000), wk =   0.1111111
        k(    8) = (   0.0239377  -0.0967430   0.0000000), wk =   0.1111111
        k(    9) = (   0.0239377  -0.0691021   0.0000000), wk =   0.1111111
        k(   10) = (   0.0239377  -0.0414613   0.0000000), wk =   0.1111111
        k(   11) = (   0.0478753  -0.0276408   0.0000000), wk =   0.1111111
        k(   12) = (   0.0478753   0.0000000   0.0000000), wk =   0.1111111
        k(   13) = (   0.0478753   0.0276408   0.0000000), wk =   0.1111111
        k(   14) = (   0.0478753  -0.1105634   0.0000000), wk =   0.1111111
        k(   15) = (   0.0478753  -0.0829225   0.0000000), wk =   0.1111111
        k(   16) = (   0.0478753  -0.0552817   0.0000000), wk =   0.1111111
        k(   17) = (  -0.0718130   0.0414613   0.0000000), wk =   0.0555556
        k(   18) = (  -0.0718130   0.0691021   0.0000000), wk =   0.1111111
        k(   19) = (  -0.0718130   0.0967430   0.0000000), wk =   0.1111111
        k(   20) = (  -0.0718130  -0.0414613   0.0000000), wk =   0.0555556

     Largest allocated arrays     est. size (Mb)     dimensions
     Largest temporary arrays     est. size (Mb)     dimensions

     Check: negative/imaginary core charge=   -0.000001    0.000000

     Initial potential from superposition of free atoms
     Check: negative starting charge=   -0.503594

     starting charge  168.99949, renormalised to  181.00000

     negative rho (up, down):  5.394E-01 0.000E+00

     *
     * You are using vdW-DF for exchange-correlation in this calculation.
     * Please cite the following three references that made this development
     * possible:
     *
     *   M. Dion, H. Rydberg, E. Schroder, D. C. Langreth, and
     *   B. I. Lundqvist, Phys. Rev. Lett. 92, 246401 (2004).
     *
     *   T. Thonhauser, V. R. Cooper, S. Li, A. Puzder, P. Hyldgaard, and
     *   D. C. Langreth, Phys. Rev. B 76, 125112 (2007).
     *
     *   G. Roman-Perez and J. M. Soler, Phys. Rev. Lett. 103, 096102 (2009).
     *
     *
     * If you are using vdW-DF2, please also cite:
     *
     *   K. Lee, E. D. Murray, L. Kong, B. I. Lundqvist, and
     *   D. C. Langreth, Phys. Rev. B 82, 081101(R) (2010).
     *
     *
     * If you are calculating the stress with vdW-DF, please also cite:
     *
     *   R. Sabatini, E. Kucukbenli, B. Kolb, T. Thonhauser, and
     *   S. de Gironcoli, J. Phys.: Condens. Matter 24, 424209 (2012).
     *

     Carrying out vdW-DF run using the following parameters:

     Nqs =      20    Nr_points =    1024   r_max =   100.000
     q_mesh =
               0.00001000     0.04494208     0.09755937     0.15916263
               0.23128650     0.31572767     0.41458969     0.53033537
               0.66584808     0.82450364     1.01025438     1.22772762
               1.48234092     1.78043706     2.12944203     2.53805004
               3.01644009     3.57652955     4.23227104     5.00000000

     Gradients computed in reciprocal space

     Adding external electric field

     Computed dipole along edir(3) :
        Dipole               -0.5375 Ry au,         -1.3661 Debye
        Dipole field         -0.0009 Ry au

        Potential amp.        0.0878 Ry
        Total length         47.3240 bohr

     Starting wfc are  109 randomized atomic wfcs

     Self-consistent Calculation

     iteration #  1     ecut=    36.75 Ry     beta=0.30
     Davidson diagonalization with overlap
     ethr =  1.00E-02,  avg # of iterations =  4.2

[...]

     total energy              =   -2245.75549372 Ry
     Harris-Foulkes estimate   =   -2250.50592590 Ry
     estimated scf accuracy    <      10.34294446 Ry

[...]

     End of self-consistent calculation

          k = 0.0000 0.0000 0.0000 ( 27441 PWs)   bands (ev):

   -22.4614 -22.4614 -22.4513 -22.4217 -22.4217 -22.3792 -22.3709 -22.3709
   -22.3375 -22.3090 -22.3090 -22.2976 -22.2845 -22.2749 -22.2749 -22.2693
   -22.2693 -22.2523 -22.2360 -22.2359 -22.2245 -22.2245 -22.2116 -22.1847
   -22.1668 -22.1668 -22.1592 -22.1537 -22.1537 -22.1487 -22.1377 -22.1377
   -22.1129 -22.1129 -22.1107 -22.1027 -22.1024 -22.1024 -22.0892 -22.0892
   -22.0839 -22.0839 -22.0563 -22.0563 -22.0259 -22.0259 -22.0095 -22.0042
   -22.0005 -22.0005 -21.9965 -21.9965 -21.9850 -21.9850 -21.9791 -21.9791
   -21.9752 -21.9658 -21.9658 -21.9565 -12.2499 -11.1968 -10.0904  -9.4369
    -9.3918  -9.3918  -8.8620  -8.8620  -8.8500  -8.4722  -8.4608  -8.4608
    -4.3098  -3.6674  -3.6674  -3.3414  -2.9781  -2.7812  -2.7812  -2.6859
    -2.5355  -2.5355  -0.8570   0.3013   0.9353   0.9353   1.0149   1.0149
     1.0273   2.0779   2.0779   2.1021   2.1889   3.0939   3.0939   3.1234
     3.2338   3.2338   3.2649   3.3173

[...]

          k =-0.0718 0.0415 0.0000 ( 27378 PWs)   bands (ev):

[...]

     the Fermi energy is     1.3412 ev

!    total energy              =   -2246.93354639 Ry
     Harris-Foulkes estimate   =   -2246.93354728 Ry
     estimated scf accuracy    <       0.00000180 Ry

     The total energy is the sum of the following terms:

     one-electron contribution =  -10751.79019504 Ry
     hartree contribution      =    5430.02956065 Ry
     xc contribution           =    -799.68583111 Ry
     ewald contribution        =    3874.57065969 Ry
     electric field correction =       0.00000153 Ry
     smearing contrib. (-TS)   =      -0.05774211 Ry

     convergence has been achieved in  11 iterations

 BEEF-vdW xc energy contributions
           1 :   -713.110784503288
           2 :    662.953723040533
           3 :   -574.372183646226
           4 :    466.529544656993
           5 :   -359.660111080025
           6 :    269.158014869493
           7 :   -202.054045619142
           8 :    156.816778748330
           9 :   -126.159960404378
          10 :    101.392375696936
          11 :   -76.3730900315011
          12 :    49.5109393728962
          13 :   -23.2968566609003
          14 :    2.00527598997348
          15 :    11.0686779970320
          16 :   -15.4629277565527
          17 :    13.7309128375243
          18 :   -10.0803173520695
          19 :    8.31255639822803
          20 :   -10.1562179257360
          21 :    14.7811713814801
          22 :   -19.6251456091766
          23 :    21.9934416495693
          24 :   -20.5551098338688
          25 :    15.9872193473809
          26 :   -10.5160502313095
          27 :    6.67901216500184
          28 :   -6.00241377289103
          29 :    8.28273910627536
          30 :   -11.8045619253298
          31 :   -56.8475893116781
          32 :   -41.8628637418668

     Forces acting on atoms (Ry/au):

     negative rho (up, down):  5.268E-01 0.000E+00
     atom    1 type  1   force =     0.00046921    0.00026994   -0.01117527
     atom    2 type  1   force =    -0.00046566    0.00026461   -0.01117595
     atom    3 type  1   force =    -0.00000821   -0.00053540   -0.01117779
     atom    4 type  1   force =     0.00000228    0.00000202   -0.00886224
     atom    5 type  1   force =     0.00000256    0.00146953   -0.00169100
     atom    6 type  1   force =    -0.00000145   -0.00000221    0.00254992
     atom    7 type  1   force =    -0.00127638   -0.00073700   -0.00167709
     atom    8 type  1   force =     0.00127878   -0.00072938   -0.00168605
     atom    9 type  1   force =    -0.00000296    0.00000183    0.01123223
     atom   10 type  1   force =     0.00000006   -0.00578944    0.01270987
     atom   11 type  1   force =    -0.00501720    0.00288863    0.01271490
     atom   12 type  1   force =     0.00501867    0.00289716    0.01272752
     atom   13 type  2   force =     0.00000029   -0.00000030   -0.00448906

     Total force =     0.027058     Total SCF correction =     0.003613
     SCF correction compared to forces is large: reduce conv_thr to get better values

     entering subroutine stress ...

     negative rho (up, down):  5.268E-01 0.000E+00
          total   stress  (Ry/bohr**3)                   (kbar)     P=    6.81
   0.00004511   0.00000000   0.00000000          6.64      0.00      0.00
   0.00000000   0.00004511   0.00000000          0.00      6.64      0.00
   0.00000000   0.00000000   0.00004876          0.00      0.00      7.17

     BFGS Geometry Optimization

     number of scf cycles    =   1
     number of bfgs steps    =   0

     energy   new            =   -2246.9335463878 Ry

     new trust radius        =       0.0139846522 bohr
     new conv_thr            =       0.0000099958 Ry

ATOMIC_POSITIONS (crystal)
Bi1      0.166666667   0.166666667   0.389334134    0   0   0
Bi1      0.666666667   0.166666667   0.389334134    0   0   0
Bi1      0.166666667   0.666666667   0.389334134    0   0   0
Bi1      0.666666667   0.666666667   0.389334134    0   0   0
Bi1      0.833333333   0.333333333   0.500000000    0   0   0
Bi1      0.333333333   0.333333333   0.500000000    0   0   0
Bi1      0.833333333   0.833333333   0.500000000    0   0   0
Bi1      0.333333333   0.833333333   0.500000000    0   0   0
Bi1     -0.000000305   0.000000161   0.610897280
Bi1      0.500254049  -0.000508090   0.610927723
Bi1     -0.000508081   0.500253510   0.610927827
Bi1      0.500254308   0.500254259   0.610928087
H1       0.333333369   0.333333307   0.655872406

     Writing output data file calc.save
     Check: negative starting charge=   -0.503594
     NEW-OLD atomic charge density approx. for the potential

     Check: negative/imaginary core charge=   -0.000001    0.000000
     Check: negative starting charge=   -0.504438

[...]

     energy   old            =   -2246.9335463878 Ry
     energy   new            =   -2246.9342287622 Ry

     CASE: energy  _new < energy  _old

     WARNING: bfgs curvature condition failed, Theta= 0.830
     new trust radius        =       0.0209769783 bohr
     new conv_thr            =       0.0000001000 Ry

[...]

     Total force =     0.023727     Total SCF correction =     0.000928

[...]

     Threshold (ethr) on eigenvalues was too large:
     Diagonalizing with lowered threshold

     Davidson diagonalization with overlap
     ethr =  8.56E-09,  avg # of iterations =  4.2

[...]

     WARNING: bfgs curvature condition failed, Theta= 0.860
     new trust radius        =       0.0044272943 bohr
     new conv_thr            =       0.0000001000 Ry

[...]

     Threshold (ethr) on eigenvalues was too large:
     Diagonalizing with lowered threshold

     Davidson diagonalization with overlap
     ethr =  6.09E-08,  avg # of iterations =  2.1

[...]

     Total force =     0.004852     Total SCF correction =     0.000288

[...]

     number of scf cycles    =  19
     number of bfgs steps    =  18

     energy   old            =   -2246.9443459258 Ry
     energy   new            =   -2246.9444813979 Ry

     CASE: energy  _new < energy  _old

     new trust radius        =       0.0403651863 bohr
     new conv_thr            =       0.0000001000 Ry

ATOMIC_POSITIONS (crystal)
Bi1      0.166666667   0.166666667   0.389334134    0   0   0
Bi1      0.666666667   0.166666667   0.389334134    0   0   0
Bi1      0.166666667   0.666666667   0.389334134    0   0   0
Bi1      0.666666667   0.666666667   0.389334134    0   0   0
Bi1      0.833333333   0.333333333   0.500000000    0   0   0
Bi1      0.333333333   0.333333333   0.500000000    0   0   0
Bi1      0.833333333   0.833333333   0.500000000    0   0   0
Bi1      0.333333333   0.833333333   0.500000000    0   0   0
Bi1     -0.000018643  -0.000005446   0.621081389
Bi1      0.504195401  -0.008363919   0.620277976
Bi1     -0.008336872   0.504153154   0.620280430
Bi1      0.504172594   0.504193856   0.620289193
H1       0.333332462   0.333339223   0.659853529

     Writing output data file calc.save
     Check: negative starting charge=   -0.501687
     NEW-OLD atomic charge density approx. for the potential

     Check: negative/imaginary core charge=   -0.000001    0.000000
     Check: negative starting charge=   -0.501295

[...]

     Self-consistent Calculation

[...]

     total energy              =   -2246.94456169 Ry
     Harris-Foulkes estimate   =   -2246.94456165 Ry
     estimated scf accuracy    <       0.00000048 Ry

     iteration #  7     ecut=    36.75 Ry     beta=0.30
     Davidson diagonalization with overlap
     ethr =  2.63E-10,  avg # of iterations =  3.1

[...]

     negative rho (up, down):  5.241E-01 0.000E+00

     Adding external electric field

     Computed dipole along edir(3) :
        Dipole               -0.1085 Ry au,         -0.2758 Debye
        Dipole field         -0.0002 Ry au

        Potential amp.        0.0177 Ry
        Total length         47.3240 bohr

     End of self-consistent calculation

[...]

          k = 0.0479-0.0553 0.0000 ( 27352 PWs)   bands (ev):

[...]

          k =-0.0718-0.0415 0.0000 ( 27378 PWs)   bands (ev):

   -22.4036 -22.3732 -22.3645 -22.3576 -22.3533 -22.3500 -22.3295 -22.3147
   -22.2978 -22.2963 -22.2954 -22.2944 -22.2936 -22.2910 -22.2899 -22.2828
   -22.2802 -22.2669 -22.2520 -22.2317 -22.1911 -22.1729 -22.1614 -22.1538
   -22.1391 -22.1337 -22.1298 -22.1199 -22.1171 -22.1044 -22.1012 -22.0973
   -22.0958 -22.0951 -22.0918 -22.0904 -22.0868 -22.0809 -22.0807 -22.0783
   -22.0783 -22.0757 -22.0752 -22.0750 -22.0729 -22.0706 -22.0698 -22.0676
   -22.0649 -22.0585 -22.0555 -22.0465 -22.0325 -22.0241 -22.0128 -22.0103
   -21.9917 -21.9741 -21.9697 -21.9506 -11.1131 -11.0862 -10.2916 -10.1853
    -9.5069  -9.4951  -9.4381  -9.3992  -8.8483  -8.8452  -8.4596  -8.4408
    -3.0616  -2.1249  -2.1178  -2.0299  -1.9879  -1.9828  -1.7428  -1.3581
    -0.8202  -0.6132  -0.6069  -0.4976  -0.2456   0.4428   0.5426   0.6445
     0.6737   0.7796   0.7812   0.8547   1.0287   1.0731   1.4991   1.6269
     1.9529   2.0057   3.1205   3.1682

     the Fermi energy is     1.3045 ev

!    total energy              =   -2246.94456194 Ry
     Harris-Foulkes estimate   =   -2246.94456190 Ry
     estimated scf accuracy    <       0.00000007 Ry

     The total energy is the sum of the following terms:

     one-electron contribution =  -10375.08293417 Ry
     hartree contribution      =    5241.72124978 Ry
     xc contribution           =    -799.50460117 Ry
     ewald contribution        =    3685.98060107 Ry
     electric field correction =       0.00002033 Ry
     smearing contrib. (-TS)   =      -0.05889779 Ry

     convergence has been achieved in   7 iterations

 BEEF-vdW xc energy contributions
           1 :   -712.922750241519
           2 :    662.656672324329
           3 :   -573.926661826025
           4 :    465.998698106415
           5 :   -359.184861844206
           6 :    268.883059117475
           7 :   -202.045077812691
           8 :    157.016824832417
           9 :   -126.412531669541
          10 :    101.521204207051
          11 :   -76.2751619578992
          12 :    49.2120492674597
          13 :   -22.9390404917364
          14 :    1.77116241205158
          15 :    11.0550145471165
          16 :   -15.2052536971179
          17 :    13.3615927513557
          18 :   -9.79140188473264
          19 :    8.25374161455636
          20 :   -10.3543217814026
          21 :    15.1247984966191
          22 :   -19.9237758007062
          23 :    22.0795587804881
          24 :   -20.3745813092781
          25 :    15.6292622509128
          26 :   -10.1660657166809
          27 :    6.51921932291009
          28 :   -6.11395341537798
          29 :    8.60138655331912
          30 :   -12.1540821408286
          31 :   -56.8308089466157
          32 :   -41.8154110145970

     Forces acting on atoms (Ry/au):

     negative rho (up, down):  5.241E-01 0.000E+00
     atom    1 type  1   force =    -0.00037896   -0.00021908   -0.00627413
     atom    2 type  1   force =     0.00037690   -0.00021576   -0.00627868
     atom    3 type  1   force =     0.00000011    0.00043621   -0.00627904
     atom    4 type  1   force =     0.00000118   -0.00000030   -0.00575597
     atom    5 type  1   force =    -0.00000354   -0.00043126    0.00540496
     atom    6 type  1   force =     0.00000351    0.00000310    0.00726343
     atom    7 type  1   force =     0.00037647    0.00021719    0.00540621
     atom    8 type  1   force =    -0.00037625    0.00021272    0.00540496
     atom    9 type  1   force =    -0.00000537   -0.00000029   -0.00093644
     atom   10 type  1   force =     0.00000404   -0.00120119    0.00061540
     atom   11 type  1   force =    -0.00103498    0.00059103    0.00061898
     atom   12 type  1   force =     0.00103706    0.00060267    0.00061890
     atom   13 type  2   force =    -0.00000017    0.00000495    0.00019141

     Total force =     0.002522     Total SCF correction =     0.000410
     SCF correction compared to forces is large: reduce conv_thr to get better values

     entering subroutine stress ...

     negative rho (up, down):  5.241E-01 0.000E+00
          total   stress  (Ry/bohr**3)                   (kbar)     P=    1.68
   0.00001415   0.00000000   0.00000000          2.08      0.00      0.00
   0.00000000   0.00001416  -0.00000000          0.00      2.08     -0.00
   0.00000000  -0.00000000   0.00000586          0.00     -0.00      0.86

     bfgs converged in  20 scf cycles and  19 bfgs steps
     (criteria: energy <  1.0E+00, force <  1.9E-03)

     End of BFGS Geometry Optimization

     Final energy   =   -2246.9445619409 Ry
Begin final coordinates

ATOMIC_POSITIONS (crystal)
Bi1      0.166666667   0.166666667   0.389334134    0   0   0
Bi1      0.666666667   0.166666667   0.389334134    0   0   0
Bi1      0.166666667   0.666666667   0.389334134    0   0   0
Bi1      0.666666667   0.666666667   0.389334134    0   0   0
Bi1      0.833333333   0.333333333   0.500000000    0   0   0
Bi1      0.333333333   0.333333333   0.500000000    0   0   0
Bi1      0.833333333   0.833333333   0.500000000    0   0   0
Bi1      0.333333333   0.833333333   0.500000000    0   0   0
Bi1     -0.000018643  -0.000005446   0.621081389
Bi1      0.504195401  -0.008363919   0.620277976
Bi1     -0.008336872   0.504153154   0.620280430
Bi1      0.504172594   0.504193856   0.620289193
H1       0.333332462   0.333339223   0.659853529
End final coordinates

     Writing output data file calc.save

     General routines

     Parallel routines

   This run was terminated on:  16:36:14  22Feb2018

   JOB DONE.