     Program PWSCF v.5.1rc2 (svn rev. 11289) starts on 24Apr2018 at 16:41:45

     Current dimensions of program PWSCF are:
     Max number of different atomic species (ntypx) = 10
     Max number of k-points (npk) =  40000
     Max angular momentum in pseudopotentials (lmaxx) =  3
     Presently stress not available with electric field

     IMPORTANT: XC functional enforced from input :
     Exchange-correlation      = BEEF-VDW ( 1  4 27 13 2)
     Any further DFT definition will be discarded
     Please, verify this is what you really want

     Subspace diagonalization in iterative solution of the eigenvalue problem:
     a serial algorithm will be used

     bravais-lattice index     =            0
     lattice parameter (alat)  =       1.8897  a.u.
     unit-cell volume          =    4704.3541 (a.u.)^3
     number of atoms/cell      =           14
     number of atomic types    =            3
     number of electrons       =       174.00
     number of Kohn-Sham states=           97
     kinetic-energy cutoff     =      36.7493  Ry
     charge density cutoff     =     367.4932  Ry
     convergence threshold     =      1.0E-05
     mixing beta               =       0.3000
     number of iterations used =           10  plain     mixing
     Exchange-correlation      = BEEF-VDW ( 1  4 27 13 2)
     nstep                     =           50

     celldm(1)=   1.889726  celldm(2)=   0.000000  celldm(3)=   0.000000
     celldm(4)=   0.000000  celldm(5)=   0.000000  celldm(6)=   0.000000

     crystal axes: (cart. coord. in units of alat)
               a(1) = (   5.712816   0.000000   0.000000 )
               a(2) = (   2.856408   4.947444   0.000000 )
               a(3) = (   0.000000   0.000000  24.664495 )

     reciprocal axes: (cart. coord. in units 2 pi/alat)
               b(1) = (  0.175045 -0.101062  0.000000 )
               b(2) = (  0.000000  0.202125  0.000000 )
               b(3) = (  0.000000  0.000000  0.040544 )

     PseudoPot. # 1 for W  read from file:
     /u/if/mamunm/psp/gbrv1.5pbe/W.UPF
     MD5 check sum: 9c083fa34c2a2ea0f02f1f893e16e1c8
     Pseudo is Ultrasoft + core correction, Zval = 14.0
     Generated by new atomic code, or converted to UPF format
     Using radial grid of  923 points,  8 beta functions with:
                l(1) =   0
                l(2) =   0
                l(3) =   0
                l(4) =   1
                l(5) =   1
                l(6) =   2
                l(7) =   2
                l(8) =   3
     Q(r) pseudized with  6 coefficients,  rinner =    1.350   1.350   1.350
                                                       1.350   1.350   1.350
                                                       1.350

     PseudoPot. # 2 for N  read from file:
     /u/if/mamunm/psp/gbrv1.5pbe/N.UPF
     MD5 check sum: 95339753478d7afb44899504a8723017
     Pseudo is Ultrasoft + core correction, Zval =  5.0
     Generated by new atomic code, or converted to UPF format
     Using radial grid of  729 points,  4 beta functions with:
                l(1) =   0
                l(2) =   0
                l(3) =   1
                l(4) =   1
     Q(r) pseudized with  8 coefficients,  rinner =    0.900   0.900   0.900

     PseudoPot. # 3 for H  read from file:
     /u/if/mamunm/psp/gbrv1.5pbe/H.UPF
     MD5 check sum: 761ae9a214b05c3daf00ab9f6b793d6f
     Pseudo is Ultrasoft, Zval =  1.0
     Generated by new atomic code, or converted to UPF format
     Using radial grid of  615 points,  2 beta functions with:
                l(1) =   0
                l(2) =   0
     Q(r) pseudized with  8 coefficients,  rinner =    0.700

     vdW kernel table read from file vdW_kernel_table
     MD5 check sum: 095c7af220d748ca6e76c0b4c6cfb241

     atomic species   valence    mass     pseudopotential
        W1            14.00   183.84000     W ( 1.00)
        N1             5.00    14.00700     N ( 1.00)
        H1             1.00     1.00800     H ( 1.00)

     No symmetry found

   Cartesian axes

     site n.     atom                  positions (alat units)
         1           W1  tau(   1) = (   1.4282041   0.8245740  10.0000000  )
         2           W1  tau(   2) = (   4.2846123   0.8245740  10.0000000  )
         3           W1  tau(   3) = (   2.8564082   3.2982961  10.0000000  )
         4           W1  tau(   4) = (   5.7128165   3.2982961  10.0000000  )
         5           W1  tau(   5) = (   5.7128165   1.6491481  12.3322476  )
         6           W1  tau(   6) = (   2.8564082   1.6491481  12.3322476  )
         7           W1  tau(   7) = (   7.1410206   4.1228701  12.3322476  )
         8           W1  tau(   8) = (   4.2846123   4.1228701  12.3322476  )
         9           W1  tau(   9) = (   0.0000000   0.0000000  14.6644951  )
        10           W1  tau(  10) = (   2.8564082   0.0000000  14.6644951  )
        11           W1  tau(  11) = (   1.4282041   2.4737221  14.6644951  )
        12           W1  tau(  12) = (   4.2846123   2.4737221  14.6644951  )
        13           N1  tau(  13) = (   2.8564082   1.6491481  16.1789951  )
        14           H1  tau(  14) = (   2.8564082   1.6491481  17.2289951  )

     number of k points=    20  Fermi-Dirac smearing, width (Ry)=  0.0110
                       cart. coord. in units 2pi/alat
        k(    1) = (   0.0000000   0.0000000   0.0000000), wk =   0.0555556
        k(    2) = (   0.0000000   0.0336874   0.0000000), wk =   0.1111111
        k(    3) = (   0.0000000   0.0673749   0.0000000), wk =   0.1111111
        k(    4) = (   0.0000000  -0.1010623   0.0000000), wk =   0.0555556
        k(    5) = (   0.0291742  -0.0168437   0.0000000), wk =   0.1111111
        k(    6) = (   0.0291742   0.0168437   0.0000000), wk =   0.1111111
        k(    7) = (   0.0291742   0.0505311   0.0000000), wk =   0.1111111
        k(    8) = (   0.0291742  -0.1179060   0.0000000), wk =   0.1111111
        k(    9) = (   0.0291742  -0.0842186   0.0000000), wk =   0.1111111
        k(   10) = (   0.0291742  -0.0505311   0.0000000), wk =   0.1111111
        k(   11) = (   0.0583483  -0.0336874   0.0000000), wk =   0.1111111
        k(   12) = (   0.0583483  -0.0000000   0.0000000), wk =   0.1111111
        k(   13) = (   0.0583483   0.0336874   0.0000000), wk =   0.1111111
        k(   14) = (   0.0583483  -0.1347497   0.0000000), wk =   0.1111111
        k(   15) = (   0.0583483  -0.1010623   0.0000000), wk =   0.1111111
        k(   16) = (   0.0583483  -0.0673749   0.0000000), wk =   0.1111111
        k(   17) = (  -0.0875225   0.0505311   0.0000000), wk =   0.0555556
        k(   18) = (  -0.0875225   0.0842186   0.0000000), wk =   0.1111111
        k(   19) = (  -0.0875225   0.1179060   0.0000000), wk =   0.1111111
        k(   20) = (  -0.0875225  -0.0505311   0.0000000), wk =   0.0555556

     Largest allocated arrays     est. size (Mb)     dimensions
     Largest temporary arrays     est. size (Mb)     dimensions

     Initial potential from superposition of free atoms
     Check: negative starting charge=   -0.760348

     starting charge  172.79590, renormalised to  174.00000

     negative rho (up, down):  7.656E-01 0.000E+00

     *
     * You are using vdW-DF for exchange-correlation in this calculation.
     * Please cite the following three references that made this development
     * possible:
     *
     *   M. Dion, H. Rydberg, E. Schroder, D. C. Langreth, and
     *   B. I. Lundqvist, Phys. Rev. Lett. 92, 246401 (2004).
     *
     *   T. Thonhauser, V. R. Cooper, S. Li, A. Puzder, P. Hyldgaard, and
     *   D. C. Langreth, Phys. Rev. B 76, 125112 (2007).
     *
     *   G. Roman-Perez and J. M. Soler, Phys. Rev. Lett. 103, 096102 (2009).
     *
     *
     * If you are using vdW-DF2, please also cite:
     *
     *   K. Lee, E. D. Murray, L. Kong, B. I. Lundqvist, and
     *   D. C. Langreth, Phys. Rev. B 82, 081101(R) (2010).
     *
     *
     * If you are calculating the stress with vdW-DF, please also cite:
     *
     *   R. Sabatini, E. Kucukbenli, B. Kolb, T. Thonhauser, and
     *   S. de Gironcoli, J. Phys.: Condens. Matter 24, 424209 (2012).
     *

     Carrying out vdW-DF run using the following parameters:

     Nqs =      20    Nr_points =    1024   r_max =   100.000
     q_mesh =
               0.00001000     0.04494208     0.09755937     0.15916263
               0.23128650     0.31572767     0.41458969     0.53033537
               0.66584808     0.82450364     1.01025438     1.22772762
               1.48234092     1.78043706     2.12944203     2.53805004
               3.01644009     3.57652955     4.23227104     5.00000000

     Gradients computed in reciprocal space

     Adding external electric field

     Computed dipole along edir(3) :
        Dipole               -0.3176 Ry au,         -0.8073 Debye
        Dipole field         -0.0008 Ry au

        Potential amp.        0.0771 Ry
        Total length         45.4439 bohr

     Starting wfc are  161 randomized atomic wfcs

     Self-consistent Calculation

     iteration #  1     ecut=    36.75 Ry     beta=0.30
     Davidson diagonalization with overlap
     ethr =  1.00E-02,  avg # of iterations =  2.0

[...]

     total energy              =   -1943.86108585 Ry
     Harris-Foulkes estimate   =   -1946.82632176 Ry
     estimated scf accuracy    <       6.38482163 Ry

[...]

     End of self-consistent calculation

          k = 0.0000 0.0000 0.0000 ( 17753 PWs)   bands (ev):

   -71.4675 -71.4080 -71.4079 -71.3518 -71.3160 -71.2997 -71.2717 -71.2698
   -71.2697 -71.2553 -71.2506 -71.2505 -36.0146 -35.9480 -35.9480 -35.9157
   -35.9022 -35.8939 -35.8939 -35.7715 -35.7656 -35.7656 -35.5777 -35.4864
   -35.4863 -35.4440 -35.3982 -35.3885 -35.3884 -35.3073 -35.3073 -35.3005
   -35.2000 -35.2000 -35.1907 -35.1867 -35.1803 -35.1803 -35.1214 -35.0763
   -35.0763 -35.0683 -35.0604 -35.0603 -34.9911 -34.9911 -34.8956 -34.8956
   -12.4294  -5.4698  -4.5698  -3.2331  -2.6065  -2.2815  -2.2815  -2.1490
    -2.0718  -2.0718  -1.6699  -1.3943  -1.3943  -1.1777  -1.1335  -1.1335
    -0.7508  -0.2958  -0.2958   0.6064   0.6064   0.6510   1.4453   1.5617
     1.5617   1.8195   1.9063   2.2665   2.2665   2.3790   2.4924   2.4924
     2.6094   2.6094   2.6779   2.6861   2.7793   2.7794   2.9702   2.9702
     3.4507   3.7378   3.7379   4.1492   4.4880   4.5989   4.5989   4.7005
     4.7005

[...]

          k =-0.0875 0.0505 0.0000 ( 17668 PWs)   bands (ev):

[...]

     the Fermi energy is     2.8538 ev

!    total energy              =   -1946.38139224 Ry
     Harris-Foulkes estimate   =   -1946.38141902 Ry
     estimated scf accuracy    <       0.00000542 Ry

     The total energy is the sum of the following terms:

     one-electron contribution =  -15076.64908898 Ry
     hartree contribution      =    7526.05678230 Ry
     xc contribution           =    -516.58458719 Ry
     ewald contribution        =    6120.89104192 Ry
     electric field correction =       0.00019840 Ry
     smearing contrib. (-TS)   =      -0.09573869 Ry

     convergence has been achieved in  17 iterations

 BEEF-vdW xc energy contributions
           1 :   -454.374322064720
           2 :    420.251030707725
           3 :   -360.186689255813
           4 :    287.369176113994
           5 :   -215.499245379746
           6 :    154.834584889988
           7 :   -110.009989368604
           8 :    80.1343252560658
           9 :   -60.7605514057833
          10 :    46.6257943629586
          11 :   -33.9257247462871
          12 :    21.3074743292053
          13 :   -9.49364665779183
          14 :   6.143815714199263E-002
          15 :    5.84924875789397
          16 :   -8.26868546483206
          17 :    8.34114094972290
          18 :   -7.67905384967571
          19 :    7.56127938604754
          20 :   -8.40727041749562
          21 :    9.75994842455020
          22 :   -10.7240523415823
          23 :    10.5759228493628
          24 :   -9.20470509821195
          25 :    7.16771331209179
          26 :   -5.36582684106304
          27 :    4.54232458788022
          28 :   -4.89086568199718
          29 :    5.97927131062806
          30 :   -7.01189807463345
          31 :   -41.2754201036205
          32 :   -30.8993544949821

     Forces acting on atoms (Ry/au):

     negative rho (up, down):  7.930E-01 0.000E+00
     atom    1 type  1   force =    -0.00184487   -0.00105963   -0.00345899
     atom    2 type  1   force =     0.00184496   -0.00106570   -0.00344901
     atom    3 type  1   force =    -0.00000591    0.00212722   -0.00345140
     atom    4 type  1   force =     0.00000532   -0.00000358   -0.00422974
     atom    5 type  1   force =     0.00000043   -0.00162137   -0.00864650
     atom    6 type  1   force =     0.00000007   -0.00000640    0.01685035
     atom    7 type  1   force =     0.00139983    0.00081419   -0.00864005
     atom    8 type  1   force =    -0.00139995    0.00081128   -0.00863893
     atom    9 type  1   force =    -0.00000662    0.00000524   -0.03623982
     atom   10 type  1   force =     0.00000640   -0.01654731    0.06828724
     atom   11 type  1   force =    -0.01433557    0.00827587    0.06828266
     atom   12 type  1   force =     0.01433686    0.00826936    0.06828499
     atom   13 type  2   force =    -0.00000098    0.00000058   -0.09425309
     atom   14 type  3   force =     0.00000004    0.00000025   -0.05069771

     Total force =     0.166065     Total SCF correction =     0.011931

     entering subroutine stress ...

     negative rho (up, down):  7.930E-01 0.000E+00
          total   stress  (Ry/bohr**3)                   (kbar)     P=  -51.49
  -0.00044636   0.00000001  -0.00000000        -65.66      0.00     -0.00
   0.00000001  -0.00044636   0.00000000          0.00    -65.66      0.00
  -0.00000000   0.00000000  -0.00015739         -0.00      0.00    -23.15

     BFGS Geometry Optimization

     number of scf cycles    =   1
     number of bfgs steps    =   0

     energy   new            =   -1946.3813922424 Ry

     new trust radius        =       0.0942530893 bohr
     new conv_thr            =       0.0000099958 Ry

ATOMIC_POSITIONS (crystal)
W1       0.166666667   0.166666667   0.405441099    0   0   0
W1       0.666666667   0.166666667   0.405441099    0   0   0
W1       0.166666667   0.666666667   0.405441099    0   0   0
W1       0.666666667   0.666666667   0.405441099    0   0   0
W1       0.833333333   0.333333333   0.500000000    0   0   0
W1       0.333333333   0.333333333   0.500000000    0   0   0
W1       0.833333333   0.833333333   0.500000000    0   0   0
W1       0.333333333   0.833333333   0.500000000    0   0   0
W1      -0.000000894   0.000000561   0.593781375
W1       0.500885541  -0.001769896   0.596024005
W1      -0.001770494   0.500885184   0.596023907
W1       0.500885776   0.500884489   0.596023957
N1       0.333333211   0.333333396   0.653940754
H1       0.333333323   0.333333360   0.697446551

     Writing output data file calc.save
     Check: negative starting charge=   -0.760348
     NEW-OLD atomic charge density approx. for the potential
     Check: negative starting charge=   -0.760593

[...]

     energy   old            =   -1946.3813922424 Ry
     energy   new            =   -1946.4044154362 Ry

     CASE: energy  _new < energy  _old

[...]

     WARNING: bfgs curvature condition failed, Theta= 0.922
     new trust radius        =       0.0325473721 bohr
     new conv_thr            =       0.0000001000 Ry

[...]

     Total force =     0.005382     Total SCF correction =     0.000561
     SCF correction compared to forces is large: reduce conv_thr to get better values

[...]

     Threshold (ethr) on eigenvalues was too large:
     Diagonalizing with lowered threshold

     Davidson diagonalization with overlap
     ethr =  5.72E-09,  avg # of iterations =  4.8

[...]

     WARNING: bfgs curvature condition failed, Theta= 0.948
     new trust radius        =       0.0051360623 bohr
     new conv_thr            =       0.0000001000 Ry

[...]

     Total force =     0.003924     Total SCF correction =     0.000329

[...]

     number of scf cycles    =  11
     number of bfgs steps    =  10

     energy   old            =   -1946.4395703576 Ry
     energy   new            =   -1946.4396126025 Ry

     CASE: energy  _new < energy  _old

     new trust radius        =       0.0077040935 bohr
     new conv_thr            =       0.0000001000 Ry

ATOMIC_POSITIONS (crystal)
W1       0.166666667   0.166666667   0.405441099    0   0   0
W1       0.666666667   0.166666667   0.405441099    0   0   0
W1       0.166666667   0.666666667   0.405441099    0   0   0
W1       0.666666667   0.666666667   0.405441099    0   0   0
W1       0.833333333   0.333333333   0.500000000    0   0   0
W1       0.333333333   0.333333333   0.500000000    0   0   0
W1       0.833333333   0.833333333   0.500000000    0   0   0
W1       0.333333333   0.833333333   0.500000000    0   0   0
W1      -0.000000272   0.000000310   0.584943204
W1       0.504157937  -0.008315860   0.597816989
W1      -0.008316356   0.504158210   0.597816968
W1       0.504158068   0.504158138   0.597816983
N1       0.333333350   0.333333385   0.647841479
H1       0.333333059   0.333333640   0.689322608

     Writing output data file calc.save
     Check: negative starting charge=   -0.758891
     NEW-OLD atomic charge density approx. for the potential
     Check: negative starting charge=   -0.758427

[...]

     Self-consistent Calculation

[...]

     Threshold (ethr) on eigenvalues was too large:
     Diagonalizing with lowered threshold

     Davidson diagonalization with overlap
     ethr =  2.56E-08,  avg # of iterations =  3.0

[...]

     total energy              =   -1946.43965852 Ry
     Harris-Foulkes estimate   =   -1946.43965877 Ry
     estimated scf accuracy    <       0.00000010 Ry

     iteration #  9     ecut=    36.75 Ry     beta=0.30
     Davidson diagonalization with overlap
     ethr =  5.81E-11,  avg # of iterations =  3.0

[...]

     negative rho (up, down):  7.919E-01 0.000E+00

     Adding external electric field

     Computed dipole along edir(3) :
        Dipole                0.3423 Ry au,          0.8700 Debye
        Dipole field          0.0009 Ry au

        Potential amp.       -0.0831 Ry
        Total length         45.4439 bohr

     End of self-consistent calculation

[...]

          k = 0.0583-0.0674 0.0000 ( 17692 PWs)   bands (ev):

[...]

          k =-0.0875-0.0505 0.0000 ( 17668 PWs)   bands (ev):

   -71.3701 -71.3498 -71.3308 -71.3208 -71.2068 -71.1928 -71.1761 -71.1607
   -71.1602 -71.1510 -71.1377 -71.1121 -35.7828 -35.7461 -35.7326 -35.6961
   -35.6950 -35.6807 -35.5770 -35.5551 -35.5493 -35.5141 -35.4935 -35.4876
   -35.4735 -35.4129 -35.3586 -35.3253 -35.3213 -35.2985 -35.2871 -35.2456
   -35.2218 -35.2026 -35.1920 -35.1883 -35.1572 -35.1396 -35.1325 -35.1041
   -35.0883 -35.0444 -35.0248 -34.9634 -34.9310 -34.8884 -34.8643 -34.8635
   -13.3239  -5.0910  -3.4693  -3.2073  -2.3929  -1.8995  -1.7060  -1.3958
    -1.0860  -1.0183  -0.9273  -0.8543  -0.7500  -0.4643  -0.0749  -0.0389
     0.1528   0.2146   0.2847   0.5154   0.6448   0.8387   0.8913   0.8989
     1.0605   1.1613   1.3837   1.5577   1.6269   1.7421   1.8480   1.8602
     1.8957   1.9803   2.1293   2.2973   2.4812   2.4948   2.5668   2.8630
     2.9725   3.1588   3.4550   3.6143   3.7770   4.0164   4.0932   4.2578
     4.3566

     the Fermi energy is     2.9625 ev

!    total energy              =   -1946.43965852 Ry
     Harris-Foulkes estimate   =   -1946.43965832 Ry
     estimated scf accuracy    <       0.00000002 Ry

     The total energy is the sum of the following terms:

     one-electron contribution =  -15134.64703800 Ry
     hartree contribution      =    7555.40734717 Ry
     xc contribution           =    -516.80995987 Ry
     ewald contribution        =    6149.70110258 Ry
     electric field correction =       0.00031293 Ry
     smearing contrib. (-TS)   =      -0.09142333 Ry

     convergence has been achieved in   9 iterations

 BEEF-vdW xc energy contributions
           1 :   -454.599168567549
           2 :    420.523397403943
           3 :   -360.508949674802
           4 :    287.695889817392
           5 :   -215.762928448982
           6 :    154.975929435246
           7 :   -110.001153538960
           8 :    79.9882876995694
           9 :   -60.5259870465220
          10 :    46.3701618347403
          11 :   -33.7115114725810
          12 :    21.1700656871163
          13 :   -9.42959320582418
          14 :   3.324335795605293E-002
          15 :    5.89198723759955
          16 :   -8.36134002426684
          17 :    8.48383518895213
          18 :   -7.83542948047926
          19 :    7.67848117451103
          20 :   -8.44710894814818
          21 :    9.72321858981559
          22 :   -10.6536613350297
          23 :    10.5365799390915
          24 :   -9.24965880568419
          25 :    7.31023482484420
          26 :   -5.57050956243347
          27 :    4.74109272702037
          28 :   -5.01557045510049
          29 :    5.99447658647512
          30 :   -6.93178770632954
          31 :   -41.2884170641361
          32 :   -30.9216057564765

     Forces acting on atoms (Ry/au):

     negative rho (up, down):  7.919E-01 0.000E+00
     atom    1 type  1   force =    -0.00199049   -0.00114923   -0.00262370
     atom    2 type  1   force =     0.00199051   -0.00114923   -0.00262368
     atom    3 type  1   force =     0.00000001    0.00229841   -0.00262372
     atom    4 type  1   force =     0.00000000   -0.00000001    0.00375278
     atom    5 type  1   force =     0.00000000    0.01835862   -0.01656389
     atom    6 type  1   force =     0.00000004   -0.00000005    0.05700073
     atom    7 type  1   force =    -0.01589901   -0.00917934   -0.01656372
     atom    8 type  1   force =     0.01589899   -0.00917934   -0.01656358
     atom    9 type  1   force =     0.00000017   -0.00000030    0.00160184
     atom   10 type  1   force =    -0.00000020   -0.00047096   -0.00062049
     atom   11 type  1   force =    -0.00040711    0.00023537   -0.00062017
     atom   12 type  1   force =     0.00040729    0.00023571   -0.00062034
     atom   13 type  2   force =    -0.00000025    0.00000041   -0.00156288
     atom   14 type  3   force =     0.00000004   -0.00000007   -0.00136917

     Total force =     0.002950     Total SCF correction =     0.000430
     SCF correction compared to forces is large: reduce conv_thr to get better values

     entering subroutine stress ...

     negative rho (up, down):  7.919E-01 0.000E+00
          total   stress  (Ry/bohr**3)                   (kbar)     P=  -41.39
  -0.00038001   0.00000000  -0.00000000        -55.90      0.00     -0.00
   0.00000000  -0.00038001   0.00000000          0.00    -55.90      0.00
  -0.00000000   0.00000000  -0.00008408         -0.00      0.00    -12.37

     bfgs converged in  12 scf cycles and  11 bfgs steps
     (criteria: energy <  1.0E+00, force <  1.9E-03)

     End of BFGS Geometry Optimization

     Final energy   =   -1946.4396585228 Ry
Begin final coordinates

ATOMIC_POSITIONS (crystal)
W1       0.166666667   0.166666667   0.405441099    0   0   0
W1       0.666666667   0.166666667   0.405441099    0   0   0
W1       0.166666667   0.666666667   0.405441099    0   0   0
W1       0.666666667   0.666666667   0.405441099    0   0   0
W1       0.833333333   0.333333333   0.500000000    0   0   0
W1       0.333333333   0.333333333   0.500000000    0   0   0
W1       0.833333333   0.833333333   0.500000000    0   0   0
W1       0.333333333   0.833333333   0.500000000    0   0   0
W1      -0.000000272   0.000000310   0.584943204
W1       0.504157937  -0.008315860   0.597816989
W1      -0.008316356   0.504158210   0.597816968
W1       0.504158068   0.504158138   0.597816983
N1       0.333333350   0.333333385   0.647841479
H1       0.333333059   0.333333640   0.689322608
End final coordinates

     Writing output data file calc.save

     General routines

     Parallel routines

   This run was terminated on:  18:21:58  24Apr2018

   JOB DONE.
Job  /afs/slac/g/suncat/bin/suncat-tsmpirun -x LD_LIBRARY_PATH -wdir /scratch/qe982128_JvCNx pw.x -npool 4 -in pw.inp

TID   HOST_NAME   COMMAND_LINE            STATUS            TERMINATION_TIME
00000 suncat0096 pw.x -npool 4 -i  Done                     04/24/2018 18:21:58
00001 suncat0096 pw.x -npool 4 -i  Done                     04/24/2018 18:21:58
00002 suncat0096 pw.x -npool 4 -i  Done                     04/24/2018 18:21:58
00003 suncat0096 pw.x -npool 4 -i  Done                     04/24/2018 18:21:58
00004 suncat0096 pw.x -npool 4 -i  Done                     04/24/2018 18:21:58
00005 suncat0096 pw.x -npool 4 -i  Done                     04/24/2018 18:21:58
00006 suncat0096 pw.x -npool 4 -i  Done                     04/24/2018 18:21:58
00007 suncat0096 pw.x -npool 4 -i  Done                     04/24/2018 18:21:58
00008 suncat0071 pw.x -npool 4 -i  Done                     04/24/2018 18:21:58
00009 suncat0071 pw.x -npool 4 -i  Done                     04/24/2018 18:21:58
00010 suncat0071 pw.x -npool 4 -i  Done                     04/24/2018 18:21:58
00011 suncat0071 pw.x -npool 4 -i  Done                     04/24/2018 18:21:58
00012 suncat0071 pw.x -npool 4 -i  Done                     04/24/2018 18:21:58
00013 suncat0071 pw.x -npool 4 -i  Done                     04/24/2018 18:21:58
00014 suncat0071 pw.x -npool 4 -i  Done                     04/24/2018 18:21:58
00015 suncat0071 pw.x -npool 4 -i  Done                     04/24/2018 18:21:58
00016 suncat0046 pw.x -npool 4 -i  Done                     04/24/2018 18:21:58
00017 suncat0046 pw.x -npool 4 -i  Done                     04/24/2018 18:21:58
00018 suncat0046 pw.x -npool 4 -i  Done                     04/24/2018 18:21:58
00019 suncat0046 pw.x -npool 4 -i  Done                     04/24/2018 18:21:58
00020 suncat0046 pw.x -npool 4 -i  Done                     04/24/2018 18:21:58
00021 suncat0046 pw.x -npool 4 -i  Done                     04/24/2018 18:21:58
00022 suncat0046 pw.x -npool 4 -i  Done                     04/24/2018 18:21:58
00023 suncat0046 pw.x -npool 4 -i  Done                     04/24/2018 18:21:58
00024 suncat0181 pw.x -npool 4 -i  Done                     04/24/2018 18:21:58
00025 suncat0181 pw.x -npool 4 -i  Done                     04/24/2018 18:21:58
00026 suncat0181 pw.x -npool 4 -i  Done                     04/24/2018 18:21:58
00027 suncat0181 pw.x -npool 4 -i  Done                     04/24/2018 18:21:58
00028 suncat0181 pw.x -npool 4 -i  Done                     04/24/2018 18:21:58
00029 suncat0181 pw.x -npool 4 -i  Done                     04/24/2018 18:21:58
00030 suncat0181 pw.x -npool 4 -i  Done                     04/24/2018 18:21:58
00031 suncat0181 pw.x -npool 4 -i  Done                     04/24/2018 18:21:58