     Program PWSCF v.5.1rc2 (svn rev. 11289) starts on 25Apr2018 at  1:42: 3

     Current dimensions of program PWSCF are:
     Max number of different atomic species (ntypx) = 10
     Max number of k-points (npk) =  40000
     Max angular momentum in pseudopotentials (lmaxx) =  3
     Presently stress not available with electric field

     IMPORTANT: XC functional enforced from input :
     Exchange-correlation      = BEEF-VDW ( 1  4 27 13 2)
     Any further DFT definition will be discarded
     Please, verify this is what you really want

     Subspace diagonalization in iterative solution of the eigenvalue problem:
     a serial algorithm will be used

     bravais-lattice index     =            0
     lattice parameter (alat)  =       1.8897  a.u.
     unit-cell volume          =    7725.1200 (a.u.)^3
     number of atoms/cell      =           15
     number of atomic types    =            3
     number of electrons       =       138.00
     number of Kohn-Sham states=           79
     kinetic-energy cutoff     =      36.7493  Ry
     charge density cutoff     =     367.4932  Ry
     convergence threshold     =      1.0E-05
     mixing beta               =       0.3000
     number of iterations used =           10  plain     mixing
     Exchange-correlation      = BEEF-VDW ( 1  4 27 13 2)
     nstep                     =           50

     celldm(1)=   1.889726  celldm(2)=   0.000000  celldm(3)=   0.000000
     celldm(4)=   0.000000  celldm(5)=   0.000000  celldm(6)=   0.000000

     crystal axes: (cart. coord. in units of alat)
               a(1) = (   7.152277   0.000000   0.000000 )
               a(2) = (   3.576139   6.194054   0.000000 )
               a(3) = (   0.000000   0.000000  25.839810 )

     reciprocal axes: (cart. coord. in units 2 pi/alat)
               b(1) = (  0.139816 -0.080723  0.000000 )
               b(2) = (  0.000000  0.161445  0.000000 )
               b(3) = (  0.000000  0.000000  0.038700 )

     PseudoPot. # 1 for Y  read from file:
     /u/if/mamunm/psp/gbrv1.5pbe/Y.UPF
     MD5 check sum: d034151ed7554c50b6e82763ed42c788
     Pseudo is Ultrasoft + core correction, Zval = 11.0
     Generated by new atomic code, or converted to UPF format
     Using radial grid of  885 points,  6 beta functions with:
                l(1) =   0
                l(2) =   0
                l(3) =   1
                l(4) =   1
                l(5) =   2
                l(6) =   2
     Q(r) pseudized with  8 coefficients,  rinner =    1.200   1.200   1.200
                                                       1.200   1.200

     PseudoPot. # 2 for C  read from file:
     /u/if/mamunm/psp/gbrv1.5pbe/C.UPF
     MD5 check sum: d1aef80898a10debaa0f26306b886e00
     Pseudo is Ultrasoft + core correction, Zval =  4.0
     Generated by new atomic code, or converted to UPF format
     Using radial grid of  721 points,  4 beta functions with:
                l(1) =   0
                l(2) =   0
                l(3) =   1
                l(4) =   1
     Q(r) pseudized with  8 coefficients,  rinner =    1.100   1.100   1.100

     PseudoPot. # 3 for H  read from file:
     /u/if/mamunm/psp/gbrv1.5pbe/H.UPF
     MD5 check sum: 761ae9a214b05c3daf00ab9f6b793d6f
     Pseudo is Ultrasoft, Zval =  1.0
     Generated by new atomic code, or converted to UPF format
     Using radial grid of  615 points,  2 beta functions with:
                l(1) =   0
                l(2) =   0
     Q(r) pseudized with  8 coefficients,  rinner =    0.700

     vdW kernel table read from file vdW_kernel_table
     MD5 check sum: 095c7af220d748ca6e76c0b4c6cfb241

     atomic species   valence    mass     pseudopotential
        Y1            11.00    88.90584     Y ( 1.00)
        C1             4.00    12.01100     C ( 1.00)
        H1             1.00     1.00800     H ( 1.00)

     No symmetry found

   Cartesian axes

     site n.     atom                  positions (alat units)
         1           Y1  tau(   1) = (   1.7880693   1.0323423  10.0000000  )
         2           Y1  tau(   2) = (   5.3642080   1.0323423  10.0000000  )
         3           Y1  tau(   3) = (   3.5761386   4.1293692  10.0000000  )
         4           Y1  tau(   4) = (   7.1522773   4.1293692  10.0000000  )
         5           Y1  tau(   5) = (   7.1522773   2.0646846  12.9199050  )
         6           Y1  tau(   6) = (   3.5761386   2.0646846  12.9199050  )
         7           Y1  tau(   7) = (   8.9403466   5.1617115  12.9199050  )
         8           Y1  tau(   8) = (   5.3642080   5.1617115  12.9199050  )
         9           Y1  tau(   9) = (   0.0000000   0.0000000  15.8398100  )
        10           Y1  tau(  10) = (   3.5761386   0.0000000  15.8398100  )
        11           Y1  tau(  11) = (   1.7880693   3.0970269  15.8398100  )
        12           Y1  tau(  12) = (   5.3642080   3.0970269  15.8398100  )
        13           C1  tau(  13) = (   1.7880693   1.0323423  17.5688100  )
        14           H1  tau(  14) = (   2.4180693   1.6623423  18.1988100  )
        15           H1  tau(  15) = (   1.1580693   0.4023423  18.1988100  )

     number of k points=    20  Fermi-Dirac smearing, width (Ry)=  0.0110
                       cart. coord. in units 2pi/alat
        k(    1) = (   0.0000000   0.0000000   0.0000000), wk =   0.0555556
        k(    2) = (   0.0000000   0.0269075   0.0000000), wk =   0.1111111
        k(    3) = (   0.0000000   0.0538151   0.0000000), wk =   0.1111111
        k(    4) = (   0.0000000  -0.0807226   0.0000000), wk =   0.0555556
        k(    5) = (   0.0233026  -0.0134538   0.0000000), wk =   0.1111111
        k(    6) = (   0.0233026   0.0134538   0.0000000), wk =   0.1111111
        k(    7) = (   0.0233026   0.0403613   0.0000000), wk =   0.1111111
        k(    8) = (   0.0233026  -0.0941763   0.0000000), wk =   0.1111111
        k(    9) = (   0.0233026  -0.0672688   0.0000000), wk =   0.1111111
        k(   10) = (   0.0233026  -0.0403613   0.0000000), wk =   0.1111111
        k(   11) = (   0.0466052  -0.0269075   0.0000000), wk =   0.1111111
        k(   12) = (   0.0466052   0.0000000   0.0000000), wk =   0.1111111
        k(   13) = (   0.0466052   0.0269075   0.0000000), wk =   0.1111111
        k(   14) = (   0.0466052  -0.1076301   0.0000000), wk =   0.1111111
        k(   15) = (   0.0466052  -0.0807226   0.0000000), wk =   0.1111111
        k(   16) = (   0.0466052  -0.0538151   0.0000000), wk =   0.1111111
        k(   17) = (  -0.0699078   0.0403613   0.0000000), wk =   0.0555556
        k(   18) = (  -0.0699078   0.0672688   0.0000000), wk =   0.1111111
        k(   19) = (  -0.0699078   0.0941763   0.0000000), wk =   0.1111111
        k(   20) = (  -0.0699078  -0.0403613   0.0000000), wk =   0.0555556

     Largest allocated arrays     est. size (Mb)     dimensions
     Largest temporary arrays     est. size (Mb)     dimensions

     Initial potential from superposition of free atoms
     Check: negative starting charge=   -0.000533

     starting charge  137.94631, renormalised to  138.00000

     negative rho (up, down):  5.328E-04 0.000E+00

     *
     * You are using vdW-DF for exchange-correlation in this calculation.
     * Please cite the following three references that made this development
     * possible:
     *
     *   M. Dion, H. Rydberg, E. Schroder, D. C. Langreth, and
     *   B. I. Lundqvist, Phys. Rev. Lett. 92, 246401 (2004).
     *
     *   T. Thonhauser, V. R. Cooper, S. Li, A. Puzder, P. Hyldgaard, and
     *   D. C. Langreth, Phys. Rev. B 76, 125112 (2007).
     *
     *   G. Roman-Perez and J. M. Soler, Phys. Rev. Lett. 103, 096102 (2009).
     *
     *
     * If you are using vdW-DF2, please also cite:
     *
     *   K. Lee, E. D. Murray, L. Kong, B. I. Lundqvist, and
     *   D. C. Langreth, Phys. Rev. B 82, 081101(R) (2010).
     *
     *
     * If you are calculating the stress with vdW-DF, please also cite:
     *
     *   R. Sabatini, E. Kucukbenli, B. Kolb, T. Thonhauser, and
     *   S. de Gironcoli, J. Phys.: Condens. Matter 24, 424209 (2012).
     *

     Carrying out vdW-DF run using the following parameters:

     Nqs =      20    Nr_points =    1024   r_max =   100.000
     q_mesh =
               0.00001000     0.04494208     0.09755937     0.15916263
               0.23128650     0.31572767     0.41458969     0.53033537
               0.66584808     0.82450364     1.01025438     1.22772762
               1.48234092     1.78043706     2.12944203     2.53805004
               3.01644009     3.57652955     4.23227104     5.00000000

     Gradients computed in reciprocal space

     Adding external electric field

     Computed dipole along edir(3) :
        Dipole               -0.0209 Ry au,         -0.0531 Debye
        Dipole field         -0.0000 Ry au

        Potential amp.        0.0032 Ry
        Total length         47.6094 bohr

     Starting wfc are  162 randomized atomic wfcs

     Self-consistent Calculation

     iteration #  1     ecut=    36.75 Ry     beta=0.30
     Davidson diagonalization with overlap
     ethr =  1.00E-02,  avg # of iterations =  2.0

[...]

     total energy              =   -1136.37647688 Ry
     Harris-Foulkes estimate   =   -1138.93893637 Ry
     estimated scf accuracy    <       5.61280506 Ry

[...]

     End of self-consistent calculation

          k = 0.0000 0.0000 0.0000 ( 28997 PWs)   bands (ev):

   -42.3905 -42.3440 -42.3014 -42.3012 -42.3011 -42.2294 -42.1862 -42.1397
   -41.7847 -41.7454 -41.7414 -41.7391 -22.4523 -22.4503 -22.4496 -22.4479
   -22.4228 -22.4182 -22.3764 -22.3232 -22.3074 -22.3064 -22.3034 -22.2413
   -22.1952 -22.1502 -22.1256 -22.1252 -22.1230 -22.0793 -22.0625 -22.0257
   -22.0254 -22.0148 -21.9126 -21.9071 -21.9024 -21.8927 -21.8713 -21.6904
   -21.6705 -21.6641 -21.6619 -21.6059 -21.6050 -21.6025 -21.5075 -21.5070
   -10.7722  -5.1218  -3.3067  -2.5412  -1.7801  -1.1685  -0.7828  -0.6014
    -0.5615  -0.5182  -0.4573  -0.4545  -0.3541  -0.1396   0.0461   0.2765
     0.3222   0.3972   0.4465   0.7728   0.8770   1.0361   1.1892   1.5481
     1.6480   1.7079   1.7209   1.7280   1.8171   1.9091   2.1932

[...]

          k =-0.0699 0.0404 0.0000 ( 29048 PWs)   bands (ev):

[...]

     the Fermi energy is     1.0017 ev

!    total energy              =   -1138.29459772 Ry
     Harris-Foulkes estimate   =   -1138.29459697 Ry
     estimated scf accuracy    <       0.00000303 Ry

     The total energy is the sum of the following terms:

     one-electron contribution =   -5541.56588964 Ry
     hartree contribution      =    2764.84600429 Ry
     xc contribution           =    -344.06962240 Ry
     ewald contribution        =    1982.62105484 Ry
     electric field correction =       0.00002549 Ry
     smearing contrib. (-TS)   =      -0.12617029 Ry

     convergence has been achieved in  17 iterations

 BEEF-vdW xc energy contributions
           1 :   -299.954103961148
           2 :    269.275993845268
           3 :   -216.518569057186
           4 :    154.693741665519
           5 :   -95.8482620775876
           6 :    47.5118334942281
           7 :   -12.2021730336895
           8 :   -10.7893092642428
           9 :    23.1379280737169
          10 :   -26.2516783385087
          11 :    21.4148232759608
          12 :   -10.6303065867679
          13 :   -2.87524570670882
          14 :    15.1130272576597
          15 :   -22.6005918447897
          16 :    23.6459480219613
          17 :   -18.8280708477923
          18 :    10.4099030608256
          19 :   -1.13429320124123
          20 :   -6.82997469651241
          21 :    12.2901348768111
          22 :   -14.8394417643759
          23 :    14.5009978771990
          24 :   -11.5773516980063
          25 :    6.74151897932330
          26 :   -1.12483234096504
          27 :   -3.85628221771265
          28 :    6.95764836657906
          29 :   -7.60580000144688
          30 :    6.11143198170043
          31 :   -28.8603440478315
          32 :   -19.7456224304633

     Forces acting on atoms (Ry/au):

     negative rho (up, down):  1.588E-04 0.000E+00
     atom    1 type  1   force =    -0.00015928    0.00001563    0.00461324
     atom    2 type  1   force =     0.00018942   -0.00092272    0.00562870
     atom    3 type  1   force =    -0.00079253    0.00055557    0.00561752
     atom    4 type  1   force =     0.00083219    0.00036129    0.00566294
     atom    5 type  1   force =    -0.00266469    0.00121640   -0.00018873
     atom    6 type  1   force =     0.00255200    0.00171096    0.00031102
     atom    7 type  1   force =     0.00027387   -0.00001719   -0.01206963
     atom    8 type  1   force =    -0.00049408   -0.00298880    0.00005374
     atom    9 type  1   force =     0.04362003    0.02701872    0.02817381
     atom   10 type  1   force =    -0.02868945    0.01464235    0.01617586
     atom   11 type  1   force =    -0.00330970   -0.04149623    0.02261305
     atom   12 type  1   force =     0.00612487    0.00004577   -0.01129525
     atom   13 type  2   force =    -0.01629191   -0.00113451   -0.09381408
     atom   14 type  3   force =     0.00511521    0.00619664    0.01419434
     atom   15 type  3   force =    -0.00630594   -0.00520390    0.01432348

     Total force =     0.129386     Total SCF correction =     0.002173

     entering subroutine stress ...

     negative rho (up, down):  1.588E-04 0.000E+00
          total   stress  (Ry/bohr**3)                   (kbar)     P=   -4.54
  -0.00002453  -0.00000211  -0.00000741         -3.61     -0.31     -1.09
  -0.00000211  -0.00002475   0.00000012         -0.31     -3.64      0.02
  -0.00000741   0.00000012  -0.00004340         -1.09      0.02     -6.38

     BFGS Geometry Optimization

     number of scf cycles    =   1
     number of bfgs steps    =   0

     energy   new            =   -1138.2945977167 Ry

     new trust radius        =       0.0952249748 bohr
     new conv_thr            =       0.0000099958 Ry

ATOMIC_POSITIONS (crystal)
Y1       0.166666667   0.166666667   0.386999750    0   0   0
Y1       0.666666667   0.166666667   0.386999750    0   0   0
Y1       0.166666667   0.666666667   0.386999750    0   0   0
Y1       0.666666667   0.666666667   0.386999750    0   0   0
Y1       0.833333333   0.333333333   0.500000000    0   0   0
Y1       0.333333333   0.333333333   0.500000000    0   0   0
Y1       0.833333333   0.833333333   0.500000000    0   0   0
Y1       0.333333333   0.833333333   0.500000000    0   0   0
Y1       0.002073178   0.002308293   0.613577225
Y1       0.497251876   0.001250942   0.613331518
Y1       0.001527700   0.496454849   0.613463346
Y1       0.500451207   0.500003910   0.612768933
C1       0.165509736   0.166569742   0.677991274
H1       0.204009036   0.268906514   0.704584179
H1       0.129193791   0.064511632   0.704586823

     Writing output data file calc.save
     Check: negative starting charge=   -0.000533
     NEW-OLD atomic charge density approx. for the potential
     Check: negative starting charge=   -0.000535

[...]

     energy   old            =   -1138.2945977167 Ry
     energy   new            =   -1138.3071343932 Ry

     CASE: energy  _new < energy  _old

[...]

     iteration # 11     ecut=    36.75 Ry     beta=0.30
     Davidson diagonalization with overlap
     c_bands:  1 eigenvalues not converged
     ethr =  1.75E-10,  avg # of iterations =  4.2

[...]

     Threshold (ethr) on eigenvalues was too large:
     Diagonalizing with lowered threshold

     Davidson diagonalization with overlap
     ethr =  8.69E-08,  avg # of iterations =  4.5

[...]

     Total force =     0.005574     Total SCF correction =     0.000183

[...]

     number of scf cycles    =  22
     number of bfgs steps    =  21

     energy   old            =   -1138.3366255922 Ry
     energy   new            =   -1138.3366853096 Ry

     CASE: energy  _new < energy  _old

     new trust radius        =       0.0137733017 bohr
     new conv_thr            =       0.0000001000 Ry

ATOMIC_POSITIONS (crystal)
Y1       0.166666667   0.166666667   0.386999750    0   0   0
Y1       0.666666667   0.166666667   0.386999750    0   0   0
Y1       0.166666667   0.666666667   0.386999750    0   0   0
Y1       0.666666667   0.666666667   0.386999750    0   0   0
Y1       0.833333333   0.333333333   0.500000000    0   0   0
Y1       0.333333333   0.333333333   0.500000000    0   0   0
Y1       0.833333333   0.833333333   0.500000000    0   0   0
Y1       0.333333333   0.833333333   0.500000000    0   0   0
Y1       0.009896849   0.010188030   0.614787686
Y1       0.493641939   0.001506462   0.613695413
Y1       0.005931652   0.484409712   0.615151630
Y1       0.505534852   0.497794865   0.606113789
C1       0.144822350   0.174857428   0.669846193
H1       0.187294146   0.274865331   0.694762315
H1       0.135684113   0.061654826   0.697770603

     Writing output data file calc.save
     Check: negative starting charge=   -0.000543
     NEW-OLD atomic charge density approx. for the potential
     Check: negative starting charge=   -0.000544

[...]

     Self-consistent Calculation

[...]

     Threshold (ethr) on eigenvalues was too large:
     Diagonalizing with lowered threshold

     Davidson diagonalization with overlap
     ethr =  4.42E-08,  avg # of iterations =  6.2

[...]

     total energy              =   -1138.33671087 Ry
     Harris-Foulkes estimate   =   -1138.33671090 Ry
     estimated scf accuracy    <       0.00000047 Ry

     iteration #  9     ecut=    36.75 Ry     beta=0.30
     Davidson diagonalization with overlap
     ethr =  3.41E-10,  avg # of iterations =  2.5

[...]

     negative rho (up, down):  1.541E-04 0.000E+00

     Adding external electric field

     Computed dipole along edir(3) :
        Dipole                0.0310 Ry au,          0.0787 Debye
        Dipole field          0.0001 Ry au

        Potential amp.       -0.0048 Ry
        Total length         47.6094 bohr

     End of self-consistent calculation

[...]

          k = 0.0466-0.0538 0.0000 ( 29098 PWs)   bands (ev):

[...]

          k =-0.0699-0.0404 0.0000 ( 29048 PWs)   bands (ev):

   -42.2192 -42.2049 -42.1894 -42.1834 -42.1039 -42.1012 -42.0125 -41.9655
   -41.7185 -41.6051 -41.6044 -41.5837 -22.2623 -22.2533 -22.2376 -22.2241
   -22.1911 -22.1870 -22.1835 -22.1773 -22.1388 -22.1337 -22.1311 -22.1186
   -22.0981 -22.0911 -22.0580 -22.0434 -22.0176 -22.0054 -21.9669 -21.9576
   -21.9485 -21.8588 -21.8397 -21.7784 -21.7396 -21.6698 -21.6574 -21.6310
   -21.5607 -21.5455 -21.5323 -21.5218 -21.5137 -21.5031 -21.4554 -21.3992
   -11.2958  -5.5301  -2.8167  -1.9408  -1.8772  -1.1835  -0.9900  -0.8219
    -0.2729  -0.2396  -0.0670   0.0166   0.1779   0.2202   0.8156   0.8597
     0.9031   0.9115   0.9642   0.9890   1.1116   1.1803   1.2183   1.2462
     1.2938   1.3347   1.4722   1.5308   1.5768   1.6364   1.6706

     the Fermi energy is     1.1175 ev

!    total energy              =   -1138.33671082 Ry
     Harris-Foulkes estimate   =   -1138.33671084 Ry
     estimated scf accuracy    <       0.00000009 Ry

     The total energy is the sum of the following terms:

     one-electron contribution =   -5591.93332629 Ry
     hartree contribution      =    2790.49032902 Ry
     xc contribution           =    -344.22275145 Ry
     ewald contribution        =    2007.45460393 Ry
     electric field correction =       0.00000156 Ry
     smearing contrib. (-TS)   =      -0.12556759 Ry

     convergence has been achieved in   9 iterations

 BEEF-vdW xc energy contributions
           1 :   -300.113053899764
           2 :    269.497167050721
           3 :   -216.797564404454
           4 :    154.962882510233
           5 :   -96.0311563288689
           6 :    47.5716268394411
           7 :   -12.1520932166083
           8 :   -10.9059099812607
           9 :    23.2730687625775
          10 :   -26.3711754985977
          11 :    21.5094291711320
          12 :   -10.7153652407331
          13 :   -2.77756203277994
          14 :    15.0000232803480
          15 :   -22.4998262511643
          16 :    23.5956511222274
          17 :   -18.8420140663001
          18 :    10.4595932810408
          19 :   -1.16627661340203
          20 :   -6.85646175098475
          21 :    12.3762552009453
          22 :   -14.9497468752986
          23 :    14.5912064114257
          24 :   -11.6255866785773
          25 :    6.76155815310779
          26 :   -1.15301262952363
          27 :   -3.79026881097280
          28 :    6.85254278015924
          29 :   -7.48443871094724
          30 :    5.99456910102140
          31 :   -28.8721405392892
          32 :   -19.7705584114536

     Forces acting on atoms (Ry/au):

     negative rho (up, down):  1.541E-04 0.000E+00
     atom    1 type  1   force =    -0.00020102    0.00014250    0.00412466
     atom    2 type  1   force =     0.00015020   -0.00188489    0.00516173
     atom    3 type  1   force =    -0.00169489    0.00098426    0.00533874
     atom    4 type  1   force =     0.00170948    0.00078988    0.00504755
     atom    5 type  1   force =    -0.00038978    0.00074955   -0.00517058
     atom    6 type  1   force =     0.00049083   -0.00107066   -0.00329032
     atom    7 type  1   force =    -0.00037360   -0.00000149   -0.00816878
     atom    8 type  1   force =     0.00160821   -0.00055730   -0.00462781
     atom    9 type  1   force =    -0.00068988   -0.00078777    0.00080540
     atom   10 type  1   force =    -0.00121190    0.00099222    0.00028444
     atom   11 type  1   force =     0.00063552   -0.00020109    0.00032961
     atom   12 type  1   force =    -0.00009819   -0.00012971    0.00044166
     atom   13 type  2   force =     0.00035275    0.00040995    0.00071009
     atom   14 type  3   force =    -0.00036148    0.00117204   -0.00001432
     atom   15 type  3   force =     0.00007375   -0.00060750   -0.00097210

     Total force =     0.002945     Total SCF correction =     0.000750
     SCF correction compared to forces is large: reduce conv_thr to get better values

     entering subroutine stress ...

     negative rho (up, down):  1.541E-04 0.000E+00
          total   stress  (Ry/bohr**3)                   (kbar)     P=   -1.22
  -0.00000535  -0.00000259  -0.00000093         -0.79     -0.38     -0.14
  -0.00000259  -0.00000525   0.00000103         -0.38     -0.77      0.15
  -0.00000093   0.00000103  -0.00001421         -0.14      0.15     -2.09

     bfgs converged in  23 scf cycles and  22 bfgs steps
     (criteria: energy <  1.0E+00, force <  1.9E-03)

     End of BFGS Geometry Optimization

     Final energy   =   -1138.3367108242 Ry
Begin final coordinates

ATOMIC_POSITIONS (crystal)
Y1       0.166666667   0.166666667   0.386999750    0   0   0
Y1       0.666666667   0.166666667   0.386999750    0   0   0
Y1       0.166666667   0.666666667   0.386999750    0   0   0
Y1       0.666666667   0.666666667   0.386999750    0   0   0
Y1       0.833333333   0.333333333   0.500000000    0   0   0
Y1       0.333333333   0.333333333   0.500000000    0   0   0
Y1       0.833333333   0.833333333   0.500000000    0   0   0
Y1       0.333333333   0.833333333   0.500000000    0   0   0
Y1       0.009896849   0.010188030   0.614787686
Y1       0.493641939   0.001506462   0.613695413
Y1       0.005931652   0.484409712   0.615151630
Y1       0.505534852   0.497794865   0.606113789
C1       0.144822350   0.174857428   0.669846193
H1       0.187294146   0.274865331   0.694762315
H1       0.135684113   0.061654826   0.697770603
End final coordinates

     Writing output data file calc.save

     General routines

     Parallel routines

   This run was terminated on:   5:37:55  25Apr2018

   JOB DONE.
Job  /afs/slac/g/suncat/bin/suncat-tsmpirun -x LD_LIBRARY_PATH -wdir /scratch/qe256285_OomfB pw.x -npool 4 -in pw.inp

TID   HOST_NAME   COMMAND_LINE            STATUS            TERMINATION_TIME
00000 suncat0050 pw.x -npool 4 -i  Done                     04/25/2018 05:37:55
00001 suncat0050 pw.x -npool 4 -i  Done                     04/25/2018 05:37:55
00002 suncat0050 pw.x -npool 4 -i  Done                     04/25/2018 05:37:55
00003 suncat0050 pw.x -npool 4 -i  Done                     04/25/2018 05:37:55
00004 suncat0050 pw.x -npool 4 -i  Done                     04/25/2018 05:37:55
00005 suncat0050 pw.x -npool 4 -i  Done                     04/25/2018 05:37:55
00006 suncat0050 pw.x -npool 4 -i  Done                     04/25/2018 05:37:55
00007 suncat0050 pw.x -npool 4 -i  Done                     04/25/2018 05:37:55
00008 suncat0042 pw.x -npool 4 -i  Done                     04/25/2018 05:37:55
00009 suncat0042 pw.x -npool 4 -i  Done                     04/25/2018 05:37:55
00010 suncat0042 pw.x -npool 4 -i  Done                     04/25/2018 05:37:55
00011 suncat0042 pw.x -npool 4 -i  Done                     04/25/2018 05:37:55
00012 suncat0042 pw.x -npool 4 -i  Done                     04/25/2018 05:37:55
00013 suncat0042 pw.x -npool 4 -i  Done                     04/25/2018 05:37:55
00014 suncat0042 pw.x -npool 4 -i  Done                     04/25/2018 05:37:55
00015 suncat0042 pw.x -npool 4 -i  Done                     04/25/2018 05:37:55
00016 suncat0165 pw.x -npool 4 -i  Done                     04/25/2018 05:37:55
00017 suncat0165 pw.x -npool 4 -i  Done                     04/25/2018 05:37:55
00018 suncat0165 pw.x -npool 4 -i  Done                     04/25/2018 05:37:55
00019 suncat0165 pw.x -npool 4 -i  Done                     04/25/2018 05:37:55
00020 suncat0165 pw.x -npool 4 -i  Done                     04/25/2018 05:37:55
00021 suncat0165 pw.x -npool 4 -i  Done                     04/25/2018 05:37:55
00022 suncat0165 pw.x -npool 4 -i  Done                     04/25/2018 05:37:55
00023 suncat0165 pw.x -npool 4 -i  Done                     04/25/2018 05:37:55
00024 suncat0115 pw.x -npool 4 -i  Done                     04/25/2018 05:37:55
00025 suncat0115 pw.x -npool 4 -i  Done                     04/25/2018 05:37:55
00026 suncat0115 pw.x -npool 4 -i  Done                     04/25/2018 05:37:55
00027 suncat0115 pw.x -npool 4 -i  Done                     04/25/2018 05:37:55
00028 suncat0115 pw.x -npool 4 -i  Done                     04/25/2018 05:37:55
00029 suncat0115 pw.x -npool 4 -i  Done                     04/25/2018 05:37:55
00030 suncat0115 pw.x -npool 4 -i  Done                     04/25/2018 05:37:55
00031 suncat0115 pw.x -npool 4 -i  Done                     04/25/2018 05:37:55