     Program PWSCF v.5.1rc2 (svn rev. 11289) starts on 24Apr2018 at  9:41:11

     Current dimensions of program PWSCF are:
     Max number of different atomic species (ntypx) = 10
     Max number of k-points (npk) =  40000
     Max angular momentum in pseudopotentials (lmaxx) =  3
     Presently stress not available with electric field

     IMPORTANT: XC functional enforced from input :
     Exchange-correlation      = BEEF-VDW ( 1  4 27 13 2)
     Any further DFT definition will be discarded
     Please, verify this is what you really want

     Subspace diagonalization in iterative solution of the eigenvalue problem:
     a serial algorithm will be used

     bravais-lattice index     =            0
     lattice parameter (alat)  =       1.8897  a.u.
     unit-cell volume          =    4158.3597 (a.u.)^3
     number of atoms/cell      =           14
     number of atomic types    =            3
     number of electrons       =       161.00
     number of Kohn-Sham states=           90
     kinetic-energy cutoff     =      36.7493  Ry
     charge density cutoff     =     367.4932  Ry
     convergence threshold     =      1.0E-05
     mixing beta               =       0.3000
     number of iterations used =           10  plain     mixing
     Exchange-correlation      = BEEF-VDW ( 1  4 27 13 2)
     nstep                     =           50

     celldm(1)=   1.889726  celldm(2)=   0.000000  celldm(3)=   0.000000
     celldm(4)=   0.000000  celldm(5)=   0.000000  celldm(6)=   0.000000

     crystal axes: (cart. coord. in units of alat)
               a(1) = (   5.399178   0.000000   0.000000 )
               a(2) = (   2.699589   4.675825   0.000000 )
               a(3) = (   0.000000   0.000000  24.408411 )

     reciprocal axes: (cart. coord. in units 2 pi/alat)
               b(1) = (  0.185213 -0.106933  0.000000 )
               b(2) = (  0.000000  0.213866  0.000000 )
               b(3) = (  0.000000  0.000000  0.040969 )

     PseudoPot. # 1 for V  read from file:
     /u/if/mamunm/psp/gbrv1.5pbe/V.UPF
     MD5 check sum: 22b79981416ebb76fdaf5b1b8640f6fb
     Pseudo is Ultrasoft + core correction, Zval = 13.0
     Generated by new atomic code, or converted to UPF format
     Using radial grid of  853 points,  6 beta functions with:
                l(1) =   0
                l(2) =   0
                l(3) =   1
                l(4) =   1
                l(5) =   2
                l(6) =   2
     Q(r) pseudized with  8 coefficients,  rinner =    1.100   1.100   1.100
                                                       1.100   1.100

     PseudoPot. # 2 for C  read from file:
     /u/if/mamunm/psp/gbrv1.5pbe/C.UPF
     MD5 check sum: d1aef80898a10debaa0f26306b886e00
     Pseudo is Ultrasoft + core correction, Zval =  4.0
     Generated by new atomic code, or converted to UPF format
     Using radial grid of  721 points,  4 beta functions with:
                l(1) =   0
                l(2) =   0
                l(3) =   1
                l(4) =   1
     Q(r) pseudized with  8 coefficients,  rinner =    1.100   1.100   1.100

     PseudoPot. # 3 for H  read from file:
     /u/if/mamunm/psp/gbrv1.5pbe/H.UPF
     MD5 check sum: 761ae9a214b05c3daf00ab9f6b793d6f
     Pseudo is Ultrasoft, Zval =  1.0
     Generated by new atomic code, or converted to UPF format
     Using radial grid of  615 points,  2 beta functions with:
                l(1) =   0
                l(2) =   0
     Q(r) pseudized with  8 coefficients,  rinner =    0.700

     vdW kernel table read from file vdW_kernel_table
     MD5 check sum: 095c7af220d748ca6e76c0b4c6cfb241

     atomic species   valence    mass     pseudopotential
        V1            13.00    50.94150     V ( 1.00)
        C1             4.00    12.01100     C ( 1.00)
        H1             1.00     1.00800     H ( 1.00)

     No symmetry found

   Cartesian axes

     site n.     atom                  positions (alat units)
         1           V1  tau(   1) = (   1.3497945   0.7793042  10.0000000  )
         2           V1  tau(   2) = (   4.0493836   0.7793042  10.0000000  )
         3           V1  tau(   3) = (   2.6995891   3.1172170  10.0000000  )
         4           V1  tau(   4) = (   5.3991782   3.1172170  10.0000000  )
         5           V1  tau(   5) = (   5.3991782   1.5586085  12.2042053  )
         6           V1  tau(   6) = (   2.6995891   1.5586085  12.2042053  )
         7           V1  tau(   7) = (   6.7489727   3.8965212  12.2042053  )
         8           V1  tau(   8) = (   4.0493836   3.8965212  12.2042053  )
         9           V1  tau(   9) = (   0.0000000   0.0000000  14.4084105  )
        10           V1  tau(  10) = (   2.6995891   0.0000000  14.4084105  )
        11           V1  tau(  11) = (   1.3497945   2.3379127  14.4084105  )
        12           V1  tau(  12) = (   4.0493836   2.3379127  14.4084105  )
        13           C1  tau(  13) = (   0.0000000   0.0000000  16.3549105  )
        14           H1  tau(  14) = (   0.0000000   0.0000000  17.4549105  )

     number of k points=    20  Fermi-Dirac smearing, width (Ry)=  0.0110
                       cart. coord. in units 2pi/alat
        k(    1) = (   0.0000000   0.0000000   0.0000000), wk =   0.0555556
        k(    2) = (   0.0000000   0.0356443   0.0000000), wk =   0.1111111
        k(    3) = (   0.0000000   0.0712887   0.0000000), wk =   0.1111111
        k(    4) = (   0.0000000  -0.1069330   0.0000000), wk =   0.0555556
        k(    5) = (   0.0308689  -0.0178222   0.0000000), wk =   0.1111111
        k(    6) = (   0.0308689   0.0178222   0.0000000), wk =   0.1111111
        k(    7) = (   0.0308689   0.0534665   0.0000000), wk =   0.1111111
        k(    8) = (   0.0308689  -0.1247552   0.0000000), wk =   0.1111111
        k(    9) = (   0.0308689  -0.0891108   0.0000000), wk =   0.1111111
        k(   10) = (   0.0308689  -0.0534665   0.0000000), wk =   0.1111111
        k(   11) = (   0.0617378  -0.0356443   0.0000000), wk =   0.1111111
        k(   12) = (   0.0617378   0.0000000   0.0000000), wk =   0.1111111
        k(   13) = (   0.0617378   0.0356443   0.0000000), wk =   0.1111111
        k(   14) = (   0.0617378  -0.1425773   0.0000000), wk =   0.1111111
        k(   15) = (   0.0617378  -0.1069330   0.0000000), wk =   0.1111111
        k(   16) = (   0.0617378  -0.0712887   0.0000000), wk =   0.1111111
        k(   17) = (  -0.0926067   0.0534665   0.0000000), wk =   0.0555556
        k(   18) = (  -0.0926067   0.0891108   0.0000000), wk =   0.1111111
        k(   19) = (  -0.0926067   0.1247552   0.0000000), wk =   0.1111111
        k(   20) = (  -0.0926067  -0.0534665   0.0000000), wk =   0.0555556

     Largest allocated arrays     est. size (Mb)     dimensions
     Largest temporary arrays     est. size (Mb)     dimensions

     Check: negative/imaginary core charge=   -0.000001    0.000000

     Initial potential from superposition of free atoms
     Check: negative starting charge=   -0.011459

     starting charge  160.98522, renormalised to  161.00000

     negative rho (up, down):  1.146E-02 0.000E+00

     *
     * You are using vdW-DF for exchange-correlation in this calculation.
     * Please cite the following three references that made this development
     * possible:
     *
     *   M. Dion, H. Rydberg, E. Schroder, D. C. Langreth, and
     *   B. I. Lundqvist, Phys. Rev. Lett. 92, 246401 (2004).
     *
     *   T. Thonhauser, V. R. Cooper, S. Li, A. Puzder, P. Hyldgaard, and
     *   D. C. Langreth, Phys. Rev. B 76, 125112 (2007).
     *
     *   G. Roman-Perez and J. M. Soler, Phys. Rev. Lett. 103, 096102 (2009).
     *
     *
     * If you are using vdW-DF2, please also cite:
     *
     *   K. Lee, E. D. Murray, L. Kong, B. I. Lundqvist, and
     *   D. C. Langreth, Phys. Rev. B 82, 081101(R) (2010).
     *
     *
     * If you are calculating the stress with vdW-DF, please also cite:
     *
     *   R. Sabatini, E. Kucukbenli, B. Kolb, T. Thonhauser, and
     *   S. de Gironcoli, J. Phys.: Condens. Matter 24, 424209 (2012).
     *

     Carrying out vdW-DF run using the following parameters:

     Nqs =      20    Nr_points =    1024   r_max =   100.000
     q_mesh =
               0.00001000     0.04494208     0.09755937     0.15916263
               0.23128650     0.31572767     0.41458969     0.53033537
               0.66584808     0.82450364     1.01025438     1.22772762
               1.48234092     1.78043706     2.12944203     2.53805004
               3.01644009     3.57652955     4.23227104     5.00000000

     Gradients computed in reciprocal space

     Adding external electric field

     Computed dipole along edir(3) :
        Dipole               -0.0034 Ry au,         -0.0086 Debye
        Dipole field         -0.0000 Ry au

        Potential amp.        0.0009 Ry
        Total length         44.9721 bohr

     Starting wfc are  125 randomized atomic wfcs

     Self-consistent Calculation

     iteration #  1     ecut=    36.75 Ry     beta=0.30
     Davidson diagonalization with overlap
     ethr =  1.00E-02,  avg # of iterations =  2.4

[...]

     total energy              =   -1756.09956921 Ry
     Harris-Foulkes estimate   =   -1762.26986781 Ry
     estimated scf accuracy    <      12.71947691 Ry

[...]

     End of self-consistent calculation

          k = 0.0000 0.0000 0.0000 ( 15569 PWs)   bands (ev):

   -63.1440 -63.0628 -63.0430 -63.0423 -62.9896 -62.9642 -62.9370 -62.9364
   -62.9053 -62.9039 -62.9028 -62.8430 -37.2055 -37.2054 -37.1918 -37.1695
   -37.1570 -37.1567 -37.1177 -37.0685 -37.0682 -37.0640 -36.9459 -36.9140
   -36.9136 -36.7786 -36.7781 -36.7773 -36.7586 -36.7196 -36.6862 -36.6860
   -36.6477 -36.6438 -36.6437 -36.6432 -36.5963 -36.5962 -36.5559 -36.5512
   -36.5510 -36.5501 -36.5262 -36.5261 -36.4785 -36.4784 -36.4328 -36.4328
    -9.2867  -4.9253  -3.5894  -2.7131  -2.1657  -1.8774  -1.8774  -1.8389
    -1.5954  -1.5953  -1.4921  -1.1207  -1.1206  -1.1033  -1.0997  -1.0997
    -1.0350  -0.5100  -0.5100  -0.2402   0.4780   0.4781   0.6992   0.8180
     1.0483   1.1195   1.1197   1.2311   1.3519   1.3519   1.4551   1.4552
     1.5139   1.5139   1.5746   1.6250   1.6312   1.6314   1.6372   1.6372
     2.0762   2.4571

[...]

          k =-0.0926 0.0535 0.0000 ( 15660 PWs)   bands (ev):

[...]

     the Fermi energy is     1.1971 ev

!    total energy              =   -1761.54915819 Ry
     Harris-Foulkes estimate   =   -1761.54916874 Ry
     estimated scf accuracy    <       0.00000967 Ry

     The total energy is the sum of the following terms:

     one-electron contribution =  -15136.09499714 Ry
     hartree contribution      =    7557.78790794 Ry
     xc contribution           =    -248.43052903 Ry
     ewald contribution        =    6065.33146614 Ry
     electric field correction =       0.00000934 Ry
     smearing contrib. (-TS)   =      -0.14301544 Ry

     convergence has been achieved in  29 iterations

 BEEF-vdW xc energy contributions
           1 :   -213.965076894368
           2 :    191.921585192641
           3 :   -155.589537068831
           4 :    116.444793840355
           5 :   -84.3986908910632
           6 :    64.1011563574659
           7 :   -54.3645772907072
           8 :    50.4020700867580
           9 :   -47.1975266716265
          10 :    42.0501360603701
          11 :   -35.1957672671755
          12 :    28.6473928258463
          13 :   -24.3298334162631
          14 :    22.7299256911119
          15 :   -22.7582534465666
          16 :    22.6755079449626
          17 :   -21.3136432319125
          18 :    18.7446178909855
          19 :   -16.0284148534061
          20 :    14.3229308229720
          21 :   -14.0410485974394
          22 :    14.6266739904889
          23 :   -15.0329033359351
          24 :    14.4888347087699
          25 :   -12.9963562099408
          26 :    11.2462278388211
          27 :   -10.0746905645527
          28 :    9.87464134337603
          29 :   -10.3643900587566
          30 :    10.8368801861727
          31 :   -22.2803042842102
          32 :   -16.0648178649018

     Forces acting on atoms (Ry/au):

     negative rho (up, down):  1.537E-02 0.000E+00
     atom    1 type  1   force =     0.00017941    0.00009451   -0.00159899
     atom    2 type  1   force =    -0.00017542    0.00005022   -0.00154429
     atom    3 type  1   force =    -0.00004040   -0.00016865   -0.00149374
     atom    4 type  1   force =     0.00003501    0.00002742    0.00020641
     atom    5 type  1   force =    -0.00003481    0.00305004   -0.00720242
     atom    6 type  1   force =     0.00001584   -0.00004709    0.01000158
     atom    7 type  1   force =    -0.00268368   -0.00149393   -0.00714897
     atom    8 type  1   force =     0.00268645   -0.00152382   -0.00710250
     atom    9 type  1   force =    -0.00002655   -0.00002316    0.10854435
     atom   10 type  1   force =     0.00003747    0.00060347    0.01358968
     atom   11 type  1   force =     0.00053991   -0.00025750    0.01357933
     atom   12 type  1   force =    -0.00053211   -0.00031485    0.01367093
     atom   13 type  2   force =     0.00000074    0.00000504   -0.12529881
     atom   14 type  3   force =    -0.00000186   -0.00000171   -0.00820257

     Total force =     0.167649     Total SCF correction =     0.001852

     entering subroutine stress ...

     negative rho (up, down):  1.537E-02 0.000E+00
          total   stress  (Ry/bohr**3)                   (kbar)     P=  -23.03
  -0.00018351   0.00000002  -0.00000001        -27.00      0.00     -0.00
   0.00000002  -0.00018349   0.00000001          0.00    -26.99      0.00
  -0.00000001   0.00000001  -0.00010270         -0.00      0.00    -15.11

     BFGS Geometry Optimization

     number of scf cycles    =   1
     number of bfgs steps    =   0

     energy   new            =   -1761.5491581861 Ry

     new trust radius        =       0.1252988124 bohr
     new conv_thr            =       0.0000099958 Ry

ATOMIC_POSITIONS (crystal)
V1       0.166666667   0.166666667   0.409694847    0   0   0
V1       0.666666667   0.166666667   0.409694847    0   0   0
V1       0.166666667   0.666666667   0.409694847    0   0   0
V1       0.666666667   0.666666667   0.409694847    0   0   0
V1       0.833333333   0.333333333   0.500000000    0   0   0
V1       0.333333333   0.333333333   0.500000000    0   0   0
V1       0.833333333   0.833333333   0.500000000    0   0   0
V1       0.333333333   0.833333333   0.500000000    0   0   0
V1      -0.000001292  -0.000002621   0.592658408
V1       0.499969524   0.000068297   0.590599779
V1       0.000067488   0.499970858   0.590599555
V1       0.499965663   0.499964368   0.590601541
C1      -0.000000212   0.000000570   0.667335762
H1      -0.000000085  -0.000000194   0.714940856

     Writing output data file calc.save
     Check: negative starting charge=   -0.011459
     NEW-OLD atomic charge density approx. for the potential

     Check: negative/imaginary core charge=   -0.000001    0.000000
     Check: negative starting charge=   -0.011401

[...]

     energy   old            =   -1761.5491581861 Ry
     energy   new            =   -1761.5646862963 Ry

     CASE: energy  _new < energy  _old

[...]

     WARNING: bfgs curvature condition failed, Theta= 0.889
     new trust radius        =       0.0312681647 bohr
     new conv_thr            =       0.0000001000 Ry

[...]

     iteration #  1     ecut=    36.75 Ry     beta=0.30
     Davidson diagonalization with overlap
     c_bands:  1 eigenvalues not converged
     ethr =  1.00E-06,  avg # of iterations = 14.8

[...]

     Total force =     0.005192     Total SCF correction =     0.000486

[...]

     number of scf cycles    =  13
     number of bfgs steps    =  12

     energy   old            =   -1761.5799118791 Ry
     energy   new            =   -1761.5802232050 Ry

     CASE: energy  _new < energy  _old

     new trust radius        =       0.0269217412 bohr
     new conv_thr            =       0.0000001000 Ry

ATOMIC_POSITIONS (crystal)
V1       0.166666667   0.166666667   0.409694847    0   0   0
V1       0.666666667   0.166666667   0.409694847    0   0   0
V1       0.166666667   0.666666667   0.409694847    0   0   0
V1       0.666666667   0.666666667   0.409694847    0   0   0
V1       0.833333333   0.333333333   0.500000000    0   0   0
V1       0.333333333   0.333333333   0.500000000    0   0   0
V1       0.833333333   0.833333333   0.500000000    0   0   0
V1       0.333333333   0.833333333   0.500000000    0   0   0
V1      -0.000005773   0.000001246   0.585522021
V1       0.499700635   0.000611707   0.594075902
V1       0.000607247   0.499704677   0.594076713
V1       0.499696487   0.499699204   0.594077358
C1      -0.000000160  -0.000000966   0.658332601
H1      -0.000001056  -0.000002813   0.703119615

     Writing output data file calc.save
     Check: negative starting charge=   -0.011207
     NEW-OLD atomic charge density approx. for the potential

     Check: negative/imaginary core charge=   -0.000001    0.000000
     Check: negative starting charge=   -0.011522

[...]

     Self-consistent Calculation

[...]

     iteration # 13     ecut=    36.75 Ry     beta=0.30
     Davidson diagonalization with overlap
     c_bands:  1 eigenvalues not converged
     ethr =  1.96E-09,  avg # of iterations =  7.9

[...]

     total energy              =   -1761.58034344 Ry
     Harris-Foulkes estimate   =   -1761.58034348 Ry
     estimated scf accuracy    <       0.00000011 Ry

     iteration # 21     ecut=    36.75 Ry     beta=0.30
     Davidson diagonalization with overlap
     ethr =  6.97E-11,  avg # of iterations =  2.9

[...]

     negative rho (up, down):  1.554E-02 0.000E+00

     Adding external electric field

     Computed dipole along edir(3) :
        Dipole                0.1492 Ry au,          0.3791 Debye
        Dipole field          0.0005 Ry au

        Potential amp.       -0.0405 Ry
        Total length         44.9721 bohr

     End of self-consistent calculation

[...]

          k = 0.0617-0.0713 0.0000 ( 15642 PWs)   bands (ev):

[...]

          k =-0.0926-0.0535 0.0000 ( 15660 PWs)   bands (ev):

   -62.9758 -62.9510 -62.9200 -62.8906 -62.8515 -62.8151 -62.7922 -62.7880
   -62.7834 -62.7554 -62.7534 -62.6340 -36.9568 -36.9439 -36.9294 -36.9271
   -36.9086 -36.9070 -36.8378 -36.8295 -36.8232 -36.8156 -36.7945 -36.7514
   -36.7394 -36.7349 -36.6776 -36.6642 -36.6579 -36.6328 -36.5946 -36.5848
   -36.5645 -36.5630 -36.5599 -36.5574 -36.5210 -36.5091 -36.4828 -36.4824
   -36.4680 -36.4382 -36.4231 -36.3806 -36.3713 -36.3552 -36.3491 -36.3128
    -9.3451  -3.6081  -3.0133  -2.7291  -1.9264  -1.5723  -1.1625  -1.1415
    -1.0107  -0.9519  -0.8767  -0.7809  -0.7751  -0.4936  -0.1870  -0.1571
    -0.1254  -0.0528   0.0138   0.0954   0.4225   0.4308   0.4408   0.4958
     0.5557   0.6033   0.8094   0.8603   0.9029   0.9515   0.9738   1.1526
     1.1685   1.2605   1.3837   1.4456   1.4754   1.5141   1.5954   1.8673
     2.0302   2.1087

     the Fermi energy is     1.3489 ev

!    total energy              =   -1761.58034347 Ry
     Harris-Foulkes estimate   =   -1761.58034381 Ry
     estimated scf accuracy    <       0.00000002 Ry

     The total energy is the sum of the following terms:

     one-electron contribution =  -15131.68485025 Ry
     hartree contribution      =    7556.25062883 Ry
     xc contribution           =    -248.54058748 Ry
     ewald contribution        =    6062.53587853 Ry
     electric field correction =       0.00006723 Ry
     smearing contrib. (-TS)   =      -0.14148033 Ry

     convergence has been achieved in  21 iterations

 BEEF-vdW xc energy contributions
           1 :   -214.069857569858
           2 :    192.039483686172
           3 :   -155.721680491120
           4 :    116.584813046927
           5 :   -84.5343643501501
           6 :    64.2082352214105
           7 :   -54.4116809082968
           8 :    50.3708187356273
           9 :   -47.1027898513123
          10 :    41.9386264404199
          11 :   -35.1181204444239
          12 :    28.6246483247555
          13 :   -24.3417047542750
          14 :    22.7324343061674
          15 :   -22.7135671762138
          16 :    22.5727915116144
          17 :   -21.1717399675952
          18 :    18.5990661819813
          19 :   -15.9117175498020
          20 :    14.2476476219420
          21 :   -13.9938715045211
          22 :    14.5776244100354
          23 :   -14.9555352096329
          24 :    14.3792775493436
          25 :   -12.8773736482925
          26 :    11.1523080226555
          27 :   -10.0291487867015
          28 :    9.87555427233576
          29 :   -10.3884418498910
          30 :    10.8556787014486
          31 :   -22.2870419994230
          32 :   -16.0753456055950

     Forces acting on atoms (Ry/au):

     negative rho (up, down):  1.554E-02 0.000E+00
     atom    1 type  1   force =     0.00093250    0.00053469   -0.00301710
     atom    2 type  1   force =    -0.00093454    0.00053570   -0.00302164
     atom    3 type  1   force =     0.00000039   -0.00107495   -0.00301671
     atom    4 type  1   force =    -0.00000130    0.00000209   -0.00026636
     atom    5 type  1   force =    -0.00000048    0.01790484   -0.00707971
     atom    6 type  1   force =     0.00000126    0.00000157    0.03074425
     atom    7 type  1   force =    -0.01550468   -0.00895565   -0.00709047
     atom    8 type  1   force =     0.01550269   -0.00895426   -0.00707880
     atom    9 type  1   force =     0.00001067    0.00000379    0.00166925
     atom   10 type  1   force =    -0.00000690    0.00003723   -0.00047925
     atom   11 type  1   force =     0.00003216   -0.00002099   -0.00047187
     atom   12 type  1   force =    -0.00003058   -0.00001159   -0.00047499
     atom   13 type  2   force =    -0.00000231   -0.00000230   -0.00035693
     atom   14 type  3   force =     0.00000112   -0.00000016   -0.00005967

     Total force =     0.001897     Total SCF correction =     0.000268
     SCF correction compared to forces is large: reduce conv_thr to get better values

     entering subroutine stress ...

     negative rho (up, down):  1.554E-02 0.000E+00
          total   stress  (Ry/bohr**3)                   (kbar)     P=  -20.94
  -0.00021419   0.00000002   0.00000001        -31.51      0.00      0.00
   0.00000002  -0.00021416   0.00000001          0.00    -31.50      0.00
   0.00000001   0.00000001   0.00000126          0.00      0.00      0.19

     bfgs converged in  14 scf cycles and  13 bfgs steps
     (criteria: energy <  1.0E+00, force <  1.9E-03)

     End of BFGS Geometry Optimization

     Final energy   =   -1761.5803434682 Ry
Begin final coordinates

ATOMIC_POSITIONS (crystal)
V1       0.166666667   0.166666667   0.409694847    0   0   0
V1       0.666666667   0.166666667   0.409694847    0   0   0
V1       0.166666667   0.666666667   0.409694847    0   0   0
V1       0.666666667   0.666666667   0.409694847    0   0   0
V1       0.833333333   0.333333333   0.500000000    0   0   0
V1       0.333333333   0.333333333   0.500000000    0   0   0
V1       0.833333333   0.833333333   0.500000000    0   0   0
V1       0.333333333   0.833333333   0.500000000    0   0   0
V1      -0.000005773   0.000001246   0.585522021
V1       0.499700635   0.000611707   0.594075902
V1       0.000607247   0.499704677   0.594076713
V1       0.499696487   0.499699204   0.594077358
C1      -0.000000160  -0.000000966   0.658332601
H1      -0.000001056  -0.000002813   0.703119615
End final coordinates

     Writing output data file calc.save

     General routines

     Parallel routines

   This run was terminated on:  11:36:29  24Apr2018

   JOB DONE.
Job  /afs/slac/g/suncat/bin/suncat-tsmpirun -x LD_LIBRARY_PATH -wdir /scratch/qe674690_30HHI pw.x -npool 4 -in pw.inp

TID   HOST_NAME   COMMAND_LINE            STATUS            TERMINATION_TIME
00000 suncat0013 pw.x -npool 4 -i  Done                     04/24/2018 11:36:29
00001 suncat0013 pw.x -npool 4 -i  Done                     04/24/2018 11:36:29
00002 suncat0013 pw.x -npool 4 -i  Done                     04/24/2018 11:36:29
00003 suncat0013 pw.x -npool 4 -i  Done                     04/24/2018 11:36:29
00004 suncat0013 pw.x -npool 4 -i  Done                     04/24/2018 11:36:29
00005 suncat0013 pw.x -npool 4 -i  Done                     04/24/2018 11:36:29
00006 suncat0013 pw.x -npool 4 -i  Done                     04/24/2018 11:36:29
00007 suncat0013 pw.x -npool 4 -i  Done                     04/24/2018 11:36:29
00008 suncat0134 pw.x -npool 4 -i  Done                     04/24/2018 11:36:29
00009 suncat0134 pw.x -npool 4 -i  Done                     04/24/2018 11:36:29
00010 suncat0134 pw.x -npool 4 -i  Done                     04/24/2018 11:36:29
00011 suncat0134 pw.x -npool 4 -i  Done                     04/24/2018 11:36:29
00012 suncat0134 pw.x -npool 4 -i  Done                     04/24/2018 11:36:29
00013 suncat0134 pw.x -npool 4 -i  Done                     04/24/2018 11:36:29
00014 suncat0134 pw.x -npool 4 -i  Done                     04/24/2018 11:36:29
00015 suncat0134 pw.x -npool 4 -i  Done                     04/24/2018 11:36:29
00016 suncat0260 pw.x -npool 4 -i  Done                     04/24/2018 11:36:29
00017 suncat0260 pw.x -npool 4 -i  Done                     04/24/2018 11:36:29
00018 suncat0260 pw.x -npool 4 -i  Done                     04/24/2018 11:36:29
00019 suncat0260 pw.x -npool 4 -i  Done                     04/24/2018 11:36:29
00020 suncat0260 pw.x -npool 4 -i  Done                     04/24/2018 11:36:29
00021 suncat0260 pw.x -npool 4 -i  Done                     04/24/2018 11:36:29
00022 suncat0260 pw.x -npool 4 -i  Done                     04/24/2018 11:36:29
00023 suncat0260 pw.x -npool 4 -i  Done                     04/24/2018 11:36:29
00024 suncat0255 pw.x -npool 4 -i  Done                     04/24/2018 11:36:29
00025 suncat0255 pw.x -npool 4 -i  Done                     04/24/2018 11:36:29
00026 suncat0255 pw.x -npool 4 -i  Done                     04/24/2018 11:36:29
00027 suncat0255 pw.x -npool 4 -i  Done                     04/24/2018 11:36:29
00028 suncat0255 pw.x -npool 4 -i  Done                     04/24/2018 11:36:29
00029 suncat0255 pw.x -npool 4 -i  Done                     04/24/2018 11:36:29
00030 suncat0255 pw.x -npool 4 -i  Done                     04/24/2018 11:36:29
00031 suncat0255 pw.x -npool 4 -i  Done                     04/24/2018 11:36:29