     Program PWSCF v.5.1rc2 (svn rev. 11289) starts on  2May2018 at 23:35:47

     Current dimensions of program PWSCF are:
     Max number of different atomic species (ntypx) = 10
     Max number of k-points (npk) =  40000
     Max angular momentum in pseudopotentials (lmaxx) =  3
     Presently stress not available with electric field

     IMPORTANT: XC functional enforced from input :
     Exchange-correlation      = BEEF-VDW ( 1  4 27 13 2)
     Any further DFT definition will be discarded
     Please, verify this is what you really want

     Subspace diagonalization in iterative solution of the eigenvalue problem:
     a serial algorithm will be used

     bravais-lattice index     =            0
     lattice parameter (alat)  =       1.8897  a.u.
     unit-cell volume          =    7725.1200 (a.u.)^3
     number of atoms/cell      =           13
     number of atomic types    =            2
     number of electrons       =       133.00
     number of Kohn-Sham states=           76
     kinetic-energy cutoff     =      36.7493  Ry
     charge density cutoff     =     367.4932  Ry
     convergence threshold     =      1.0E-05
     mixing beta               =       0.3000
     number of iterations used =           10  plain     mixing
     Exchange-correlation      = BEEF-VDW ( 1  4 27 13 2)
     nstep                     =           50

     celldm(1)=   1.889726  celldm(2)=   0.000000  celldm(3)=   0.000000
     celldm(4)=   0.000000  celldm(5)=   0.000000  celldm(6)=   0.000000

     crystal axes: (cart. coord. in units of alat)
               a(1) = (   7.152277   0.000000   0.000000 )
               a(2) = (   3.576139   6.194054   0.000000 )
               a(3) = (   0.000000   0.000000  25.839810 )

     reciprocal axes: (cart. coord. in units 2 pi/alat)
               b(1) = (  0.139816 -0.080723  0.000000 )
               b(2) = (  0.000000  0.161445  0.000000 )
               b(3) = (  0.000000  0.000000  0.038700 )

     PseudoPot. # 1 for Y  read from file:
     /u/if/mamunm/psp/gbrv1.5pbe/Y.UPF
     MD5 check sum: d034151ed7554c50b6e82763ed42c788
     Pseudo is Ultrasoft + core correction, Zval = 11.0
     Generated by new atomic code, or converted to UPF format
     Using radial grid of  885 points,  6 beta functions with:
                l(1) =   0
                l(2) =   0
                l(3) =   1
                l(4) =   1
                l(5) =   2
                l(6) =   2
     Q(r) pseudized with  8 coefficients,  rinner =    1.200   1.200   1.200
                                                       1.200   1.200

     PseudoPot. # 2 for H  read from file:
     /u/if/mamunm/psp/gbrv1.5pbe/H.UPF
     MD5 check sum: 761ae9a214b05c3daf00ab9f6b793d6f
     Pseudo is Ultrasoft, Zval =  1.0
     Generated by new atomic code, or converted to UPF format
     Using radial grid of  615 points,  2 beta functions with:
                l(1) =   0
                l(2) =   0
     Q(r) pseudized with  8 coefficients,  rinner =    0.700

     vdW kernel table read from file vdW_kernel_table
     MD5 check sum: 095c7af220d748ca6e76c0b4c6cfb241

     atomic species   valence    mass     pseudopotential
        Y1            11.00    88.90584     Y ( 1.00)
        H1             1.00     1.00800     H ( 1.00)

     No symmetry found

   Cartesian axes

     site n.     atom                  positions (alat units)
         1           Y1  tau(   1) = (   1.7880693   1.0323423  10.0000000  )
         2           Y1  tau(   2) = (   5.3642080   1.0323423  10.0000000  )
         3           Y1  tau(   3) = (   3.5761386   4.1293692  10.0000000  )
         4           Y1  tau(   4) = (   7.1522773   4.1293692  10.0000000  )
         5           Y1  tau(   5) = (   7.1522773   2.0646846  12.9199050  )
         6           Y1  tau(   6) = (   3.5761386   2.0646846  12.9199050  )
         7           Y1  tau(   7) = (   8.9403466   5.1617115  12.9199050  )
         8           Y1  tau(   8) = (   5.3642080   5.1617115  12.9199050  )
         9           Y1  tau(   9) = (   0.0000000   0.0000000  15.8398100  )
        10           Y1  tau(  10) = (   3.5761386   0.0000000  15.8398100  )
        11           Y1  tau(  11) = (   1.7880693   3.0970269  15.8398100  )
        12           Y1  tau(  12) = (   5.3642080   3.0970269  15.8398100  )
        13           H1  tau(  13) = (   0.0000000   0.0000000  17.7183100  )

     number of k points=    20  Fermi-Dirac smearing, width (Ry)=  0.0110
                       cart. coord. in units 2pi/alat
        k(    1) = (   0.0000000   0.0000000   0.0000000), wk =   0.0555556
        k(    2) = (   0.0000000   0.0269075   0.0000000), wk =   0.1111111
        k(    3) = (   0.0000000   0.0538151   0.0000000), wk =   0.1111111
        k(    4) = (   0.0000000  -0.0807226   0.0000000), wk =   0.0555556
        k(    5) = (   0.0233026  -0.0134538   0.0000000), wk =   0.1111111
        k(    6) = (   0.0233026   0.0134538   0.0000000), wk =   0.1111111
        k(    7) = (   0.0233026   0.0403613   0.0000000), wk =   0.1111111
        k(    8) = (   0.0233026  -0.0941763   0.0000000), wk =   0.1111111
        k(    9) = (   0.0233026  -0.0672688   0.0000000), wk =   0.1111111
        k(   10) = (   0.0233026  -0.0403613   0.0000000), wk =   0.1111111
        k(   11) = (   0.0466052  -0.0269075   0.0000000), wk =   0.1111111
        k(   12) = (   0.0466052   0.0000000   0.0000000), wk =   0.1111111
        k(   13) = (   0.0466052   0.0269075   0.0000000), wk =   0.1111111
        k(   14) = (   0.0466052  -0.1076301   0.0000000), wk =   0.1111111
        k(   15) = (   0.0466052  -0.0807226   0.0000000), wk =   0.1111111
        k(   16) = (   0.0466052  -0.0538151   0.0000000), wk =   0.1111111
        k(   17) = (  -0.0699078   0.0403613   0.0000000), wk =   0.0555556
        k(   18) = (  -0.0699078   0.0672688   0.0000000), wk =   0.1111111
        k(   19) = (  -0.0699078   0.0941763   0.0000000), wk =   0.1111111
        k(   20) = (  -0.0699078  -0.0403613   0.0000000), wk =   0.0555556

     Largest allocated arrays     est. size (Mb)     dimensions
     Largest temporary arrays     est. size (Mb)     dimensions

     Initial potential from superposition of free atoms
     Check: negative starting charge=   -0.000579

     starting charge  132.94636, renormalised to  133.00000

     negative rho (up, down):  5.790E-04 0.000E+00

     *
     * You are using vdW-DF for exchange-correlation in this calculation.
     * Please cite the following three references that made this development
     * possible:
     *
     *   M. Dion, H. Rydberg, E. Schroder, D. C. Langreth, and
     *   B. I. Lundqvist, Phys. Rev. Lett. 92, 246401 (2004).
     *
     *   T. Thonhauser, V. R. Cooper, S. Li, A. Puzder, P. Hyldgaard, and
     *   D. C. Langreth, Phys. Rev. B 76, 125112 (2007).
     *
     *   G. Roman-Perez and J. M. Soler, Phys. Rev. Lett. 103, 096102 (2009).
     *
     *
     * If you are using vdW-DF2, please also cite:
     *
     *   K. Lee, E. D. Murray, L. Kong, B. I. Lundqvist, and
     *   D. C. Langreth, Phys. Rev. B 82, 081101(R) (2010).
     *
     *
     * If you are calculating the stress with vdW-DF, please also cite:
     *
     *   R. Sabatini, E. Kucukbenli, B. Kolb, T. Thonhauser, and
     *   S. de Gironcoli, J. Phys.: Condens. Matter 24, 424209 (2012).
     *

     Carrying out vdW-DF run using the following parameters:

     Nqs =      20    Nr_points =    1024   r_max =   100.000
     q_mesh =
               0.00001000     0.04494208     0.09755937     0.15916263
               0.23128650     0.31572767     0.41458969     0.53033537
               0.66584808     0.82450364     1.01025438     1.22772762
               1.48234092     1.78043706     2.12944203     2.53805004
               3.01644009     3.57652955     4.23227104     5.00000000

     Gradients computed in reciprocal space

     Adding external electric field

     Computed dipole along edir(3) :
        Dipole               -0.0036 Ry au,         -0.0091 Debye
        Dipole field         -0.0000 Ry au

        Potential amp.        0.0006 Ry
        Total length         47.6094 bohr

     Starting wfc are  157 randomized atomic wfcs

     Self-consistent Calculation

     iteration #  1     ecut=    36.75 Ry     beta=0.30
     Davidson diagonalization with overlap
     ethr =  1.00E-02,  avg # of iterations =  2.0

[...]

     total energy              =   -1123.71562280 Ry
     Harris-Foulkes estimate   =   -1125.84869045 Ry
     estimated scf accuracy    <       4.62909527 Ry

[...]

     End of self-consistent calculation

          k = 0.0000 0.0000 0.0000 ( 28997 PWs)   bands (ev):

   -42.5698 -42.5373 -42.5373 -42.5156 -42.4751 -42.4750 -42.4666 -41.9856
   -41.9462 -41.9456 -41.9305 -41.8716 -22.6599 -22.6217 -22.6216 -22.6209
   -22.6195 -22.5961 -22.5961 -22.5605 -22.5605 -22.5408 -22.4760 -22.4759
   -22.4699 -22.3669 -22.2984 -22.2947 -22.2947 -22.2831 -22.2831 -22.1967
   -22.1966 -22.1366 -22.0949 -22.0946 -21.9274 -21.8972 -21.8969 -21.8617
   -21.8371 -21.8368 -21.7987 -21.7969 -21.7966 -21.7219 -21.7024 -21.7023
    -3.4919  -2.6388  -1.6448  -1.3770  -0.7849  -0.7849  -0.7183  -0.6566
    -0.6565  -0.6280  -0.3808  -0.3808  -0.2920   0.1476   0.1477   0.1730
     0.5366   0.6086   0.6086   1.0175   1.4195   1.4396   1.5038   1.5203
     1.5204   1.6673   1.6673   1.8078

[...]

          k =-0.0699 0.0404 0.0000 ( 29048 PWs)   bands (ev):

[...]

     the Fermi energy is     0.8283 ev

!    total energy              =   -1125.42210148 Ry
     Harris-Foulkes estimate   =   -1125.42209078 Ry
     estimated scf accuracy    <       0.00000650 Ry

     The total energy is the sum of the following terms:

     one-electron contribution =   -5390.97006968 Ry
     hartree contribution      =    2687.12993236 Ry
     xc contribution           =    -339.62862151 Ry
     ewald contribution        =    1918.17070434 Ry
     electric field correction =       0.00010422 Ry
     smearing contrib. (-TS)   =      -0.12415121 Ry

     convergence has been achieved in  14 iterations

 BEEF-vdW xc energy contributions
           1 :   -296.278364054173
           2 :    266.087157499517
           3 :   -214.072822191803
           4 :    152.991415572722
           5 :   -94.7535929127666
           6 :    46.8639628516868
           7 :   -11.8637685916939
           8 :   -10.9270033577139
           9 :    23.1650269460246
          10 :   -26.2459325289432
          11 :    21.4385045377167
          12 :   -10.7203066096656
          13 :   -2.71525500015798
          14 :    14.9089675397818
          15 :   -22.3916674645352
          16 :    23.4637790988215
          17 :   -18.6813152157019
          18 :    10.2833169556083
          19 :   -1.00548211400314
          20 :   -6.96846121398801
          21 :    12.4242708618684
          22 :   -14.9492524285164
          23 :    14.5824358840621
          24 :   -11.6478383866179
          25 :    6.82338656358428
          26 :   -1.22419044236904
          27 :   -3.75395819942150
          28 :    6.87154625017729
          29 :   -7.53951179410728
          30 :    6.04784003738496
          31 :   -28.3123825941827
          32 :   -19.3505267176062

     Forces acting on atoms (Ry/au):

     negative rho (up, down):  2.302E-05 0.000E+00
     atom    1 type  1   force =     0.00016365   -0.00003135    0.00522965
     atom    2 type  1   force =    -0.00016705    0.00014562    0.00511231
     atom    3 type  1   force =     0.00016948   -0.00014278    0.00522060
     atom    4 type  1   force =    -0.00018084    0.00004878    0.00543527
     atom    5 type  1   force =     0.00011641    0.00670964   -0.00027422
     atom    6 type  1   force =    -0.00013366    0.00021877    0.00262496
     atom    7 type  1   force =    -0.00564483   -0.00353665   -0.00034181
     atom    8 type  1   force =     0.00566308   -0.00340967   -0.00043846
     atom    9 type  1   force =     0.00018481   -0.00009462   -0.05367026
     atom   10 type  1   force =    -0.00015918   -0.00153475   -0.00647498
     atom   11 type  1   force =    -0.00126784    0.00072581   -0.00648615
     atom   12 type  1   force =     0.00126126    0.00089956   -0.00652367
     atom   13 type  2   force =    -0.00000529    0.00000164    0.05058676

     Total force =     0.074653     Total SCF correction =     0.001964

     entering subroutine stress ...

     negative rho (up, down):  2.302E-05 0.000E+00
          total   stress  (Ry/bohr**3)                   (kbar)     P=   -1.58
  -0.00001231  -0.00000000   0.00000000         -1.81     -0.00      0.00
  -0.00000000  -0.00001231  -0.00000001         -0.00     -1.81     -0.00
   0.00000000  -0.00000001  -0.00000754          0.00     -0.00     -1.11

     BFGS Geometry Optimization

     number of scf cycles    =   1
     number of bfgs steps    =   0

     energy   new            =   -1125.4221014782 Ry

     new trust radius        =       0.0536706596 bohr
     new conv_thr            =       0.0000099958 Ry

ATOMIC_POSITIONS (crystal)
Y1       0.166666667   0.166666667   0.386999750    0   0   0
Y1       0.666666667   0.166666667   0.386999750    0   0   0
Y1       0.166666667   0.666666667   0.386999750    0   0   0
Y1       0.666666667   0.666666667   0.386999750    0   0   0
Y1       0.833333333   0.333333333   0.500000000    0   0   0
Y1       0.333333333   0.333333333   0.500000000    0   0   0
Y1       0.833333333   0.833333333   0.500000000    0   0   0
Y1       0.333333333   0.833333333   0.500000000    0   0   0
Y1       0.000017716  -0.000008084   0.611901129
Y1       0.500053782  -0.000131118   0.612867648
Y1      -0.000124808   0.500062008   0.612867419
Y1       0.500054891   0.500076852   0.612866650
H1      -0.000000461   0.000000140   0.686734126

     Writing output data file calc.save
     Check: negative starting charge=   -0.000579
     NEW-OLD atomic charge density approx. for the potential
     Check: negative starting charge=   -0.000578

[...]

     energy   old            =   -1125.4221014782 Ry
     energy   new            =   -1125.4266703257 Ry

     CASE: energy  _new < energy  _old

[...]

     Total force =     0.004109     Total SCF correction =     0.000331

[...]

     number of scf cycles    =   9
     number of bfgs steps    =   8

     energy   old            =   -1125.4313041466 Ry
     energy   new            =   -1125.4314543358 Ry

     CASE: energy  _new < energy  _old

     new trust radius        =       0.0079154501 bohr
     new conv_thr            =       0.0000001000 Ry

ATOMIC_POSITIONS (crystal)
Y1       0.166666667   0.166666667   0.386999750    0   0   0
Y1       0.666666667   0.166666667   0.386999750    0   0   0
Y1       0.166666667   0.666666667   0.386999750    0   0   0
Y1       0.666666667   0.666666667   0.386999750    0   0   0
Y1       0.833333333   0.333333333   0.500000000    0   0   0
Y1       0.333333333   0.333333333   0.500000000    0   0   0
Y1       0.833333333   0.833333333   0.500000000    0   0   0
Y1       0.333333333   0.833333333   0.500000000    0   0   0
Y1      -0.000009988   0.000004056   0.609798111
Y1       0.501353669  -0.002689787   0.610129284
Y1      -0.002693218   0.501348390   0.610129451
Y1       0.501352434   0.501337264   0.610128746
H1      -0.000001725   0.000000475   0.689626046

     Writing output data file calc.save
     Check: negative starting charge=   -0.000580
     NEW-OLD atomic charge density approx. for the potential
     Check: negative starting charge=   -0.000580

[...]

     Self-consistent Calculation

[...]

     Threshold (ethr) on eigenvalues was too large:
     Diagonalizing with lowered threshold

     Davidson diagonalization with overlap
     ethr =  1.07E-08,  avg # of iterations =  9.5

[...]

     total energy              =   -1125.43148159 Ry
     Harris-Foulkes estimate   =   -1125.43148165 Ry
     estimated scf accuracy    <       0.00000048 Ry

     iteration #  9     ecut=    36.75 Ry     beta=0.30
     Davidson diagonalization with overlap
     ethr =  2.83E-10,  avg # of iterations =  3.9

[...]

     negative rho (up, down):  2.244E-05 0.000E+00

     Adding external electric field

     Computed dipole along edir(3) :
        Dipole               -0.3059 Ry au,         -0.7776 Debye
        Dipole field         -0.0005 Ry au

        Potential amp.        0.0474 Ry
        Total length         47.6094 bohr

     End of self-consistent calculation

[...]

          k = 0.0466-0.0538 0.0000 ( 29098 PWs)   bands (ev):

[...]

          k =-0.0699-0.0404 0.0000 ( 29048 PWs)   bands (ev):

   -42.5736 -42.5626 -42.5616 -42.5591 -42.5518 -42.5402 -42.5368 -42.0413
   -41.9645 -41.9617 -41.9428 -41.9415 -22.6258 -22.6166 -22.6068 -22.6056
   -22.6019 -22.5825 -22.5759 -22.5720 -22.5424 -22.5366 -22.5315 -22.4977
   -22.4795 -22.4760 -22.4611 -22.4548 -22.4459 -22.4434 -22.3136 -22.3117
   -22.3107 -22.0936 -22.0675 -22.0314 -22.0187 -21.9731 -21.9141 -21.9063
   -21.8862 -21.8843 -21.8815 -21.8631 -21.8588 -21.7910 -21.7596 -21.7531
    -2.3971  -2.3220  -1.7433  -1.4930  -1.0540  -0.6264  -0.6043  -0.4864
    -0.3808  -0.2012  -0.1449   0.4796   0.4867   0.5113   0.5247   0.6217
     0.6302   0.7111   0.7566   0.8697   0.8937   0.9061   0.9415   1.0475
     1.0857   1.1805   1.2743   1.2821

     the Fermi energy is     0.7720 ev

!    total energy              =   -1125.43148157 Ry
     Harris-Foulkes estimate   =   -1125.43148182 Ry
     estimated scf accuracy    <       0.00000007 Ry

     The total energy is the sum of the following terms:

     one-electron contribution =   -5445.52913137 Ry
     hartree contribution      =    2714.25432734 Ry
     xc contribution           =    -339.64808247 Ry
     ewald contribution        =    1945.61321564 Ry
     electric field correction =       0.00015225 Ry
     smearing contrib. (-TS)   =      -0.12196295 Ry

     convergence has been achieved in   9 iterations

 BEEF-vdW xc energy contributions
           1 :   -296.299431094927
           2 :    266.126016080568
           3 :   -214.128672693842
           4 :    153.041058171962
           5 :   -94.7698982984111
           6 :    46.8425465529369
           7 :   -11.8329878847566
           8 :   -10.9245470598339
           9 :    23.1070072386308
          10 :   -26.1525121376864
          11 :    21.3611229952218
          12 :   -10.7023376283401
          13 :   -2.67494370378222
          14 :    14.8570307182862
          15 :   -22.3824758199402
          16 :    23.5146548557085
          17 :   -18.7592930290276
          18 :    10.3341591132146
          19 :  -0.999009152806821
          20 :   -7.01494539612099
          21 :    12.4622434117711
          22 :   -14.9400612221496
          23 :    14.5285621491940
          24 :   -11.5890247340528
          25 :    6.80205339273516
          26 :   -1.24967779595892
          27 :   -3.71189858031369
          28 :    6.85508591536234
          29 :   -7.56610531527565
          30 :    6.09693307504187
          31 :   -28.3150069646361
          32 :   -19.3563013392118

     Forces acting on atoms (Ry/au):

     negative rho (up, down):  2.244E-05 0.000E+00
     atom    1 type  1   force =     0.00023391    0.00013431    0.00444955
     atom    2 type  1   force =    -0.00023394    0.00013513    0.00444814
     atom    3 type  1   force =     0.00000078   -0.00026962    0.00444967
     atom    4 type  1   force =    -0.00000077    0.00000047    0.00440456
     atom    5 type  1   force =     0.00000000    0.00655748   -0.00525592
     atom    6 type  1   force =     0.00000054   -0.00000027   -0.00135148
     atom    7 type  1   force =    -0.00567900   -0.00327869   -0.00525558
     atom    8 type  1   force =     0.00567939   -0.00327904   -0.00525358
     atom    9 type  1   force =     0.00001453   -0.00000597    0.00090234
     atom   10 type  1   force =    -0.00001305    0.00117335   -0.00018620
     atom   11 type  1   force =     0.00101962   -0.00059110   -0.00018698
     atom   12 type  1   force =    -0.00102122   -0.00057629   -0.00018516
     atom   13 type  2   force =    -0.00000078    0.00000024   -0.00097935

     Total force =     0.002453     Total SCF correction =     0.000644
     SCF correction compared to forces is large: reduce conv_thr to get better values

     entering subroutine stress ...

     negative rho (up, down):  2.244E-05 0.000E+00
          total   stress  (Ry/bohr**3)                   (kbar)     P=   -1.61
  -0.00000910  -0.00000000  -0.00000000         -1.34     -0.00     -0.00
  -0.00000000  -0.00000910   0.00000000         -0.00     -1.34      0.00
  -0.00000000   0.00000000  -0.00001462         -0.00      0.00     -2.15

     bfgs converged in  10 scf cycles and   9 bfgs steps
     (criteria: energy <  1.0E+00, force <  1.9E-03)

     End of BFGS Geometry Optimization

     Final energy   =   -1125.4314815710 Ry
Begin final coordinates

ATOMIC_POSITIONS (crystal)
Y1       0.166666667   0.166666667   0.386999750    0   0   0
Y1       0.666666667   0.166666667   0.386999750    0   0   0
Y1       0.166666667   0.666666667   0.386999750    0   0   0
Y1       0.666666667   0.666666667   0.386999750    0   0   0
Y1       0.833333333   0.333333333   0.500000000    0   0   0
Y1       0.333333333   0.333333333   0.500000000    0   0   0
Y1       0.833333333   0.833333333   0.500000000    0   0   0
Y1       0.333333333   0.833333333   0.500000000    0   0   0
Y1      -0.000009988   0.000004056   0.609798111
Y1       0.501353669  -0.002689787   0.610129284
Y1      -0.002693218   0.501348390   0.610129451
Y1       0.501352434   0.501337264   0.610128746
H1      -0.000001725   0.000000475   0.689626046
End final coordinates

     Writing output data file calc.save

     General routines

     Parallel routines

   This run was terminated on:   1: 7:21   3May2018

   JOB DONE.
Job  /afs/slac/g/suncat/bin/suncat-tsmpirun -x LD_LIBRARY_PATH -wdir /scratch/qe548578_fTbfH pw.x -npool 4 -in pw.inp

TID   HOST_NAME   COMMAND_LINE            STATUS            TERMINATION_TIME
00000 suncat0030 pw.x -npool 4 -i  Done                     05/03/2018 01:07:21
00001 suncat0030 pw.x -npool 4 -i  Done                     05/03/2018 01:07:21
00002 suncat0030 pw.x -npool 4 -i  Done                     05/03/2018 01:07:21
00003 suncat0030 pw.x -npool 4 -i  Done                     05/03/2018 01:07:21
00004 suncat0030 pw.x -npool 4 -i  Done                     05/03/2018 01:07:21
00005 suncat0030 pw.x -npool 4 -i  Done                     05/03/2018 01:07:21
00006 suncat0030 pw.x -npool 4 -i  Done                     05/03/2018 01:07:21
00007 suncat0030 pw.x -npool 4 -i  Done                     05/03/2018 01:07:21
00008 suncat0017 pw.x -npool 4 -i  Done                     05/03/2018 01:07:21
00009 suncat0017 pw.x -npool 4 -i  Done                     05/03/2018 01:07:21
00010 suncat0017 pw.x -npool 4 -i  Done                     05/03/2018 01:07:21
00011 suncat0017 pw.x -npool 4 -i  Done                     05/03/2018 01:07:21
00012 suncat0017 pw.x -npool 4 -i  Done                     05/03/2018 01:07:21
00013 suncat0017 pw.x -npool 4 -i  Done                     05/03/2018 01:07:21
00014 suncat0017 pw.x -npool 4 -i  Done                     05/03/2018 01:07:21
00015 suncat0017 pw.x -npool 4 -i  Done                     05/03/2018 01:07:21
00016 suncat0135 pw.x -npool 4 -i  Done                     05/03/2018 01:07:21
00017 suncat0135 pw.x -npool 4 -i  Done                     05/03/2018 01:07:21
00018 suncat0135 pw.x -npool 4 -i  Done                     05/03/2018 01:07:21
00019 suncat0135 pw.x -npool 4 -i  Done                     05/03/2018 01:07:21
00020 suncat0135 pw.x -npool 4 -i  Done                     05/03/2018 01:07:21
00021 suncat0135 pw.x -npool 4 -i  Done                     05/03/2018 01:07:21
00022 suncat0135 pw.x -npool 4 -i  Done                     05/03/2018 01:07:21
00023 suncat0135 pw.x -npool 4 -i  Done                     05/03/2018 01:07:21
00024 suncat0282 pw.x -npool 4 -i  Done                     05/03/2018 01:07:21
00025 suncat0282 pw.x -npool 4 -i  Done                     05/03/2018 01:07:21
00026 suncat0282 pw.x -npool 4 -i  Done                     05/03/2018 01:07:21
00027 suncat0282 pw.x -npool 4 -i  Done                     05/03/2018 01:07:21
00028 suncat0282 pw.x -npool 4 -i  Done                     05/03/2018 01:07:21
00029 suncat0282 pw.x -npool 4 -i  Done                     05/03/2018 01:07:21
00030 suncat0282 pw.x -npool 4 -i  Done                     05/03/2018 01:07:21
00031 suncat0282 pw.x -npool 4 -i  Done                     05/03/2018 01:07:21