     Program PWSCF v.5.1rc2 (svn rev. 11289) starts on  2May2018 at 15:12:55

     Current dimensions of program PWSCF are:
     Max number of different atomic species (ntypx) = 10
     Max number of k-points (npk) =  40000
     Max angular momentum in pseudopotentials (lmaxx) =  3
     Presently stress not available with electric field

     IMPORTANT: XC functional enforced from input :
     Exchange-correlation      = BEEF-VDW ( 1  4 27 13 2)
     Any further DFT definition will be discarded
     Please, verify this is what you really want

     Subspace diagonalization in iterative solution of the eigenvalue problem:
     a serial algorithm will be used

     bravais-lattice index     =            0
     lattice parameter (alat)  =       1.8897  a.u.
     unit-cell volume          =    6116.8020 (a.u.)^3
     number of atoms/cell      =           13
     number of atomic types    =            2
     number of electrons       =       137.00
     number of Kohn-Sham states=           78
     kinetic-energy cutoff     =      36.7493  Ry
     charge density cutoff     =     367.4932  Ry
     convergence threshold     =      1.0E-05
     mixing beta               =       0.3000
     number of iterations used =           10  plain     mixing
     Exchange-correlation      = BEEF-VDW ( 1  4 27 13 2)
     nstep                     =           50

     celldm(1)=   1.889726  celldm(2)=   0.000000  celldm(3)=   0.000000
     celldm(4)=   0.000000  celldm(5)=   0.000000  celldm(6)=   0.000000

     crystal axes: (cart. coord. in units of alat)
               a(1) = (   6.437465   0.000000   0.000000 )
               a(2) = (   3.218732   5.575008   0.000000 )
               a(3) = (   0.000000   0.000000  25.256168 )

     reciprocal axes: (cart. coord. in units 2 pi/alat)
               b(1) = (  0.155341 -0.089686  0.000000 )
               b(2) = (  0.000000  0.179372  0.000000 )
               b(3) = (  0.000000  0.000000  0.039594 )

     PseudoPot. # 1 for Sc read from file:
     /u/if/mamunm/psp/gbrv1.5pbe/Sc.UPF
     MD5 check sum: db30a2753ba66ef00f23801d899b7e7f
     Pseudo is Ultrasoft + core correction, Zval = 11.0
     Generated by new atomic code, or converted to UPF format
     Using radial grid of  849 points,  6 beta functions with:
                l(1) =   0
                l(2) =   0
                l(3) =   1
                l(4) =   1
                l(5) =   2
                l(6) =   2
     Q(r) pseudized with  6 coefficients,  rinner =    1.200   1.200   1.200
                                                       1.200   1.200

     PseudoPot. # 2 for N  read from file:
     /u/if/mamunm/psp/gbrv1.5pbe/N.UPF
     MD5 check sum: 95339753478d7afb44899504a8723017
     Pseudo is Ultrasoft + core correction, Zval =  5.0
     Generated by new atomic code, or converted to UPF format
     Using radial grid of  729 points,  4 beta functions with:
                l(1) =   0
                l(2) =   0
                l(3) =   1
                l(4) =   1
     Q(r) pseudized with  8 coefficients,  rinner =    0.900   0.900   0.900

     vdW kernel table read from file vdW_kernel_table
     MD5 check sum: 095c7af220d748ca6e76c0b4c6cfb241

     atomic species   valence    mass     pseudopotential
        Sc1           11.00    44.95591     Sc( 1.00)
        N1             5.00    14.00700     N ( 1.00)

     No symmetry found

   Cartesian axes

     site n.     atom                  positions (alat units)
         1           Sc1 tau(   1) = (   1.6093662   0.9291680  10.0000000  )
         2           Sc1 tau(   2) = (   4.8280986   0.9291680  10.0000000  )
         3           Sc1 tau(   3) = (   3.2187324   3.7166720  10.0000000  )
         4           Sc1 tau(   4) = (   6.4374648   3.7166720  10.0000000  )
         5           Sc1 tau(   5) = (   6.4374648   1.8583360  12.6280840  )
         6           Sc1 tau(   6) = (   3.2187324   1.8583360  12.6280840  )
         7           Sc1 tau(   7) = (   8.0468310   4.6458400  12.6280840  )
         8           Sc1 tau(   8) = (   4.8280986   4.6458400  12.6280840  )
         9           Sc1 tau(   9) = (   0.0000000   0.0000000  15.2561680  )
        10           Sc1 tau(  10) = (   3.2187324   0.0000000  15.2561680  )
        11           Sc1 tau(  11) = (   1.6093662   2.7875040  15.2561680  )
        12           Sc1 tau(  12) = (   4.8280986   2.7875040  15.2561680  )
        13           N1  tau(  13) = (   3.2187324   1.8583360  16.8226680  )

     number of k points=    20  Fermi-Dirac smearing, width (Ry)=  0.0110
                       cart. coord. in units 2pi/alat
        k(    1) = (   0.0000000   0.0000000   0.0000000), wk =   0.0555556
        k(    2) = (   0.0000000   0.0298953   0.0000000), wk =   0.1111111
        k(    3) = (   0.0000000   0.0597906   0.0000000), wk =   0.1111111
        k(    4) = (   0.0000000  -0.0896860   0.0000000), wk =   0.0555556
        k(    5) = (   0.0258901  -0.0149477   0.0000000), wk =   0.1111111
        k(    6) = (   0.0258901   0.0149477   0.0000000), wk =   0.1111111
        k(    7) = (   0.0258901   0.0448430   0.0000000), wk =   0.1111111
        k(    8) = (   0.0258901  -0.1046336   0.0000000), wk =   0.1111111
        k(    9) = (   0.0258901  -0.0747383   0.0000000), wk =   0.1111111
        k(   10) = (   0.0258901  -0.0448430   0.0000000), wk =   0.1111111
        k(   11) = (   0.0517802  -0.0298953   0.0000000), wk =   0.1111111
        k(   12) = (   0.0517802   0.0000000   0.0000000), wk =   0.1111111
        k(   13) = (   0.0517802   0.0298953   0.0000000), wk =   0.1111111
        k(   14) = (   0.0517802  -0.1195813   0.0000000), wk =   0.1111111
        k(   15) = (   0.0517802  -0.0896860   0.0000000), wk =   0.1111111
        k(   16) = (   0.0517802  -0.0597906   0.0000000), wk =   0.1111111
        k(   17) = (  -0.0776703   0.0448430   0.0000000), wk =   0.0555556
        k(   18) = (  -0.0776703   0.0747383   0.0000000), wk =   0.1111111
        k(   19) = (  -0.0776703   0.1046336   0.0000000), wk =   0.1111111
        k(   20) = (  -0.0776703  -0.0448430   0.0000000), wk =   0.0555556

     Largest allocated arrays     est. size (Mb)     dimensions
     Largest temporary arrays     est. size (Mb)     dimensions

     Initial potential from superposition of free atoms
     Check: negative starting charge=   -0.000291

     starting charge  136.97116, renormalised to  137.00000

     negative rho (up, down):  2.909E-04 0.000E+00

     *
     * You are using vdW-DF for exchange-correlation in this calculation.
     * Please cite the following three references that made this development
     * possible:
     *
     *   M. Dion, H. Rydberg, E. Schroder, D. C. Langreth, and
     *   B. I. Lundqvist, Phys. Rev. Lett. 92, 246401 (2004).
     *
     *   T. Thonhauser, V. R. Cooper, S. Li, A. Puzder, P. Hyldgaard, and
     *   D. C. Langreth, Phys. Rev. B 76, 125112 (2007).
     *
     *   G. Roman-Perez and J. M. Soler, Phys. Rev. Lett. 103, 096102 (2009).
     *
     *
     * If you are using vdW-DF2, please also cite:
     *
     *   K. Lee, E. D. Murray, L. Kong, B. I. Lundqvist, and
     *   D. C. Langreth, Phys. Rev. B 82, 081101(R) (2010).
     *
     *
     * If you are calculating the stress with vdW-DF, please also cite:
     *
     *   R. Sabatini, E. Kucukbenli, B. Kolb, T. Thonhauser, and
     *   S. de Gironcoli, J. Phys.: Condens. Matter 24, 424209 (2012).
     *

     Carrying out vdW-DF run using the following parameters:

     Nqs =      20    Nr_points =    1024   r_max =   100.000
     q_mesh =
               0.00001000     0.04494208     0.09755937     0.15916263
               0.23128650     0.31572767     0.41458969     0.53033537
               0.66584808     0.82450364     1.01025438     1.22772762
               1.48234092     1.78043706     2.12944203     2.53805004
               3.01644009     3.57652955     4.23227104     5.00000000

     Gradients computed in reciprocal space

     Adding external electric field

     Computed dipole along edir(3) :
        Dipole               -0.0083 Ry au,         -0.0210 Debye
        Dipole field         -0.0000 Ry au

        Potential amp.        0.0016 Ry
        Total length         46.5341 bohr

     Starting wfc are  160 randomized atomic wfcs

     Self-consistent Calculation

     iteration #  1     ecut=    36.75 Ry     beta=0.30
     Davidson diagonalization with overlap
     ethr =  1.00E-02,  avg # of iterations =  2.0

[...]

     total energy              =   -1155.05541780 Ry
     Harris-Foulkes estimate   =   -1158.55389195 Ry
     estimated scf accuracy    <       7.50143215 Ry

[...]

     End of self-consistent calculation

          k = 0.0000 0.0000 0.0000 ( 23031 PWs)   bands (ev):

   -50.0552 -49.9343 -49.8929 -49.8852 -49.8849 -49.7674 -49.7342 -49.7341
   -49.4945 -49.4550 -49.4368 -49.4363 -28.7841 -28.6670 -28.6669 -28.6462
   -28.6462 -28.6423 -28.6164 -28.5635 -28.5540 -28.5537 -28.5308 -28.4163
   -28.4162 -28.3870 -28.3868 -28.3858 -28.3409 -28.3268 -28.3267 -28.3076
   -28.3076 -28.2765 -28.2101 -28.2100 -28.1965 -28.1080 -28.1078 -28.0738
   -28.0310 -28.0178 -28.0174 -27.9703 -27.9701 -27.9661 -27.8918 -27.8917
   -11.5828  -4.6864  -3.5190  -2.2313  -1.6760  -1.6760  -1.5537  -1.4284
    -1.4118  -1.4117  -1.2455  -1.2455  -1.2285  -0.7080  -0.7080  -0.6019
    -0.5114  -0.5114  -0.2464  -0.2140  -0.1287  -0.1287   0.1083   0.5117
     0.6387   0.6427   0.6427   1.0457   1.0457   1.0940

[...]

          k =-0.0777 0.0448 0.0000 ( 23032 PWs)   bands (ev):

[...]

     the Fermi energy is     0.0143 ev

!    total energy              =   -1157.96696496 Ry
     Harris-Foulkes estimate   =   -1157.96696947 Ry
     estimated scf accuracy    <       0.00000797 Ry

     The total energy is the sum of the following terms:

     one-electron contribution =   -7363.42521058 Ry
     hartree contribution      =    3664.18004978 Ry
     xc contribution           =    -171.71140755 Ry
     ewald contribution        =    2713.11601795 Ry
     electric field correction =       0.00060774 Ry
     smearing contrib. (-TS)   =      -0.12702230 Ry

     convergence has been achieved in  18 iterations

 BEEF-vdW xc energy contributions
           1 :   -145.505442737573
           2 :    127.986947842833
           3 :   -100.692026179523
           4 :    74.1613920162281
           5 :   -55.7735979647013
           6 :    46.7968043584138
           7 :   -43.7006384913147
           8 :    41.8769342750565
           9 :   -38.7802435840275
          10 :    34.6517251855334
          11 :   -31.0979474587592
          12 :    29.1616946103490
          13 :   -28.4447491593274
          14 :    27.6924262802724
          15 :   -26.0408585551978
          16 :    23.7345239416695
          17 :   -21.7570960735116
          18 :    20.8387793947997
          19 :   -20.8042673414367
          20 :    20.8050066070094
          21 :   -20.1262840422239
          22 :    18.7854426532494
          23 :   -17.4214059002563
          24 :    16.6561797886486
          25 :   -16.5476471951000
          26 :    16.6006133650776
          27 :   -16.2656907341515
          28 :    15.4329061289345
          29 :   -14.4826461909086
          30 :    13.8912758825053
          31 :   -17.1936465265324
          32 :   -12.3004397342968

     Forces acting on atoms (Ry/au):

     negative rho (up, down):  4.917E-04 0.000E+00
     atom    1 type  1   force =     0.00035623    0.00024135    0.00206202
     atom    2 type  1   force =    -0.00035388    0.00024024    0.00204940
     atom    3 type  1   force =    -0.00000058   -0.00043661    0.00206948
     atom    4 type  1   force =    -0.00000071   -0.00003766    0.00206787
     atom    5 type  1   force =     0.00000789   -0.00413142    0.00304861
     atom    6 type  1   force =    -0.00000775   -0.00003176   -0.01657781
     atom    7 type  1   force =     0.00354360    0.00207860    0.00306663
     atom    8 type  1   force =    -0.00353962    0.00208554    0.00306730
     atom    9 type  1   force =     0.00000160    0.00003867    0.00251944
     atom   10 type  1   force =    -0.00000348    0.06660215    0.05824525
     atom   11 type  1   force =     0.05764483   -0.03332400    0.05823699
     atom   12 type  1   force =    -0.05764795   -0.03331957    0.05824624
     atom   13 type  2   force =    -0.00000018   -0.00000552   -0.17810143

     Total force =     0.234959     Total SCF correction =     0.003773

     entering subroutine stress ...

     negative rho (up, down):  4.917E-04 0.000E+00
          total   stress  (Ry/bohr**3)                   (kbar)     P=   -4.68
  -0.00000115   0.00000000   0.00000000         -0.17      0.00      0.00
   0.00000000  -0.00000116  -0.00000000          0.00     -0.17     -0.00
   0.00000000  -0.00000000  -0.00009303          0.00     -0.00    -13.69

     BFGS Geometry Optimization

     number of scf cycles    =   1
     number of bfgs steps    =   0

     energy   new            =   -1157.9669649604 Ry

     new trust radius        =       0.1781014300 bohr
     new conv_thr            =       0.0000099958 Ry

ATOMIC_POSITIONS (crystal)
Sc1      0.166666667   0.166666667   0.395942884    0   0   0
Sc1      0.666666667   0.166666667   0.395942884    0   0   0
Sc1      0.166666667   0.666666667   0.395942884    0   0   0
Sc1      0.666666667   0.666666667   0.395942884    0   0   0
Sc1      0.833333333   0.333333333   0.500000000    0   0   0
Sc1      0.333333333   0.333333333   0.500000000    0   0   0
Sc1      0.833333333   0.833333333   0.500000000    0   0   0
Sc1      0.333333333   0.833333333   0.500000000    0   0   0
Sc1     -0.000001704   0.000003670   0.604109904
Sc1      0.496838791   0.006321846   0.605277493
Sc1      0.006320112   0.496836901   0.605277320
Sc1      0.496842520   0.496837321   0.605277514
N1       0.333333581   0.333332809   0.662349917

     Writing output data file calc.save
     Check: negative starting charge=   -0.000291
     NEW-OLD atomic charge density approx. for the potential
     Check: negative starting charge=   -0.000287

[...]

     energy   old            =   -1157.9669649604 Ry
     energy   new            =   -1158.0200001539 Ry

     CASE: energy  _new < energy  _old

     WARNING: bfgs curvature condition failed, Theta= 0.879
     new trust radius        =       0.1959115730 bohr
     new conv_thr            =       0.0000001000 Ry

[...]

     iteration #  1     ecut=    36.75 Ry     beta=0.30
     Davidson diagonalization with overlap
     c_bands:  1 eigenvalues not converged
     ethr =  1.00E-06,  avg # of iterations = 16.1

[...]

     Threshold (ethr) on eigenvalues was too large:
     Diagonalizing with lowered threshold

     Davidson diagonalization with overlap
     ethr =  9.48E-08,  avg # of iterations =  2.0

[...]

     Total force =     0.004281     Total SCF correction =     0.000473
     SCF correction compared to forces is large: reduce conv_thr to get better values

[...]

     Total force =     0.004177     Total SCF correction =     0.000275

[...]

     Threshold (ethr) on eigenvalues was too large:
     Diagonalizing with lowered threshold

     Davidson diagonalization with overlap
     ethr =  7.20E-08,  avg # of iterations =  6.7

[...]

     number of scf cycles    =  21
     number of bfgs steps    =  20

     energy   old            =   -1158.1461362540 Ry
     energy   new            =   -1158.1462039645 Ry

     CASE: energy  _new < energy  _old

     new trust radius        =       0.0294116319 bohr
     new conv_thr            =       0.0000001000 Ry

ATOMIC_POSITIONS (crystal)
Sc1      0.166666667   0.166666667   0.395942884    0   0   0
Sc1      0.666666667   0.166666667   0.395942884    0   0   0
Sc1      0.166666667   0.666666667   0.395942884    0   0   0
Sc1      0.666666667   0.666666667   0.395942884    0   0   0
Sc1      0.833333333   0.333333333   0.500000000    0   0   0
Sc1      0.333333333   0.333333333   0.500000000    0   0   0
Sc1      0.833333333   0.833333333   0.500000000    0   0   0
Sc1      0.333333333   0.833333333   0.500000000    0   0   0
Sc1     -0.000004260   0.000005384   0.599141069
Sc1      0.500597557  -0.001190727   0.606351967
Sc1     -0.001192327   0.500592632   0.606352221
Sc1      0.500601367   0.500590493   0.606352253
N1       0.333333175   0.333333482   0.631677850

     Writing output data file calc.save
     Check: negative starting charge=   -0.000286
     NEW-OLD atomic charge density approx. for the potential
     Check: negative starting charge=   -0.000287

[...]

     Self-consistent Calculation

[...]

     total energy              =   -1158.14625644 Ry
     Harris-Foulkes estimate   =   -1158.14625643 Ry
     estimated scf accuracy    <       0.00000040 Ry

     iteration # 11     ecut=    36.75 Ry     beta=0.30
     Davidson diagonalization with overlap
     ethr =  2.91E-10,  avg # of iterations =  7.2

[...]

     negative rho (up, down):  4.826E-04 0.000E+00

     Adding external electric field

     Computed dipole along edir(3) :
        Dipole               -0.0644 Ry au,         -0.1636 Debye
        Dipole field         -0.0001 Ry au

        Potential amp.        0.0123 Ry
        Total length         46.5341 bohr

     End of self-consistent calculation

[...]

          k = 0.0518-0.0598 0.0000 ( 23012 PWs)   bands (ev):

[...]

          k =-0.0777-0.0448 0.0000 ( 23032 PWs)   bands (ev):

   -49.4511 -49.4478 -49.4383 -49.4213 -49.4152 -49.1507 -49.1360 -49.1291
   -49.1195 -48.9776 -48.9659 -48.9555 -28.1868 -28.1251 -28.1205 -28.1149
   -28.1105 -28.0893 -28.0831 -28.0435 -28.0186 -28.0112 -27.9968 -27.9868
   -27.9816 -27.9371 -27.8843 -27.8778 -27.8734 -27.8586 -27.8382 -27.7751
   -27.7437 -27.7338 -27.7306 -27.7135 -27.6942 -27.6858 -27.6445 -27.5686
   -27.5573 -27.5559 -27.5488 -27.5376 -27.5291 -27.5212 -27.4909 -27.4424
   -12.5297  -3.2804  -2.9585  -2.6208  -2.6051  -2.3734  -1.7513  -1.4717
    -0.9907  -0.9087  -0.6673  -0.5016  -0.4238  -0.3413   0.2230   0.2278
     0.2473   0.2855   0.3586   0.3981   0.5507   0.5568   0.5822   0.6368
     0.7526   0.8161   0.8842   0.9443   0.9870   1.0835

     the Fermi energy is     0.4781 ev

!    total energy              =   -1158.14625647 Ry
     Harris-Foulkes estimate   =   -1158.14625657 Ry
     estimated scf accuracy    <       0.00000008 Ry

     The total energy is the sum of the following terms:

     one-electron contribution =   -7490.07716986 Ry
     hartree contribution      =    3729.55584528 Ry
     xc contribution           =    -172.15253286 Ry
     ewald contribution        =    2774.65606497 Ry
     electric field correction =       0.00000851 Ry
     smearing contrib. (-TS)   =      -0.12847252 Ry

     convergence has been achieved in  11 iterations

 BEEF-vdW xc energy contributions
           1 :   -145.949608286421
           2 :    128.534693890578
           3 :   -101.313532841465
           4 :    74.7092325059402
           5 :   -56.0917180108445
           6 :    46.8087731937548
           7 :   -43.4403517057045
           8 :    41.4699895942582
           9 :   -38.3870423563622
          10 :    34.3877510263444
          11 :   -30.9726578312871
          12 :    29.0868572997791
          13 :   -28.3155277991495
          14 :    27.4748656629898
          15 :   -25.7897358637678
          16 :    23.5315365346503
          17 :   -21.6334317326434
          18 :    20.7526671877802
          19 :   -20.6840686736912
          20 :    20.6097383776057
          21 :   -19.8705365215099
          22 :    18.5142320157822
          23 :   -17.1641569293914
          24 :    16.4038881476165
          25 :   -16.2731075163663
          26 :    16.2981716866125
          27 :   -15.9676372667186
          28 :    15.1852582515215
          29 :   -14.3046292719196
          30 :    13.7577404404916
          31 :   -17.2213214453486
          32 :   -12.3453481160527

     Forces acting on atoms (Ry/au):

     negative rho (up, down):  4.826E-04 0.000E+00
     atom    1 type  1   force =     0.00129446    0.00074547    0.00214803
     atom    2 type  1   force =    -0.00129447    0.00074712    0.00214743
     atom    3 type  1   force =     0.00000131   -0.00149360    0.00214906
     atom    4 type  1   force =    -0.00000149    0.00000096    0.00178458
     atom    5 type  1   force =     0.00000126   -0.00114977   -0.00147893
     atom    6 type  1   force =    -0.00000106   -0.00000067   -0.00265901
     atom    7 type  1   force =     0.00099582    0.00057450   -0.00147673
     atom    8 type  1   force =    -0.00099576    0.00057593   -0.00147676
     atom    9 type  1   force =     0.00000524   -0.00001127   -0.00016611
     atom   10 type  1   force =    -0.00000532    0.00065970    0.00004641
     atom   11 type  1   force =     0.00058142   -0.00032734    0.00004845
     atom   12 type  1   force =    -0.00058159   -0.00032126    0.00004724
     atom   13 type  2   force =     0.00000017    0.00000023   -0.00111365

     Total force =     0.001611     Total SCF correction =     0.000410
     SCF correction compared to forces is large: reduce conv_thr to get better values

     entering subroutine stress ...

     negative rho (up, down):  4.826E-04 0.000E+00
          total   stress  (Ry/bohr**3)                   (kbar)     P=    6.48
   0.00007173   0.00000000  -0.00000000         10.55      0.00     -0.00
   0.00000000   0.00007173   0.00000000          0.00     10.55      0.00
  -0.00000000   0.00000000  -0.00001137         -0.00      0.00     -1.67

     bfgs converged in  22 scf cycles and  21 bfgs steps
     (criteria: energy <  1.0E+00, force <  1.9E-03)

     End of BFGS Geometry Optimization

     Final energy   =   -1158.1462564690 Ry
Begin final coordinates

ATOMIC_POSITIONS (crystal)
Sc1      0.166666667   0.166666667   0.395942884    0   0   0
Sc1      0.666666667   0.166666667   0.395942884    0   0   0
Sc1      0.166666667   0.666666667   0.395942884    0   0   0
Sc1      0.666666667   0.666666667   0.395942884    0   0   0
Sc1      0.833333333   0.333333333   0.500000000    0   0   0
Sc1      0.333333333   0.333333333   0.500000000    0   0   0
Sc1      0.833333333   0.833333333   0.500000000    0   0   0
Sc1      0.333333333   0.833333333   0.500000000    0   0   0
Sc1     -0.000004260   0.000005384   0.599141069
Sc1      0.500597557  -0.001190727   0.606351967
Sc1     -0.001192327   0.500592632   0.606352221
Sc1      0.500601367   0.500590493   0.606352253
N1       0.333333175   0.333333482   0.631677850
End final coordinates

     Writing output data file calc.save

     General routines

     Parallel routines

   This run was terminated on:  18:28:14   2May2018

   JOB DONE.
Job  /afs/slac/g/suncat/bin/suncat-tsmpirun -x LD_LIBRARY_PATH -wdir /scratch/qe777394_5Ra15 pw.x -npool 4 -in pw.inp

TID   HOST_NAME   COMMAND_LINE            STATUS            TERMINATION_TIME
00000 suncat0144 pw.x -npool 4 -i  Done                     05/02/2018 18:28:14
00001 suncat0144 pw.x -npool 4 -i  Done                     05/02/2018 18:28:14
00002 suncat0144 pw.x -npool 4 -i  Done                     05/02/2018 18:28:14
00003 suncat0144 pw.x -npool 4 -i  Done                     05/02/2018 18:28:14
00004 suncat0144 pw.x -npool 4 -i  Done                     05/02/2018 18:28:14
00005 suncat0144 pw.x -npool 4 -i  Done                     05/02/2018 18:28:14
00006 suncat0144 pw.x -npool 4 -i  Done                     05/02/2018 18:28:14
00007 suncat0144 pw.x -npool 4 -i  Done                     05/02/2018 18:28:14
00008 suncat0128 pw.x -npool 4 -i  Done                     05/02/2018 18:28:14
00009 suncat0128 pw.x -npool 4 -i  Done                     05/02/2018 18:28:14
00010 suncat0128 pw.x -npool 4 -i  Done                     05/02/2018 18:28:14
00011 suncat0128 pw.x -npool 4 -i  Done                     05/02/2018 18:28:14
00012 suncat0128 pw.x -npool 4 -i  Done                     05/02/2018 18:28:14
00013 suncat0128 pw.x -npool 4 -i  Done                     05/02/2018 18:28:14
00014 suncat0128 pw.x -npool 4 -i  Done                     05/02/2018 18:28:14
00015 suncat0128 pw.x -npool 4 -i  Done                     05/02/2018 18:28:14
00016 suncat0244 pw.x -npool 4 -i  Done                     05/02/2018 18:28:14
00017 suncat0244 pw.x -npool 4 -i  Done                     05/02/2018 18:28:14
00018 suncat0244 pw.x -npool 4 -i  Done                     05/02/2018 18:28:14
00019 suncat0244 pw.x -npool 4 -i  Done                     05/02/2018 18:28:14
00020 suncat0244 pw.x -npool 4 -i  Done                     05/02/2018 18:28:14
00021 suncat0244 pw.x -npool 4 -i  Done                     05/02/2018 18:28:14
00022 suncat0244 pw.x -npool 4 -i  Done                     05/02/2018 18:28:14
00023 suncat0244 pw.x -npool 4 -i  Done                     05/02/2018 18:28:14
00024 suncat0243 pw.x -npool 4 -i  Done                     05/02/2018 18:28:14
00025 suncat0243 pw.x -npool 4 -i  Done                     05/02/2018 18:28:14
00026 suncat0243 pw.x -npool 4 -i  Done                     05/02/2018 18:28:14
00027 suncat0243 pw.x -npool 4 -i  Done                     05/02/2018 18:28:14
00028 suncat0243 pw.x -npool 4 -i  Done                     05/02/2018 18:28:14
00029 suncat0243 pw.x -npool 4 -i  Done                     05/02/2018 18:28:14
00030 suncat0243 pw.x -npool 4 -i  Done                     05/02/2018 18:28:14
00031 suncat0243 pw.x -npool 4 -i  Done                     05/02/2018 18:28:14