     Program PWSCF v.5.1rc2 (svn rev. 11289) starts on  4May2018 at 10:58: 4

     Current dimensions of program PWSCF are:
     Max number of different atomic species (ntypx) = 10
     Max number of k-points (npk) =  40000
     Max angular momentum in pseudopotentials (lmaxx) =  3
     Presently stress not available with electric field

     IMPORTANT: XC functional enforced from input :
     Exchange-correlation      = BEEF-VDW ( 1  4 27 13 2)
     Any further DFT definition will be discarded
     Please, verify this is what you really want

     Subspace diagonalization in iterative solution of the eigenvalue problem:
     a serial algorithm will be used

     bravais-lattice index     =            0
     lattice parameter (alat)  =       1.8897  a.u.
     unit-cell volume          =    5174.6160 (a.u.)^3
     number of atoms/cell      =           13
     number of atomic types    =            2
     number of electrons       =       234.00
     number of Kohn-Sham states=          127
     kinetic-energy cutoff     =      36.7493  Ry
     charge density cutoff     =     367.4932  Ry
     convergence threshold     =      1.0E-05
     mixing beta               =       0.3000
     number of iterations used =           10  plain     mixing
     Exchange-correlation      = BEEF-VDW ( 1  4 27 13 2)
     nstep                     =           50

     celldm(1)=   1.889726  celldm(2)=   0.000000  celldm(3)=   0.000000
     celldm(4)=   0.000000  celldm(5)=   0.000000  celldm(6)=   0.000000

     crystal axes: (cart. coord. in units of alat)
               a(1) = (   5.966546   0.000000   0.000000 )
               a(2) = (   2.983273   5.167181   0.000000 )
               a(3) = (   0.000000   0.000000  24.871665 )

     reciprocal axes: (cart. coord. in units 2 pi/alat)
               b(1) = (  0.167601 -0.096765  0.000000 )
               b(2) = (  0.000000  0.193529  0.000000 )
               b(3) = (  0.000000  0.000000  0.040206 )

     PseudoPot. # 1 for Ag read from file:
     /u/if/mamunm/psp/gbrv1.5pbe/Ag.UPF
     MD5 check sum: d66d668201baa78d5eb5b04ef7011058
     Pseudo is Ultrasoft + core correction, Zval = 19.0
     Generated by new atomic code, or converted to UPF format
     Using radial grid of  887 points,  6 beta functions with:
                l(1) =   0
                l(2) =   0
                l(3) =   1
                l(4) =   1
                l(5) =   2
                l(6) =   2
     Q(r) pseudized with  6 coefficients,  rinner =    1.300   1.300   1.300
                                                       1.300   1.300

     PseudoPot. # 2 for O  read from file:
     /u/if/mamunm/psp/gbrv1.5pbe/O.UPF
     MD5 check sum: 734c27235a0248c51dbae37a1fbe46ec
     Pseudo is Ultrasoft + core correction, Zval =  6.0
     Generated by new atomic code, or converted to UPF format
     Using radial grid of  737 points,  5 beta functions with:
                l(1) =   0
                l(2) =   0
                l(3) =   1
                l(4) =   1
                l(5) =   2
     Q(r) pseudized with  8 coefficients,  rinner =    0.900   0.900   0.900
                                                       0.900   0.900

     vdW kernel table read from file vdW_kernel_table
     MD5 check sum: 095c7af220d748ca6e76c0b4c6cfb241

     atomic species   valence    mass     pseudopotential
        Ag1           19.00   107.86820     Ag( 1.00)
        O1             6.00    15.99900     O ( 1.00)

     No symmetry found

   Cartesian axes

     site n.     atom                  positions (alat units)
         1           Ag1 tau(   1) = (   1.4916366   0.8611968  10.0000000  )
         2           Ag1 tau(   2) = (   4.4749098   0.8611968  10.0000000  )
         3           Ag1 tau(   3) = (   2.9832732   3.4447871  10.0000000  )
         4           Ag1 tau(   4) = (   5.9665464   3.4447871  10.0000000  )
         5           Ag1 tau(   5) = (   5.9665464   1.7223936  12.4358324  )
         6           Ag1 tau(   6) = (   2.9832732   1.7223936  12.4358324  )
         7           Ag1 tau(   7) = (   7.4581830   4.3059839  12.4358324  )
         8           Ag1 tau(   8) = (   4.4749098   4.3059839  12.4358324  )
         9           Ag1 tau(   9) = (   0.0000000   0.0000000  14.8716647  )
        10           Ag1 tau(  10) = (   2.9832732   0.0000000  14.8716647  )
        11           Ag1 tau(  11) = (   1.4916366   2.5835904  14.8716647  )
        12           Ag1 tau(  12) = (   4.4749098   2.5835904  14.8716647  )
        13           O1  tau(  13) = (   0.0000000   0.0000000  16.6651647  )

     number of k points=    20  Fermi-Dirac smearing, width (Ry)=  0.0110
                       cart. coord. in units 2pi/alat
        k(    1) = (   0.0000000   0.0000000   0.0000000), wk =   0.0555556
        k(    2) = (   0.0000000   0.0322549   0.0000000), wk =   0.1111111
        k(    3) = (   0.0000000   0.0645097   0.0000000), wk =   0.1111111
        k(    4) = (   0.0000000  -0.0967646   0.0000000), wk =   0.0555556
        k(    5) = (   0.0279335  -0.0161274   0.0000000), wk =   0.1111111
        k(    6) = (   0.0279335   0.0161274   0.0000000), wk =   0.1111111
        k(    7) = (   0.0279335   0.0483823   0.0000000), wk =   0.1111111
        k(    8) = (   0.0279335  -0.1128920   0.0000000), wk =   0.1111111
        k(    9) = (   0.0279335  -0.0806371   0.0000000), wk =   0.1111111
        k(   10) = (   0.0279335  -0.0483823   0.0000000), wk =   0.1111111
        k(   11) = (   0.0558670  -0.0322549   0.0000000), wk =   0.1111111
        k(   12) = (   0.0558670   0.0000000   0.0000000), wk =   0.1111111
        k(   13) = (   0.0558670   0.0322549   0.0000000), wk =   0.1111111
        k(   14) = (   0.0558670  -0.1290194   0.0000000), wk =   0.1111111
        k(   15) = (   0.0558670  -0.0967646   0.0000000), wk =   0.1111111
        k(   16) = (   0.0558670  -0.0645097   0.0000000), wk =   0.1111111
        k(   17) = (  -0.0838006   0.0483823   0.0000000), wk =   0.0555556
        k(   18) = (  -0.0838006   0.0806371   0.0000000), wk =   0.1111111
        k(   19) = (  -0.0838006   0.1128920   0.0000000), wk =   0.1111111
        k(   20) = (  -0.0838006  -0.0483823   0.0000000), wk =   0.0555556

     Largest allocated arrays     est. size (Mb)     dimensions
     Largest temporary arrays     est. size (Mb)     dimensions

     Initial potential from superposition of free atoms
     Check: negative starting charge=   -0.002275

     starting charge  227.99943, renormalised to  234.00000

     negative rho (up, down):  2.335E-03 0.000E+00

     *
     * You are using vdW-DF for exchange-correlation in this calculation.
     * Please cite the following three references that made this development
     * possible:
     *
     *   M. Dion, H. Rydberg, E. Schroder, D. C. Langreth, and
     *   B. I. Lundqvist, Phys. Rev. Lett. 92, 246401 (2004).
     *
     *   T. Thonhauser, V. R. Cooper, S. Li, A. Puzder, P. Hyldgaard, and
     *   D. C. Langreth, Phys. Rev. B 76, 125112 (2007).
     *
     *   G. Roman-Perez and J. M. Soler, Phys. Rev. Lett. 103, 096102 (2009).
     *
     *
     * If you are using vdW-DF2, please also cite:
     *
     *   K. Lee, E. D. Murray, L. Kong, B. I. Lundqvist, and
     *   D. C. Langreth, Phys. Rev. B 82, 081101(R) (2010).
     *
     *
     * If you are calculating the stress with vdW-DF, please also cite:
     *
     *   R. Sabatini, E. Kucukbenli, B. Kolb, T. Thonhauser, and
     *   S. de Gironcoli, J. Phys.: Condens. Matter 24, 424209 (2012).
     *

     Carrying out vdW-DF run using the following parameters:

     Nqs =      20    Nr_points =    1024   r_max =   100.000
     q_mesh =
               0.00001000     0.04494208     0.09755937     0.15916263
               0.23128650     0.31572767     0.41458969     0.53033537
               0.66584808     0.82450364     1.01025438     1.22772762
               1.48234092     1.78043706     2.12944203     2.53805004
               3.01644009     3.57652955     4.23227104     5.00000000

     Gradients computed in reciprocal space

     Adding external electric field

     Computed dipole along edir(3) :
        Dipole               -1.2620 Ry au,         -3.2078 Debye
        Dipole field         -0.0031 Ry au

        Potential amp.        0.2809 Ry
        Total length         45.8256 bohr

     Starting wfc are  160 randomized atomic wfcs

     Self-consistent Calculation

     iteration #  1     ecut=    36.75 Ry     beta=0.30
     Davidson diagonalization with overlap
     ethr =  1.00E-02,  avg # of iterations =  5.6

[...]

     total energy              =   -3579.99982901 Ry
     Harris-Foulkes estimate   =   -3595.50324217 Ry
     estimated scf accuracy    <      33.30361293 Ry

[...]

     End of self-consistent calculation

          k = 0.0000 0.0000 0.0000 ( 19435 PWs)   bands (ev):

   -91.9147 -91.5048 -91.4942 -91.4899 -91.4899 -91.3278 -91.3031 -91.2984
   -91.2980 -91.2310 -91.2258 -91.2258 -55.5976 -55.2972 -55.2972 -55.0377
   -55.0377 -55.0308 -55.0061 -54.9893 -54.9827 -54.9826 -54.9741 -54.9741
   -54.9724 -54.9518 -54.9518 -54.8589 -54.8587 -54.8451 -54.8082 -54.8041
   -54.7967 -54.7967 -54.7887 -54.7792 -54.7742 -54.7738 -54.7700 -54.7699
   -54.7536 -54.7536 -54.7140 -54.7140 -54.7058 -54.7032 -54.6999 -54.6999
   -16.2062  -5.9157  -5.4261  -5.2659  -5.2659  -5.2268  -5.1395  -5.1214
    -5.1214  -5.0877  -5.0877  -5.0564  -4.9952  -4.8667  -4.8666  -4.8534
    -4.5647  -4.5647  -4.4537  -4.2177  -4.1742  -4.1742  -4.1052  -4.0579
    -4.0579  -3.9323  -3.9323  -3.8912  -3.8911  -3.8459  -3.8399  -3.8156
    -3.8156  -3.4544  -3.4544  -3.2811  -3.2809  -3.2478  -3.2242  -3.2242
    -3.1650  -3.0573  -3.0573  -3.0067  -2.9453  -2.9453  -2.8203  -2.7884
    -2.7883  -2.7142  -2.6858  -2.6857  -2.6272  -2.6271  -2.5892  -2.5892
    -2.5731  -2.4801  -2.4801  -2.4067  -2.4066  -2.4012  -2.3552  -0.8066
    -0.4155  -0.4155   0.4923   1.0532   1.1651   1.1651   1.8017   1.8388
     1.9634   1.9634   2.2267   2.6291   2.6291   4.2704   4.3144

[...]

          k =-0.0838 0.0484 0.0000 ( 19500 PWs)   bands (ev):

[...]

     the Fermi energy is     0.5433 ev

!    total energy              =   -3592.14315772 Ry
     Harris-Foulkes estimate   =   -3592.14316640 Ry
     estimated scf accuracy    <       0.00000090 Ry

     The total energy is the sum of the following terms:

     one-electron contribution =  -26181.98743669 Ry
     hartree contribution      =   13079.77543058 Ry
     xc contribution           =    -368.42559164 Ry
     ewald contribution        =    9878.52448629 Ry
     electric field correction =       0.00110027 Ry
     smearing contrib. (-TS)   =      -0.03114653 Ry

     convergence has been achieved in  16 iterations

 BEEF-vdW xc energy contributions
           1 :   -319.144104696674
           2 :    288.671876352797
           3 :   -237.984716874619
           4 :    182.490415115196
           5 :   -136.004779752811
           6 :    105.840327665180
           7 :   -91.5691403614087
           8 :    87.3048377221117
           9 :   -85.7971575588678
          10 :    82.0539733367384
          11 :   -74.8660520852208
          12 :    65.9740507046018
          13 :   -57.9380824979860
          14 :    52.2493654403507
          15 :   -48.7096866688011
          16 :    46.0774121878721
          17 :   -43.2172391171466
          18 :    39.8593398594386
          19 :   -36.5459869480155
          20 :    33.9810304807658
          21 :   -32.3736766127926
          22 :    31.2650111456472
          23 :   -29.9072330211550
          24 :    27.8516754198271
          25 :   -25.2931744647855
          26 :    22.9293729017770
          27 :   -21.4582685132988
          28 :    21.0867292717228
          29 :   -21.3974806723999
          30 :    21.6474598197054
          31 :   -31.8854159695298
          32 :   -23.1309561401868

     Forces acting on atoms (Ry/au):

     negative rho (up, down):  2.253E-03 0.000E+00
     atom    1 type  1   force =    -0.00082202   -0.00047152   -0.00038075
     atom    2 type  1   force =     0.00081781   -0.00047033   -0.00037123
     atom    3 type  1   force =    -0.00000140    0.00094807   -0.00038569
     atom    4 type  1   force =     0.00000130   -0.00000326    0.00073846
     atom    5 type  1   force =     0.00002548   -0.00183643    0.00148807
     atom    6 type  1   force =    -0.00002514    0.00001056    0.00186420
     atom    7 type  1   force =     0.00160012    0.00089816    0.00149331
     atom    8 type  1   force =    -0.00159888    0.00092684    0.00147264
     atom    9 type  1   force =     0.00000223   -0.00000171   -0.15953161
     atom   10 type  1   force =    -0.00000055    0.00013489    0.00026648
     atom   11 type  1   force =     0.00011856   -0.00006807    0.00026320
     atom   12 type  1   force =    -0.00011754   -0.00006690    0.00026520
     atom   13 type  2   force =     0.00000004   -0.00000029    0.15281773

     Total force =     0.220916     Total SCF correction =     0.001690

     entering subroutine stress ...

     negative rho (up, down):  2.253E-03 0.000E+00
          total   stress  (Ry/bohr**3)                   (kbar)     P=   -1.40
  -0.00005370  -0.00000000  -0.00000000         -7.90     -0.00     -0.00
  -0.00000000  -0.00005370   0.00000000         -0.00     -7.90      0.00
  -0.00000000   0.00000000   0.00007890         -0.00      0.00     11.61

     BFGS Geometry Optimization

     number of scf cycles    =   1
     number of bfgs steps    =   0

     energy   new            =   -3592.1431577223 Ry

     new trust radius        =       0.1595316120 bohr
     new conv_thr            =       0.0000099958 Ry

ATOMIC_POSITIONS (crystal)
Ag1      0.166666667   0.166666667   0.402063960    0   0   0
Ag1      0.666666667   0.166666667   0.402063960    0   0   0
Ag1      0.166666667   0.666666667   0.402063960    0   0   0
Ag1      0.666666667   0.666666667   0.402063960    0   0   0
Ag1      0.833333333   0.333333333   0.500000000    0   0   0
Ag1      0.333333333   0.333333333   0.500000000    0   0   0
Ag1      0.833333333   0.833333333   0.500000000    0   0   0
Ag1      0.333333333   0.833333333   0.500000000    0   0   0
Ag1      0.000000286  -0.000000176   0.594541796
Ag1      0.499993044   0.000013815   0.597941710
Ag1      0.000014001   0.499993028   0.597941640
Ag1      0.499993001   0.499993149   0.597941683
O1       0.000000019  -0.000000029   0.673297608

     Writing output data file calc.save
     Check: negative starting charge=   -0.002275
     NEW-OLD atomic charge density approx. for the potential
     Check: negative starting charge=   -0.002273

[...]

     Total force =     0.017684     Total SCF correction =     0.007263
     SCF correction compared to forces is large: reduce conv_thr to get better values

[...]

     energy   old            =   -3592.1431577223 Ry
     energy   new            =   -3592.1663115033 Ry

     CASE: energy  _new < energy  _old

[...]

     Threshold (ethr) on eigenvalues was too large:
     Diagonalizing with lowered threshold

     Davidson diagonalization with overlap
     ethr =  3.12E-08,  avg # of iterations =  1.0

[...]

     Total force =     0.007966     Total SCF correction =     0.000489

[...]

     number of scf cycles    =   9
     number of bfgs steps    =   8

     energy   old            =   -3592.1672115817 Ry
     energy   new            =   -3592.1672658666 Ry

     CASE: energy  _new < energy  _old

     new trust radius        =       0.0044332358 bohr
     new conv_thr            =       0.0000001000 Ry

ATOMIC_POSITIONS (crystal)
Ag1      0.166666667   0.166666667   0.402063960    0   0   0
Ag1      0.666666667   0.166666667   0.402063960    0   0   0
Ag1      0.166666667   0.666666667   0.402063960    0   0   0
Ag1      0.666666667   0.666666667   0.402063960    0   0   0
Ag1      0.833333333   0.333333333   0.500000000    0   0   0
Ag1      0.333333333   0.333333333   0.500000000    0   0   0
Ag1      0.833333333   0.833333333   0.500000000    0   0   0
Ag1      0.333333333   0.833333333   0.500000000    0   0   0
Ag1     -0.000000066   0.000000065   0.591693805
Ag1      0.499847241   0.000305853   0.599450586
Ag1      0.000305862   0.499847039   0.599450585
Ag1      0.499847280   0.499846884   0.599450586
O1      -0.000000061   0.000000006   0.671340524

     Writing output data file calc.save
     Check: negative starting charge=   -0.002266
     NEW-OLD atomic charge density approx. for the potential
     Check: negative starting charge=   -0.002268

[...]

     Self-consistent Calculation

[...]

     Threshold (ethr) on eigenvalues was too large:
     Diagonalizing with lowered threshold

     Davidson diagonalization with overlap
     ethr =  1.92E-08,  avg # of iterations =  1.1

[...]

     total energy              =   -3592.16727874 Ry
     Harris-Foulkes estimate   =   -3592.16727969 Ry
     estimated scf accuracy    <       0.00000027 Ry

     iteration #  6     ecut=    36.75 Ry     beta=0.30
     Davidson diagonalization with overlap
     ethr =  1.13E-10,  avg # of iterations =  2.0

[...]

     negative rho (up, down):  2.227E-03 0.000E+00

     Adding external electric field

     Computed dipole along edir(3) :
        Dipole               -0.7269 Ry au,         -1.8476 Debye
        Dipole field         -0.0018 Ry au

        Potential amp.        0.1618 Ry
        Total length         45.8256 bohr

     End of self-consistent calculation

[...]

          k = 0.0559-0.0645 0.0000 ( 19479 PWs)   bands (ev):

[...]

          k =-0.0838-0.0484 0.0000 ( 19500 PWs)   bands (ev):

   -91.5995 -91.5782 -91.5762 -91.5738 -91.5730 -91.4127 -91.3823 -91.3805
   -91.3789 -91.2608 -91.2590 -91.2573 -55.1553 -55.1017 -55.0985 -55.0819
   -55.0797 -55.0754 -55.0740 -55.0724 -55.0678 -55.0647 -55.0624 -55.0450
   -55.0433 -55.0373 -55.0360 -54.9313 -54.9148 -54.9119 -54.8931 -54.8882
   -54.8841 -54.8835 -54.8699 -54.8578 -54.8567 -54.8560 -54.8543 -54.8201
   -54.7966 -54.7786 -54.7582 -54.7491 -54.7394 -54.7334 -54.7314 -54.7294
   -15.4852  -5.1168  -5.0391  -4.9336  -4.8851  -4.8695  -4.8662  -4.8081
    -4.7426  -4.7276  -4.6587  -4.6337  -4.5993  -4.5442  -4.5095  -4.4752
    -4.4164  -4.3281  -4.2265  -4.2040  -4.1844  -4.1450  -4.1427  -4.1164
    -4.0589  -3.9888  -3.9443  -3.8404  -3.7979  -3.7848  -3.7683  -3.7538
    -3.7120  -3.6318  -3.5906  -3.5854  -3.5405  -3.5385  -3.5261  -3.5005
    -3.4894  -3.4081  -3.3536  -3.3438  -3.3379  -3.2990  -3.2572  -3.2233
    -3.2228  -3.2153  -3.1630  -3.1472  -3.1361  -3.0536  -3.0322  -3.0135
    -2.9754  -2.8330  -2.7323  -2.7250  -2.7025  -2.6173  -2.5753  -1.8450
    -1.8164  -0.3732  -0.2512  -0.0523   0.2160   0.4229   1.0545   1.2797
     1.8327   2.0433   3.5702   3.6098   4.0308   4.6229   5.6237

     the Fermi energy is     0.4592 ev

!    total energy              =   -3592.16727876 Ry
     Harris-Foulkes estimate   =   -3592.16727844 Ry
     estimated scf accuracy    <       0.00000003 Ry

     The total energy is the sum of the following terms:

     one-electron contribution =  -26193.40980734 Ry
     hartree contribution      =   13085.23949736 Ry
     xc contribution           =    -368.37083781 Ry
     ewald contribution        =    9884.40512007 Ry
     electric field correction =       0.00128318 Ry
     smearing contrib. (-TS)   =      -0.03253422 Ry

     convergence has been achieved in   6 iterations

 BEEF-vdW xc energy contributions
           1 :   -319.078190777942
           2 :    288.562561925583
           3 :   -237.826151605584
           4 :    182.323478439981
           5 :   -135.888081178910
           6 :    105.808409520522
           7 :   -91.6130868327697
           8 :    87.3847137591232
           9 :   -85.8707701871940
          10 :    82.0995297214336
          11 :   -74.8860233272379
          12 :    65.9833541764263
          13 :   -57.9483669938642
          14 :    52.2607347688136
          15 :   -48.7147658718844
          16 :    46.0718682375432
          17 :   -43.2054044400691
          18 :    39.8510407062411
          19 :   -36.5491364345229
          20 :    33.9965295270994
          21 :   -32.3965915881669
          22 :    31.2901738442379
          23 :   -29.9345339645303
          24 :    27.8869663310721
          25 :   -25.3423889554509
          26 :    22.9897046752625
          27 :   -21.5142854551062
          28 :    21.1148669694470
          29 :   -21.3762160354958
          30 :    21.5675151200658
          31 :   -31.8811244857064
          32 :   -23.1178701702849

     Forces acting on atoms (Ry/au):

     negative rho (up, down):  2.227E-03 0.000E+00
     atom    1 type  1   force =    -0.00080935   -0.00046728   -0.00028977
     atom    2 type  1   force =     0.00080935   -0.00046728   -0.00028977
     atom    3 type  1   force =     0.00000000    0.00093455   -0.00028977
     atom    4 type  1   force =    -0.00000000   -0.00000000    0.00139256
     atom    5 type  1   force =     0.00000001    0.00324378   -0.00177355
     atom    6 type  1   force =    -0.00000000    0.00000000    0.00530582
     atom    7 type  1   force =    -0.00280919   -0.00162190   -0.00177353
     atom    8 type  1   force =     0.00280920   -0.00162189   -0.00177346
     atom    9 type  1   force =     0.00000016   -0.00000013    0.00029057
     atom   10 type  1   force =    -0.00000015   -0.00012628   -0.00018941
     atom   11 type  1   force =    -0.00010924    0.00006312   -0.00018941
     atom   12 type  1   force =     0.00010924    0.00006330   -0.00018941
     atom   13 type  2   force =    -0.00000002    0.00000000   -0.00023087

     Total force =     0.000541     Total SCF correction =     0.000589
     SCF correction compared to forces is large: reduce conv_thr to get better values

     entering subroutine stress ...

     negative rho (up, down):  2.227E-03 0.000E+00
          total   stress  (Ry/bohr**3)                   (kbar)     P=   -7.30
  -0.00006325  -0.00000000  -0.00000000         -9.30     -0.00     -0.00
  -0.00000000  -0.00006325   0.00000000         -0.00     -9.30      0.00
  -0.00000000   0.00000000  -0.00002241         -0.00      0.00     -3.30

     bfgs converged in  10 scf cycles and   9 bfgs steps
     (criteria: energy <  1.0E+00, force <  1.9E-03)

     End of BFGS Geometry Optimization

     Final energy   =   -3592.1672787608 Ry
Begin final coordinates

ATOMIC_POSITIONS (crystal)
Ag1      0.166666667   0.166666667   0.402063960    0   0   0
Ag1      0.666666667   0.166666667   0.402063960    0   0   0
Ag1      0.166666667   0.666666667   0.402063960    0   0   0
Ag1      0.666666667   0.666666667   0.402063960    0   0   0
Ag1      0.833333333   0.333333333   0.500000000    0   0   0
Ag1      0.333333333   0.333333333   0.500000000    0   0   0
Ag1      0.833333333   0.833333333   0.500000000    0   0   0
Ag1      0.333333333   0.833333333   0.500000000    0   0   0
Ag1     -0.000000066   0.000000065   0.591693805
Ag1      0.499847241   0.000305853   0.599450586
Ag1      0.000305862   0.499847039   0.599450585
Ag1      0.499847280   0.499846884   0.599450586
O1      -0.000000061   0.000000006   0.671340524
End final coordinates

     Writing output data file calc.save

     General routines

     Parallel routines

   This run was terminated on:  11:39:19   4May2018

   JOB DONE.
Job  /afs/slac/g/suncat/bin/suncat-tsmpirun -x LD_LIBRARY_PATH -wdir /scratch/qe30534_gGPQK pw.x -npool 3 -in pw.inp

TID   HOST_NAME   COMMAND_LINE            STATUS            TERMINATION_TIME
00000 suncat2011 pw.x -npool 3 -i  Done                     05/04/2018 11:39:19
00001 suncat2011 pw.x -npool 3 -i  Done                     05/04/2018 11:39:19
00002 suncat2011 pw.x -npool 3 -i  Done                     05/04/2018 11:39:19
00003 suncat2011 pw.x -npool 3 -i  Done                     05/04/2018 11:39:19
00004 suncat2072 pw.x -npool 3 -i  Done                     05/04/2018 11:39:19
00005 suncat2072 pw.x -npool 3 -i  Done                     05/04/2018 11:39:19
00006 suncat2072 pw.x -npool 3 -i  Done                     05/04/2018 11:39:19
00007 suncat2072 pw.x -npool 3 -i  Done                     05/04/2018 11:39:19
00008 suncat2072 pw.x -npool 3 -i  Done                     05/04/2018 11:39:19
00009 suncat2072 pw.x -npool 3 -i  Done                     05/04/2018 11:39:19
00010 suncat2072 pw.x -npool 3 -i  Done                     05/04/2018 11:39:19
00011 suncat2072 pw.x -npool 3 -i  Done                     05/04/2018 11:39:19
00012 suncat2072 pw.x -npool 3 -i  Done                     05/04/2018 11:39:19
00013 suncat2072 pw.x -npool 3 -i  Done                     05/04/2018 11:39:19
00014 suncat2072 pw.x -npool 3 -i  Done                     05/04/2018 11:39:19
00015 suncat2072 pw.x -npool 3 -i  Done                     05/04/2018 11:39:19
00016 suncat2072 pw.x -npool 3 -i  Done                     05/04/2018 11:39:19
00017 suncat2072 pw.x -npool 3 -i  Done                     05/04/2018 11:39:19
00018 suncat2072 pw.x -npool 3 -i  Done                     05/04/2018 11:39:19
00019 suncat2072 pw.x -npool 3 -i  Done                     05/04/2018 11:39:19
00020 suncat2004 pw.x -npool 3 -i  Done                     05/04/2018 11:39:19
00021 suncat2004 pw.x -npool 3 -i  Done                     05/04/2018 11:39:19
00022 suncat2004 pw.x -npool 3 -i  Done                     05/04/2018 11:39:19
00023 suncat2004 pw.x -npool 3 -i  Done                     05/04/2018 11:39:19
00024 suncat2004 pw.x -npool 3 -i  Done                     05/04/2018 11:39:19
00025 suncat2004 pw.x -npool 3 -i  Done                     05/04/2018 11:39:19
00026 suncat2004 pw.x -npool 3 -i  Done                     05/04/2018 11:39:19
00027 suncat2004 pw.x -npool 3 -i  Done                     05/04/2018 11:39:19
00028 suncat2004 pw.x -npool 3 -i  Done                     05/04/2018 11:39:19
00029 suncat2004 pw.x -npool 3 -i  Done                     05/04/2018 11:39:19
00030 suncat2004 pw.x -npool 3 -i  Done                     05/04/2018 11:39:19
00031 suncat2004 pw.x -npool 3 -i  Done                     05/04/2018 11:39:19
00032 suncat2004 pw.x -npool 3 -i  Done                     05/04/2018 11:39:19
00033 suncat2004 pw.x -npool 3 -i  Done                     05/04/2018 11:39:19
00034 suncat2004 pw.x -npool 3 -i  Done                     05/04/2018 11:39:19
00035 suncat2004 pw.x -npool 3 -i  Done                     05/04/2018 11:39:19