     Program PWSCF v.5.1rc2 (svn rev. 11289) starts on 14Jan2018 at  2:13:12

     Current dimensions of program PWSCF are:
     Max number of different atomic species (ntypx) = 10
     Max number of k-points (npk) =  40000
     Max angular momentum in pseudopotentials (lmaxx) =  3
     Presently stress not available with electric field

     IMPORTANT: XC functional enforced from input :
     Exchange-correlation      = BEEF-VDW ( 1  4 27 13 2)
     Any further DFT definition will be discarded
     Please, verify this is what you really want

     Subspace diagonalization in iterative solution of the eigenvalue problem:
     a serial algorithm will be used

     bravais-lattice index     =            0
     lattice parameter (alat)  =       1.8897  a.u.
     unit-cell volume          =    4552.2840 (a.u.)^3
     number of atoms/cell      =           13
     number of atomic types    =            2
     number of electrons       =       169.00
     number of Kohn-Sham states=           94
     kinetic-energy cutoff     =      36.7493  Ry
     charge density cutoff     =     367.4932  Ry
     convergence threshold     =      1.0E-05
     mixing beta               =       0.3000
     number of iterations used =           10  plain     mixing
     Exchange-correlation      = BEEF-VDW ( 1  4 27 13 2)
     nstep                     =           50

     celldm(1)=   1.889726  celldm(2)=   0.000000  celldm(3)=   0.000000
     celldm(4)=   0.000000  celldm(5)=   0.000000  celldm(6)=   0.000000

     crystal axes: (cart. coord. in units of alat)
               a(1) = (   5.627661   0.000000   0.000000 )
               a(2) = (   2.813831   4.873698   0.000000 )
               a(3) = (   0.000000   0.000000  24.594966 )

     reciprocal axes: (cart. coord. in units 2 pi/alat)
               b(1) = (  0.177694 -0.102592  0.000000 )
               b(2) = (  0.000000  0.205183  0.000000 )
               b(3) = (  0.000000  0.000000  0.040659 )

     PseudoPot. # 1 for Mo read from file:
     /afs/slac.stanford.edu/u/if/mamunm/psp/gbrv1.5pbe/Mo.UPF
     MD5 check sum: 30c4dcd161f5d35cd49bb5239c51a633
     Pseudo is Ultrasoft + core correction, Zval = 14.0
     Generated by new atomic code, or converted to UPF format
     Using radial grid of  889 points,  6 beta functions with:
                l(1) =   0
                l(2) =   0
                l(3) =   1
                l(4) =   1
                l(5) =   2
                l(6) =   2
     Q(r) pseudized with  6 coefficients,  rinner =    1.000   1.000   1.000
                                                       1.000   1.000

     PseudoPot. # 2 for H  read from file:
     /afs/slac.stanford.edu/u/if/mamunm/psp/gbrv1.5pbe/H.UPF
     MD5 check sum: 761ae9a214b05c3daf00ab9f6b793d6f
     Pseudo is Ultrasoft, Zval =  1.0
     Generated by new atomic code, or converted to UPF format
     Using radial grid of  615 points,  2 beta functions with:
                l(1) =   0
                l(2) =   0
     Q(r) pseudized with  8 coefficients,  rinner =    0.700

     vdW kernel table read from file vdW_kernel_table
     MD5 check sum: 095c7af220d748ca6e76c0b4c6cfb241

     atomic species   valence    mass     pseudopotential
        Mo1           14.00    95.95000     Mo( 1.00)
        H1             1.00     1.00800     H ( 1.00)

     No symmetry found

   Cartesian axes

     site n.     atom                  positions (alat units)
         1           Mo1 tau(   1) = (   1.4069153   0.8122829  10.0000000  )
         2           Mo1 tau(   2) = (   4.2207459   0.8122829  10.0000000  )
         3           Mo1 tau(   3) = (   2.8138306   3.2491317  10.0000000  )
         4           Mo1 tau(   4) = (   5.6276612   3.2491317  10.0000000  )
         5           Mo1 tau(   5) = (   5.6276612   1.6245658  12.2974831  )
         6           Mo1 tau(   6) = (   2.8138306   1.6245658  12.2974831  )
         7           Mo1 tau(   7) = (   7.0345765   4.0614146  12.2974831  )
         8           Mo1 tau(   8) = (   4.2207459   4.0614146  12.2974831  )
         9           Mo1 tau(   9) = (   0.0000000   0.0000000  14.5949661  )
        10           Mo1 tau(  10) = (   2.8138306   0.0000000  14.5949661  )
        11           Mo1 tau(  11) = (   1.4069153   2.4368488  14.5949661  )
        12           Mo1 tau(  12) = (   4.2207459   2.4368488  14.5949661  )
        13           H1  tau(  13) = (   1.4069153   0.8122829  16.4449661  )

     number of k points=    20  Fermi-Dirac smearing, width (Ry)=  0.0110
                       cart. coord. in units 2pi/alat
        k(    1) = (   0.0000000   0.0000000   0.0000000), wk =   0.0555556
        k(    2) = (   0.0000000   0.0341972   0.0000000), wk =   0.1111111
        k(    3) = (   0.0000000   0.0683943   0.0000000), wk =   0.1111111
        k(    4) = (   0.0000000  -0.1025915   0.0000000), wk =   0.0555556
        k(    5) = (   0.0296156  -0.0170986   0.0000000), wk =   0.1111111
        k(    6) = (   0.0296156   0.0170986   0.0000000), wk =   0.1111111
        k(    7) = (   0.0296156   0.0512958   0.0000000), wk =   0.1111111
        k(    8) = (   0.0296156  -0.1196901   0.0000000), wk =   0.1111111
        k(    9) = (   0.0296156  -0.0854929   0.0000000), wk =   0.1111111
        k(   10) = (   0.0296156  -0.0512958   0.0000000), wk =   0.1111111
        k(   11) = (   0.0592312  -0.0341972   0.0000000), wk =   0.1111111
        k(   12) = (   0.0592312   0.0000000   0.0000000), wk =   0.1111111
        k(   13) = (   0.0592312   0.0341972   0.0000000), wk =   0.1111111
        k(   14) = (   0.0592312  -0.1367887   0.0000000), wk =   0.1111111
        k(   15) = (   0.0592312  -0.1025915   0.0000000), wk =   0.1111111
        k(   16) = (   0.0592312  -0.0683943   0.0000000), wk =   0.1111111
        k(   17) = (  -0.0888469   0.0512958   0.0000000), wk =   0.0555556
        k(   18) = (  -0.0888469   0.0854929   0.0000000), wk =   0.1111111
        k(   19) = (  -0.0888469   0.1196901   0.0000000), wk =   0.1111111
        k(   20) = (  -0.0888469  -0.0512958   0.0000000), wk =   0.0555556

     Largest allocated arrays     est. size (Mb)     dimensions
     Largest temporary arrays     est. size (Mb)     dimensions

     Initial potential from superposition of free atoms
     Check: negative starting charge=   -0.005000

     starting charge  168.98723, renormalised to  169.00000

     negative rho (up, down):  5.001E-03 0.000E+00

     *
     * You are using vdW-DF for exchange-correlation in this calculation.
     * Please cite the following three references that made this development
     * possible:
     *
     *   M. Dion, H. Rydberg, E. Schroder, D. C. Langreth, and
     *   B. I. Lundqvist, Phys. Rev. Lett. 92, 246401 (2004).
     *
     *   T. Thonhauser, V. R. Cooper, S. Li, A. Puzder, P. Hyldgaard, and
     *   D. C. Langreth, Phys. Rev. B 76, 125112 (2007).
     *
     *   G. Roman-Perez and J. M. Soler, Phys. Rev. Lett. 103, 096102 (2009).
     *
     *
     * If you are using vdW-DF2, please also cite:
     *
     *   K. Lee, E. D. Murray, L. Kong, B. I. Lundqvist, and
     *   D. C. Langreth, Phys. Rev. B 82, 081101(R) (2010).
     *
     *
     * If you are calculating the stress with vdW-DF, please also cite:
     *
     *   R. Sabatini, E. Kucukbenli, B. Kolb, T. Thonhauser, and
     *   S. de Gironcoli, J. Phys.: Condens. Matter 24, 424209 (2012).
     *

     Carrying out vdW-DF run using the following parameters:

     Nqs =      20    Nr_points =    1024   r_max =   100.000
     q_mesh =
               0.00001000     0.04494208     0.09755937     0.15916263
               0.23128650     0.31572767     0.41458969     0.53033537
               0.66584808     0.82450364     1.01025438     1.22772762
               1.48234092     1.78043706     2.12944203     2.53805004
               3.01644009     3.57652955     4.23227104     5.00000000

     Gradients computed in reciprocal space

     Adding external electric field

     Computed dipole along edir(3) :
        Dipole               -0.0005 Ry au,         -0.0013 Debye
        Dipole field         -0.0000 Ry au

        Potential amp.        0.0001 Ry
        Total length         45.3158 bohr

     Starting wfc are  157 randomized atomic wfcs

     Self-consistent Calculation

     iteration #  1     ecut=    36.75 Ry     beta=0.30
     Davidson diagonalization with overlap
     ethr =  1.00E-02,  avg # of iterations =  2.0

[...]

     total energy              =   -1677.66720942 Ry
     Harris-Foulkes estimate   =   -1681.02106188 Ry
     estimated scf accuracy    <       6.96086723 Ry

[...]

     End of self-consistent calculation

          k = 0.0000 0.0000 0.0000 ( 17111 PWs)   bands (ev):

   -58.8471 -58.7599 -58.6671 -58.6640 -58.6632 -58.6259 -58.6060 -58.6059
   -58.5803 -58.5602 -58.5598 -58.5432 -33.3778 -33.3602 -33.3601 -33.2953
   -33.2909 -33.2716 -33.2714 -33.1876 -33.1805 -33.1802 -32.8612 -32.7326
   -32.7319 -32.7131 -32.6693 -32.6691 -32.6612 -32.5508 -32.5487 -32.5486
   -32.4445 -32.4444 -32.4312 -32.4308 -32.4276 -32.4202 -32.3478 -32.3262
   -32.3247 -32.3246 -32.2672 -32.2671 -32.1957 -32.1957 -32.1260 -32.1260
    -3.8005  -2.5900  -2.2880  -2.2721  -2.2720  -2.2568  -1.9168  -1.8217
    -1.8217  -1.6874  -1.6145  -1.6145  -1.4034  -1.3670  -1.3668  -0.7079
    -0.1769  -0.1766   0.2491   0.8189   0.8190   0.8351   1.0940   1.3342
     1.5050   1.5050   1.7685   1.7685   1.8758   1.8784   1.8785   1.9638
     1.9638   2.1666   2.1719   2.1723   2.7223   3.2706   3.2708   3.2928
     3.4775   3.4778   3.4859   4.0255   4.0255   4.3792

[...]

          k =-0.0888 0.0513 0.0000 ( 17160 PWs)   bands (ev):

[...]

     the Fermi energy is     2.2118 ev

!    total energy              =   -1680.41079374 Ry
     Harris-Foulkes estimate   =   -1680.41109779 Ry
     estimated scf accuracy    <       0.00000778 Ry

     The total energy is the sum of the following terms:

     one-electron contribution =  -15228.87063624 Ry
     hartree contribution      =    7608.49392829 Ry
     xc contribution           =    -240.75255572 Ry
     ewald contribution        =    6180.81868105 Ry
     electric field correction =       0.00003408 Ry
     smearing contrib. (-TS)   =      -0.10024520 Ry

     convergence has been achieved in  16 iterations

 BEEF-vdW xc energy contributions
           1 :   -206.759496326046
           2 :    188.879818052301
           3 :   -158.259311928734
           4 :    123.013631836350
           5 :   -91.2628083946295
           6 :    68.5305736226898
           7 :   -56.4657159369222
           8 :    53.1215979998812
           9 :   -54.4547216156502
          10 :    56.2442187796206
          11 :   -55.6469737101148
          12 :    51.8658377678118
          13 :   -45.8833060969376
          14 :    39.5544848099262
          15 :   -34.5571370610867
          16 :    31.6360362442229
          17 :   -30.4090656755453
          18 :    29.7225816844319
          19 :   -28.3255748348882
          20 :    25.5033859338460
          21 :   -21.3808850152232
          22 :    16.7790948621836
          23 :   -12.7428813907749
          24 :    10.0004800714728
[...]
00030 suncat1036 pw.x -in pw.inp   Done                     01/14/2018 02:25:49
00031 suncat1036 pw.x -in pw.inp   Done                     01/14/2018 02:25:49

[...]

     Total force =     0.070820     Total SCF correction =     0.005431

[...]

   This run was terminated on:   3: 3:53  14Jan2018

[...]

     Program PWSCF v.5.1rc2 (svn rev. 11289) starts on 14Jan2018 at  3: 3:59

[...]

     Total force =     0.046778     Total SCF correction =     0.004380

[...]

     Program PWSCF v.5.1rc2 (svn rev. 11289) starts on 14Jan2018 at  3:16:20

[...]

   This run was terminated on:   3:27: 0  14Jan2018

[...]

     Program PWSCF v.5.1rc2 (svn rev. 11289) starts on 14Jan2018 at  3:27: 6

[...]

   This run was terminated on:   3:40: 0  14Jan2018

[...]

     Program PWSCF v.5.1rc2 (svn rev. 11289) starts on 14Jan2018 at  3:40: 6

     Current dimensions of program PWSCF are:
     Max number of different atomic species (ntypx) = 10
     Max number of k-points (npk) =  40000
     Max angular momentum in pseudopotentials (lmaxx) =  3
     Presently stress not available with electric field

     IMPORTANT: XC functional enforced from input :
     Exchange-correlation      = BEEF-VDW ( 1  4 27 13 2)
     Any further DFT definition will be discarded
     Please, verify this is what you really want

     Subspace diagonalization in iterative solution of the eigenvalue problem:
     a serial algorithm will be used

     bravais-lattice index     =            0
     lattice parameter (alat)  =       1.8897  a.u.
     unit-cell volume          =    4552.2840 (a.u.)^3
     number of atoms/cell      =           13
     number of atomic types    =            2
     number of electrons       =       169.00
     number of Kohn-Sham states=           94
     kinetic-energy cutoff     =      36.7493  Ry
     charge density cutoff     =     367.4932  Ry
     convergence threshold     =      1.0E-05
     mixing beta               =       0.3000
     number of iterations used =           10  plain     mixing
     Exchange-correlation      = BEEF-VDW ( 1  4 27 13 2)
     nstep                     =           50

     celldm(1)=   1.889726  celldm(2)=   0.000000  celldm(3)=   0.000000
     celldm(4)=   0.000000  celldm(5)=   0.000000  celldm(6)=   0.000000

     crystal axes: (cart. coord. in units of alat)
               a(1) = (   5.627661   0.000000   0.000000 )
               a(2) = (   2.813831   4.873698   0.000000 )
               a(3) = (   0.000000   0.000000  24.594966 )

     reciprocal axes: (cart. coord. in units 2 pi/alat)
               b(1) = (  0.177694 -0.102592  0.000000 )
               b(2) = (  0.000000  0.205183  0.000000 )
               b(3) = (  0.000000  0.000000  0.040659 )

     PseudoPot. # 1 for Mo read from file:
     /afs/slac.stanford.edu/u/if/mamunm/psp/gbrv1.5pbe/Mo.UPF
     MD5 check sum: 30c4dcd161f5d35cd49bb5239c51a633
     Pseudo is Ultrasoft + core correction, Zval = 14.0
     Generated by new atomic code, or converted to UPF format
     Using radial grid of  889 points,  6 beta functions with:
                l(1) =   0
                l(2) =   0
                l(3) =   1
                l(4) =   1
                l(5) =   2
                l(6) =   2
     Q(r) pseudized with  6 coefficients,  rinner =    1.000   1.000   1.000
                                                       1.000   1.000

     PseudoPot. # 2 for H  read from file:
     /afs/slac.stanford.edu/u/if/mamunm/psp/gbrv1.5pbe/H.UPF
     MD5 check sum: 761ae9a214b05c3daf00ab9f6b793d6f
     Pseudo is Ultrasoft, Zval =  1.0
     Generated by new atomic code, or converted to UPF format
     Using radial grid of  615 points,  2 beta functions with:
                l(1) =   0
                l(2) =   0
     Q(r) pseudized with  8 coefficients,  rinner =    0.700

     vdW kernel table read from file vdW_kernel_table
     MD5 check sum: 095c7af220d748ca6e76c0b4c6cfb241

     atomic species   valence    mass     pseudopotential
        Mo1           14.00    95.95000     Mo( 1.00)
        H1             1.00     1.00800     H ( 1.00)

     No symmetry found

   Cartesian axes

     site n.     atom                  positions (alat units)
         1           Mo1 tau(   1) = (   1.4069153   0.8122829  10.0000000  )
         2           Mo1 tau(   2) = (   4.2207459   0.8122829  10.0000000  )
         3           Mo1 tau(   3) = (   2.8138306   3.2491317  10.0000000  )
         4           Mo1 tau(   4) = (   5.6276612   3.2491317  10.0000000  )
         5           Mo1 tau(   5) = (   5.6276612   1.6245658  12.2974831  )
         6           Mo1 tau(   6) = (   2.8138306   1.6245658  12.2974831  )
         7           Mo1 tau(   7) = (   7.0345765   4.0614146  12.2974831  )
         8           Mo1 tau(   8) = (   4.2207459   4.0614146  12.2974831  )
         9           Mo1 tau(   9) = (   8.4149985   4.8584091  14.6376027  )
        10           Mo1 tau(  10) = (   5.6541495   4.8583910  14.6376125  )
        11           Mo1 tau(  11) = (   7.0345796   2.4673674  14.6374841  )
        12           Mo1 tau(  12) = (   4.2207805   2.4368908  14.5531617  )
        13           H1  tau(  13) = (   1.4069180   0.8123485  15.7167457  )

     number of k points=    20  Fermi-Dirac smearing, width (Ry)=  0.0110
                       cart. coord. in units 2pi/alat
        k(    1) = (   0.0000000   0.0000000   0.0000000), wk =   0.0555556
        k(    2) = (   0.0000000   0.0341972   0.0000000), wk =   0.1111111
        k(    3) = (   0.0000000   0.0683943   0.0000000), wk =   0.1111111
        k(    4) = (   0.0000000  -0.1025915   0.0000000), wk =   0.0555556
        k(    5) = (   0.0296156  -0.0170986   0.0000000), wk =   0.1111111
        k(    6) = (   0.0296156   0.0170986   0.0000000), wk =   0.1111111
        k(    7) = (   0.0296156   0.0512958   0.0000000), wk =   0.1111111
        k(    8) = (   0.0296156  -0.1196901   0.0000000), wk =   0.1111111
        k(    9) = (   0.0296156  -0.0854929   0.0000000), wk =   0.1111111
        k(   10) = (   0.0296156  -0.0512958   0.0000000), wk =   0.1111111
        k(   11) = (   0.0592312  -0.0341972   0.0000000), wk =   0.1111111
        k(   12) = (   0.0592312   0.0000000   0.0000000), wk =   0.1111111
        k(   13) = (   0.0592312   0.0341972   0.0000000), wk =   0.1111111
        k(   14) = (   0.0592312  -0.1367887   0.0000000), wk =   0.1111111
        k(   15) = (   0.0592312  -0.1025915   0.0000000), wk =   0.1111111
        k(   16) = (   0.0592312  -0.0683943   0.0000000), wk =   0.1111111
        k(   17) = (  -0.0888469   0.0512958   0.0000000), wk =   0.0555556
        k(   18) = (  -0.0888469   0.0854929   0.0000000), wk =   0.1111111
        k(   19) = (  -0.0888469   0.1196901   0.0000000), wk =   0.1111111
        k(   20) = (  -0.0888469  -0.0512958   0.0000000), wk =   0.0555556

     Largest allocated arrays     est. size (Mb)     dimensions
     Largest temporary arrays     est. size (Mb)     dimensions

     Initial potential from superposition of free atoms
     Check: negative starting charge=   -0.004982

     starting charge  168.98723, renormalised to  169.00000

[...]

     *
     * You are using vdW-DF for exchange-correlation in this calculation.
     * Please cite the following three references that made this development
     * possible:
     *
     *   M. Dion, H. Rydberg, E. Schroder, D. C. Langreth, and
     *   B. I. Lundqvist, Phys. Rev. Lett. 92, 246401 (2004).
     *
     *   T. Thonhauser, V. R. Cooper, S. Li, A. Puzder, P. Hyldgaard, and
     *   D. C. Langreth, Phys. Rev. B 76, 125112 (2007).
     *
     *   G. Roman-Perez and J. M. Soler, Phys. Rev. Lett. 103, 096102 (2009).
     *
     *
     * If you are using vdW-DF2, please also cite:
     *
     *   K. Lee, E. D. Murray, L. Kong, B. I. Lundqvist, and
     *   D. C. Langreth, Phys. Rev. B 82, 081101(R) (2010).
     *
     *
     * If you are calculating the stress with vdW-DF, please also cite:
     *
     *   R. Sabatini, E. Kucukbenli, B. Kolb, T. Thonhauser, and
     *   S. de Gironcoli, J. Phys.: Condens. Matter 24, 424209 (2012).
     *

     Carrying out vdW-DF run using the following parameters:

     Nqs =      20    Nr_points =    1024   r_max =   100.000
     q_mesh =
               0.00001000     0.04494208     0.09755937     0.15916263
               0.23128650     0.31572767     0.41458969     0.53033537
               0.66584808     0.82450364     1.01025438     1.22772762
               1.48234092     1.78043706     2.12944203     2.53805004
               3.01644009     3.57652955     4.23227104     5.00000000

     Gradients computed in reciprocal space

[...]

     Starting wfc are  157 randomized atomic wfcs

     Self-consistent Calculation

[...]

     total energy              =   -1680.47650818 Ry
     Harris-Foulkes estimate   =   -1680.47650903 Ry
     estimated scf accuracy    <       0.00001136 Ry

     iteration # 17     ecut=    36.75 Ry     beta=0.30
     Davidson diagonalization with overlap
     ethr =  6.72E-09,  avg # of iterations =  1.4

[...]

     negative rho (up, down):  4.935E-03 0.000E+00

     Adding external electric field

     Computed dipole along edir(3) :
        Dipole               -0.0172 Ry au,         -0.0436 Debye
        Dipole field         -0.0000 Ry au

        Potential amp.        0.0043 Ry
        Total length         45.3158 bohr

     End of self-consistent calculation

[...]

          k = 0.0592-0.0684 0.0000 ( 17122 PWs)   bands (ev):

[...]

          k =-0.0888-0.0513 0.0000 ( 17160 PWs)   bands (ev):

   -58.6485 -58.6395 -58.5825 -58.5728 -58.5475 -58.5230 -58.5083 -58.5064
   -58.4946 -58.4805 -58.4504 -58.4471 -33.0710 -33.0548 -33.0473 -33.0232
   -33.0186 -33.0134 -32.8987 -32.8746 -32.8426 -32.8360 -32.7811 -32.7689
   -32.6682 -32.6153 -32.5854 -32.5765 -32.5696 -32.5346 -32.5331 -32.5199
   -32.4773 -32.4756 -32.4574 -32.4522 -32.4452 -32.4329 -32.3095 -32.3049
   -32.2984 -32.2790 -32.2442 -32.2334 -32.2148 -32.1842 -32.1206 -32.1165
    -3.2423  -2.0327  -1.9404  -1.2587  -1.1152  -1.0974  -1.0878  -0.8741
    -0.8585  -0.7218  -0.6187  -0.3713  -0.3377  -0.2388  -0.1226  -0.0985
    -0.0321   0.3949   0.4358   0.5822   0.5868   0.6119   0.7111   1.0265
     1.1631   1.3087   1.3204   1.4446   1.4981   1.5369   1.6013   1.6734
     1.7161   1.7754   1.7809   1.8321   1.9477   2.0378   2.4702   2.4835
     2.8901   2.9617   3.1375   3.1662   3.2223   3.2671

     the Fermi energy is     2.3227 ev

!    total energy              =   -1680.47650657 Ry
     Harris-Foulkes estimate   =   -1680.47650809 Ry
     estimated scf accuracy    <       0.00000237 Ry

     The total energy is the sum of the following terms:

     one-electron contribution =  -15222.86870860 Ry
     hartree contribution      =    7605.99608824 Ry
     xc contribution           =    -240.85114147 Ry
     ewald contribution        =    6177.34589339 Ry
     electric field correction =       0.00000081 Ry
     smearing contrib. (-TS)   =      -0.09863894 Ry

     convergence has been achieved in  17 iterations

 BEEF-vdW xc energy contributions
           1 :   -206.868214575780
           2 :    189.015014236376
           3 :   -158.412061728515
           4 :    123.145968769835
           5 :   -91.3385486213181
           6 :    68.5383608886870
           7 :   -56.4240117016507
           8 :    53.0656469124103
           9 :   -54.4138180709315
          10 :    56.2251007748112
          11 :   -55.6351545111060
          12 :    51.8424144165845
          13 :   -45.8437316894819
          14 :    39.5156924247979
          15 :   -34.5470409705576
          16 :    31.6731074211064
          17 :   -30.4869401158102
          18 :    29.8102090142440
          19 :   -28.3825355898633
          20 :    25.5027650441872
          21 :   -21.3254883367363
          22 :    16.7008334848142
          23 :   -12.6863423481700
          24 :    10.0002846469906
          25 :   -8.69595158070862
          26 :    8.19153591192025
          27 :   -7.60934981625309
          28 :    6.22628623187498
          29 :   -3.80966401517327
          30 :   0.686193186916427
          31 :   -23.5943556310332
          32 :   -18.1013240156319

     Forces acting on atoms (Ry/au):

     negative rho (up, down):  4.935E-03 0.000E+00
     atom    1 type  1   force =    -0.00000119    0.00000161   -0.00386769
     atom    2 type  1   force =     0.00000152    0.00019544   -0.00642561
     atom    3 type  1   force =     0.00016823   -0.00009892   -0.00642618
     atom    4 type  1   force =    -0.00016688   -0.00009781   -0.00643777
     atom    5 type  1   force =     0.00632886   -0.00366478    0.00907977
     atom    6 type  1   force =    -0.00633065   -0.00366807    0.00908531
     atom    7 type  1   force =    -0.00000207    0.00001278   -0.00521053
     atom    8 type  1   force =     0.00000205    0.00731931    0.00909846
     atom    9 type  1   force =    -0.00015171   -0.00008542   -0.00020936
     atom   10 type  1   force =     0.00015237   -0.00007912   -0.00022397
     atom   11 type  1   force =     0.00000610    0.00017928   -0.00019476
     atom   12 type  1   force =    -0.00000676   -0.00000657    0.00134517
     atom   13 type  2   force =     0.00000013   -0.00000771    0.00038714

     Total force =     0.024016     Total SCF correction =     0.006543
     SCF correction compared to forces is large: reduce conv_thr to get better values

     entering subroutine stress ...

     negative rho (up, down):  4.935E-03 0.000E+00
          total   stress  (Ry/bohr**3)                   (kbar)     P=  -18.76
  -0.00020272  -0.00000000  -0.00000000        -29.82     -0.00     -0.00
  -0.00000000  -0.00020270  -0.00000000         -0.00    -29.82     -0.00
  -0.00000000  -0.00000000   0.00002294         -0.00     -0.00      3.37

 !ASE

     Writing output data file calc.save

     General routines

     Parallel routines

   This run was terminated on:   3:53:31  14Jan2018

   JOB DONE.
Job  /afs/slac/g/suncat/bin/suncat-tsmpirun -x LD_LIBRARY_PATH -wdir /scratch/qe842458_PHsfh pw.x -in pw.inp

TID   HOST_NAME   COMMAND_LINE            STATUS            TERMINATION_TIME
00000 suncat1058 pw.x -in pw.inp   Done                     01/14/2018 03:53:31
00001 suncat1058 pw.x -in pw.inp   Done                     01/14/2018 03:53:31
00002 suncat1058 pw.x -in pw.inp   Done                     01/14/2018 03:53:31
00003 suncat1058 pw.x -in pw.inp   Done                     01/14/2018 03:53:31
00004 suncat1058 pw.x -in pw.inp   Done                     01/14/2018 03:53:31
00005 suncat1058 pw.x -in pw.inp   Done                     01/14/2018 03:53:31
00006 suncat1058 pw.x -in pw.inp   Done                     01/14/2018 03:53:31
00007 suncat1058 pw.x -in pw.inp   Done                     01/14/2018 03:53:31
00008 suncat1037 pw.x -in pw.inp   Done                     01/14/2018 03:53:31
00009 suncat1037 pw.x -in pw.inp   Done                     01/14/2018 03:53:31
00010 suncat1037 pw.x -in pw.inp   Done                     01/14/2018 03:53:31
00011 suncat1037 pw.x -in pw.inp   Done                     01/14/2018 03:53:31
00012 suncat1037 pw.x -in pw.inp   Done                     01/14/2018 03:53:31
00013 suncat1037 pw.x -in pw.inp   Done                     01/14/2018 03:53:31
00014 suncat1037 pw.x -in pw.inp   Done                     01/14/2018 03:53:31
00015 suncat1037 pw.x -in pw.inp   Done                     01/14/2018 03:53:31
00016 suncat1037 pw.x -in pw.inp   Done                     01/14/2018 03:53:31
00017 suncat1037 pw.x -in pw.inp   Done                     01/14/2018 03:53:31
00018 suncat1037 pw.x -in pw.inp   Done                     01/14/2018 03:53:31
00019 suncat1037 pw.x -in pw.inp   Done                     01/14/2018 03:53:31
00020 suncat1036 pw.x -in pw.inp   Done                     01/14/2018 03:53:31
00021 suncat1036 pw.x -in pw.inp   Done                     01/14/2018 03:53:31
00022 suncat1036 pw.x -in pw.inp   Done                     01/14/2018 03:53:31
00023 suncat1036 pw.x -in pw.inp   Done                     01/14/2018 03:53:31
00024 suncat1036 pw.x -in pw.inp   Done                     01/14/2018 03:53:31
00025 suncat1036 pw.x -in pw.inp   Done                     01/14/2018 03:53:31
00026 suncat1036 pw.x -in pw.inp   Done                     01/14/2018 03:53:31
00027 suncat1036 pw.x -in pw.inp   Done                     01/14/2018 03:53:31
00028 suncat1036 pw.x -in pw.inp   Done                     01/14/2018 03:53:31
00029 suncat1036 pw.x -in pw.inp   Done                     01/14/2018 03:53:31
00030 suncat1036 pw.x -in pw.inp   Done                     01/14/2018 03:53:31
00031 suncat1036 pw.x -in pw.inp   Done                     01/14/2018 03:53:31