     Program PWSCF v.5.1rc2 (svn rev. 11289) starts on 16Apr2018 at 10:13:31

     Current dimensions of program PWSCF are:
     Max number of different atomic species (ntypx) = 10
     Max number of k-points (npk) =  40000
     Max angular momentum in pseudopotentials (lmaxx) =  3
     Presently stress not available with electric field

     IMPORTANT: XC functional enforced from input :
     Exchange-correlation      = BEEF-VDW ( 1  4 27 13 2)
     Any further DFT definition will be discarded
     Please, verify this is what you really want

     Subspace diagonalization in iterative solution of the eigenvalue problem:
     a serial algorithm will be used

     bravais-lattice index     =            0
     lattice parameter (alat)  =       1.8897  a.u.
     unit-cell volume          =    5174.6160 (a.u.)^3
     number of atoms/cell      =           16
     number of atomic types    =            3
     number of electrons       =       235.00
     number of Kohn-Sham states=          127
     kinetic-energy cutoff     =      36.7493  Ry
     charge density cutoff     =     367.4932  Ry
     convergence threshold     =      1.0E-05
     mixing beta               =       0.3000
     number of iterations used =           10  plain     mixing
     Exchange-correlation      = BEEF-VDW ( 1  4 27 13 2)
     nstep                     =           50

     celldm(1)=   1.889726  celldm(2)=   0.000000  celldm(3)=   0.000000
     celldm(4)=   0.000000  celldm(5)=   0.000000  celldm(6)=   0.000000

     crystal axes: (cart. coord. in units of alat)
               a(1) = (   5.966546   0.000000   0.000000 )
               a(2) = (   2.983273   5.167181   0.000000 )
               a(3) = (   0.000000   0.000000  24.871665 )

     reciprocal axes: (cart. coord. in units 2 pi/alat)
               b(1) = (  0.167601 -0.096765  0.000000 )
               b(2) = (  0.000000  0.193529  0.000000 )
               b(3) = (  0.000000  0.000000  0.040206 )

     PseudoPot. # 1 for Ag read from file:
     /u/if/mamunm/psp/gbrv1.5pbe/Ag.UPF
     MD5 check sum: d66d668201baa78d5eb5b04ef7011058
     Pseudo is Ultrasoft + core correction, Zval = 19.0
     Generated by new atomic code, or converted to UPF format
     Using radial grid of  887 points,  6 beta functions with:
                l(1) =   0
                l(2) =   0
                l(3) =   1
                l(4) =   1
                l(5) =   2
                l(6) =   2
     Q(r) pseudized with  6 coefficients,  rinner =    1.300   1.300   1.300
                                                       1.300   1.300

     PseudoPot. # 2 for C  read from file:
     /u/if/mamunm/psp/gbrv1.5pbe/C.UPF
     MD5 check sum: d1aef80898a10debaa0f26306b886e00
     Pseudo is Ultrasoft + core correction, Zval =  4.0
     Generated by new atomic code, or converted to UPF format
     Using radial grid of  721 points,  4 beta functions with:
                l(1) =   0
                l(2) =   0
                l(3) =   1
                l(4) =   1
     Q(r) pseudized with  8 coefficients,  rinner =    1.100   1.100   1.100

     PseudoPot. # 3 for H  read from file:
     /u/if/mamunm/psp/gbrv1.5pbe/H.UPF
     MD5 check sum: 761ae9a214b05c3daf00ab9f6b793d6f
     Pseudo is Ultrasoft, Zval =  1.0
     Generated by new atomic code, or converted to UPF format
     Using radial grid of  615 points,  2 beta functions with:
                l(1) =   0
                l(2) =   0
     Q(r) pseudized with  8 coefficients,  rinner =    0.700

     vdW kernel table read from file vdW_kernel_table
     MD5 check sum: 095c7af220d748ca6e76c0b4c6cfb241

     atomic species   valence    mass     pseudopotential
        Ag1           19.00   107.86820     Ag( 1.00)
        C1             4.00    12.01100     C ( 1.00)
        H1             1.00     1.00800     H ( 1.00)

     No symmetry found

   Cartesian axes

     site n.     atom                  positions (alat units)
         1           Ag1 tau(   1) = (   1.4916366   0.8611968  10.0000000  )
         2           Ag1 tau(   2) = (   4.4749098   0.8611968  10.0000000  )
         3           Ag1 tau(   3) = (   2.9832732   3.4447871  10.0000000  )
         4           Ag1 tau(   4) = (   5.9665464   3.4447871  10.0000000  )
         5           Ag1 tau(   5) = (   5.9665464   1.7223936  12.4358324  )
         6           Ag1 tau(   6) = (   2.9832732   1.7223936  12.4358324  )
         7           Ag1 tau(   7) = (   7.4581830   4.3059839  12.4358324  )
         8           Ag1 tau(   8) = (   4.4749098   4.3059839  12.4358324  )
         9           Ag1 tau(   9) = (   0.0000000   0.0000000  14.8716647  )
        10           Ag1 tau(  10) = (   2.9832732   0.0000000  14.8716647  )
        11           Ag1 tau(  11) = (   1.4916366   2.5835904  14.8716647  )
        12           Ag1 tau(  12) = (   4.4749098   2.5835904  14.8716647  )
        13           C1  tau(  13) = (   1.4916366   0.0000000  16.5291647  )
        14           H1  tau(  14) = (   2.5816366   0.0000000  17.1591647  )
        15           H1  tau(  15) = (   1.0416366   0.8895000  17.1591647  )
        16           H1  tau(  16) = (   4.0249098   4.2776807  17.1591647  )

     number of k points=    20  Fermi-Dirac smearing, width (Ry)=  0.0110
                       cart. coord. in units 2pi/alat
        k(    1) = (   0.0000000   0.0000000   0.0000000), wk =   0.0555556
        k(    2) = (   0.0000000   0.0322549   0.0000000), wk =   0.1111111
        k(    3) = (   0.0000000   0.0645097   0.0000000), wk =   0.1111111
        k(    4) = (   0.0000000  -0.0967646   0.0000000), wk =   0.0555556
        k(    5) = (   0.0279335  -0.0161274   0.0000000), wk =   0.1111111
        k(    6) = (   0.0279335   0.0161274   0.0000000), wk =   0.1111111
        k(    7) = (   0.0279335   0.0483823   0.0000000), wk =   0.1111111
        k(    8) = (   0.0279335  -0.1128920   0.0000000), wk =   0.1111111
        k(    9) = (   0.0279335  -0.0806371   0.0000000), wk =   0.1111111
        k(   10) = (   0.0279335  -0.0483823   0.0000000), wk =   0.1111111
        k(   11) = (   0.0558670  -0.0322549   0.0000000), wk =   0.1111111
        k(   12) = (   0.0558670   0.0000000   0.0000000), wk =   0.1111111
        k(   13) = (   0.0558670   0.0322549   0.0000000), wk =   0.1111111
        k(   14) = (   0.0558670  -0.1290194   0.0000000), wk =   0.1111111
        k(   15) = (   0.0558670  -0.0967646   0.0000000), wk =   0.1111111
        k(   16) = (   0.0558670  -0.0645097   0.0000000), wk =   0.1111111
        k(   17) = (  -0.0838006   0.0483823   0.0000000), wk =   0.0555556
        k(   18) = (  -0.0838006   0.0806371   0.0000000), wk =   0.1111111
        k(   19) = (  -0.0838006   0.1128920   0.0000000), wk =   0.1111111
        k(   20) = (  -0.0838006  -0.0483823   0.0000000), wk =   0.0555556

     Largest allocated arrays     est. size (Mb)     dimensions
     Largest temporary arrays     est. size (Mb)     dimensions

     Initial potential from superposition of free atoms
     Check: negative starting charge=   -0.001955

     starting charge  228.99936, renormalised to  235.00000

     negative rho (up, down):  2.006E-03 0.000E+00

     *
     * You are using vdW-DF for exchange-correlation in this calculation.
     * Please cite the following three references that made this development
     * possible:
     *
     *   M. Dion, H. Rydberg, E. Schroder, D. C. Langreth, and
     *   B. I. Lundqvist, Phys. Rev. Lett. 92, 246401 (2004).
     *
     *   T. Thonhauser, V. R. Cooper, S. Li, A. Puzder, P. Hyldgaard, and
     *   D. C. Langreth, Phys. Rev. B 76, 125112 (2007).
     *
     *   G. Roman-Perez and J. M. Soler, Phys. Rev. Lett. 103, 096102 (2009).
     *
     *
     * If you are using vdW-DF2, please also cite:
     *
     *   K. Lee, E. D. Murray, L. Kong, B. I. Lundqvist, and
     *   D. C. Langreth, Phys. Rev. B 82, 081101(R) (2010).
     *
     *
     * If you are calculating the stress with vdW-DF, please also cite:
     *
     *   R. Sabatini, E. Kucukbenli, B. Kolb, T. Thonhauser, and
     *   S. de Gironcoli, J. Phys.: Condens. Matter 24, 424209 (2012).
     *

     Carrying out vdW-DF run using the following parameters:

     Nqs =      20    Nr_points =    1024   r_max =   100.000
     q_mesh =
               0.00001000     0.04494208     0.09755937     0.15916263
               0.23128650     0.31572767     0.41458969     0.53033537
               0.66584808     0.82450364     1.01025438     1.22772762
               1.48234092     1.78043706     2.12944203     2.53805004
               3.01644009     3.57652955     4.23227104     5.00000000

     Gradients computed in reciprocal space

     Adding external electric field

     Computed dipole along edir(3) :
        Dipole               -1.5119 Ry au,         -3.8428 Debye
        Dipole field         -0.0037 Ry au

        Potential amp.        0.3365 Ry
        Total length         45.8256 bohr

     Starting wfc are  163 randomized atomic wfcs

     Self-consistent Calculation

     iteration #  1     ecut=    36.75 Ry     beta=0.30
     Davidson diagonalization with overlap
     ethr =  1.00E-02,  avg # of iterations =  5.6

[...]

     total energy              =   -3559.80436810 Ry
     Harris-Foulkes estimate   =   -3578.04172075 Ry
     estimated scf accuracy    <      39.18875046 Ry

[...]

     End of self-consistent calculation

          k = 0.0000 0.0000 0.0000 ( 19435 PWs)   bands (ev):

   -90.5061 -90.4802 -90.4734 -90.4549 -90.4514 -90.3989 -90.2966 -90.2755
   -90.2535 -90.2484 -90.2465 -90.2103 -54.0298 -54.0144 -54.0056 -54.0047
   -53.9922 -53.9838 -53.9784 -53.9754 -53.9595 -53.9502 -53.9483 -53.9411
   -53.9360 -53.9338 -53.9226 -53.8916 -53.8837 -53.8826 -53.8244 -53.7969
   -53.7905 -53.7842 -53.7824 -53.7812 -53.7726 -53.7693 -53.7594 -53.7326
   -53.7326 -53.7293 -53.7278 -53.7269 -53.7248 -53.6971 -53.6962 -53.6813
   -11.0009  -4.9409  -4.5216  -4.5126  -4.4213  -4.2090  -4.2061  -4.1909
    -4.1515  -4.0606  -4.0424  -4.0105  -3.9996  -3.9133  -3.9043  -3.8485
    -3.8189  -3.6269  -3.4980  -3.2591  -3.1352  -3.1303  -3.1041  -3.0587
    -3.0231  -3.0175  -2.9626  -2.9379  -2.8687  -2.8429  -2.8339  -2.8171
    -2.7762  -2.7705  -2.4605  -2.3120  -2.3052  -2.2626  -2.2504  -2.2282
    -2.2027  -2.1958  -2.0617  -2.0405  -1.9761  -1.9616  -1.8918  -1.8558
    -1.7372  -1.7272  -1.7183  -1.6622  -1.6607  -1.6520  -1.5875  -1.5687
    -1.5469  -1.5370  -1.5050  -1.4662  -1.4320  -1.3455  -1.3348  -1.3336
    -1.2599  -0.4144   0.8237   2.0361   2.0969   2.1071   2.3498   2.7505
     2.8757   3.0659   3.2085   3.2946   3.7808   4.7261   5.1287

[...]

          k =-0.0838 0.0484 0.0000 ( 19500 PWs)   bands (ev):

[...]

     the Fermi energy is     1.5716 ev

!    total energy              =   -3574.94727703 Ry
     Harris-Foulkes estimate   =   -3574.94729020 Ry
     estimated scf accuracy    <       0.00000371 Ry

     The total energy is the sum of the following terms:

     one-electron contribution =  -26203.15528140 Ry
     hartree contribution      =   13097.04751608 Ry
     xc contribution           =    -366.90832931 Ry
     ewald contribution        =    9898.09023099 Ry
     electric field correction =       0.00004005 Ry
     smearing contrib. (-TS)   =      -0.02145345 Ry

     convergence has been achieved in  15 iterations

 BEEF-vdW xc energy contributions
           1 :   -317.745678698496
           2 :    287.513359401827
           3 :   -237.162366973634
           4 :    181.951191622798
           5 :   -135.651705864218
           6 :    105.624755159525
           7 :   -91.4886414415665
           8 :    87.3430580118731
           9 :   -85.8880943318366
          10 :    82.1047460815892
          11 :   -74.8128721683135
          12 :    65.8272631999410
          13 :   -57.7840042834826
          14 :    52.2012096855862
          15 :   -48.8347501444496
          16 :    46.3537607593913
          17 :   -43.5543861929707
          18 :    40.1636731813604
          19 :   -36.7753119087284
          20 :    34.1499926454456
          21 :   -32.5191005706866
          22 :    31.4080593555319
          23 :   -30.0419017356540
          24 :    27.9619007834837
          25 :   -25.3759700841574
          26 :    23.0008348430504
          27 :   -21.5396719377218
          28 :    21.1853618932687
          29 :   -21.5001132024835
          30 :    21.7337195761517
          31 :   -31.8828574271318
          32 :   -23.1742824988139

     Forces acting on atoms (Ry/au):

     negative rho (up, down):  2.005E-03 0.000E+00
     atom    1 type  1   force =    -0.00003937   -0.00152006    0.00093201
     atom    2 type  1   force =     0.00006740   -0.00014884   -0.00141736
     atom    3 type  1   force =     0.00101478    0.00092437    0.00025455
     atom    4 type  1   force =    -0.00103742    0.00086892    0.00010080
     atom    5 type  1   force =    -0.00035933   -0.00020729    0.00044672
     atom    6 type  1   force =     0.00022830   -0.00046015    0.00086886
     atom    7 type  1   force =    -0.00017183    0.00143757    0.00828117
     atom    8 type  1   force =     0.00023525    0.00057383   -0.00546424
     atom    9 type  1   force =    -0.01479821   -0.00099764   -0.02209418
     atom   10 type  1   force =     0.01642958   -0.00102019   -0.01924621
     atom   11 type  1   force =    -0.00023884    0.00706517   -0.00973912
     atom   12 type  1   force =    -0.00024378   -0.00650012   -0.01062631
     atom   13 type  2   force =     0.03170800    0.00000756    0.22871289
     atom   14 type  3   force =    -0.08048625   -0.00002885   -0.06620755
     atom   15 type  3   force =     0.02380632   -0.04590407   -0.05248652
     atom   16 type  3   force =     0.02388541    0.04590980   -0.05231550

     Total force =     0.276893     Total SCF correction =     0.009594

     entering subroutine stress ...

     negative rho (up, down):  2.005E-03 0.000E+00
          total   stress  (Ry/bohr**3)                   (kbar)     P=   -8.52
  -0.00007876   0.00000004  -0.00000811        -11.59      0.01     -1.19
   0.00000004  -0.00006844  -0.00000142          0.01    -10.07     -0.21
  -0.00000811  -0.00000142  -0.00002649         -1.19     -0.21     -3.90

     BFGS Geometry Optimization

     number of scf cycles    =   1
     number of bfgs steps    =   0

     energy   new            =   -3574.9472770298 Ry

     new trust radius        =       0.2309003712 bohr
     new conv_thr            =       0.0000099958 Ry

ATOMIC_POSITIONS (crystal)
Ag1      0.166666667   0.166666667   0.402063960    0   0   0
Ag1      0.666666667   0.166666667   0.402063960    0   0   0
Ag1      0.166666667   0.666666667   0.402063960    0   0   0
Ag1      0.666666667   0.666666667   0.402063960    0   0   0
Ag1      0.833333333   0.333333333   0.500000000    0   0   0
Ag1      0.333333333   0.333333333   0.500000000    0   0   0
Ag1      0.833333333   0.833333333   0.500000000    0   0   0
Ag1      0.333333333   0.833333333   0.500000000    0   0   0
Ag1     -0.001261379  -0.000102170   0.597465957
Ag1      0.501509391  -0.000104479   0.597526552
Ag1     -0.000382960   0.500723552   0.597728827
Ag1      0.500311222   0.499334314   0.597709952
C1       0.252811818   0.000000774   0.669444307
H1       0.425548343  -0.000002955   0.688499519
H1       0.092969349   0.167443072   0.688791451
H1       0.260419141   0.832557515   0.688795090

     Writing output data file calc.save
     Check: negative starting charge=   -0.001955
     NEW-OLD atomic charge density approx. for the potential
     Check: negative starting charge=   -0.001957

[...]

     energy   old            =   -3574.9472770298 Ry
     energy   new            =   -3574.9966888609 Ry

     CASE: energy  _new < energy  _old

[...]

     Threshold (ethr) on eigenvalues was too large:
     Diagonalizing with lowered threshold

     Davidson diagonalization with overlap
     ethr =  8.50E-08,  avg # of iterations =  1.0

[...]

     Threshold (ethr) on eigenvalues was too large:
     Diagonalizing with lowered threshold

     Davidson diagonalization with overlap
     ethr =  4.35E-08,  avg # of iterations =  1.0

[...]

     number of scf cycles    =  20
     number of bfgs steps    =  19

     energy   old            =   -3575.0105579957 Ry
     energy   new            =   -3575.0106279445 Ry

     CASE: energy  _new < energy  _old

     new trust radius        =       0.0126157548 bohr
     new conv_thr            =       0.0000001000 Ry

ATOMIC_POSITIONS (crystal)
Ag1      0.166666667   0.166666667   0.402063960    0   0   0
Ag1      0.666666667   0.166666667   0.402063960    0   0   0
Ag1      0.166666667   0.666666667   0.402063960    0   0   0
Ag1      0.666666667   0.666666667   0.402063960    0   0   0
Ag1      0.833333333   0.333333333   0.500000000    0   0   0
Ag1      0.333333333   0.333333333   0.500000000    0   0   0
Ag1      0.833333333   0.833333333   0.500000000    0   0   0
Ag1      0.333333333   0.833333333   0.500000000    0   0   0
Ag1      0.012284143  -0.001500281   0.599755765
Ag1      0.493420665  -0.001666001   0.599488373
Ag1     -0.003916472   0.510805933   0.595114605
Ag1      0.507790959   0.487135428   0.594922226
C1       0.254181233  -0.000743472   0.681428192
H1       0.427775391  -0.000367044   0.695452989
H1       0.083830323   0.173002531   0.696018069
H1       0.257430776   0.826026027   0.696309258

     Writing output data file calc.save
     Check: negative starting charge=   -0.001966
     NEW-OLD atomic charge density approx. for the potential
     Check: negative starting charge=   -0.001964

[...]

     Self-consistent Calculation

[...]

     total energy              =   -3575.01066426 Ry
     Harris-Foulkes estimate   =   -3575.01066416 Ry
     estimated scf accuracy    <       0.00000010 Ry

     iteration #  7     ecut=    36.75 Ry     beta=0.30
     Davidson diagonalization with overlap
     ethr =  4.39E-11,  avg # of iterations =  2.1

[...]

     negative rho (up, down):  2.010E-03 0.000E+00

     Adding external electric field

     Computed dipole along edir(3) :
        Dipole                0.0424 Ry au,          0.1077 Debye
        Dipole field          0.0001 Ry au

        Potential amp.       -0.0094 Ry
        Total length         45.8256 bohr

     End of self-consistent calculation

[...]

          k = 0.0559-0.0645 0.0000 ( 19479 PWs)   bands (ev):

[...]

          k =-0.0838-0.0484 0.0000 ( 19500 PWs)   bands (ev):

   -90.5868 -90.5830 -90.5823 -90.5163 -90.4316 -90.4096 -90.3956 -90.3775
   -90.3706 -90.3637 -90.3637 -90.3232 -54.1111 -54.0914 -54.0856 -54.0841
   -54.0836 -54.0798 -54.0791 -54.0758 -54.0523 -54.0168 -54.0140 -54.0067
   -53.9487 -53.9350 -53.9286 -53.9090 -53.9015 -53.9002 -53.8984 -53.8865
   -53.8856 -53.8838 -53.8785 -53.8720 -53.8709 -53.8691 -53.8688 -53.8644
   -53.8605 -53.8516 -53.8438 -53.8434 -53.8426 -53.8290 -53.8132 -53.7962
   -11.1206  -4.6573  -4.4387  -4.0624  -4.0480  -3.9085  -3.8948  -3.8683
    -3.8481  -3.7704  -3.7484  -3.6747  -3.6592  -3.6220  -3.5972  -3.5415
    -3.5220  -3.4593  -3.4209  -3.2531  -3.2453  -3.2264  -3.1987  -3.1808
    -3.1486  -3.1029  -3.0577  -2.9948  -2.8760  -2.8672  -2.8409  -2.8059
    -2.7919  -2.7688  -2.7266  -2.6550  -2.5952  -2.5712  -2.5658  -2.5312
    -2.5184  -2.5129  -2.4657  -2.4484  -2.3804  -2.3532  -2.3394  -2.3034
    -2.2656  -2.2299  -2.2238  -2.2217  -2.2005  -2.1824  -2.1631  -2.0686
    -2.0510  -2.0083  -1.9439  -1.7513  -1.7310  -1.7185  -1.6933  -1.5971
    -1.5782  -1.0239  -0.6903   0.6760   1.2094   1.2881   1.8540   2.1948
     2.5693   3.1163   4.3281   4.4142   4.8369   5.4009   5.7387

     the Fermi energy is     1.4490 ev

!    total energy              =   -3575.01066427 Ry
     Harris-Foulkes estimate   =   -3575.01066427 Ry
     estimated scf accuracy    <          9.6E-09 Ry

     The total energy is the sum of the following terms:

     one-electron contribution =  -26122.42928829 Ry
     hartree contribution      =   13056.10272292 Ry
     xc contribution           =    -367.02937672 Ry
     ewald contribution        =    9858.36755141 Ry
     electric field correction =       0.00000436 Ry
     smearing contrib. (-TS)   =      -0.02227794 Ry

     convergence has been achieved in   7 iterations

 BEEF-vdW xc energy contributions
           1 :   -317.831170945527
           2 :    287.506538986919
           3 :   -237.061711507814
           4 :    181.828831844133
           5 :   -135.582643782995
           6 :    105.642697531619
           7 :   -91.5802926637122
           8 :    87.4674094282453
           9 :   -86.0047509121716
          10 :    82.1941388779048
          11 :   -74.8796275460313
          12 :    65.8885222337291
          13 :   -57.8530948918286
          14 :    52.2760939019291
          15 :   -48.8977434361164
          16 :    46.3839487539390
          17 :   -43.5423555102060
          18 :    40.1170632569582
          19 :   -36.7144257191812
          20 :    34.0977592624791
          21 :   -32.4900989893953
          22 :    31.4028692262134
          23 :   -30.0501073922442
          24 :    27.9709583326013
          25 :   -25.3797001890746
          26 :    23.0019554600651
          27 :   -21.5453656405298
          28 :    21.1996509851002
          29 :   -21.5173097970585
          30 :    21.7363507486492
          31 :   -31.8862950132670
          32 :   -23.1580015276610

     Forces acting on atoms (Ry/au):

     negative rho (up, down):  2.010E-03 0.000E+00
     atom    1 type  1   force =     0.00000242   -0.00158454    0.00106599
     atom    2 type  1   force =    -0.00000291   -0.00016834   -0.00044134
     atom    3 type  1   force =     0.00119452    0.00091422    0.00063873
     atom    4 type  1   force =    -0.00121609    0.00092282    0.00057207
     atom    5 type  1   force =     0.00132356   -0.00333780   -0.00243118
     atom    6 type  1   force =    -0.00098731   -0.00332626   -0.00241697
     atom    7 type  1   force =     0.00015262    0.00519407    0.00689727
     atom    8 type  1   force =     0.00015351    0.00146475   -0.00443326
     atom    9 type  1   force =    -0.00070453    0.00013411   -0.00053907
     atom   10 type  1   force =     0.00079567    0.00011666   -0.00111612
     atom   11 type  1   force =    -0.00002855   -0.00073721    0.00024117
     atom   12 type  1   force =     0.00000269    0.00057610    0.00025419
     atom   13 type  2   force =    -0.00154461   -0.00002293   -0.00075647
     atom   14 type  3   force =    -0.00113874   -0.00003919    0.00124808
     atom   15 type  3   force =     0.00100387    0.00065711    0.00063661
     atom   16 type  3   force =     0.00099386   -0.00076358    0.00058032

     Total force =     0.003642     Total SCF correction =     0.000258

     entering subroutine stress ...

     negative rho (up, down):  2.010E-03 0.000E+00
          total   stress  (Ry/bohr**3)                   (kbar)     P=   -6.41
  -0.00006170  -0.00000028  -0.00000095         -9.08     -0.04     -0.14
  -0.00000028  -0.00004831  -0.00000030         -0.04     -7.11     -0.04
  -0.00000095  -0.00000030  -0.00002070         -0.14     -0.04     -3.04

     bfgs converged in  21 scf cycles and  20 bfgs steps
     (criteria: energy <  1.0E+00, force <  1.9E-03)

     End of BFGS Geometry Optimization

     Final energy   =   -3575.0106642700 Ry
Begin final coordinates

ATOMIC_POSITIONS (crystal)
Ag1      0.166666667   0.166666667   0.402063960    0   0   0
Ag1      0.666666667   0.166666667   0.402063960    0   0   0
Ag1      0.166666667   0.666666667   0.402063960    0   0   0
Ag1      0.666666667   0.666666667   0.402063960    0   0   0
Ag1      0.833333333   0.333333333   0.500000000    0   0   0
Ag1      0.333333333   0.333333333   0.500000000    0   0   0
Ag1      0.833333333   0.833333333   0.500000000    0   0   0
Ag1      0.333333333   0.833333333   0.500000000    0   0   0
Ag1      0.012284143  -0.001500281   0.599755765
Ag1      0.493420665  -0.001666001   0.599488373
Ag1     -0.003916472   0.510805933   0.595114605
Ag1      0.507790959   0.487135428   0.594922226
C1       0.254181233  -0.000743472   0.681428192
H1       0.427775391  -0.000367044   0.695452989
H1       0.083830323   0.173002531   0.696018069
H1       0.257430776   0.826026027   0.696309258
End final coordinates

     Writing output data file calc.save

     General routines

     Parallel routines

   This run was terminated on:  12:15:58  16Apr2018

   JOB DONE.
Job  /afs/slac/g/suncat/bin/suncat-tsmpirun -x LD_LIBRARY_PATH -wdir /scratch/qe104753_ozjke pw.x -npool 4 -in pw.inp

TID   HOST_NAME   COMMAND_LINE            STATUS            TERMINATION_TIME
00000 suncat0097 pw.x -npool 4 -i  Done                     04/16/2018 12:15:58
00001 suncat0097 pw.x -npool 4 -i  Done                     04/16/2018 12:15:58
00002 suncat0097 pw.x -npool 4 -i  Done                     04/16/2018 12:15:58
00003 suncat0097 pw.x -npool 4 -i  Done                     04/16/2018 12:15:58
00004 suncat0097 pw.x -npool 4 -i  Done                     04/16/2018 12:15:58
00005 suncat0097 pw.x -npool 4 -i  Done                     04/16/2018 12:15:58
00006 suncat0097 pw.x -npool 4 -i  Done                     04/16/2018 12:15:58
00007 suncat0097 pw.x -npool 4 -i  Done                     04/16/2018 12:15:58
00008 suncat0096 pw.x -npool 4 -i  Done                     04/16/2018 12:15:58
00009 suncat0096 pw.x -npool 4 -i  Done                     04/16/2018 12:15:58
00010 suncat0096 pw.x -npool 4 -i  Done                     04/16/2018 12:15:58
00011 suncat0096 pw.x -npool 4 -i  Done                     04/16/2018 12:15:58
00012 suncat0096 pw.x -npool 4 -i  Done                     04/16/2018 12:15:58
00013 suncat0096 pw.x -npool 4 -i  Done                     04/16/2018 12:15:58
00014 suncat0096 pw.x -npool 4 -i  Done                     04/16/2018 12:15:58
00015 suncat0096 pw.x -npool 4 -i  Done                     04/16/2018 12:15:58
00016 suncat0007 pw.x -npool 4 -i  Done                     04/16/2018 12:15:58
00017 suncat0007 pw.x -npool 4 -i  Done                     04/16/2018 12:15:58
00018 suncat0007 pw.x -npool 4 -i  Done                     04/16/2018 12:15:58
00019 suncat0007 pw.x -npool 4 -i  Done                     04/16/2018 12:15:58
00020 suncat0007 pw.x -npool 4 -i  Done                     04/16/2018 12:15:58
00021 suncat0007 pw.x -npool 4 -i  Done                     04/16/2018 12:15:58
00022 suncat0007 pw.x -npool 4 -i  Done                     04/16/2018 12:15:58
00023 suncat0007 pw.x -npool 4 -i  Done                     04/16/2018 12:15:58
00024 suncat0148 pw.x -npool 4 -i  Done                     04/16/2018 12:15:58
00025 suncat0148 pw.x -npool 4 -i  Done                     04/16/2018 12:15:58
00026 suncat0148 pw.x -npool 4 -i  Done                     04/16/2018 12:15:58
00027 suncat0148 pw.x -npool 4 -i  Done                     04/16/2018 12:15:58
00028 suncat0148 pw.x -npool 4 -i  Done                     04/16/2018 12:15:58
00029 suncat0148 pw.x -npool 4 -i  Done                     04/16/2018 12:15:58
00030 suncat0148 pw.x -npool 4 -i  Done                     04/16/2018 12:15:58
00031 suncat0148 pw.x -npool 4 -i  Done                     04/16/2018 12:15:58