     Program PWSCF v.5.1rc2 (svn rev. ) starts on 16Apr2018 at 11:53:53

     Current dimensions of program PWSCF are:
     Max number of different atomic species (ntypx) = 10
     Max number of k-points (npk) =  40000
     Max angular momentum in pseudopotentials (lmaxx) =  3
     Presently stress not available with electric field

     IMPORTANT: XC functional enforced from input :
     Exchange-correlation      = BEEF-VDW ( 1  4 27 13 2)
     Any further DFT definition will be discarded
     Please, verify this is what you really want

     Subspace diagonalization in iterative solution of the eigenvalue problem:
     a serial algorithm will be used

     bravais-lattice index     =            0
     lattice parameter (alat)  =       1.8897  a.u.
     unit-cell volume          =    5144.9564 (a.u.)^3
     number of atoms/cell      =           14
     number of atomic types    =            3
     number of electrons       =       138.00
     number of Kohn-Sham states=           79
     kinetic-energy cutoff     =      36.7493  Ry
     charge density cutoff     =     367.4932  Ry
     convergence threshold     =      1.0E-05
     mixing beta               =       0.3000
     number of iterations used =           10  plain     mixing
     Exchange-correlation      = BEEF-VDW ( 1  4 27 13 2)
     nstep                     =           50

     celldm(1)=   1.889726  celldm(2)=   0.000000  celldm(3)=   0.000000
     celldm(4)=   0.000000  celldm(5)=   0.000000  celldm(6)=   0.000000

     crystal axes: (cart. coord. in units of alat)
               a(1) = (   5.950946   0.000000   0.000000 )
               a(2) = (   2.975473   5.153671   0.000000 )
               a(3) = (   0.000000   0.000000  24.858927 )

     reciprocal axes: (cart. coord. in units 2 pi/alat)
               b(1) = (  0.168040 -0.097018  0.000000 )
               b(2) = (  0.000000  0.194036  0.000000 )
               b(3) = (  0.000000  0.000000  0.040227 )

     PseudoPot. # 1 for Au read from file:
     /home/mamunm/src/pseudo/gbrv1.5pbe/Au.UPF
     MD5 check sum: 9d7f43293ad2c663164586bc4b293ffc
     Pseudo is Ultrasoft + core correction, Zval = 11.0
     Generated by new atomic code, or converted to UPF format
     Using radial grid of  985 points,  7 beta functions with:
                l(1) =   0
                l(2) =   0
                l(3) =   1
                l(4) =   1
                l(5) =   2
                l(6) =   2
                l(7) =   3
     Q(r) pseudized with  6 coefficients,  rinner =    1.900   1.900   1.900
                                                       1.900   1.900   1.900
                                                       1.900

     PseudoPot. # 2 for N  read from file:
     /home/mamunm/src/pseudo/gbrv1.5pbe/N.UPF
     MD5 check sum: 95339753478d7afb44899504a8723017
     Pseudo is Ultrasoft + core correction, Zval =  5.0
     Generated by new atomic code, or converted to UPF format
     Using radial grid of  729 points,  4 beta functions with:
                l(1) =   0
                l(2) =   0
                l(3) =   1
                l(4) =   1
     Q(r) pseudized with  8 coefficients,  rinner =    0.900   0.900   0.900

     PseudoPot. # 3 for H  read from file:
     /home/mamunm/src/pseudo/gbrv1.5pbe/H.UPF
     MD5 check sum: 761ae9a214b05c3daf00ab9f6b793d6f
     Pseudo is Ultrasoft, Zval =  1.0
     Generated by new atomic code, or converted to UPF format
     Using radial grid of  615 points,  2 beta functions with:
                l(1) =   0
                l(2) =   0
     Q(r) pseudized with  8 coefficients,  rinner =    0.700

     vdW kernel table read from file vdW_kernel_table
     MD5 check sum: 095c7af220d748ca6e76c0b4c6cfb241

     atomic species   valence    mass     pseudopotential
        Au1           11.00   196.96657     Au( 1.00)
        N1             5.00    14.00700     N ( 1.00)
        H1             1.00     1.00800     H ( 1.00)

     No symmetry found

   Cartesian axes

     site n.     atom                  positions (alat units)
         1           Au1 tau(   1) = (   1.4877366   0.8589451  10.0000000  )
         2           Au1 tau(   2) = (   4.4632098   0.8589451  10.0000000  )
         3           Au1 tau(   3) = (   2.9754732   3.4357805  10.0000000  )
         4           Au1 tau(   4) = (   5.9509464   3.4357805  10.0000000  )
         5           Au1 tau(   5) = (   5.9509464   1.7178903  12.4294637  )
         6           Au1 tau(   6) = (   2.9754732   1.7178903  12.4294637  )
         7           Au1 tau(   7) = (   7.4386830   4.2947256  12.4294637  )
         8           Au1 tau(   8) = (   4.4632098   4.2947256  12.4294637  )
         9           Au1 tau(   9) = (   0.0000000   0.0000000  14.8589274  )
        10           Au1 tau(  10) = (   2.9754732   0.0000000  14.8589274  )
        11           Au1 tau(  11) = (   1.4877366   2.5768354  14.8589274  )
        12           Au1 tau(  12) = (   4.4632098   2.5768354  14.8589274  )
        13           N1  tau(  13) = (   2.9754732   1.7178903  16.2044274  )
        14           H1  tau(  14) = (   2.9754732   1.7178903  17.2544274  )

     number of k points=    20  Fermi-Dirac smearing, width (Ry)=  0.0110
                       cart. coord. in units 2pi/alat
        k(    1) = (   0.0000000   0.0000000   0.0000000), wk =   0.0555556
        k(    2) = (   0.0000000   0.0323394   0.0000000), wk =   0.1111111
        k(    3) = (   0.0000000   0.0646788   0.0000000), wk =   0.1111111
        k(    4) = (   0.0000000  -0.0970182   0.0000000), wk =   0.0555556
        k(    5) = (   0.0280067  -0.0161697   0.0000000), wk =   0.1111111
        k(    6) = (   0.0280067   0.0161697   0.0000000), wk =   0.1111111
        k(    7) = (   0.0280067   0.0485091   0.0000000), wk =   0.1111111
        k(    8) = (   0.0280067  -0.1131879   0.0000000), wk =   0.1111111
        k(    9) = (   0.0280067  -0.0808485   0.0000000), wk =   0.1111111
        k(   10) = (   0.0280067  -0.0485091   0.0000000), wk =   0.1111111
        k(   11) = (   0.0560135  -0.0323394   0.0000000), wk =   0.1111111
        k(   12) = (   0.0560135   0.0000000   0.0000000), wk =   0.1111111
        k(   13) = (   0.0560135   0.0323394   0.0000000), wk =   0.1111111
        k(   14) = (   0.0560135  -0.1293576   0.0000000), wk =   0.1111111
        k(   15) = (   0.0560135  -0.0970182   0.0000000), wk =   0.1111111
        k(   16) = (   0.0560135  -0.0646788   0.0000000), wk =   0.1111111
        k(   17) = (  -0.0840202   0.0485091   0.0000000), wk =   0.0555556
        k(   18) = (  -0.0840202   0.0808485   0.0000000), wk =   0.1111111
        k(   19) = (  -0.0840202   0.1131879   0.0000000), wk =   0.1111111
        k(   20) = (  -0.0840202  -0.0485091   0.0000000), wk =   0.0555556

     Largest allocated arrays     est. size (Mb)     dimensions
     Largest temporary arrays     est. size (Mb)     dimensions

     Check: negative/imaginary core charge=   -0.000002    0.000000

     Initial potential from superposition of free atoms

     starting charge  137.99852, renormalised to  138.00000

     negative rho (up, down):  7.729E-05 0.000E+00

     *
     * You are using vdW-DF for exchange-correlation in this calculation.
     * Please cite the following three references that made this development
     * possible:
     *
     *   M. Dion, H. Rydberg, E. Schroder, D. C. Langreth, and
     *   B. I. Lundqvist, Phys. Rev. Lett. 92, 246401 (2004).
     *
     *   T. Thonhauser, V. R. Cooper, S. Li, A. Puzder, P. Hyldgaard, and
     *   D. C. Langreth, Phys. Rev. B 76, 125112 (2007).
     *
     *   G. Roman-Perez and J. M. Soler, Phys. Rev. Lett. 103, 096102 (2009).
     *
     *
     * If you are using vdW-DF2, please also cite:
     *
     *   K. Lee, E. D. Murray, L. Kong, B. I. Lundqvist, and
     *   D. C. Langreth, Phys. Rev. B 82, 081101(R) (2010).
     *
     *
     * If you are calculating the stress with vdW-DF, please also cite:
     *
     *   R. Sabatini, E. Kucukbenli, B. Kolb, T. Thonhauser, and
     *   S. de Gironcoli, J. Phys.: Condens. Matter 24, 424209 (2012).
     *

     Carrying out vdW-DF run using the following parameters:

     Nqs =      20    Nr_points =    1024   r_max =   100.000
     q_mesh =
               0.00001000     0.04494208     0.09755937     0.15916263
               0.23128650     0.31572767     0.41458969     0.53033537
               0.66584808     0.82450364     1.01025438     1.22772762
               1.48234092     1.78043706     2.12944203     2.53805004
               3.01644009     3.57652955     4.23227104     5.00000000

     Gradients computed in reciprocal space

     Adding external electric field

     Computed dipole along edir(3) :
        Dipole               -0.0003 Ry au,         -0.0009 Debye
        Dipole field         -0.0000 Ry au

        Potential amp.        0.0001 Ry
        Total length         45.8022 bohr

     Starting wfc are  113 randomized atomic wfcs

     Self-consistent Calculation

     iteration #  1     ecut=    36.75 Ry     beta=0.30
     Davidson diagonalization with overlap
     ethr =  1.00E-02,  avg # of iterations =  2.4

[...]

     total energy              =   -1421.33018276 Ry
     Harris-Foulkes estimate   =   -1422.11826136 Ry
     estimated scf accuracy    <       1.79755037 Ry

[...]

     End of self-consistent calculation

          k = 0.0000 0.0000 0.0000 ( 19315 PWs)   bands (ev):

   -14.6434  -7.7044  -7.0607  -5.9443  -5.6939  -5.6181  -5.6181  -5.5370
    -5.4071  -5.4071  -5.1380  -5.1311  -5.1311  -5.0700  -4.9711  -4.9711
    -4.4807  -4.2796  -4.2796  -3.8554  -3.8554  -3.8536  -3.7640  -3.7640
    -3.7322  -3.6265  -3.6265  -3.4312  -3.4311  -3.4156  -3.3271  -3.3271
    -3.3059  -3.1273  -3.1273  -2.8472  -2.7688  -2.6943  -2.6942  -2.4707
    -2.4133  -2.4133  -2.1698  -2.1698  -2.1164  -2.1164  -1.8528  -1.8528
    -1.7182  -1.6722  -1.6496  -1.6496  -1.6069  -1.6069  -1.5389  -1.4696
    -1.4478  -1.4478  -1.3584  -1.2774  -1.2774  -1.1667  -1.1624  -1.1624
    -0.5292  -0.1375  -0.1375   1.1296   1.1296   1.1638   1.4342   1.8314
     1.8314   1.9617   2.0756   2.0756   3.2899   3.6895   3.9641

[...]

          k =-0.0840 0.0485 0.0000 ( 19380 PWs)   bands (ev):

[...]

     the Fermi energy is     0.5290 ev

!    total energy              =   -1421.87216102 Ry
     Harris-Foulkes estimate   =   -1421.87215545 Ry
     estimated scf accuracy    <       0.00000840 Ry

     The total energy is the sum of the following terms:

     one-electron contribution =   -8352.36578397 Ry
     hartree contribution      =    4275.87252167 Ry
     xc contribution           =    -774.38130287 Ry
     ewald contribution        =    3429.02897959 Ry
     electric field correction =       0.00011944 Ry
     smearing contrib. (-TS)   =      -0.02669488 Ry

     convergence has been achieved in  10 iterations

 BEEF-vdW xc energy contributions
           1 :   -692.013512237489
           2 :    643.123560702448
           3 :   -555.735808693717
           4 :    446.829854486079
           5 :   -334.706468715062
           6 :    234.281929203063
           7 :   -154.278285039376
           8 :    96.7699394737965
           9 :   -58.7960025345247
          10 :    35.0305306726855
          11 :   -20.3078226111465
          12 :    11.0730232981384
          13 :   -5.52670061192521
          14 :    2.85500298782813
          15 :   -2.27645115907671
          16 :    2.52383496766970
          17 :   -2.00562691457333
          18 :  -0.561282543857601
          19 :    5.49165320240400
          20 :   -11.8808364853066
          21 :    17.9436111469076
          22 :   -21.8036738599717
          23 :    22.3340573608962
          24 :   -19.6353138408344
          25 :    14.9307742458384
          26 :   -9.96566477176509
          27 :    6.22988859119414
          28 :   -4.39362151717251
          29 :    4.19966324516759
          30 :   -4.81008831328472
          31 :   -54.8623067177622
          32 :   -39.9654622368856

     Forces acting on atoms (Ry/au):

     negative rho (up, down):  6.182E-04 0.000E+00
     atom    1 type  1   force =    -0.00016938   -0.00009569   -0.00465296
     atom    2 type  1   force =     0.00016252   -0.00009834   -0.00466840
     atom    3 type  1   force =    -0.00000511    0.00020012   -0.00469001
     atom    4 type  1   force =    -0.00000524   -0.00000328   -0.00911256
     atom    5 type  1   force =     0.00000360    0.00415993    0.00710439
     atom    6 type  1   force =    -0.00000081   -0.00000694   -0.00957845
     atom    7 type  1   force =    -0.00360570   -0.00207762    0.00708581
     atom    8 type  1   force =     0.00360096   -0.00207882    0.00707021
     atom    9 type  1   force =     0.00000103   -0.00000509   -0.00372611
     atom   10 type  1   force =     0.00000509   -0.02724406    0.01676800
     atom   11 type  1   force =    -0.02359069    0.01362594    0.01676237
     atom   12 type  1   force =     0.02360237    0.01362505    0.01677767
     atom   13 type  2   force =     0.00000028   -0.00000022    0.00634398
     atom   14 type  3   force =     0.00000108   -0.00000099   -0.04148394

     Total force =     0.069612     Total SCF correction =     0.012582
     SCF correction compared to forces is large: reduce conv_thr to get better values

     entering subroutine stress ...

     negative rho (up, down):  6.182E-04 0.000E+00
          total   stress  (Ry/bohr**3)                   (kbar)     P=   -5.89
  -0.00006092   0.00000000  -0.00000000         -8.96      0.00     -0.00
   0.00000000  -0.00006092   0.00000000          0.00     -8.96      0.00
  -0.00000000   0.00000000   0.00000174         -0.00      0.00      0.26

     BFGS Geometry Optimization

     number of scf cycles    =   1
     number of bfgs steps    =   0

     energy   new            =   -1421.8721610171 Ry

     new trust radius        =       0.0414839438 bohr
     new conv_thr            =       0.0000099958 Ry

ATOMIC_POSITIONS (crystal)
Au1      0.166666667   0.166666667   0.402269971    0   0   0
Au1      0.666666667   0.166666667   0.402269971    0   0   0
Au1      0.166666667   0.666666667   0.402269971    0   0   0
Au1      0.666666667   0.666666667   0.402269971    0   0   0
Au1      0.833333333   0.333333333   0.500000000    0   0   0
Au1      0.333333333   0.333333333   0.500000000    0   0   0
Au1      0.833333333   0.833333333   0.500000000    0   0   0
Au1      0.333333333   0.833333333   0.500000000    0   0   0
Au1      0.000000353  -0.000000522   0.597650711
Au1      0.501399158  -0.002797412   0.598086973
Au1     -0.002797313   0.501399107   0.598086853
Au1      0.501399290   0.501399016   0.598087179
N1       0.333333370   0.333333310   0.651990499
H1       0.333333481   0.333333232   0.693210723

     Writing output data file calc.save
     NEW-OLD atomic charge density approx. for the potential

[...]

     Total force =     0.058837     Total SCF correction =     0.003075

[...]

     energy   old            =   -1421.8721610171 Ry
     energy   new            =   -1421.8758318106 Ry

     CASE: energy  _new < energy  _old

[...]

     Threshold (ethr) on eigenvalues was too large:
     Diagonalizing with lowered threshold

     Davidson diagonalization with overlap
     ethr =  1.05E-08,  avg # of iterations =  2.0

[...]

     Total force =     0.006785     Total SCF correction =     0.000277

[...]

     number of scf cycles    =  12
     number of bfgs steps    =  11

     energy   old            =   -1421.8985215487 Ry
     energy   new            =   -1421.8985693372 Ry

     CASE: energy  _new < energy  _old

     new trust radius        =       0.0096540270 bohr
     new conv_thr            =       0.0000001000 Ry

ATOMIC_POSITIONS (crystal)
Au1      0.166666667   0.166666667   0.402269971    0   0   0
Au1      0.666666667   0.166666667   0.402269971    0   0   0
Au1      0.166666667   0.666666667   0.402269971    0   0   0
Au1      0.666666667   0.666666667   0.402269971    0   0   0
Au1      0.833333333   0.333333333   0.500000000    0   0   0
Au1      0.333333333   0.333333333   0.500000000    0   0   0
Au1      0.833333333   0.833333333   0.500000000    0   0   0
Au1      0.333333333   0.833333333   0.500000000    0   0   0
Au1      0.000003378   0.000000878   0.593815974
Au1      0.512962679  -0.025918231   0.605100428
Au1     -0.025914779   0.512959266   0.605099776
Au1      0.512964093   0.512959541   0.605102235
N1       0.333335416   0.333333753   0.644464444
H1       0.333332438   0.333332764   0.685510546

     Writing output data file calc.save
     NEW-OLD atomic charge density approx. for the potential

     Check: negative/imaginary core charge=   -0.000002    0.000000

[...]

     Self-consistent Calculation

[...]

     Threshold (ethr) on eigenvalues was too large:
     Diagonalizing with lowered threshold

     Davidson diagonalization with overlap
     ethr =  4.26E-09,  avg # of iterations =  2.5

[...]

     total energy              =   -1421.89858297 Ry
     Harris-Foulkes estimate   =   -1421.89858297 Ry
     estimated scf accuracy    <       0.00000013 Ry

     iteration #  6     ecut=    36.75 Ry     beta=0.30
     Davidson diagonalization with overlap
     ethr =  9.74E-11,  avg # of iterations =  2.4

[...]

     negative rho (up, down):  6.225E-04 0.000E+00

     Adding external electric field

     Computed dipole along edir(3) :
        Dipole                0.2582 Ry au,          0.6564 Debye
        Dipole field          0.0006 Ry au

        Potential amp.       -0.0578 Ry
        Total length         45.8022 bohr

     End of self-consistent calculation

[...]

          k = 0.0560-0.0647 0.0000 ( 19376 PWs)   bands (ev):

[...]

          k =-0.0840-0.0485 0.0000 ( 19380 PWs)   bands (ev):

   -15.3167  -7.0942  -6.1873  -5.8391  -5.6143  -4.9651  -4.9569  -4.8642
    -4.7586  -4.7276  -4.7045  -4.5596  -4.5513  -4.4655  -4.3533  -4.3016
    -4.2949  -4.2080  -4.1214  -4.0632  -3.9170  -3.8472  -3.8254  -3.7869
    -3.7839  -3.6717  -3.6277  -3.5133  -3.4613  -3.3994  -3.3151  -3.2042
    -3.1932  -3.1279  -3.1249  -3.0350  -2.9772  -2.9687  -2.9374  -2.9351
    -2.8565  -2.8440  -2.7213  -2.6982  -2.6253  -2.5984  -2.5175  -2.4324
    -2.4246  -2.3984  -2.3489  -2.2952  -2.2229  -2.1191  -2.0079  -1.9988
    -1.9016  -1.8598  -1.6375  -1.6121  -1.5650  -1.5518  -1.5177  -1.3601
    -1.3003  -0.7239  -0.3198  -0.0909   0.4997   0.7781   1.0179   1.3166
     2.2445   2.6252   3.7634   3.9740   4.3610   4.3731   5.4409

     the Fermi energy is     0.5895 ev

!    total energy              =   -1421.89858299 Ry
     Harris-Foulkes estimate   =   -1421.89858302 Ry
     estimated scf accuracy    <       0.00000002 Ry

     The total energy is the sum of the following terms:

     one-electron contribution =   -8266.91704593 Ry
     hartree contribution      =    4233.28226473 Ry
     xc contribution           =    -774.43585515 Ry
     ewald contribution        =    3386.19633607 Ry
     electric field correction =       0.00016289 Ry
     smearing contrib. (-TS)   =      -0.02444560 Ry

     convergence has been achieved in   6 iterations

 BEEF-vdW xc energy contributions
           1 :   -692.066811380158
           2 :    643.156161638671
           3 :   -555.727857720362
           4 :    446.776465257329
           5 :   -334.623352112202
           6 :    234.191675750708
           7 :   -154.189836577093
           8 :    96.6724276119638
           9 :   -58.6740530917562
          10 :    34.8893762513305
          11 :   -20.1860670958291
          12 :    11.0296358281659
          13 :   -5.60521484715343
          14 :    3.04652919710850
          15 :   -2.50944383032379
          16 :    2.69388328855530
          17 :   -2.03130776929777
          18 :  -0.687832014951823
          19 :    5.69171145148482
          20 :   -12.0277125294755
          21 :    17.9350780957431
          22 :   -21.6258585336547
          23 :    22.0765356001607
          24 :   -19.4443397712421
          25 :    14.9252952012122
          26 :   -10.1641045528823
          27 :    6.53238807663058
          28 :   -4.63340796832574
          29 :    4.23675628186436
          30 :   -4.61334296931511
          31 :   -54.8652057622097
          32 :   -39.9588560708785

     Forces acting on atoms (Ry/au):

     negative rho (up, down):  6.225E-04 0.000E+00
     atom    1 type  1   force =    -0.00047056   -0.00027163   -0.00612107
     atom    2 type  1   force =     0.00047050   -0.00027170   -0.00612043
     atom    3 type  1   force =    -0.00000009    0.00054333   -0.00612061
     atom    4 type  1   force =    -0.00000006    0.00000002   -0.00478592
     atom    5 type  1   force =    -0.00000067    0.00511004    0.00551556
     atom    6 type  1   force =     0.00000076    0.00000016    0.00433970
     atom    7 type  1   force =    -0.00442496   -0.00255456    0.00551592
     atom    8 type  1   force =     0.00442530   -0.00255560    0.00551557
     atom    9 type  1   force =    -0.00000067   -0.00000091    0.00025719
     atom   10 type  1   force =     0.00000079   -0.00030517    0.00039589
     atom   11 type  1   force =    -0.00026380    0.00015375    0.00039579
     atom   12 type  1   force =     0.00026421    0.00015315    0.00039493
     atom   13 type  2   force =    -0.00000087   -0.00000085   -0.00097719
     atom   14 type  3   force =     0.00000012   -0.00000004    0.00179467

     Total force =     0.002234     Total SCF correction =     0.000433
     SCF correction compared to forces is large: reduce conv_thr to get better values

     entering subroutine stress ...

     negative rho (up, down):  6.225E-04 0.000E+00
          total   stress  (Ry/bohr**3)                   (kbar)     P=   -3.65
  -0.00004793   0.00000000  -0.00000000         -7.05      0.00     -0.00
   0.00000000  -0.00004793  -0.00000000          0.00     -7.05     -0.00
  -0.00000000  -0.00000000   0.00002142         -0.00     -0.00      3.15

     bfgs converged in  13 scf cycles and  12 bfgs steps
     (criteria: energy <  1.0E+00, force <  1.9E-03)

     End of BFGS Geometry Optimization

     Final energy   =   -1421.8985829867 Ry
Begin final coordinates

ATOMIC_POSITIONS (crystal)
Au1      0.166666667   0.166666667   0.402269971    0   0   0
Au1      0.666666667   0.166666667   0.402269971    0   0   0
Au1      0.166666667   0.666666667   0.402269971    0   0   0
Au1      0.666666667   0.666666667   0.402269971    0   0   0
Au1      0.833333333   0.333333333   0.500000000    0   0   0
Au1      0.333333333   0.333333333   0.500000000    0   0   0
Au1      0.833333333   0.833333333   0.500000000    0   0   0
Au1      0.333333333   0.833333333   0.500000000    0   0   0
Au1      0.000003378   0.000000878   0.593815974
Au1      0.512962679  -0.025918231   0.605100428
Au1     -0.025914779   0.512959266   0.605099776
Au1      0.512964093   0.512959541   0.605102235
N1       0.333335416   0.333333753   0.644464444
H1       0.333332438   0.333332764   0.685510546
End final coordinates

     Writing output data file calc.save

     General routines

     Parallel routines

   This run was terminated on:  12:44:46  16Apr2018

   JOB DONE.