     Program PWSCF v.5.1rc2 (svn rev. 11289) starts on  2May2018 at 17: 8:44

     Current dimensions of program PWSCF are:
     Max number of different atomic species (ntypx) = 10
     Max number of k-points (npk) =  40000
     Max angular momentum in pseudopotentials (lmaxx) =  3
     Presently stress not available with electric field

     IMPORTANT: XC functional enforced from input :
     Exchange-correlation      = BEEF-VDW ( 1  4 27 13 2)
     Any further DFT definition will be discarded
     Please, verify this is what you really want

     Subspace diagonalization in iterative solution of the eigenvalue problem:
     a serial algorithm will be used

     bravais-lattice index     =            0
     lattice parameter (alat)  =       1.8897  a.u.
     unit-cell volume          =    4301.6107 (a.u.)^3
     number of atoms/cell      =           13
     number of atomic types    =            2
     number of electrons       =       186.00
     number of Kohn-Sham states=          103
     kinetic-energy cutoff     =      36.7493  Ry
     charge density cutoff     =     367.4932  Ry
     convergence threshold     =      1.0E-05
     mixing beta               =       0.3000
     number of iterations used =           10  plain     mixing
     Exchange-correlation      = BEEF-VDW ( 1  4 27 13 2)
     nstep                     =           50

     celldm(1)=   1.889726  celldm(2)=   0.000000  celldm(3)=   0.000000
     celldm(4)=   0.000000  celldm(5)=   0.000000  celldm(6)=   0.000000

     crystal axes: (cart. coord. in units of alat)
               a(1) = (   5.483647   0.000000   0.000000 )
               a(2) = (   2.741823   4.748977   0.000000 )
               a(3) = (   0.000000   0.000000  24.477379 )

     reciprocal axes: (cart. coord. in units 2 pi/alat)
               b(1) = (  0.182360 -0.105286  0.000000 )
               b(2) = (  0.000000  0.210572  0.000000 )
               b(3) = (  0.000000  0.000000  0.040854 )

     PseudoPot. # 1 for Tc read from file:
     /u/if/mamunm/psp/gbrv1.5pbe/Tc.UPF
     MD5 check sum: 9eb49e5b028550b2339a02317eb7b844
     Pseudo is Ultrasoft + core correction, Zval = 15.0
     Generated by new atomic code, or converted to UPF format
     Using radial grid of  965 points,  6 beta functions with:
                l(1) =   0
                l(2) =   0
                l(3) =   1
                l(4) =   1
                l(5) =   2
                l(6) =   2
     Q(r) pseudized with  8 coefficients,  rinner =    1.300   1.300   1.300
                                                       1.300   1.300

     PseudoPot. # 2 for O  read from file:
     /u/if/mamunm/psp/gbrv1.5pbe/O.UPF
     MD5 check sum: 734c27235a0248c51dbae37a1fbe46ec
     Pseudo is Ultrasoft + core correction, Zval =  6.0
     Generated by new atomic code, or converted to UPF format
     Using radial grid of  737 points,  5 beta functions with:
                l(1) =   0
                l(2) =   0
                l(3) =   1
                l(4) =   1
                l(5) =   2
     Q(r) pseudized with  8 coefficients,  rinner =    0.900   0.900   0.900
                                                       0.900   0.900

     vdW kernel table read from file vdW_kernel_table
     MD5 check sum: 095c7af220d748ca6e76c0b4c6cfb241

     atomic species   valence    mass     pseudopotential
        Tc1           15.00    97.90721     Tc( 1.00)
        O1             6.00    15.99900     O ( 1.00)

     No symmetry found

   Cartesian axes

     site n.     atom                  positions (alat units)
         1           Tc1 tau(   1) = (   1.3709117   0.7914962  10.0000000  )
         2           Tc1 tau(   2) = (   4.1127351   0.7914962  10.0000000  )
         3           Tc1 tau(   3) = (   2.7418234   3.1659850  10.0000000  )
         4           Tc1 tau(   4) = (   5.4836469   3.1659850  10.0000000  )
         5           Tc1 tau(   5) = (   5.4836469   1.5829925  12.2386895  )
         6           Tc1 tau(   6) = (   2.7418234   1.5829925  12.2386895  )
         7           Tc1 tau(   7) = (   6.8545586   3.9574812  12.2386895  )
         8           Tc1 tau(   8) = (   4.1127351   3.9574812  12.2386895  )
         9           Tc1 tau(   9) = (   0.0000000   0.0000000  14.4773789  )
        10           Tc1 tau(  10) = (   2.7418234   0.0000000  14.4773789  )
        11           Tc1 tau(  11) = (   1.3709117   2.3744887  14.4773789  )
        12           Tc1 tau(  12) = (   4.1127351   2.3744887  14.4773789  )
        13           O1  tau(  13) = (   0.0000000   0.0000000  16.2878789  )

     number of k points=    20  Fermi-Dirac smearing, width (Ry)=  0.0110
                       cart. coord. in units 2pi/alat
        k(    1) = (   0.0000000   0.0000000   0.0000000), wk =   0.0555556
        k(    2) = (   0.0000000   0.0350953   0.0000000), wk =   0.1111111
        k(    3) = (   0.0000000   0.0701905   0.0000000), wk =   0.1111111
        k(    4) = (   0.0000000  -0.1052858   0.0000000), wk =   0.0555556
        k(    5) = (   0.0303934  -0.0175476   0.0000000), wk =   0.1111111
        k(    6) = (   0.0303934   0.0175476   0.0000000), wk =   0.1111111
        k(    7) = (   0.0303934   0.0526429   0.0000000), wk =   0.1111111
        k(    8) = (   0.0303934  -0.1228335   0.0000000), wk =   0.1111111
        k(    9) = (   0.0303934  -0.0877382   0.0000000), wk =   0.1111111
        k(   10) = (   0.0303934  -0.0526429   0.0000000), wk =   0.1111111
        k(   11) = (   0.0607868  -0.0350953   0.0000000), wk =   0.1111111
        k(   12) = (   0.0607868   0.0000000   0.0000000), wk =   0.1111111
        k(   13) = (   0.0607868   0.0350953   0.0000000), wk =   0.1111111
        k(   14) = (   0.0607868  -0.1403811   0.0000000), wk =   0.1111111
        k(   15) = (   0.0607868  -0.1052858   0.0000000), wk =   0.1111111
        k(   16) = (   0.0607868  -0.0701905   0.0000000), wk =   0.1111111
        k(   17) = (  -0.0911802   0.0526429   0.0000000), wk =   0.0555556
        k(   18) = (  -0.0911802   0.0877382   0.0000000), wk =   0.1111111
        k(   19) = (  -0.0911802   0.1228335   0.0000000), wk =   0.1111111
        k(   20) = (  -0.0911802  -0.0526429   0.0000000), wk =   0.0555556

     Largest allocated arrays     est. size (Mb)     dimensions
     Largest temporary arrays     est. size (Mb)     dimensions

     Check: negative/imaginary core charge=   -0.000022    0.000000

     Initial potential from superposition of free atoms
     Check: negative starting charge=   -1.505065

     starting charge  173.99967, renormalised to  186.00000

     negative rho (up, down):  1.609E+00 0.000E+00

     *
     * You are using vdW-DF for exchange-correlation in this calculation.
     * Please cite the following three references that made this development
     * possible:
     *
     *   M. Dion, H. Rydberg, E. Schroder, D. C. Langreth, and
     *   B. I. Lundqvist, Phys. Rev. Lett. 92, 246401 (2004).
     *
     *   T. Thonhauser, V. R. Cooper, S. Li, A. Puzder, P. Hyldgaard, and
     *   D. C. Langreth, Phys. Rev. B 76, 125112 (2007).
     *
     *   G. Roman-Perez and J. M. Soler, Phys. Rev. Lett. 103, 096102 (2009).
     *
     *
     * If you are using vdW-DF2, please also cite:
     *
     *   K. Lee, E. D. Murray, L. Kong, B. I. Lundqvist, and
     *   D. C. Langreth, Phys. Rev. B 82, 081101(R) (2010).
     *
     *
     * If you are calculating the stress with vdW-DF, please also cite:
     *
     *   R. Sabatini, E. Kucukbenli, B. Kolb, T. Thonhauser, and
     *   S. de Gironcoli, J. Phys.: Condens. Matter 24, 424209 (2012).
     *

     Carrying out vdW-DF run using the following parameters:

     Nqs =      20    Nr_points =    1024   r_max =   100.000
     q_mesh =
               0.00001000     0.04494208     0.09755937     0.15916263
               0.23128650     0.31572767     0.41458969     0.53033537
               0.66584808     0.82450364     1.01025438     1.22772762
               1.48234092     1.78043706     2.12944203     2.53805004
               3.01644009     3.57652955     4.23227104     5.00000000

     Gradients computed in reciprocal space

     Adding external electric field

     Computed dipole along edir(3) :
        Dipole               -3.1664 Ry au,         -8.0481 Debye
        Dipole field         -0.0092 Ry au

        Potential amp.        0.8343 Ry
        Total length         45.0992 bohr

     Starting wfc are  160 randomized atomic wfcs

     Self-consistent Calculation

     iteration #  1     ecut=    36.75 Ry     beta=0.30
     Davidson diagonalization with overlap
     ethr =  1.00E-02,  avg # of iterations =  8.2

[...]

     total energy              =   -1863.11445009 Ry
     Harris-Foulkes estimate   =   -2129.30972575 Ry
     estimated scf accuracy    <     560.67047638 Ry

[...]

     End of self-consistent calculation

          k = 0.0000 0.0000 0.0000 ( 16073 PWs)   bands (ev):

   -65.5182 -65.1115 -64.9825 -64.9359 -64.9357 -64.8777 -64.7940 -64.7629
   -64.7502 -64.7500 -64.7036 -64.7032 -37.9575 -37.6140 -37.6140 -37.5313
   -37.5312 -37.4898 -37.3945 -37.2997 -37.2997 -37.2951 -37.2276 -36.9245
   -36.9244 -36.9046 -36.8583 -36.8193 -36.8193 -36.8120 -36.7692 -36.7690
   -36.7197 -36.7150 -36.7150 -36.6235 -36.6233 -36.5771 -36.5770 -36.5765
   -36.5507 -36.5398 -36.5397 -36.5135 -36.3809 -36.3808 -36.3443 -36.3443
   -15.4964  -4.3508  -3.1701  -3.1518  -3.1518  -3.0214  -2.9376  -2.7745
    -2.6413  -2.6412  -2.5981  -2.5981  -2.4610  -2.1419  -2.1418  -2.1063
    -1.7534  -1.7534  -1.7202  -0.8794  -0.3647  -0.3646  -0.0246   0.2153
     0.2808   0.2809   0.4793   0.4793   0.5703   0.7548   0.7548   0.8906
     0.9343   0.9343   1.0014   1.0014   1.4614   1.4615   1.8491   2.4044
     2.4666   2.4667   2.5291   2.6811   2.8432   2.8432   3.0001   3.0002
     3.3693   3.3693   3.4396   3.9272   3.9273   4.1958   4.1959

[...]

          k =-0.0912 0.0526 0.0000 ( 16164 PWs)   bands (ev):

[...]

     the Fermi energy is     2.1592 ev

!    total energy              =   -2135.88443034 Ry
     Harris-Foulkes estimate   =   -2135.88443180 Ry
     estimated scf accuracy    <       0.00000099 Ry

     The total energy is the sum of the following terms:

     one-electron contribution =  -19080.60088679 Ry
     hartree contribution      =    9540.27195386 Ry
     xc contribution           =    -404.44035211 Ry
     ewald contribution        =    7808.97601923 Ry
     electric field correction =       0.00020261 Ry
     smearing contrib. (-TS)   =      -0.09136715 Ry

     convergence has been achieved in  29 iterations

 BEEF-vdW xc energy contributions
           1 :   -354.221982220214
           2 :    325.376298198301
           3 :   -274.246160920564
           4 :    211.257410850961
           5 :   -147.348088935677
           6 :    90.9966841645495
           7 :   -46.6611275743528
           8 :    14.7397108152422
           9 :    7.14889217394159
          10 :   -22.3259105299097
          11 :    33.3941611664867
          12 :   -41.3919185160158
          13 :    45.8576286630515
          14 :   -45.6158108063042
          15 :    39.8096271655131
          16 :   -28.7265587617791
          17 :    14.0563720522642
          18 :    1.48560779591389
          19 :   -14.9822414711655
          20 :    24.1896274782172
          21 :   -28.1161416718537
          22 :    27.0949903091993
          23 :   -22.3916806709266
          24 :    15.5731942772856
          25 :   -7.95557363224987
          26 :   0.344808909213270
          27 :    6.88342254736426
          28 :   -13.4990896448378
          29 :    19.1344841522795
          30 :   -23.1744416025379
          31 :   -33.7738315302271
          32 :   -24.7244377265206

     Forces acting on atoms (Ry/au):

     negative rho (up, down):  1.589E+00 0.000E+00
     atom    1 type  1   force =     0.00032135    0.00020651    0.02680861
     atom    2 type  1   force =    -0.00032428    0.00018024    0.02682914
     atom    3 type  1   force =    -0.00000948   -0.00038065    0.02684342
     atom    4 type  1   force =     0.00001518   -0.00001361    0.03886235
     atom    5 type  1   force =     0.00000364    0.01348936   -0.00938796
     atom    6 type  1   force =    -0.00000068    0.00001046   -0.00914681
     atom    7 type  1   force =    -0.01167718   -0.00675295   -0.00940283
     atom    8 type  1   force =     0.01167712   -0.00675644   -0.00940686
     atom    9 type  1   force =    -0.00002366    0.00001558    0.11898258
     atom   10 type  1   force =     0.00001888   -0.00536747   -0.04490667
     atom   11 type  1   force =    -0.00466175    0.00268771   -0.04488252
     atom   12 type  1   force =     0.00465764    0.00268106   -0.04489057
     atom   13 type  2   force =     0.00000322    0.00000020   -0.06630188

     Total force =     0.157117     Total SCF correction =     0.003492

     entering subroutine stress ...

     negative rho (up, down):  1.589E+00 0.000E+00
          total   stress  (Ry/bohr**3)                   (kbar)     P=  -33.09
  -0.00020000   0.00000001  -0.00000001        -29.42      0.00     -0.00
   0.00000001  -0.00020000  -0.00000000          0.00    -29.42     -0.00
  -0.00000001  -0.00000000  -0.00027476         -0.00     -0.00    -40.42

     BFGS Geometry Optimization

     number of scf cycles    =   1
     number of bfgs steps    =   0

     energy   new            =   -2135.8844303444 Ry

     new trust radius        =       0.1189825855 bohr
     new conv_thr            =       0.0000099958 Ry

ATOMIC_POSITIONS (crystal)
Tc1      0.166666667   0.166666667   0.408540475    0   0   0
Tc1      0.666666667   0.166666667   0.408540475    0   0   0
Tc1      0.166666667   0.666666667   0.408540475    0   0   0
Tc1      0.666666667   0.666666667   0.408540475    0   0   0
Tc1      0.833333333   0.333333333   0.500000000    0   0   0
Tc1      0.333333333   0.333333333   0.500000000    0   0   0
Tc1      0.833333333   0.833333333   0.500000000    0   0   0
Tc1      0.333333333   0.833333333   0.500000000    0   0   0
Tc1     -0.000003152   0.000001736   0.594031813
Tc1      0.500300870  -0.000598096   0.590488687
Tc1     -0.000599609   0.500299491   0.590489209
Tc1      0.500300092   0.500298750   0.590489035
O1       0.000000299   0.000000023   0.663992396

     Writing output data file calc.save
     Check: negative starting charge=   -1.505065
     NEW-OLD atomic charge density approx. for the potential

     Check: negative/imaginary core charge=   -0.000022    0.000000
     Check: negative starting charge=   -1.513626

[...]

     energy   old            =   -2135.8844303444 Ry
     energy   new            =   -2135.9018662671 Ry

     CASE: energy  _new < energy  _old

[...]

     iteration #  1     ecut=    36.75 Ry     beta=0.30
     Davidson diagonalization with overlap
     c_bands:  1 eigenvalues not converged
     ethr =  1.00E-06,  avg # of iterations = 11.6

[...]

     iteration #  1     ecut=    36.75 Ry     beta=0.30
     Davidson diagonalization with overlap
     c_bands:  1 eigenvalues not converged
     ethr =  1.00E-06,  avg # of iterations = 14.2

[...]

     Total force =     0.007690     Total SCF correction =     0.000725

[...]

     number of scf cycles    =  11
     number of bfgs steps    =  10

     energy   old            =   -2135.9485336089 Ry
     energy   new            =   -2135.9486394813 Ry

     CASE: energy  _new < energy  _old

     new trust radius        =       0.0030101896 bohr
     new conv_thr            =       0.0000001000 Ry

ATOMIC_POSITIONS (crystal)
Tc1      0.166666667   0.166666667   0.408540475    0   0   0
Tc1      0.666666667   0.166666667   0.408540475    0   0   0
Tc1      0.166666667   0.666666667   0.408540475    0   0   0
Tc1      0.666666667   0.666666667   0.408540475    0   0   0
Tc1      0.833333333   0.333333333   0.500000000    0   0   0
Tc1      0.333333333   0.333333333   0.500000000    0   0   0
Tc1      0.833333333   0.833333333   0.500000000    0   0   0
Tc1      0.333333333   0.833333333   0.500000000    0   0   0
Tc1      0.000001913  -0.000000016   0.612957772
Tc1      0.501495001  -0.002992913   0.586639885
Tc1     -0.002992572   0.501496217   0.586638149
Tc1      0.501496412   0.501498292   0.586638838
O1       0.000003085  -0.000001782   0.681819959

     Writing output data file calc.save
     Check: negative starting charge=   -1.508939
     NEW-OLD atomic charge density approx. for the potential

     Check: negative/imaginary core charge=   -0.000022    0.000000
     Check: negative starting charge=   -1.508744

[...]

     Self-consistent Calculation

[...]

     Threshold (ethr) on eigenvalues was too large:
     Diagonalizing with lowered threshold

     Davidson diagonalization with overlap
     ethr =  6.80E-08,  avg # of iterations =  1.9

[...]

     total energy              =   -2135.94865723 Ry
     Harris-Foulkes estimate   =   -2135.94865738 Ry
     estimated scf accuracy    <       0.00000018 Ry

     iteration #  9     ecut=    36.75 Ry     beta=0.30
     Davidson diagonalization with overlap
     ethr =  9.47E-11,  avg # of iterations =  2.8

[...]

     negative rho (up, down):  1.594E+00 0.000E+00

     Adding external electric field

     Computed dipole along edir(3) :
        Dipole               -0.2844 Ry au,         -0.7230 Debye
        Dipole field         -0.0008 Ry au

        Potential amp.        0.0750 Ry
        Total length         45.0992 bohr

     End of self-consistent calculation

[...]

          k = 0.0608-0.0702 0.0000 ( 16203 PWs)   bands (ev):

[...]

          k =-0.0912-0.0526 0.0000 ( 16164 PWs)   bands (ev):

   -65.6310 -65.0609 -65.0501 -64.9766 -64.9741 -64.8141 -64.8059 -64.7878
   -64.7773 -64.7514 -64.7451 -64.6999 -38.3374 -37.4376 -37.4290 -37.4277
   -37.3777 -37.3349 -37.3063 -37.2732 -37.2210 -37.1677 -37.1564 -37.0991
   -37.0700 -37.0155 -36.9185 -36.8436 -36.8209 -36.7986 -36.7925 -36.7817
   -36.7774 -36.7484 -36.7383 -36.7227 -36.7187 -36.6942 -36.6845 -36.6720
   -36.6406 -36.6162 -36.5747 -36.5412 -36.5231 -36.4586 -36.4298 -36.4089
   -16.1397  -3.1624  -2.8277  -2.6725  -2.6326  -2.6094  -2.1910  -2.0455
    -1.9922  -1.9155  -1.8100  -1.6163  -1.5518  -1.4950  -1.3241  -1.3010
    -1.1477  -1.0791  -0.9696  -0.7788  -0.6047  -0.5574  -0.5151  -0.3664
    -0.2693  -0.1464   0.1957   0.2179   0.2914   0.3746   0.6324   0.6667
     0.7014   0.7430   0.7751   0.8790   0.9452   0.9686   1.0097   1.1221
     1.1502   1.2584   1.7668   1.9458   1.9527   2.1244   2.1568   2.3191
     2.3310   2.5634   2.6679   2.7070   2.7980   2.8644   3.1846

     the Fermi energy is     2.1539 ev

!    total energy              =   -2135.94865724 Ry
     Harris-Foulkes estimate   =   -2135.94865754 Ry
     estimated scf accuracy    <       0.00000001 Ry

     The total energy is the sum of the following terms:

     one-electron contribution =  -18813.99630276 Ry
     hartree contribution      =    9406.70436738 Ry
     xc contribution           =    -404.44202437 Ry
     ewald contribution        =    7675.87021076 Ry
     electric field correction =       0.00023636 Ry
     smearing contrib. (-TS)   =      -0.08514461 Ry

     convergence has been achieved in   9 iterations

 BEEF-vdW xc energy contributions
           1 :   -354.223854512130
           2 :    325.349236430198
           3 :   -274.197246240489
           4 :    211.210201625661
           5 :   -147.316376194204
           6 :    90.9799192772540
           7 :   -46.6373721456571
           8 :    14.6602011525021
           9 :    7.34124533767482
          10 :   -22.6579404404056
          11 :    33.8330795620038
          12 :   -41.8483198409706
          13 :    46.2261437676208
          14 :   -45.8298741596534
          15 :    39.8789263463143
          16 :   -28.7332344207425
          17 :    14.1056542423344
          18 :    1.33045518093462
          19 :   -14.7364301561230
          20 :    23.9372710862148
          21 :   -27.9603469107545
          22 :    27.0933180901583
          23 :   -22.5168433424435
          24 :    15.7259018899753
          25 :   -8.02016534225743
          26 :   0.255622242979143
          27 :    7.10239712816855
          28 :   -13.7459821305032
          29 :    19.2822145085045
          30 :   -23.1339621109263
          31 :   -33.7711667958130
          32 :   -24.7141198465250

     Forces acting on atoms (Ry/au):

     negative rho (up, down):  1.594E+00 0.000E+00
     atom    1 type  1   force =     0.00015247    0.00008836    0.02713914
     atom    2 type  1   force =    -0.00015287    0.00008827    0.02713891
     atom    3 type  1   force =    -0.00000046   -0.00017567    0.02713578
     atom    4 type  1   force =    -0.00000002    0.00000047    0.04098932
     atom    5 type  1   force =    -0.00000170    0.01309838   -0.02768526
     atom    6 type  1   force =     0.00000123   -0.00000382   -0.03899376
     atom    7 type  1   force =    -0.01134865   -0.00654596   -0.02768267
     atom    8 type  1   force =     0.01134949   -0.00654846   -0.02768172
     atom    9 type  1   force =    -0.00000307   -0.00000015    0.00076602
     atom   10 type  1   force =     0.00000421   -0.00044314   -0.00003094
     atom   11 type  1   force =    -0.00038350    0.00022309   -0.00001564
     atom   12 type  1   force =     0.00038325    0.00021826   -0.00002066
     atom   13 type  2   force =    -0.00000038    0.00000037   -0.00105851

     Total force =     0.001515     Total SCF correction =     0.000517
     SCF correction compared to forces is large: reduce conv_thr to get better values

     entering subroutine stress ...

     negative rho (up, down):  1.594E+00 0.000E+00
          total   stress  (Ry/bohr**3)                   (kbar)     P=  -30.85
  -0.00024472  -0.00000000  -0.00000000        -36.00     -0.00     -0.00
  -0.00000000  -0.00024473  -0.00000000         -0.00    -36.00     -0.00
  -0.00000000  -0.00000000  -0.00013967         -0.00     -0.00    -20.55

     bfgs converged in  12 scf cycles and  11 bfgs steps
     (criteria: energy <  1.0E+00, force <  1.9E-03)

     End of BFGS Geometry Optimization

     Final energy   =   -2135.9486572395 Ry
Begin final coordinates

ATOMIC_POSITIONS (crystal)
Tc1      0.166666667   0.166666667   0.408540475    0   0   0
Tc1      0.666666667   0.166666667   0.408540475    0   0   0
Tc1      0.166666667   0.666666667   0.408540475    0   0   0
Tc1      0.666666667   0.666666667   0.408540475    0   0   0
Tc1      0.833333333   0.333333333   0.500000000    0   0   0
Tc1      0.333333333   0.333333333   0.500000000    0   0   0
Tc1      0.833333333   0.833333333   0.500000000    0   0   0
Tc1      0.333333333   0.833333333   0.500000000    0   0   0
Tc1      0.000001913  -0.000000016   0.612957772
Tc1      0.501495001  -0.002992913   0.586639885
Tc1     -0.002992572   0.501496217   0.586638149
Tc1      0.501496412   0.501498292   0.586638838
O1       0.000003085  -0.000001782   0.681819959
End final coordinates

     Writing output data file calc.save

     General routines

     Parallel routines

   This run was terminated on:  18:41:54   2May2018

   JOB DONE.
Job  /afs/slac/g/suncat/bin/suncat-tsmpirun -x LD_LIBRARY_PATH -wdir /scratch/qe802905_GQyui pw.x -npool 4 -in pw.inp

TID   HOST_NAME   COMMAND_LINE            STATUS            TERMINATION_TIME
00000 suncat0046 pw.x -npool 4 -i  Done                     05/02/2018 18:41:54
00001 suncat0046 pw.x -npool 4 -i  Done                     05/02/2018 18:41:54
00002 suncat0046 pw.x -npool 4 -i  Done                     05/02/2018 18:41:54
00003 suncat0046 pw.x -npool 4 -i  Done                     05/02/2018 18:41:54
00004 suncat0046 pw.x -npool 4 -i  Done                     05/02/2018 18:41:54
00005 suncat0046 pw.x -npool 4 -i  Done                     05/02/2018 18:41:54
00006 suncat0046 pw.x -npool 4 -i  Done                     05/02/2018 18:41:54
00007 suncat0046 pw.x -npool 4 -i  Done                     05/02/2018 18:41:54
00008 suncat0139 pw.x -npool 4 -i  Done                     05/02/2018 18:41:54
00009 suncat0139 pw.x -npool 4 -i  Done                     05/02/2018 18:41:54
00010 suncat0139 pw.x -npool 4 -i  Done                     05/02/2018 18:41:54
00011 suncat0139 pw.x -npool 4 -i  Done                     05/02/2018 18:41:54
00012 suncat0139 pw.x -npool 4 -i  Done                     05/02/2018 18:41:54
00013 suncat0139 pw.x -npool 4 -i  Done                     05/02/2018 18:41:54
00014 suncat0139 pw.x -npool 4 -i  Done                     05/02/2018 18:41:54
00015 suncat0139 pw.x -npool 4 -i  Done                     05/02/2018 18:41:54
00016 suncat0233 pw.x -npool 4 -i  Done                     05/02/2018 18:41:54
00017 suncat0233 pw.x -npool 4 -i  Done                     05/02/2018 18:41:54
00018 suncat0233 pw.x -npool 4 -i  Done                     05/02/2018 18:41:54
00019 suncat0233 pw.x -npool 4 -i  Done                     05/02/2018 18:41:54
00020 suncat0233 pw.x -npool 4 -i  Done                     05/02/2018 18:41:54
00021 suncat0233 pw.x -npool 4 -i  Done                     05/02/2018 18:41:54
00022 suncat0233 pw.x -npool 4 -i  Done                     05/02/2018 18:41:54
00023 suncat0233 pw.x -npool 4 -i  Done                     05/02/2018 18:41:54
00024 suncat0223 pw.x -npool 4 -i  Done                     05/02/2018 18:41:54
00025 suncat0223 pw.x -npool 4 -i  Done                     05/02/2018 18:41:54
00026 suncat0223 pw.x -npool 4 -i  Done                     05/02/2018 18:41:54
00027 suncat0223 pw.x -npool 4 -i  Done                     05/02/2018 18:41:54
00028 suncat0223 pw.x -npool 4 -i  Done                     05/02/2018 18:41:54
00029 suncat0223 pw.x -npool 4 -i  Done                     05/02/2018 18:41:54
00030 suncat0223 pw.x -npool 4 -i  Done                     05/02/2018 18:41:54
00031 suncat0223 pw.x -npool 4 -i  Done                     05/02/2018 18:41:54