     Program PWSCF v.5.1rc2 (svn rev. 11289) starts on 11Jan2019 at 18:26:42

     Current dimensions of program PWSCF are:
     Max number of different atomic species (ntypx) = 10
     Max number of k-points (npk) =  40000
     Max angular momentum in pseudopotentials (lmaxx) =  3

     IMPORTANT: XC functional enforced from input :
     Exchange-correlation      = BEEF-VDW ( 1  4 27 13 2)
     Any further DFT definition will be discarded
     Please, verify this is what you really want

     Subspace diagonalization in iterative solution of the eigenvalue problem:
     a serial algorithm will be used

     Generating pointlists ...
     new r_m :   0.1795 (alat units)  1.7007 (a.u.) for type    1
     new r_m :   0.1795 (alat units)  1.7007 (a.u.) for type    2

     bravais-lattice index     =            0
     lattice parameter (alat)  =       9.4723  a.u.
     unit-cell volume          =    3537.7769 (a.u.)^3
     number of atoms/cell      =           13
     number of atomic types    =            2
     number of electrons       =       210.00
     number of Kohn-Sham states=          115
     kinetic-energy cutoff     =      36.7493  Ry
     charge density cutoff     =     367.4933  Ry
     convergence threshold     =      1.0E-04
     mixing beta               =       0.1000
     number of iterations used =            8  plain     mixing
     Exchange-correlation      = BEEF-VDW ( 1  4 27 13 2)
     nstep                     =           50

     celldm(1)=   9.472344  celldm(2)=   0.000000  celldm(3)=   0.000000
     celldm(4)=   0.000000  celldm(5)=   0.000000  celldm(6)=   0.000000

     crystal axes: (cart. coord. in units of alat)
               a(1) = (   1.000000   0.000000   0.000000 )
               a(2) = (   0.500000   0.866025   0.000000 )
               a(3) = (   0.000000   0.000000   4.806483 )

     reciprocal axes: (cart. coord. in units 2 pi/alat)
               b(1) = (  1.000000 -0.577350  0.000000 )
               b(2) = (  0.000000  1.154701  0.000000 )
               b(3) = (  0.000000  0.000000  0.208052 )

     PseudoPot. # 1 for Co read from file:
     /u/if/jboes/code/decaf-espresso/gbrv15pbe/Co.UPF
     MD5 check sum: 5f91765df6ddd3222702df6e7b74a16d
     Pseudo is Ultrasoft + core correction, Zval = 17.0
     Generated by new atomic code, or converted to UPF format
     Using radial grid of  863 points,  6 beta functions with:
                l(1) =   0
                l(2) =   0
                l(3) =   1
                l(4) =   1
                l(5) =   2
                l(6) =   2
     Q(r) pseudized with  8 coefficients,  rinner =    1.200   1.200   1.200
                                                       1.200   1.200

     PseudoPot. # 2 for S  read from file:
     /u/if/jboes/code/decaf-espresso/gbrv15pbe/S.UPF
     MD5 check sum: 88d86576ff6df21479756cfb9bdac1df
     Pseudo is Ultrasoft + core correction, Zval =  6.0
     Generated by new atomic code, or converted to UPF format
     Using radial grid of  907 points,  6 beta functions with:
                l(1) =   0
                l(2) =   0
                l(3) =   1
                l(4) =   1
                l(5) =   2
                l(6) =   2
     Q(r) pseudized with  8 coefficients,  rinner =    1.300   1.300   1.300
                                                       1.300   1.300

     vdW kernel table read from file vdW_kernel_table
     MD5 check sum: 095c7af220d748ca6e76c0b4c6cfb241

     atomic species   valence    mass     pseudopotential
        Co            17.00    58.93319     Co( 1.00)
        S              6.00    32.06000     S ( 1.00)

     Starting magnetic structure
     atomic species   magnetization
        Co           0.118
        S            0.000

     No symmetry found

   Cartesian axes

     site n.     atom                  positions (alat units)
         1           Co  tau(   1) = (   0.2500000   0.1443376   1.9949931  )
         2           Co  tau(   2) = (   0.7500000   0.1443376   1.9949931  )
         3           Co  tau(   3) = (   0.5000000   0.5773503   1.9949931  )
         4           Co  tau(   4) = (   1.0000000   0.5773503   1.9949931  )
         5           Co  tau(   5) = (   1.0000000   0.2886751   2.4032414  )
         6           Co  tau(   6) = (   0.5000000   0.2886751   2.4032414  )
         7           Co  tau(   7) = (   1.2500000   0.7216878   2.4032414  )
         8           Co  tau(   8) = (   0.7500000   0.7216878   2.4032414  )
         9           Co  tau(   9) = (   0.0000101  -0.0000095   2.8013887  )
        10           Co  tau(  10) = (   0.4999916  -0.0106333   2.8080828  )
        11           Co  tau(  11) = (   0.2408075   0.4383197   2.8080784  )
        12           Co  tau(  12) = (   0.7592064   0.4383373   2.8080840  )
        13           S   tau(  13) = (   0.4999895   0.2886691   3.1241037  )

     number of k points=    40  Fermi-Dirac smearing, width (Ry)=  0.0110
                       cart. coord. in units 2pi/alat
        k(    1) = (   0.0000000   0.0000000   0.0000000), wk =   0.0277778
        k(    2) = (   0.0000000   0.1924501   0.0000000), wk =   0.0555556
        k(    3) = (   0.0000000   0.3849002   0.0000000), wk =   0.0555556
        k(    4) = (   0.0000000  -0.5773503   0.0000000), wk =   0.0277778
        k(    5) = (   0.1666667  -0.0962250   0.0000000), wk =   0.0555556
        k(    6) = (   0.1666667   0.0962250   0.0000000), wk =   0.0555556
        k(    7) = (   0.1666667   0.2886751   0.0000000), wk =   0.0555556
        k(    8) = (   0.1666667  -0.6735753   0.0000000), wk =   0.0555556
        k(    9) = (   0.1666667  -0.4811252   0.0000000), wk =   0.0555556
        k(   10) = (   0.1666667  -0.2886751   0.0000000), wk =   0.0555556
        k(   11) = (   0.3333333  -0.1924501   0.0000000), wk =   0.0555556
        k(   12) = (   0.3333333  -0.0000000   0.0000000), wk =   0.0555556
        k(   13) = (   0.3333333   0.1924501   0.0000000), wk =   0.0555556
        k(   14) = (   0.3333333  -0.7698004   0.0000000), wk =   0.0555556
        k(   15) = (   0.3333333  -0.5773503   0.0000000), wk =   0.0555556
        k(   16) = (   0.3333333  -0.3849002   0.0000000), wk =   0.0555556
        k(   17) = (  -0.5000000   0.2886751   0.0000000), wk =   0.0277778
        k(   18) = (  -0.5000000   0.4811252   0.0000000), wk =   0.0555556
        k(   19) = (  -0.5000000   0.6735753   0.0000000), wk =   0.0555556
        k(   20) = (  -0.5000000  -0.2886751   0.0000000), wk =   0.0277778
        k(   21) = (   0.0000000   0.0000000   0.0000000), wk =   0.0277778
        k(   22) = (   0.0000000   0.1924501   0.0000000), wk =   0.0555556
        k(   23) = (   0.0000000   0.3849002   0.0000000), wk =   0.0555556
        k(   24) = (   0.0000000  -0.5773503   0.0000000), wk =   0.0277778
        k(   25) = (   0.1666667  -0.0962250   0.0000000), wk =   0.0555556
        k(   26) = (   0.1666667   0.0962250   0.0000000), wk =   0.0555556
        k(   27) = (   0.1666667   0.2886751   0.0000000), wk =   0.0555556
        k(   28) = (   0.1666667  -0.6735753   0.0000000), wk =   0.0555556
        k(   29) = (   0.1666667  -0.4811252   0.0000000), wk =   0.0555556
        k(   30) = (   0.1666667  -0.2886751   0.0000000), wk =   0.0555556
        k(   31) = (   0.3333333  -0.1924501   0.0000000), wk =   0.0555556
        k(   32) = (   0.3333333  -0.0000000   0.0000000), wk =   0.0555556
        k(   33) = (   0.3333333   0.1924501   0.0000000), wk =   0.0555556
        k(   34) = (   0.3333333  -0.7698004   0.0000000), wk =   0.0555556
        k(   35) = (   0.3333333  -0.5773503   0.0000000), wk =   0.0555556
        k(   36) = (   0.3333333  -0.3849002   0.0000000), wk =   0.0555556
        k(   37) = (  -0.5000000   0.2886751   0.0000000), wk =   0.0277778
        k(   38) = (  -0.5000000   0.4811252   0.0000000), wk =   0.0555556
        k(   39) = (  -0.5000000   0.6735753   0.0000000), wk =   0.0555556
        k(   40) = (  -0.5000000  -0.2886751   0.0000000), wk =   0.0277778

     Largest allocated arrays     est. size (Mb)     dimensions
     Largest temporary arrays     est. size (Mb)     dimensions

     Check: negative/imaginary core charge=   -0.000007    0.000000

     Initial potential from superposition of free atoms
     Check: negative starting charge=(component1):   -0.000180
     Check: negative starting charge=(component2):   -0.000141

     starting charge  197.99988, renormalised to  210.00000

     negative rho (up, down):  1.911E-04 1.497E-04

     *
     * You are using vdW-DF for exchange-correlation in this calculation.
     * Please cite the following three references that made this development
     * possible:
     *
     *   M. Dion, H. Rydberg, E. Schroder, D. C. Langreth, and
     *   B. I. Lundqvist, Phys. Rev. Lett. 92, 246401 (2004).
     *
     *   T. Thonhauser, V. R. Cooper, S. Li, A. Puzder, P. Hyldgaard, and
     *   D. C. Langreth, Phys. Rev. B 76, 125112 (2007).
     *
     *   G. Roman-Perez and J. M. Soler, Phys. Rev. Lett. 103, 096102 (2009).
     *
     *
     * If you are using vdW-DF2, please also cite:
     *
     *   K. Lee, E. D. Murray, L. Kong, B. I. Lundqvist, and
     *   D. C. Langreth, Phys. Rev. B 82, 081101(R) (2010).
     *
     *
     * If you are calculating the stress with vdW-DF, please also cite:
     *
     *   R. Sabatini, E. Kucukbenli, B. Kolb, T. Thonhauser, and
     *   S. de Gironcoli, J. Phys.: Condens. Matter 24, 424209 (2012).
     *

     Carrying out vdW-DF run using the following parameters:

     Nqs =      20    Nr_points =    1024   r_max =   100.000
     q_mesh =
               0.00001000     0.04494208     0.09755937     0.15916263
               0.23128650     0.31572767     0.41458969     0.53033537
               0.66584808     0.82450364     1.01025438     1.22772762
               1.48234092     1.78043706     2.12944203     2.53805004
               3.01644009     3.57652955     4.23227104     5.00000000

     Gradients computed in reciprocal space

     Adding external electric field

     Computed dipole along edir(3) :
        Dipole               -2.4886 Ry au,         -6.3254 Debye
        Dipole field         -0.0088 Ry au

        Potential amp.        0.7244 Ry
        Total length         40.9758 bohr

[...]

     Starting wfc are  160 randomized atomic wfcs

     Self-consistent Calculation

     iteration #  1     ecut=    36.75 Ry     beta=0.10
     Davidson diagonalization with overlap
     ethr =  1.00E-02,  avg # of iterations =  7.5

[...]

     Magnetic moment per site:
     atom:    1    charge:   15.3434    magn:    1.7312    constr:    0.0000
     atom:    2    charge:   15.3436    magn:    1.7310    constr:    0.0000
     atom:    3    charge:   15.3434    magn:    1.7312    constr:    0.0000
     atom:    4    charge:   15.3436    magn:    1.7323    constr:    0.0000
     atom:    5    charge:   15.1944    magn:    1.7423    constr:    0.0000
     atom:    6    charge:   15.1787    magn:    1.7387    constr:    0.0000
     atom:    7    charge:   15.1944    magn:    1.7423    constr:    0.0000
     atom:    8    charge:   15.1944    magn:    1.7424    constr:    0.0000
     atom:    9    charge:   14.8714    magn:    1.6841    constr:    0.0000
     atom:   10    charge:   14.9369    magn:    1.6828    constr:    0.0000
     atom:   11    charge:   14.9370    magn:    1.6828    constr:    0.0000
     atom:   12    charge:   14.9370    magn:    1.6829    constr:    0.0000
     atom:   13    charge:    3.5690    magn:    0.0140    constr:    0.0000

     total energy              =   -3459.92068780 Ry
     Harris-Foulkes estimate   =   -3644.00605430 Ry
     estimated scf accuracy    <    1013.43228225 Ry

     total magnetization       =    10.95 Bohr mag/cell
     absolute magnetization    =    11.52 Bohr mag/cell

[...]

     End of self-consistent calculation

 ------ SPIN UP ------------

          k = 0.0000 0.0000 0.0000 ( 13257 PWs)   bands (ev):

   -95.5143 -95.4521 -95.4302 -95.4300 -95.3613 -95.2960 -95.2689 -95.2571
   -95.2556 -95.1933 -95.1686 -95.1668 -58.8520 -58.8519 -58.8346 -58.7877
   -58.7572 -58.7348 -58.7347 -58.6828 -58.6699 -58.6698 -58.6470 -58.6419
   -58.6142 -58.6141 -58.5950 -58.5922 -58.5921 -58.5847 -58.5845 -58.5806
   -58.5762 -58.5701 -58.5691 -58.5067 -58.5053 -58.4431 -58.4426 -58.4346
   -58.4307 -58.3937 -58.3927 -58.3869 -58.3868 -58.3190 -58.3184 -58.3056
   -12.2477  -6.9739  -5.0879  -4.2793  -4.0395  -4.0393  -4.0057  -3.8844
    -3.8843  -3.8003  -3.4904  -3.4904  -3.4759  -3.3187  -3.2795  -3.2793
    -2.7909  -2.7906  -2.6768  -2.3346  -2.3343  -2.2392  -1.9952  -1.9949
    -1.9203  -1.8099  -1.8015  -1.8015  -1.6136  -1.6120  -1.6120  -1.5881
    -1.5879  -1.4593  -1.4593  -1.4125  -1.2282  -1.0514  -1.0513  -0.8225
    -0.8222  -0.7810  -0.7294  -0.7293  -0.6013  -0.6010  -0.4367  -0.4364
    -0.3123  -0.2153  -0.2152  -0.2146  -0.1720  -0.1079  -0.1078   0.0449
     0.0450   0.1006   0.2704   0.2706   0.2961   0.3062   0.3063   0.3241
     0.4940   0.6922   0.6927

[...]

          k =-0.5000 0.2887 0.0000 ( 13378 PWs)   bands (ev):

[...]

 ------ SPIN DOWN ----------

[...]

     the Fermi energy is     1.0388 ev

!    total energy              =   -3618.84674029 Ry
     Harris-Foulkes estimate   =   -3618.84675596 Ry
     estimated scf accuracy    <       0.00006669 Ry

     The total energy is the sum of the following terms:

     one-electron contribution =  -32026.99052173 Ry
     hartree contribution      =   16022.74374124 Ry
     xc contribution           =    -414.15586279 Ry
     ewald contribution        =   12799.63252016 Ry
     electric field correction =       0.00001870 Ry
     smearing contrib. (-TS)   =      -0.07663587 Ry

[...]

     convergence has been achieved in  31 iterations

     Forces acting on atoms (Ry/au):

     negative rho (up, down):  6.032E-04 3.048E-04
     atom    1 type  1   force =    -0.00086778   -0.00046397    0.01141541
     atom    2 type  1   force =     0.00086018   -0.00050957    0.01164226
     atom    3 type  1   force =    -0.00005069    0.00096831    0.01140744
     atom    4 type  1   force =     0.00005211   -0.00001506    0.01275630
     atom    5 type  1   force =     0.00042706    0.00032261   -0.01043232
     atom    6 type  1   force =    -0.00043611    0.00012286   -0.00696971
     atom    7 type  1   force =    -0.00018592   -0.00046805   -0.01030241
     atom    8 type  1   force =     0.00015898    0.00003180   -0.01068092
     atom    9 type  1   force =    -0.00006561    0.00005251   -0.00332878
     atom   10 type  1   force =     0.00005005   -0.00184393   -0.00201474
     atom   11 type  1   force =    -0.00163312    0.00091195   -0.00223845
     atom   12 type  1   force =     0.00168626    0.00088994   -0.00216826
     atom   13 type  2   force =     0.00000458    0.00000060    0.00091419

     Total force =     0.006019     Total SCF correction =     0.017426
     SCF correction compared to forces is large: reduce conv_thr to get better values

     BFGS Geometry Optimization

     number of scf cycles    =   1
     number of bfgs steps    =   0

     energy   new            =   -3618.8467402906 Ry

     new trust radius        =       0.0033298415 bohr
     new conv_thr            =       0.0001000000 Ry

ATOMIC_POSITIONS (angstrom)
Co       1.253137179   0.723499087  10.000000000    0   0   0
Co       3.759411536   0.723499087  10.000000000    0   0   0
Co       2.506274357   2.893996350  10.000000000    0   0   0
Co       5.012548715   2.893996350  10.000000000    0   0   0
Co       5.012548715   1.446998175  12.046364444    0   0   0
Co       2.506274357   1.446998175  12.046364444    0   0   0
Co       6.265685894   3.617495438  12.046364444    0   0   0
Co       3.759411536   3.617495438  12.046364444    0   0   0
Co       0.000015779  -0.000019759  14.040335667
Co       2.506258932  -0.054275911  14.074585503
Co       1.206195071   2.197581408  14.074445264
Co       3.806451581   2.197658152  14.074510669
S        2.506224012   1.446968171  15.660205966

     Writing output data file calc.save
     Check: negative starting charge=(component1):   -0.000321
     NEW-OLD atomic charge density approx. for the potential

     Check: negative/imaginary core charge=   -0.000007    0.000000
     Check: negative starting charge=(component1):   -0.000321

[...]

     energy   old            =   -3618.8467402906 Ry
     energy   new            =   -3618.8467483477 Ry

     CASE: energy  _new < energy  _old

[...]

     WARNING: bfgs curvature condition failed, Theta= 0.988
     new trust radius        =       0.0032308045 bohr
     new conv_thr            =       0.0000010000 Ry

[...]

     number of scf cycles    =   5
     number of bfgs steps    =   4

     energy   old            =   -3618.8468212775 Ry
     energy   new            =   -3618.8468307264 Ry

     CASE: energy  _new < energy  _old

     new trust radius        =       0.0023640483 bohr
     new conv_thr            =       0.0000010000 Ry

ATOMIC_POSITIONS (angstrom)
Co       1.253137179   0.723499087  10.000000000    0   0   0
Co       3.759411536   0.723499087  10.000000000    0   0   0
Co       2.506274357   2.893996350  10.000000000    0   0   0
Co       5.012548715   2.893996350  10.000000000    0   0   0
Co       5.012548715   1.446998175  12.046364444    0   0   0
Co       2.506274358   1.446998175  12.046364444    0   0   0
Co       6.265685894   3.617495437  12.046364444    0   0   0
Co       3.759411536   3.617495437  12.046364444    0   0   0
Co      -0.000009622  -0.000110539  14.041488629
Co       2.506331439  -0.055906107  14.074426760
Co       1.204835089   2.198491804  14.074380691
Co       3.807786993   2.198475590  14.074516812
S        2.506232644   1.447000144  15.664434783

     Writing output data file calc.save
     Check: negative starting charge=(component1):   -0.000321
     NEW-OLD atomic charge density approx. for the potential

     Check: negative/imaginary core charge=   -0.000007    0.000000
     Check: negative starting charge=(component1):   -0.000321

[...]

     Self-consistent Calculation

[...]

     total energy              =   -3618.84683579 Ry
     Harris-Foulkes estimate   =   -3618.84683618 Ry
     estimated scf accuracy    <       0.00000411 Ry

[...]

     iteration #  6     ecut=    36.75 Ry     beta=0.10
     Davidson diagonalization with overlap
     ethr =  1.96E-09,  avg # of iterations =  1.0

     negative rho (up, down):  6.020E-04 3.033E-04

[...]

     Adding external electric field

     Computed dipole along edir(3) :
        Dipole               -0.0885 Ry au,         -0.2249 Debye
        Dipole field         -0.0003 Ry au

        Potential amp.        0.0258 Ry
        Total length         40.9758 bohr

     Magnetic moment per site:
     atom:    1    charge:   14.8580    magn:    1.7690    constr:    0.0000
     atom:    2    charge:   14.8580    magn:    1.7689    constr:    0.0000
     atom:    3    charge:   14.8579    magn:    1.7691    constr:    0.0000
     atom:    4    charge:   14.8569    magn:    1.7956    constr:    0.0000
     atom:    5    charge:   14.8928    magn:    1.7321    constr:    0.0000
     atom:    6    charge:   14.8802    magn:    1.8053    constr:    0.0000
     atom:    7    charge:   14.8928    magn:    1.7321    constr:    0.0000
     atom:    8    charge:   14.8928    magn:    1.7321    constr:    0.0000
     atom:    9    charge:   14.8650    magn:    1.8464    constr:    0.0000
     atom:   10    charge:   14.9082    magn:    1.5549    constr:    0.0000
     atom:   11    charge:   14.9082    magn:    1.5548    constr:    0.0000
     atom:   12    charge:   14.9082    magn:    1.5549    constr:    0.0000
     atom:   13    charge:    3.4676    magn:    0.0252    constr:    0.0000

     End of self-consistent calculation

 ------ SPIN UP ------------

[...]

 ------ SPIN DOWN ----------

[...]

          k = 0.3333-0.3849 0.0000 ( 13313 PWs)   bands (ev):

[...]

          k =-0.5000-0.2887 0.0000 ( 13378 PWs)   bands (ev):

   -93.0965 -93.0804 -93.0713 -93.0648 -93.0592 -93.0493 -93.0262 -92.8740
   -92.8699 -92.8597 -92.8571 -92.8490 -56.6410 -56.5818 -56.5572 -56.5022
   -56.4909 -56.4567 -56.4522 -56.4476 -56.4348 -56.4260 -56.4104 -56.4033
   -56.3968 -56.3800 -56.3800 -56.3500 -56.3430 -56.3300 -56.3193 -56.3031
   -56.2925 -56.2889 -56.2740 -56.2333 -56.2280 -56.2179 -56.2149 -56.2141
   -56.2025 -56.1802 -56.1784 -56.1763 -56.1755 -56.1667 -56.1433 -56.1397
   -12.1008  -5.3430  -5.1969  -3.9049  -3.6783  -3.0755  -2.8723  -2.6154
    -2.5153  -2.4654  -2.1637  -2.0197  -1.9105  -1.8208  -1.5219  -1.4951
    -1.3590  -1.3350  -1.1581  -1.1158  -0.8834  -0.8647  -0.8630  -0.8420
    -0.7461  -0.7246  -0.5005  -0.3726  -0.2973  -0.2697  -0.2625  -0.2069
    -0.1753  -0.1459  -0.0111   0.0772   0.1785   0.1807   0.2120   0.2286
     0.3880   0.4090   0.5218   0.8272   0.8377   0.8646   0.8858   1.0287
     1.0686   1.1146   1.1601   1.2071   1.2433   1.3027   1.3701   1.4328
     1.4928   1.5430   1.5989   1.7538   1.7868   1.9855   2.0313   2.0822
     2.0881   2.1820   2.3408

     the Fermi energy is     1.0244 ev

!    total energy              =   -3618.84683554 Ry
     Harris-Foulkes estimate   =   -3618.84683538 Ry
     estimated scf accuracy    <       0.00000078 Ry

     The total energy is the sum of the following terms:

     one-electron contribution =  -32028.83990504 Ry
     hartree contribution      =   16023.67935508 Ry
     xc contribution           =    -414.16319855 Ry
     ewald contribution        =   12800.55295846 Ry
     electric field correction =       0.00002782 Ry
     smearing contrib. (-TS)   =      -0.07607331 Ry

     total magnetization       =    19.66 Bohr mag/cell
     absolute magnetization    =    22.25 Bohr mag/cell

     convergence has been achieved in   6 iterations

     Forces acting on atoms (Ry/au):

     negative rho (up, down):  6.020E-04 3.033E-04
     atom    1 type  1   force =    -0.00060865   -0.00035961    0.00907829
     atom    2 type  1   force =     0.00060904   -0.00035952    0.00907525
     atom    3 type  1   force =     0.00000032    0.00070579    0.00909250
     atom    4 type  1   force =    -0.00000030    0.00000506    0.00968096
     atom    5 type  1   force =     0.00000559   -0.00107462   -0.00967623
     atom    6 type  1   force =    -0.00000573    0.00003662   -0.00565735
     atom    7 type  1   force =     0.00096271    0.00051579   -0.00974679
     atom    8 type  1   force =    -0.00095714    0.00051957   -0.00972769
     atom    9 type  1   force =     0.00003114    0.00005167   -0.00124662
     atom   10 type  1   force =    -0.00002974    0.00153198   -0.00023545
     atom   11 type  1   force =     0.00126259   -0.00079701   -0.00024034
     atom   12 type  1   force =    -0.00126712   -0.00076648   -0.00027472
     atom   13 type  2   force =    -0.00000271   -0.00000923   -0.00012181

     Total force =     0.002921     Total SCF correction =     0.006918
     SCF correction compared to forces is large: reduce conv_thr to get better values

     bfgs converged in   6 scf cycles and   5 bfgs steps
     (criteria: energy <  1.0E+12, force <  1.9E-03)

     End of BFGS Geometry Optimization

     Final energy   =   -3618.8468355375 Ry
Begin final coordinates

ATOMIC_POSITIONS (angstrom)
Co       1.253137179   0.723499087  10.000000000    0   0   0
Co       3.759411536   0.723499087  10.000000000    0   0   0
Co       2.506274357   2.893996350  10.000000000    0   0   0
Co       5.012548715   2.893996350  10.000000000    0   0   0
Co       5.012548715   1.446998175  12.046364444    0   0   0
Co       2.506274358   1.446998175  12.046364444    0   0   0
Co       6.265685894   3.617495437  12.046364444    0   0   0
Co       3.759411536   3.617495437  12.046364444    0   0   0
Co      -0.000009622  -0.000110539  14.041488629
Co       2.506331439  -0.055906107  14.074426760
Co       1.204835089   2.198491804  14.074380691
Co       3.807786993   2.198475590  14.074516812
S        2.506232644   1.447000144  15.664434783
End final coordinates

     Writing output data file calc.save

     General routines

     Parallel routines

   This run was terminated on:  19: 6:24  11Jan2019

   JOB DONE.
Job  /afs/slac/g/suncat/bin/suncat-tsmpirun -x LD_LIBRARY_PATH -wdir /tmp/qe_673245rjkw8xyt_scratch pw.x -npool 4 -in pw.pwi

TID   HOST_NAME   COMMAND_LINE            STATUS            TERMINATION_TIME
00000 suncat0190 pw.x -npool 4 -i  Done                     01/11/2019 19:06:24
00001 suncat0190 pw.x -npool 4 -i  Done                     01/11/2019 19:06:24
00002 suncat0190 pw.x -npool 4 -i  Done                     01/11/2019 19:06:24
00003 suncat0190 pw.x -npool 4 -i  Done                     01/11/2019 19:06:24
00004 suncat0190 pw.x -npool 4 -i  Done                     01/11/2019 19:06:24
00005 suncat0190 pw.x -npool 4 -i  Done                     01/11/2019 19:06:24
00006 suncat0190 pw.x -npool 4 -i  Done                     01/11/2019 19:06:24
00007 suncat0190 pw.x -npool 4 -i  Done                     01/11/2019 19:06:24
00008 suncat0005 pw.x -npool 4 -i  Done                     01/11/2019 19:06:24
00009 suncat0005 pw.x -npool 4 -i  Done                     01/11/2019 19:06:24
00010 suncat0005 pw.x -npool 4 -i  Done                     01/11/2019 19:06:24
00011 suncat0005 pw.x -npool 4 -i  Done                     01/11/2019 19:06:24
00012 suncat0005 pw.x -npool 4 -i  Done                     01/11/2019 19:06:24
00013 suncat0005 pw.x -npool 4 -i  Done                     01/11/2019 19:06:24
00014 suncat0005 pw.x -npool 4 -i  Done                     01/11/2019 19:06:24
00015 suncat0005 pw.x -npool 4 -i  Done                     01/11/2019 19:06:24
00016 suncat0188 pw.x -npool 4 -i  Done                     01/11/2019 19:06:24
00017 suncat0188 pw.x -npool 4 -i  Done                     01/11/2019 19:06:24
00018 suncat0188 pw.x -npool 4 -i  Done                     01/11/2019 19:06:24
00019 suncat0188 pw.x -npool 4 -i  Done                     01/11/2019 19:06:24
00020 suncat0188 pw.x -npool 4 -i  Done                     01/11/2019 19:06:24
00021 suncat0188 pw.x -npool 4 -i  Done                     01/11/2019 19:06:24
00022 suncat0188 pw.x -npool 4 -i  Done                     01/11/2019 19:06:24
00023 suncat0188 pw.x -npool 4 -i  Done                     01/11/2019 19:06:24
00024 suncat0267 pw.x -npool 4 -i  Done                     01/11/2019 19:06:24
00025 suncat0267 pw.x -npool 4 -i  Done                     01/11/2019 19:06:24
00026 suncat0267 pw.x -npool 4 -i  Done                     01/11/2019 19:06:24
00027 suncat0267 pw.x -npool 4 -i  Done                     01/11/2019 19:06:24
00028 suncat0267 pw.x -npool 4 -i  Done                     01/11/2019 19:06:24
00029 suncat0267 pw.x -npool 4 -i  Done                     01/11/2019 19:06:24
00030 suncat0267 pw.x -npool 4 -i  Done                     01/11/2019 19:06:24
00031 suncat0267 pw.x -npool 4 -i  Done                     01/11/2019 19:06:24