     Program PWSCF v.5.1rc2 (svn rev. 11289) starts on 22Apr2018 at 21: 0:23

     Current dimensions of program PWSCF are:
     Max number of different atomic species (ntypx) = 10
     Max number of k-points (npk) =  40000
     Max angular momentum in pseudopotentials (lmaxx) =  3
     Presently stress not available with electric field

     IMPORTANT: XC functional enforced from input :
     Exchange-correlation      = BEEF-VDW ( 1  4 27 13 2)
     Any further DFT definition will be discarded
     Please, verify this is what you really want

     Subspace diagonalization in iterative solution of the eigenvalue problem:
     a serial algorithm will be used

     bravais-lattice index     =            0
     lattice parameter (alat)  =       1.8897  a.u.
     unit-cell volume          =    6116.8020 (a.u.)^3
     number of atoms/cell      =           14
     number of atomic types    =            3
     number of electrons       =       138.00
     number of Kohn-Sham states=           79
     kinetic-energy cutoff     =      36.7493  Ry
     charge density cutoff     =     367.4932  Ry
     convergence threshold     =      1.0E-05
     mixing beta               =       0.3000
     number of iterations used =           10  plain     mixing
     Exchange-correlation      = BEEF-VDW ( 1  4 27 13 2)
     nstep                     =           50

     celldm(1)=   1.889726  celldm(2)=   0.000000  celldm(3)=   0.000000
     celldm(4)=   0.000000  celldm(5)=   0.000000  celldm(6)=   0.000000

     crystal axes: (cart. coord. in units of alat)
               a(1) = (   6.437465   0.000000   0.000000 )
               a(2) = (   3.218732   5.575008   0.000000 )
               a(3) = (   0.000000   0.000000  25.256168 )

     reciprocal axes: (cart. coord. in units 2 pi/alat)
               b(1) = (  0.155341 -0.089686  0.000000 )
               b(2) = (  0.000000  0.179372  0.000000 )
               b(3) = (  0.000000  0.000000  0.039594 )

     PseudoPot. # 1 for Sc read from file:
     /u/if/mamunm/psp/gbrv1.5pbe/Sc.UPF
     MD5 check sum: db30a2753ba66ef00f23801d899b7e7f
     Pseudo is Ultrasoft + core correction, Zval = 11.0
     Generated by new atomic code, or converted to UPF format
     Using radial grid of  849 points,  6 beta functions with:
                l(1) =   0
                l(2) =   0
                l(3) =   1
                l(4) =   1
                l(5) =   2
                l(6) =   2
     Q(r) pseudized with  6 coefficients,  rinner =    1.200   1.200   1.200
                                                       1.200   1.200

     PseudoPot. # 2 for N  read from file:
     /u/if/mamunm/psp/gbrv1.5pbe/N.UPF
     MD5 check sum: 95339753478d7afb44899504a8723017
     Pseudo is Ultrasoft + core correction, Zval =  5.0
     Generated by new atomic code, or converted to UPF format
     Using radial grid of  729 points,  4 beta functions with:
                l(1) =   0
                l(2) =   0
                l(3) =   1
                l(4) =   1
     Q(r) pseudized with  8 coefficients,  rinner =    0.900   0.900   0.900

     PseudoPot. # 3 for H  read from file:
     /u/if/mamunm/psp/gbrv1.5pbe/H.UPF
     MD5 check sum: 761ae9a214b05c3daf00ab9f6b793d6f
     Pseudo is Ultrasoft, Zval =  1.0
     Generated by new atomic code, or converted to UPF format
     Using radial grid of  615 points,  2 beta functions with:
                l(1) =   0
                l(2) =   0
     Q(r) pseudized with  8 coefficients,  rinner =    0.700

     vdW kernel table read from file vdW_kernel_table
     MD5 check sum: 095c7af220d748ca6e76c0b4c6cfb241

     atomic species   valence    mass     pseudopotential
        Sc1           11.00    44.95591     Sc( 1.00)
        N1             5.00    14.00700     N ( 1.00)
        H1             1.00     1.00800     H ( 1.00)

     No symmetry found

   Cartesian axes

     site n.     atom                  positions (alat units)
         1           Sc1 tau(   1) = (   1.6093662   0.9291680  10.0000000  )
         2           Sc1 tau(   2) = (   4.8280986   0.9291680  10.0000000  )
         3           Sc1 tau(   3) = (   3.2187324   3.7166720  10.0000000  )
         4           Sc1 tau(   4) = (   6.4374648   3.7166720  10.0000000  )
         5           Sc1 tau(   5) = (   6.4374648   1.8583360  12.6280840  )
         6           Sc1 tau(   6) = (   3.2187324   1.8583360  12.6280840  )
         7           Sc1 tau(   7) = (   8.0468310   4.6458400  12.6280840  )
         8           Sc1 tau(   8) = (   4.8280986   4.6458400  12.6280840  )
         9           Sc1 tau(   9) = (   0.0000000   0.0000000  15.2561680  )
        10           Sc1 tau(  10) = (   3.2187324   0.0000000  15.2561680  )
        11           Sc1 tau(  11) = (   1.6093662   2.7875040  15.2561680  )
        12           Sc1 tau(  12) = (   4.8280986   2.7875040  15.2561680  )
        13           N1  tau(  13) = (   1.6093662   0.9291680  16.8226680  )
        14           H1  tau(  14) = (   1.6093662   0.9291680  17.8726680  )

     number of k points=    20  Fermi-Dirac smearing, width (Ry)=  0.0110
                       cart. coord. in units 2pi/alat
        k(    1) = (   0.0000000   0.0000000   0.0000000), wk =   0.0555556
        k(    2) = (   0.0000000   0.0298953   0.0000000), wk =   0.1111111
        k(    3) = (   0.0000000   0.0597906   0.0000000), wk =   0.1111111
        k(    4) = (   0.0000000  -0.0896860   0.0000000), wk =   0.0555556
        k(    5) = (   0.0258901  -0.0149477   0.0000000), wk =   0.1111111
        k(    6) = (   0.0258901   0.0149477   0.0000000), wk =   0.1111111
        k(    7) = (   0.0258901   0.0448430   0.0000000), wk =   0.1111111
        k(    8) = (   0.0258901  -0.1046336   0.0000000), wk =   0.1111111
        k(    9) = (   0.0258901  -0.0747383   0.0000000), wk =   0.1111111
        k(   10) = (   0.0258901  -0.0448430   0.0000000), wk =   0.1111111
        k(   11) = (   0.0517802  -0.0298953   0.0000000), wk =   0.1111111
        k(   12) = (   0.0517802   0.0000000   0.0000000), wk =   0.1111111
        k(   13) = (   0.0517802   0.0298953   0.0000000), wk =   0.1111111
        k(   14) = (   0.0517802  -0.1195813   0.0000000), wk =   0.1111111
        k(   15) = (   0.0517802  -0.0896860   0.0000000), wk =   0.1111111
        k(   16) = (   0.0517802  -0.0597906   0.0000000), wk =   0.1111111
        k(   17) = (  -0.0776703   0.0448430   0.0000000), wk =   0.0555556
        k(   18) = (  -0.0776703   0.0747383   0.0000000), wk =   0.1111111
        k(   19) = (  -0.0776703   0.1046336   0.0000000), wk =   0.1111111
        k(   20) = (  -0.0776703  -0.0448430   0.0000000), wk =   0.0555556

     Largest allocated arrays     est. size (Mb)     dimensions
     Largest temporary arrays     est. size (Mb)     dimensions

     Initial potential from superposition of free atoms
     Check: negative starting charge=   -0.000254

     starting charge  137.97115, renormalised to  138.00000

     negative rho (up, down):  2.541E-04 0.000E+00

     *
     * You are using vdW-DF for exchange-correlation in this calculation.
     * Please cite the following three references that made this development
     * possible:
     *
     *   M. Dion, H. Rydberg, E. Schroder, D. C. Langreth, and
     *   B. I. Lundqvist, Phys. Rev. Lett. 92, 246401 (2004).
     *
     *   T. Thonhauser, V. R. Cooper, S. Li, A. Puzder, P. Hyldgaard, and
     *   D. C. Langreth, Phys. Rev. B 76, 125112 (2007).
     *
     *   G. Roman-Perez and J. M. Soler, Phys. Rev. Lett. 103, 096102 (2009).
     *
     *
     * If you are using vdW-DF2, please also cite:
     *
     *   K. Lee, E. D. Murray, L. Kong, B. I. Lundqvist, and
     *   D. C. Langreth, Phys. Rev. B 82, 081101(R) (2010).
     *
     *
     * If you are calculating the stress with vdW-DF, please also cite:
     *
     *   R. Sabatini, E. Kucukbenli, B. Kolb, T. Thonhauser, and
     *   S. de Gironcoli, J. Phys.: Condens. Matter 24, 424209 (2012).
     *

     Carrying out vdW-DF run using the following parameters:

     Nqs =      20    Nr_points =    1024   r_max =   100.000
     q_mesh =
               0.00001000     0.04494208     0.09755937     0.15916263
               0.23128650     0.31572767     0.41458969     0.53033537
               0.66584808     0.82450364     1.01025438     1.22772762
               1.48234092     1.78043706     2.12944203     2.53805004
               3.01644009     3.57652955     4.23227104     5.00000000

     Gradients computed in reciprocal space

     Adding external electric field

     Computed dipole along edir(3) :
        Dipole               -0.0102 Ry au,         -0.0259 Debye
        Dipole field         -0.0000 Ry au

        Potential amp.        0.0020 Ry
        Total length         46.5341 bohr

     Starting wfc are  161 randomized atomic wfcs

     Self-consistent Calculation

     iteration #  1     ecut=    36.75 Ry     beta=0.30
     Davidson diagonalization with overlap
     ethr =  1.00E-02,  avg # of iterations =  2.0

[...]

     total energy              =   -1156.69133527 Ry
     Harris-Foulkes estimate   =   -1159.97616395 Ry
     estimated scf accuracy    <       7.02129754 Ry

[...]

     End of self-consistent calculation

          k = 0.0000 0.0000 0.0000 ( 23031 PWs)   bands (ev):

   -49.3980 -49.3557 -49.3100 -49.3098 -49.3095 -49.2837 -49.2534 -49.2522
   -48.8950 -48.8541 -48.8479 -48.8473 -28.1287 -28.0730 -28.0728 -28.0703
   -28.0609 -28.0606 -28.0411 -28.0267 -27.9792 -27.9790 -27.9761 -27.9082
   -27.9071 -27.8952 -27.8096 -27.8095 -27.8077 -27.7845 -27.7842 -27.7660
   -27.7303 -27.7303 -27.6703 -27.6697 -27.6186 -27.6116 -27.6112 -27.4540
   -27.4356 -27.4287 -27.4281 -27.3813 -27.3810 -27.3756 -27.3027 -27.3027
   -13.5466  -4.9125  -4.0126  -2.8403  -1.6276  -1.5948  -1.5948  -0.8886
    -0.8886  -0.8635  -0.7485  -0.7015  -0.7014  -0.3798  -0.2326  -0.2325
     0.0336   0.0337   0.0796   0.3417   0.3418   0.4736   0.6863   1.0152
     1.1528   1.2276   1.2291   1.2291   1.4758   1.4759   1.7086

[...]

          k =-0.0777 0.0448 0.0000 ( 23032 PWs)   bands (ev):

[...]

     the Fermi energy is     0.5940 ev

!    total energy              =   -1159.29251515 Ry
     Harris-Foulkes estimate   =   -1159.29251435 Ry
     estimated scf accuracy    <       0.00000360 Ry

     The total energy is the sum of the following terms:

     one-electron contribution =   -7391.65959267 Ry
     hartree contribution      =    3680.86224630 Ry
     xc contribution           =    -172.65545935 Ry
     ewald contribution        =    2724.29069687 Ry
     electric field correction =       0.00000227 Ry
     smearing contrib. (-TS)   =      -0.13040857 Ry

     convergence has been achieved in  17 iterations

 BEEF-vdW xc energy contributions
           1 :   -146.289093719124
           2 :    128.660517168742
           3 :   -101.194684156640
           4 :    74.4903722570440
           5 :   -55.9703848961103
           6 :    46.9250476292980
           7 :   -43.8153620666192
           8 :    42.0012848657747
           9 :   -38.9054955729216
          10 :    34.7553247175073
          11 :   -31.1625944037471
          12 :    29.1822917421683
          13 :   -28.4257937075214
          14 :    27.6469292465154
          15 :   -25.9913449867092
          16 :    23.7071594924518
          17 :   -21.7713326726885
          18 :    20.9016713071223
          19 :   -20.9093992408298
          20 :    20.9325364292654
          21 :   -20.2462136151534
          22 :    18.8677589642597
          23 :   -17.4515458749055
          24 :    16.6469700424449
          25 :   -16.5375809506856
          26 :    16.6352100675119
          27 :   -16.3706990300177
          28 :    15.5985488185037
          29 :   -14.6725950597046
          30 :    14.0677750201309
          31 :   -17.3027534247610
          32 :   -12.3747100977952

     Forces acting on atoms (Ry/au):

     negative rho (up, down):  5.217E-04 0.000E+00
     atom    1 type  1   force =    -0.00005488    0.00005985    0.00088064
     atom    2 type  1   force =     0.00006954   -0.00076229    0.00187733
     atom    3 type  1   force =    -0.00071367    0.00038993    0.00187162
     atom    4 type  1   force =     0.00071683    0.00031236    0.00188920
     atom    5 type  1   force =    -0.00205303    0.00119290    0.00143257
     atom    6 type  1   force =     0.00204656    0.00137759    0.00130891
     atom    7 type  1   force =     0.00015300   -0.00009213   -0.01023079
     atom    8 type  1   force =    -0.00016039   -0.00246671    0.00130326
     atom    9 type  1   force =     0.04290649    0.02483755    0.04411874
     atom   10 type  1   force =    -0.04292655    0.02481277    0.04415458
     atom   11 type  1   force =    -0.00003408   -0.04959809    0.04411525
     atom   12 type  1   force =     0.00004290   -0.00005131   -0.00808980
     atom   13 type  2   force =     0.00000924   -0.00001246   -0.08301762
     atom   14 type  3   force =    -0.00000196    0.00000004   -0.04161390

     Total force =     0.148012     Total SCF correction =     0.001098

     entering subroutine stress ...

     negative rho (up, down):  5.217E-04 0.000E+00
          total   stress  (Ry/bohr**3)                   (kbar)     P=   -4.16
  -0.00000050   0.00000000   0.00000001         -0.07      0.00      0.00
   0.00000000  -0.00000050  -0.00000001          0.00     -0.07     -0.00
   0.00000001  -0.00000001  -0.00008391          0.00     -0.00    -12.34

     BFGS Geometry Optimization

     number of scf cycles    =   1
     number of bfgs steps    =   0

     energy   new            =   -1159.2925151464 Ry

     new trust radius        =       0.0830176172 bohr
     new conv_thr            =       0.0000099958 Ry

ATOMIC_POSITIONS (crystal)
Sc1      0.166666667   0.166666667   0.395942884    0   0   0
Sc1      0.666666667   0.166666667   0.395942884    0   0   0
Sc1      0.166666667   0.666666667   0.395942884    0   0   0
Sc1      0.666666667   0.666666667   0.395942884    0   0   0
Sc1      0.833333333   0.333333333   0.500000000    0   0   0
Sc1      0.333333333   0.333333333   0.500000000    0   0   0
Sc1      0.833333333   0.833333333   0.500000000    0   0   0
Sc1      0.333333333   0.833333333   0.500000000    0   0   0
Sc1      0.002348246   0.002357569   0.604981509
Sc1      0.495293712   0.002355217   0.604982260
Sc1      0.002351112   0.495292172   0.604981436
Sc1      0.500005961   0.499995130   0.603887615
N1       0.166668018   0.166665484   0.664342151
H1       0.166666504   0.166666670   0.706783660

     Writing output data file calc.save
     Check: negative starting charge=   -0.000254
     NEW-OLD atomic charge density approx. for the potential
     Check: negative starting charge=   -0.000252

[...]

     energy   old            =   -1159.2925151464 Ry
     energy   new            =   -1159.3123640066 Ry

     CASE: energy  _new < energy  _old

     WARNING: bfgs curvature condition failed, Theta= 0.992
     new trust radius        =       0.0913193789 bohr
     new conv_thr            =       0.0000001000 Ry

[...]

     iteration #  6     ecut=    36.75 Ry     beta=0.30
     Davidson diagonalization with overlap
     c_bands:  1 eigenvalues not converged
     ethr =  9.58E-07,  avg # of iterations = 10.4

[...]

     iteration #  1     ecut=    36.75 Ry     beta=0.30
     Davidson diagonalization with overlap
     c_bands:  1 eigenvalues not converged
     ethr =  1.00E-06,  avg # of iterations = 15.7

[...]

     Threshold (ethr) on eigenvalues was too large:
     Diagonalizing with lowered threshold

     Davidson diagonalization with overlap
     ethr =  4.25E-08,  avg # of iterations =  7.7

[...]

     Threshold (ethr) on eigenvalues was too large:
     Diagonalizing with lowered threshold

     Davidson diagonalization with overlap
     ethr =  9.59E-08,  avg # of iterations =  3.8

[...]

     Total force =     0.004070     Total SCF correction =     0.000489
     SCF correction compared to forces is large: reduce conv_thr to get better values

[...]

     number of scf cycles    =  19
     number of bfgs steps    =  18

     energy   old            =   -1159.3687039516 Ry
     energy   new            =   -1159.3687460007 Ry

     CASE: energy  _new < energy  _old

     new trust radius        =       0.0249996667 bohr
     new conv_thr            =       0.0000001000 Ry

ATOMIC_POSITIONS (crystal)
Sc1      0.166666667   0.166666667   0.395942884    0   0   0
Sc1      0.666666667   0.166666667   0.395942884    0   0   0
Sc1      0.166666667   0.666666667   0.395942884    0   0   0
Sc1      0.666666667   0.666666667   0.395942884    0   0   0
Sc1      0.833333333   0.333333333   0.500000000    0   0   0
Sc1      0.333333333   0.333333333   0.500000000    0   0   0
Sc1      0.833333333   0.833333333   0.500000000    0   0   0
Sc1      0.333333333   0.833333333   0.500000000    0   0   0
Sc1      0.004485267   0.004491250   0.608468860
Sc1      0.491027649   0.004485677   0.608464859
Sc1      0.004481692   0.491029235   0.608464453
Sc1      0.500051625   0.500041578   0.597884139
N1       0.166683861   0.166678142   0.652091684
H1       0.166659919   0.166659637   0.692801654

     Writing output data file calc.save
     Check: negative starting charge=   -0.000263
     NEW-OLD atomic charge density approx. for the potential
     Check: negative starting charge=   -0.000262

[...]

     Self-consistent Calculation

[...]

     total energy              =   -1159.36879828 Ry
     Harris-Foulkes estimate   =   -1159.36879834 Ry
     estimated scf accuracy    <       0.00000013 Ry

     iteration # 12     ecut=    36.75 Ry     beta=0.30
     Davidson diagonalization with overlap
     ethr =  9.08E-11,  avg # of iterations =  6.5

[...]

     negative rho (up, down):  4.928E-04 0.000E+00

     Adding external electric field

     Computed dipole along edir(3) :
        Dipole                0.1715 Ry au,          0.4359 Debye
        Dipole field          0.0004 Ry au

        Potential amp.       -0.0328 Ry
        Total length         46.5341 bohr

     End of self-consistent calculation

[...]

          k = 0.0518-0.0598 0.0000 ( 23012 PWs)   bands (ev):

[...]

          k =-0.0777-0.0448 0.0000 ( 23032 PWs)   bands (ev):

   -49.1843 -49.1702 -49.1534 -49.1471 -49.0795 -49.0716 -49.0515 -49.0486
   -48.8169 -48.7141 -48.7023 -48.6920 -27.8584 -27.8528 -27.8462 -27.8415
   -27.8189 -27.8116 -27.8114 -27.8049 -27.7589 -27.7514 -27.7450 -27.7403
   -27.7285 -27.7199 -27.7185 -27.7104 -27.6838 -27.6307 -27.6275 -27.6167
   -27.6082 -27.5810 -27.5262 -27.4935 -27.4593 -27.4002 -27.3966 -27.3850
   -27.3105 -27.2883 -27.2875 -27.2778 -27.2704 -27.2675 -27.2286 -27.1799
   -14.5684  -5.7040  -3.0352  -2.6100  -2.5962  -2.4072  -1.5412  -1.3721
    -0.7373  -0.7185  -0.3964  -0.3281  -0.1599  -0.1586   0.4739   0.5044
     0.5497   0.5754   0.5879   0.6402   0.7876   0.8257   0.8654   0.9202
     0.9229   0.9947   1.0547   1.1184   1.2436   1.2918   1.3126

     the Fermi energy is     0.7475 ev

!    total energy              =   -1159.36879828 Ry
     Harris-Foulkes estimate   =   -1159.36879805 Ry
     estimated scf accuracy    <       0.00000005 Ry

     The total energy is the sum of the following terms:

     one-electron contribution =   -7422.21739991 Ry
     hartree contribution      =    3696.67767071 Ry
     xc contribution           =    -172.86120745 Ry
     ewald contribution        =    2739.16563920 Ry
     electric field correction =       0.00006043 Ry
     smearing contrib. (-TS)   =      -0.13356126 Ry

     convergence has been achieved in  12 iterations

 BEEF-vdW xc energy contributions
           1 :   -146.499314610328
           2 :    128.932168923649
           3 :   -101.521762464892
           4 :    74.8061835631917
           5 :   -56.1971818216196
           6 :    47.0150939089152
           7 :   -43.7664848121584
           8 :    41.8516138465896
           9 :   -38.7195940019532
          10 :    34.6008056360488
          11 :   -31.0775353179938
          12 :    29.1550949293342
          13 :   -28.4114572955254
          14 :    27.6101104152875
          15 :   -25.9359589128129
          16 :    23.6626672227160
          17 :   -21.7508758722976
          18 :    20.8778003026345
          19 :   -20.8341637380742
          20 :    20.7823920686233
          21 :   -20.0494458651393
          22 :    18.6889679189462
          23 :   -17.3438676911194
          24 :    16.6101864355237
          25 :   -16.5181311990249
          26 :    16.5694666498488
          27 :   -16.2346581514510
          28 :    15.4195863013010
          29 :   -14.4942294737046
          30 :    13.9048221439746
          31 :   -17.3150760380090
          32 :   -12.4003245319039

     Forces acting on atoms (Ry/au):

     negative rho (up, down):  4.928E-04 0.000E+00
     atom    1 type  1   force =    -0.00001921   -0.00001227    0.00242794
     atom    2 type  1   force =     0.00001802   -0.00197732    0.00218399
     atom    3 type  1   force =    -0.00170217    0.00100483    0.00218474
     atom    4 type  1   force =     0.00170282    0.00098430    0.00219054
     atom    5 type  1   force =     0.00006187   -0.00004762   -0.00133526
     atom    6 type  1   force =    -0.00005576   -0.00003096   -0.00133501
     atom    7 type  1   force =     0.00000296    0.00000141   -0.00358883
     atom    8 type  1   force =    -0.00001127    0.00007554   -0.00133500
     atom    9 type  1   force =     0.00089737    0.00051125    0.00025129
     atom   10 type  1   force =    -0.00086068    0.00055429    0.00027117
     atom   11 type  1   force =     0.00005552   -0.00102824    0.00027452
     atom   12 type  1   force =    -0.00005855   -0.00002431   -0.00047373
     atom   13 type  2   force =    -0.00003770   -0.00001459   -0.00167113
     atom   14 type  3   force =     0.00000677    0.00000370   -0.00004526

     Total force =     0.002532     Total SCF correction =     0.000211

     entering subroutine stress ...

     negative rho (up, down):  4.928E-04 0.000E+00
          total   stress  (Ry/bohr**3)                   (kbar)     P=    2.88
   0.00003586  -0.00000001  -0.00000001          5.28     -0.00     -0.00
  -0.00000001   0.00003587  -0.00000000         -0.00      5.28     -0.00
  -0.00000001  -0.00000000  -0.00001301         -0.00     -0.00     -1.91

     bfgs converged in  20 scf cycles and  19 bfgs steps
     (criteria: energy <  1.0E+00, force <  1.9E-03)

     End of BFGS Geometry Optimization

     Final energy   =   -1159.3687982810 Ry
Begin final coordinates

ATOMIC_POSITIONS (crystal)
Sc1      0.166666667   0.166666667   0.395942884    0   0   0
Sc1      0.666666667   0.166666667   0.395942884    0   0   0
Sc1      0.166666667   0.666666667   0.395942884    0   0   0
Sc1      0.666666667   0.666666667   0.395942884    0   0   0
Sc1      0.833333333   0.333333333   0.500000000    0   0   0
Sc1      0.333333333   0.333333333   0.500000000    0   0   0
Sc1      0.833333333   0.833333333   0.500000000    0   0   0
Sc1      0.333333333   0.833333333   0.500000000    0   0   0
Sc1      0.004485267   0.004491250   0.608468860
Sc1      0.491027649   0.004485677   0.608464859
Sc1      0.004481692   0.491029235   0.608464453
Sc1      0.500051625   0.500041578   0.597884139
N1       0.166683861   0.166678142   0.652091684
H1       0.166659919   0.166659637   0.692801654
End final coordinates

     Writing output data file calc.save

     General routines

     Parallel routines

   This run was terminated on:  23:57:17  22Apr2018

   JOB DONE.
Job  /afs/slac/g/suncat/bin/suncat-tsmpirun -x LD_LIBRARY_PATH -wdir /scratch/qe322407_go3XM pw.x -npool 4 -in pw.inp

TID   HOST_NAME   COMMAND_LINE            STATUS            TERMINATION_TIME
00000 suncat0089 pw.x -npool 4 -i  Done                     04/22/2018 23:57:17
00001 suncat0089 pw.x -npool 4 -i  Done                     04/22/2018 23:57:17
00002 suncat0089 pw.x -npool 4 -i  Done                     04/22/2018 23:57:17
00003 suncat0089 pw.x -npool 4 -i  Done                     04/22/2018 23:57:17
00004 suncat0089 pw.x -npool 4 -i  Done                     04/22/2018 23:57:17
00005 suncat0089 pw.x -npool 4 -i  Done                     04/22/2018 23:57:17
00006 suncat0089 pw.x -npool 4 -i  Done                     04/22/2018 23:57:17
00007 suncat0089 pw.x -npool 4 -i  Done                     04/22/2018 23:57:17
00008 suncat0148 pw.x -npool 4 -i  Done                     04/22/2018 23:57:17
00009 suncat0148 pw.x -npool 4 -i  Done                     04/22/2018 23:57:17
00010 suncat0148 pw.x -npool 4 -i  Done                     04/22/2018 23:57:17
00011 suncat0148 pw.x -npool 4 -i  Done                     04/22/2018 23:57:17
00012 suncat0148 pw.x -npool 4 -i  Done                     04/22/2018 23:57:17
00013 suncat0148 pw.x -npool 4 -i  Done                     04/22/2018 23:57:17
00014 suncat0148 pw.x -npool 4 -i  Done                     04/22/2018 23:57:17
00015 suncat0148 pw.x -npool 4 -i  Done                     04/22/2018 23:57:17
00016 suncat0123 pw.x -npool 4 -i  Done                     04/22/2018 23:57:17
00017 suncat0123 pw.x -npool 4 -i  Done                     04/22/2018 23:57:17
00018 suncat0123 pw.x -npool 4 -i  Done                     04/22/2018 23:57:17
00019 suncat0123 pw.x -npool 4 -i  Done                     04/22/2018 23:57:17
00020 suncat0123 pw.x -npool 4 -i  Done                     04/22/2018 23:57:17
00021 suncat0123 pw.x -npool 4 -i  Done                     04/22/2018 23:57:17
00022 suncat0123 pw.x -npool 4 -i  Done                     04/22/2018 23:57:17
00023 suncat0123 pw.x -npool 4 -i  Done                     04/22/2018 23:57:17
00024 suncat0109 pw.x -npool 4 -i  Done                     04/22/2018 23:57:17
00025 suncat0109 pw.x -npool 4 -i  Done                     04/22/2018 23:57:17
00026 suncat0109 pw.x -npool 4 -i  Done                     04/22/2018 23:57:17
00027 suncat0109 pw.x -npool 4 -i  Done                     04/22/2018 23:57:17
00028 suncat0109 pw.x -npool 4 -i  Done                     04/22/2018 23:57:17
00029 suncat0109 pw.x -npool 4 -i  Done                     04/22/2018 23:57:17
00030 suncat0109 pw.x -npool 4 -i  Done                     04/22/2018 23:57:17
00031 suncat0109 pw.x -npool 4 -i  Done                     04/22/2018 23:57:17