     Program PWSCF v.5.1rc2 (svn rev. ) starts on 17Apr2018 at 19:49:35

     Current dimensions of program PWSCF are:
     Max number of different atomic species (ntypx) = 10
     Max number of k-points (npk) =  40000
     Max angular momentum in pseudopotentials (lmaxx) =  3
     Presently stress not available with electric field

     IMPORTANT: XC functional enforced from input :
     Exchange-correlation      = BEEF-VDW ( 1  4 27 13 2)
     Any further DFT definition will be discarded
     Please, verify this is what you really want

     Subspace diagonalization in iterative solution of the eigenvalue problem:
     a serial algorithm will be used

     bravais-lattice index     =            0
     lattice parameter (alat)  =       1.8897  a.u.
     unit-cell volume          =    5409.9593 (a.u.)^3
     number of atoms/cell      =           14
     number of atomic types    =            3
     number of electrons       =       233.00
     number of Kohn-Sham states=          126
     kinetic-energy cutoff     =      36.7493  Ry
     charge density cutoff     =     367.4932  Ry
     convergence threshold     =      1.0E-05
     mixing beta               =       0.3000
     number of iterations used =           10  plain     mixing
     Exchange-correlation      = BEEF-VDW ( 1  4 27 13 2)
     nstep                     =           50

     celldm(1)=   1.889726  celldm(2)=   0.000000  celldm(3)=   0.000000
     celldm(4)=   0.000000  celldm(5)=   0.000000  celldm(6)=   0.000000

     crystal axes: (cart. coord. in units of alat)
               a(1) = (   6.088539   0.000000   0.000000 )
               a(2) = (   3.044269   5.272829   0.000000 )
               a(3) = (   0.000000   0.000000  24.971271 )

     reciprocal axes: (cart. coord. in units 2 pi/alat)
               b(1) = (  0.164243 -0.094826  0.000000 )
               b(2) = (  0.000000  0.189652  0.000000 )
               b(3) = (  0.000000  0.000000  0.040046 )

     PseudoPot. # 1 for Ga read from file:
     /home/mamunm/src/pseudo/gbrv1.5pbe/Ga.UPF
     MD5 check sum: ccd671392a58a050fbb373893b4fcd66
     Pseudo is Ultrasoft + core correction, Zval = 19.0
     Generated by new atomic code, or converted to UPF format
     Using radial grid of  871 points,  6 beta functions with:
                l(1) =   0
                l(2) =   0
                l(3) =   1
                l(4) =   1
                l(5) =   2
                l(6) =   2
     Q(r) pseudized with  8 coefficients,  rinner =    1.250   1.250   1.250
                                                       1.250   1.250

     PseudoPot. # 2 for C  read from file:
     /home/mamunm/src/pseudo/gbrv1.5pbe/C.UPF
     MD5 check sum: d1aef80898a10debaa0f26306b886e00
     Pseudo is Ultrasoft + core correction, Zval =  4.0
     Generated by new atomic code, or converted to UPF format
     Using radial grid of  721 points,  4 beta functions with:
                l(1) =   0
                l(2) =   0
                l(3) =   1
                l(4) =   1
     Q(r) pseudized with  8 coefficients,  rinner =    1.100   1.100   1.100

     PseudoPot. # 3 for H  read from file:
     /home/mamunm/src/pseudo/gbrv1.5pbe/H.UPF
     MD5 check sum: 761ae9a214b05c3daf00ab9f6b793d6f
     Pseudo is Ultrasoft, Zval =  1.0
     Generated by new atomic code, or converted to UPF format
     Using radial grid of  615 points,  2 beta functions with:
                l(1) =   0
                l(2) =   0
     Q(r) pseudized with  8 coefficients,  rinner =    0.700

     vdW kernel table read from file vdW_kernel_table
     MD5 check sum: 095c7af220d748ca6e76c0b4c6cfb241

     atomic species   valence    mass     pseudopotential
        Ga1           19.00    69.72300     Ga( 1.00)
        C1             4.00    12.01100     C ( 1.00)
        H1             1.00     1.00800     H ( 1.00)

     No symmetry found

   Cartesian axes

     site n.     atom                  positions (alat units)
         1           Ga1 tau(   1) = (   1.5221346   0.8788048  10.0000000  )
         2           Ga1 tau(   2) = (   4.5664039   0.8788048  10.0000000  )
         3           Ga1 tau(   3) = (   3.0442693   3.5152194  10.0000000  )
         4           Ga1 tau(   4) = (   6.0885386   3.5152194  10.0000000  )
         5           Ga1 tau(   5) = (   6.0885386   1.7576097  12.4856355  )
         6           Ga1 tau(   6) = (   3.0442693   1.7576097  12.4856355  )
         7           Ga1 tau(   7) = (   7.6106732   4.3940242  12.4856355  )
         8           Ga1 tau(   8) = (   4.5664039   4.3940242  12.4856355  )
         9           Ga1 tau(   9) = (   0.0000000   0.0000000  14.9712709  )
        10           Ga1 tau(  10) = (   3.0442693   0.0000000  14.9712709  )
        11           Ga1 tau(  11) = (   1.5221346   2.6364145  14.9712709  )
        12           Ga1 tau(  12) = (   4.5664039   2.6364145  14.9712709  )
        13           C1  tau(  13) = (   0.0000000   0.0000000  16.6542709  )
        14           H1  tau(  14) = (   0.0000000   0.0000000  17.7542709  )

     number of k points=    20  Fermi-Dirac smearing, width (Ry)=  0.0110
                       cart. coord. in units 2pi/alat
        k(    1) = (   0.0000000   0.0000000   0.0000000), wk =   0.0555556
        k(    2) = (   0.0000000   0.0316086   0.0000000), wk =   0.1111111
        k(    3) = (   0.0000000   0.0632172   0.0000000), wk =   0.1111111
        k(    4) = (   0.0000000  -0.0948258   0.0000000), wk =   0.0555556
        k(    5) = (   0.0273738  -0.0158043   0.0000000), wk =   0.1111111
        k(    6) = (   0.0273738   0.0158043   0.0000000), wk =   0.1111111
        k(    7) = (   0.0273738   0.0474129   0.0000000), wk =   0.1111111
        k(    8) = (   0.0273738  -0.1106300   0.0000000), wk =   0.1111111
        k(    9) = (   0.0273738  -0.0790215   0.0000000), wk =   0.1111111
        k(   10) = (   0.0273738  -0.0474129   0.0000000), wk =   0.1111111
        k(   11) = (   0.0547477  -0.0316086   0.0000000), wk =   0.1111111
        k(   12) = (   0.0547477   0.0000000   0.0000000), wk =   0.1111111
        k(   13) = (   0.0547477   0.0316086   0.0000000), wk =   0.1111111
        k(   14) = (   0.0547477  -0.1264343   0.0000000), wk =   0.1111111
        k(   15) = (   0.0547477  -0.0948258   0.0000000), wk =   0.1111111
        k(   16) = (   0.0547477  -0.0632172   0.0000000), wk =   0.1111111
        k(   17) = (  -0.0821215   0.0474129   0.0000000), wk =   0.0555556
        k(   18) = (  -0.0821215   0.0790215   0.0000000), wk =   0.1111111
        k(   19) = (  -0.0821215   0.1106300   0.0000000), wk =   0.1111111
        k(   20) = (  -0.0821215  -0.0474129   0.0000000), wk =   0.0555556

     Largest allocated arrays     est. size (Mb)     dimensions
     Largest temporary arrays     est. size (Mb)     dimensions

     Initial potential from superposition of free atoms
     Check: negative starting charge=   -0.001078

     starting charge  220.99994, renormalised to  233.00000

     negative rho (up, down):  1.136E-03 0.000E+00

     *
     * You are using vdW-DF for exchange-correlation in this calculation.
     * Please cite the following three references that made this development
     * possible:
     *
     *   M. Dion, H. Rydberg, E. Schroder, D. C. Langreth, and
     *   B. I. Lundqvist, Phys. Rev. Lett. 92, 246401 (2004).
     *
     *   T. Thonhauser, V. R. Cooper, S. Li, A. Puzder, P. Hyldgaard, and
     *   D. C. Langreth, Phys. Rev. B 76, 125112 (2007).
     *
     *   G. Roman-Perez and J. M. Soler, Phys. Rev. Lett. 103, 096102 (2009).
     *
     *
     * If you are using vdW-DF2, please also cite:
     *
     *   K. Lee, E. D. Murray, L. Kong, B. I. Lundqvist, and
     *   D. C. Langreth, Phys. Rev. B 82, 081101(R) (2010).
     *
     *
     * If you are calculating the stress with vdW-DF, please also cite:
     *
     *   R. Sabatini, E. Kucukbenli, B. Kolb, T. Thonhauser, and
     *   S. de Gironcoli, J. Phys.: Condens. Matter 24, 424209 (2012).
     *

     Carrying out vdW-DF run using the following parameters:

     Nqs =      20    Nr_points =    1024   r_max =   100.000
     q_mesh =
               0.00001000     0.04494208     0.09755937     0.15916263
               0.23128650     0.31572767     0.41458969     0.53033537
               0.66584808     0.82450364     1.01025438     1.22772762
               1.48234092     1.78043706     2.12944203     2.53805004
               3.01644009     3.57652955     4.23227104     5.00000000

     Gradients computed in reciprocal space

     Adding external electric field

     Computed dipole along edir(3) :
        Dipole               -2.2512 Ry au,         -5.7219 Debye
        Dipole field         -0.0052 Ry au

        Potential amp.        0.4812 Ry
        Total length         46.0091 bohr

     Starting wfc are  149 randomized atomic wfcs

     Self-consistent Calculation

     iteration #  1     ecut=    36.75 Ry     beta=0.30
     Davidson diagonalization with overlap
     ethr =  1.00E-02,  avg # of iterations =  7.0

[...]

     total energy              =   -4819.32773957 Ry
     Harris-Foulkes estimate   =   -5028.23381117 Ry
     estimated scf accuracy    <     439.28448232 Ry

     iteration #  2     ecut=    36.75 Ry     beta=0.30
     Davidson diagonalization with overlap
     c_bands:  4 eigenvalues not converged
     c_bands:  1 eigenvalues not converged
     c_bands:  3 eigenvalues not converged
     c_bands:  1 eigenvalues not converged
     c_bands:  1 eigenvalues not converged
     c_bands:  3 eigenvalues not converged
     c_bands:  2 eigenvalues not converged
     c_bands:  1 eigenvalues not converged
     c_bands:  2 eigenvalues not converged
     c_bands:  2 eigenvalues not converged
     c_bands:  1 eigenvalues not converged
     c_bands:  2 eigenvalues not converged
     c_bands:  5 eigenvalues not converged
     c_bands:  3 eigenvalues not converged
     c_bands:  2 eigenvalues not converged
     c_bands:  5 eigenvalues not converged
     ethr =  1.00E-02,  avg # of iterations = 20.1

[...]

     End of self-consistent calculation

          k = 0.0000 0.0000 0.0000 ( 20347 PWs)   bands (ev):

   -94.6969 -94.6967 -94.6967 -94.6737 -94.6737 -94.6731 -94.6729 -94.6714
   -94.6714 -94.6650 -94.6637 -94.6637 -94.6596 -94.6596 -94.6591 -94.6583
   -94.6580 -94.6580 -94.6554 -94.6553 -94.6553 -94.6502 -94.6502 -94.6496
   -94.6428 -94.6407 -94.6407 -94.6373 -94.6365 -94.6351 -94.6351 -94.6283
   -94.6283 -94.3797 -94.3797 -94.3189 -15.2681 -15.1623 -15.1623 -15.1564
   -15.1212 -15.1098 -15.1098 -15.1094 -15.1050 -15.1050 -15.1041 -15.0884
   -15.0735 -15.0723 -15.0723 -15.0568 -15.0568 -15.0561 -15.0433 -15.0433
   -15.0371 -15.0368 -15.0368 -15.0333 -15.0255 -15.0255 -15.0091 -15.0091
   -14.9925 -14.9843 -14.9843 -14.9661 -14.9573 -14.9573 -14.9434 -14.9434
   -14.9329 -14.9329 -14.9039 -14.9039 -14.9002 -14.8970 -14.8970 -14.8968
   -14.8826 -14.8826 -14.8729 -14.8706 -14.8680 -14.8680 -14.8631 -14.8585
   -14.8584 -14.8493 -14.8493 -14.8445 -14.7110 -14.7110 -14.6829 -14.6829
   -10.9624  -9.9378  -8.4505  -6.5769  -5.4850  -4.8497  -4.8497  -4.7452
    -4.4516  -4.4516  -3.9817  -3.2189  -3.2189  -2.8091  -2.8091  -2.7715
    -2.4740  -1.6779  -1.3120  -1.3120  -0.8397  -0.8397  -0.7362   0.4497
     0.8955   0.8955   1.4804   3.1119   3.1411   3.1546

[...]

          k =-0.0821 0.0474 0.0000 ( 20384 PWs)   bands (ev):

[...]

     the Fermi energy is     0.1075 ev

!    total energy              =   -5011.55278889 Ry
     Harris-Foulkes estimate   =   -5011.55277602 Ry
     estimated scf accuracy    <       0.00000540 Ry

     The total energy is the sum of the following terms:

     one-electron contribution =  -27401.60274833 Ry
     hartree contribution      =   13706.21083406 Ry
     xc contribution           =    -600.84750412 Ry
     ewald contribution        =    9284.72248397 Ry
     electric field correction =       0.00004714 Ry
     smearing contrib. (-TS)   =      -0.03590162 Ry

     convergence has been achieved in  17 iterations

 BEEF-vdW xc energy contributions
           1 :   -537.029477759275
           2 :    487.497905104619
           3 :   -404.453615970284
           4 :    312.016480938322
           5 :   -231.546432218125
           6 :    173.655781494577
           7 :   -136.669876705348
           8 :    111.337015109132
           9 :   -88.2393365873204
          10 :    63.3130480604483
          11 :   -38.6884799752072
          12 :    19.3134378130566
          13 :   -8.37834116580279
          14 :    4.81875435250777
          15 :   -4.26824504583101
          16 :    2.27895987445322
          17 :    2.77603052082873
          18 :   -9.14589806660138
          19 :    13.6000539220020
          20 :   -14.1371844225830
          21 :    11.4606498124009
          22 :   -8.28250116077936
          23 :    7.18568409890054
          24 :   -8.76129556083117
          25 :    11.3802930374057
          26 :   -12.6408554141701
          27 :    11.2826506829798
          28 :   -8.10321340876203
          29 :    5.25842619916671
          30 :   -4.57696376050808
          31 :   -39.7779335257958
          32 :   -27.0234692980416

     Forces acting on atoms (Ry/au):

     negative rho (up, down):  9.584E-04 0.000E+00
     atom    1 type  1   force =    -0.00043179   -0.00024717    0.00230450
     atom    2 type  1   force =     0.00042581   -0.00023178    0.00229444
     atom    3 type  1   force =     0.00000464    0.00049195    0.00231509
     atom    4 type  1   force =    -0.00000828   -0.00000715   -0.00208201
     atom    5 type  1   force =    -0.00000363   -0.00039586    0.00411766
     atom    6 type  1   force =     0.00001017   -0.00000877   -0.00399910
     atom    7 type  1   force =     0.00034323    0.00020355    0.00430462
     atom    8 type  1   force =    -0.00033648    0.00019524    0.00424769
     atom    9 type  1   force =    -0.00000311    0.00000300   -0.17479488
     atom   10 type  1   force =    -0.00000176   -0.00134387    0.00289214
     atom   11 type  1   force =    -0.00116661    0.00067074    0.00288190
     atom   12 type  1   force =     0.00116869    0.00066911    0.00288442
     atom   13 type  2   force =    -0.00000048    0.00000017    0.17159288
     atom   14 type  3   force =    -0.00000038    0.00000083   -0.01895934

     Total force =     0.245738     Total SCF correction =     0.015821

     entering subroutine stress ...

     negative rho (up, down):  9.584E-04 0.000E+00
          total   stress  (Ry/bohr**3)                   (kbar)     P=   -5.61
  -0.00007122  -0.00000000   0.00000000        -10.48     -0.00      0.00
  -0.00000000  -0.00007122   0.00000000         -0.00    -10.48      0.00
   0.00000000   0.00000000   0.00002796          0.00      0.00      4.11

     BFGS Geometry Optimization

     number of scf cycles    =   1
     number of bfgs steps    =   0

     energy   new            =   -5011.5527888937 Ry

     new trust radius        =       0.1747948828 bohr
     new conv_thr            =       0.0000099958 Ry

ATOMIC_POSITIONS (crystal)
Ga1      0.166666667   0.166666667   0.400460194    0   0   0
Ga1      0.666666667   0.166666667   0.400460194    0   0   0
Ga1      0.166666667   0.666666667   0.400460194    0   0   0
Ga1      0.666666667   0.666666667   0.400460194    0   0   0
Ga1      0.833333333   0.333333333   0.500000000    0   0   0
Ga1      0.333333333   0.333333333   0.500000000    0   0   0
Ga1      0.833333333   0.833333333   0.500000000    0   0   0
Ga1      0.333333333   0.833333333   0.500000000    0   0   0
Ga1     -0.000000421   0.000000301   0.595835650
Ga1      0.500067282  -0.000134870   0.599601094
Ga1     -0.000135052   0.500067315   0.599600878
Ga1      0.500067999   0.500067151   0.599600931
C1      -0.000000051   0.000000017   0.670573557
H1      -0.000000075   0.000000083   0.710586102

     Writing output data file calc.save
     Check: negative starting charge=   -0.001078
     NEW-OLD atomic charge density approx. for the potential
     Check: negative starting charge=   -0.001076

[...]

     energy   old            =   -5011.5527888937 Ry
     energy   new            =   -5011.5601520827 Ry

     CASE: energy  _new < energy  _old

[...]

     WARNING: bfgs curvature condition failed, Theta= 0.913
     new trust radius        =       0.1042620174 bohr
     new conv_thr            =       0.0000001000 Ry

[...]

     Total force =     0.012008     Total SCF correction =     0.000705

[...]

     Total force =     0.007066     Total SCF correction =     0.001590
     SCF correction compared to forces is large: reduce conv_thr to get better values

[...]

     Threshold (ethr) on eigenvalues was too large:
     Diagonalizing with lowered threshold

     Davidson diagonalization with overlap
     ethr =  4.05E-08,  avg # of iterations =  1.9

[...]

     number of scf cycles    =  18
     number of bfgs steps    =  17

     energy   old            =   -5011.5972402363 Ry
     energy   new            =   -5011.5972877367 Ry

     CASE: energy  _new < energy  _old

     new trust radius        =       0.0086309654 bohr
     new conv_thr            =       0.0000001000 Ry

ATOMIC_POSITIONS (crystal)
Ga1      0.166666667   0.166666667   0.400460194    0   0   0
Ga1      0.666666667   0.166666667   0.400460194    0   0   0
Ga1      0.166666667   0.666666667   0.400460194    0   0   0
Ga1      0.666666667   0.666666667   0.400460194    0   0   0
Ga1      0.833333333   0.333333333   0.500000000    0   0   0
Ga1      0.333333333   0.333333333   0.500000000    0   0   0
Ga1      0.833333333   0.833333333   0.500000000    0   0   0
Ga1      0.333333333   0.833333333   0.500000000    0   0   0
Ga1     -0.000000876  -0.000002301   0.576135080
Ga1      0.501137786  -0.002277624   0.611929850
Ga1     -0.002282399   0.501143762   0.611929155
Ga1      0.501138930   0.501142604   0.611928102
C1       0.000002091   0.000001265   0.648911725
H1       0.000000123  -0.000000341   0.692415080

     Writing output data file calc.save
     Check: negative starting charge=   -0.001110
     NEW-OLD atomic charge density approx. for the potential
     Check: negative starting charge=   -0.001109

[...]

     Self-consistent Calculation

[...]

     Threshold (ethr) on eigenvalues was too large:
     Diagonalizing with lowered threshold

     Davidson diagonalization with overlap
     ethr =  4.00E-08,  avg # of iterations =  2.5

[...]

     total energy              =   -5011.59732696 Ry
     Harris-Foulkes estimate   =   -5011.59732694 Ry
     estimated scf accuracy    <       0.00000014 Ry

     iteration #  7     ecut=    36.75 Ry     beta=0.30
     Davidson diagonalization with overlap
     ethr =  6.06E-11,  avg # of iterations =  3.0

[...]

     negative rho (up, down):  9.688E-04 0.000E+00

     Adding external electric field

     Computed dipole along edir(3) :
        Dipole               -0.0188 Ry au,         -0.0479 Debye
        Dipole field         -0.0000 Ry au

        Potential amp.        0.0040 Ry
        Total length         46.0091 bohr

     End of self-consistent calculation

[...]

          k = 0.0547-0.0632 0.0000 ( 20377 PWs)   bands (ev):

[...]

          k =-0.0821-0.0474 0.0000 ( 20384 PWs)   bands (ev):

   -94.5078 -94.4975 -94.4975 -94.4974 -94.4897 -94.4895 -94.4893 -94.4847
   -94.4843 -94.4841 -94.4841 -94.4839 -94.4836 -94.4832 -94.4832 -94.4793
   -94.4791 -94.4789 -94.4744 -94.4739 -94.4734 -94.4657 -94.4654 -94.4652
   -94.4634 -94.4629 -94.4627 -94.4627 -94.4625 -94.4623 -94.4411 -94.4411
   -94.4361 -94.4361 -94.4329 -94.3523 -15.1271 -14.9999 -14.9791 -14.9417
   -14.9177 -14.9118 -14.9044 -14.9003 -14.8885 -14.8845 -14.8808 -14.8724
   -14.8715 -14.8680 -14.8610 -14.8573 -14.8509 -14.8448 -14.8403 -14.8338
   -14.8276 -14.8275 -14.8263 -14.8256 -14.8183 -14.8171 -14.8138 -14.8122
   -14.8098 -14.8057 -14.8030 -14.8004 -14.7984 -14.7976 -14.7884 -14.7815
   -14.7795 -14.7733 -14.7666 -14.7643 -14.7626 -14.7612 -14.7607 -14.7566
   -14.7541 -14.7473 -14.7422 -14.7375 -14.7345 -14.7286 -14.7200 -14.7131
   -14.7121 -14.7077 -14.7010 -14.6906 -14.6828 -14.6803 -14.6110 -14.6028
   -10.9243  -8.6594  -8.2818  -7.1405  -6.9121  -5.7663  -5.6700  -5.4989
    -5.0849  -4.7367  -4.3372  -3.2110  -2.7014  -1.5771  -1.0253  -0.6115
    -0.4990  -0.0671  -0.0172   0.1113   0.6203   0.6826   1.1266   1.3130
     1.9078   2.0705   2.1298   2.4631   2.7573   2.7763

     the Fermi energy is     0.3289 ev

!    total energy              =   -5011.59732696 Ry
     Harris-Foulkes estimate   =   -5011.59732698 Ry
     estimated scf accuracy    <       0.00000002 Ry

     The total energy is the sum of the following terms:

     one-electron contribution =  -27180.07952120 Ry
     hartree contribution      =   13596.67462506 Ry
     xc contribution           =    -600.80104422 Ry
     ewald contribution        =    9172.64039111 Ry
     electric field correction =       0.00000082 Ry
     smearing contrib. (-TS)   =      -0.03177852 Ry

     convergence has been achieved in   7 iterations

 BEEF-vdW xc energy contributions
           1 :   -536.984889110702
           2 :    487.439355338687
           3 :   -404.352758745425
           4 :    311.856787101238
           5 :   -231.346124155258
           6 :    173.455211266496
           7 :   -136.501268931278
           8 :    111.204936362754
           9 :   -88.1261587952667
          10 :    63.2003323893352
          11 :   -38.5751160397723
          12 :    19.2185632952808
          13 :   -8.32919924862824
          14 :    4.83361333112202
          15 :   -4.34421804510271
          16 :    2.39011032647750
          17 :    2.66710967666017
          18 :   -9.06854879484854
          19 :    13.5611956368882
          20 :   -14.1202697121785
          21 :    11.4379601453661
          22 :   -8.23348403303771
          23 :    7.11037912168990
          24 :   -8.68029625625672
          25 :    11.3203288333823
          26 :   -12.6135604102996
          27 :    11.2703792736648
          28 :   -8.06406047862708
          29 :    5.15166023911206
          30 :   -4.39611669357737
          31 :   -39.7750503358277
          32 :   -27.0139750620419

     Forces acting on atoms (Ry/au):

     negative rho (up, down):  9.688E-04 0.000E+00
     atom    1 type  1   force =    -0.00362063   -0.00209037    0.00490928
     atom    2 type  1   force =     0.00362061   -0.00209037    0.00490955
     atom    3 type  1   force =     0.00000000    0.00418078    0.00490975
     atom    4 type  1   force =    -0.00000007   -0.00000002    0.00212399
     atom    5 type  1   force =     0.00000028    0.02152660   -0.00797145
     atom    6 type  1   force =    -0.00000019   -0.00000024    0.00764682
     atom    7 type  1   force =    -0.01864387   -0.01076383   -0.00797293
     atom    8 type  1   force =     0.01864328   -0.01076314   -0.00797203
     atom    9 type  1   force =    -0.00000022    0.00000145    0.00184850
     atom   10 type  1   force =    -0.00000103    0.00163938   -0.00042159
     atom   11 type  1   force =     0.00141846   -0.00082058   -0.00042173
     atom   12 type  1   force =    -0.00141886   -0.00081995   -0.00042138
     atom   13 type  2   force =     0.00000249    0.00000049    0.00007485
     atom   14 type  3   force =    -0.00000026   -0.00000021   -0.00124164

     Total force =     0.003682     Total SCF correction =     0.001155
     SCF correction compared to forces is large: reduce conv_thr to get better values

     entering subroutine stress ...

     negative rho (up, down):  9.688E-04 0.000E+00
          total   stress  (Ry/bohr**3)                   (kbar)     P=   -4.40
  -0.00003347  -0.00000000   0.00000000         -4.92     -0.00      0.00
  -0.00000000  -0.00003347   0.00000000         -0.00     -4.92      0.00
   0.00000000   0.00000000  -0.00002288          0.00      0.00     -3.37

     bfgs converged in  19 scf cycles and  18 bfgs steps
     (criteria: energy <  1.0E+00, force <  1.9E-03)

     End of BFGS Geometry Optimization

     Final energy   =   -5011.5973269571 Ry
Begin final coordinates

ATOMIC_POSITIONS (crystal)
Ga1      0.166666667   0.166666667   0.400460194    0   0   0
Ga1      0.666666667   0.166666667   0.400460194    0   0   0
Ga1      0.166666667   0.666666667   0.400460194    0   0   0
Ga1      0.666666667   0.666666667   0.400460194    0   0   0
Ga1      0.833333333   0.333333333   0.500000000    0   0   0
Ga1      0.333333333   0.333333333   0.500000000    0   0   0
Ga1      0.833333333   0.833333333   0.500000000    0   0   0
Ga1      0.333333333   0.833333333   0.500000000    0   0   0
Ga1     -0.000000876  -0.000002301   0.576135080
Ga1      0.501137786  -0.002277624   0.611929850
Ga1     -0.002282399   0.501143762   0.611929155
Ga1      0.501138930   0.501142604   0.611928102
C1       0.000002091   0.000001265   0.648911725
H1       0.000000123  -0.000000341   0.692415080
End final coordinates

     Writing output data file calc.save

     General routines

     Parallel routines

   This run was terminated on:  21:10:33  17Apr2018

   JOB DONE.