     Program PWSCF v.5.1rc2 (svn rev. 11289) starts on  2May2018 at 11:22:58

     Current dimensions of program PWSCF are:
     Max number of different atomic species (ntypx) = 10
     Max number of k-points (npk) =  40000
     Max angular momentum in pseudopotentials (lmaxx) =  3
     Presently stress not available with electric field

     IMPORTANT: XC functional enforced from input :
     Exchange-correlation      = BEEF-VDW ( 1  4 27 13 2)
     Any further DFT definition will be discarded
     Please, verify this is what you really want

     Subspace diagonalization in iterative solution of the eigenvalue problem:
     a serial algorithm will be used

     bravais-lattice index     =            0
     lattice parameter (alat)  =       1.8897  a.u.
     unit-cell volume          =    3807.2308 (a.u.)^3
     number of atoms/cell      =           13
     number of atomic types    =            2
     number of electrons       =       229.00
     number of Kohn-Sham states=          124
     kinetic-energy cutoff     =      36.7493  Ry
     charge density cutoff     =     367.4932  Ry
     convergence threshold     =      1.0E-05
     mixing beta               =       0.3000
     number of iterations used =           10  plain     mixing
     Exchange-correlation      = BEEF-VDW ( 1  4 27 13 2)
     nstep                     =           50

     celldm(1)=   1.889726  celldm(2)=   0.000000  celldm(3)=   0.000000
     celldm(4)=   0.000000  celldm(5)=   0.000000  celldm(6)=   0.000000

     crystal axes: (cart. coord. in units of alat)
               a(1) = (   5.184823   0.000000   0.000000 )
               a(2) = (   2.592411   4.490188   0.000000 )
               a(3) = (   0.000000   0.000000  24.233390 )

     reciprocal axes: (cart. coord. in units 2 pi/alat)
               b(1) = (  0.192871 -0.111354  0.000000 )
               b(2) = (  0.000000  0.222708  0.000000 )
               b(3) = (  0.000000  0.000000  0.041265 )

     PseudoPot. # 1 for Cu read from file:
     /u/if/mamunm/psp/gbrv1.5pbe/Cu.UPF
     MD5 check sum: 6e991ff952a84172a2a52a1c1e996048
     Pseudo is Ultrasoft + core correction, Zval = 19.0
     Generated by new atomic code, or converted to UPF format
     Using radial grid of  867 points,  6 beta functions with:
                l(1) =   0
                l(2) =   0
                l(3) =   1
                l(4) =   1
                l(5) =   2
                l(6) =   2
     Q(r) pseudized with  8 coefficients,  rinner =    1.150   1.150   1.150
                                                       1.150   1.150

     PseudoPot. # 2 for H  read from file:
     /u/if/mamunm/psp/gbrv1.5pbe/H.UPF
     MD5 check sum: 761ae9a214b05c3daf00ab9f6b793d6f
     Pseudo is Ultrasoft, Zval =  1.0
     Generated by new atomic code, or converted to UPF format
     Using radial grid of  615 points,  2 beta functions with:
                l(1) =   0
                l(2) =   0
     Q(r) pseudized with  8 coefficients,  rinner =    0.700

     vdW kernel table read from file vdW_kernel_table
     MD5 check sum: 095c7af220d748ca6e76c0b4c6cfb241

     atomic species   valence    mass     pseudopotential
        Cu1           19.00    63.54600     Cu( 1.00)
        H1             1.00     1.00800     H ( 1.00)

     No symmetry found

   Cartesian axes

     site n.     atom                  positions (alat units)
         1           Cu1 tau(   1) = (   1.2962057   0.7483647  10.0000000  )
         2           Cu1 tau(   2) = (   3.8886170   0.7483647  10.0000000  )
         3           Cu1 tau(   3) = (   2.5924113   2.9934587  10.0000000  )
         4           Cu1 tau(   4) = (   5.1848226   2.9934587  10.0000000  )
         5           Cu1 tau(   5) = (   5.1848226   1.4967294  12.1166950  )
         6           Cu1 tau(   6) = (   2.5924113   1.4967294  12.1166950  )
         7           Cu1 tau(   7) = (   6.4810283   3.7418234  12.1166950  )
         8           Cu1 tau(   8) = (   3.8886170   3.7418234  12.1166950  )
         9           Cu1 tau(   9) = (   0.0000000   0.0000000  14.2333899  )
        10           Cu1 tau(  10) = (   2.5924113   0.0000000  14.2333899  )
        11           Cu1 tau(  11) = (   1.2962057   2.2450940  14.2333899  )
        12           Cu1 tau(  12) = (   3.8886170   2.2450940  14.2333899  )
        13           H1  tau(  13) = (   2.5924113   1.4967294  15.2928899  )

     number of k points=    20  Fermi-Dirac smearing, width (Ry)=  0.0110
                       cart. coord. in units 2pi/alat
        k(    1) = (   0.0000000   0.0000000   0.0000000), wk =   0.0555556
        k(    2) = (   0.0000000   0.0371180   0.0000000), wk =   0.1111111
        k(    3) = (   0.0000000   0.0742359   0.0000000), wk =   0.1111111
        k(    4) = (   0.0000000  -0.1113539   0.0000000), wk =   0.0555556
        k(    5) = (   0.0321451  -0.0185590   0.0000000), wk =   0.1111111
        k(    6) = (   0.0321451   0.0185590   0.0000000), wk =   0.1111111
        k(    7) = (   0.0321451   0.0556770   0.0000000), wk =   0.1111111
        k(    8) = (   0.0321451  -0.1299129   0.0000000), wk =   0.1111111
        k(    9) = (   0.0321451  -0.0927949   0.0000000), wk =   0.1111111
        k(   10) = (   0.0321451  -0.0556770   0.0000000), wk =   0.1111111
        k(   11) = (   0.0642902  -0.0371180   0.0000000), wk =   0.1111111
        k(   12) = (   0.0642902  -0.0000000   0.0000000), wk =   0.1111111
        k(   13) = (   0.0642902   0.0371180   0.0000000), wk =   0.1111111
        k(   14) = (   0.0642902  -0.1484719   0.0000000), wk =   0.1111111
        k(   15) = (   0.0642902  -0.1113539   0.0000000), wk =   0.1111111
        k(   16) = (   0.0642902  -0.0742359   0.0000000), wk =   0.1111111
        k(   17) = (  -0.0964353   0.0556770   0.0000000), wk =   0.0555556
        k(   18) = (  -0.0964353   0.0927949   0.0000000), wk =   0.1111111
        k(   19) = (  -0.0964353   0.1299129   0.0000000), wk =   0.1111111
        k(   20) = (  -0.0964353  -0.0556770   0.0000000), wk =   0.0555556

     Largest allocated arrays     est. size (Mb)     dimensions
     Largest temporary arrays     est. size (Mb)     dimensions

     Initial potential from superposition of free atoms
     Check: negative starting charge=   -0.000126

     starting charge  216.99997, renormalised to  229.00000

     negative rho (up, down):  1.332E-04 0.000E+00

     *
     * You are using vdW-DF for exchange-correlation in this calculation.
     * Please cite the following three references that made this development
     * possible:
     *
     *   M. Dion, H. Rydberg, E. Schroder, D. C. Langreth, and
     *   B. I. Lundqvist, Phys. Rev. Lett. 92, 246401 (2004).
     *
     *   T. Thonhauser, V. R. Cooper, S. Li, A. Puzder, P. Hyldgaard, and
     *   D. C. Langreth, Phys. Rev. B 76, 125112 (2007).
     *
     *   G. Roman-Perez and J. M. Soler, Phys. Rev. Lett. 103, 096102 (2009).
     *
     *
     * If you are using vdW-DF2, please also cite:
     *
     *   K. Lee, E. D. Murray, L. Kong, B. I. Lundqvist, and
     *   D. C. Langreth, Phys. Rev. B 82, 081101(R) (2010).
     *
     *
     * If you are calculating the stress with vdW-DF, please also cite:
     *
     *   R. Sabatini, E. Kucukbenli, B. Kolb, T. Thonhauser, and
     *   S. de Gironcoli, J. Phys.: Condens. Matter 24, 424209 (2012).
     *

     Carrying out vdW-DF run using the following parameters:

     Nqs =      20    Nr_points =    1024   r_max =   100.000
     q_mesh =
               0.00001000     0.04494208     0.09755937     0.15916263
               0.23128650     0.31572767     0.41458969     0.53033537
               0.66584808     0.82450364     1.01025438     1.22772762
               1.48234092     1.78043706     2.12944203     2.53805004
               3.01644009     3.57652955     4.23227104     5.00000000

     Gradients computed in reciprocal space

     Adding external electric field

     Computed dipole along edir(3) :
        Dipole               -0.3319 Ry au,         -0.8435 Debye
        Dipole field         -0.0011 Ry au

        Potential amp.        0.0978 Ry
        Total length         44.6496 bohr

     Starting wfc are  157 randomized atomic wfcs

     Self-consistent Calculation

     iteration #  1     ecut=    36.75 Ry     beta=0.30
     Davidson diagonalization with overlap
     ethr =  1.00E-02,  avg # of iterations =  5.7

[...]

     total energy              =   -4812.69593564 Ry
     Harris-Foulkes estimate   =   -4872.23938580 Ry
     estimated scf accuracy    <     125.29373040 Ry

[...]

     End of self-consistent calculation

          k = 0.0000 0.0000 0.0000 ( 14321 PWs)   bands (ev):

  -112.2947-112.2891-112.2888-112.2089-112.2033-112.2032-112.1628-112.0043
  -111.9976-111.9965-111.9962-111.8665 -69.7190 -69.7124 -69.7121 -69.6978
   -69.6898 -69.6895 -69.6769 -69.6659 -69.6567 -69.6564 -69.6341 -69.6341
   -69.6069 -69.6068 -69.5975 -69.5687 -69.5687 -69.5675 -69.5441 -69.5440
   -69.5329 -69.4546 -69.4545 -69.4475 -69.4043 -69.4006 -69.4006 -69.3834
   -69.3834 -69.3634 -69.3571 -69.3562 -69.3560 -69.2807 -69.2807 -69.2434
    -8.0691  -6.5499  -5.0288  -4.3205  -4.2271  -4.2077  -4.2077  -4.0275
    -4.0275  -3.8361  -3.6918  -3.6918  -3.6724  -3.6257  -3.6256  -3.3405
    -3.0179  -3.0179  -2.8075  -2.7055  -2.7055  -2.6564  -2.5938  -2.5776
    -2.5776  -2.4446  -2.4446  -2.4313  -2.3802  -2.3801  -2.2989  -2.2989
    -2.2782  -2.2257  -2.2255  -2.1190  -1.8570  -1.8569  -1.8327  -1.7966
    -1.7965  -1.7517  -1.7516  -1.5581  -1.5580  -1.5567  -1.4242  -1.3936
    -1.3935  -1.3698  -1.3697  -1.3273  -1.3273  -1.3179  -1.3007  -1.2744
    -1.2742  -1.2435  -1.1214  -1.1213  -1.0599  -1.0597  -1.0596  -0.4837
     0.3912   0.4448   0.4448   1.0994   1.4864   1.4864   1.8102   1.9242
     1.9242   4.0667   4.4348   4.5148

[...]

          k =-0.0964 0.0557 0.0000 ( 14294 PWs)   bands (ev):

[...]

     the Fermi energy is     0.3008 ev

!    total energy              =   -4860.41755140 Ry
     Harris-Foulkes estimate   =   -4860.41755134 Ry
     estimated scf accuracy    <       0.00000079 Ry

     The total energy is the sum of the following terms:

     one-electron contribution =  -37191.48733059 Ry
     hartree contribution      =   18609.44283745 Ry
     xc contribution           =    -480.77299553 Ry
     ewald contribution        =   14202.42508849 Ry
     electric field correction =       0.00000190 Ry
     smearing contrib. (-TS)   =      -0.02515311 Ry

     convergence has been achieved in  18 iterations

 BEEF-vdW xc energy contributions
           1 :   -426.167412198853
           2 :    386.411901210623
           3 :   -319.027464845009
           4 :    242.545851428549
           5 :   -173.885108520643
           6 :    122.238794268105
           7 :   -87.6002691595793
           8 :    63.9022014188390
           9 :   -44.3095271879175
          10 :    25.3852436497424
          11 :   -8.03337674304265
          12 :   -4.63142653308495
          13 :    10.4925055552075
          14 :   -10.3943275672394
          15 :    7.71350376313239
          16 :   -6.15141798025843
          17 :    7.47368394269836
          18 :   -10.7484780817528
          19 :    13.4448328338094
          20 :   -13.4669317471416
          21 :    10.6575978428255
          22 :   -6.79885407400707
          23 :    4.24684390661105
          24 :   -4.26556926339532
          25 :    6.23741276507269
          26 :   -8.23274892422535
          27 :    8.44943481735470
          28 :   -6.46929859933402
          29 :    3.47161519127798
          30 :   -1.31763347469740
          31 :   -33.9015899997675
          32 :   -23.1522517908004

     Forces acting on atoms (Ry/au):

     negative rho (up, down):  1.060E-03 0.000E+00
     atom    1 type  1   force =     0.00266885    0.00157302    0.00492917
     atom    2 type  1   force =    -0.00266478    0.00153882    0.00499736
     atom    3 type  1   force =    -0.00002881   -0.00309707    0.00492862
     atom    4 type  1   force =     0.00002449   -0.00001572    0.00212648
     atom    5 type  1   force =    -0.00000783    0.00037058    0.00244109
     atom    6 type  1   force =     0.00000276    0.00000201   -0.01336778
     atom    7 type  1   force =    -0.00032273   -0.00017911    0.00243813
     atom    8 type  1   force =     0.00034920   -0.00020385    0.00239052
     atom    9 type  1   force =    -0.00002316    0.00001511   -0.00782185
     atom   10 type  1   force =     0.00002179    0.00741234    0.00601911
     atom   11 type  1   force =     0.00639155   -0.00369007    0.00598266
     atom   12 type  1   force =    -0.00641237   -0.00372659    0.00601107
     atom   13 type  2   force =     0.00000105    0.00000051   -0.02107460

     Total force =     0.027891     Total SCF correction =     0.002846
     SCF correction compared to forces is large: reduce conv_thr to get better values

     entering subroutine stress ...

     negative rho (up, down):  1.060E-03 0.000E+00
          total   stress  (Ry/bohr**3)                   (kbar)     P=  -22.62
  -0.00017049  -0.00000000  -0.00000001        -25.08     -0.00     -0.00
  -0.00000000  -0.00017049   0.00000001         -0.00    -25.08      0.00
  -0.00000001   0.00000001  -0.00012039         -0.00      0.00    -17.71

     BFGS Geometry Optimization

     number of scf cycles    =   1
     number of bfgs steps    =   0

     energy   new            =   -4860.4175513967 Ry

     new trust radius        =       0.0210745986 bohr
     new conv_thr            =       0.0000099958 Ry

ATOMIC_POSITIONS (crystal)
Cu1      0.166666667   0.166666667   0.412653782    0   0   0
Cu1      0.666666667   0.166666667   0.412653782    0   0   0
Cu1      0.166666667   0.666666667   0.412653782    0   0   0
Cu1      0.666666667   0.666666667   0.412653782    0   0   0
Cu1      0.833333333   0.333333333   0.500000000    0   0   0
Cu1      0.333333333   0.333333333   0.500000000    0   0   0
Cu1      0.833333333   0.833333333   0.500000000    0   0   0
Cu1      0.333333333   0.833333333   0.500000000    0   0   0
Cu1     -0.000003254   0.000001781   0.587175415
Cu1      0.499565444   0.000873559   0.587477656
Cu1      0.000869779   0.499565119   0.587476860
Cu1      0.499565129   0.499560814   0.587477480
H1       0.333333410   0.333333393   0.630606687

     Writing output data file calc.save
     Check: negative starting charge=   -0.000126
     NEW-OLD atomic charge density approx. for the potential
     Check: negative starting charge=   -0.000127

[...]

     energy   old            =   -4860.4175513967 Ry
     energy   new            =   -4860.4182615858 Ry

     CASE: energy  _new < energy  _old

[...]

     Total force =     0.019203     Total SCF correction =     0.000650

[...]

     WARNING: bfgs curvature condition failed, Theta= 0.768
     new trust radius        =       0.0638968418 bohr
     new conv_thr            =       0.0000001000 Ry

[...]

     Total force =     0.013206     Total SCF correction =     0.000711

[...]

     Threshold (ethr) on eigenvalues was too large:
     Diagonalizing with lowered threshold

     Davidson diagonalization with overlap
     ethr =  7.88E-08,  avg # of iterations =  1.0

[...]

     number of scf cycles    =   7
     number of bfgs steps    =   6

     energy   old            =   -4860.4208307343 Ry
     energy   new            =   -4860.4209549859 Ry

     CASE: energy  _new < energy  _old

     new trust radius        =       0.0311797780 bohr
     new conv_thr            =       0.0000001000 Ry

ATOMIC_POSITIONS (crystal)
Cu1      0.166666667   0.166666667   0.412653782    0   0   0
Cu1      0.666666667   0.166666667   0.412653782    0   0   0
Cu1      0.166666667   0.666666667   0.412653782    0   0   0
Cu1      0.666666667   0.666666667   0.412653782    0   0   0
Cu1      0.833333333   0.333333333   0.500000000    0   0   0
Cu1      0.333333333   0.333333333   0.500000000    0   0   0
Cu1      0.833333333   0.833333333   0.500000000    0   0   0
Cu1      0.333333333   0.833333333   0.500000000    0   0   0
Cu1     -0.000026652   0.000009445   0.585756411
Cu1      0.500821858  -0.001578323   0.587794800
Cu1     -0.001413716   0.500708654   0.587780496
Cu1      0.500831377   0.500769555   0.587806035
H1       0.333365877   0.333315924   0.624085983

     Writing output data file calc.save
     Check: negative starting charge=   -0.000129
     NEW-OLD atomic charge density approx. for the potential
     Check: negative starting charge=   -0.000130

[...]

     Self-consistent Calculation

[...]

     total energy              =   -4860.42108453 Ry
     Harris-Foulkes estimate   =   -4860.42108452 Ry
     estimated scf accuracy    <       0.00000013 Ry

     iteration # 10     ecut=    36.75 Ry     beta=0.30
     Davidson diagonalization with overlap
     ethr =  5.81E-11,  avg # of iterations =  2.6

[...]

     negative rho (up, down):  1.062E-03 0.000E+00

     Adding external electric field

     Computed dipole along edir(3) :
        Dipole               -0.0098 Ry au,         -0.0250 Debye
        Dipole field         -0.0000 Ry au

        Potential amp.        0.0029 Ry
        Total length         44.6496 bohr

     End of self-consistent calculation

[...]

          k = 0.0643-0.0742 0.0000 ( 14299 PWs)   bands (ev):

[...]

          k =-0.0964-0.0557 0.0000 ( 14294 PWs)   bands (ev):

  -112.2680-112.2662-112.2642-112.2276-112.2253-112.2238-112.1358-111.9791
  -111.9718-111.9695-111.9681-111.8736 -69.6956 -69.6867 -69.6767 -69.6729
   -69.6690 -69.6665 -69.6641 -69.6632 -69.6623 -69.6566 -69.6533 -69.6347
   -69.6293 -69.6241 -69.6154 -69.5700 -69.5661 -69.5606 -69.5432 -69.5392
   -69.5117 -69.4177 -69.4096 -69.3973 -69.3908 -69.3877 -69.3837 -69.3702
   -69.3620 -69.3381 -69.3310 -69.3289 -69.3277 -69.2860 -69.2843 -69.2568
    -6.7296  -6.1477  -5.6262  -4.5476  -4.1519  -3.9063  -3.9046  -3.6749
    -3.6481  -3.6386  -3.5035  -3.3449  -3.3220  -3.1927  -3.1839  -3.1234
    -3.0642  -2.9496  -2.9273  -2.9241  -2.9018  -2.8480  -2.8422  -2.6411
    -2.6264  -2.5674  -2.5163  -2.4930  -2.4382  -2.4260  -2.3877  -2.3526
    -2.3236  -2.3027  -2.2962  -2.2550  -2.2517  -2.2345  -2.2268  -2.2208
    -2.0490  -1.9907  -1.9606  -1.9417  -1.9285  -1.8601  -1.8426  -1.8212
    -1.7591  -1.7274  -1.7015  -1.6598  -1.6039  -1.6011  -1.5922  -1.5219
    -1.4669  -1.3810  -1.3733  -1.3070  -1.3020  -1.2928  -1.2279  -1.1797
    -0.1789   0.2545   0.3582   0.5509   1.2036   1.3982   2.5861   3.1348
     3.5800   3.8158   5.7276   5.8262

     the Fermi energy is     0.3222 ev

!    total energy              =   -4860.42108449 Ry
     Harris-Foulkes estimate   =   -4860.42108456 Ry
     estimated scf accuracy    <       0.00000008 Ry

     The total energy is the sum of the following terms:

     one-electron contribution =  -37213.68545953 Ry
     hartree contribution      =   18620.61310400 Ry
     xc contribution           =    -480.80727459 Ry
     ewald contribution        =   14213.48344886 Ry
     electric field correction =       0.00000032 Ry
     smearing contrib. (-TS)   =      -0.02490356 Ry

     convergence has been achieved in  10 iterations

 BEEF-vdW xc energy contributions
           1 :   -426.203891558509
           2 :    386.461076059081
           3 :   -319.085365127828
           4 :    242.591688480726
           5 :   -173.895832868547
           6 :    122.206172818925
           7 :   -87.5385035822613
           8 :    63.8398032292057
           9 :   -44.2706991362620
          10 :    25.3742880087155
          11 :   -8.03358140143575
          12 :   -4.64351669998240
          13 :    10.5280295599954
          14 :   -10.4424910581743
          15 :    7.74870336532143
          16 :   -6.15193046791131
          17 :    7.43821410200479
          18 :   -10.6982426174575
          19 :    13.4094321479536
          20 :   -13.4641947882338
          21 :    10.6817033111164
          22 :   -6.82497230334963
          23 :    4.24898307666081
          24 :   -4.23495370636789
          25 :    6.18863342957462
          26 :   -8.19389947114138
          27 :    8.44274759873394
          28 :   -6.49517668953098
          29 :    3.50764068609254
          30 :   -1.33349450896748
          31 :   -33.9043859929366
          32 :   -23.1567653015940

     Forces acting on atoms (Ry/au):

     negative rho (up, down):  1.062E-03 0.000E+00
     atom    1 type  1   force =     0.00228761    0.00131387    0.00394919
     atom    2 type  1   force =    -0.00228699    0.00132035    0.00395335
     atom    3 type  1   force =     0.00000595   -0.00263804    0.00395105
     atom    4 type  1   force =    -0.00000502    0.00000311    0.00168532
     atom    5 type  1   force =    -0.00000502    0.00166233    0.00060565
     atom    6 type  1   force =     0.00002964   -0.00000775   -0.01157448
     atom    7 type  1   force =    -0.00143815   -0.00083034    0.00059336
     atom    8 type  1   force =     0.00143848   -0.00083630    0.00061958
     atom    9 type  1   force =     0.00006436   -0.00002957   -0.00176778
     atom   10 type  1   force =    -0.00001090   -0.00004820   -0.00128419
     atom   11 type  1   force =    -0.00012319    0.00007223   -0.00124369
     atom   12 type  1   force =     0.00002616    0.00002878   -0.00132382
     atom   13 type  2   force =     0.00001706   -0.00001047    0.00183644

     Total force =     0.003388     Total SCF correction =     0.000859
     SCF correction compared to forces is large: reduce conv_thr to get better values

     entering subroutine stress ...

     negative rho (up, down):  1.062E-03 0.000E+00
          total   stress  (Ry/bohr**3)                   (kbar)     P=  -20.95
  -0.00016062  -0.00000002  -0.00000002        -23.63     -0.00     -0.00
  -0.00000002  -0.00016064   0.00000001         -0.00    -23.63      0.00
  -0.00000002   0.00000001  -0.00010599         -0.00      0.00    -15.59

     bfgs converged in   8 scf cycles and   7 bfgs steps
     (criteria: energy <  1.0E+00, force <  1.9E-03)

     End of BFGS Geometry Optimization

     Final energy   =   -4860.4210844944 Ry
Begin final coordinates

ATOMIC_POSITIONS (crystal)
Cu1      0.166666667   0.166666667   0.412653782    0   0   0
Cu1      0.666666667   0.166666667   0.412653782    0   0   0
Cu1      0.166666667   0.666666667   0.412653782    0   0   0
Cu1      0.666666667   0.666666667   0.412653782    0   0   0
Cu1      0.833333333   0.333333333   0.500000000    0   0   0
Cu1      0.333333333   0.333333333   0.500000000    0   0   0
Cu1      0.833333333   0.833333333   0.500000000    0   0   0
Cu1      0.333333333   0.833333333   0.500000000    0   0   0
Cu1     -0.000026652   0.000009445   0.585756411
Cu1      0.500821858  -0.001578323   0.587794800
Cu1     -0.001413716   0.500708654   0.587780496
Cu1      0.500831377   0.500769555   0.587806035
H1       0.333365877   0.333315924   0.624085983
End final coordinates

     Writing output data file calc.save

     General routines

     Parallel routines

   This run was terminated on:  11:57: 8   2May2018

   JOB DONE.
Job  /afs/slac/g/suncat/bin/suncat-tsmpirun -x LD_LIBRARY_PATH -wdir /scratch/qe583185_xfSn0 pw.x -npool 4 -in pw.inp

TID   HOST_NAME   COMMAND_LINE            STATUS            TERMINATION_TIME
00000 suncat0164 pw.x -npool 4 -i  Done                     05/02/2018 11:57:08
00001 suncat0164 pw.x -npool 4 -i  Done                     05/02/2018 11:57:08
00002 suncat0164 pw.x -npool 4 -i  Done                     05/02/2018 11:57:08
00003 suncat0164 pw.x -npool 4 -i  Done                     05/02/2018 11:57:08
00004 suncat0164 pw.x -npool 4 -i  Done                     05/02/2018 11:57:08
00005 suncat0164 pw.x -npool 4 -i  Done                     05/02/2018 11:57:08
00006 suncat0164 pw.x -npool 4 -i  Done                     05/02/2018 11:57:08
00007 suncat0164 pw.x -npool 4 -i  Done                     05/02/2018 11:57:08
00008 suncat0146 pw.x -npool 4 -i  Done                     05/02/2018 11:57:08
00009 suncat0146 pw.x -npool 4 -i  Done                     05/02/2018 11:57:08
00010 suncat0146 pw.x -npool 4 -i  Done                     05/02/2018 11:57:08
00011 suncat0146 pw.x -npool 4 -i  Done                     05/02/2018 11:57:08
00012 suncat0146 pw.x -npool 4 -i  Done                     05/02/2018 11:57:08
00013 suncat0146 pw.x -npool 4 -i  Done                     05/02/2018 11:57:08
00014 suncat0146 pw.x -npool 4 -i  Done                     05/02/2018 11:57:08
00015 suncat0146 pw.x -npool 4 -i  Done                     05/02/2018 11:57:08
00016 suncat0145 pw.x -npool 4 -i  Done                     05/02/2018 11:57:08
00017 suncat0145 pw.x -npool 4 -i  Done                     05/02/2018 11:57:08
00018 suncat0145 pw.x -npool 4 -i  Done                     05/02/2018 11:57:08
00019 suncat0145 pw.x -npool 4 -i  Done                     05/02/2018 11:57:08
00020 suncat0145 pw.x -npool 4 -i  Done                     05/02/2018 11:57:08
00021 suncat0145 pw.x -npool 4 -i  Done                     05/02/2018 11:57:08
00022 suncat0145 pw.x -npool 4 -i  Done                     05/02/2018 11:57:08
00023 suncat0145 pw.x -npool 4 -i  Done                     05/02/2018 11:57:08
00024 suncat0140 pw.x -npool 4 -i  Done                     05/02/2018 11:57:08
00025 suncat0140 pw.x -npool 4 -i  Done                     05/02/2018 11:57:08
00026 suncat0140 pw.x -npool 4 -i  Done                     05/02/2018 11:57:08
00027 suncat0140 pw.x -npool 4 -i  Done                     05/02/2018 11:57:08
00028 suncat0140 pw.x -npool 4 -i  Done                     05/02/2018 11:57:08
00029 suncat0140 pw.x -npool 4 -i  Done                     05/02/2018 11:57:08
00030 suncat0140 pw.x -npool 4 -i  Done                     05/02/2018 11:57:08
00031 suncat0140 pw.x -npool 4 -i  Done                     05/02/2018 11:57:08