     Program PWSCF v.5.1rc2 (svn rev. 11289) starts on  3May2018 at 20:27:57

     Current dimensions of program PWSCF are:
     Max number of different atomic species (ntypx) = 10
     Max number of k-points (npk) =  40000
     Max angular momentum in pseudopotentials (lmaxx) =  3
     Presently stress not available with electric field

     IMPORTANT: XC functional enforced from input :
     Exchange-correlation      = BEEF-VDW ( 1  4 27 13 2)
     Any further DFT definition will be discarded
     Please, verify this is what you really want

     Subspace diagonalization in iterative solution of the eigenvalue problem:
     a serial algorithm will be used

     bravais-lattice index     =            0
     lattice parameter (alat)  =       1.8897  a.u.
     unit-cell volume          =    5409.9593 (a.u.)^3
     number of atoms/cell      =           13
     number of atomic types    =            2
     number of electrons       =       234.00
     number of Kohn-Sham states=          127
     kinetic-energy cutoff     =      36.7493  Ry
     charge density cutoff     =     367.4932  Ry
     convergence threshold     =      1.0E-05
     mixing beta               =       0.3000
     number of iterations used =           10  plain     mixing
     Exchange-correlation      = BEEF-VDW ( 1  4 27 13 2)
     nstep                     =           50

     celldm(1)=   1.889726  celldm(2)=   0.000000  celldm(3)=   0.000000
     celldm(4)=   0.000000  celldm(5)=   0.000000  celldm(6)=   0.000000

     crystal axes: (cart. coord. in units of alat)
               a(1) = (   6.088539   0.000000   0.000000 )
               a(2) = (   3.044269   5.272829   0.000000 )
               a(3) = (   0.000000   0.000000  24.971271 )

     reciprocal axes: (cart. coord. in units 2 pi/alat)
               b(1) = (  0.164243 -0.094826  0.000000 )
               b(2) = (  0.000000  0.189652  0.000000 )
               b(3) = (  0.000000  0.000000  0.040046 )

     PseudoPot. # 1 for Ga read from file:
     /u/if/mamunm/psp/gbrv1.5pbe/Ga.UPF
     MD5 check sum: ccd671392a58a050fbb373893b4fcd66
     Pseudo is Ultrasoft + core correction, Zval = 19.0
     Generated by new atomic code, or converted to UPF format
     Using radial grid of  871 points,  6 beta functions with:
                l(1) =   0
                l(2) =   0
                l(3) =   1
                l(4) =   1
                l(5) =   2
                l(6) =   2
     Q(r) pseudized with  8 coefficients,  rinner =    1.250   1.250   1.250
                                                       1.250   1.250

     PseudoPot. # 2 for S  read from file:
     /u/if/mamunm/psp/gbrv1.5pbe/S.UPF
     MD5 check sum: 88d86576ff6df21479756cfb9bdac1df
     Pseudo is Ultrasoft + core correction, Zval =  6.0
     Generated by new atomic code, or converted to UPF format
     Using radial grid of  907 points,  6 beta functions with:
                l(1) =   0
                l(2) =   0
                l(3) =   1
                l(4) =   1
                l(5) =   2
                l(6) =   2
     Q(r) pseudized with  8 coefficients,  rinner =    1.300   1.300   1.300
                                                       1.300   1.300

     vdW kernel table read from file vdW_kernel_table
     MD5 check sum: 095c7af220d748ca6e76c0b4c6cfb241

     atomic species   valence    mass     pseudopotential
        Ga1           19.00    69.72300     Ga( 1.00)
        S1             6.00    32.06000     S ( 1.00)

     No symmetry found

   Cartesian axes

     site n.     atom                  positions (alat units)
         1           Ga1 tau(   1) = (   1.5221346   0.8788048  10.0000000  )
         2           Ga1 tau(   2) = (   4.5664039   0.8788048  10.0000000  )
         3           Ga1 tau(   3) = (   3.0442693   3.5152194  10.0000000  )
         4           Ga1 tau(   4) = (   6.0885386   3.5152194  10.0000000  )
         5           Ga1 tau(   5) = (   6.0885386   1.7576097  12.4856355  )
         6           Ga1 tau(   6) = (   3.0442693   1.7576097  12.4856355  )
         7           Ga1 tau(   7) = (   7.6106732   4.3940242  12.4856355  )
         8           Ga1 tau(   8) = (   4.5664039   4.3940242  12.4856355  )
         9           Ga1 tau(   9) = (   0.0000000   0.0000000  14.9712709  )
        10           Ga1 tau(  10) = (   3.0442693   0.0000000  14.9712709  )
        11           Ga1 tau(  11) = (   1.5221346   2.6364145  14.9712709  )
        12           Ga1 tau(  12) = (   4.5664039   2.6364145  14.9712709  )
        13           S1  tau(  13) = (   3.0442693   1.7576097  16.4467709  )

     number of k points=    20  Fermi-Dirac smearing, width (Ry)=  0.0110
                       cart. coord. in units 2pi/alat
        k(    1) = (   0.0000000   0.0000000   0.0000000), wk =   0.0555556
        k(    2) = (   0.0000000   0.0316086   0.0000000), wk =   0.1111111
        k(    3) = (   0.0000000   0.0632172   0.0000000), wk =   0.1111111
        k(    4) = (   0.0000000  -0.0948258   0.0000000), wk =   0.0555556
        k(    5) = (   0.0273738  -0.0158043   0.0000000), wk =   0.1111111
        k(    6) = (   0.0273738   0.0158043   0.0000000), wk =   0.1111111
        k(    7) = (   0.0273738   0.0474129   0.0000000), wk =   0.1111111
        k(    8) = (   0.0273738  -0.1106300   0.0000000), wk =   0.1111111
        k(    9) = (   0.0273738  -0.0790215   0.0000000), wk =   0.1111111
        k(   10) = (   0.0273738  -0.0474129   0.0000000), wk =   0.1111111
        k(   11) = (   0.0547477  -0.0316086   0.0000000), wk =   0.1111111
        k(   12) = (   0.0547477   0.0000000   0.0000000), wk =   0.1111111
        k(   13) = (   0.0547477   0.0316086   0.0000000), wk =   0.1111111
        k(   14) = (   0.0547477  -0.1264343   0.0000000), wk =   0.1111111
        k(   15) = (   0.0547477  -0.0948258   0.0000000), wk =   0.1111111
        k(   16) = (   0.0547477  -0.0632172   0.0000000), wk =   0.1111111
        k(   17) = (  -0.0821215   0.0474129   0.0000000), wk =   0.0555556
        k(   18) = (  -0.0821215   0.0790215   0.0000000), wk =   0.1111111
        k(   19) = (  -0.0821215   0.1106300   0.0000000), wk =   0.1111111
        k(   20) = (  -0.0821215  -0.0474129   0.0000000), wk =   0.0555556

     Largest allocated arrays     est. size (Mb)     dimensions
     Largest temporary arrays     est. size (Mb)     dimensions

     Initial potential from superposition of free atoms
     Check: negative starting charge=   -0.001168

     starting charge  221.99995, renormalised to  234.00000

     negative rho (up, down):  1.231E-03 0.000E+00

     *
     * You are using vdW-DF for exchange-correlation in this calculation.
     * Please cite the following three references that made this development
     * possible:
     *
     *   M. Dion, H. Rydberg, E. Schroder, D. C. Langreth, and
     *   B. I. Lundqvist, Phys. Rev. Lett. 92, 246401 (2004).
     *
     *   T. Thonhauser, V. R. Cooper, S. Li, A. Puzder, P. Hyldgaard, and
     *   D. C. Langreth, Phys. Rev. B 76, 125112 (2007).
     *
     *   G. Roman-Perez and J. M. Soler, Phys. Rev. Lett. 103, 096102 (2009).
     *
     *
     * If you are using vdW-DF2, please also cite:
     *
     *   K. Lee, E. D. Murray, L. Kong, B. I. Lundqvist, and
     *   D. C. Langreth, Phys. Rev. B 82, 081101(R) (2010).
     *
     *
     * If you are calculating the stress with vdW-DF, please also cite:
     *
     *   R. Sabatini, E. Kucukbenli, B. Kolb, T. Thonhauser, and
     *   S. de Gironcoli, J. Phys.: Condens. Matter 24, 424209 (2012).
     *

     Carrying out vdW-DF run using the following parameters:

     Nqs =      20    Nr_points =    1024   r_max =   100.000
     q_mesh =
               0.00001000     0.04494208     0.09755937     0.15916263
               0.23128650     0.31572767     0.41458969     0.53033537
               0.66584808     0.82450364     1.01025438     1.22772762
               1.48234092     1.78043706     2.12944203     2.53805004
               3.01644009     3.57652955     4.23227104     5.00000000

     Gradients computed in reciprocal space

     Adding external electric field

     Computed dipole along edir(3) :
        Dipole               -2.4274 Ry au,         -6.1699 Debye
        Dipole field         -0.0056 Ry au

        Potential amp.        0.5188 Ry
        Total length         46.0091 bohr

     Starting wfc are  148 randomized atomic wfcs

     Self-consistent Calculation

     iteration #  1     ecut=    36.75 Ry     beta=0.30
     Davidson diagonalization with overlap
     ethr =  1.00E-02,  avg # of iterations =  7.0

[...]

     total energy              =   -4739.39575125 Ry
     Harris-Foulkes estimate   =   -5034.22634048 Ry
     estimated scf accuracy    <     622.54567305 Ry

[...]

     End of self-consistent calculation

          k = 0.0000 0.0000 0.0000 ( 20347 PWs)   bands (ev):

   -94.6790 -94.6781 -94.6781 -94.6715 -94.6715 -94.6710 -94.6421 -94.6414
   -94.6414 -94.6291 -94.5953 -94.5953 -94.5557 -94.5557 -94.5467 -94.5459
   -94.5459 -94.5425 -94.5425 -94.5420 -94.5407 -94.5403 -94.5403 -94.5398
   -94.5357 -94.5349 -94.5349 -94.5201 -94.5193 -94.5193 -94.5184 -94.5183
   -94.5183 -94.4857 -94.4657 -94.4657 -15.5571 -15.1387 -15.1258 -15.1258
   -15.0688 -15.0684 -15.0684 -15.0523 -15.0523 -15.0405 -15.0231 -15.0231
   -15.0020 -15.0020 -14.9958 -14.9958 -14.9936 -14.9847 -14.9841 -14.9841
   -14.9741 -14.9709 -14.9645 -14.9645 -14.9542 -14.9268 -14.9240 -14.9240
   -14.9108 -14.9108 -14.8959 -14.8959 -14.8890 -14.8890 -14.8855 -14.8675
   -14.8400 -14.8400 -14.8336 -14.8336 -14.8254 -14.7956 -14.7912 -14.7912
   -14.7819 -14.7807 -14.7807 -14.7727 -14.7727 -14.7575 -14.7575 -14.7557
   -14.7521 -14.7521 -14.7457 -14.7384 -14.7384 -14.7357 -14.7357 -14.7165
   -13.3410  -9.8284  -8.1975  -6.0163  -5.5718  -5.5718  -4.9604  -4.6871
    -4.6871  -4.3894  -3.8967  -3.8967  -3.6101  -3.0573  -2.6134  -2.6134
    -2.1343  -2.0253  -2.0253  -1.5146  -0.7980  -0.7106  -0.7106   0.3996
     0.3996   1.0044   1.7726   3.0856   3.0856   3.1772   3.3460

[...]

          k =-0.0821 0.0474 0.0000 ( 20384 PWs)   bands (ev):

[...]

     the Fermi energy is     0.2319 ev

!    total energy              =   -5023.49174904 Ry
     Harris-Foulkes estimate   =   -5023.49173481 Ry
     estimated scf accuracy    <       0.00000339 Ry

     The total energy is the sum of the following terms:

     one-electron contribution =  -27623.79576037 Ry
     hartree contribution      =   13818.08575366 Ry
     xc contribution           =    -605.42823290 Ry
     ewald contribution        =    9387.67952459 Ry
     electric field correction =       0.00009683 Ry
     smearing contrib. (-TS)   =      -0.03313084 Ry

     convergence has been achieved in  20 iterations

 BEEF-vdW xc energy contributions
           1 :   -540.968936045113
           2 :    490.996632439770
           3 :   -407.146415324681
           4 :    313.702745493641
           5 :   -232.237866120010
           6 :    173.548731322886
           7 :   -136.062972249381
           8 :    110.533002706022
           9 :   -87.4677915908873
          10 :    62.6927124826675
          11 :   -38.2308767845312
          12 :    18.9582703454092
          13 :   -8.04267161950531
          14 :    4.44541266282863
          15 :   -3.86065499450444
          16 :    1.90323516897081
          17 :    3.02669964868403
          18 :   -9.20377679593150
          19 :    13.4638167183056
          20 :   -13.8787740143414
          21 :    11.1921212625513
          22 :   -8.10013075519134
          23 :    7.12267007429784
          24 :   -8.77653791094144
          25 :    11.3899342398448
          26 :   -12.5721447767426
          27 :    11.1166518630640
          28 :   -7.88260073922061
          29 :    5.05918132304112
          30 :   -4.46446180834607
          31 :   -40.1975335029409
          32 :   -27.3162451172227

     Forces acting on atoms (Ry/au):

     negative rho (up, down):  9.634E-04 0.000E+00
     atom    1 type  1   force =     0.00252480    0.00145888   -0.00121536
     atom    2 type  1   force =    -0.00252535    0.00145548   -0.00121233
     atom    3 type  1   force =    -0.00000116   -0.00291579   -0.00120486
     atom    4 type  1   force =     0.00000290   -0.00000005    0.00140354
     atom    5 type  1   force =    -0.00000150   -0.00490538    0.00316536
     atom    6 type  1   force =     0.00000176    0.00000209    0.00484514
     atom    7 type  1   force =     0.00424862    0.00245323    0.00314313
     atom    8 type  1   force =    -0.00424942    0.00245163    0.00314153
     atom    9 type  1   force =     0.00000040    0.00000201   -0.00642476
     atom   10 type  1   force =    -0.00000184   -0.05303380   -0.02882289
     atom   11 type  1   force =    -0.04593243    0.02651563   -0.02879339
     atom   12 type  1   force =     0.04593294    0.02651629   -0.02880787
     atom   13 type  2   force =     0.00000029   -0.00000020    0.08078274

     Total force =     0.132270     Total SCF correction =     0.001527

     entering subroutine stress ...

     negative rho (up, down):  9.634E-04 0.000E+00
          total   stress  (Ry/bohr**3)                   (kbar)     P=    5.96
   0.00003344   0.00000000   0.00000000          4.92      0.00      0.00
   0.00000000   0.00003344  -0.00000000          0.00      4.92     -0.00
   0.00000000  -0.00000000   0.00005473          0.00     -0.00      8.05

     BFGS Geometry Optimization

     number of scf cycles    =   1
     number of bfgs steps    =   0

     energy   new            =   -5023.4917490359 Ry

     new trust radius        =       0.0807827419 bohr
     new conv_thr            =       0.0000099958 Ry

ATOMIC_POSITIONS (crystal)
Ga1      0.166666667   0.166666667   0.400460194    0   0   0
Ga1      0.666666667   0.166666667   0.400460194    0   0   0
Ga1      0.166666667   0.666666667   0.400460194    0   0   0
Ga1      0.666666667   0.666666667   0.400460194    0   0   0
Ga1      0.833333333   0.333333333   0.500000000    0   0   0
Ga1      0.333333333   0.333333333   0.500000000    0   0   0
Ga1      0.833333333   0.833333333   0.500000000    0   0   0
Ga1      0.333333333   0.833333333   0.500000000    0   0   0
Ga1     -0.000000066   0.000000201   0.599403656
Ga1      0.502661057  -0.005322433   0.598929007
Ga1     -0.005322700   0.502661089   0.598929632
Ga1      0.502661623   0.502661155   0.598929326
S1       0.333333369   0.333333313   0.660339610

     Writing output data file calc.save
     Check: negative starting charge=   -0.001168
     NEW-OLD atomic charge density approx. for the potential
     Check: negative starting charge=   -0.001175

[...]

     Total force =     0.082716     Total SCF correction =     0.008598
     SCF correction compared to forces is large: reduce conv_thr to get better values

[...]

     energy   old            =   -5023.4917490359 Ry
     energy   new            =   -5023.5055758779 Ry

     CASE: energy  _new < energy  _old

[...]

     WARNING: bfgs curvature condition failed, Theta= 0.979
     new trust radius        =       0.0053939021 bohr
     new conv_thr            =       0.0000001000 Ry

[...]

     Total force =     0.005554     Total SCF correction =     0.000384

[...]

     number of scf cycles    =  15
     number of bfgs steps    =  14

     energy   old            =   -5023.5178340980 Ry
     energy   new            =   -5023.5179224298 Ry

     CASE: energy  _new < energy  _old

     new trust radius        =       0.0308786224 bohr
     new conv_thr            =       0.0000001000 Ry

ATOMIC_POSITIONS (crystal)
Ga1      0.166666667   0.166666667   0.400460194    0   0   0
Ga1      0.666666667   0.166666667   0.400460194    0   0   0
Ga1      0.166666667   0.666666667   0.400460194    0   0   0
Ga1      0.666666667   0.666666667   0.400460194    0   0   0
Ga1      0.833333333   0.333333333   0.500000000    0   0   0
Ga1      0.333333333   0.333333333   0.500000000    0   0   0
Ga1      0.833333333   0.833333333   0.500000000    0   0   0
Ga1      0.333333333   0.833333333   0.500000000    0   0   0
Ga1     -0.000001857  -0.000001176   0.594584265
Ga1      0.512688943  -0.025377786   0.596513784
Ga1     -0.025379651   0.512692154   0.596514193
Ga1      0.512686101   0.512686195   0.596515430
S1       0.333335031   0.333335516   0.658002056

     Writing output data file calc.save
     Check: negative starting charge=   -0.001140
     NEW-OLD atomic charge density approx. for the potential
     Check: negative starting charge=   -0.001132

[...]

     Self-consistent Calculation

[...]

     total energy              =   -5023.51798183 Ry
     Harris-Foulkes estimate   =   -5023.51798131 Ry
     estimated scf accuracy    <       0.00000020 Ry

     iteration #  8     ecut=    36.75 Ry     beta=0.30
     Davidson diagonalization with overlap
     ethr =  8.48E-11,  avg # of iterations =  3.6

[...]

     negative rho (up, down):  9.460E-04 0.000E+00

     Adding external electric field

     Computed dipole along edir(3) :
        Dipole               -0.2687 Ry au,         -0.6828 Debye
        Dipole field         -0.0006 Ry au

        Potential amp.        0.0574 Ry
        Total length         46.0091 bohr

     End of self-consistent calculation

[...]

          k = 0.0547-0.0632 0.0000 ( 20377 PWs)   bands (ev):

[...]

          k =-0.0821-0.0474 0.0000 ( 20384 PWs)   bands (ev):

   -94.7891 -94.7888 -94.7887 -94.7878 -94.7877 -94.7876 -94.7620 -94.7607
   -94.7605 -94.6840 -94.6541 -94.6541 -94.6447 -94.6447 -94.6364 -94.6337
   -94.6337 -94.6337 -94.6251 -94.6247 -94.6244 -94.6227 -94.6225 -94.6223
   -94.6142 -94.6140 -94.6138 -94.6129 -94.6124 -94.6119 -94.6108 -94.6107
   -94.6104 -94.5776 -94.5682 -94.5682 -15.3190 -15.2355 -15.2096 -15.1878
   -15.1856 -15.1732 -15.1589 -15.1533 -15.1306 -15.1267 -15.1159 -15.1151
   -15.0908 -15.0815 -15.0740 -15.0723 -15.0507 -15.0493 -15.0386 -15.0379
   -15.0349 -15.0280 -15.0192 -15.0178 -15.0112 -15.0090 -15.0047 -14.9988
   -14.9882 -14.9864 -14.9786 -14.9711 -14.9705 -14.9640 -14.9593 -14.9531
   -14.9437 -14.9404 -14.9354 -14.9350 -14.9236 -14.9199 -14.9162 -14.9148
   -14.9073 -14.9060 -14.9052 -14.9014 -14.8935 -14.8863 -14.8835 -14.8780
   -14.8736 -14.8682 -14.8623 -14.8562 -14.8478 -14.8346 -14.8289 -14.8239
   -12.8611  -8.9215  -8.6155  -7.4960  -7.0218  -6.2179  -6.0009  -5.3755
    -5.0856  -4.8277  -4.6032  -3.4761  -3.0543  -2.7326  -1.5923  -1.2492
    -0.7451  -0.5320  -0.5189  -0.1189   0.0265   0.6653   1.0206   1.1601
     1.4949   1.7300   2.0374   2.1886   2.2456   2.6473   2.7928

     the Fermi energy is     0.1401 ev

!    total energy              =   -5023.51798187 Ry
     Harris-Foulkes estimate   =   -5023.51798200 Ry
     estimated scf accuracy    <       0.00000002 Ry

     The total energy is the sum of the following terms:

     one-electron contribution =  -27908.16706654 Ry
     hartree contribution      =   13959.52773602 Ry
     xc contribution           =    -605.39720052 Ry
     ewald contribution        =    9530.55029264 Ry
     electric field correction =       0.00016765 Ry
     smearing contrib. (-TS)   =      -0.03191112 Ry

     convergence has been achieved in   8 iterations

 BEEF-vdW xc energy contributions
           1 :   -540.939813044962
           2 :    490.971310724047
           3 :   -407.129223506550
           4 :    313.694438101974
           5 :   -232.232170423075
           6 :    173.534700028514
           7 :   -136.032121204039
           8 :    110.487355316841
           9 :   -87.4228195349866
          10 :    62.6719357119844
          11 :   -38.2543029772207
          12 :    19.0306076811764
          13 :   -8.14842038452707
          14 :    4.55525228540171
          15 :   -3.94589922788373
          16 :    1.95036396720548
          17 :    3.01024366141371
          18 :   -9.19653537691420
          19 :    13.4452698750245
          20 :   -13.8423439063424
          21 :    11.1487842315489
          22 :   -8.07045371965762
          23 :    7.12254057861730
          24 :   -8.80565245417233
          25 :    11.4295460629211
          26 :   -12.5930359744709
          27 :    11.0927361828165
          28 :   -7.80352188148686
          29 :    4.93686577765436
          30 :   -4.33156441990104
          31 :   -40.1970200214377
          32 :   -27.3175674918738

     Forces acting on atoms (Ry/au):

     negative rho (up, down):  9.460E-04 0.000E+00
     atom    1 type  1   force =     0.00176080    0.00101686    0.00047580
     atom    2 type  1   force =    -0.00176107    0.00101670    0.00047780
     atom    3 type  1   force =     0.00000012   -0.00203351    0.00047740
     atom    4 type  1   force =    -0.00000047   -0.00000000    0.00394680
     atom    5 type  1   force =    -0.00000056   -0.00321962   -0.00296410
     atom    6 type  1   force =     0.00000006    0.00000052    0.00510007
     atom    7 type  1   force =     0.00278904    0.00161017   -0.00296959
     atom    8 type  1   force =    -0.00278901    0.00160904   -0.00296734
     atom    9 type  1   force =     0.00000257    0.00000108    0.00115256
     atom   10 type  1   force =    -0.00000212   -0.00185946   -0.00115516
     atom   11 type  1   force =    -0.00161186    0.00092799   -0.00115753
     atom   12 type  1   force =     0.00161716    0.00093284   -0.00115900
     atom   13 type  2   force =    -0.00000467   -0.00000261    0.00074228

     Total force =     0.004037     Total SCF correction =     0.000486
     SCF correction compared to forces is large: reduce conv_thr to get better values

     entering subroutine stress ...

     negative rho (up, down):  9.460E-04 0.000E+00
          total   stress  (Ry/bohr**3)                   (kbar)     P=   -2.98
  -0.00002515   0.00000000  -0.00000000         -3.70      0.00     -0.00
   0.00000000  -0.00002515  -0.00000000          0.00     -3.70     -0.00
  -0.00000000  -0.00000000  -0.00001041         -0.00     -0.00     -1.53

     bfgs converged in  16 scf cycles and  15 bfgs steps
     (criteria: energy <  1.0E+00, force <  1.9E-03)

     End of BFGS Geometry Optimization

     Final energy   =   -5023.5179818677 Ry
Begin final coordinates

ATOMIC_POSITIONS (crystal)
Ga1      0.166666667   0.166666667   0.400460194    0   0   0
Ga1      0.666666667   0.166666667   0.400460194    0   0   0
Ga1      0.166666667   0.666666667   0.400460194    0   0   0
Ga1      0.666666667   0.666666667   0.400460194    0   0   0
Ga1      0.833333333   0.333333333   0.500000000    0   0   0
Ga1      0.333333333   0.333333333   0.500000000    0   0   0
Ga1      0.833333333   0.833333333   0.500000000    0   0   0
Ga1      0.333333333   0.833333333   0.500000000    0   0   0
Ga1     -0.000001857  -0.000001176   0.594584265
Ga1      0.512688943  -0.025377786   0.596513784
Ga1     -0.025379651   0.512692154   0.596514193
Ga1      0.512686101   0.512686195   0.596515430
S1       0.333335031   0.333335516   0.658002056
End final coordinates

     Writing output data file calc.save

     General routines

     Parallel routines

   This run was terminated on:  22:11:11   3May2018

   JOB DONE.
Job  /afs/slac/g/suncat/bin/suncat-tsmpirun -x LD_LIBRARY_PATH -wdir /scratch/qe852208_5cEaS pw.x -npool 4 -in pw.inp

TID   HOST_NAME   COMMAND_LINE            STATUS            TERMINATION_TIME
00000 suncat0120 pw.x -npool 4 -i  Done                     05/03/2018 22:11:11
00001 suncat0120 pw.x -npool 4 -i  Done                     05/03/2018 22:11:11
00002 suncat0120 pw.x -npool 4 -i  Done                     05/03/2018 22:11:11
00003 suncat0120 pw.x -npool 4 -i  Done                     05/03/2018 22:11:11
00004 suncat0120 pw.x -npool 4 -i  Done                     05/03/2018 22:11:11
00005 suncat0120 pw.x -npool 4 -i  Done                     05/03/2018 22:11:11
00006 suncat0120 pw.x -npool 4 -i  Done                     05/03/2018 22:11:11
00007 suncat0120 pw.x -npool 4 -i  Done                     05/03/2018 22:11:11
00008 suncat0115 pw.x -npool 4 -i  Done                     05/03/2018 22:11:11
00009 suncat0115 pw.x -npool 4 -i  Done                     05/03/2018 22:11:11
00010 suncat0115 pw.x -npool 4 -i  Done                     05/03/2018 22:11:11
00011 suncat0115 pw.x -npool 4 -i  Done                     05/03/2018 22:11:11
00012 suncat0115 pw.x -npool 4 -i  Done                     05/03/2018 22:11:11
00013 suncat0115 pw.x -npool 4 -i  Done                     05/03/2018 22:11:11
00014 suncat0115 pw.x -npool 4 -i  Done                     05/03/2018 22:11:11
00015 suncat0115 pw.x -npool 4 -i  Done                     05/03/2018 22:11:11
00016 suncat0220 pw.x -npool 4 -i  Done                     05/03/2018 22:11:11
00017 suncat0220 pw.x -npool 4 -i  Done                     05/03/2018 22:11:11
00018 suncat0220 pw.x -npool 4 -i  Done                     05/03/2018 22:11:11
00019 suncat0220 pw.x -npool 4 -i  Done                     05/03/2018 22:11:11
00020 suncat0220 pw.x -npool 4 -i  Done                     05/03/2018 22:11:11
00021 suncat0220 pw.x -npool 4 -i  Done                     05/03/2018 22:11:11
00022 suncat0220 pw.x -npool 4 -i  Done                     05/03/2018 22:11:11
00023 suncat0220 pw.x -npool 4 -i  Done                     05/03/2018 22:11:11
00024 suncat0219 pw.x -npool 4 -i  Done                     05/03/2018 22:11:11
00025 suncat0219 pw.x -npool 4 -i  Done                     05/03/2018 22:11:11
00026 suncat0219 pw.x -npool 4 -i  Done                     05/03/2018 22:11:11
00027 suncat0219 pw.x -npool 4 -i  Done                     05/03/2018 22:11:11
00028 suncat0219 pw.x -npool 4 -i  Done                     05/03/2018 22:11:11
00029 suncat0219 pw.x -npool 4 -i  Done                     05/03/2018 22:11:11
00030 suncat0219 pw.x -npool 4 -i  Done                     05/03/2018 22:11:11
00031 suncat0219 pw.x -npool 4 -i  Done                     05/03/2018 22:11:11