     Program PWSCF v.5.1rc2 (svn rev. 11289) starts on  2May2018 at 14:26:37

     Current dimensions of program PWSCF are:
     Max number of different atomic species (ntypx) = 10
     Max number of k-points (npk) =  40000
     Max angular momentum in pseudopotentials (lmaxx) =  3
     Presently stress not available with electric field

     IMPORTANT: XC functional enforced from input :
     Exchange-correlation      = BEEF-VDW ( 1  4 27 13 2)
     Any further DFT definition will be discarded
     Please, verify this is what you really want

     Subspace diagonalization in iterative solution of the eigenvalue problem:
     a serial algorithm will be used

     bravais-lattice index     =            0
     lattice parameter (alat)  =       1.8897  a.u.
     unit-cell volume          =    6116.8020 (a.u.)^3
     number of atoms/cell      =           13
     number of atomic types    =            2
     number of electrons       =       136.00
     number of Kohn-Sham states=           78
     kinetic-energy cutoff     =      36.7493  Ry
     charge density cutoff     =     367.4932  Ry
     convergence threshold     =      1.0E-05
     mixing beta               =       0.3000
     number of iterations used =           10  plain     mixing
     Exchange-correlation      = BEEF-VDW ( 1  4 27 13 2)
     nstep                     =           50

     celldm(1)=   1.889726  celldm(2)=   0.000000  celldm(3)=   0.000000
     celldm(4)=   0.000000  celldm(5)=   0.000000  celldm(6)=   0.000000

     crystal axes: (cart. coord. in units of alat)
               a(1) = (   6.437465   0.000000   0.000000 )
               a(2) = (   3.218732   5.575008   0.000000 )
               a(3) = (   0.000000   0.000000  25.256168 )

     reciprocal axes: (cart. coord. in units 2 pi/alat)
               b(1) = (  0.155341 -0.089686  0.000000 )
               b(2) = (  0.000000  0.179372  0.000000 )
               b(3) = (  0.000000  0.000000  0.039594 )

     PseudoPot. # 1 for Sc read from file:
     /u/if/mamunm/psp/gbrv1.5pbe/Sc.UPF
     MD5 check sum: db30a2753ba66ef00f23801d899b7e7f
     Pseudo is Ultrasoft + core correction, Zval = 11.0
     Generated by new atomic code, or converted to UPF format
     Using radial grid of  849 points,  6 beta functions with:
                l(1) =   0
                l(2) =   0
                l(3) =   1
                l(4) =   1
                l(5) =   2
                l(6) =   2
     Q(r) pseudized with  6 coefficients,  rinner =    1.200   1.200   1.200
                                                       1.200   1.200

     PseudoPot. # 2 for C  read from file:
     /u/if/mamunm/psp/gbrv1.5pbe/C.UPF
     MD5 check sum: d1aef80898a10debaa0f26306b886e00
     Pseudo is Ultrasoft + core correction, Zval =  4.0
     Generated by new atomic code, or converted to UPF format
     Using radial grid of  721 points,  4 beta functions with:
                l(1) =   0
                l(2) =   0
                l(3) =   1
                l(4) =   1
     Q(r) pseudized with  8 coefficients,  rinner =    1.100   1.100   1.100

     vdW kernel table read from file vdW_kernel_table
     MD5 check sum: 095c7af220d748ca6e76c0b4c6cfb241

     atomic species   valence    mass     pseudopotential
        Sc1           11.00    44.95591     Sc( 1.00)
        C1             4.00    12.01100     C ( 1.00)

     No symmetry found

   Cartesian axes

     site n.     atom                  positions (alat units)
         1           Sc1 tau(   1) = (   1.6093662   0.9291680  10.0000000  )
         2           Sc1 tau(   2) = (   4.8280986   0.9291680  10.0000000  )
         3           Sc1 tau(   3) = (   3.2187324   3.7166720  10.0000000  )
         4           Sc1 tau(   4) = (   6.4374648   3.7166720  10.0000000  )
         5           Sc1 tau(   5) = (   6.4374648   1.8583360  12.6280840  )
         6           Sc1 tau(   6) = (   3.2187324   1.8583360  12.6280840  )
         7           Sc1 tau(   7) = (   8.0468310   4.6458400  12.6280840  )
         8           Sc1 tau(   8) = (   4.8280986   4.6458400  12.6280840  )
         9           Sc1 tau(   9) = (   0.0000000   0.0000000  15.2561680  )
        10           Sc1 tau(  10) = (   3.2187324   0.0000000  15.2561680  )
        11           Sc1 tau(  11) = (   1.6093662   2.7875040  15.2561680  )
        12           Sc1 tau(  12) = (   4.8280986   2.7875040  15.2561680  )
        13           C1  tau(  13) = (   3.2187324   1.8583360  16.8551680  )

     number of k points=    20  Fermi-Dirac smearing, width (Ry)=  0.0110
                       cart. coord. in units 2pi/alat
        k(    1) = (   0.0000000   0.0000000   0.0000000), wk =   0.0555556
        k(    2) = (   0.0000000   0.0298953   0.0000000), wk =   0.1111111
        k(    3) = (   0.0000000   0.0597906   0.0000000), wk =   0.1111111
        k(    4) = (   0.0000000  -0.0896860   0.0000000), wk =   0.0555556
        k(    5) = (   0.0258901  -0.0149477   0.0000000), wk =   0.1111111
        k(    6) = (   0.0258901   0.0149477   0.0000000), wk =   0.1111111
        k(    7) = (   0.0258901   0.0448430   0.0000000), wk =   0.1111111
        k(    8) = (   0.0258901  -0.1046336   0.0000000), wk =   0.1111111
        k(    9) = (   0.0258901  -0.0747383   0.0000000), wk =   0.1111111
        k(   10) = (   0.0258901  -0.0448430   0.0000000), wk =   0.1111111
        k(   11) = (   0.0517802  -0.0298953   0.0000000), wk =   0.1111111
        k(   12) = (   0.0517802   0.0000000   0.0000000), wk =   0.1111111
        k(   13) = (   0.0517802   0.0298953   0.0000000), wk =   0.1111111
        k(   14) = (   0.0517802  -0.1195813   0.0000000), wk =   0.1111111
        k(   15) = (   0.0517802  -0.0896860   0.0000000), wk =   0.1111111
        k(   16) = (   0.0517802  -0.0597906   0.0000000), wk =   0.1111111
        k(   17) = (  -0.0776703   0.0448430   0.0000000), wk =   0.0555556
        k(   18) = (  -0.0776703   0.0747383   0.0000000), wk =   0.1111111
        k(   19) = (  -0.0776703   0.1046336   0.0000000), wk =   0.1111111
        k(   20) = (  -0.0776703  -0.0448430   0.0000000), wk =   0.0555556

     Largest allocated arrays     est. size (Mb)     dimensions
     Largest temporary arrays     est. size (Mb)     dimensions

     Initial potential from superposition of free atoms
     Check: negative starting charge=   -0.000293

     starting charge  135.97113, renormalised to  136.00000

     negative rho (up, down):  2.928E-04 0.000E+00

     *
     * You are using vdW-DF for exchange-correlation in this calculation.
     * Please cite the following three references that made this development
     * possible:
     *
     *   M. Dion, H. Rydberg, E. Schroder, D. C. Langreth, and
     *   B. I. Lundqvist, Phys. Rev. Lett. 92, 246401 (2004).
     *
     *   T. Thonhauser, V. R. Cooper, S. Li, A. Puzder, P. Hyldgaard, and
     *   D. C. Langreth, Phys. Rev. B 76, 125112 (2007).
     *
     *   G. Roman-Perez and J. M. Soler, Phys. Rev. Lett. 103, 096102 (2009).
     *
     *
     * If you are using vdW-DF2, please also cite:
     *
     *   K. Lee, E. D. Murray, L. Kong, B. I. Lundqvist, and
     *   D. C. Langreth, Phys. Rev. B 82, 081101(R) (2010).
     *
     *
     * If you are calculating the stress with vdW-DF, please also cite:
     *
     *   R. Sabatini, E. Kucukbenli, B. Kolb, T. Thonhauser, and
     *   S. de Gironcoli, J. Phys.: Condens. Matter 24, 424209 (2012).
     *

     Carrying out vdW-DF run using the following parameters:

     Nqs =      20    Nr_points =    1024   r_max =   100.000
     q_mesh =
               0.00001000     0.04494208     0.09755937     0.15916263
               0.23128650     0.31572767     0.41458969     0.53033537
               0.66584808     0.82450364     1.01025438     1.22772762
               1.48234092     1.78043706     2.12944203     2.53805004
               3.01644009     3.57652955     4.23227104     5.00000000

     Gradients computed in reciprocal space

     Adding external electric field

     Computed dipole along edir(3) :
        Dipole               -0.0065 Ry au,         -0.0164 Debye
        Dipole field         -0.0000 Ry au

        Potential amp.        0.0012 Ry
        Total length         46.5341 bohr

     Starting wfc are  160 randomized atomic wfcs

     Self-consistent Calculation

     iteration #  1     ecut=    36.75 Ry     beta=0.30
     Davidson diagonalization with overlap
     ethr =  1.00E-02,  avg # of iterations =  2.0

[...]

     total energy              =   -1145.94084254 Ry
     Harris-Foulkes estimate   =   -1149.51888166 Ry
     estimated scf accuracy    <       7.69899775 Ry

[...]

     End of self-consistent calculation

          k = 0.0000 0.0000 0.0000 ( 23031 PWs)   bands (ev):

   -50.0391 -49.9427 -49.9011 -49.8944 -49.8929 -49.6735 -49.6395 -49.6390
   -49.5088 -49.4623 -49.4390 -49.4384 -28.7421 -28.6581 -28.6575 -28.6506
   -28.6397 -28.6396 -28.6234 -28.5700 -28.5631 -28.5617 -28.4612 -28.3956
   -28.3950 -28.3939 -28.3492 -28.3489 -28.3159 -28.3159 -28.2677 -28.2561
   -28.2558 -28.2056 -28.2054 -28.1899 -28.1872 -28.0874 -28.0355 -28.0353
   -28.0226 -28.0044 -28.0042 -27.9737 -27.9735 -27.9675 -27.8980 -27.8979
    -8.1016  -4.6621  -3.4526  -2.1709  -1.5644  -1.5644  -1.4813  -1.3906
    -1.3906  -1.3651  -1.1906  -1.1905  -1.1505  -0.5739  -0.5722  -0.5721
    -0.4246  -0.4244  -0.2010  -0.0081  -0.0004  -0.0003   0.1058   0.5195
     0.6354   0.6362   0.6363   1.1305   1.1305   1.1677

[...]

          k =-0.0777 0.0448 0.0000 ( 23032 PWs)   bands (ev):

[...]

     the Fermi energy is     0.0072 ev

!    total energy              =   -1149.05662937 Ry
     Harris-Foulkes estimate   =   -1149.05660607 Ry
     estimated scf accuracy    <       0.00000499 Ry

     The total energy is the sum of the following terms:

     one-electron contribution =   -7300.03343010 Ry
     hartree contribution      =    3631.77415754 Ry
     xc contribution           =    -169.78061796 Ry
     ewald contribution        =    2689.11743171 Ry
     electric field correction =       0.00064863 Ry
     smearing contrib. (-TS)   =      -0.13481918 Ry

     convergence has been achieved in  18 iterations

 BEEF-vdW xc energy contributions
           1 :   -143.860606949488
           2 :    126.621117459358
           3 :   -99.7532513588491
           4 :    73.6440679500311
           5 :   -55.5850550927140
           6 :    46.8275609194578
           7 :   -43.8486050803865
           8 :    42.0513442532629
           9 :   -38.9171833607196
          10 :    34.7358630839041
          11 :   -31.1630653891347
          12 :    29.2630695934498
          13 :   -28.6243164576385
          14 :    27.9603616037688
          15 :   -26.3782124670405
          16 :    24.1077021541052
          17 :   -22.1320188155100
          18 :    21.1883061770649
          19 :   -21.1086109135508
          20 :    21.0499604946857
          21 :   -20.3043957315427
          22 :    18.9013770623665
          23 :   -17.4950736430556
          24 :    16.7169514026170
          25 :   -16.6215116014163
          26 :    16.6994180415718
          27 :   -16.3852505432647
          28 :    15.5598859368856
          29 :   -14.6041521421317
          30 :    14.0005632125486
          31 :   -17.0302054795318
          32 :   -12.2161824457450

     Forces acting on atoms (Ry/au):

     negative rho (up, down):  1.615E-04 0.000E+00
     atom    1 type  1   force =     0.00015024    0.00015098    0.00202277
     atom    2 type  1   force =    -0.00014713    0.00011749    0.00193473
     atom    3 type  1   force =    -0.00003107   -0.00022521    0.00204862
     atom    4 type  1   force =     0.00003656   -0.00004585    0.00204051
     atom    5 type  1   force =    -0.00005690   -0.00352647    0.00101355
     atom    6 type  1   force =     0.00005441   -0.00011592   -0.00984005
     atom    7 type  1   force =     0.00295070    0.00185130    0.00106181
     atom    8 type  1   force =    -0.00295108    0.00179044    0.00111274
     atom    9 type  1   force =    -0.00003909    0.00005103    0.01123827
     atom   10 type  1   force =     0.00004055    0.05509872    0.04294999
     atom   11 type  1   force =     0.04767128   -0.02754896    0.04292653
     atom   12 type  1   force =    -0.04768316   -0.02760121    0.04293859
     atom   13 type  2   force =     0.00000469    0.00000366   -0.14144805

     Total force =     0.186461     Total SCF correction =     0.002524

     entering subroutine stress ...

     negative rho (up, down):  1.615E-04 0.000E+00
          total   stress  (Ry/bohr**3)                   (kbar)     P=   -3.92
   0.00000258  -0.00000000   0.00000000          0.38     -0.00      0.00
  -0.00000000   0.00000258   0.00000000         -0.00      0.38      0.00
   0.00000000   0.00000000  -0.00008507          0.00      0.00    -12.51

     BFGS Geometry Optimization

     number of scf cycles    =   1
     number of bfgs steps    =   0

     energy   new            =   -1149.0566293680 Ry

     new trust radius        =       0.1414480457 bohr
     new conv_thr            =       0.0000099958 Ry

ATOMIC_POSITIONS (crystal)
Sc1      0.166666667   0.166666667   0.395942884    0   0   0
Sc1      0.666666667   0.166666667   0.395942884    0   0   0
Sc1      0.166666667   0.666666667   0.395942884    0   0   0
Sc1      0.666666667   0.666666667   0.395942884    0   0   0
Sc1      0.833333333   0.333333333   0.500000000    0   0   0
Sc1      0.333333333   0.333333333   0.500000000    0   0   0
Sc1      0.833333333   0.833333333   0.500000000    0   0   0
Sc1      0.333333333   0.833333333   0.500000000    0   0   0
Sc1     -0.000005635   0.000004843   0.604292584
Sc1      0.497388361   0.005229945   0.604957021
Sc1      0.005226176   0.497385066   0.604956529
Sc1      0.497390260   0.497380106   0.604956782
C1       0.333333545   0.333333681   0.664404707

     Writing output data file calc.save
     Check: negative starting charge=   -0.000293
     NEW-OLD atomic charge density approx. for the potential
     Check: negative starting charge=   -0.000291

[...]

     energy   old            =   -1149.0566293680 Ry
     energy   new            =   -1149.0901125386 Ry

     CASE: energy  _new < energy  _old

     WARNING: bfgs curvature condition failed, Theta= 0.876
     new trust radius        =       0.1555928502 bohr
     new conv_thr            =       0.0000001000 Ry

[...]

     Total force =     0.007749     Total SCF correction =     0.000326

[...]

     number of scf cycles    =  16
     number of bfgs steps    =  15

     energy   old            =   -1149.1785620760 Ry
     energy   new            =   -1149.1789893384 Ry

     CASE: energy  _new < energy  _old

     new trust radius        =       0.0519008994 bohr
     new conv_thr            =       0.0000001000 Ry

ATOMIC_POSITIONS (crystal)
Sc1      0.166666667   0.166666667   0.395942884    0   0   0
Sc1      0.666666667   0.166666667   0.395942884    0   0   0
Sc1      0.166666667   0.666666667   0.395942884    0   0   0
Sc1      0.666666667   0.666666667   0.395942884    0   0   0
Sc1      0.833333333   0.333333333   0.500000000    0   0   0
Sc1      0.333333333   0.333333333   0.500000000    0   0   0
Sc1      0.833333333   0.833333333   0.500000000    0   0   0
Sc1      0.333333333   0.833333333   0.500000000    0   0   0
Sc1      0.000003489  -0.000003374   0.605678503
Sc1      0.499601969   0.000789305   0.604225276
Sc1      0.000789630   0.499606018   0.604225696
Sc1      0.499601706   0.499609485   0.604225176
C1       0.333334502   0.333333035   0.637533499

     Writing output data file calc.save
     Check: negative starting charge=   -0.000308
     NEW-OLD atomic charge density approx. for the potential
     Check: negative starting charge=   -0.000310

[...]

     Self-consistent Calculation

[...]

     total energy              =   -1149.17915100 Ry
     Harris-Foulkes estimate   =   -1149.17915100 Ry
     estimated scf accuracy    <       0.00000061 Ry

     iteration # 12     ecut=    36.75 Ry     beta=0.30
     Davidson diagonalization with overlap
     ethr =  2.90E-10,  avg # of iterations =  4.3

[...]

     negative rho (up, down):  1.739E-04 0.000E+00

     Adding external electric field

     Computed dipole along edir(3) :
        Dipole               -0.1755 Ry au,         -0.4461 Debye
        Dipole field         -0.0004 Ry au

        Potential amp.        0.0336 Ry
        Total length         46.5341 bohr

     End of self-consistent calculation

[...]

          k = 0.0518-0.0598 0.0000 ( 23012 PWs)   bands (ev):

[...]

          k =-0.0777-0.0448 0.0000 ( 23032 PWs)   bands (ev):

   -49.7579 -49.5697 -49.5603 -49.5425 -49.5373 -49.1983 -49.1221 -49.1091
   -49.0990 -48.9989 -48.9861 -48.9744 -28.4715 -28.3104 -28.2916 -28.2428
   -28.2398 -28.2364 -28.2315 -28.2100 -28.2050 -28.1377 -28.1302 -28.1068
   -28.1033 -28.0043 -27.9950 -27.8821 -27.8690 -27.8304 -27.8019 -27.7498
   -27.7449 -27.7310 -27.7270 -27.7052 -27.7017 -27.6990 -27.6736 -27.6718
   -27.6361 -27.6210 -27.6180 -27.5880 -27.5791 -27.5446 -27.4499 -27.3606
    -8.0836  -3.1296  -2.9748  -2.2723  -1.8476  -1.4088  -1.3466  -1.1159
    -1.0052  -0.8642  -0.7057  -0.4528  -0.3991  -0.3389   0.1273   0.1274
     0.1631   0.2110   0.2460   0.2949   0.4477   0.4530   0.4806   0.5587
     0.6543   0.7649   0.8420   0.8508   0.8903   0.9732

     the Fermi energy is     0.3575 ev

!    total energy              =   -1149.17915106 Ry
     Harris-Foulkes estimate   =   -1149.17915093 Ry
     estimated scf accuracy    <       0.00000003 Ry

     The total energy is the sum of the following terms:

     one-electron contribution =   -7384.99978493 Ry
     hartree contribution      =    3676.16172944 Ry
     xc contribution           =    -170.20060033 Ry
     ewald contribution        =    2729.98677473 Ry
     electric field correction =       0.00006329 Ry
     smearing contrib. (-TS)   =      -0.12733326 Ry

     convergence has been achieved in  12 iterations

 BEEF-vdW xc energy contributions
           1 :   -144.272555785203
           2 :    127.107073816982
           3 :   -100.302852308042
           4 :    74.1560376404922
           5 :   -55.9220241512714
           6 :    46.8910784830891
           7 :   -43.6404327924155
           8 :    41.6796982451626
           9 :   -38.5347550256691
          10 :    34.4487382191132
          11 :   -30.9763089631451
          12 :    29.1020176138709
          13 :   -28.4110650681963
          14 :    27.6841239242910
          15 :   -26.1058315347298
          16 :    23.9276760791817
          17 :   -22.0793667960828
          18 :    21.2134966046556
          19 :   -21.1151616454196
          20 :    20.9674901819814
          21 :   -20.1359728613596
          22 :    18.7078158442284
          23 :   -17.3352251537058
          24 :    16.5994532696132
          25 :   -16.5070813074133
          26 :    16.5439378020997
          27 :   -16.1802620852065
          28 :    15.3351636039822
          29 :   -14.3940929300029
          30 :    13.8086400266248
          31 :   -17.0584886820522
          32 :   -12.2576946306476

     Forces acting on atoms (Ry/au):

     negative rho (up, down):  1.739E-04 0.000E+00
     atom    1 type  1   force =     0.00007405    0.00004175    0.00241600
     atom    2 type  1   force =    -0.00007403    0.00004225    0.00241388
     atom    3 type  1   force =     0.00000047   -0.00008495    0.00241560
     atom    4 type  1   force =    -0.00000047    0.00000080    0.00165440
     atom    5 type  1   force =    -0.00000159   -0.00527410   -0.00171377
     atom    6 type  1   force =     0.00000170   -0.00000043   -0.00418028
     atom    7 type  1   force =     0.00456675    0.00263797   -0.00171438
     atom    8 type  1   force =    -0.00456711    0.00263636   -0.00171478
     atom    9 type  1   force =    -0.00000521    0.00000540   -0.00080657
     atom   10 type  1   force =     0.00000617   -0.00063580    0.00007508
     atom   11 type  1   force =    -0.00055441    0.00031778    0.00007528
     atom   12 type  1   force =     0.00055489    0.00031157    0.00007541
     atom   13 type  2   force =    -0.00000121    0.00000141    0.00100412

     Total force =     0.001701     Total SCF correction =     0.000428
     SCF correction compared to forces is large: reduce conv_thr to get better values

     entering subroutine stress ...

     negative rho (up, down):  1.739E-04 0.000E+00
          total   stress  (Ry/bohr**3)                   (kbar)     P=    6.54
   0.00007173   0.00000000   0.00000000         10.55      0.00      0.00
   0.00000000   0.00007173   0.00000000          0.00     10.55      0.00
   0.00000000   0.00000000  -0.00001012          0.00      0.00     -1.49

     bfgs converged in  17 scf cycles and  16 bfgs steps
     (criteria: energy <  1.0E+00, force <  1.9E-03)

     End of BFGS Geometry Optimization

     Final energy   =   -1149.1791510608 Ry
Begin final coordinates

ATOMIC_POSITIONS (crystal)
Sc1      0.166666667   0.166666667   0.395942884    0   0   0
Sc1      0.666666667   0.166666667   0.395942884    0   0   0
Sc1      0.166666667   0.666666667   0.395942884    0   0   0
Sc1      0.666666667   0.666666667   0.395942884    0   0   0
Sc1      0.833333333   0.333333333   0.500000000    0   0   0
Sc1      0.333333333   0.333333333   0.500000000    0   0   0
Sc1      0.833333333   0.833333333   0.500000000    0   0   0
Sc1      0.333333333   0.833333333   0.500000000    0   0   0
Sc1      0.000003489  -0.000003374   0.605678503
Sc1      0.499601969   0.000789305   0.604225276
Sc1      0.000789630   0.499606018   0.604225696
Sc1      0.499601706   0.499609485   0.604225176
C1       0.333334502   0.333333035   0.637533499
End final coordinates

     Writing output data file calc.save

     General routines

     Parallel routines

   This run was terminated on:  17: 5:49   2May2018

   JOB DONE.
Job  /afs/slac/g/suncat/bin/suncat-tsmpirun -x LD_LIBRARY_PATH -wdir /scratch/qe753593_Ad42o pw.x -npool 4 -in pw.inp

TID   HOST_NAME   COMMAND_LINE            STATUS            TERMINATION_TIME
00000 suncat0063 pw.x -npool 4 -i  Done                     05/02/2018 17:05:49
00001 suncat0063 pw.x -npool 4 -i  Done                     05/02/2018 17:05:49
00002 suncat0063 pw.x -npool 4 -i  Done                     05/02/2018 17:05:49
00003 suncat0063 pw.x -npool 4 -i  Done                     05/02/2018 17:05:49
00004 suncat0063 pw.x -npool 4 -i  Done                     05/02/2018 17:05:49
00005 suncat0063 pw.x -npool 4 -i  Done                     05/02/2018 17:05:49
00006 suncat0063 pw.x -npool 4 -i  Done                     05/02/2018 17:05:49
00007 suncat0063 pw.x -npool 4 -i  Done                     05/02/2018 17:05:49
00008 suncat0046 pw.x -npool 4 -i  Done                     05/02/2018 17:05:49
00009 suncat0046 pw.x -npool 4 -i  Done                     05/02/2018 17:05:49
00010 suncat0046 pw.x -npool 4 -i  Done                     05/02/2018 17:05:49
00011 suncat0046 pw.x -npool 4 -i  Done                     05/02/2018 17:05:49
00012 suncat0046 pw.x -npool 4 -i  Done                     05/02/2018 17:05:49
00013 suncat0046 pw.x -npool 4 -i  Done                     05/02/2018 17:05:49
00014 suncat0046 pw.x -npool 4 -i  Done                     05/02/2018 17:05:49
00015 suncat0046 pw.x -npool 4 -i  Done                     05/02/2018 17:05:49
00016 suncat0233 pw.x -npool 4 -i  Done                     05/02/2018 17:05:49
00017 suncat0233 pw.x -npool 4 -i  Done                     05/02/2018 17:05:49
00018 suncat0233 pw.x -npool 4 -i  Done                     05/02/2018 17:05:49
00019 suncat0233 pw.x -npool 4 -i  Done                     05/02/2018 17:05:49
00020 suncat0233 pw.x -npool 4 -i  Done                     05/02/2018 17:05:49
00021 suncat0233 pw.x -npool 4 -i  Done                     05/02/2018 17:05:49
00022 suncat0233 pw.x -npool 4 -i  Done                     05/02/2018 17:05:49
00023 suncat0233 pw.x -npool 4 -i  Done                     05/02/2018 17:05:49
00024 suncat0223 pw.x -npool 4 -i  Done                     05/02/2018 17:05:49
00025 suncat0223 pw.x -npool 4 -i  Done                     05/02/2018 17:05:49
00026 suncat0223 pw.x -npool 4 -i  Done                     05/02/2018 17:05:49
00027 suncat0223 pw.x -npool 4 -i  Done                     05/02/2018 17:05:49
00028 suncat0223 pw.x -npool 4 -i  Done                     05/02/2018 17:05:49
00029 suncat0223 pw.x -npool 4 -i  Done                     05/02/2018 17:05:49
00030 suncat0223 pw.x -npool 4 -i  Done                     05/02/2018 17:05:49
00031 suncat0223 pw.x -npool 4 -i  Done                     05/02/2018 17:05:49