     Program PWSCF v.5.1rc2 (svn rev. 11289) starts on 23Apr2018 at  4:41:26

     Current dimensions of program PWSCF are:
     Max number of different atomic species (ntypx) = 10
     Max number of k-points (npk) =  40000
     Max angular momentum in pseudopotentials (lmaxx) =  3
     Presently stress not available with electric field

     IMPORTANT: XC functional enforced from input :
     Exchange-correlation      = BEEF-VDW ( 1  4 27 13 2)
     Any further DFT definition will be discarded
     Please, verify this is what you really want

     Subspace diagonalization in iterative solution of the eigenvalue problem:
     a serial algorithm will be used

     bravais-lattice index     =            0
     lattice parameter (alat)  =       1.8897  a.u.
     unit-cell volume          =    6741.9070 (a.u.)^3
     number of atoms/cell      =           14
     number of atomic types    =            3
     number of electrons       =       175.00
     number of Kohn-Sham states=           97
     kinetic-energy cutoff     =      36.7493  Ry
     charge density cutoff     =     367.4932  Ry
     convergence threshold     =      1.0E-05
     mixing beta               =       0.3000
     number of iterations used =           10  plain     mixing
     Exchange-correlation      = BEEF-VDW ( 1  4 27 13 2)
     nstep                     =           50

     celldm(1)=   1.889726  celldm(2)=   0.000000  celldm(3)=   0.000000
     celldm(4)=   0.000000  celldm(5)=   0.000000  celldm(6)=   0.000000

     crystal axes: (cart. coord. in units of alat)
               a(1) = (   6.726993   0.000000   0.000000 )
               a(2) = (   3.363497   5.825747   0.000000 )
               a(3) = (   0.000000   0.000000  25.492567 )

     reciprocal axes: (cart. coord. in units 2 pi/alat)
               b(1) = (  0.148655 -0.085826  0.000000 )
               b(2) = (  0.000000  0.171652  0.000000 )
               b(3) = (  0.000000  0.000000  0.039227 )

     PseudoPot. # 1 for Sn read from file:
     /u/if/mamunm/psp/gbrv1.5pbe/Sn.UPF
     MD5 check sum: 469debedee59599fedebd795477fea03
     Pseudo is Ultrasoft + core correction, Zval = 14.0
     Generated by new atomic code, or converted to UPF format
     Using radial grid of  891 points,  6 beta functions with:
                l(1) =   0
                l(2) =   0
                l(3) =   1
                l(4) =   1
                l(5) =   2
                l(6) =   2
     Q(r) pseudized with  8 coefficients,  rinner =    1.350   1.350   1.350
                                                       1.350   1.350

     PseudoPot. # 2 for S  read from file:
     /u/if/mamunm/psp/gbrv1.5pbe/S.UPF
     MD5 check sum: 88d86576ff6df21479756cfb9bdac1df
     Pseudo is Ultrasoft + core correction, Zval =  6.0
     Generated by new atomic code, or converted to UPF format
     Using radial grid of  907 points,  6 beta functions with:
                l(1) =   0
                l(2) =   0
                l(3) =   1
                l(4) =   1
                l(5) =   2
                l(6) =   2
     Q(r) pseudized with  8 coefficients,  rinner =    1.300   1.300   1.300
                                                       1.300   1.300

     PseudoPot. # 3 for H  read from file:
     /u/if/mamunm/psp/gbrv1.5pbe/H.UPF
     MD5 check sum: 761ae9a214b05c3daf00ab9f6b793d6f
     Pseudo is Ultrasoft, Zval =  1.0
     Generated by new atomic code, or converted to UPF format
     Using radial grid of  615 points,  2 beta functions with:
                l(1) =   0
                l(2) =   0
     Q(r) pseudized with  8 coefficients,  rinner =    0.700

     vdW kernel table read from file vdW_kernel_table
     MD5 check sum: 095c7af220d748ca6e76c0b4c6cfb241

     atomic species   valence    mass     pseudopotential
        Sn1           14.00   118.71000     Sn( 1.00)
        S1             6.00    32.06000     S ( 1.00)
        H1             1.00     1.00800     H ( 1.00)

     No symmetry found

   Cartesian axes

     site n.     atom                  positions (alat units)
         1           Sn1 tau(   1) = (   1.6817483   0.9709578  10.0000000  )
         2           Sn1 tau(   2) = (   5.0452448   0.9709578  10.0000000  )
         3           Sn1 tau(   3) = (   3.3634965   3.8838312  10.0000000  )
         4           Sn1 tau(   4) = (   6.7269931   3.8838312  10.0000000  )
         5           Sn1 tau(   5) = (   6.7269931   1.9419156  12.7462834  )
         6           Sn1 tau(   6) = (   3.3634965   1.9419156  12.7462834  )
         7           Sn1 tau(   7) = (   8.4087413   4.8547891  12.7462834  )
         8           Sn1 tau(   8) = (   5.0452448   4.8547891  12.7462834  )
         9           Sn1 tau(   9) = (   0.0000000   0.0000000  15.4925668  )
        10           Sn1 tau(  10) = (   3.3634965   0.0000000  15.4925668  )
        11           Sn1 tau(  11) = (   1.6817483   2.9128734  15.4925668  )
        12           Sn1 tau(  12) = (   5.0452448   2.9128734  15.4925668  )
        13           S1  tau(  13) = (   0.0000000   0.0000000  17.5665668  )
        14           H1  tau(  14) = (   0.0000000   0.0000000  18.8165668  )

     number of k points=    20  Fermi-Dirac smearing, width (Ry)=  0.0110
                       cart. coord. in units 2pi/alat
        k(    1) = (   0.0000000   0.0000000   0.0000000), wk =   0.0555556
        k(    2) = (   0.0000000   0.0286086   0.0000000), wk =   0.1111111
        k(    3) = (   0.0000000   0.0572173   0.0000000), wk =   0.1111111
        k(    4) = (   0.0000000  -0.0858259   0.0000000), wk =   0.0555556
        k(    5) = (   0.0247758  -0.0143043   0.0000000), wk =   0.1111111
        k(    6) = (   0.0247758   0.0143043   0.0000000), wk =   0.1111111
        k(    7) = (   0.0247758   0.0429130   0.0000000), wk =   0.1111111
        k(    8) = (   0.0247758  -0.1001302   0.0000000), wk =   0.1111111
        k(    9) = (   0.0247758  -0.0715216   0.0000000), wk =   0.1111111
        k(   10) = (   0.0247758  -0.0429130   0.0000000), wk =   0.1111111
        k(   11) = (   0.0495516  -0.0286086   0.0000000), wk =   0.1111111
        k(   12) = (   0.0495516   0.0000000   0.0000000), wk =   0.1111111
        k(   13) = (   0.0495516   0.0286086   0.0000000), wk =   0.1111111
        k(   14) = (   0.0495516  -0.1144345   0.0000000), wk =   0.1111111
        k(   15) = (   0.0495516  -0.0858259   0.0000000), wk =   0.1111111
        k(   16) = (   0.0495516  -0.0572173   0.0000000), wk =   0.1111111
        k(   17) = (  -0.0743274   0.0429130   0.0000000), wk =   0.0555556
        k(   18) = (  -0.0743274   0.0715216   0.0000000), wk =   0.1111111
        k(   19) = (  -0.0743274   0.1001302   0.0000000), wk =   0.1111111
        k(   20) = (  -0.0743274  -0.0429130   0.0000000), wk =   0.0555556

     Largest allocated arrays     est. size (Mb)     dimensions
     Largest temporary arrays     est. size (Mb)     dimensions

     Initial potential from superposition of free atoms
     Check: negative starting charge=   -0.001251

     starting charge  162.99941, renormalised to  175.00000

     negative rho (up, down):  1.343E-03 0.000E+00

     *
     * You are using vdW-DF for exchange-correlation in this calculation.
     * Please cite the following three references that made this development
     * possible:
     *
     *   M. Dion, H. Rydberg, E. Schroder, D. C. Langreth, and
     *   B. I. Lundqvist, Phys. Rev. Lett. 92, 246401 (2004).
     *
     *   T. Thonhauser, V. R. Cooper, S. Li, A. Puzder, P. Hyldgaard, and
     *   D. C. Langreth, Phys. Rev. B 76, 125112 (2007).
     *
     *   G. Roman-Perez and J. M. Soler, Phys. Rev. Lett. 103, 096102 (2009).
     *
     *
     * If you are using vdW-DF2, please also cite:
     *
     *   K. Lee, E. D. Murray, L. Kong, B. I. Lundqvist, and
     *   D. C. Langreth, Phys. Rev. B 82, 081101(R) (2010).
     *
     *
     * If you are calculating the stress with vdW-DF, please also cite:
     *
     *   R. Sabatini, E. Kucukbenli, B. Kolb, T. Thonhauser, and
     *   S. de Gironcoli, J. Phys.: Condens. Matter 24, 424209 (2012).
     *

     Carrying out vdW-DF run using the following parameters:

     Nqs =      20    Nr_points =    1024   r_max =   100.000
     q_mesh =
               0.00001000     0.04494208     0.09755937     0.15916263
               0.23128650     0.31572767     0.41458969     0.53033537
               0.66584808     0.82450364     1.01025438     1.22772762
               1.48234092     1.78043706     2.12944203     2.53805004
               3.01644009     3.57652955     4.23227104     5.00000000

     Gradients computed in reciprocal space

     Adding external electric field

     Computed dipole along edir(3) :
        Dipole               -4.8679 Ry au,        -12.3730 Debye
        Dipole field         -0.0091 Ry au

        Potential amp.        0.8523 Ry
        Total length         46.9696 bohr

     Starting wfc are  113 randomized atomic wfcs

     Self-consistent Calculation

     iteration #  1     ecut=    36.75 Ry     beta=0.30
     Davidson diagonalization with overlap
     ethr =  1.00E-02,  avg # of iterations =  8.2

[...]

     total energy              =   -1864.53049274 Ry
     Harris-Foulkes estimate   =   -1956.47603844 Ry
     estimated scf accuracy    <     195.81177830 Ry

[...]

     End of self-consistent calculation

          k = 0.0000 0.0000 0.0000 ( 25377 PWs)   bands (ev):

   -21.7411 -21.3694 -21.3694 -21.2847 -21.2847 -21.0705 -21.0598 -21.0598
   -21.0559 -21.0427 -21.0427 -21.0329 -21.0226 -21.0226 -21.0159 -21.0131
   -21.0103 -21.0103 -20.9984 -20.9984 -20.9923 -20.9901 -20.9877 -20.9877
   -20.9835 -20.9835 -20.9821 -20.9797 -20.9797 -20.9684 -20.9574 -20.9574
   -20.9545 -20.9447 -20.9447 -20.9380 -20.9368 -20.9368 -20.9150 -20.9150
   -20.9076 -20.9075 -20.8902 -20.8795 -20.8755 -20.8755 -20.8641 -20.8641
   -20.8611 -20.8551 -20.8551 -20.8479 -20.8479 -20.8408 -20.8367 -20.8367
   -20.8311 -20.8187 -20.8187 -20.8183 -13.6385  -9.7830  -8.7993  -7.6923
    -6.4668  -5.6836  -5.6836  -5.5927  -5.2074  -5.2074  -4.8398  -4.3272
    -4.3272  -3.6248  -3.2848  -3.2848  -2.9094  -2.3193  -2.3193  -2.1699
    -1.6768  -1.6768  -1.5889  -1.1012  -0.7281  -0.7281   0.7156   1.9856
     1.9999   1.9999   2.1306   2.1306   2.6826   3.3899   3.5363   3.5363
     3.5418

[...]

          k =-0.0743 0.0429 0.0000 ( 25386 PWs)   bands (ev):

[...]

     the Fermi energy is     1.0497 ev

!    total energy              =   -1953.77368404 Ry
     Harris-Foulkes estimate   =   -1953.77369031 Ry
     estimated scf accuracy    <       0.00000534 Ry

     The total energy is the sum of the following terms:

     one-electron contribution =  -10563.46376703 Ry
     hartree contribution      =    5348.30931608 Ry
     xc contribution           =    -543.63725418 Ry
     ewald contribution        =    3805.05932190 Ry
     electric field correction =       0.00000125 Ry
     smearing contrib. (-TS)   =      -0.04130206 Ry

     convergence has been achieved in  18 iterations

 BEEF-vdW xc energy contributions
           1 :   -477.416272410826
           2 :    436.734602580367
           3 :   -367.776346882870
           4 :    289.723224831572
           5 :   -220.728798213959
           6 :    171.610755902315
           7 :   -143.466484291189
           8 :    129.706882337352
           9 :   -120.999604014372
          10 :    110.370048361814
          11 :   -95.9698786830725
          12 :    80.5267965011552
          13 :   -68.3987405365767
          14 :    62.3042038171563
          15 :   -61.6559241181884
          16 :    63.2011650779926
          17 :   -63.2396944729024
          18 :    59.8590975242971
          19 :   -53.8263734160705
          20 :    47.7425483930932
          21 :   -44.1714362778498
          22 :    44.0009459430764
          23 :   -46.0283567998192
          24 :    47.8976917844965
          25 :   -47.6694624747777
          26 :    44.9776507581661
          27 :   -41.0920699307078
          28 :    37.9507959595250
          29 :   -36.8697356157599
          30 :    37.7700897162431
          31 :   -42.0256832438139
          32 :   -30.5513275184412

     Forces acting on atoms (Ry/au):

     negative rho (up, down):  3.803E-04 0.000E+00
     atom    1 type  1   force =    -0.00366237   -0.00210834   -0.00356432
     atom    2 type  1   force =     0.00367415   -0.00210955   -0.00356684
     atom    3 type  1   force =    -0.00000228    0.00423303   -0.00355566
     atom    4 type  1   force =    -0.00001476   -0.00000423    0.00248460
     atom    5 type  1   force =     0.00000104    0.00161334   -0.00663775
     atom    6 type  1   force =    -0.00000064    0.00001132    0.00156178
     atom    7 type  1   force =    -0.00142136   -0.00080499   -0.00666212
     atom    8 type  1   force =     0.00140995   -0.00080877   -0.00664181
     atom    9 type  1   force =     0.00000527    0.00001124   -0.29616661
     atom   10 type  1   force =     0.00000055    0.00182164   -0.00403267
     atom   11 type  1   force =     0.00157999   -0.00092640   -0.00403318
     atom   12 type  1   force =    -0.00157822   -0.00091981   -0.00402730
     atom   13 type  2   force =     0.00000464   -0.00000468    0.20233218
     atom   14 type  3   force =     0.00000404   -0.00000380    0.13250970

     Total force =     0.382453     Total SCF correction =     0.005530

     entering subroutine stress ...

     negative rho (up, down):  3.803E-04 0.000E+00
          total   stress  (Ry/bohr**3)                   (kbar)     P=   15.04
   0.00003584   0.00000000  -0.00000000          5.27      0.00     -0.00
   0.00000000   0.00003584   0.00000000          0.00      5.27      0.00
  -0.00000000   0.00000000   0.00023495         -0.00      0.00     34.56

     BFGS Geometry Optimization

     number of scf cycles    =   1
     number of bfgs steps    =   0

     energy   new            =   -1953.7736840360 Ry

     new trust radius        =       0.2961666106 bohr
     new conv_thr            =       0.0000099958 Ry

ATOMIC_POSITIONS (crystal)
Sn1      0.166666667   0.166666667   0.392271209    0   0   0
Sn1      0.666666667   0.166666667   0.392271209    0   0   0
Sn1      0.166666667   0.666666667   0.392271209    0   0   0
Sn1      0.666666667   0.666666667   0.392271209    0   0   0
Sn1      0.833333333   0.333333333   0.500000000    0   0   0
Sn1      0.333333333   0.333333333   0.500000000    0   0   0
Sn1      0.833333333   0.833333333   0.500000000    0   0   0
Sn1      0.333333333   0.833333333   0.500000000    0   0   0
Sn1     -0.000000096   0.000001021   0.601580936
Sn1      0.499917309   0.000165467   0.607645081
Sn1      0.000166364   0.499915851   0.607645070
Sn1      0.499917625   0.499916450   0.607645192
S1       0.000000577  -0.000000425   0.693285871
H1       0.000000490  -0.000000345   0.740870390

     Writing output data file calc.save
     Check: negative starting charge=   -0.001251
     NEW-OLD atomic charge density approx. for the potential
     Check: negative starting charge=   -0.001222

[...]

     energy   old            =   -1953.7736840360 Ry
     energy   new            =   -1953.8511179414 Ry

     CASE: energy  _new < energy  _old

[...]

     iteration #  1     ecut=    36.75 Ry     beta=0.30
     Davidson diagonalization with overlap
     c_bands:  1 eigenvalues not converged
     ethr =  1.00E-06,  avg # of iterations =  9.8

[...]

     Total force =     0.017696     Total SCF correction =     0.000147

[...]

     Total force =     0.012290     Total SCF correction =     0.001405
     SCF correction compared to forces is large: reduce conv_thr to get better values

[...]

     iteration #  1     ecut=    36.75 Ry     beta=0.30
     Davidson diagonalization with overlap
     c_bands:  1 eigenvalues not converged
     ethr =  1.00E-06,  avg # of iterations =  9.9

[...]

     number of scf cycles    =  15
     number of bfgs steps    =  14

     energy   old            =   -1953.9009885309 Ry
     energy   new            =   -1953.9010158827 Ry

     CASE: energy  _new < energy  _old

     new trust radius        =       0.0296558387 bohr
     new conv_thr            =       0.0000001000 Ry

ATOMIC_POSITIONS (crystal)
Sn1      0.166666667   0.166666667   0.392271209    0   0   0
Sn1      0.666666667   0.166666667   0.392271209    0   0   0
Sn1      0.166666667   0.666666667   0.392271209    0   0   0
Sn1      0.666666667   0.666666667   0.392271209    0   0   0
Sn1      0.833333333   0.333333333   0.500000000    0   0   0
Sn1      0.333333333   0.333333333   0.500000000    0   0   0
Sn1      0.833333333   0.833333333   0.500000000    0   0   0
Sn1      0.333333333   0.833333333   0.500000000    0   0   0
Sn1      0.000002596  -0.000000564   0.608178994
Sn1      0.497906906   0.004186944   0.609932439
Sn1      0.004188095   0.497908239   0.609932727
Sn1      0.497907181   0.497905580   0.609932330
S1      -0.000003253  -0.000003860   0.711598395
H1       0.000001626   0.000002448   0.764594222

     Writing output data file calc.save
     Check: negative starting charge=   -0.001133
     NEW-OLD atomic charge density approx. for the potential
     Check: negative starting charge=   -0.001137

[...]

     Self-consistent Calculation

[...]

     total energy              =   -1953.90102781 Ry
     Harris-Foulkes estimate   =   -1953.90102743 Ry
     estimated scf accuracy    <       0.00000010 Ry

     iteration #  9     ecut=    36.75 Ry     beta=0.30
     Davidson diagonalization with overlap
     ethr =  6.00E-11,  avg # of iterations =  3.8

[...]

     negative rho (up, down):  3.492E-04 0.000E+00

     Adding external electric field

     Computed dipole along edir(3) :
        Dipole               -0.4884 Ry au,         -1.2414 Debye
        Dipole field         -0.0009 Ry au

        Potential amp.        0.0855 Ry
        Total length         46.9696 bohr

     End of self-consistent calculation

[...]

          k = 0.0496-0.0572 0.0000 ( 25368 PWs)   bands (ev):

[...]

          k =-0.0743-0.0429 0.0000 ( 25386 PWs)   bands (ev):

   -21.6484 -21.6056 -21.6011 -21.5918 -21.5710 -21.5686 -21.5438 -21.5405
   -21.5321 -21.5271 -21.5269 -21.5191 -21.5173 -21.5170 -21.5139 -21.5125
   -21.5100 -21.5075 -21.5030 -21.4983 -21.4933 -21.4921 -21.4911 -21.4847
   -21.4833 -21.4813 -21.4752 -21.4725 -21.4713 -21.4676 -21.4672 -21.4638
   -21.4598 -21.4592 -21.4560 -21.4538 -21.4452 -21.4359 -21.4295 -21.4280
   -21.4267 -21.4235 -21.4124 -21.4051 -21.3950 -21.3913 -21.3881 -21.3862
   -21.3859 -21.3825 -21.3801 -21.3795 -21.3763 -21.3757 -21.3665 -21.3608
   -21.3584 -21.3481 -21.3283 -21.3232 -11.7614  -9.0758  -9.0502  -7.9459
    -7.8782  -6.8671  -6.8273  -6.3921  -6.2369  -5.8920  -5.7706  -4.8263
    -4.5006  -3.8747  -1.8038  -1.6746  -1.6583  -1.5183  -1.5097  -1.3738
    -0.7569  -0.6511  -0.4580  -0.3525  -0.1984  -0.0934   0.5435   0.6236
     0.9501   0.9588   1.2233   1.4644   1.4985   1.5569   1.7801   1.8134
     1.8602

     the Fermi energy is     0.5496 ev

!    total energy              =   -1953.90102778 Ry
     Harris-Foulkes estimate   =   -1953.90102801 Ry
     estimated scf accuracy    <       0.00000003 Ry

     The total energy is the sum of the following terms:

     one-electron contribution =  -10359.63139407 Ry
     hartree contribution      =    5244.15400364 Ry
     xc contribution           =    -543.29070903 Ry
     ewald contribution        =    3704.91084975 Ry
     electric field correction =       0.00044465 Ry
     smearing contrib. (-TS)   =      -0.04422272 Ry

     convergence has been achieved in   9 iterations

 BEEF-vdW xc energy contributions
           1 :   -477.065559938178
           2 :    436.259506812669
           3 :   -367.165745092952
           4 :    289.089574119040
           5 :   -220.230772921967
           6 :    171.354344401528
           7 :   -143.443087338359
           8 :    129.802437456323
           9 :   -121.064444409456
          10 :    110.308263897526
          11 :   -95.7946898091686
          12 :    80.3471109683435
          13 :   -68.3448043784434
          14 :    62.4397243776577
          15 :   -61.9332451725070
          16 :    63.4893320615114
          17 :   -63.4064144289437
          18 :    59.8526617054202
          19 :   -53.7050761220785
          20 :    47.6327987517313
          21 :   -44.1829279617780
          22 :    44.1558188803837
          23 :   -46.2487723293617
          24 :    48.0577376652952
          25 :   -47.6767585597428
          26 :    44.8308072622606
          27 :   -40.8776994339395
          28 :    37.7847386730052
          29 :   -36.8222135433155
          30 :    37.8238215175802
          31 :   -41.9996472766071
          32 :   -30.4955103910750

     Forces acting on atoms (Ry/au):

     negative rho (up, down):  3.492E-04 0.000E+00
     atom    1 type  1   force =    -0.00241027   -0.00139145    0.00300163
     atom    2 type  1   force =     0.00241005   -0.00139112    0.00300171
     atom    3 type  1   force =    -0.00000049    0.00278281    0.00300196
     atom    4 type  1   force =    -0.00000034   -0.00000016    0.00482521
     atom    5 type  1   force =     0.00000006    0.00158060   -0.00382766
     atom    6 type  1   force =     0.00000033   -0.00000054    0.00106838
     atom    7 type  1   force =    -0.00136875   -0.00079047   -0.00382757
     atom    8 type  1   force =     0.00136901   -0.00079064   -0.00382702
     atom    9 type  1   force =     0.00000184    0.00000145    0.00150702
     atom   10 type  1   force =     0.00000161   -0.00124992   -0.00149636
     atom   11 type  1   force =    -0.00108304    0.00062647   -0.00149486
     atom   12 type  1   force =     0.00108300    0.00062435   -0.00149682
     atom   13 type  2   force =    -0.00000636   -0.00000341   -0.00109665
     atom   14 type  3   force =     0.00000334    0.00000204    0.00066101

     Total force =     0.003913     Total SCF correction =     0.000684
     SCF correction compared to forces is large: reduce conv_thr to get better values

     entering subroutine stress ...

     negative rho (up, down):  3.492E-04 0.000E+00
          total   stress  (Ry/bohr**3)                   (kbar)     P=   -0.56
   0.00001030  -0.00000000  -0.00000000          1.51     -0.00     -0.00
  -0.00000000   0.00001030  -0.00000000         -0.00      1.51     -0.00
  -0.00000000  -0.00000000  -0.00003195         -0.00     -0.00     -4.70

     bfgs converged in  16 scf cycles and  15 bfgs steps
     (criteria: energy <  1.0E+00, force <  1.9E-03)

     End of BFGS Geometry Optimization

     Final energy   =   -1953.9010277812 Ry
Begin final coordinates

ATOMIC_POSITIONS (crystal)
Sn1      0.166666667   0.166666667   0.392271209    0   0   0
Sn1      0.666666667   0.166666667   0.392271209    0   0   0
Sn1      0.166666667   0.666666667   0.392271209    0   0   0
Sn1      0.666666667   0.666666667   0.392271209    0   0   0
Sn1      0.833333333   0.333333333   0.500000000    0   0   0
Sn1      0.333333333   0.333333333   0.500000000    0   0   0
Sn1      0.833333333   0.833333333   0.500000000    0   0   0
Sn1      0.333333333   0.833333333   0.500000000    0   0   0
Sn1      0.000002596  -0.000000564   0.608178994
Sn1      0.497906906   0.004186944   0.609932439
Sn1      0.004188095   0.497908239   0.609932727
Sn1      0.497907181   0.497905580   0.609932330
S1      -0.000003253  -0.000003860   0.711598395
H1       0.000001626   0.000002448   0.764594222
End final coordinates

     Writing output data file calc.save

     General routines

     Parallel routines

   This run was terminated on:   7:15:18  23Apr2018

   JOB DONE.
Job  /afs/slac/g/suncat/bin/suncat-tsmpirun -x LD_LIBRARY_PATH -wdir /scratch/qe399702_RhadU pw.x -npool 4 -in pw.inp

TID   HOST_NAME   COMMAND_LINE            STATUS            TERMINATION_TIME
00000 suncat0016 pw.x -npool 4 -i  Done                     04/23/2018 07:15:18
00001 suncat0016 pw.x -npool 4 -i  Done                     04/23/2018 07:15:18
00002 suncat0016 pw.x -npool 4 -i  Done                     04/23/2018 07:15:18
00003 suncat0016 pw.x -npool 4 -i  Done                     04/23/2018 07:15:18
00004 suncat0016 pw.x -npool 4 -i  Done                     04/23/2018 07:15:18
00005 suncat0016 pw.x -npool 4 -i  Done                     04/23/2018 07:15:18
00006 suncat0016 pw.x -npool 4 -i  Done                     04/23/2018 07:15:18
00007 suncat0016 pw.x -npool 4 -i  Done                     04/23/2018 07:15:18
00008 suncat0010 pw.x -npool 4 -i  Done                     04/23/2018 07:15:18
00009 suncat0010 pw.x -npool 4 -i  Done                     04/23/2018 07:15:18
00010 suncat0010 pw.x -npool 4 -i  Done                     04/23/2018 07:15:18
00011 suncat0010 pw.x -npool 4 -i  Done                     04/23/2018 07:15:18
00012 suncat0010 pw.x -npool 4 -i  Done                     04/23/2018 07:15:18
00013 suncat0010 pw.x -npool 4 -i  Done                     04/23/2018 07:15:18
00014 suncat0010 pw.x -npool 4 -i  Done                     04/23/2018 07:15:18
00015 suncat0010 pw.x -npool 4 -i  Done                     04/23/2018 07:15:18
00016 suncat0176 pw.x -npool 4 -i  Done                     04/23/2018 07:15:18
00017 suncat0176 pw.x -npool 4 -i  Done                     04/23/2018 07:15:18
00018 suncat0176 pw.x -npool 4 -i  Done                     04/23/2018 07:15:18
00019 suncat0176 pw.x -npool 4 -i  Done                     04/23/2018 07:15:18
00020 suncat0176 pw.x -npool 4 -i  Done                     04/23/2018 07:15:18
00021 suncat0176 pw.x -npool 4 -i  Done                     04/23/2018 07:15:18
00022 suncat0176 pw.x -npool 4 -i  Done                     04/23/2018 07:15:18
00023 suncat0176 pw.x -npool 4 -i  Done                     04/23/2018 07:15:18
00024 suncat0174 pw.x -npool 4 -i  Done                     04/23/2018 07:15:18
00025 suncat0174 pw.x -npool 4 -i  Done                     04/23/2018 07:15:18
00026 suncat0174 pw.x -npool 4 -i  Done                     04/23/2018 07:15:18
00027 suncat0174 pw.x -npool 4 -i  Done                     04/23/2018 07:15:18
00028 suncat0174 pw.x -npool 4 -i  Done                     04/23/2018 07:15:18
00029 suncat0174 pw.x -npool 4 -i  Done                     04/23/2018 07:15:18
00030 suncat0174 pw.x -npool 4 -i  Done                     04/23/2018 07:15:18
00031 suncat0174 pw.x -npool 4 -i  Done                     04/23/2018 07:15:18