     Program PWSCF v.5.1rc2 (svn rev. 11289) starts on 23Apr2018 at  9:59:30

     Current dimensions of program PWSCF are:
     Max number of different atomic species (ntypx) = 10
     Max number of k-points (npk) =  40000
     Max angular momentum in pseudopotentials (lmaxx) =  3
     Presently stress not available with electric field

     IMPORTANT: XC functional enforced from input :
     Exchange-correlation      = BEEF-VDW ( 1  4 27 13 2)
     Any further DFT definition will be discarded
     Please, verify this is what you really want

     Subspace diagonalization in iterative solution of the eigenvalue problem:
     a serial algorithm will be used

     bravais-lattice index     =            0
     lattice parameter (alat)  =       1.8897  a.u.
     unit-cell volume          =    5185.0501 (a.u.)^3
     number of atoms/cell      =           16
     number of atomic types    =            3
     number of electrons       =       163.00
     number of Kohn-Sham states=           91
     kinetic-energy cutoff     =      36.7493  Ry
     charge density cutoff     =     367.4932  Ry
     convergence threshold     =      1.0E-05
     mixing beta               =       0.3000
     number of iterations used =           10  plain     mixing
     Exchange-correlation      = BEEF-VDW ( 1  4 27 13 2)
     nstep                     =           50

     celldm(1)=   1.889726  celldm(2)=   0.000000  celldm(3)=   0.000000
     celldm(4)=   0.000000  celldm(5)=   0.000000  celldm(6)=   0.000000

     crystal axes: (cart. coord. in units of alat)
               a(1) = (   5.972022   0.000000   0.000000 )
               a(2) = (   2.986011   5.171923   0.000000 )
               a(3) = (   0.000000   0.000000  24.876136 )

     reciprocal axes: (cart. coord. in units 2 pi/alat)
               b(1) = (  0.167447 -0.096676  0.000000 )
               b(2) = (  0.000000  0.193352  0.000000 )
               b(3) = (  0.000000  0.000000  0.040199 )

     PseudoPot. # 1 for Ta read from file:
     /u/if/mamunm/psp/gbrv1.5pbe/Ta.UPF
     MD5 check sum: f8bbe9446314a3b8ea5d9f3e3836c939
     Pseudo is Ultrasoft + core correction, Zval = 13.0
     Generated by new atomic code, or converted to UPF format
     Using radial grid of  921 points,  7 beta functions with:
                l(1) =   0
                l(2) =   0
                l(3) =   1
                l(4) =   1
                l(5) =   2
                l(6) =   2
                l(7) =   3
     Q(r) pseudized with  6 coefficients,  rinner =    1.300   1.300   1.300
                                                       1.300   1.300   1.300
                                                       1.300

     PseudoPot. # 2 for C  read from file:
     /u/if/mamunm/psp/gbrv1.5pbe/C.UPF
     MD5 check sum: d1aef80898a10debaa0f26306b886e00
     Pseudo is Ultrasoft + core correction, Zval =  4.0
     Generated by new atomic code, or converted to UPF format
     Using radial grid of  721 points,  4 beta functions with:
                l(1) =   0
                l(2) =   0
                l(3) =   1
                l(4) =   1
     Q(r) pseudized with  8 coefficients,  rinner =    1.100   1.100   1.100

     PseudoPot. # 3 for H  read from file:
     /u/if/mamunm/psp/gbrv1.5pbe/H.UPF
     MD5 check sum: 761ae9a214b05c3daf00ab9f6b793d6f
     Pseudo is Ultrasoft, Zval =  1.0
     Generated by new atomic code, or converted to UPF format
     Using radial grid of  615 points,  2 beta functions with:
                l(1) =   0
                l(2) =   0
     Q(r) pseudized with  8 coefficients,  rinner =    0.700

     vdW kernel table read from file vdW_kernel_table
     MD5 check sum: 095c7af220d748ca6e76c0b4c6cfb241

     atomic species   valence    mass     pseudopotential
        Ta1           13.00   180.94788     Ta( 1.00)
        C1             4.00    12.01100     C ( 1.00)
        H1             1.00     1.00800     H ( 1.00)

     No symmetry found

   Cartesian axes

     site n.     atom                  positions (alat units)
         1           Ta1 tau(   1) = (   1.4930055   0.8619871  10.0000000  )
         2           Ta1 tau(   2) = (   4.4790165   0.8619871  10.0000000  )
         3           Ta1 tau(   3) = (   2.9860110   3.4479485  10.0000000  )
         4           Ta1 tau(   4) = (   5.9720221   3.4479485  10.0000000  )
         5           Ta1 tau(   5) = (   5.9720221   1.7239743  12.4380678  )
         6           Ta1 tau(   6) = (   2.9860110   1.7239743  12.4380678  )
         7           Ta1 tau(   7) = (   7.4650276   4.3099357  12.4380678  )
         8           Ta1 tau(   8) = (   4.4790165   4.3099357  12.4380678  )
         9           Ta1 tau(   9) = (   0.0000000   0.0000000  14.8761356  )
        10           Ta1 tau(  10) = (   2.9860110   0.0000000  14.8761356  )
        11           Ta1 tau(  11) = (   1.4930055   2.5859614  14.8761356  )
        12           Ta1 tau(  12) = (   4.4790165   2.5859614  14.8761356  )
        13           C1  tau(  13) = (   1.4930055   0.0000000  16.7211356  )
        14           H1  tau(  14) = (   2.5830055   0.0000000  17.3511356  )
        15           H1  tau(  15) = (   1.0430055   0.8895000  17.3511356  )
        16           H1  tau(  16) = (   4.0290165   4.2824228  17.3511356  )

     number of k points=    20  Fermi-Dirac smearing, width (Ry)=  0.0110
                       cart. coord. in units 2pi/alat
        k(    1) = (   0.0000000   0.0000000   0.0000000), wk =   0.0555556
        k(    2) = (   0.0000000   0.0322253   0.0000000), wk =   0.1111111
        k(    3) = (   0.0000000   0.0644506   0.0000000), wk =   0.1111111
        k(    4) = (   0.0000000  -0.0966758   0.0000000), wk =   0.0555556
        k(    5) = (   0.0279079  -0.0161126   0.0000000), wk =   0.1111111
        k(    6) = (   0.0279079   0.0161126   0.0000000), wk =   0.1111111
        k(    7) = (   0.0279079   0.0483379   0.0000000), wk =   0.1111111
        k(    8) = (   0.0279079  -0.1127885   0.0000000), wk =   0.1111111
        k(    9) = (   0.0279079  -0.0805632   0.0000000), wk =   0.1111111
        k(   10) = (   0.0279079  -0.0483379   0.0000000), wk =   0.1111111
        k(   11) = (   0.0558158  -0.0322253   0.0000000), wk =   0.1111111
        k(   12) = (   0.0558158   0.0000000   0.0000000), wk =   0.1111111
        k(   13) = (   0.0558158   0.0322253   0.0000000), wk =   0.1111111
        k(   14) = (   0.0558158  -0.1289011   0.0000000), wk =   0.1111111
        k(   15) = (   0.0558158  -0.0966758   0.0000000), wk =   0.1111111
        k(   16) = (   0.0558158  -0.0644506   0.0000000), wk =   0.1111111
        k(   17) = (  -0.0837237   0.0483379   0.0000000), wk =   0.0555556
        k(   18) = (  -0.0837237   0.0805632   0.0000000), wk =   0.1111111
        k(   19) = (  -0.0837237   0.1127885   0.0000000), wk =   0.1111111
        k(   20) = (  -0.0837237  -0.0483379   0.0000000), wk =   0.0555556

     Largest allocated arrays     est. size (Mb)     dimensions
     Largest temporary arrays     est. size (Mb)     dimensions

     Initial potential from superposition of free atoms
     Check: negative starting charge=   -1.121540

     starting charge  162.98659, renormalised to  163.00000

     negative rho (up, down):  1.122E+00 0.000E+00

     *
     * You are using vdW-DF for exchange-correlation in this calculation.
     * Please cite the following three references that made this development
     * possible:
     *
     *   M. Dion, H. Rydberg, E. Schroder, D. C. Langreth, and
     *   B. I. Lundqvist, Phys. Rev. Lett. 92, 246401 (2004).
     *
     *   T. Thonhauser, V. R. Cooper, S. Li, A. Puzder, P. Hyldgaard, and
     *   D. C. Langreth, Phys. Rev. B 76, 125112 (2007).
     *
     *   G. Roman-Perez and J. M. Soler, Phys. Rev. Lett. 103, 096102 (2009).
     *
     *
     * If you are using vdW-DF2, please also cite:
     *
     *   K. Lee, E. D. Murray, L. Kong, B. I. Lundqvist, and
     *   D. C. Langreth, Phys. Rev. B 82, 081101(R) (2010).
     *
     *
     * If you are calculating the stress with vdW-DF, please also cite:
     *
     *   R. Sabatini, E. Kucukbenli, B. Kolb, T. Thonhauser, and
     *   S. de Gironcoli, J. Phys.: Condens. Matter 24, 424209 (2012).
     *

     Carrying out vdW-DF run using the following parameters:

     Nqs =      20    Nr_points =    1024   r_max =   100.000
     q_mesh =
               0.00001000     0.04494208     0.09755937     0.15916263
               0.23128650     0.31572767     0.41458969     0.53033537
               0.66584808     0.82450364     1.01025438     1.22772762
               1.48234092     1.78043706     2.12944203     2.53805004
               3.01644009     3.57652955     4.23227104     5.00000000

     Gradients computed in reciprocal space

     Adding external electric field

     Computed dipole along edir(3) :
        Dipole               -0.0044 Ry au,         -0.0111 Debye
        Dipole field         -0.0000 Ry au

        Potential amp.        0.0010 Ry
        Total length         45.8339 bohr

     Starting wfc are  163 randomized atomic wfcs

     Self-consistent Calculation

     iteration #  1     ecut=    36.75 Ry     beta=0.30
     Davidson diagonalization with overlap
     ethr =  1.00E-02,  avg # of iterations =  2.0

[...]

     total energy              =   -1731.60828079 Ry
     Harris-Foulkes estimate   =   -1734.02045520 Ry
     estimated scf accuracy    <       5.26088052 Ry

[...]

     End of self-consistent calculation

          k = 0.0000 0.0000 0.0000 ( 19447 PWs)   bands (ev):

   -65.8513 -65.8066 -65.8039 -65.7837 -65.7669 -65.7501 -65.7459 -65.7455
   -65.7153 -65.6723 -65.6707 -65.6517 -32.5720 -32.5521 -32.5380 -32.5250
   -32.5103 -32.4962 -32.4860 -32.4485 -32.4468 -32.4365 -32.2720 -32.1840
   -32.1720 -32.1598 -32.0909 -32.0868 -32.0825 -31.9747 -31.9557 -31.9501
   -31.9023 -31.8919 -31.8861 -31.8734 -31.8717 -31.8632 -31.8228 -31.7973
   -31.7940 -31.7926 -31.7613 -31.7513 -31.7169 -31.7141 -31.6516 -31.6494
   -10.6187  -4.9725  -3.5453  -3.5413  -3.4003  -2.5258  -1.9883  -1.5792
    -1.5540  -1.4929  -1.3586  -1.3271  -1.1124  -0.6686  -0.6638  -0.5332
    -0.4408  -0.4281  -0.1618   0.7151   0.8301   1.1363   1.8026   2.0103
     2.0701   2.1345   2.3757   2.4095   2.4965   2.6352   2.6625   2.8621
     2.8732   2.9943   3.1451   3.1613   3.2181   3.2290   3.2359   3.3153
     3.3325   3.4075   3.5901

[...]

          k =-0.0837 0.0483 0.0000 ( 19532 PWs)   bands (ev):

[...]

     the Fermi energy is     2.5123 ev

!    total energy              =   -1733.50387438 Ry
     Harris-Foulkes estimate   =   -1733.50386776 Ry
     estimated scf accuracy    <       0.00000768 Ry

     The total energy is the sum of the following terms:

     one-electron contribution =  -11693.36576236 Ry
     hartree contribution      =    5833.69505128 Ry
     xc contribution           =    -528.63386228 Ry
     ewald contribution        =    4654.90635607 Ry
     electric field correction =       0.00023720 Ry
     smearing contrib. (-TS)   =      -0.10589429 Ry

     convergence has been achieved in  13 iterations

 BEEF-vdW xc energy contributions
           1 :   -465.183980539652
           2 :    429.231725129762
           3 :   -366.549449930258
           4 :    291.700774133820
           5 :   -219.208637499001
           6 :    159.128668121439
           7 :   -115.078030530612
           8 :    85.0641432258674
           9 :   -64.2193299525095
          10 :    47.8474510237675
          11 :   -33.3552791115345
          12 :    20.4808553567549
          13 :   -10.2147266604010
          14 :    3.37512399343893
          15 :   0.272160200920496
          16 :   -1.97838777146507
          17 :    3.28232086513788
          18 :   -5.15752515637087
          19 :    7.58009870971784
          20 :   -9.73365016684727
          21 :    10.6681494865048
          22 :   -9.98055520533967
          23 :    8.10752707293557
          24 :   -6.08117481850013
          25 :    4.92920190891323
          26 :   -5.10203544158810
          27 :    6.26698593330508
          28 :   -7.56599462513077
          29 :    8.15102203329235
          30 :   -7.66150514359686
          31 :   -41.7655170132648
          32 :   -30.9846094530657

     Forces acting on atoms (Ry/au):

     negative rho (up, down):  1.177E+00 0.000E+00
     atom    1 type  1   force =     0.00007533    0.00058772    0.00342898
     atom    2 type  1   force =    -0.00023574    0.00007651    0.00397153
     atom    3 type  1   force =    -0.00026630   -0.00016907    0.00460957
     atom    4 type  1   force =    -0.00003422    0.00008203    0.00464621
     atom    5 type  1   force =     0.00000275    0.00024803    0.00093742
     atom    6 type  1   force =     0.00055822   -0.00169776    0.00052424
     atom    7 type  1   force =    -0.00017132   -0.00373247   -0.00793025
     atom    8 type  1   force =     0.00174391   -0.00018340    0.00203223
     atom    9 type  1   force =    -0.01251048    0.00059759    0.01268967
     atom   10 type  1   force =     0.01527395    0.00298270    0.01746428
     atom   11 type  1   force =    -0.00048320    0.02742708   -0.01611649
     atom   12 type  1   force =    -0.00173342   -0.02549143   -0.01948566
     atom   13 type  2   force =     0.03991168   -0.00186252    0.16913731
     atom   14 type  3   force =    -0.07556843    0.00037231   -0.07802085
     atom   15 type  3   force =     0.01659909   -0.04077276   -0.04989671
     atom   16 type  3   force =     0.01683818    0.04153543   -0.04799147

     Total force =     0.231627     Total SCF correction =     0.005429

     entering subroutine stress ...

     negative rho (up, down):  1.177E+00 0.000E+00
          total   stress  (Ry/bohr**3)                   (kbar)     P=  -36.29
  -0.00031110  -0.00000078  -0.00001220        -45.76     -0.11     -1.79
  -0.00000078  -0.00031062   0.00000348         -0.11    -45.69      0.51
  -0.00001220   0.00000348  -0.00011829         -1.79      0.51    -17.40

     BFGS Geometry Optimization

     number of scf cycles    =   1
     number of bfgs steps    =   0

     energy   new            =   -1733.5038743769 Ry

     new trust radius        =       0.1737925189 bohr
     new conv_thr            =       0.0000099958 Ry

ATOMIC_POSITIONS (crystal)
Ta1      0.166666667   0.166666667   0.401991699    0   0   0
Ta1      0.666666667   0.166666667   0.401991699    0   0   0
Ta1      0.166666667   0.666666667   0.401991699    0   0   0
Ta1      0.666666667   0.666666667   0.401991699    0   0   0
Ta1      0.833333333   0.333333333   0.500000000    0   0   0
Ta1      0.333333333   0.333333333   0.500000000    0   0   0
Ta1      0.833333333   0.833333333   0.500000000    0   0   0
Ta1      0.333333333   0.833333333   0.500000000    0   0   0
Ta1     -0.001139118   0.000061143   0.598278242
Ta1      0.501200824   0.000305182   0.598379810
Ta1     -0.001445949   0.502806265   0.597665464
Ta1      0.501150510   0.497391786   0.597593793
C1       0.253631834  -0.000190568   0.675773741
H1       0.425802626   0.000038094   0.695841549
H1       0.092212189   0.167814567   0.696439820
H1       0.260008924   0.832263468   0.696480349

     Writing output data file calc.save
     Check: negative starting charge=   -1.121540
     NEW-OLD atomic charge density approx. for the potential
     Check: negative starting charge=   -1.122334

[...]

     energy   old            =   -1733.5038743769 Ry
     energy   new            =   -1733.5400716340 Ry

     CASE: energy  _new < energy  _old

[...]

     iteration #  1     ecut=    36.75 Ry     beta=0.30
     Davidson diagonalization with overlap
     c_bands:  1 eigenvalues not converged
     ethr =  1.00E-06,  avg # of iterations =  6.3

[...]

     Threshold (ethr) on eigenvalues was too large:
     Diagonalizing with lowered threshold

     Davidson diagonalization with overlap
     ethr =  7.08E-08,  avg # of iterations =  1.5

[...]

     number of scf cycles    =  12
     number of bfgs steps    =  11

     energy   old            =   -1733.5605090377 Ry
     energy   new            =   -1733.5606806619 Ry

     CASE: energy  _new < energy  _old

     new trust radius        =       0.0054251030 bohr
     new conv_thr            =       0.0000001000 Ry

ATOMIC_POSITIONS (crystal)
Ta1      0.166666667   0.166666667   0.401991699    0   0   0
Ta1      0.666666667   0.166666667   0.401991699    0   0   0
Ta1      0.166666667   0.666666667   0.401991699    0   0   0
Ta1      0.666666667   0.666666667   0.401991699    0   0   0
Ta1      0.833333333   0.333333333   0.500000000    0   0   0
Ta1      0.333333333   0.333333333   0.500000000    0   0   0
Ta1      0.833333333   0.833333333   0.500000000    0   0   0
Ta1      0.333333333   0.833333333   0.500000000    0   0   0
Ta1      0.007026473   0.003477817   0.602025230
Ta1      0.498371510   0.002931297   0.601039262
Ta1     -0.017264141   0.534055992   0.592895993
Ta1      0.514835279   0.470244554   0.592599742
C1       0.250273398  -0.002210870   0.677124230
H1       0.424080849   0.000470401   0.692017033
H1       0.088343310   0.169943561   0.695664599
H1       0.261173216   0.827276005   0.696496478

     Writing output data file calc.save
     Check: negative starting charge=   -1.123472
     NEW-OLD atomic charge density approx. for the potential
     Check: negative starting charge=   -1.123542

[...]

     Self-consistent Calculation

[...]

     Threshold (ethr) on eigenvalues was too large:
     Diagonalizing with lowered threshold

     Davidson diagonalization with overlap
     ethr =  2.10E-08,  avg # of iterations =  4.0

[...]

     total energy              =   -1733.56070848 Ry
     Harris-Foulkes estimate   =   -1733.56070854 Ry
     estimated scf accuracy    <       0.00000014 Ry

     iteration #  8     ecut=    36.75 Ry     beta=0.30
     Davidson diagonalization with overlap
     ethr =  8.75E-11,  avg # of iterations =  3.0

[...]

     negative rho (up, down):  1.179E+00 0.000E+00

     Adding external electric field

     Computed dipole along edir(3) :
        Dipole                0.2746 Ry au,          0.6979 Debye
        Dipole field          0.0007 Ry au

        Potential amp.       -0.0610 Ry
        Total length         45.8339 bohr

     End of self-consistent calculation

[...]

          k = 0.0558-0.0645 0.0000 ( 19521 PWs)   bands (ev):

[...]

          k =-0.0837-0.0483 0.0000 ( 19532 PWs)   bands (ev):

   -65.8984 -65.8696 -65.8176 -65.8139 -65.7870 -65.7848 -65.7621 -65.7138
   -65.7088 -65.6829 -65.6767 -65.6606 -32.4750 -32.4627 -32.4517 -32.4475
   -32.4351 -32.4258 -32.3488 -32.3420 -32.3327 -32.3297 -32.2841 -32.2654
   -32.2144 -32.2021 -32.1486 -32.1447 -32.0983 -32.0888 -32.0774 -32.0622
   -32.0301 -32.0268 -32.0031 -31.9737 -31.9627 -31.9470 -31.8930 -31.8729
   -31.8585 -31.8403 -31.8089 -31.7892 -31.7786 -31.7630 -31.7416 -31.6991
   -11.1026  -4.4442  -4.0585  -3.1913  -3.1084  -2.0618  -1.6781  -1.2483
    -0.8865  -0.8649  -0.6630  -0.5560  -0.4882  -0.4384   0.2899   0.3579
     0.4373   0.6559   0.7066   0.7226   0.9485   1.0456   1.1317   1.2139
     1.2992   1.4810   1.5298   1.6546   1.7992   1.8234   1.8589   1.9248
     2.0534   2.1460   2.1896   2.3444   2.7189   2.7342   2.8490   2.8575
     2.9326   3.5793   3.6853

     the Fermi energy is     2.4711 ev

!    total energy              =   -1733.56070847 Ry
     Harris-Foulkes estimate   =   -1733.56070856 Ry
     estimated scf accuracy    <       0.00000004 Ry

     The total energy is the sum of the following terms:

     one-electron contribution =  -11714.52246353 Ry
     hartree contribution      =    5844.12963384 Ry
     xc contribution           =    -528.90138804 Ry
     ewald contribution        =    4665.83461563 Ry
     electric field correction =       0.00018270 Ry
     smearing contrib. (-TS)   =      -0.10128908 Ry

     convergence has been achieved in   8 iterations

 BEEF-vdW xc energy contributions
           1 :   -465.428198498013
           2 :    429.455166215267
           3 :   -366.742576730720
           4 :    291.853085943891
           5 :   -219.298386683098
           6 :    159.135570198585
           7 :   -115.004362483827
           8 :    84.9415332026298
           9 :   -64.0952140244993
          10 :    47.7606485548818
          11 :   -33.3155304682158
          12 :    20.4639915984546
          13 :   -10.1760970700925
          14 :    3.27349908502288
          15 :   0.451668548302678
          16 :   -2.21306425294932
          17 :    3.52091005678153
          18 :   -5.34782489445951
          19 :    7.69959310803097
          20 :   -9.80427404030377
          21 :    10.7443404837312
          22 :   -10.1162806530554
          23 :    8.32234185485288
          24 :   -6.34649488881587
          25 :    5.18405396859566
          26 :   -5.28924944906612
          27 :    6.36726203986427
          28 :   -7.60883128206893
          29 :    8.19638741364190
          30 :   -7.76368800116234
          31 :   -41.7805276590203
          32 :   -30.9925458951784

     Forces acting on atoms (Ry/au):

     negative rho (up, down):  1.179E+00 0.000E+00
     atom    1 type  1   force =    -0.00003213   -0.00136050    0.00470402
     atom    2 type  1   force =    -0.00013837   -0.00266052    0.00512939
     atom    3 type  1   force =     0.00082639    0.00109952    0.00422592
     atom    4 type  1   force =    -0.00146873    0.00107245    0.00411585
     atom    5 type  1   force =     0.00685329   -0.01367288   -0.01188915
     atom    6 type  1   force =    -0.00748225   -0.01414123   -0.01240521
     atom    7 type  1   force =     0.00121718    0.02083158   -0.01142234
     atom    8 type  1   force =     0.00053020    0.00945327    0.01724100
     atom    9 type  1   force =    -0.00042051    0.00072015   -0.00087686
     atom   10 type  1   force =     0.00058531    0.00059977   -0.00023930
     atom   11 type  1   force =     0.00083247   -0.00007788   -0.00043626
     atom   12 type  1   force =     0.00039973    0.00055690    0.00069683
     atom   13 type  2   force =    -0.00140585   -0.00083813    0.00169103
     atom   14 type  3   force =     0.00169526    0.00028055   -0.00186763
     atom   15 type  3   force =    -0.00164549   -0.00015699    0.00019404
     atom   16 type  3   force =    -0.00034649   -0.00170605    0.00113867

     Total force =     0.004811     Total SCF correction =     0.000399

     entering subroutine stress ...

     negative rho (up, down):  1.179E+00 0.000E+00
          total   stress  (Ry/bohr**3)                   (kbar)     P=  -27.83
  -0.00026375  -0.00000146  -0.00000092        -38.80     -0.22     -0.14
  -0.00000146  -0.00024041  -0.00000094         -0.22    -35.37     -0.14
  -0.00000092  -0.00000094  -0.00006336         -0.14     -0.14     -9.32

     bfgs converged in  13 scf cycles and  12 bfgs steps
     (criteria: energy <  1.0E+00, force <  1.9E-03)

     End of BFGS Geometry Optimization

     Final energy   =   -1733.5607084709 Ry
Begin final coordinates

ATOMIC_POSITIONS (crystal)
Ta1      0.166666667   0.166666667   0.401991699    0   0   0
Ta1      0.666666667   0.166666667   0.401991699    0   0   0
Ta1      0.166666667   0.666666667   0.401991699    0   0   0
Ta1      0.666666667   0.666666667   0.401991699    0   0   0
Ta1      0.833333333   0.333333333   0.500000000    0   0   0
Ta1      0.333333333   0.333333333   0.500000000    0   0   0
Ta1      0.833333333   0.833333333   0.500000000    0   0   0
Ta1      0.333333333   0.833333333   0.500000000    0   0   0
Ta1      0.007026473   0.003477817   0.602025230
Ta1      0.498371510   0.002931297   0.601039262
Ta1     -0.017264141   0.534055992   0.592895993
Ta1      0.514835279   0.470244554   0.592599742
C1       0.250273398  -0.002210870   0.677124230
H1       0.424080849   0.000470401   0.692017033
H1       0.088343310   0.169943561   0.695664599
H1       0.261173216   0.827276005   0.696496478
End final coordinates

     Writing output data file calc.save

     General routines

     Parallel routines

   This run was terminated on:  11:52:46  23Apr2018

   JOB DONE.
Job  /afs/slac/g/suncat/bin/suncat-tsmpirun -x LD_LIBRARY_PATH -wdir /scratch/qe482433_7XE4t pw.x -npool 4 -in pw.inp

TID   HOST_NAME   COMMAND_LINE            STATUS            TERMINATION_TIME
00000 suncat0065 pw.x -npool 4 -i  Done                     04/23/2018 11:52:46
00001 suncat0065 pw.x -npool 4 -i  Done                     04/23/2018 11:52:46
00002 suncat0065 pw.x -npool 4 -i  Done                     04/23/2018 11:52:46
00003 suncat0065 pw.x -npool 4 -i  Done                     04/23/2018 11:52:46
00004 suncat0065 pw.x -npool 4 -i  Done                     04/23/2018 11:52:46
00005 suncat0065 pw.x -npool 4 -i  Done                     04/23/2018 11:52:46
00006 suncat0065 pw.x -npool 4 -i  Done                     04/23/2018 11:52:46
00007 suncat0065 pw.x -npool 4 -i  Done                     04/23/2018 11:52:46
00008 suncat0060 pw.x -npool 4 -i  Done                     04/23/2018 11:52:46
00009 suncat0060 pw.x -npool 4 -i  Done                     04/23/2018 11:52:46
00010 suncat0060 pw.x -npool 4 -i  Done                     04/23/2018 11:52:46
00011 suncat0060 pw.x -npool 4 -i  Done                     04/23/2018 11:52:46
00012 suncat0060 pw.x -npool 4 -i  Done                     04/23/2018 11:52:46
00013 suncat0060 pw.x -npool 4 -i  Done                     04/23/2018 11:52:46
00014 suncat0060 pw.x -npool 4 -i  Done                     04/23/2018 11:52:46
00015 suncat0060 pw.x -npool 4 -i  Done                     04/23/2018 11:52:46
00016 suncat0041 pw.x -npool 4 -i  Done                     04/23/2018 11:52:46
00017 suncat0041 pw.x -npool 4 -i  Done                     04/23/2018 11:52:46
00018 suncat0041 pw.x -npool 4 -i  Done                     04/23/2018 11:52:46
00019 suncat0041 pw.x -npool 4 -i  Done                     04/23/2018 11:52:46
00020 suncat0041 pw.x -npool 4 -i  Done                     04/23/2018 11:52:46
00021 suncat0041 pw.x -npool 4 -i  Done                     04/23/2018 11:52:46
00022 suncat0041 pw.x -npool 4 -i  Done                     04/23/2018 11:52:46
00023 suncat0041 pw.x -npool 4 -i  Done                     04/23/2018 11:52:46
00024 suncat0029 pw.x -npool 4 -i  Done                     04/23/2018 11:52:46
00025 suncat0029 pw.x -npool 4 -i  Done                     04/23/2018 11:52:46
00026 suncat0029 pw.x -npool 4 -i  Done                     04/23/2018 11:52:46
00027 suncat0029 pw.x -npool 4 -i  Done                     04/23/2018 11:52:46
00028 suncat0029 pw.x -npool 4 -i  Done                     04/23/2018 11:52:46
00029 suncat0029 pw.x -npool 4 -i  Done                     04/23/2018 11:52:46
00030 suncat0029 pw.x -npool 4 -i  Done                     04/23/2018 11:52:46
00031 suncat0029 pw.x -npool 4 -i  Done                     04/23/2018 11:52:46