     Program PWSCF v.5.1rc2 (svn rev. 11289) starts on 14Jan2018 at  3:27:23

     Current dimensions of program PWSCF are:
     Max number of different atomic species (ntypx) = 10
     Max number of k-points (npk) =  40000
     Max angular momentum in pseudopotentials (lmaxx) =  3
     Presently stress not available with electric field

     IMPORTANT: XC functional enforced from input :
     Exchange-correlation      = BEEF-VDW ( 1  4 27 13 2)
     Any further DFT definition will be discarded
     Please, verify this is what you really want

     Subspace diagonalization in iterative solution of the eigenvalue problem:
     a serial algorithm will be used

     bravais-lattice index     =            0
     lattice parameter (alat)  =       1.8897  a.u.
     unit-cell volume          =    4306.9643 (a.u.)^3
     number of atoms/cell      =           13
     number of atomic types    =            2
     number of electrons       =       181.00
     number of Kohn-Sham states=          100
     kinetic-energy cutoff     =      36.7493  Ry
     charge density cutoff     =     367.4932  Ry
     convergence threshold     =      1.0E-05
     mixing beta               =       0.3000
     number of iterations used =           10  plain     mixing
     Exchange-correlation      = BEEF-VDW ( 1  4 27 13 2)
     nstep                     =           50

     celldm(1)=   1.889726  celldm(2)=   0.000000  celldm(3)=   0.000000
     celldm(4)=   0.000000  celldm(5)=   0.000000  celldm(6)=   0.000000

     crystal axes: (cart. coord. in units of alat)
               a(1) = (   5.486772   0.000000   0.000000 )
               a(2) = (   2.743386   4.751684   0.000000 )
               a(3) = (   0.000000   0.000000  24.479931 )

     reciprocal axes: (cart. coord. in units 2 pi/alat)
               b(1) = (  0.182257 -0.105226  0.000000 )
               b(2) = (  0.000000  0.210452  0.000000 )
               b(3) = (  0.000000  0.000000  0.040850 )

     PseudoPot. # 1 for Re read from file:
     /afs/slac.stanford.edu/u/if/mamunm/psp/gbrv1.5pbe/Re.UPF
     MD5 check sum: 85f993410f3e006da9d71c142b4ad953
     Pseudo is Ultrasoft + core correction, Zval = 15.0
     Generated by new atomic code, or converted to UPF format
     Using radial grid of  981 points,  8 beta functions with:
                l(1) =   0
                l(2) =   0
                l(3) =   1
                l(4) =   1
                l(5) =   2
                l(6) =   2
                l(7) =   3
                l(8) =   3
     Q(r) pseudized with  8 coefficients,  rinner =    1.150   1.150   1.150
                                                       1.150   1.150   1.150
                                                       1.150

     PseudoPot. # 2 for H  read from file:
     /afs/slac.stanford.edu/u/if/mamunm/psp/gbrv1.5pbe/H.UPF
     MD5 check sum: 761ae9a214b05c3daf00ab9f6b793d6f
     Pseudo is Ultrasoft, Zval =  1.0
     Generated by new atomic code, or converted to UPF format
     Using radial grid of  615 points,  2 beta functions with:
                l(1) =   0
                l(2) =   0
     Q(r) pseudized with  8 coefficients,  rinner =    0.700

     vdW kernel table read from file vdW_kernel_table
     MD5 check sum: 095c7af220d748ca6e76c0b4c6cfb241

     atomic species   valence    mass     pseudopotential
        Re1           15.00   186.20700     Re( 1.00)
        H1             1.00     1.00800     H ( 1.00)

     No symmetry found

   Cartesian axes

     site n.     atom                  positions (alat units)
         1           Re1 tau(   1) = (   1.3716930   0.7919474  10.0000000  )
         2           Re1 tau(   2) = (   4.1150791   0.7919474  10.0000000  )
         3           Re1 tau(   3) = (   2.7433861   3.1677894  10.0000000  )
         4           Re1 tau(   4) = (   5.4867722   3.1677894  10.0000000  )
         5           Re1 tau(   5) = (   5.4867722   1.5838947  12.2399654  )
         6           Re1 tau(   6) = (   2.7433861   1.5838947  12.2399654  )
         7           Re1 tau(   7) = (   6.8584652   3.9597368  12.2399654  )
         8           Re1 tau(   8) = (   4.1150791   3.9597368  12.2399654  )
         9           Re1 tau(   9) = (   0.0000000   0.0000000  14.4799307  )
        10           Re1 tau(  10) = (   2.7433861   0.0000000  14.4799307  )
        11           Re1 tau(  11) = (   1.3716930   2.3758421  14.4799307  )
        12           Re1 tau(  12) = (   4.1150791   2.3758421  14.4799307  )
        13           H1  tau(  13) = (   1.3716930   0.0000000  16.2999307  )

     number of k points=    20  Fermi-Dirac smearing, width (Ry)=  0.0110
                       cart. coord. in units 2pi/alat
        k(    1) = (   0.0000000   0.0000000   0.0000000), wk =   0.0555556
        k(    2) = (   0.0000000   0.0350753   0.0000000), wk =   0.1111111
        k(    3) = (   0.0000000   0.0701506   0.0000000), wk =   0.1111111
        k(    4) = (   0.0000000  -0.1052259   0.0000000), wk =   0.0555556
        k(    5) = (   0.0303761  -0.0175376   0.0000000), wk =   0.1111111
        k(    6) = (   0.0303761   0.0175376   0.0000000), wk =   0.1111111
        k(    7) = (   0.0303761   0.0526129   0.0000000), wk =   0.1111111
        k(    8) = (   0.0303761  -0.1227635   0.0000000), wk =   0.1111111
        k(    9) = (   0.0303761  -0.0876882   0.0000000), wk =   0.1111111
        k(   10) = (   0.0303761  -0.0526129   0.0000000), wk =   0.1111111
        k(   11) = (   0.0607522  -0.0350753   0.0000000), wk =   0.1111111
        k(   12) = (   0.0607522   0.0000000   0.0000000), wk =   0.1111111
        k(   13) = (   0.0607522   0.0350753   0.0000000), wk =   0.1111111
        k(   14) = (   0.0607522  -0.1403011   0.0000000), wk =   0.1111111
        k(   15) = (   0.0607522  -0.1052259   0.0000000), wk =   0.1111111
        k(   16) = (   0.0607522  -0.0701506   0.0000000), wk =   0.1111111
        k(   17) = (  -0.0911283   0.0526129   0.0000000), wk =   0.0555556
        k(   18) = (  -0.0911283   0.0876882   0.0000000), wk =   0.1111111
        k(   19) = (  -0.0911283   0.1227635   0.0000000), wk =   0.1111111
        k(   20) = (  -0.0911283  -0.0526129   0.0000000), wk =   0.0555556

     Largest allocated arrays     est. size (Mb)     dimensions
     Largest temporary arrays     est. size (Mb)     dimensions

     Initial potential from superposition of free atoms
     Check: negative starting charge=   -1.539594

     starting charge  174.99945, renormalised to  181.00000

     negative rho (up, down):  1.592E+00 0.000E+00

     *
     * You are using vdW-DF for exchange-correlation in this calculation.
     * Please cite the following three references that made this development
     * possible:
     *
     *   M. Dion, H. Rydberg, E. Schroder, D. C. Langreth, and
     *   B. I. Lundqvist, Phys. Rev. Lett. 92, 246401 (2004).
     *
     *   T. Thonhauser, V. R. Cooper, S. Li, A. Puzder, P. Hyldgaard, and
     *   D. C. Langreth, Phys. Rev. B 76, 125112 (2007).
     *
     *   G. Roman-Perez and J. M. Soler, Phys. Rev. Lett. 103, 096102 (2009).
     *
     *
     * If you are using vdW-DF2, please also cite:
     *
     *   K. Lee, E. D. Murray, L. Kong, B. I. Lundqvist, and
     *   D. C. Langreth, Phys. Rev. B 82, 081101(R) (2010).
     *
     *
     * If you are calculating the stress with vdW-DF, please also cite:
     *
     *   R. Sabatini, E. Kucukbenli, B. Kolb, T. Thonhauser, and
     *   S. de Gironcoli, J. Phys.: Condens. Matter 24, 424209 (2012).
     *

     Carrying out vdW-DF run using the following parameters:

     Nqs =      20    Nr_points =    1024   r_max =   100.000
     q_mesh =
               0.00001000     0.04494208     0.09755937     0.15916263
               0.23128650     0.31572767     0.41458969     0.53033537
               0.66584808     0.82450364     1.01025438     1.22772762
               1.48234092     1.78043706     2.12944203     2.53805004
               3.01644009     3.57652955     4.23227104     5.00000000

     Gradients computed in reciprocal space

     Adding external electric field

     Computed dipole along edir(3) :
        Dipole               -0.2630 Ry au,         -0.6685 Debye
        Dipole field         -0.0008 Ry au

        Potential amp.        0.0692 Ry
        Total length         45.1039 bohr

     Starting wfc are  157 randomized atomic wfcs

     Self-consistent Calculation

     iteration #  1     ecut=    36.75 Ry     beta=0.30
     Davidson diagonalization with overlap
     ethr =  1.00E-02,  avg # of iterations =  2.0

[...]

     total energy              =   -2306.25554331 Ry
     Harris-Foulkes estimate   =   -2307.77795813 Ry
     estimated scf accuracy    <       3.58353288 Ry

[...]

     End of self-consistent calculation

          k = 0.0000 0.0000 0.0000 ( 16091 PWs)   bands (ev):

   -77.7102 -77.6324 -77.6257 -77.6107 -77.5958 -77.5706 -77.5498 -77.5327
   -77.5114 -77.4815 -77.4789 -77.4768 -39.9658 -39.9590 -39.9510 -39.8513
   -39.7835 -39.7630 -39.7572 -39.6444 -39.6345 -39.6265 -39.4226 -39.3266
   -39.3150 -39.2959 -39.2713 -39.2709 -39.2665 -39.2052 -39.2015 -39.1948
   -39.0852 -39.0766 -39.0650 -38.9910 -38.9820 -38.9666 -38.9645 -38.9561
   -38.9508 -38.8978 -38.8971 -38.8956 -38.7557 -38.7556 -38.6956 -38.6952
    -6.3171  -4.4092  -3.7974  -3.4028  -3.3823  -3.3802  -3.0981  -3.0717
    -3.0605  -2.4374  -2.3855  -2.3816  -2.2259  -2.1932  -2.1788  -1.0552
    -0.6546  -0.6457  -0.0772   0.4076   0.4129   0.4415   0.7199   0.9468
     1.0732   1.0758   1.5301   1.5303   1.5598   1.5675   1.5739   1.5870
     1.5937   1.6356   1.8432   1.8435   2.6405   3.1441   3.1625   3.2209
     3.5695   3.5730   3.5837   4.1452   4.1464   4.2754   4.6473   4.6597
     4.7034   4.7106   4.9257   4.9979

[...]

          k =-0.0911 0.0526 0.0000 ( 16164 PWs)   bands (ev):

[...]

     the Fermi energy is     2.9370 ev

!    total energy              =   -2306.99834473 Ry
     Harris-Foulkes estimate   =   -2306.99834707 Ry
     estimated scf accuracy    <       0.00000269 Ry

     The total energy is the sum of the following terms:

     one-electron contribution =  -18481.31773210 Ry
     hartree contribution      =    9225.52631917 Ry
     xc contribution           =    -649.97298244 Ry
     ewald contribution        =    7598.83405179 Ry
     electric field correction =       0.00000045 Ry
     smearing contrib. (-TS)   =      -0.06800160 Ry

     convergence has been achieved in  15 iterations

 BEEF-vdW xc energy contributions
           1 :   -577.992266791355
           2 :    537.468644611899
           3 :   -464.663941000139
           4 :    373.346792392998
           5 :   -278.771830271138
           6 :    193.779363808068
           7 :   -126.164974893863
           8 :    77.9421697158897
           9 :   -46.4384653087681
          10 :    26.5305052073376
          11 :   -13.0357301170642
          12 :    2.40066038893417
          13 :    6.73164182277640
          14 :   -13.9880002741071
          15 :    18.3123787648939
          16 :   -19.0340637315460
          17 :    16.5084941602045
          18 :   -12.1340518400419
          19 :    7.82716343543450
[...]

[...]

   This run was terminated on:   4: 6:46  14Jan2018

[...]

     Program PWSCF v.5.1rc2 (svn rev. 11289) starts on 14Jan2018 at  4: 6:51

[...]

     iteration # 10     ecut=    36.75 Ry     beta=0.30
     Davidson diagonalization with overlap
     c_bands:  1 eigenvalues not converged
     ethr =  1.73E-06,  avg # of iterations =  8.4

[...]

     Program PWSCF v.5.1rc2 (svn rev. 11289) starts on 14Jan2018 at  4:33: 4

[...]

     Program PWSCF v.5.1rc2 (svn rev. 11289) starts on 14Jan2018 at  4:57:42

[...]

   This run was terminated on:   5: 9:53  14Jan2018

[...]

     Program PWSCF v.5.1rc2 (svn rev. 11289) starts on 14Jan2018 at  5: 9:58

     Current dimensions of program PWSCF are:
     Max number of different atomic species (ntypx) = 10
     Max number of k-points (npk) =  40000
     Max angular momentum in pseudopotentials (lmaxx) =  3
     Presently stress not available with electric field

     IMPORTANT: XC functional enforced from input :
     Exchange-correlation      = BEEF-VDW ( 1  4 27 13 2)
     Any further DFT definition will be discarded
     Please, verify this is what you really want

     Subspace diagonalization in iterative solution of the eigenvalue problem:
     a serial algorithm will be used

     bravais-lattice index     =            0
     lattice parameter (alat)  =       1.8897  a.u.
     unit-cell volume          =    4306.9643 (a.u.)^3
     number of atoms/cell      =           13
     number of atomic types    =            2
     number of electrons       =       181.00
     number of Kohn-Sham states=          100
     kinetic-energy cutoff     =      36.7493  Ry
     charge density cutoff     =     367.4932  Ry
     convergence threshold     =      1.0E-05
     mixing beta               =       0.3000
     number of iterations used =           10  plain     mixing
     Exchange-correlation      = BEEF-VDW ( 1  4 27 13 2)
     nstep                     =           50

     celldm(1)=   1.889726  celldm(2)=   0.000000  celldm(3)=   0.000000
     celldm(4)=   0.000000  celldm(5)=   0.000000  celldm(6)=   0.000000

     crystal axes: (cart. coord. in units of alat)
               a(1) = (   5.486772   0.000000   0.000000 )
               a(2) = (   2.743386   4.751684   0.000000 )
               a(3) = (   0.000000   0.000000  24.479931 )

     reciprocal axes: (cart. coord. in units 2 pi/alat)
               b(1) = (  0.182257 -0.105226  0.000000 )
               b(2) = (  0.000000  0.210452  0.000000 )
               b(3) = (  0.000000  0.000000  0.040850 )

     PseudoPot. # 1 for Re read from file:
     /afs/slac.stanford.edu/u/if/mamunm/psp/gbrv1.5pbe/Re.UPF
     MD5 check sum: 85f993410f3e006da9d71c142b4ad953
     Pseudo is Ultrasoft + core correction, Zval = 15.0
     Generated by new atomic code, or converted to UPF format
     Using radial grid of  981 points,  8 beta functions with:
                l(1) =   0
                l(2) =   0
                l(3) =   1
                l(4) =   1
                l(5) =   2
                l(6) =   2
                l(7) =   3
                l(8) =   3
     Q(r) pseudized with  8 coefficients,  rinner =    1.150   1.150   1.150
                                                       1.150   1.150   1.150
                                                       1.150

     PseudoPot. # 2 for H  read from file:
     /afs/slac.stanford.edu/u/if/mamunm/psp/gbrv1.5pbe/H.UPF
     MD5 check sum: 761ae9a214b05c3daf00ab9f6b793d6f
     Pseudo is Ultrasoft, Zval =  1.0
     Generated by new atomic code, or converted to UPF format
     Using radial grid of  615 points,  2 beta functions with:
                l(1) =   0
                l(2) =   0
     Q(r) pseudized with  8 coefficients,  rinner =    0.700

     vdW kernel table read from file vdW_kernel_table
     MD5 check sum: 095c7af220d748ca6e76c0b4c6cfb241

     atomic species   valence    mass     pseudopotential
        Re1           15.00   186.20700     Re( 1.00)
        H1             1.00     1.00800     H ( 1.00)

     No symmetry found

   Cartesian axes

     site n.     atom                  positions (alat units)
         1           Re1 tau(   1) = (   1.3716930   0.7919474  10.0000000  )
         2           Re1 tau(   2) = (   4.1150791   0.7919474  10.0000000  )
         3           Re1 tau(   3) = (   2.7433861   3.1677894  10.0000000  )
         4           Re1 tau(   4) = (   5.4867722   3.1677894  10.0000000  )
         5           Re1 tau(   5) = (   5.4867722   1.5838947  12.2399654  )
         6           Re1 tau(   6) = (   2.7433861   1.5838947  12.2399654  )
         7           Re1 tau(   7) = (   6.8584652   3.9597368  12.2399654  )
         8           Re1 tau(   8) = (   4.1150791   3.9597368  12.2399654  )
         9           Re1 tau(   9) = (   5.4802569   0.0230683  14.4556017  )
        10           Re1 tau(  10) = (   2.7499039   0.0231114  14.4555768  )
        11           Re1 tau(  11) = (   6.8584811   2.4204326  14.4161176  )
        12           Re1 tau(  12) = (   4.1150503   2.3604572  14.3976265  )
        13           H1  tau(  13) = (   1.3716822   0.0411728  15.7085232  )

     number of k points=    20  Fermi-Dirac smearing, width (Ry)=  0.0110
                       cart. coord. in units 2pi/alat
        k(    1) = (   0.0000000   0.0000000   0.0000000), wk =   0.0555556
        k(    2) = (   0.0000000   0.0350753   0.0000000), wk =   0.1111111
        k(    3) = (   0.0000000   0.0701506   0.0000000), wk =   0.1111111
        k(    4) = (   0.0000000  -0.1052259   0.0000000), wk =   0.0555556
        k(    5) = (   0.0303761  -0.0175376   0.0000000), wk =   0.1111111
        k(    6) = (   0.0303761   0.0175376   0.0000000), wk =   0.1111111
        k(    7) = (   0.0303761   0.0526129   0.0000000), wk =   0.1111111
        k(    8) = (   0.0303761  -0.1227635   0.0000000), wk =   0.1111111
        k(    9) = (   0.0303761  -0.0876882   0.0000000), wk =   0.1111111
        k(   10) = (   0.0303761  -0.0526129   0.0000000), wk =   0.1111111
        k(   11) = (   0.0607522  -0.0350753   0.0000000), wk =   0.1111111
        k(   12) = (   0.0607522   0.0000000   0.0000000), wk =   0.1111111
        k(   13) = (   0.0607522   0.0350753   0.0000000), wk =   0.1111111
        k(   14) = (   0.0607522  -0.1403011   0.0000000), wk =   0.1111111
        k(   15) = (   0.0607522  -0.1052259   0.0000000), wk =   0.1111111
        k(   16) = (   0.0607522  -0.0701506   0.0000000), wk =   0.1111111
        k(   17) = (  -0.0911283   0.0526129   0.0000000), wk =   0.0555556
        k(   18) = (  -0.0911283   0.0876882   0.0000000), wk =   0.1111111
        k(   19) = (  -0.0911283   0.1227635   0.0000000), wk =   0.1111111
        k(   20) = (  -0.0911283  -0.0526129   0.0000000), wk =   0.0555556

     Largest allocated arrays     est. size (Mb)     dimensions
     Largest temporary arrays     est. size (Mb)     dimensions

     Initial potential from superposition of free atoms
     Check: negative starting charge=   -1.539029

     starting charge  174.99945, renormalised to  181.00000

[...]

     *
     * You are using vdW-DF for exchange-correlation in this calculation.
     * Please cite the following three references that made this development
     * possible:
     *
     *   M. Dion, H. Rydberg, E. Schroder, D. C. Langreth, and
     *   B. I. Lundqvist, Phys. Rev. Lett. 92, 246401 (2004).
     *
     *   T. Thonhauser, V. R. Cooper, S. Li, A. Puzder, P. Hyldgaard, and
     *   D. C. Langreth, Phys. Rev. B 76, 125112 (2007).
     *
     *   G. Roman-Perez and J. M. Soler, Phys. Rev. Lett. 103, 096102 (2009).
     *
     *
     * If you are using vdW-DF2, please also cite:
     *
     *   K. Lee, E. D. Murray, L. Kong, B. I. Lundqvist, and
     *   D. C. Langreth, Phys. Rev. B 82, 081101(R) (2010).
     *
     *
     * If you are calculating the stress with vdW-DF, please also cite:
     *
     *   R. Sabatini, E. Kucukbenli, B. Kolb, T. Thonhauser, and
     *   S. de Gironcoli, J. Phys.: Condens. Matter 24, 424209 (2012).
     *

     Carrying out vdW-DF run using the following parameters:

     Nqs =      20    Nr_points =    1024   r_max =   100.000
     q_mesh =
               0.00001000     0.04494208     0.09755937     0.15916263
               0.23128650     0.31572767     0.41458969     0.53033537
               0.66584808     0.82450364     1.01025438     1.22772762
               1.48234092     1.78043706     2.12944203     2.53805004
               3.01644009     3.57652955     4.23227104     5.00000000

     Gradients computed in reciprocal space

[...]

     Starting wfc are  157 randomized atomic wfcs

     Self-consistent Calculation

[...]

     total energy              =   -2307.05350046 Ry
     Harris-Foulkes estimate   =   -2307.05350147 Ry
     estimated scf accuracy    <       0.00001988 Ry

     iteration # 14     ecut=    36.75 Ry     beta=0.30
     Davidson diagonalization with overlap
     ethr =  1.10E-08,  avg # of iterations =  4.0

[...]

     negative rho (up, down):  1.621E+00 0.000E+00

     Adding external electric field

     Computed dipole along edir(3) :
        Dipole                0.0754 Ry au,          0.1916 Debye
        Dipole field          0.0002 Ry au

        Potential amp.       -0.0198 Ry
        Total length         45.1039 bohr

     End of self-consistent calculation

[...]

          k = 0.0608-0.0702 0.0000 ( 16218 PWs)   bands (ev):

[...]

          k =-0.0911-0.0526 0.0000 ( 16164 PWs)   bands (ev):

   -77.5972 -77.5916 -77.5502 -77.5410 -77.4804 -77.4764 -77.4645 -77.4590
   -77.4325 -77.4282 -77.4261 -77.4233 -39.7439 -39.7368 -39.6808 -39.6603
   -39.6010 -39.5868 -39.5115 -39.4958 -39.4410 -39.4206 -39.4029 -39.4000
   -39.2293 -39.2006 -39.1751 -39.1556 -39.1486 -39.1362 -39.1251 -39.1232
   -39.1156 -39.0978 -39.0892 -39.0816 -39.0452 -39.0318 -39.0223 -39.0178
   -38.9308 -38.9136 -38.8820 -38.8671 -38.7829 -38.7708 -38.7384 -38.7377
    -4.3413  -4.2626  -3.3400  -2.6730  -2.3400  -2.1668  -2.1435  -2.1073
    -2.0954  -2.0127  -1.7823  -1.3006  -1.2688  -0.9656  -0.8813  -0.8188
    -0.7658  -0.4278  -0.3934  -0.3292  -0.2346   0.0896   0.1507   0.6435
     0.7392   0.8612   0.9418   1.0319   1.0472   1.0770   1.0996   1.2010
     1.3104   1.4493   1.5477   1.5921   1.6099   1.6644   2.0462   2.0740
     2.7498   2.8567   2.9659   3.0071   3.1286   3.1759   3.4838   3.5609
     3.7866   3.9045   3.9584   4.0153

     the Fermi energy is     3.0056 ev

!    total energy              =   -2307.05349799 Ry
     Harris-Foulkes estimate   =   -2307.05349505 Ry
     estimated scf accuracy    <       0.00000465 Ry

     The total energy is the sum of the following terms:

     one-electron contribution =  -18646.45798172 Ry
     hartree contribution      =    9308.42856630 Ry
     xc contribution           =    -650.26580551 Ry
     ewald contribution        =    7681.30909773 Ry
     electric field correction =       0.00001658 Ry
     smearing contrib. (-TS)   =      -0.06739137 Ry

     convergence has been achieved in  14 iterations

 BEEF-vdW xc energy contributions
           1 :   -578.283480537066
           2 :    537.835073849641
           3 :   -465.121888679487
           4 :    373.840143827489
           5 :   -279.201495384628
           6 :    194.054193253591
           7 :   -126.249737593530
           8 :    77.8767551281650
           9 :   -46.3187937089994
          10 :    26.4621299509332
          11 :   -13.0848874817951
          12 :    2.56726768604619
          13 :    6.50755470363185
          14 :   -13.7928000464971
          15 :    18.2167340212488
          16 :   -19.0619381190797
          17 :    16.6299035766825
          18 :   -12.2831093655467
          19 :    7.93438843760850
          20 :   -5.27793851257695
          21 :    5.13411117203884
          22 :   -7.19514883290287
          23 :    10.2561618722058
          24 :   -12.8007237814247
          25 :    13.6661660029301
          26 :   -12.4998491105467
          27 :    9.82662314186712
          28 :   -6.73221406465188
          29 :    4.33597117166698
          30 :   -3.30701644851524
          31 :   -48.0252263067433
          32 :   -35.6713178683264

     Forces acting on atoms (Ry/au):

     negative rho (up, down):  1.621E+00 0.000E+00
     atom    1 type  1   force =    -0.00000142    0.00082511    0.01478251
     atom    2 type  1   force =     0.00000070    0.00155956    0.01555362
     atom    3 type  1   force =    -0.00119455    0.00133973    0.01358721
     atom    4 type  1   force =     0.00118775    0.00134177    0.01356590
     atom    5 type  1   force =    -0.00062325   -0.00352286   -0.01111057
     atom    6 type  1   force =     0.00062444   -0.00352063   -0.01112088
     atom    7 type  1   force =     0.00000063   -0.00330435   -0.02789051
     atom    8 type  1   force =    -0.00000292    0.00435856   -0.00704838
     atom    9 type  1   force =    -0.00045617   -0.00024168    0.00035699
     atom   10 type  1   force =     0.00046257   -0.00027724    0.00037328
     atom   11 type  1   force =    -0.00002177   -0.00054937   -0.00054509
     atom   12 type  1   force =     0.00002386    0.00039506   -0.00099981
     atom   13 type  2   force =     0.00000015    0.00159634    0.00049573

     Total force =     0.044432     Total SCF correction =     0.019765
     SCF correction compared to forces is large: reduce conv_thr to get better values

     entering subroutine stress ...

     negative rho (up, down):  1.621E+00 0.000E+00
          total   stress  (Ry/bohr**3)                   (kbar)     P=  -17.02
  -0.00013333   0.00000001   0.00000001        -19.61      0.00      0.00
   0.00000001  -0.00011911  -0.00000317          0.00    -17.52     -0.47
   0.00000001  -0.00000317  -0.00009460          0.00     -0.47    -13.92

 !ASE

     Writing output data file calc.save

     General routines

     Parallel routines

   This run was terminated on:   5:22:16  14Jan2018

   JOB DONE.
Job  /afs/slac/g/suncat/bin/suncat-tsmpirun -x LD_LIBRARY_PATH -wdir /scratch/qe842473_RrDOy pw.x -in pw.inp

TID   HOST_NAME   COMMAND_LINE            STATUS            TERMINATION_TIME
00000 suncat0050 pw.x -in pw.inp   Done                     01/14/2018 05:22:16
00001 suncat0050 pw.x -in pw.inp   Done                     01/14/2018 05:22:16
00002 suncat0050 pw.x -in pw.inp   Done                     01/14/2018 05:22:16
00003 suncat0050 pw.x -in pw.inp   Done                     01/14/2018 05:22:16
00004 suncat0050 pw.x -in pw.inp   Done                     01/14/2018 05:22:16
00005 suncat0050 pw.x -in pw.inp   Done                     01/14/2018 05:22:16
00006 suncat0050 pw.x -in pw.inp   Done                     01/14/2018 05:22:16
00007 suncat0050 pw.x -in pw.inp   Done                     01/14/2018 05:22:16
00008 suncat0242 pw.x -in pw.inp   Done                     01/14/2018 05:22:16
00009 suncat0242 pw.x -in pw.inp   Done                     01/14/2018 05:22:16
00010 suncat0242 pw.x -in pw.inp   Done                     01/14/2018 05:22:16
00011 suncat0242 pw.x -in pw.inp   Done                     01/14/2018 05:22:16
00012 suncat0242 pw.x -in pw.inp   Done                     01/14/2018 05:22:16
00013 suncat0242 pw.x -in pw.inp   Done                     01/14/2018 05:22:16
00014 suncat0242 pw.x -in pw.inp   Done                     01/14/2018 05:22:16
00015 suncat0242 pw.x -in pw.inp   Done                     01/14/2018 05:22:16
00016 suncat0241 pw.x -in pw.inp   Done                     01/14/2018 05:22:16
00017 suncat0241 pw.x -in pw.inp   Done                     01/14/2018 05:22:16
00018 suncat0241 pw.x -in pw.inp   Done                     01/14/2018 05:22:16
00019 suncat0241 pw.x -in pw.inp   Done                     01/14/2018 05:22:16
00020 suncat0241 pw.x -in pw.inp   Done                     01/14/2018 05:22:16
00021 suncat0241 pw.x -in pw.inp   Done                     01/14/2018 05:22:16
00022 suncat0241 pw.x -in pw.inp   Done                     01/14/2018 05:22:16
00023 suncat0241 pw.x -in pw.inp   Done                     01/14/2018 05:22:16
00024 suncat0240 pw.x -in pw.inp   Done                     01/14/2018 05:22:16
00025 suncat0240 pw.x -in pw.inp   Done                     01/14/2018 05:22:16
00026 suncat0240 pw.x -in pw.inp   Done                     01/14/2018 05:22:16
00027 suncat0240 pw.x -in pw.inp   Done                     01/14/2018 05:22:16
00028 suncat0240 pw.x -in pw.inp   Done                     01/14/2018 05:22:16
00029 suncat0240 pw.x -in pw.inp   Done                     01/14/2018 05:22:16
00030 suncat0240 pw.x -in pw.inp   Done                     01/14/2018 05:22:16
00031 suncat0240 pw.x -in pw.inp   Done                     01/14/2018 05:22:16