     Program PWSCF v.5.1rc2 (svn rev. 11289) starts on  3May2018 at  8:59:45

     Current dimensions of program PWSCF are:
     Max number of different atomic species (ntypx) = 10
     Max number of k-points (npk) =  40000
     Max angular momentum in pseudopotentials (lmaxx) =  3
     Presently stress not available with electric field

     IMPORTANT: XC functional enforced from input :
     Exchange-correlation      = BEEF-VDW ( 1  4 27 13 2)
     Any further DFT definition will be discarded
     Please, verify this is what you really want

     Subspace diagonalization in iterative solution of the eigenvalue problem:
     a serial algorithm will be used

     bravais-lattice index     =            0
     lattice parameter (alat)  =       1.8897  a.u.
     unit-cell volume          =    5182.3421 (a.u.)^3
     number of atoms/cell      =           13
     number of atomic types    =            2
     number of electrons       =       160.00
     number of Kohn-Sham states=           90
     kinetic-energy cutoff     =      36.7493  Ry
     charge density cutoff     =     367.4932  Ry
     convergence threshold     =      1.0E-05
     mixing beta               =       0.3000
     number of iterations used =           10  plain     mixing
     Exchange-correlation      = BEEF-VDW ( 1  4 27 13 2)
     nstep                     =           50

     celldm(1)=   1.889726  celldm(2)=   0.000000  celldm(3)=   0.000000
     celldm(4)=   0.000000  celldm(5)=   0.000000  celldm(6)=   0.000000

     crystal axes: (cart. coord. in units of alat)
               a(1) = (   5.970602   0.000000   0.000000 )
               a(2) = (   2.985301   5.170693   0.000000 )
               a(3) = (   0.000000   0.000000  24.874976 )

     reciprocal axes: (cart. coord. in units 2 pi/alat)
               b(1) = (  0.167487 -0.096699  0.000000 )
               b(2) = (  0.000000  0.193398  0.000000 )
               b(3) = (  0.000000  0.000000  0.040201 )

     PseudoPot. # 1 for Nb read from file:
     /u/if/mamunm/psp/gbrv1.5pbe/Nb.UPF
     MD5 check sum: 573aab8a2fa660278ed4a62cd769473f
     Pseudo is Ultrasoft + core correction, Zval = 13.0
     Generated by new atomic code, or converted to UPF format
     Using radial grid of  887 points,  6 beta functions with:
                l(1) =   0
                l(2) =   0
                l(3) =   1
                l(4) =   1
                l(5) =   2
                l(6) =   2
     Q(r) pseudized with  6 coefficients,  rinner =    1.000   1.000   1.000
                                                       1.000   1.000

     PseudoPot. # 2 for C  read from file:
     /u/if/mamunm/psp/gbrv1.5pbe/C.UPF
     MD5 check sum: d1aef80898a10debaa0f26306b886e00
     Pseudo is Ultrasoft + core correction, Zval =  4.0
     Generated by new atomic code, or converted to UPF format
     Using radial grid of  721 points,  4 beta functions with:
                l(1) =   0
                l(2) =   0
                l(3) =   1
                l(4) =   1
     Q(r) pseudized with  8 coefficients,  rinner =    1.100   1.100   1.100

     vdW kernel table read from file vdW_kernel_table
     MD5 check sum: 095c7af220d748ca6e76c0b4c6cfb241

     atomic species   valence    mass     pseudopotential
        Nb1           13.00    92.90637     Nb( 1.00)
        C1             4.00    12.01100     C ( 1.00)

     No symmetry found

   Cartesian axes

     site n.     atom                  positions (alat units)
         1           Nb1 tau(   1) = (   1.4926504   0.8617821  10.0000000  )
         2           Nb1 tau(   2) = (   4.4779512   0.8617821  10.0000000  )
         3           Nb1 tau(   3) = (   2.9853008   3.4471284  10.0000000  )
         4           Nb1 tau(   4) = (   5.9706016   3.4471284  10.0000000  )
         5           Nb1 tau(   5) = (   5.9706016   1.7235642  12.4374879  )
         6           Nb1 tau(   6) = (   2.9853008   1.7235642  12.4374879  )
         7           Nb1 tau(   7) = (   7.4632520   4.3089105  12.4374879  )
         8           Nb1 tau(   8) = (   4.4779512   4.3089105  12.4374879  )
         9           Nb1 tau(   9) = (   0.0000000   0.0000000  14.8749758  )
        10           Nb1 tau(  10) = (   2.9853008   0.0000000  14.8749758  )
        11           Nb1 tau(  11) = (   1.4926504   2.5853463  14.8749758  )
        12           Nb1 tau(  12) = (   4.4779512   2.5853463  14.8749758  )
        13           C1  tau(  13) = (   0.0000000   0.0000000  16.9149758  )

     number of k points=    20  Fermi-Dirac smearing, width (Ry)=  0.0110
                       cart. coord. in units 2pi/alat
        k(    1) = (   0.0000000   0.0000000   0.0000000), wk =   0.0555556
        k(    2) = (   0.0000000   0.0322329   0.0000000), wk =   0.1111111
        k(    3) = (   0.0000000   0.0644659   0.0000000), wk =   0.1111111
        k(    4) = (   0.0000000  -0.0966988   0.0000000), wk =   0.0555556
        k(    5) = (   0.0279146  -0.0161165   0.0000000), wk =   0.1111111
        k(    6) = (   0.0279146   0.0161165   0.0000000), wk =   0.1111111
        k(    7) = (   0.0279146   0.0483494   0.0000000), wk =   0.1111111
        k(    8) = (   0.0279146  -0.1128153   0.0000000), wk =   0.1111111
        k(    9) = (   0.0279146  -0.0805824   0.0000000), wk =   0.1111111
        k(   10) = (   0.0279146  -0.0483494   0.0000000), wk =   0.1111111
        k(   11) = (   0.0558291  -0.0322329   0.0000000), wk =   0.1111111
        k(   12) = (   0.0558291   0.0000000   0.0000000), wk =   0.1111111
        k(   13) = (   0.0558291   0.0322329   0.0000000), wk =   0.1111111
        k(   14) = (   0.0558291  -0.1289318   0.0000000), wk =   0.1111111
        k(   15) = (   0.0558291  -0.0966988   0.0000000), wk =   0.1111111
        k(   16) = (   0.0558291  -0.0644659   0.0000000), wk =   0.1111111
        k(   17) = (  -0.0837437   0.0483494   0.0000000), wk =   0.0555556
        k(   18) = (  -0.0837437   0.0805824   0.0000000), wk =   0.1111111
        k(   19) = (  -0.0837437   0.1128153   0.0000000), wk =   0.1111111
        k(   20) = (  -0.0837437  -0.0483494   0.0000000), wk =   0.0555556

     Largest allocated arrays     est. size (Mb)     dimensions
     Largest temporary arrays     est. size (Mb)     dimensions

     Initial potential from superposition of free atoms
     Check: negative starting charge=   -0.005015

     starting charge  159.96716, renormalised to  160.00000

     negative rho (up, down):  5.016E-03 0.000E+00

     *
     * You are using vdW-DF for exchange-correlation in this calculation.
     * Please cite the following three references that made this development
     * possible:
     *
     *   M. Dion, H. Rydberg, E. Schroder, D. C. Langreth, and
     *   B. I. Lundqvist, Phys. Rev. Lett. 92, 246401 (2004).
     *
     *   T. Thonhauser, V. R. Cooper, S. Li, A. Puzder, P. Hyldgaard, and
     *   D. C. Langreth, Phys. Rev. B 76, 125112 (2007).
     *
     *   G. Roman-Perez and J. M. Soler, Phys. Rev. Lett. 103, 096102 (2009).
     *
     *
     * If you are using vdW-DF2, please also cite:
     *
     *   K. Lee, E. D. Murray, L. Kong, B. I. Lundqvist, and
     *   D. C. Langreth, Phys. Rev. B 82, 081101(R) (2010).
     *
     *
     * If you are calculating the stress with vdW-DF, please also cite:
     *
     *   R. Sabatini, E. Kucukbenli, B. Kolb, T. Thonhauser, and
     *   S. de Gironcoli, J. Phys.: Condens. Matter 24, 424209 (2012).
     *

     Carrying out vdW-DF run using the following parameters:

     Nqs =      20    Nr_points =    1024   r_max =   100.000
     q_mesh =
               0.00001000     0.04494208     0.09755937     0.15916263
               0.23128650     0.31572767     0.41458969     0.53033537
               0.66584808     0.82450364     1.01025438     1.22772762
               1.48234092     1.78043706     2.12944203     2.53805004
               3.01644009     3.57652955     4.23227104     5.00000000

     Gradients computed in reciprocal space

     Adding external electric field

     Computed dipole along edir(3) :
        Dipole               -0.0066 Ry au,         -0.0168 Debye
        Dipole field         -0.0000 Ry au

        Potential amp.        0.0015 Ry
        Total length         45.8317 bohr

     Starting wfc are  160 randomized atomic wfcs

     Self-consistent Calculation

     iteration #  1     ecut=    36.75 Ry     beta=0.30
     Davidson diagonalization with overlap
     ethr =  1.00E-02,  avg # of iterations =  2.0

[...]

     total energy              =   -1430.67709677 Ry
     Harris-Foulkes estimate   =   -1433.94870749 Ry
     estimated scf accuracy    <       7.27982587 Ry

[...]

     End of self-consistent calculation

          k = 0.0000 0.0000 0.0000 ( 19435 PWs)   bands (ev):

   -53.6625 -53.5685 -53.5564 -53.5558 -53.4645 -53.4277 -53.4262 -53.4260
   -53.3761 -53.3684 -53.3682 -52.9828 -30.0569 -30.0381 -30.0381 -30.0136
   -29.9700 -29.9700 -29.9672 -29.9299 -29.9100 -29.9098 -29.6875 -29.6094
   -29.6090 -29.4751 -29.4722 -29.4721 -29.4149 -29.3276 -29.3276 -29.3203
   -29.2851 -29.2618 -29.2618 -29.2405 -29.2402 -29.2206 -29.1612 -29.1611
   -29.1594 -29.0754 -29.0754 -29.0029 -29.0029 -28.9569 -28.8887 -28.8886
    -6.6923  -3.8819  -2.5875  -2.1687  -2.0193  -2.0192  -1.9915  -1.6847
    -1.6801  -1.6801  -1.3297  -1.3235  -1.3235  -1.2006  -1.1945  -1.1944
    -0.3338  -0.3337  -0.1214   0.6435   0.7701   0.7701   0.9309   1.1269
     1.3876   1.5902   1.5902   1.6765   1.6765   1.8377   1.8991   1.8991
     1.9374   1.9375   1.9722   2.0552   2.0552   2.1273   2.1273   2.6671
     2.8559   3.1366

[...]

          k =-0.0837 0.0483 0.0000 ( 19524 PWs)   bands (ev):

[...]

     the Fermi energy is     1.5537 ev

!    total energy              =   -1433.45849641 Ry
     Harris-Foulkes estimate   =   -1433.45849512 Ry
     estimated scf accuracy    <       0.00000119 Ry

     The total energy is the sum of the following terms:

     one-electron contribution =  -11568.70716691 Ry
     hartree contribution      =    5776.22856854 Ry
     xc contribution           =    -231.56489994 Ry
     ewald contribution        =    4590.70792242 Ry
     electric field correction =       0.00040766 Ry
     smearing contrib. (-TS)   =      -0.12332819 Ry

     convergence has been achieved in  20 iterations

 BEEF-vdW xc energy contributions
           1 :   -198.497100008206
           2 :    180.433774188431
           3 :   -149.693976749176
           4 :    114.554646575473
           5 :   -82.9086373514333
           6 :    59.6551271576774
           7 :   -45.7047375810748
           8 :    38.6601938704485
           9 :   -34.6114534937252
          10 :    30.0896289462098
          11 :   -23.3748916907744
          12 :    14.7476543791261
          13 :   -5.80886390645941
          14 :   -1.65458625547535
          15 :    6.64121220336290
          16 :   -9.32197947026128
          17 :    10.7491468839769
          18 :   -12.1469227039508
          19 :    14.2054228317612
          20 :   -16.7621712356930
          21 :    18.9929823054522
          22 :   -19.9524595167743
          23 :    19.1283697138434
          24 :   -16.7152213318650
          25 :    13.4899831340469
          26 :   -10.4019002350625
          27 :    8.11952942687822
          28 :   -6.77687378935261
          29 :    6.02159946252721
          30 :   -5.30667042323148
          31 :   -22.9549357601167
          32 :   -17.3366420816306

     Forces acting on atoms (Ry/au):

     negative rho (up, down):  4.699E-03 0.000E+00
     atom    1 type  1   force =    -0.00055761   -0.00033296   -0.00620129
     atom    2 type  1   force =     0.00055579   -0.00032611   -0.00620886
     atom    3 type  1   force =     0.00000141    0.00065086   -0.00619761
     atom    4 type  1   force =    -0.00000139    0.00000775   -0.00654625
     atom    5 type  1   force =     0.00000199    0.01214585   -0.00475777
     atom    6 type  1   force =     0.00000158   -0.00002170    0.01413132
     atom    7 type  1   force =    -0.01054186   -0.00606165   -0.00474288
     atom    8 type  1   force =     0.01053923   -0.00606103   -0.00474074
     atom    9 type  1   force =     0.00000241   -0.00000266    0.09312057
     atom   10 type  1   force =    -0.00000226    0.00344034    0.01431175
     atom   11 type  1   force =     0.00297749   -0.00172233    0.01434577
     atom   12 type  1   force =    -0.00297666   -0.00171856    0.01433852
     atom   13 type  2   force =    -0.00000013    0.00000220   -0.11085252

     Total force =     0.147008     Total SCF correction =     0.002039

     entering subroutine stress ...

     negative rho (up, down):  4.699E-03 0.000E+00
          total   stress  (Ry/bohr**3)                   (kbar)     P=  -23.57
  -0.00021949   0.00000000   0.00000000        -32.29      0.00      0.00
   0.00000000  -0.00021947   0.00000000          0.00    -32.29      0.00
   0.00000000   0.00000000  -0.00004172          0.00      0.00     -6.14

     BFGS Geometry Optimization

     number of scf cycles    =   1
     number of bfgs steps    =   0

     energy   new            =   -1433.4584964090 Ry

     new trust radius        =       0.1108525153 bohr
     new conv_thr            =       0.0000099958 Ry

ATOMIC_POSITIONS (crystal)
Nb1      0.166666667   0.166666667   0.402010442    0   0   0
Nb1      0.666666667   0.166666667   0.402010442    0   0   0
Nb1      0.166666667   0.666666667   0.402010442    0   0   0
Nb1      0.666666667   0.666666667   0.402010442    0   0   0
Nb1      0.833333333   0.333333333   0.500000000    0   0   0
Nb1      0.333333333   0.333333333   0.500000000    0   0   0
Nb1      0.833333333   0.833333333   0.500000000    0   0   0
Nb1      0.333333333   0.833333333   0.500000000    0   0   0
Nb1      0.000000349  -0.000000272   0.599970556
Nb1      0.499823755   0.000352090   0.598294019
Nb1      0.000352030   0.499823734   0.598294742
Nb1      0.499824118   0.499824119   0.598294588
C1      -0.000000124   0.000000225   0.677641470

     Writing output data file calc.save
     Check: negative starting charge=   -0.005015
     NEW-OLD atomic charge density approx. for the potential
     Check: negative starting charge=   -0.005008

[...]

     energy   old            =   -1433.4584964090 Ry
     energy   new            =   -1433.4753065397 Ry

     CASE: energy  _new < energy  _old

[...]

     Threshold (ethr) on eigenvalues was too large:
     Diagonalizing with lowered threshold

     Davidson diagonalization with overlap
     ethr =  4.99E-08,  avg # of iterations =  4.8

[...]

     Total force =     0.005811     Total SCF correction =     0.000266

[...]

     number of scf cycles    =  12
     number of bfgs steps    =  11

     energy   old            =   -1433.4881402306 Ry
     energy   new            =   -1433.4882063448 Ry

     CASE: energy  _new < energy  _old

     new trust radius        =       0.0090871043 bohr
     new conv_thr            =       0.0000001000 Ry

ATOMIC_POSITIONS (crystal)
Nb1      0.166666667   0.166666667   0.402010442    0   0   0
Nb1      0.666666667   0.166666667   0.402010442    0   0   0
Nb1      0.166666667   0.666666667   0.402010442    0   0   0
Nb1      0.666666667   0.666666667   0.402010442    0   0   0
Nb1      0.833333333   0.333333333   0.500000000    0   0   0
Nb1      0.333333333   0.333333333   0.500000000    0   0   0
Nb1      0.833333333   0.833333333   0.500000000    0   0   0
Nb1      0.333333333   0.833333333   0.500000000    0   0   0
Nb1      0.000000105   0.000000441   0.594124474
Nb1      0.499080406   0.001840016   0.601572926
Nb1      0.001838925   0.499081257   0.601572736
Nb1      0.499080155   0.499080911   0.601572517
C1      -0.000000706  -0.000000418   0.668264204

     Writing output data file calc.save
     Check: negative starting charge=   -0.005082
     NEW-OLD atomic charge density approx. for the potential
     Check: negative starting charge=   -0.005079

[...]

     Self-consistent Calculation

[...]

     Threshold (ethr) on eigenvalues was too large:
     Diagonalizing with lowered threshold

     Davidson diagonalization with overlap
     ethr =  7.32E-08,  avg # of iterations =  2.7

[...]

     total energy              =   -1433.48822690 Ry
     Harris-Foulkes estimate   =   -1433.48822686 Ry
     estimated scf accuracy    <       0.00000013 Ry

     iteration # 10     ecut=    36.75 Ry     beta=0.30
     Davidson diagonalization with overlap
     ethr =  8.17E-11,  avg # of iterations =  3.5

[...]

     negative rho (up, down):  4.764E-03 0.000E+00

     Adding external electric field

     Computed dipole along edir(3) :
        Dipole               -0.2564 Ry au,         -0.6516 Debye
        Dipole field         -0.0006 Ry au

        Potential amp.        0.0570 Ry
        Total length         45.8317 bohr

     End of self-consistent calculation

[...]

          k = 0.0558-0.0645 0.0000 ( 19505 PWs)   bands (ev):

[...]

          k =-0.0837-0.0483 0.0000 ( 19524 PWs)   bands (ev):

   -53.4983 -53.4675 -53.4346 -53.3277 -53.3213 -53.2614 -53.2457 -53.2451
   -53.2413 -53.2062 -53.1935 -52.6515 -29.7416 -29.7219 -29.6970 -29.6899
   -29.6791 -29.6634 -29.6056 -29.5750 -29.5633 -29.5497 -29.5232 -29.4776
   -29.4467 -29.4307 -29.3852 -29.3486 -29.3409 -29.3273 -29.2475 -29.2246
   -29.2212 -29.2008 -29.1934 -29.1865 -29.1111 -29.1044 -29.0787 -29.0628
   -29.0466 -29.0150 -29.0086 -28.9144 -28.9084 -28.7999 -28.7222 -28.6276
    -6.6350  -2.1836  -2.1449  -1.3065  -1.1955  -0.9847  -0.9102  -0.8280
    -0.7759  -0.7439  -0.6706  -0.4033  -0.2671  -0.1958   0.0038   0.0127
     0.0998   0.1162   0.1742   0.4342   0.5963   0.6446   0.6574   0.6955
     0.9022   1.1020   1.1207   1.2402   1.3189   1.3614   1.4871   1.4995
     1.5520   1.6808   1.7565   1.8073   1.8715   1.9997   2.1538   2.2647
     2.5768   2.6805

     the Fermi energy is     1.7342 ev

!    total energy              =   -1433.48822688 Ry
     Harris-Foulkes estimate   =   -1433.48822840 Ry
     estimated scf accuracy    <       0.00000004 Ry

     The total energy is the sum of the following terms:

     one-electron contribution =  -11551.85563645 Ry
     hartree contribution      =    5768.71753966 Ry
     xc contribution           =    -231.68500033 Ry
     ewald contribution        =    4581.45255841 Ry
     electric field correction =       0.00015938 Ry
     smearing contrib. (-TS)   =      -0.11784755 Ry

     convergence has been achieved in  10 iterations

 BEEF-vdW xc energy contributions
           1 :   -198.609438824891
           2 :    180.551058436231
           3 :   -149.814389189285
           4 :    114.679039877164
           5 :   -83.0414030793380
           6 :    59.7880614318934
           7 :   -45.8082534151758
           8 :    38.6975342230235
           9 :   -34.5646520627559
          10 :    29.9749618615404
          11 :   -23.2366952339732
          12 :    14.6359372344234
          13 :   -5.75556825415259
          14 :   -1.64664906526207
          15 :    6.59551958896225
          16 :   -9.27636340990844
          17 :    10.7391231402277
          18 :   -12.1898236408045
          19 :    14.2927082459672
          20 :   -16.8634715696303
          21 :    19.0707988583985
          22 :   -19.9808421618269
          23 :    19.1045101233408
          24 :   -16.6572540779452
          25 :    13.4236695555292
          26 :   -10.3457398737457
          27 :    8.07636870134229
          28 :   -6.73512762452799
          29 :    5.96492074328847
          30 :   -5.22536602611200
          31 :   -22.9618089978494
          32 :   -17.3450117700604

     Forces acting on atoms (Ry/au):

     negative rho (up, down):  4.764E-03 0.000E+00
     atom    1 type  1   force =     0.00037510    0.00021665   -0.00859408
     atom    2 type  1   force =    -0.00037389    0.00021623   -0.00859255
     atom    3 type  1   force =     0.00000025   -0.00043210   -0.00859283
     atom    4 type  1   force =    -0.00000145   -0.00000098   -0.00822406
     atom    5 type  1   force =     0.00000119    0.02634817   -0.00059891
     atom    6 type  1   force =    -0.00000252   -0.00000159    0.03657001
     atom    7 type  1   force =    -0.02281950   -0.01317466   -0.00059475
     atom    8 type  1   force =     0.02281901   -0.01317308   -0.00059858
     atom    9 type  1   force =     0.00000040    0.00000088   -0.00186926
     atom   10 type  1   force =     0.00000155    0.00016377   -0.00005186
     atom   11 type  1   force =     0.00014258   -0.00008055   -0.00005197
     atom   12 type  1   force =    -0.00014107   -0.00008166   -0.00004847
     atom   13 type  2   force =    -0.00000164   -0.00000107    0.00124730

     Total force =     0.002267     Total SCF correction =     0.000804
     SCF correction compared to forces is large: reduce conv_thr to get better values

     entering subroutine stress ...

     negative rho (up, down):  4.764E-03 0.000E+00
          total   stress  (Ry/bohr**3)                   (kbar)     P=  -21.64
  -0.00023530  -0.00000003  -0.00000000        -34.61     -0.00     -0.00
  -0.00000003  -0.00023527   0.00000000         -0.00    -34.61      0.00
  -0.00000000   0.00000000   0.00002924         -0.00      0.00      4.30

     bfgs converged in  13 scf cycles and  12 bfgs steps
     (criteria: energy <  1.0E+00, force <  1.9E-03)

     End of BFGS Geometry Optimization

     Final energy   =   -1433.4882268831 Ry
Begin final coordinates

ATOMIC_POSITIONS (crystal)
Nb1      0.166666667   0.166666667   0.402010442    0   0   0
Nb1      0.666666667   0.166666667   0.402010442    0   0   0
Nb1      0.166666667   0.666666667   0.402010442    0   0   0
Nb1      0.666666667   0.666666667   0.402010442    0   0   0
Nb1      0.833333333   0.333333333   0.500000000    0   0   0
Nb1      0.333333333   0.333333333   0.500000000    0   0   0
Nb1      0.833333333   0.833333333   0.500000000    0   0   0
Nb1      0.333333333   0.833333333   0.500000000    0   0   0
Nb1      0.000000105   0.000000441   0.594124474
Nb1      0.499080406   0.001840016   0.601572926
Nb1      0.001838925   0.499081257   0.601572736
Nb1      0.499080155   0.499080911   0.601572517
C1      -0.000000706  -0.000000418   0.668264204
End final coordinates

     Writing output data file calc.save

     General routines

     Parallel routines

   This run was terminated on:  10:34:31   3May2018

   JOB DONE.
Job  /afs/slac/g/suncat/bin/suncat-tsmpirun -x LD_LIBRARY_PATH -wdir /scratch/qe695365_aBq7B pw.x -npool 4 -in pw.inp

TID   HOST_NAME   COMMAND_LINE            STATUS            TERMINATION_TIME
00000 suncat0046 pw.x -npool 4 -i  Done                     05/03/2018 10:34:31
00001 suncat0046 pw.x -npool 4 -i  Done                     05/03/2018 10:34:31
00002 suncat0046 pw.x -npool 4 -i  Done                     05/03/2018 10:34:31
00003 suncat0046 pw.x -npool 4 -i  Done                     05/03/2018 10:34:31
00004 suncat0046 pw.x -npool 4 -i  Done                     05/03/2018 10:34:31
00005 suncat0046 pw.x -npool 4 -i  Done                     05/03/2018 10:34:31
00006 suncat0046 pw.x -npool 4 -i  Done                     05/03/2018 10:34:31
00007 suncat0046 pw.x -npool 4 -i  Done                     05/03/2018 10:34:31
00008 suncat0026 pw.x -npool 4 -i  Done                     05/03/2018 10:34:31
00009 suncat0026 pw.x -npool 4 -i  Done                     05/03/2018 10:34:31
00010 suncat0026 pw.x -npool 4 -i  Done                     05/03/2018 10:34:31
00011 suncat0026 pw.x -npool 4 -i  Done                     05/03/2018 10:34:31
00012 suncat0026 pw.x -npool 4 -i  Done                     05/03/2018 10:34:31
00013 suncat0026 pw.x -npool 4 -i  Done                     05/03/2018 10:34:31
00014 suncat0026 pw.x -npool 4 -i  Done                     05/03/2018 10:34:31
00015 suncat0026 pw.x -npool 4 -i  Done                     05/03/2018 10:34:31
00016 suncat0015 pw.x -npool 4 -i  Done                     05/03/2018 10:34:31
00017 suncat0015 pw.x -npool 4 -i  Done                     05/03/2018 10:34:31
00018 suncat0015 pw.x -npool 4 -i  Done                     05/03/2018 10:34:31
00019 suncat0015 pw.x -npool 4 -i  Done                     05/03/2018 10:34:31
00020 suncat0015 pw.x -npool 4 -i  Done                     05/03/2018 10:34:31
00021 suncat0015 pw.x -npool 4 -i  Done                     05/03/2018 10:34:31
00022 suncat0015 pw.x -npool 4 -i  Done                     05/03/2018 10:34:31
00023 suncat0015 pw.x -npool 4 -i  Done                     05/03/2018 10:34:31
00024 suncat0010 pw.x -npool 4 -i  Done                     05/03/2018 10:34:31
00025 suncat0010 pw.x -npool 4 -i  Done                     05/03/2018 10:34:31
00026 suncat0010 pw.x -npool 4 -i  Done                     05/03/2018 10:34:31
00027 suncat0010 pw.x -npool 4 -i  Done                     05/03/2018 10:34:31
00028 suncat0010 pw.x -npool 4 -i  Done                     05/03/2018 10:34:31
00029 suncat0010 pw.x -npool 4 -i  Done                     05/03/2018 10:34:31
00030 suncat0010 pw.x -npool 4 -i  Done                     05/03/2018 10:34:31
00031 suncat0010 pw.x -npool 4 -i  Done                     05/03/2018 10:34:31