     Program PWSCF v.5.1rc2 (svn rev. 11289) starts on  2May2018 at 20:27:41

     Current dimensions of program PWSCF are:
     Max number of different atomic species (ntypx) = 10
     Max number of k-points (npk) =  40000
     Max angular momentum in pseudopotentials (lmaxx) =  3
     Presently stress not available with electric field

     IMPORTANT: XC functional enforced from input :
     Exchange-correlation      = BEEF-VDW ( 1  4 27 13 2)
     Any further DFT definition will be discarded
     Please, verify this is what you really want

     Subspace diagonalization in iterative solution of the eigenvalue problem:
     a serial algorithm will be used

     bravais-lattice index     =            0
     lattice parameter (alat)  =       1.8897  a.u.
     unit-cell volume          =    4515.4205 (a.u.)^3
     number of atoms/cell      =           13
     number of atomic types    =            2
     number of electrons       =       244.00
     number of Kohn-Sham states=          132
     kinetic-energy cutoff     =      36.7493  Ry
     charge density cutoff     =     367.4932  Ry
     convergence threshold     =      1.0E-05
     mixing beta               =       0.3000
     number of iterations used =           10  plain     mixing
     Exchange-correlation      = BEEF-VDW ( 1  4 27 13 2)
     nstep                     =           50

     celldm(1)=   1.889726  celldm(2)=   0.000000  celldm(3)=   0.000000
     celldm(4)=   0.000000  celldm(5)=   0.000000  celldm(6)=   0.000000

     crystal axes: (cart. coord. in units of alat)
               a(1) = (   5.606773   0.000000   0.000000 )
               a(2) = (   2.803387   4.855608   0.000000 )
               a(3) = (   0.000000   0.000000  24.577911 )

     reciprocal axes: (cart. coord. in units 2 pi/alat)
               b(1) = (  0.178356 -0.102974  0.000000 )
               b(2) = (  0.000000  0.205947  0.000000 )
               b(3) = (  0.000000  0.000000  0.040687 )

     PseudoPot. # 1 for Zn read from file:
     /u/if/mamunm/psp/gbrv1.5pbe/Zn.UPF
     MD5 check sum: df62231357ef9e81f77b2b3087fa5675
     Pseudo is Ultrasoft, Zval = 20.0
     Generated by new atomic code, or converted to UPF format
     Using radial grid of  943 points,  6 beta functions with:
                l(1) =   0
                l(2) =   0
                l(3) =   1
                l(4) =   1
                l(5) =   2
                l(6) =   2
     Q(r) pseudized with  8 coefficients,  rinner =    1.100   1.100   1.100
                                                       1.100   1.100

     PseudoPot. # 2 for C  read from file:
     /u/if/mamunm/psp/gbrv1.5pbe/C.UPF
     MD5 check sum: d1aef80898a10debaa0f26306b886e00
     Pseudo is Ultrasoft + core correction, Zval =  4.0
     Generated by new atomic code, or converted to UPF format
     Using radial grid of  721 points,  4 beta functions with:
                l(1) =   0
                l(2) =   0
                l(3) =   1
                l(4) =   1
     Q(r) pseudized with  8 coefficients,  rinner =    1.100   1.100   1.100

     vdW kernel table read from file vdW_kernel_table
     MD5 check sum: 095c7af220d748ca6e76c0b4c6cfb241

     atomic species   valence    mass     pseudopotential
        Zn1           20.00    65.38000     Zn( 1.00)
        C1             4.00    12.01100     C ( 1.00)

     No symmetry found

   Cartesian axes

     site n.     atom                  positions (alat units)
         1           Zn1 tau(   1) = (   1.4016933   0.8092680  10.0000000  )
         2           Zn1 tau(   2) = (   4.2050800   0.8092680  10.0000000  )
         3           Zn1 tau(   3) = (   2.8033867   3.2370721  10.0000000  )
         4           Zn1 tau(   4) = (   5.6067733   3.2370721  10.0000000  )
         5           Zn1 tau(   5) = (   5.6067733   1.6185360  12.2889556  )
         6           Zn1 tau(   6) = (   2.8033867   1.6185360  12.2889556  )
         7           Zn1 tau(   7) = (   7.0084667   4.0463401  12.2889556  )
         8           Zn1 tau(   8) = (   4.2050800   4.0463401  12.2889556  )
         9           Zn1 tau(   9) = (   0.0000000   0.0000000  14.5779113  )
        10           Zn1 tau(  10) = (   2.8033867   0.0000000  14.5779113  )
        11           Zn1 tau(  11) = (   1.4016933   2.4278041  14.5779113  )
        12           Zn1 tau(  12) = (   4.2050800   2.4278041  14.5779113  )
        13           C1  tau(  13) = (   1.4016933   0.8092680  15.8649113  )

     number of k points=    20  Fermi-Dirac smearing, width (Ry)=  0.0110
                       cart. coord. in units 2pi/alat
        k(    1) = (   0.0000000   0.0000000   0.0000000), wk =   0.0555556
        k(    2) = (   0.0000000   0.0343246   0.0000000), wk =   0.1111111
        k(    3) = (   0.0000000   0.0686491   0.0000000), wk =   0.1111111
        k(    4) = (   0.0000000  -0.1029737   0.0000000), wk =   0.0555556
        k(    5) = (   0.0297260  -0.0171623   0.0000000), wk =   0.1111111
        k(    6) = (   0.0297260   0.0171623   0.0000000), wk =   0.1111111
        k(    7) = (   0.0297260   0.0514869   0.0000000), wk =   0.1111111
        k(    8) = (   0.0297260  -0.1201360   0.0000000), wk =   0.1111111
        k(    9) = (   0.0297260  -0.0858114   0.0000000), wk =   0.1111111
        k(   10) = (   0.0297260  -0.0514869   0.0000000), wk =   0.1111111
        k(   11) = (   0.0594519  -0.0343246   0.0000000), wk =   0.1111111
        k(   12) = (   0.0594519   0.0000000   0.0000000), wk =   0.1111111
        k(   13) = (   0.0594519   0.0343246   0.0000000), wk =   0.1111111
        k(   14) = (   0.0594519  -0.1372983   0.0000000), wk =   0.1111111
        k(   15) = (   0.0594519  -0.1029737   0.0000000), wk =   0.1111111
        k(   16) = (   0.0594519  -0.0686491   0.0000000), wk =   0.1111111
        k(   17) = (  -0.0891779   0.0514869   0.0000000), wk =   0.0555556
        k(   18) = (  -0.0891779   0.0858114   0.0000000), wk =   0.1111111
        k(   19) = (  -0.0891779   0.1201360   0.0000000), wk =   0.1111111
        k(   20) = (  -0.0891779  -0.0514869   0.0000000), wk =   0.0555556

     Largest allocated arrays     est. size (Mb)     dimensions
     Largest temporary arrays     est. size (Mb)     dimensions

     Initial potential from superposition of free atoms
     Check: negative starting charge=   -0.000832

     starting charge  243.99827, renormalised to  244.00000

     negative rho (up, down):  8.317E-04 0.000E+00

     *
     * You are using vdW-DF for exchange-correlation in this calculation.
     * Please cite the following three references that made this development
     * possible:
     *
     *   M. Dion, H. Rydberg, E. Schroder, D. C. Langreth, and
     *   B. I. Lundqvist, Phys. Rev. Lett. 92, 246401 (2004).
     *
     *   T. Thonhauser, V. R. Cooper, S. Li, A. Puzder, P. Hyldgaard, and
     *   D. C. Langreth, Phys. Rev. B 76, 125112 (2007).
     *
     *   G. Roman-Perez and J. M. Soler, Phys. Rev. Lett. 103, 096102 (2009).
     *
     *
     * If you are using vdW-DF2, please also cite:
     *
     *   K. Lee, E. D. Murray, L. Kong, B. I. Lundqvist, and
     *   D. C. Langreth, Phys. Rev. B 82, 081101(R) (2010).
     *
     *
     * If you are calculating the stress with vdW-DF, please also cite:
     *
     *   R. Sabatini, E. Kucukbenli, B. Kolb, T. Thonhauser, and
     *   S. de Gironcoli, J. Phys.: Condens. Matter 24, 424209 (2012).
     *

     Carrying out vdW-DF run using the following parameters:

     Nqs =      20    Nr_points =    1024   r_max =   100.000
     q_mesh =
               0.00001000     0.04494208     0.09755937     0.15916263
               0.23128650     0.31572767     0.41458969     0.53033537
               0.66584808     0.82450364     1.01025438     1.22772762
               1.48234092     1.78043706     2.12944203     2.53805004
               3.01644009     3.57652955     4.23227104     5.00000000

     Gradients computed in reciprocal space

     Adding external electric field

     Computed dipole along edir(3) :
        Dipole                0.0001 Ry au,          0.0002 Debye
        Dipole field          0.0000 Ry au

        Potential amp.       -0.0000 Ry
        Total length         45.2844 bohr

     Starting wfc are  160 randomized atomic wfcs

     Self-consistent Calculation

     iteration #  1     ecut=    36.75 Ry     beta=0.30
     Davidson diagonalization with overlap
     ethr =  1.00E-02,  avg # of iterations =  2.0

[...]

     total energy              =   -5562.99264805 Ry
     Harris-Foulkes estimate   =   -5564.82123025 Ry
     estimated scf accuracy    <       3.95826531 Ry

[...]

     End of self-consistent calculation

          k = 0.0000 0.0000 0.0000 ( 16931 PWs)   bands (ev):

  -126.8024-126.7988-126.7979-126.7979-126.5981-126.5642-126.5633-126.5633
  -126.5267-126.4554-126.4545-126.4545 -80.9858 -80.9840 -80.9840 -80.9826
   -80.9826 -80.9793 -80.9757 -80.9705 -80.9705 -80.9651 -80.9650 -80.9650
   -80.7905 -80.7702 -80.7702 -80.7521 -80.7513 -80.7513 -80.7464 -80.7379
   -80.7379 -80.7316 -80.7316 -80.7308 -80.7074 -80.7074 -80.7056 -80.6499
   -80.6499 -80.6453 -80.6435 -80.6371 -80.6371 -80.6041 -80.5976 -80.5976
   -10.7030  -9.3237  -8.3440  -8.3431  -8.3431  -8.3362  -8.2542  -8.2542
    -8.2501  -8.1682  -8.1345  -8.1345  -8.0594  -7.9891  -7.9891  -7.8392
    -7.8057  -7.8057  -7.7562  -7.7562  -7.7492  -7.7230  -7.7230  -7.7190
    -7.6896  -7.6896  -7.6803  -7.6299  -7.6299  -7.5271  -7.5271  -7.5060
    -7.3975  -7.3975  -7.3273  -7.3202  -7.3202  -7.2943  -7.2943  -7.2816
    -7.2816  -7.2712  -7.2287  -7.2287  -7.2194  -7.2000  -7.2000  -7.1733
    -7.1600  -7.1600  -7.1025  -7.0995  -7.0995  -7.0916  -7.0558  -7.0558
    -6.9930  -6.9930  -6.9813  -6.9165  -6.9165  -6.8796  -6.3122  -3.6259
    -2.6101  -2.6101  -2.5646  -2.4896  -2.4895  -2.2070  -1.6896  -1.6896
    -1.3922  -0.6393  -0.4118  -0.4118  -0.3265   0.3166   0.3166   1.1959
     1.9822   1.9822   2.2875   2.7790

[...]

          k =-0.0892 0.0515 0.0000 ( 17028 PWs)   bands (ev):

[...]

     the Fermi energy is    -0.0191 ev

!    total energy              =   -5564.57260820 Ry
     Harris-Foulkes estimate   =   -5564.57264189 Ry
     estimated scf accuracy    <       0.00000535 Ry

     The total energy is the sum of the following terms:

     one-electron contribution =  -35937.28217912 Ry
     hartree contribution      =   17945.40916432 Ry
     xc contribution           =    -524.35751922 Ry
     ewald contribution        =   12951.68567786 Ry
     electric field correction =       0.00047026 Ry
     smearing contrib. (-TS)   =      -0.02822230 Ry

     convergence has been achieved in  10 iterations

 BEEF-vdW xc energy contributions
           1 :   -465.796317926397
           2 :    422.173187017015
           3 :   -349.004694426634
           4 :    267.496357269670
           5 :   -196.401237647259
           6 :    145.007409007325
           7 :   -111.891880022056
           8 :    89.1591539354748
           9 :   -68.8998187333136
          10 :    47.8157909284047
          11 :   -27.7164032428518
          12 :    12.5038222206217
          13 :   -4.37837144656032
          14 :    2.01086801583153
          15 :   -1.63039740123139
          16 :  -0.210785994736341
          17 :    4.43426202033612
          18 :   -9.31715542763789
          19 :    12.2770351047646
          20 :   -12.0324661431387
          21 :    9.51921045338474
          22 :   -7.03569910756823
          23 :    6.44445350773969
          24 :   -7.86859594011759
          25 :    9.80750322640131
          26 :   -10.4504084249337
          27 :    9.09102677193408
          28 :   -6.57477088105139
          29 :    4.53136308215483
          30 :   -4.08067908513317
          31 :   -36.1609388145972
          32 :   -24.6900865074271

     Forces acting on atoms (Ry/au):

     negative rho (up, down):  1.134E-03 0.000E+00
     atom    1 type  1   force =     0.00000452    0.00000203   -0.01103156
     atom    2 type  1   force =     0.00000482    0.00033115   -0.01030869
     atom    3 type  1   force =     0.00028872   -0.00016906   -0.01031475
     atom    4 type  1   force =    -0.00029059   -0.00015896   -0.01032442
     atom    5 type  1   force =     0.00003415   -0.00002966   -0.00367501
     atom    6 type  1   force =    -0.00003882   -0.00002666   -0.00367508
     atom    7 type  1   force =    -0.00000000   -0.00000086    0.01441765
     atom    8 type  1   force =    -0.00000383    0.00005014   -0.00367425
     atom    9 type  1   force =    -0.00834992   -0.00481553    0.02937143
     atom   10 type  1   force =     0.00835017   -0.00481611    0.02936433
     atom   11 type  1   force =     0.00000009    0.00963785    0.02936766
     atom   12 type  1   force =     0.00000340   -0.00000554    0.00482265
     atom   13 type  2   force =    -0.00000271    0.00000121   -0.05433998

     Total force =     0.076434     Total SCF correction =     0.022109
     SCF correction compared to forces is large: reduce conv_thr to get better values

     entering subroutine stress ...

     negative rho (up, down):  1.134E-03 0.000E+00
          total   stress  (Ry/bohr**3)                   (kbar)     P=   -6.60
  -0.00008066  -0.00000000   0.00000000        -11.86     -0.00      0.00
  -0.00000000  -0.00008066   0.00000000         -0.00    -11.87      0.00
   0.00000000   0.00000000   0.00002676          0.00      0.00      3.94

     BFGS Geometry Optimization

     number of scf cycles    =   1
     number of bfgs steps    =   0

     energy   new            =   -5564.5726082026 Ry

     new trust radius        =       0.0543399810 bohr
     new conv_thr            =       0.0000099958 Ry

ATOMIC_POSITIONS (crystal)
Zn1      0.166666667   0.166666667   0.406869400    0   0   0
Zn1      0.666666667   0.166666667   0.406869400    0   0   0
Zn1      0.166666667   0.666666667   0.406869400    0   0   0
Zn1      0.666666667   0.666666667   0.406869400    0   0   0
Zn1      0.833333333   0.333333333   0.500000000    0   0   0
Zn1      0.333333333   0.333333333   0.500000000    0   0   0
Zn1      0.833333333   0.833333333   0.500000000    0   0   0
Zn1      0.333333333   0.833333333   0.500000000    0   0   0
Zn1     -0.000525676  -0.000524809   0.593762985
Zn1      0.501050540  -0.000524873   0.593762832
Zn1     -0.000525171   0.501050359   0.593762904
Zn1      0.500000623   0.499999396   0.593234435
C1       0.166666344   0.166666799   0.644324720

     Writing output data file calc.save
     Check: negative starting charge=   -0.000832
     NEW-OLD atomic charge density approx. for the potential
     Check: negative starting charge=   -0.000838

[...]

     Total force =     0.065726     Total SCF correction =     0.003189

[...]

     energy   old            =   -5564.5726082026 Ry
     energy   new            =   -5564.5778635416 Ry

     CASE: energy  _new < energy  _old

     WARNING: bfgs curvature condition failed, Theta= 0.948
     new trust radius        =       0.0597739791 bohr
     new conv_thr            =       0.0000001000 Ry

[...]

     Total force =     0.016652     Total SCF correction =     0.000533

[...]

     number of scf cycles    =   9
     number of bfgs steps    =   8

     energy   old            =   -5564.6204145876 Ry
     energy   new            =   -5564.6208450484 Ry

     CASE: energy  _new < energy  _old

     new trust radius        =       0.0657005584 bohr
     new conv_thr            =       0.0000001000 Ry

ATOMIC_POSITIONS (crystal)
Zn1      0.166666667   0.166666667   0.406869400    0   0   0
Zn1      0.666666667   0.166666667   0.406869400    0   0   0
Zn1      0.166666667   0.666666667   0.406869400    0   0   0
Zn1      0.666666667   0.666666667   0.406869400    0   0   0
Zn1      0.833333333   0.333333333   0.500000000    0   0   0
Zn1      0.333333333   0.333333333   0.500000000    0   0   0
Zn1      0.833333333   0.833333333   0.500000000    0   0   0
Zn1      0.333333333   0.833333333   0.500000000    0   0   0
Zn1     -0.021533125  -0.021532509   0.604693729
Zn1      0.543064479  -0.021531867   0.604693076
Zn1     -0.021532734   0.543066024   0.604693274
Zn1      0.500001192   0.499999469   0.595100804
C1       0.166666269   0.166667154   0.623569296

     Writing output data file calc.save
     Check: negative starting charge=   -0.000853
     NEW-OLD atomic charge density approx. for the potential
     Check: negative starting charge=   -0.000861

[...]

     Self-consistent Calculation

[...]

     total energy              =   -5564.62100060 Ry
     Harris-Foulkes estimate   =   -5564.62100103 Ry
     estimated scf accuracy    <       0.00000064 Ry

     iteration #  8     ecut=    36.75 Ry     beta=0.30
     Davidson diagonalization with overlap
     ethr =  2.64E-10,  avg # of iterations =  2.5

[...]

     negative rho (up, down):  1.163E-03 0.000E+00

     Adding external electric field

     Computed dipole along edir(3) :
        Dipole               -0.1902 Ry au,         -0.4833 Debye
        Dipole field         -0.0005 Ry au

        Potential amp.        0.0479 Ry
        Total length         45.2844 bohr

     End of self-consistent calculation

[...]

          k = 0.0595-0.0686 0.0000 ( 16986 PWs)   bands (ev):

[...]

          k =-0.0892-0.0515 0.0000 ( 17028 PWs)   bands (ev):

  -126.3407-126.3211-126.3207-126.3204-126.1837-126.1834-126.1831-126.1741
  -126.1703-126.1702-126.1550-126.0352 -80.5273 -80.5141 -80.5132 -80.5111
   -80.5105 -80.5100 -80.4968 -80.4929 -80.4924 -80.4917 -80.4917 -80.4870
   -80.3791 -80.3787 -80.3783 -80.3634 -80.3631 -80.3622 -80.3587 -80.3544
   -80.3523 -80.3521 -80.3521 -80.3481 -80.3470 -80.3432 -80.3390 -80.3387
   -80.3318 -80.3278 -80.3266 -80.3161 -80.3154 -80.2168 -80.2165 -80.2108
   -10.6908  -8.1046  -7.7852  -7.7712  -7.6246  -7.6229  -7.6177  -7.6048
    -7.5754  -7.5463  -7.5371  -7.5166  -7.5064  -7.5021  -7.4677  -7.4234
    -7.4179  -7.3813  -7.3504  -7.3433  -7.3195  -7.3139  -7.3035  -7.2770
    -7.2480  -7.2369  -7.2027  -7.1815  -7.1750  -7.1496  -7.1433  -7.1372
    -7.1067  -7.0570  -7.0533  -7.0426  -7.0355  -7.0259  -7.0204  -7.0137
    -6.9968  -6.9620  -6.9431  -6.9398  -6.9250  -6.9132  -6.8790  -6.8741
    -6.8630  -6.8519  -6.8440  -6.8169  -6.8089  -6.7954  -6.7509  -6.7452
    -6.7076  -6.7022  -6.6977  -6.6835  -6.6640  -6.6120  -6.0741  -5.4587
    -4.2592  -3.7146  -3.2811  -2.9928  -2.6841  -2.4092  -0.7543  -0.4119
    -0.2197   0.1443   1.0712   1.7341   2.0694   2.6158   3.1122   3.3161
     3.3681   3.8104   3.8297   4.2100

     the Fermi energy is     0.4819 ev

!    total energy              =   -5564.62100163 Ry
     Harris-Foulkes estimate   =   -5564.62100077 Ry
     estimated scf accuracy    <       0.00000003 Ry

     The total energy is the sum of the following terms:

     one-electron contribution =  -35133.84654802 Ry
     hartree contribution      =   17546.89385686 Ry
     xc contribution           =    -524.47799747 Ry
     ewald contribution        =   12546.82930489 Ry
     electric field correction =       0.00010064 Ry
     smearing contrib. (-TS)   =      -0.01971854 Ry

     convergence has been achieved in   8 iterations

 BEEF-vdW xc energy contributions
           1 :   -465.923445476539
           2 :    422.305630875985
           3 :   -349.087503652508
           4 :    267.434923636079
           5 :   -196.130977560062
           6 :    144.547219893763
           7 :   -111.349376039426
           8 :    88.6828841999896
           9 :   -68.6037683049113
          10 :    47.7207131714449
          11 :   -27.7439174292224
          12 :    12.5280445731690
          13 :   -4.30375900720247
          14 :    1.82634444418437
          15 :   -1.40419828914344
          16 :  -0.388767758711765
          17 :    4.51807831399270
          18 :   -9.33247287990361
          19 :    12.2948530152137
          20 :   -12.1106810613026
          21 :    9.65572590009890
          22 :   -7.16642794487154
          23 :    6.48718564459421
          24 :   -7.78256980933224
          25 :    9.62775845631961
          26 :   -10.2721644425329
          27 :    9.01277860918873
          28 :   -6.63739135110018
          29 :    4.69403433766007
          30 :   -4.25038135451706
          31 :   -36.1693060609138
          32 :   -24.6868625357332

     Forces acting on atoms (Ry/au):

     negative rho (up, down):  1.163E-03 0.000E+00
     atom    1 type  1   force =     0.00000002   -0.00000000   -0.00794230
     atom    2 type  1   force =    -0.00000000    0.00100628   -0.00940964
     atom    3 type  1   force =     0.00087148   -0.00050315   -0.00940965
     atom    4 type  1   force =    -0.00087148   -0.00050317   -0.00940967
     atom    5 type  1   force =     0.00335457   -0.00193682    0.00963000
     atom    6 type  1   force =    -0.00335444   -0.00193666    0.00963004
     atom    7 type  1   force =     0.00000010    0.00000001    0.01008962
     atom    8 type  1   force =    -0.00000007    0.00387341    0.00963012
     atom    9 type  1   force =     0.00019386    0.00011193   -0.00022848
     atom   10 type  1   force =    -0.00019312    0.00011127   -0.00022880
     atom   11 type  1   force =    -0.00000019   -0.00022450   -0.00022844
     atom   12 type  1   force =    -0.00000046    0.00000046   -0.00096120
     atom   13 type  2   force =    -0.00000026    0.00000095   -0.00116162

     Total force =     0.001606     Total SCF correction =     0.000772
     SCF correction compared to forces is large: reduce conv_thr to get better values

     entering subroutine stress ...

     negative rho (up, down):  1.163E-03 0.000E+00
          total   stress  (Ry/bohr**3)                   (kbar)     P=   -5.87
  -0.00004837   0.00000000  -0.00000000         -7.11      0.00     -0.00
   0.00000000  -0.00004837   0.00000000          0.00     -7.11      0.00
  -0.00000000   0.00000000  -0.00002295         -0.00      0.00     -3.38

     bfgs converged in  10 scf cycles and   9 bfgs steps
     (criteria: energy <  1.0E+00, force <  1.9E-03)

     End of BFGS Geometry Optimization

     Final energy   =   -5564.6210016339 Ry
Begin final coordinates

ATOMIC_POSITIONS (crystal)
Zn1      0.166666667   0.166666667   0.406869400    0   0   0
Zn1      0.666666667   0.166666667   0.406869400    0   0   0
Zn1      0.166666667   0.666666667   0.406869400    0   0   0
Zn1      0.666666667   0.666666667   0.406869400    0   0   0
Zn1      0.833333333   0.333333333   0.500000000    0   0   0
Zn1      0.333333333   0.333333333   0.500000000    0   0   0
Zn1      0.833333333   0.833333333   0.500000000    0   0   0
Zn1      0.333333333   0.833333333   0.500000000    0   0   0
Zn1     -0.021533125  -0.021532509   0.604693729
Zn1      0.543064479  -0.021531867   0.604693076
Zn1     -0.021532734   0.543066024   0.604693274
Zn1      0.500001192   0.499999469   0.595100804
C1       0.166666269   0.166667154   0.623569296
End final coordinates

     Writing output data file calc.save

     General routines

     Parallel routines

   This run was terminated on:  21:18:26   2May2018

   JOB DONE.
Job  /afs/slac/g/suncat/bin/suncat-tsmpirun -x LD_LIBRARY_PATH -wdir /scratch/qe157874_Po1bh pw.x -npool 4 -in pw.inp

TID   HOST_NAME   COMMAND_LINE            STATUS            TERMINATION_TIME
00000 suncat0260 pw.x -npool 4 -i  Done                     05/02/2018 21:18:26
00001 suncat0260 pw.x -npool 4 -i  Done                     05/02/2018 21:18:26
00002 suncat0260 pw.x -npool 4 -i  Done                     05/02/2018 21:18:26
00003 suncat0260 pw.x -npool 4 -i  Done                     05/02/2018 21:18:26
00004 suncat0260 pw.x -npool 4 -i  Done                     05/02/2018 21:18:26
00005 suncat0260 pw.x -npool 4 -i  Done                     05/02/2018 21:18:26
00006 suncat0260 pw.x -npool 4 -i  Done                     05/02/2018 21:18:26
00007 suncat0260 pw.x -npool 4 -i  Done                     05/02/2018 21:18:26
00008 suncat0237 pw.x -npool 4 -i  Done                     05/02/2018 21:18:26
00009 suncat0237 pw.x -npool 4 -i  Done                     05/02/2018 21:18:26
00010 suncat0237 pw.x -npool 4 -i  Done                     05/02/2018 21:18:26
00011 suncat0237 pw.x -npool 4 -i  Done                     05/02/2018 21:18:26
00012 suncat0237 pw.x -npool 4 -i  Done                     05/02/2018 21:18:26
00013 suncat0237 pw.x -npool 4 -i  Done                     05/02/2018 21:18:26
00014 suncat0237 pw.x -npool 4 -i  Done                     05/02/2018 21:18:26
00015 suncat0237 pw.x -npool 4 -i  Done                     05/02/2018 21:18:26
00016 suncat0236 pw.x -npool 4 -i  Done                     05/02/2018 21:18:26
00017 suncat0236 pw.x -npool 4 -i  Done                     05/02/2018 21:18:26
00018 suncat0236 pw.x -npool 4 -i  Done                     05/02/2018 21:18:26
00019 suncat0236 pw.x -npool 4 -i  Done                     05/02/2018 21:18:26
00020 suncat0236 pw.x -npool 4 -i  Done                     05/02/2018 21:18:26
00021 suncat0236 pw.x -npool 4 -i  Done                     05/02/2018 21:18:26
00022 suncat0236 pw.x -npool 4 -i  Done                     05/02/2018 21:18:26
00023 suncat0236 pw.x -npool 4 -i  Done                     05/02/2018 21:18:26
00024 suncat0228 pw.x -npool 4 -i  Done                     05/02/2018 21:18:26
00025 suncat0228 pw.x -npool 4 -i  Done                     05/02/2018 21:18:26
00026 suncat0228 pw.x -npool 4 -i  Done                     05/02/2018 21:18:26
00027 suncat0228 pw.x -npool 4 -i  Done                     05/02/2018 21:18:26
00028 suncat0228 pw.x -npool 4 -i  Done                     05/02/2018 21:18:26
00029 suncat0228 pw.x -npool 4 -i  Done                     05/02/2018 21:18:26
00030 suncat0228 pw.x -npool 4 -i  Done                     05/02/2018 21:18:26
00031 suncat0228 pw.x -npool 4 -i  Done                     05/02/2018 21:18:26