     Program PWSCF v.5.1rc2 (svn rev. 11289) starts on 19Apr2018 at  8:57:21

     Current dimensions of program PWSCF are:
     Max number of different atomic species (ntypx) = 10
     Max number of k-points (npk) =  40000
     Max angular momentum in pseudopotentials (lmaxx) =  3
     Presently stress not available with electric field

     IMPORTANT: XC functional enforced from input :
     Exchange-correlation      = BEEF-VDW ( 1  4 27 13 2)
     Any further DFT definition will be discarded
     Please, verify this is what you really want

     Subspace diagonalization in iterative solution of the eigenvalue problem:
     a serial algorithm will be used

     bravais-lattice index     =            0
     lattice parameter (alat)  =       1.8897  a.u.
     unit-cell volume          =    5182.3421 (a.u.)^3
     number of atoms/cell      =           14
     number of atomic types    =            3
     number of electrons       =       163.00
     number of Kohn-Sham states=           91
     kinetic-energy cutoff     =      36.7493  Ry
     charge density cutoff     =     367.4932  Ry
     convergence threshold     =      1.0E-05
     mixing beta               =       0.3000
     number of iterations used =           10  plain     mixing
     Exchange-correlation      = BEEF-VDW ( 1  4 27 13 2)
     nstep                     =           50

     celldm(1)=   1.889726  celldm(2)=   0.000000  celldm(3)=   0.000000
     celldm(4)=   0.000000  celldm(5)=   0.000000  celldm(6)=   0.000000

     crystal axes: (cart. coord. in units of alat)
               a(1) = (   5.970602   0.000000   0.000000 )
               a(2) = (   2.985301   5.170693   0.000000 )
               a(3) = (   0.000000   0.000000  24.874976 )

     reciprocal axes: (cart. coord. in units 2 pi/alat)
               b(1) = (  0.167487 -0.096699  0.000000 )
               b(2) = (  0.000000  0.193398  0.000000 )
               b(3) = (  0.000000  0.000000  0.040201 )

     PseudoPot. # 1 for Nb read from file:
     /u/if/mamunm/psp/gbrv1.5pbe/Nb.UPF
     MD5 check sum: 573aab8a2fa660278ed4a62cd769473f
     Pseudo is Ultrasoft + core correction, Zval = 13.0
     Generated by new atomic code, or converted to UPF format
     Using radial grid of  887 points,  6 beta functions with:
                l(1) =   0
                l(2) =   0
                l(3) =   1
                l(4) =   1
                l(5) =   2
                l(6) =   2
     Q(r) pseudized with  6 coefficients,  rinner =    1.000   1.000   1.000
                                                       1.000   1.000

     PseudoPot. # 2 for O  read from file:
     /u/if/mamunm/psp/gbrv1.5pbe/O.UPF
     MD5 check sum: 734c27235a0248c51dbae37a1fbe46ec
     Pseudo is Ultrasoft + core correction, Zval =  6.0
     Generated by new atomic code, or converted to UPF format
     Using radial grid of  737 points,  5 beta functions with:
                l(1) =   0
                l(2) =   0
                l(3) =   1
                l(4) =   1
                l(5) =   2
     Q(r) pseudized with  8 coefficients,  rinner =    0.900   0.900   0.900
                                                       0.900   0.900

     PseudoPot. # 3 for H  read from file:
     /u/if/mamunm/psp/gbrv1.5pbe/H.UPF
     MD5 check sum: 761ae9a214b05c3daf00ab9f6b793d6f
     Pseudo is Ultrasoft, Zval =  1.0
     Generated by new atomic code, or converted to UPF format
     Using radial grid of  615 points,  2 beta functions with:
                l(1) =   0
                l(2) =   0
     Q(r) pseudized with  8 coefficients,  rinner =    0.700

     vdW kernel table read from file vdW_kernel_table
     MD5 check sum: 095c7af220d748ca6e76c0b4c6cfb241

     atomic species   valence    mass     pseudopotential
        Nb1           13.00    92.90637     Nb( 1.00)
        O1             6.00    15.99900     O ( 1.00)
        H1             1.00     1.00800     H ( 1.00)

     No symmetry found

   Cartesian axes

     site n.     atom                  positions (alat units)
         1           Nb1 tau(   1) = (   1.4926504   0.8617821  10.0000000  )
         2           Nb1 tau(   2) = (   4.4779512   0.8617821  10.0000000  )
         3           Nb1 tau(   3) = (   2.9853008   3.4471284  10.0000000  )
         4           Nb1 tau(   4) = (   5.9706016   3.4471284  10.0000000  )
         5           Nb1 tau(   5) = (   5.9706016   1.7235642  12.4374879  )
         6           Nb1 tau(   6) = (   2.9853008   1.7235642  12.4374879  )
         7           Nb1 tau(   7) = (   7.4632520   4.3089105  12.4374879  )
         8           Nb1 tau(   8) = (   4.4779512   4.3089105  12.4374879  )
         9           Nb1 tau(   9) = (   0.0000000   0.0000000  14.8749758  )
        10           Nb1 tau(  10) = (   2.9853008   0.0000000  14.8749758  )
        11           Nb1 tau(  11) = (   1.4926504   2.5853463  14.8749758  )
        12           Nb1 tau(  12) = (   4.4779512   2.5853463  14.8749758  )
        13           O1  tau(  13) = (   1.4926504   0.8617821  16.3699758  )
        14           H1  tau(  14) = (   1.4926504   0.8617821  17.3199758  )

     number of k points=    20  Fermi-Dirac smearing, width (Ry)=  0.0110
                       cart. coord. in units 2pi/alat
        k(    1) = (   0.0000000   0.0000000   0.0000000), wk =   0.0555556
        k(    2) = (   0.0000000   0.0322329   0.0000000), wk =   0.1111111
        k(    3) = (   0.0000000   0.0644659   0.0000000), wk =   0.1111111
        k(    4) = (   0.0000000  -0.0966988   0.0000000), wk =   0.0555556
        k(    5) = (   0.0279146  -0.0161165   0.0000000), wk =   0.1111111
        k(    6) = (   0.0279146   0.0161165   0.0000000), wk =   0.1111111
        k(    7) = (   0.0279146   0.0483494   0.0000000), wk =   0.1111111
        k(    8) = (   0.0279146  -0.1128153   0.0000000), wk =   0.1111111
        k(    9) = (   0.0279146  -0.0805824   0.0000000), wk =   0.1111111
        k(   10) = (   0.0279146  -0.0483494   0.0000000), wk =   0.1111111
        k(   11) = (   0.0558291  -0.0322329   0.0000000), wk =   0.1111111
        k(   12) = (   0.0558291   0.0000000   0.0000000), wk =   0.1111111
        k(   13) = (   0.0558291   0.0322329   0.0000000), wk =   0.1111111
        k(   14) = (   0.0558291  -0.1289318   0.0000000), wk =   0.1111111
        k(   15) = (   0.0558291  -0.0966988   0.0000000), wk =   0.1111111
        k(   16) = (   0.0558291  -0.0644659   0.0000000), wk =   0.1111111
        k(   17) = (  -0.0837437   0.0483494   0.0000000), wk =   0.0555556
        k(   18) = (  -0.0837437   0.0805824   0.0000000), wk =   0.1111111
        k(   19) = (  -0.0837437   0.1128153   0.0000000), wk =   0.1111111
        k(   20) = (  -0.0837437  -0.0483494   0.0000000), wk =   0.0555556

     Largest allocated arrays     est. size (Mb)     dimensions
     Largest temporary arrays     est. size (Mb)     dimensions

     Initial potential from superposition of free atoms
     Check: negative starting charge=   -0.005047

     starting charge  162.96719, renormalised to  163.00000

     negative rho (up, down):  5.048E-03 0.000E+00

     *
     * You are using vdW-DF for exchange-correlation in this calculation.
     * Please cite the following three references that made this development
     * possible:
     *
     *   M. Dion, H. Rydberg, E. Schroder, D. C. Langreth, and
     *   B. I. Lundqvist, Phys. Rev. Lett. 92, 246401 (2004).
     *
     *   T. Thonhauser, V. R. Cooper, S. Li, A. Puzder, P. Hyldgaard, and
     *   D. C. Langreth, Phys. Rev. B 76, 125112 (2007).
     *
     *   G. Roman-Perez and J. M. Soler, Phys. Rev. Lett. 103, 096102 (2009).
     *
     *
     * If you are using vdW-DF2, please also cite:
     *
     *   K. Lee, E. D. Murray, L. Kong, B. I. Lundqvist, and
     *   D. C. Langreth, Phys. Rev. B 82, 081101(R) (2010).
     *
     *
     * If you are calculating the stress with vdW-DF, please also cite:
     *
     *   R. Sabatini, E. Kucukbenli, B. Kolb, T. Thonhauser, and
     *   S. de Gironcoli, J. Phys.: Condens. Matter 24, 424209 (2012).
     *

     Carrying out vdW-DF run using the following parameters:

     Nqs =      20    Nr_points =    1024   r_max =   100.000
     q_mesh =
               0.00001000     0.04494208     0.09755937     0.15916263
               0.23128650     0.31572767     0.41458969     0.53033537
               0.66584808     0.82450364     1.01025438     1.22772762
               1.48234092     1.78043706     2.12944203     2.53805004
               3.01644009     3.57652955     4.23227104     5.00000000

     Gradients computed in reciprocal space

     Adding external electric field

     Computed dipole along edir(3) :
        Dipole               -0.0108 Ry au,         -0.0273 Debye
        Dipole field         -0.0000 Ry au

        Potential amp.        0.0024 Ry
        Total length         45.8317 bohr

     Starting wfc are  161 randomized atomic wfcs

     Self-consistent Calculation

     iteration #  1     ecut=    36.75 Ry     beta=0.30
     Davidson diagonalization with overlap
     ethr =  1.00E-02,  avg # of iterations =  2.0

[...]

     total energy              =   -1453.93555506 Ry
     Harris-Foulkes estimate   =   -1456.69863224 Ry
     estimated scf accuracy    <       6.11408336 Ry

[...]

     End of self-consistent calculation

          k = 0.0000 0.0000 0.0000 ( 19435 PWs)   bands (ev):

   -52.7979 -52.6802 -52.6800 -52.6646 -52.5931 -52.5546 -52.5222 -52.5221
   -52.5210 -52.4683 -52.4682 -52.4504 -29.2980 -29.1811 -29.1811 -29.1254
   -29.0947 -29.0887 -29.0887 -29.0291 -29.0285 -29.0284 -28.7913 -28.7175
   -28.7173 -28.6372 -28.5693 -28.5693 -28.5619 -28.5070 -28.5069 -28.5030
   -28.3865 -28.3865 -28.3813 -28.3522 -28.3521 -28.3368 -28.2865 -28.2816
   -28.2816 -28.2577 -28.2535 -28.2535 -28.1650 -28.1650 -28.0896 -28.0896
   -18.9630  -7.0547  -3.1783  -3.1783  -2.9785  -1.6780  -1.2504  -1.1186
    -1.0432  -1.0432  -0.7528  -0.7528  -0.6894  -0.4183  -0.4183  -0.3629
    -0.2372  -0.2372  -0.0732   0.8660   0.8660   1.1625   1.7344   1.8442
     1.8442   1.8884   2.1422   2.4996   2.5357   2.5357   2.7520   2.7520
     2.8249   2.8249   2.8690   2.8793   2.9071   2.9071   2.9813   2.9813
     3.3381   3.7537   3.7537

[...]

          k =-0.0837 0.0483 0.0000 ( 19524 PWs)   bands (ev):

[...]

     the Fermi energy is     2.4680 ev

!    total energy              =   -1456.04046299 Ry
     Harris-Foulkes estimate   =   -1456.04045116 Ry
     estimated scf accuracy    <       0.00000443 Ry

     The total energy is the sum of the following terms:

     one-electron contribution =  -11883.40399419 Ry
     hartree contribution      =    5939.18633293 Ry
     xc contribution           =    -236.63244976 Ry
     ewald contribution        =    4724.92850088 Ry
     electric field correction =       0.00034996 Ry
     smearing contrib. (-TS)   =      -0.11920281 Ry

     convergence has been achieved in  15 iterations

 BEEF-vdW xc energy contributions
           1 :   -202.842248200500
           2 :    184.195548089941
           3 :   -152.485439177686
           4 :    116.289911571706
           5 :   -83.7806580342440
           6 :    60.0126360819590
           7 :   -45.8868253264972
           8 :    38.8632889438732
           9 :   -34.8586892348757
          10 :    30.3022406223439
          11 :   -23.4777736365184
          12 :    14.7281221711596
          13 :   -5.70420061875208
          14 :   -1.80557759893895
          15 :    6.82886587946479
          16 :   -9.55542876825237
          17 :    11.0246362263631
          18 :   -12.4325114231232
          19 :    14.4558722213037
          20 :   -16.9473611473470
          21 :    19.1140792002091
          22 :   -20.0368952711654
          23 :    19.2111330100703
          24 :   -16.8199840261049
          25 :    13.6184852371880
          26 :   -10.5356037230827
          27 :    8.23180910170672
          28 :   -6.84920757970295
          29 :    6.05480730017837
          30 :   -5.32030789938693
          31 :   -23.3886565341927
          32 :   -17.6039558340900

     Forces acting on atoms (Ry/au):

     negative rho (up, down):  4.506E-03 0.000E+00
     atom    1 type  1   force =    -0.00000195    0.00000599   -0.00669940
     atom    2 type  1   force =     0.00000181    0.00171231   -0.00465589
     atom    3 type  1   force =     0.00148094   -0.00085620   -0.00465564
     atom    4 type  1   force =    -0.00147921   -0.00085648   -0.00465942
     atom    5 type  1   force =     0.00173140   -0.00099118    0.00151877
     atom    6 type  1   force =    -0.00172852   -0.00099700    0.00152020
     atom    7 type  1   force =    -0.00000595   -0.00000252   -0.00952466
     atom    8 type  1   force =     0.00000578    0.00199281    0.00151179
     atom    9 type  1   force =    -0.01823379   -0.01051922    0.03235300
     atom   10 type  1   force =     0.01823377   -0.01052261    0.03234986
     atom   11 type  1   force =    -0.00000300    0.02105381    0.03233943
     atom   12 type  1   force =     0.00000178   -0.00000626   -0.03212551
     atom   13 type  2   force =    -0.00000291   -0.00001462   -0.08727908
     atom   14 type  3   force =    -0.00000017    0.00000116    0.04800655

     Total force =     0.124189     Total SCF correction =     0.005934

     entering subroutine stress ...

     negative rho (up, down):  4.506E-03 0.000E+00
          total   stress  (Ry/bohr**3)                   (kbar)     P=  -19.19
  -0.00021418   0.00000000   0.00000000        -31.51      0.00      0.00
   0.00000000  -0.00021418   0.00000001          0.00    -31.51      0.00
   0.00000000   0.00000001   0.00003696          0.00      0.00      5.44

     BFGS Geometry Optimization

     number of scf cycles    =   1
     number of bfgs steps    =   0

     energy   new            =   -1456.0404629887 Ry

     new trust radius        =       0.0872790821 bohr
     new conv_thr            =       0.0000099958 Ry

ATOMIC_POSITIONS (crystal)
Nb1      0.166666667   0.166666667   0.402010442    0   0   0
Nb1      0.666666667   0.166666667   0.402010442    0   0   0
Nb1      0.166666667   0.666666667   0.402010442    0   0   0
Nb1      0.666666667   0.666666667   0.402010442    0   0   0
Nb1      0.833333333   0.333333333   0.500000000    0   0   0
Nb1      0.333333333   0.333333333   0.500000000    0   0   0
Nb1      0.833333333   0.833333333   0.500000000    0   0   0
Nb1      0.333333333   0.833333333   0.500000000    0   0   0
Nb1     -0.001077792  -0.001076554   0.598677819
Nb1      0.502154519  -0.001076901   0.598677752
Nb1     -0.001077607   0.502154682   0.598677530
Nb1      0.500000478   0.499999359   0.597306137
O1       0.166667157   0.166665170   0.656233390
H1       0.166666592   0.166666785   0.697302377

     Writing output data file calc.save
     Check: negative starting charge=   -0.005047
     NEW-OLD atomic charge density approx. for the potential
     Check: negative starting charge=   -0.005020

[...]

     energy   old            =   -1456.0404629887 Ry
     energy   new            =   -1456.0453292384 Ry

     CASE: energy  _new < energy  _old

[...]

     Total force =     0.014167     Total SCF correction =     0.001076

[...]

     Total force =     0.004486     Total SCF correction =     0.000559
     SCF correction compared to forces is large: reduce conv_thr to get better values

[...]

     number of scf cycles    =  10
     number of bfgs steps    =   9

     energy   old            =   -1456.0700627162 Ry
     energy   new            =   -1456.0707103674 Ry

     CASE: energy  _new < energy  _old

     new trust radius        =       0.0175714918 bohr
     new conv_thr            =       0.0000001000 Ry

ATOMIC_POSITIONS (crystal)
Nb1      0.166666667   0.166666667   0.402010442    0   0   0
Nb1      0.666666667   0.166666667   0.402010442    0   0   0
Nb1      0.166666667   0.666666667   0.402010442    0   0   0
Nb1      0.666666667   0.666666667   0.402010442    0   0   0
Nb1      0.833333333   0.333333333   0.500000000    0   0   0
Nb1      0.333333333   0.333333333   0.500000000    0   0   0
Nb1      0.833333333   0.833333333   0.500000000    0   0   0
Nb1      0.333333333   0.833333333   0.500000000    0   0   0
Nb1     -0.006489143  -0.006486425   0.602050055
Nb1      0.512967747  -0.006484679   0.602049138
Nb1     -0.006490430   0.512977784   0.602050322
Nb1      0.500002570   0.499997517   0.583047340
O1       0.166650503   0.166678042   0.656258907
H1       0.166668019   0.166664907   0.695396559

     Writing output data file calc.save
     Check: negative starting charge=   -0.005105
     NEW-OLD atomic charge density approx. for the potential
     Check: negative starting charge=   -0.005105

[...]

     Self-consistent Calculation

[...]

     total energy              =   -1456.07074663 Ry
     Harris-Foulkes estimate   =   -1456.07074649 Ry
     estimated scf accuracy    <       0.00000057 Ry

     iteration # 10     ecut=    36.75 Ry     beta=0.30
     Davidson diagonalization with overlap
     ethr =  2.16E-10,  avg # of iterations =  3.0

[...]

     negative rho (up, down):  4.548E-03 0.000E+00

     Adding external electric field

     Computed dipole along edir(3) :
        Dipole                0.4071 Ry au,          1.0348 Debye
        Dipole field          0.0010 Ry au

        Potential amp.       -0.0905 Ry
        Total length         45.8317 bohr

     End of self-consistent calculation

[...]

          k = 0.0558-0.0645 0.0000 ( 19505 PWs)   bands (ev):

[...]

          k =-0.0837-0.0483 0.0000 ( 19524 PWs)   bands (ev):

   -52.7489 -52.6986 -52.6698 -52.5537 -52.5519 -52.4829 -52.4790 -52.4679
   -52.4535 -52.3988 -52.3747 -52.2461 -29.1050 -29.0283 -28.9704 -28.9554
   -28.9011 -28.8986 -28.8593 -28.8200 -28.8101 -28.8021 -28.7670 -28.7320
   -28.7277 -28.6788 -28.6446 -28.5748 -28.5636 -28.5472 -28.5039 -28.4963
   -28.4564 -28.4509 -28.4168 -28.4046 -28.3795 -28.3739 -28.3246 -28.2981
   -28.2632 -28.2362 -28.2322 -28.1516 -28.1195 -28.0724 -27.9946 -27.9198
   -19.1427  -7.1187  -3.6078  -3.4747  -1.3994  -1.3338  -0.5076  -0.3399
    -0.1711  -0.1324  -0.0233   0.0349   0.0543   0.2894   0.4772   0.6337
     0.6682   0.7516   0.7823   0.9558   1.0915   1.2609   1.3840   1.4023
     1.4817   1.4922   1.6812   1.8437   1.8593   2.0249   2.1132   2.1421
     2.1645   2.2546   2.3625   2.5780   2.5939   2.6488   2.7914   2.9847
     3.0209   3.2067   3.5893

     the Fermi energy is     2.4995 ev

!    total energy              =   -1456.07074662 Ry
     Harris-Foulkes estimate   =   -1456.07074663 Ry
     estimated scf accuracy    <       0.00000008 Ry

     The total energy is the sum of the following terms:

     one-electron contribution =  -11914.23849946 Ry
     hartree contribution      =    5954.82765350 Ry
     xc contribution           =    -236.71905723 Ry
     ewald contribution        =    4740.16830269 Ry
     electric field correction =       0.00040194 Ry
     smearing contrib. (-TS)   =      -0.10954807 Ry

     convergence has been achieved in  10 iterations

 BEEF-vdW xc energy contributions
           1 :   -202.932542183146
           2 :    184.307011297773
           3 :   -152.616402019166
           4 :    116.411750682545
           5 :   -83.8497106017265
           6 :    59.9869638041063
           7 :   -45.7449290517697
           8 :    38.6191847610626
           9 :   -34.5642675666159
          10 :    30.0302129085935
          11 :   -23.2895875219612
          12 :    14.6428729044650
          13 :   -5.68759901458114
          14 :   -1.82443501909421
          15 :    6.92146597497774
          16 :   -9.75642402562283
          17 :    11.3127583119293
          18 :   -12.7397853973435
          19 :    14.7012662009930
          20 :   -17.0768836860604
          21 :    19.1268239217185
          22 :   -19.9851976423739
          23 :    19.1749776920739
          24 :   -16.8683754034154
          25 :    13.7761796038872
          26 :   -10.7703804934506
          27 :    8.46854828212045
          28 :   -7.00597170909705
          29 :    6.08446516408142
          30 :   -5.23487667830085
          31 :   -23.3942051572368
          32 :   -17.6116741615093

     Forces acting on atoms (Ry/au):

     negative rho (up, down):  4.548E-03 0.000E+00
     atom    1 type  1   force =    -0.00000007   -0.00000005    0.00152731
     atom    2 type  1   force =     0.00000027   -0.00015508   -0.00361924
     atom    3 type  1   force =    -0.00013363    0.00007726   -0.00361756
     atom    4 type  1   force =     0.00013381    0.00007738   -0.00361564
     atom    5 type  1   force =     0.02932440   -0.01692889   -0.00434959
     atom    6 type  1   force =    -0.02932189   -0.01693022   -0.00434403
     atom    7 type  1   force =    -0.00000360    0.00000153    0.02304581
     atom    8 type  1   force =     0.00000224    0.03385703   -0.00434478
     atom    9 type  1   force =    -0.00047243   -0.00027078   -0.00083759
     atom   10 type  1   force =     0.00046811   -0.00026922   -0.00083033
     atom   11 type  1   force =    -0.00000097    0.00054505   -0.00083926
     atom   12 type  1   force =    -0.00000341    0.00000391    0.00037186
     atom   13 type  2   force =     0.00000905   -0.00000975    0.00038648
     atom   14 type  3   force =    -0.00000188    0.00000185    0.00106656

     Total force =     0.002099     Total SCF correction =     0.000793
     SCF correction compared to forces is large: reduce conv_thr to get better values

     entering subroutine stress ...

     negative rho (up, down):  4.548E-03 0.000E+00
          total   stress  (Ry/bohr**3)                   (kbar)     P=  -17.27
  -0.00017919  -0.00000000   0.00000000        -26.36     -0.00      0.00
  -0.00000000  -0.00017919  -0.00000000         -0.00    -26.36     -0.00
   0.00000000  -0.00000000   0.00000618          0.00     -0.00      0.91

     bfgs converged in  11 scf cycles and  10 bfgs steps
     (criteria: energy <  1.0E+00, force <  1.9E-03)

     End of BFGS Geometry Optimization

     Final energy   =   -1456.0707466174 Ry
Begin final coordinates

ATOMIC_POSITIONS (crystal)
Nb1      0.166666667   0.166666667   0.402010442    0   0   0
Nb1      0.666666667   0.166666667   0.402010442    0   0   0
Nb1      0.166666667   0.666666667   0.402010442    0   0   0
Nb1      0.666666667   0.666666667   0.402010442    0   0   0
Nb1      0.833333333   0.333333333   0.500000000    0   0   0
Nb1      0.333333333   0.333333333   0.500000000    0   0   0
Nb1      0.833333333   0.833333333   0.500000000    0   0   0
Nb1      0.333333333   0.833333333   0.500000000    0   0   0
Nb1     -0.006489143  -0.006486425   0.602050055
Nb1      0.512967747  -0.006484679   0.602049138
Nb1     -0.006490430   0.512977784   0.602050322
Nb1      0.500002570   0.499997517   0.583047340
O1       0.166650503   0.166678042   0.656258907
H1       0.166668019   0.166664907   0.695396559
End final coordinates

     Writing output data file calc.save

     General routines

     Parallel routines

   This run was terminated on:  10:20: 0  19Apr2018

   JOB DONE.
Job  /afs/slac/g/suncat/bin/suncat-tsmpirun -x LD_LIBRARY_PATH -wdir /scratch/qe720534_jOjbN pw.x -npool 4 -in pw.inp

TID   HOST_NAME   COMMAND_LINE            STATUS            TERMINATION_TIME
00000 suncat0129 pw.x -npool 4 -i  Done                     04/19/2018 10:20:00
00001 suncat0129 pw.x -npool 4 -i  Done                     04/19/2018 10:20:00
00002 suncat0129 pw.x -npool 4 -i  Done                     04/19/2018 10:20:00
00003 suncat0129 pw.x -npool 4 -i  Done                     04/19/2018 10:20:00
00004 suncat0129 pw.x -npool 4 -i  Done                     04/19/2018 10:20:00
00005 suncat0129 pw.x -npool 4 -i  Done                     04/19/2018 10:20:00
00006 suncat0129 pw.x -npool 4 -i  Done                     04/19/2018 10:20:00
00007 suncat0129 pw.x -npool 4 -i  Done                     04/19/2018 10:20:00
00008 suncat0274 pw.x -npool 4 -i  Done                     04/19/2018 10:20:00
00009 suncat0274 pw.x -npool 4 -i  Done                     04/19/2018 10:20:00
00010 suncat0274 pw.x -npool 4 -i  Done                     04/19/2018 10:20:00
00011 suncat0274 pw.x -npool 4 -i  Done                     04/19/2018 10:20:00
00012 suncat0274 pw.x -npool 4 -i  Done                     04/19/2018 10:20:00
00013 suncat0274 pw.x -npool 4 -i  Done                     04/19/2018 10:20:00
00014 suncat0274 pw.x -npool 4 -i  Done                     04/19/2018 10:20:00
00015 suncat0274 pw.x -npool 4 -i  Done                     04/19/2018 10:20:00
00016 suncat0271 pw.x -npool 4 -i  Done                     04/19/2018 10:20:00
00017 suncat0271 pw.x -npool 4 -i  Done                     04/19/2018 10:20:00
00018 suncat0271 pw.x -npool 4 -i  Done                     04/19/2018 10:20:00
00019 suncat0271 pw.x -npool 4 -i  Done                     04/19/2018 10:20:00
00020 suncat0271 pw.x -npool 4 -i  Done                     04/19/2018 10:20:00
00021 suncat0271 pw.x -npool 4 -i  Done                     04/19/2018 10:20:00
00022 suncat0271 pw.x -npool 4 -i  Done                     04/19/2018 10:20:00
00023 suncat0271 pw.x -npool 4 -i  Done                     04/19/2018 10:20:00
00024 suncat0266 pw.x -npool 4 -i  Done                     04/19/2018 10:20:00
00025 suncat0266 pw.x -npool 4 -i  Done                     04/19/2018 10:20:00
00026 suncat0266 pw.x -npool 4 -i  Done                     04/19/2018 10:20:00
00027 suncat0266 pw.x -npool 4 -i  Done                     04/19/2018 10:20:00
00028 suncat0266 pw.x -npool 4 -i  Done                     04/19/2018 10:20:00
00029 suncat0266 pw.x -npool 4 -i  Done                     04/19/2018 10:20:00
00030 suncat0266 pw.x -npool 4 -i  Done                     04/19/2018 10:20:00
00031 suncat0266 pw.x -npool 4 -i  Done                     04/19/2018 10:20:00