     Program PWSCF v.5.1rc2 (svn rev. 11289) starts on  3May2018 at  4:53:23

     Current dimensions of program PWSCF are:
     Max number of different atomic species (ntypx) = 10
     Max number of k-points (npk) =  40000
     Max angular momentum in pseudopotentials (lmaxx) =  3
     Presently stress not available with electric field

     IMPORTANT: XC functional enforced from input :
     Exchange-correlation      = BEEF-VDW ( 1  4 27 13 2)
     Any further DFT definition will be discarded
     Please, verify this is what you really want

     Subspace diagonalization in iterative solution of the eigenvalue problem:
     a serial algorithm will be used

     bravais-lattice index     =            0
     lattice parameter (alat)  =       1.8897  a.u.
     unit-cell volume          =    4704.3541 (a.u.)^3
     number of atoms/cell      =           13
     number of atomic types    =            2
     number of electrons       =       173.00
     number of Kohn-Sham states=           96
     kinetic-energy cutoff     =      36.7493  Ry
     charge density cutoff     =     367.4932  Ry
     convergence threshold     =      1.0E-05
     mixing beta               =       0.3000
     number of iterations used =           10  plain     mixing
     Exchange-correlation      = BEEF-VDW ( 1  4 27 13 2)
     nstep                     =           50

     celldm(1)=   1.889726  celldm(2)=   0.000000  celldm(3)=   0.000000
     celldm(4)=   0.000000  celldm(5)=   0.000000  celldm(6)=   0.000000

     crystal axes: (cart. coord. in units of alat)
               a(1) = (   5.712816   0.000000   0.000000 )
               a(2) = (   2.856408   4.947444   0.000000 )
               a(3) = (   0.000000   0.000000  24.664495 )

     reciprocal axes: (cart. coord. in units 2 pi/alat)
               b(1) = (  0.175045 -0.101062  0.000000 )
               b(2) = (  0.000000  0.202125  0.000000 )
               b(3) = (  0.000000  0.000000  0.040544 )

     PseudoPot. # 1 for W  read from file:
     /u/if/mamunm/psp/gbrv1.5pbe/W.UPF
     MD5 check sum: 9c083fa34c2a2ea0f02f1f893e16e1c8
     Pseudo is Ultrasoft + core correction, Zval = 14.0
     Generated by new atomic code, or converted to UPF format
     Using radial grid of  923 points,  8 beta functions with:
                l(1) =   0
                l(2) =   0
                l(3) =   0
                l(4) =   1
                l(5) =   1
                l(6) =   2
                l(7) =   2
                l(8) =   3
     Q(r) pseudized with  6 coefficients,  rinner =    1.350   1.350   1.350
                                                       1.350   1.350   1.350
                                                       1.350

     PseudoPot. # 2 for N  read from file:
     /u/if/mamunm/psp/gbrv1.5pbe/N.UPF
     MD5 check sum: 95339753478d7afb44899504a8723017
     Pseudo is Ultrasoft + core correction, Zval =  5.0
     Generated by new atomic code, or converted to UPF format
     Using radial grid of  729 points,  4 beta functions with:
                l(1) =   0
                l(2) =   0
                l(3) =   1
                l(4) =   1
     Q(r) pseudized with  8 coefficients,  rinner =    0.900   0.900   0.900

     vdW kernel table read from file vdW_kernel_table
     MD5 check sum: 095c7af220d748ca6e76c0b4c6cfb241

     atomic species   valence    mass     pseudopotential
        W1            14.00   183.84000     W ( 1.00)
        N1             5.00    14.00700     N ( 1.00)

     No symmetry found

   Cartesian axes

     site n.     atom                  positions (alat units)
         1           W1  tau(   1) = (   1.4282041   0.8245740  10.0000000  )
         2           W1  tau(   2) = (   4.2846123   0.8245740  10.0000000  )
         3           W1  tau(   3) = (   2.8564082   3.2982961  10.0000000  )
         4           W1  tau(   4) = (   5.7128165   3.2982961  10.0000000  )
         5           W1  tau(   5) = (   5.7128165   1.6491481  12.3322476  )
         6           W1  tau(   6) = (   2.8564082   1.6491481  12.3322476  )
         7           W1  tau(   7) = (   7.1410206   4.1228701  12.3322476  )
         8           W1  tau(   8) = (   4.2846123   4.1228701  12.3322476  )
         9           W1  tau(   9) = (   0.0000000   0.0000000  14.6644951  )
        10           W1  tau(  10) = (   2.8564082   0.0000000  14.6644951  )
        11           W1  tau(  11) = (   1.4282041   2.4737221  14.6644951  )
        12           W1  tau(  12) = (   4.2846123   2.4737221  14.6644951  )
        13           N1  tau(  13) = (   2.8564082   1.6491481  16.1789951  )

     number of k points=    20  Fermi-Dirac smearing, width (Ry)=  0.0110
                       cart. coord. in units 2pi/alat
        k(    1) = (   0.0000000   0.0000000   0.0000000), wk =   0.0555556
        k(    2) = (   0.0000000   0.0336874   0.0000000), wk =   0.1111111
        k(    3) = (   0.0000000   0.0673749   0.0000000), wk =   0.1111111
        k(    4) = (   0.0000000  -0.1010623   0.0000000), wk =   0.0555556
        k(    5) = (   0.0291742  -0.0168437   0.0000000), wk =   0.1111111
        k(    6) = (   0.0291742   0.0168437   0.0000000), wk =   0.1111111
        k(    7) = (   0.0291742   0.0505311   0.0000000), wk =   0.1111111
        k(    8) = (   0.0291742  -0.1179060   0.0000000), wk =   0.1111111
        k(    9) = (   0.0291742  -0.0842186   0.0000000), wk =   0.1111111
        k(   10) = (   0.0291742  -0.0505311   0.0000000), wk =   0.1111111
        k(   11) = (   0.0583483  -0.0336874   0.0000000), wk =   0.1111111
        k(   12) = (   0.0583483  -0.0000000   0.0000000), wk =   0.1111111
        k(   13) = (   0.0583483   0.0336874   0.0000000), wk =   0.1111111
        k(   14) = (   0.0583483  -0.1347497   0.0000000), wk =   0.1111111
        k(   15) = (   0.0583483  -0.1010623   0.0000000), wk =   0.1111111
        k(   16) = (   0.0583483  -0.0673749   0.0000000), wk =   0.1111111
        k(   17) = (  -0.0875225   0.0505311   0.0000000), wk =   0.0555556
        k(   18) = (  -0.0875225   0.0842186   0.0000000), wk =   0.1111111
        k(   19) = (  -0.0875225   0.1179060   0.0000000), wk =   0.1111111
        k(   20) = (  -0.0875225  -0.0505311   0.0000000), wk =   0.0555556

     Largest allocated arrays     est. size (Mb)     dimensions
     Largest temporary arrays     est. size (Mb)     dimensions

     Initial potential from superposition of free atoms
     Check: negative starting charge=   -0.760414

     starting charge  171.79591, renormalised to  173.00000

     negative rho (up, down):  7.657E-01 0.000E+00

     *
     * You are using vdW-DF for exchange-correlation in this calculation.
     * Please cite the following three references that made this development
     * possible:
     *
     *   M. Dion, H. Rydberg, E. Schroder, D. C. Langreth, and
     *   B. I. Lundqvist, Phys. Rev. Lett. 92, 246401 (2004).
     *
     *   T. Thonhauser, V. R. Cooper, S. Li, A. Puzder, P. Hyldgaard, and
     *   D. C. Langreth, Phys. Rev. B 76, 125112 (2007).
     *
     *   G. Roman-Perez and J. M. Soler, Phys. Rev. Lett. 103, 096102 (2009).
     *
     *
     * If you are using vdW-DF2, please also cite:
     *
     *   K. Lee, E. D. Murray, L. Kong, B. I. Lundqvist, and
     *   D. C. Langreth, Phys. Rev. B 82, 081101(R) (2010).
     *
     *
     * If you are calculating the stress with vdW-DF, please also cite:
     *
     *   R. Sabatini, E. Kucukbenli, B. Kolb, T. Thonhauser, and
     *   S. de Gironcoli, J. Phys.: Condens. Matter 24, 424209 (2012).
     *

     Carrying out vdW-DF run using the following parameters:

     Nqs =      20    Nr_points =    1024   r_max =   100.000
     q_mesh =
               0.00001000     0.04494208     0.09755937     0.15916263
               0.23128650     0.31572767     0.41458969     0.53033537
               0.66584808     0.82450364     1.01025438     1.22772762
               1.48234092     1.78043706     2.12944203     2.53805004
               3.01644009     3.57652955     4.23227104     5.00000000

     Gradients computed in reciprocal space

     Adding external electric field

     Computed dipole along edir(3) :
        Dipole               -0.2547 Ry au,         -0.6473 Debye
        Dipole field         -0.0007 Ry au

        Potential amp.        0.0618 Ry
        Total length         45.4439 bohr

     Starting wfc are  160 randomized atomic wfcs

     Self-consistent Calculation

     iteration #  1     ecut=    36.75 Ry     beta=0.30
     Davidson diagonalization with overlap
     ethr =  1.00E-02,  avg # of iterations =  2.0

[...]

     total energy              =   -1943.59041858 Ry
     Harris-Foulkes estimate   =   -1945.50466220 Ry
     estimated scf accuracy    <       4.21001780 Ry

[...]

     End of self-consistent calculation

          k = 0.0000 0.0000 0.0000 ( 17753 PWs)   bands (ev):

   -72.1367 -72.0737 -72.0736 -72.0361 -72.0252 -71.9817 -71.9592 -71.9590
   -71.9451 -71.9301 -71.9300 -71.9285 -36.6586 -36.6358 -36.6358 -36.5939
   -36.5833 -36.5780 -36.5779 -36.4455 -36.4448 -36.4448 -36.2574 -36.1629
   -36.1628 -36.1446 -36.0730 -36.0681 -36.0681 -35.9879 -35.9767 -35.9766
   -35.8736 -35.8717 -35.8715 -35.8633 -35.8624 -35.8622 -35.8010 -35.7555
   -35.7555 -35.7501 -35.7454 -35.7454 -35.6759 -35.6759 -35.5743 -35.5743
   -11.0471  -5.9412  -4.1247  -3.3922  -2.9093  -2.9093  -2.8375  -2.7320
    -2.7319  -2.6801  -2.0282  -2.0124  -2.0124  -1.8124  -1.8123  -1.7875
    -0.6975  -0.6975  -0.4408   0.1397   0.1397   0.3041   0.8762   0.8999
     0.8999   1.1439   1.5743   1.5878   1.5878   1.8262   1.8263   1.9343
     1.9343   1.9948   2.0741   2.1108   2.1108   2.2205   2.3612   2.3612
     3.1190   3.1190   3.1345   3.5323   3.8117   3.9455   3.9456   4.0766

[...]

          k =-0.0875 0.0505 0.0000 ( 17668 PWs)   bands (ev):

[...]

     the Fermi energy is     2.1758 ev

!    total energy              =   -1945.09838489 Ry
     Harris-Foulkes estimate   =   -1945.09841273 Ry
     estimated scf accuracy    <       0.00000805 Ry

     The total energy is the sum of the following terms:

     one-electron contribution =  -15030.09333198 Ry
     hartree contribution      =    7498.97466851 Ry
     xc contribution           =    -515.67917368 Ry
     ewald contribution        =    6101.79507483 Ry
     electric field correction =       0.00009679 Ry
     smearing contrib. (-TS)   =      -0.09571936 Ry

     convergence has been achieved in  14 iterations

 BEEF-vdW xc energy contributions
           1 :   -453.620906775546
           2 :    419.590039478504
           3 :   -359.681625797564
           4 :    287.048829114631
           5 :   -215.357277893112
           6 :    154.827776106562
           7 :   -110.071079934472
           8 :    80.2010739908960
           9 :   -60.8022848952608
          10 :    46.6483471910216
          11 :   -33.9535354156790
          12 :    21.3593200958567
          13 :   -9.56622465207124
          14 :   0.130577880382475
          15 :    5.80576685502598
          16 :   -8.24608248364154
          17 :    8.30839777150686
          18 :   -7.60530726119617
          19 :    7.44385230567639
          20 :   -8.27848835098752
          21 :    9.66711749315533
          22 :   -10.6978173569211
          23 :    10.6108078271078
          24 :   -9.26481028890987
          25 :    7.21126948900263
          26 :   -5.37080368660452
          27 :    4.51701582129499
          28 :   -4.86310883837581
          29 :    5.97391029496890
          30 :   -7.03531803457361
          31 :   -41.1682429353170
          32 :   -30.8235615549742

     Forces acting on atoms (Ry/au):

     negative rho (up, down):  7.928E-01 0.000E+00
     atom    1 type  1   force =    -0.00197474   -0.00116689   -0.00135304
     atom    2 type  1   force =     0.00197327   -0.00114552   -0.00137501
     atom    3 type  1   force =     0.00001841    0.00229947   -0.00134747
     atom    4 type  1   force =    -0.00001621    0.00001366   -0.00427342
     atom    5 type  1   force =     0.00000381   -0.00097952   -0.00610694
     atom    6 type  1   force =    -0.00000585    0.00000776    0.01987410
     atom    7 type  1   force =     0.00085748    0.00048467   -0.00611627
     atom    8 type  1   force =    -0.00085726    0.00048859   -0.00611622
     atom    9 type  1   force =     0.00001913   -0.00001553   -0.04398729
     atom   10 type  1   force =    -0.00001934    0.02067448    0.08353981
     atom   11 type  1   force =     0.01791960   -0.01034293    0.08356717
     atom   12 type  1   force =    -0.01791729   -0.01031915    0.08354411
     atom   13 type  2   force =    -0.00000102    0.00000091   -0.19984952

     Total force =     0.253179     Total SCF correction =     0.012708

     entering subroutine stress ...

     negative rho (up, down):  7.928E-01 0.000E+00
          total   stress  (Ry/bohr**3)                   (kbar)     P=  -53.37
  -0.00045015   0.00000000   0.00000000        -66.22      0.00      0.00
   0.00000000  -0.00045016   0.00000000          0.00    -66.22      0.00
   0.00000000   0.00000000  -0.00018807          0.00      0.00    -27.67

     BFGS Geometry Optimization

     number of scf cycles    =   1
     number of bfgs steps    =   0

     energy   new            =   -1945.0983848882 Ry

     new trust radius        =       0.1998495249 bohr
     new conv_thr            =       0.0000099958 Ry

ATOMIC_POSITIONS (crystal)
W1       0.166666667   0.166666667   0.405441099    0   0   0
W1       0.666666667   0.166666667   0.405441099    0   0   0
W1       0.166666667   0.666666667   0.405441099    0   0   0
W1       0.666666667   0.666666667   0.405441099    0   0   0
W1       0.833333333   0.333333333   0.500000000    0   0   0
W1       0.333333333   0.333333333   0.500000000    0   0   0
W1       0.833333333   0.833333333   0.500000000    0   0   0
W1       0.333333333   0.833333333   0.500000000    0   0   0
W1       0.000002603  -0.000001661   0.593615153
W1       0.498892541   0.002211336   0.596351249
W1       0.002213028   0.498893724   0.596351836
W1       0.498892191   0.498896266   0.596351341
N1       0.333333190   0.333333431   0.651675180

     Writing output data file calc.save
     Check: negative starting charge=   -0.760414
     NEW-OLD atomic charge density approx. for the potential
     Check: negative starting charge=   -0.760790

[...]

     energy   old            =   -1945.0983848882 Ry
     energy   new            =   -1945.1553673493 Ry

     CASE: energy  _new < energy  _old

[...]

     Threshold (ethr) on eigenvalues was too large:
     Diagonalizing with lowered threshold

     Davidson diagonalization with overlap
     ethr =  8.56E-08,  avg # of iterations =  2.0

[...]

     Total force =     0.002977     Total SCF correction =     0.000223

[...]

     number of scf cycles    =   9
     number of bfgs steps    =   8

     energy   old            =   -1945.2154916864 Ry
     energy   new            =   -1945.2155860005 Ry

     CASE: energy  _new < energy  _old

     new trust radius        =       0.0028377758 bohr
     new conv_thr            =       0.0000001000 Ry

ATOMIC_POSITIONS (crystal)
W1       0.166666667   0.166666667   0.405441099    0   0   0
W1       0.666666667   0.166666667   0.405441099    0   0   0
W1       0.166666667   0.666666667   0.405441099    0   0   0
W1       0.666666667   0.666666667   0.405441099    0   0   0
W1       0.833333333   0.333333333   0.500000000    0   0   0
W1       0.333333333   0.333333333   0.500000000    0   0   0
W1       0.833333333   0.833333333   0.500000000    0   0   0
W1       0.333333333   0.833333333   0.500000000    0   0   0
W1       0.000000857  -0.000000725   0.583717001
W1       0.501757925  -0.003515824   0.598034669
W1      -0.003516018   0.501757881   0.598034793
W1       0.501757974   0.501757705   0.598034722
N1       0.333333836   0.333332921   0.641514271

     Writing output data file calc.save
     Check: negative starting charge=   -0.760044
     NEW-OLD atomic charge density approx. for the potential
     Check: negative starting charge=   -0.759957

[...]

     Self-consistent Calculation

[...]

     Threshold (ethr) on eigenvalues was too large:
     Diagonalizing with lowered threshold

     Davidson diagonalization with overlap
     ethr =  5.44E-09,  avg # of iterations =  4.8

[...]

     total energy              =   -1945.21559492 Ry
     Harris-Foulkes estimate   =   -1945.21559494 Ry
     estimated scf accuracy    <       0.00000016 Ry

     iteration #  7     ecut=    36.75 Ry     beta=0.30
     Davidson diagonalization with overlap
     ethr =  9.14E-11,  avg # of iterations =  3.2

[...]

     negative rho (up, down):  7.930E-01 0.000E+00

     Adding external electric field

     Computed dipole along edir(3) :
        Dipole                0.0009 Ry au,          0.0024 Debye
        Dipole field          0.0000 Ry au

        Potential amp.       -0.0002 Ry
        Total length         45.4439 bohr

     End of self-consistent calculation

[...]

          k = 0.0583-0.0674 0.0000 ( 17692 PWs)   bands (ev):

[...]

          k =-0.0875-0.0505 0.0000 ( 17668 PWs)   bands (ev):

   -71.8997 -71.8828 -71.8640 -71.7866 -71.6963 -71.6809 -71.6700 -71.6505
   -71.6473 -71.6336 -71.6195 -71.6046 -36.3512 -36.2659 -36.2351 -36.2089
   -36.2011 -36.1893 -36.0770 -36.0683 -36.0521 -36.0464 -35.9985 -35.9902
   -35.9784 -35.9525 -35.8870 -35.8326 -35.8244 -35.8054 -35.7833 -35.7286
   -35.7115 -35.7093 -35.6781 -35.6769 -35.6699 -35.6462 -35.6234 -35.6032
   -35.5717 -35.5344 -35.5065 -35.4450 -35.4184 -35.3770 -35.3484 -35.3419
   -12.3705  -4.0252  -3.7690  -3.0110  -2.4691  -2.3413  -2.1542  -1.8162
    -1.5729  -1.4814  -1.3903  -1.3725  -1.1100  -0.9012  -0.5535  -0.5534
    -0.3586  -0.2842  -0.1758   0.0970   0.1903   0.3862   0.4023   0.4944
     0.6765   0.7967   0.8805   1.0319   1.2225   1.2601   1.3469   1.3713
     1.4443   1.5369   1.6809   1.9075   2.0104   2.0188   2.1178   2.4293
     2.6296   2.9319   2.9706   3.1487   3.5300   3.5583   3.5740   3.8082

     the Fermi energy is     2.4761 ev

!    total energy              =   -1945.21559491 Ry
     Harris-Foulkes estimate   =   -1945.21559494 Ry
     estimated scf accuracy    <       0.00000006 Ry

     The total energy is the sum of the following terms:

     one-electron contribution =  -15126.95960582 Ry
     hartree contribution      =    7548.66974956 Ry
     xc contribution           =    -516.05686366 Ry
     ewald contribution        =    6149.21696185 Ry
     electric field correction =       0.00000000 Ry
     smearing contrib. (-TS)   =      -0.08583684 Ry

     convergence has been achieved in   7 iterations

 BEEF-vdW xc energy contributions
           1 :   -453.999355161423
           2 :    420.054680823021
           3 :   -360.241530357325
           4 :    287.630859980328
           5 :   -215.848832956169
           6 :    155.123496321678
           7 :   -110.109985739936
           8 :    79.9878209162359
           9 :   -60.4079972417546
          10 :    46.1883948430129
          11 :   -33.5456294861083
          12 :    21.0779952529878
          13 :   -9.41682043645091
          14 :   5.659205706319881E-002
          15 :    5.88649199712592
          16 :   -8.39460289949966
          17 :    8.53059338973503
          18 :   -7.84909886529351
          19 :    7.62889411870299
          20 :   -8.34136002128696
          21 :    9.59838126528507
          22 :   -10.5525451439765
          23 :    10.4865136200316
          24 :   -9.25695254760194
          25 :    7.36743326279293
          26 :   -5.66525289187371
          27 :    4.85953946566269
          28 :   -5.14011095549449
          29 :    6.10185105899819
          30 :   -6.99978896610128
          31 :   -41.1899531594305
          32 :   -30.8625608460421

     Forces acting on atoms (Ry/au):

     negative rho (up, down):  7.930E-01 0.000E+00
     atom    1 type  1   force =    -0.00235177   -0.00135779   -0.00094975
     atom    2 type  1   force =     0.00235169   -0.00135771   -0.00094978
     atom    3 type  1   force =     0.00000004    0.00271562   -0.00094972
     atom    4 type  1   force =    -0.00000003    0.00000000    0.00204047
     atom    5 type  1   force =    -0.00000002    0.01923088   -0.01794196
     atom    6 type  1   force =     0.00000002    0.00000017    0.05792642
     atom    7 type  1   force =    -0.01665438   -0.00961550   -0.01794230
     atom    8 type  1   force =     0.01665434   -0.00961551   -0.01794277
     atom    9 type  1   force =    -0.00000042    0.00000050    0.00090422
     atom   10 type  1   force =     0.00000019   -0.00051776   -0.00089809
     atom   11 type  1   force =    -0.00044751    0.00025822   -0.00089861
     atom   12 type  1   force =     0.00044845    0.00025853   -0.00089842
     atom   13 type  2   force =    -0.00000059    0.00000035   -0.00149972

     Total force =     0.002508     Total SCF correction =     0.000527
     SCF correction compared to forces is large: reduce conv_thr to get better values

     entering subroutine stress ...

     negative rho (up, down):  7.930E-01 0.000E+00
          total   stress  (Ry/bohr**3)                   (kbar)     P=  -37.42
  -0.00033870   0.00000000   0.00000000        -49.82      0.00      0.00
   0.00000000  -0.00033870  -0.00000000          0.00    -49.82     -0.00
   0.00000000  -0.00000000  -0.00008578          0.00     -0.00    -12.62

     bfgs converged in  10 scf cycles and   9 bfgs steps
     (criteria: energy <  1.0E+00, force <  1.9E-03)

     End of BFGS Geometry Optimization

     Final energy   =   -1945.2155949104 Ry
Begin final coordinates

ATOMIC_POSITIONS (crystal)
W1       0.166666667   0.166666667   0.405441099    0   0   0
W1       0.666666667   0.166666667   0.405441099    0   0   0
W1       0.166666667   0.666666667   0.405441099    0   0   0
W1       0.666666667   0.666666667   0.405441099    0   0   0
W1       0.833333333   0.333333333   0.500000000    0   0   0
W1       0.333333333   0.333333333   0.500000000    0   0   0
W1       0.833333333   0.833333333   0.500000000    0   0   0
W1       0.333333333   0.833333333   0.500000000    0   0   0
W1       0.000000857  -0.000000725   0.583717001
W1       0.501757925  -0.003515824   0.598034669
W1      -0.003516018   0.501757881   0.598034793
W1       0.501757974   0.501757705   0.598034722
N1       0.333333836   0.333332921   0.641514271
End final coordinates

     Writing output data file calc.save

     General routines

     Parallel routines

   This run was terminated on:   6:18:29   3May2018

   JOB DONE.
Job  /afs/slac/g/suncat/bin/suncat-tsmpirun -x LD_LIBRARY_PATH -wdir /scratch/qe619576_lbZyI pw.x -npool 4 -in pw.inp

TID   HOST_NAME   COMMAND_LINE            STATUS            TERMINATION_TIME
00000 suncat0008 pw.x -npool 4 -i  Done                     05/03/2018 06:18:29
00001 suncat0008 pw.x -npool 4 -i  Done                     05/03/2018 06:18:29
00002 suncat0008 pw.x -npool 4 -i  Done                     05/03/2018 06:18:29
00003 suncat0008 pw.x -npool 4 -i  Done                     05/03/2018 06:18:29
00004 suncat0008 pw.x -npool 4 -i  Done                     05/03/2018 06:18:29
00005 suncat0008 pw.x -npool 4 -i  Done                     05/03/2018 06:18:29
00006 suncat0008 pw.x -npool 4 -i  Done                     05/03/2018 06:18:29
00007 suncat0008 pw.x -npool 4 -i  Done                     05/03/2018 06:18:29
00008 suncat0001 pw.x -npool 4 -i  Done                     05/03/2018 06:18:29
00009 suncat0001 pw.x -npool 4 -i  Done                     05/03/2018 06:18:29
00010 suncat0001 pw.x -npool 4 -i  Done                     05/03/2018 06:18:29
00011 suncat0001 pw.x -npool 4 -i  Done                     05/03/2018 06:18:29
00012 suncat0001 pw.x -npool 4 -i  Done                     05/03/2018 06:18:29
00013 suncat0001 pw.x -npool 4 -i  Done                     05/03/2018 06:18:29
00014 suncat0001 pw.x -npool 4 -i  Done                     05/03/2018 06:18:29
00015 suncat0001 pw.x -npool 4 -i  Done                     05/03/2018 06:18:29
00016 suncat0184 pw.x -npool 4 -i  Done                     05/03/2018 06:18:29
00017 suncat0184 pw.x -npool 4 -i  Done                     05/03/2018 06:18:29
00018 suncat0184 pw.x -npool 4 -i  Done                     05/03/2018 06:18:29
00019 suncat0184 pw.x -npool 4 -i  Done                     05/03/2018 06:18:29
00020 suncat0184 pw.x -npool 4 -i  Done                     05/03/2018 06:18:29
00021 suncat0184 pw.x -npool 4 -i  Done                     05/03/2018 06:18:29
00022 suncat0184 pw.x -npool 4 -i  Done                     05/03/2018 06:18:29
00023 suncat0184 pw.x -npool 4 -i  Done                     05/03/2018 06:18:29
00024 suncat0171 pw.x -npool 4 -i  Done                     05/03/2018 06:18:29
00025 suncat0171 pw.x -npool 4 -i  Done                     05/03/2018 06:18:29
00026 suncat0171 pw.x -npool 4 -i  Done                     05/03/2018 06:18:29
00027 suncat0171 pw.x -npool 4 -i  Done                     05/03/2018 06:18:29
00028 suncat0171 pw.x -npool 4 -i  Done                     05/03/2018 06:18:29
00029 suncat0171 pw.x -npool 4 -i  Done                     05/03/2018 06:18:29
00030 suncat0171 pw.x -npool 4 -i  Done                     05/03/2018 06:18:29
00031 suncat0171 pw.x -npool 4 -i  Done                     05/03/2018 06:18:29