     Program PWSCF v.5.1rc2 (svn rev. 11289) starts on  3May2018 at 19:19:47

     Current dimensions of program PWSCF are:
     Max number of different atomic species (ntypx) = 10
     Max number of k-points (npk) =  40000
     Max angular momentum in pseudopotentials (lmaxx) =  3
     Presently stress not available with electric field

     IMPORTANT: XC functional enforced from input :
     Exchange-correlation      = BEEF-VDW ( 1  4 27 13 2)
     Any further DFT definition will be discarded
     Please, verify this is what you really want

     Subspace diagonalization in iterative solution of the eigenvalue problem:
     a serial algorithm will be used

     bravais-lattice index     =            0
     lattice parameter (alat)  =       1.8897  a.u.
     unit-cell volume          =    5409.9593 (a.u.)^3
     number of atoms/cell      =           13
     number of atomic types    =            2
     number of electrons       =       233.00
     number of Kohn-Sham states=          126
     kinetic-energy cutoff     =      36.7493  Ry
     charge density cutoff     =     367.4932  Ry
     convergence threshold     =      1.0E-05
     mixing beta               =       0.3000
     number of iterations used =           10  plain     mixing
     Exchange-correlation      = BEEF-VDW ( 1  4 27 13 2)
     nstep                     =           50

     celldm(1)=   1.889726  celldm(2)=   0.000000  celldm(3)=   0.000000
     celldm(4)=   0.000000  celldm(5)=   0.000000  celldm(6)=   0.000000

     crystal axes: (cart. coord. in units of alat)
               a(1) = (   6.088539   0.000000   0.000000 )
               a(2) = (   3.044269   5.272829   0.000000 )
               a(3) = (   0.000000   0.000000  24.971271 )

     reciprocal axes: (cart. coord. in units 2 pi/alat)
               b(1) = (  0.164243 -0.094826  0.000000 )
               b(2) = (  0.000000  0.189652  0.000000 )
               b(3) = (  0.000000  0.000000  0.040046 )

     PseudoPot. # 1 for Ga read from file:
     /u/if/mamunm/psp/gbrv1.5pbe/Ga.UPF
     MD5 check sum: ccd671392a58a050fbb373893b4fcd66
     Pseudo is Ultrasoft + core correction, Zval = 19.0
     Generated by new atomic code, or converted to UPF format
     Using radial grid of  871 points,  6 beta functions with:
                l(1) =   0
                l(2) =   0
                l(3) =   1
                l(4) =   1
                l(5) =   2
                l(6) =   2
     Q(r) pseudized with  8 coefficients,  rinner =    1.250   1.250   1.250
                                                       1.250   1.250

     PseudoPot. # 2 for N  read from file:
     /u/if/mamunm/psp/gbrv1.5pbe/N.UPF
     MD5 check sum: 95339753478d7afb44899504a8723017
     Pseudo is Ultrasoft + core correction, Zval =  5.0
     Generated by new atomic code, or converted to UPF format
     Using radial grid of  729 points,  4 beta functions with:
                l(1) =   0
                l(2) =   0
                l(3) =   1
                l(4) =   1
     Q(r) pseudized with  8 coefficients,  rinner =    0.900   0.900   0.900

     vdW kernel table read from file vdW_kernel_table
     MD5 check sum: 095c7af220d748ca6e76c0b4c6cfb241

     atomic species   valence    mass     pseudopotential
        Ga1           19.00    69.72300     Ga( 1.00)
        N1             5.00    14.00700     N ( 1.00)

     No symmetry found

   Cartesian axes

     site n.     atom                  positions (alat units)
         1           Ga1 tau(   1) = (   1.5221346   0.8788048  10.0000000  )
         2           Ga1 tau(   2) = (   4.5664039   0.8788048  10.0000000  )
         3           Ga1 tau(   3) = (   3.0442693   3.5152194  10.0000000  )
         4           Ga1 tau(   4) = (   6.0885386   3.5152194  10.0000000  )
         5           Ga1 tau(   5) = (   6.0885386   1.7576097  12.4856355  )
         6           Ga1 tau(   6) = (   3.0442693   1.7576097  12.4856355  )
         7           Ga1 tau(   7) = (   7.6106732   4.3940242  12.4856355  )
         8           Ga1 tau(   8) = (   4.5664039   4.3940242  12.4856355  )
         9           Ga1 tau(   9) = (   0.0000000   0.0000000  14.9712709  )
        10           Ga1 tau(  10) = (   3.0442693   0.0000000  14.9712709  )
        11           Ga1 tau(  11) = (   1.5221346   2.6364145  14.9712709  )
        12           Ga1 tau(  12) = (   4.5664039   2.6364145  14.9712709  )
        13           N1  tau(  13) = (   3.0442693   1.7576097  16.2257709  )

     number of k points=    20  Fermi-Dirac smearing, width (Ry)=  0.0110
                       cart. coord. in units 2pi/alat
        k(    1) = (   0.0000000   0.0000000   0.0000000), wk =   0.0555556
        k(    2) = (   0.0000000   0.0316086   0.0000000), wk =   0.1111111
        k(    3) = (   0.0000000   0.0632172   0.0000000), wk =   0.1111111
        k(    4) = (   0.0000000  -0.0948258   0.0000000), wk =   0.0555556
        k(    5) = (   0.0273738  -0.0158043   0.0000000), wk =   0.1111111
        k(    6) = (   0.0273738   0.0158043   0.0000000), wk =   0.1111111
        k(    7) = (   0.0273738   0.0474129   0.0000000), wk =   0.1111111
        k(    8) = (   0.0273738  -0.1106300   0.0000000), wk =   0.1111111
        k(    9) = (   0.0273738  -0.0790215   0.0000000), wk =   0.1111111
        k(   10) = (   0.0273738  -0.0474129   0.0000000), wk =   0.1111111
        k(   11) = (   0.0547477  -0.0316086   0.0000000), wk =   0.1111111
        k(   12) = (   0.0547477   0.0000000   0.0000000), wk =   0.1111111
        k(   13) = (   0.0547477   0.0316086   0.0000000), wk =   0.1111111
        k(   14) = (   0.0547477  -0.1264343   0.0000000), wk =   0.1111111
        k(   15) = (   0.0547477  -0.0948258   0.0000000), wk =   0.1111111
        k(   16) = (   0.0547477  -0.0632172   0.0000000), wk =   0.1111111
        k(   17) = (  -0.0821215   0.0474129   0.0000000), wk =   0.0555556
        k(   18) = (  -0.0821215   0.0790215   0.0000000), wk =   0.1111111
        k(   19) = (  -0.0821215   0.1106300   0.0000000), wk =   0.1111111
        k(   20) = (  -0.0821215  -0.0474129   0.0000000), wk =   0.0555556

     Largest allocated arrays     est. size (Mb)     dimensions
     Largest temporary arrays     est. size (Mb)     dimensions

     Initial potential from superposition of free atoms
     Check: negative starting charge=   -0.001262

     starting charge  220.99998, renormalised to  233.00000

     negative rho (up, down):  1.331E-03 0.000E+00

     *
     * You are using vdW-DF for exchange-correlation in this calculation.
     * Please cite the following three references that made this development
     * possible:
     *
     *   M. Dion, H. Rydberg, E. Schroder, D. C. Langreth, and
     *   B. I. Lundqvist, Phys. Rev. Lett. 92, 246401 (2004).
     *
     *   T. Thonhauser, V. R. Cooper, S. Li, A. Puzder, P. Hyldgaard, and
     *   D. C. Langreth, Phys. Rev. B 76, 125112 (2007).
     *
     *   G. Roman-Perez and J. M. Soler, Phys. Rev. Lett. 103, 096102 (2009).
     *
     *
     * If you are using vdW-DF2, please also cite:
     *
     *   K. Lee, E. D. Murray, L. Kong, B. I. Lundqvist, and
     *   D. C. Langreth, Phys. Rev. B 82, 081101(R) (2010).
     *
     *
     * If you are calculating the stress with vdW-DF, please also cite:
     *
     *   R. Sabatini, E. Kucukbenli, B. Kolb, T. Thonhauser, and
     *   S. de Gironcoli, J. Phys.: Condens. Matter 24, 424209 (2012).
     *

     Carrying out vdW-DF run using the following parameters:

     Nqs =      20    Nr_points =    1024   r_max =   100.000
     q_mesh =
               0.00001000     0.04494208     0.09755937     0.15916263
               0.23128650     0.31572767     0.41458969     0.53033537
               0.66584808     0.82450364     1.01025438     1.22772762
               1.48234092     1.78043706     2.12944203     2.53805004
               3.01644009     3.57652955     4.23227104     5.00000000

     Gradients computed in reciprocal space

     Adding external electric field

     Computed dipole along edir(3) :
        Dipole               -1.9188 Ry au,         -4.8771 Debye
        Dipole field         -0.0045 Ry au

        Potential amp.        0.4101 Ry
        Total length         46.0091 bohr

     Starting wfc are  148 randomized atomic wfcs

     Self-consistent Calculation

     iteration #  1     ecut=    36.75 Ry     beta=0.30
     Davidson diagonalization with overlap
     ethr =  1.00E-02,  avg # of iterations =  7.2

[...]

     total energy              =   -4796.37445829 Ry
     Harris-Foulkes estimate   =   -5033.54401914 Ry
     estimated scf accuracy    <     500.42772773 Ry

     iteration #  2     ecut=    36.75 Ry     beta=0.30
     Davidson diagonalization with overlap
     c_bands:  2 eigenvalues not converged
     c_bands:  3 eigenvalues not converged
     c_bands:  1 eigenvalues not converged
     ethr =  1.00E-02,  avg # of iterations = 21.2

[...]

     End of self-consistent calculation

          k = 0.0000 0.0000 0.0000 ( 20347 PWs)   bands (ev):

   -95.0672 -95.0503 -95.0431 -95.0431 -95.0346 -95.0346 -95.0332 -95.0332
   -95.0294 -95.0249 -95.0248 -95.0247 -95.0058 -95.0055 -95.0054 -95.0048
   -95.0042 -95.0041 -94.9962 -94.9951 -94.9950 -94.9937 -94.9936 -94.9933
   -94.9862 -94.9859 -94.9859 -94.9641 -94.9635 -94.9635 -94.9603 -94.9603
   -94.9598 -94.8713 -94.8703 -94.8703 -15.6411 -15.5137 -15.5137 -15.5130
   -15.4714 -15.4713 -15.4658 -15.4657 -15.4630 -15.4570 -15.4430 -15.4430
   -15.4397 -15.4284 -15.4152 -15.4116 -15.4116 -15.4045 -15.4002 -15.4002
   -15.3907 -15.3907 -15.3881 -15.3881 -15.3695 -15.3695 -15.3601 -15.3549
   -15.3426 -15.3426 -15.3073 -15.3072 -15.2993 -15.2993 -15.2946 -15.2857
   -15.2708 -15.2707 -15.2659 -15.2658 -15.2562 -15.2385 -15.2384 -15.2294
   -15.2294 -15.2277 -15.2239 -15.2175 -15.2175 -15.2114 -15.2114 -15.2051
   -15.2051 -15.2049 -15.1967 -15.1793 -15.1793 -15.1389 -15.1389 -15.1244
   -13.2451 -10.2817  -8.5960  -6.3477  -5.2468  -5.2468  -5.1499  -5.0531
    -5.0531  -4.7773  -4.0618  -4.0618  -3.5200  -3.2142  -3.0234  -3.0234
    -2.2747  -2.1179  -2.1179  -1.7198  -1.2221  -1.0598  -1.0598   0.3520
     0.3520   0.8804   1.4097   2.7818   2.7818   2.7906

[...]

          k =-0.0821 0.0474 0.0000 ( 20384 PWs)   bands (ev):

[...]

     the Fermi energy is    -0.2546 ev

!    total energy              =   -5019.25676868 Ry
     Harris-Foulkes estimate   =   -5019.25680280 Ry
     estimated scf accuracy    <       0.00000666 Ry

     The total energy is the sum of the following terms:

     one-electron contribution =  -27590.42185661 Ry
     hartree contribution      =   13798.14994731 Ry
     xc contribution           =    -601.86867875 Ry
     ewald contribution        =    9374.91701448 Ry
     electric field correction =       0.00039953 Ry
     smearing contrib. (-TS)   =      -0.03359464 Ry

     convergence has been achieved in  18 iterations

 BEEF-vdW xc energy contributions
           1 :   -537.938031202849
           2 :    488.293208060576
           3 :   -405.060389936926
           4 :    312.430221959314
           5 :   -231.810503060503
           6 :    173.794640742870
           7 :   -136.656219929720
           8 :    111.127712747525
           9 :   -87.8488588267315
          10 :    62.8537579859365
          11 :   -38.3310825320547
          12 :    19.1879013698871
          13 :   -8.48527721792937
          14 :    5.02044480719064
          15 :   -4.37598542833450
          16 :    2.17847824169587
          17 :    3.05247680020886
          18 :   -9.45269642944970
          19 :    13.7898134579026
          20 :   -14.1648225878217
          21 :    11.4030660918804
          22 :   -8.26491241247106
          23 :    7.27582687943789
          24 :   -8.91551695382361
          25 :    11.4822953300796
          26 :   -12.5992959863144
          27 :    11.1089880370208
          28 :   -7.90801738428922
          29 :    5.16822473049990
          30 :   -4.63756239931070
          31 :   -39.8355584807216
          32 :   -27.0552208770451

     Forces acting on atoms (Ry/au):

     negative rho (up, down):  1.189E-03 0.000E+00
     atom    1 type  1   force =     0.00211409    0.00121027    0.00328253
     atom    2 type  1   force =    -0.00208230    0.00120868    0.00321429
     atom    3 type  1   force =    -0.00002662   -0.00238736    0.00323963
     atom    4 type  1   force =    -0.00000117   -0.00002728    0.00738188
     atom    5 type  1   force =     0.00000451   -0.00117523    0.00449909
     atom    6 type  1   force =     0.00000466   -0.00000184    0.00163170
     atom    7 type  1   force =     0.00100627    0.00057767    0.00425370
     atom    8 type  1   force =    -0.00102406    0.00060963    0.00410708
     atom    9 type  1   force =     0.00001357    0.00000548   -0.00541031
     atom   10 type  1   force =     0.00000047    0.01852835    0.02724753
     atom   11 type  1   force =     0.01604341   -0.00926586    0.02711888
     atom   12 type  1   force =    -0.01605396   -0.00927797    0.02734532
     atom   13 type  2   force =     0.00000112   -0.00000455   -0.10791131

     Total force =     0.122189     Total SCF correction =     0.008794

     entering subroutine stress ...

     negative rho (up, down):  1.189E-03 0.000E+00
          total   stress  (Ry/bohr**3)                   (kbar)     P=  -18.54
  -0.00013231  -0.00000000   0.00000000        -19.46     -0.00      0.00
  -0.00000000  -0.00013231  -0.00000000         -0.00    -19.46     -0.00
   0.00000000  -0.00000000  -0.00011340          0.00     -0.00    -16.68

     BFGS Geometry Optimization

     number of scf cycles    =   1
     number of bfgs steps    =   0

     energy   new            =   -5019.2567686783 Ry

     new trust radius        =       0.1079113124 bohr
     new conv_thr            =       0.0000099958 Ry

ATOMIC_POSITIONS (crystal)
Ga1      0.166666667   0.166666667   0.400460194    0   0   0
Ga1      0.666666667   0.166666667   0.400460194    0   0   0
Ga1      0.166666667   0.666666667   0.400460194    0   0   0
Ga1      0.666666667   0.666666667   0.400460194    0   0   0
Ga1      0.833333333   0.333333333   0.500000000    0   0   0
Ga1      0.333333333   0.333333333   0.500000000    0   0   0
Ga1      0.833333333   0.833333333   0.500000000    0   0   0
Ga1      0.333333333   0.833333333   0.500000000    0   0   0
Ga1      0.000000904   0.000000550   0.599425154
Ga1      0.499070295   0.001859491   0.600117220
Ga1      0.001859349   0.499070085   0.600114494
Ga1      0.499070257   0.499068870   0.600119293
N1       0.333333659   0.333332876   0.647490741

     Writing output data file calc.save
     Check: negative starting charge=   -0.001262
     NEW-OLD atomic charge density approx. for the potential
     Check: negative starting charge=   -0.001254

[...]

     iteration #  1     ecut=    36.75 Ry     beta=0.30
     Davidson diagonalization with overlap
     c_bands:  1 eigenvalues not converged
     ethr =  1.00E-06,  avg # of iterations =  7.2

[...]

     energy   old            =   -5019.2567686783 Ry
     energy   new            =   -5019.2701076718 Ry

     CASE: energy  _new < energy  _old

     WARNING: bfgs curvature condition failed, Theta= 0.970
     new trust radius        =       0.1187024436 bohr
     new conv_thr            =       0.0000001000 Ry

[...]

     Threshold (ethr) on eigenvalues was too large:
     Diagonalizing with lowered threshold

     Davidson diagonalization with overlap
     ethr =  9.91E-08,  avg # of iterations =  1.0

[...]

     Total force =     0.004611     Total SCF correction =     0.000589
     SCF correction compared to forces is large: reduce conv_thr to get better values

[...]

     Total force =     0.004984     Total SCF correction =     0.000490

[...]

     WARNING: bfgs curvature condition failed, Theta= 0.928
     new trust radius        =       0.0110685795 bohr
     new conv_thr            =       0.0000001000 Ry

[...]

     number of scf cycles    =  25
     number of bfgs steps    =  24

     energy   old            =   -5019.3126819003 Ry
     energy   new            =   -5019.3127076865 Ry

     CASE: energy  _new < energy  _old

     new trust radius        =       0.0249043038 bohr
     new conv_thr            =       0.0000001000 Ry

ATOMIC_POSITIONS (crystal)
Ga1      0.166666667   0.166666667   0.400460194    0   0   0
Ga1      0.666666667   0.166666667   0.400460194    0   0   0
Ga1      0.166666667   0.666666667   0.400460194    0   0   0
Ga1      0.666666667   0.666666667   0.400460194    0   0   0
Ga1      0.833333333   0.333333333   0.500000000    0   0   0
Ga1      0.333333333   0.333333333   0.500000000    0   0   0
Ga1      0.833333333   0.833333333   0.500000000    0   0   0
Ga1      0.333333333   0.833333333   0.500000000    0   0   0
Ga1     -0.000001248  -0.000001703   0.595314685
Ga1      0.512093736  -0.024193426   0.602126206
Ga1     -0.024197156   0.512098096   0.602127608
Ga1      0.512096266   0.512095055   0.602128715
N1       0.333335439   0.333331871   0.620756369

     Writing output data file calc.save
     Check: negative starting charge=   -0.001318
     NEW-OLD atomic charge density approx. for the potential
     Check: negative starting charge=   -0.001323

[...]

     Self-consistent Calculation

[...]

     Threshold (ethr) on eigenvalues was too large:
     Diagonalizing with lowered threshold

     Davidson diagonalization with overlap
     ethr =  3.76E-08,  avg # of iterations =  2.5

[...]

     total energy              =   -5019.31274928 Ry
     Harris-Foulkes estimate   =   -5019.31274920 Ry
     estimated scf accuracy    <       0.00000018 Ry

     iteration #  7     ecut=    36.75 Ry     beta=0.30
     Davidson diagonalization with overlap
     ethr =  7.93E-11,  avg # of iterations =  3.8

[...]

     negative rho (up, down):  1.186E-03 0.000E+00

     Adding external electric field

     Computed dipole along edir(3) :
        Dipole               -0.0813 Ry au,         -0.2066 Debye
        Dipole field         -0.0002 Ry au

        Potential amp.        0.0174 Ry
        Total length         46.0091 bohr

     End of self-consistent calculation

[...]

          k = 0.0547-0.0632 0.0000 ( 20377 PWs)   bands (ev):

[...]

          k =-0.0821-0.0474 0.0000 ( 20384 PWs)   bands (ev):

   -94.7392 -94.7390 -94.7387 -94.7385 -94.7314 -94.7313 -94.7305 -94.7069
   -94.7068 -94.6994 -94.6994 -94.6936 -94.6794 -94.6794 -94.6793 -94.6564
   -94.6558 -94.6555 -94.6555 -94.6554 -94.6550 -94.6335 -94.6317 -94.6313
   -94.6137 -94.6014 -94.6014 -94.5892 -94.5887 -94.5883 -94.5849 -94.5847
   -94.5845 -94.5755 -94.5755 -94.5754 -16.0328 -15.1960 -15.1596 -15.1363
   -15.1324 -15.1297 -15.1225 -15.1133 -15.0990 -15.0911 -15.0897 -15.0881
   -15.0766 -15.0751 -15.0704 -15.0634 -15.0618 -15.0569 -15.0537 -15.0464
   -15.0464 -15.0357 -15.0291 -15.0265 -15.0262 -15.0213 -15.0122 -15.0075
   -15.0057 -15.0049 -14.9973 -14.9964 -14.9900 -14.9849 -14.9753 -14.9730
   -14.9675 -14.9650 -14.9600 -14.9549 -14.9443 -14.9333 -14.9318 -14.9182
   -14.9124 -14.9028 -14.9013 -14.8952 -14.8928 -14.8874 -14.8839 -14.8839
   -14.8744 -14.8694 -14.8592 -14.8584 -14.8583 -14.8336 -14.8330 -14.8076
   -13.4186  -8.8213  -8.4416  -7.5579  -6.7591  -6.4056  -5.7958  -5.4421
    -5.3085  -4.8462  -3.5862  -3.3993  -3.2993  -2.3963  -1.6214  -1.0241
    -0.8793  -0.3102  -0.2352  -0.0288   0.0579   0.6042   1.2066   1.2658
     1.8288   1.8966   2.0504   2.2563   2.3931   2.7718

     the Fermi energy is     0.1260 ev

!    total energy              =   -5019.31274927 Ry
     Harris-Foulkes estimate   =   -5019.31274920 Ry
     estimated scf accuracy    <       0.00000002 Ry

     The total energy is the sum of the following terms:

     one-electron contribution =  -27730.57985728 Ry
     hartree contribution      =   13870.85629986 Ry
     xc contribution           =    -602.13662409 Ry
     ewald contribution        =    9442.57938357 Ry
     electric field correction =       0.00001535 Ry
     smearing contrib. (-TS)   =      -0.03196667 Ry

     convergence has been achieved in   7 iterations

 BEEF-vdW xc energy contributions
           1 :   -538.210554062344
           2 :    488.632850384517
           3 :   -405.438889910137
           4 :    312.744044129341
           5 :   -231.966184777467
           6 :    173.768986920877
           7 :   -136.504879963770
           8 :    110.950181191112
           9 :   -87.7327306215662
          10 :    62.8297884239877
          11 :   -38.3637253947560
          12 :    19.2059825573588
          13 :   -8.43392305668988
          14 :    4.90132094843784
          15 :   -4.24744684706775
          16 :    2.11330884093763
          17 :    3.01863773251148
          18 :   -9.34287937837962
          19 :    13.6651278756754
          20 :   -14.0810449753917
          21 :    11.3766349893779
          22 :   -8.27043901960951
          23 :    7.27491446763247
          24 :   -8.89369991715114
          25 :    11.4645927375882
          26 :   -12.6312689822083
          27 :    11.2163344297720
          28 :   -8.06620955389781
          29 :    5.30776637491772
          30 :   -4.68238714803203
          31 :   -39.8531872113026
          32 :   -27.0819893531416

     Forces acting on atoms (Ry/au):

     negative rho (up, down):  1.186E-03 0.000E+00
     atom    1 type  1   force =    -0.00418508   -0.00241649   -0.00159776
     atom    2 type  1   force =     0.00418528   -0.00241633   -0.00159803
     atom    3 type  1   force =     0.00000028    0.00483203   -0.00159812
     atom    4 type  1   force =     0.00000000   -0.00000028    0.00103343
     atom    5 type  1   force =    -0.00000021    0.00235550    0.00076560
     atom    6 type  1   force =     0.00000040    0.00000039    0.00130491
     atom    7 type  1   force =    -0.00203878   -0.00117782    0.00076504
     atom    8 type  1   force =     0.00203909   -0.00117807    0.00076521
     atom    9 type  1   force =     0.00000137   -0.00000008    0.00145898
     atom   10 type  1   force =    -0.00000055   -0.00080675   -0.00061877
     atom   11 type  1   force =    -0.00069390    0.00040034   -0.00061951
     atom   12 type  1   force =     0.00070463    0.00040664   -0.00062246
     atom   13 type  2   force =    -0.00001254    0.00000094    0.00056149

     Total force =     0.002356     Total SCF correction =     0.000322
     SCF correction compared to forces is large: reduce conv_thr to get better values

     entering subroutine stress ...

     negative rho (up, down):  1.186E-03 0.000E+00
          total   stress  (Ry/bohr**3)                   (kbar)     P=   -4.76
  -0.00004667   0.00000000  -0.00000000         -6.87      0.00     -0.00
   0.00000000  -0.00004667  -0.00000000          0.00     -6.87     -0.00
  -0.00000000  -0.00000000  -0.00000374         -0.00     -0.00     -0.55

     bfgs converged in  26 scf cycles and  25 bfgs steps
     (criteria: energy <  1.0E+00, force <  1.9E-03)

     End of BFGS Geometry Optimization

     Final energy   =   -5019.3127492660 Ry
Begin final coordinates

ATOMIC_POSITIONS (crystal)
Ga1      0.166666667   0.166666667   0.400460194    0   0   0
Ga1      0.666666667   0.166666667   0.400460194    0   0   0
Ga1      0.166666667   0.666666667   0.400460194    0   0   0
Ga1      0.666666667   0.666666667   0.400460194    0   0   0
Ga1      0.833333333   0.333333333   0.500000000    0   0   0
Ga1      0.333333333   0.333333333   0.500000000    0   0   0
Ga1      0.833333333   0.833333333   0.500000000    0   0   0
Ga1      0.333333333   0.833333333   0.500000000    0   0   0
Ga1     -0.000001248  -0.000001703   0.595314685
Ga1      0.512093736  -0.024193426   0.602126206
Ga1     -0.024197156   0.512098096   0.602127608
Ga1      0.512096266   0.512095055   0.602128715
N1       0.333335439   0.333331871   0.620756369
End final coordinates

     Writing output data file calc.save

     General routines

     Parallel routines

   This run was terminated on:  22: 7:17   3May2018

   JOB DONE.
Job  /afs/slac/g/suncat/bin/suncat-tsmpirun -x LD_LIBRARY_PATH -wdir /scratch/qe827553_2NQub pw.x -npool 4 -in pw.inp

TID   HOST_NAME   COMMAND_LINE            STATUS            TERMINATION_TIME
00000 suncat0062 pw.x -npool 4 -i  Done                     05/03/2018 22:07:17
00001 suncat0062 pw.x -npool 4 -i  Done                     05/03/2018 22:07:17
00002 suncat0062 pw.x -npool 4 -i  Done                     05/03/2018 22:07:17
00003 suncat0062 pw.x -npool 4 -i  Done                     05/03/2018 22:07:17
00004 suncat0062 pw.x -npool 4 -i  Done                     05/03/2018 22:07:17
00005 suncat0062 pw.x -npool 4 -i  Done                     05/03/2018 22:07:17
00006 suncat0062 pw.x -npool 4 -i  Done                     05/03/2018 22:07:17
00007 suncat0062 pw.x -npool 4 -i  Done                     05/03/2018 22:07:17
00008 suncat0055 pw.x -npool 4 -i  Done                     05/03/2018 22:07:17
00009 suncat0055 pw.x -npool 4 -i  Done                     05/03/2018 22:07:17
00010 suncat0055 pw.x -npool 4 -i  Done                     05/03/2018 22:07:17
00011 suncat0055 pw.x -npool 4 -i  Done                     05/03/2018 22:07:17
00012 suncat0055 pw.x -npool 4 -i  Done                     05/03/2018 22:07:17
00013 suncat0055 pw.x -npool 4 -i  Done                     05/03/2018 22:07:17
00014 suncat0055 pw.x -npool 4 -i  Done                     05/03/2018 22:07:17
00015 suncat0055 pw.x -npool 4 -i  Done                     05/03/2018 22:07:17
00016 suncat0014 pw.x -npool 4 -i  Done                     05/03/2018 22:07:17
00017 suncat0014 pw.x -npool 4 -i  Done                     05/03/2018 22:07:17
00018 suncat0014 pw.x -npool 4 -i  Done                     05/03/2018 22:07:17
00019 suncat0014 pw.x -npool 4 -i  Done                     05/03/2018 22:07:17
00020 suncat0014 pw.x -npool 4 -i  Done                     05/03/2018 22:07:17
00021 suncat0014 pw.x -npool 4 -i  Done                     05/03/2018 22:07:17
00022 suncat0014 pw.x -npool 4 -i  Done                     05/03/2018 22:07:17
00023 suncat0014 pw.x -npool 4 -i  Done                     05/03/2018 22:07:17
00024 suncat0196 pw.x -npool 4 -i  Done                     05/03/2018 22:07:17
00025 suncat0196 pw.x -npool 4 -i  Done                     05/03/2018 22:07:17
00026 suncat0196 pw.x -npool 4 -i  Done                     05/03/2018 22:07:17
00027 suncat0196 pw.x -npool 4 -i  Done                     05/03/2018 22:07:17
00028 suncat0196 pw.x -npool 4 -i  Done                     05/03/2018 22:07:17
00029 suncat0196 pw.x -npool 4 -i  Done                     05/03/2018 22:07:17
00030 suncat0196 pw.x -npool 4 -i  Done                     05/03/2018 22:07:17
00031 suncat0196 pw.x -npool 4 -i  Done                     05/03/2018 22:07:17