     Program PWSCF v.5.1rc2 (svn rev. ) starts on 17Apr2018 at 23:17:24

     Current dimensions of program PWSCF are:
     Max number of different atomic species (ntypx) = 10
     Max number of k-points (npk) =  40000
     Max angular momentum in pseudopotentials (lmaxx) =  3
     Presently stress not available with electric field

     IMPORTANT: XC functional enforced from input :
     Exchange-correlation      = BEEF-VDW ( 1  4 27 13 2)
     Any further DFT definition will be discarded
     Please, verify this is what you really want

     Subspace diagonalization in iterative solution of the eigenvalue problem:
     a serial algorithm will be used

     bravais-lattice index     =            0
     lattice parameter (alat)  =       1.8897  a.u.
     unit-cell volume          =    5409.9593 (a.u.)^3
     number of atoms/cell      =           14
     number of atomic types    =            3
     number of electrons       =       234.00
     number of Kohn-Sham states=          127
     kinetic-energy cutoff     =      36.7493  Ry
     charge density cutoff     =     367.4932  Ry
     convergence threshold     =      1.0E-05
     mixing beta               =       0.3000
     number of iterations used =           10  plain     mixing
     Exchange-correlation      = BEEF-VDW ( 1  4 27 13 2)
     nstep                     =           50

     celldm(1)=   1.889726  celldm(2)=   0.000000  celldm(3)=   0.000000
     celldm(4)=   0.000000  celldm(5)=   0.000000  celldm(6)=   0.000000

     crystal axes: (cart. coord. in units of alat)
               a(1) = (   6.088539   0.000000   0.000000 )
               a(2) = (   3.044269   5.272829   0.000000 )
               a(3) = (   0.000000   0.000000  24.971271 )

     reciprocal axes: (cart. coord. in units 2 pi/alat)
               b(1) = (  0.164243 -0.094826  0.000000 )
               b(2) = (  0.000000  0.189652  0.000000 )
               b(3) = (  0.000000  0.000000  0.040046 )

     PseudoPot. # 1 for Ga read from file:
     /home/mamunm/src/pseudo/gbrv1.5pbe/Ga.UPF
     MD5 check sum: ccd671392a58a050fbb373893b4fcd66
     Pseudo is Ultrasoft + core correction, Zval = 19.0
     Generated by new atomic code, or converted to UPF format
     Using radial grid of  871 points,  6 beta functions with:
                l(1) =   0
                l(2) =   0
                l(3) =   1
                l(4) =   1
                l(5) =   2
                l(6) =   2
     Q(r) pseudized with  8 coefficients,  rinner =    1.250   1.250   1.250
                                                       1.250   1.250

     PseudoPot. # 2 for N  read from file:
     /home/mamunm/src/pseudo/gbrv1.5pbe/N.UPF
     MD5 check sum: 95339753478d7afb44899504a8723017
     Pseudo is Ultrasoft + core correction, Zval =  5.0
     Generated by new atomic code, or converted to UPF format
     Using radial grid of  729 points,  4 beta functions with:
                l(1) =   0
                l(2) =   0
                l(3) =   1
                l(4) =   1
     Q(r) pseudized with  8 coefficients,  rinner =    0.900   0.900   0.900

     PseudoPot. # 3 for H  read from file:
     /home/mamunm/src/pseudo/gbrv1.5pbe/H.UPF
     MD5 check sum: 761ae9a214b05c3daf00ab9f6b793d6f
     Pseudo is Ultrasoft, Zval =  1.0
     Generated by new atomic code, or converted to UPF format
     Using radial grid of  615 points,  2 beta functions with:
                l(1) =   0
                l(2) =   0
     Q(r) pseudized with  8 coefficients,  rinner =    0.700

     vdW kernel table read from file vdW_kernel_table
     MD5 check sum: 095c7af220d748ca6e76c0b4c6cfb241

     atomic species   valence    mass     pseudopotential
        Ga1           19.00    69.72300     Ga( 1.00)
        N1             5.00    14.00700     N ( 1.00)
        H1             1.00     1.00800     H ( 1.00)

     No symmetry found

   Cartesian axes

     site n.     atom                  positions (alat units)
         1           Ga1 tau(   1) = (   1.5221346   0.8788048  10.0000000  )
         2           Ga1 tau(   2) = (   4.5664039   0.8788048  10.0000000  )
         3           Ga1 tau(   3) = (   3.0442693   3.5152194  10.0000000  )
         4           Ga1 tau(   4) = (   6.0885386   3.5152194  10.0000000  )
         5           Ga1 tau(   5) = (   6.0885386   1.7576097  12.4856355  )
         6           Ga1 tau(   6) = (   3.0442693   1.7576097  12.4856355  )
         7           Ga1 tau(   7) = (   7.6106732   4.3940242  12.4856355  )
         8           Ga1 tau(   8) = (   4.5664039   4.3940242  12.4856355  )
         9           Ga1 tau(   9) = (   0.0000000   0.0000000  14.9712709  )
        10           Ga1 tau(  10) = (   3.0442693   0.0000000  14.9712709  )
        11           Ga1 tau(  11) = (   1.5221346   2.6364145  14.9712709  )
        12           Ga1 tau(  12) = (   4.5664039   2.6364145  14.9712709  )
        13           N1  tau(  13) = (   1.5221346   0.8788048  16.2257709  )
        14           H1  tau(  14) = (   1.5221346   0.8788048  17.2757709  )

     number of k points=    20  Fermi-Dirac smearing, width (Ry)=  0.0110
                       cart. coord. in units 2pi/alat
        k(    1) = (   0.0000000   0.0000000   0.0000000), wk =   0.0555556
        k(    2) = (   0.0000000   0.0316086   0.0000000), wk =   0.1111111
        k(    3) = (   0.0000000   0.0632172   0.0000000), wk =   0.1111111
        k(    4) = (   0.0000000  -0.0948258   0.0000000), wk =   0.0555556
        k(    5) = (   0.0273738  -0.0158043   0.0000000), wk =   0.1111111
        k(    6) = (   0.0273738   0.0158043   0.0000000), wk =   0.1111111
        k(    7) = (   0.0273738   0.0474129   0.0000000), wk =   0.1111111
        k(    8) = (   0.0273738  -0.1106300   0.0000000), wk =   0.1111111
        k(    9) = (   0.0273738  -0.0790215   0.0000000), wk =   0.1111111
        k(   10) = (   0.0273738  -0.0474129   0.0000000), wk =   0.1111111
        k(   11) = (   0.0547477  -0.0316086   0.0000000), wk =   0.1111111
        k(   12) = (   0.0547477   0.0000000   0.0000000), wk =   0.1111111
        k(   13) = (   0.0547477   0.0316086   0.0000000), wk =   0.1111111
        k(   14) = (   0.0547477  -0.1264343   0.0000000), wk =   0.1111111
        k(   15) = (   0.0547477  -0.0948258   0.0000000), wk =   0.1111111
        k(   16) = (   0.0547477  -0.0632172   0.0000000), wk =   0.1111111
        k(   17) = (  -0.0821215   0.0474129   0.0000000), wk =   0.0555556
        k(   18) = (  -0.0821215   0.0790215   0.0000000), wk =   0.1111111
        k(   19) = (  -0.0821215   0.1106300   0.0000000), wk =   0.1111111
        k(   20) = (  -0.0821215  -0.0474129   0.0000000), wk =   0.0555556

     Largest allocated arrays     est. size (Mb)     dimensions
     Largest temporary arrays     est. size (Mb)     dimensions

     Initial potential from superposition of free atoms
     Check: negative starting charge=   -0.001133

     starting charge  221.99997, renormalised to  234.00000

     negative rho (up, down):  1.194E-03 0.000E+00

     *
     * You are using vdW-DF for exchange-correlation in this calculation.
     * Please cite the following three references that made this development
     * possible:
     *
     *   M. Dion, H. Rydberg, E. Schroder, D. C. Langreth, and
     *   B. I. Lundqvist, Phys. Rev. Lett. 92, 246401 (2004).
     *
     *   T. Thonhauser, V. R. Cooper, S. Li, A. Puzder, P. Hyldgaard, and
     *   D. C. Langreth, Phys. Rev. B 76, 125112 (2007).
     *
     *   G. Roman-Perez and J. M. Soler, Phys. Rev. Lett. 103, 096102 (2009).
     *
     *
     * If you are using vdW-DF2, please also cite:
     *
     *   K. Lee, E. D. Murray, L. Kong, B. I. Lundqvist, and
     *   D. C. Langreth, Phys. Rev. B 82, 081101(R) (2010).
     *
     *
     * If you are calculating the stress with vdW-DF, please also cite:
     *
     *   R. Sabatini, E. Kucukbenli, B. Kolb, T. Thonhauser, and
     *   S. de Gironcoli, J. Phys.: Condens. Matter 24, 424209 (2012).
     *

     Carrying out vdW-DF run using the following parameters:

     Nqs =      20    Nr_points =    1024   r_max =   100.000
     q_mesh =
               0.00001000     0.04494208     0.09755937     0.15916263
               0.23128650     0.31572767     0.41458969     0.53033537
               0.66584808     0.82450364     1.01025438     1.22772762
               1.48234092     1.78043706     2.12944203     2.53805004
               3.01644009     3.57652955     4.23227104     5.00000000

     Gradients computed in reciprocal space

     Adding external electric field

     Computed dipole along edir(3) :
        Dipole               -2.3994 Ry au,         -6.0986 Debye
        Dipole field         -0.0056 Ry au

        Potential amp.        0.5128 Ry
        Total length         46.0091 bohr

     Starting wfc are  149 randomized atomic wfcs

     Self-consistent Calculation

     iteration #  1     ecut=    36.75 Ry     beta=0.30
     Davidson diagonalization with overlap
     ethr =  1.00E-02,  avg # of iterations =  6.9

[...]

     total energy              =   -4741.93595436 Ry
     Harris-Foulkes estimate   =   -5032.05254017 Ry
     estimated scf accuracy    <     611.79860183 Ry

     iteration #  2     ecut=    36.75 Ry     beta=0.30
     Davidson diagonalization with overlap
     c_bands:  1 eigenvalues not converged
     c_bands:  1 eigenvalues not converged
     c_bands:  2 eigenvalues not converged
     ethr =  1.00E-02,  avg # of iterations = 19.3

[...]

     End of self-consistent calculation

          k = 0.0000 0.0000 0.0000 ( 20347 PWs)   bands (ev):

   -94.4594 -94.4493 -94.4493 -94.4180 -94.4178 -94.4178 -94.4120 -94.4021
   -94.4008 -94.4008 -94.3994 -94.3993 -94.3993 -94.3989 -94.3986 -94.3985
   -94.3890 -94.3889 -94.3830 -94.3830 -94.3824 -94.3809 -94.3809 -94.3804
   -94.3793 -94.3778 -94.3778 -94.3680 -94.3679 -94.3679 -94.3565 -94.3334
   -94.3334 -94.3272 -94.3264 -94.3264 -15.5354 -14.9061 -14.9061 -14.9002
   -14.8629 -14.8629 -14.8554 -14.8481 -14.8481 -14.8441 -14.8355 -14.8350
   -14.8350 -14.8164 -14.8134 -14.7932 -14.7932 -14.7861 -14.7826 -14.7826
   -14.7744 -14.7744 -14.7739 -14.7671 -14.7671 -14.7592 -14.7592 -14.7534
   -14.7458 -14.7458 -14.6944 -14.6944 -14.6921 -14.6855 -14.6855 -14.6793
   -14.6656 -14.6656 -14.6553 -14.6553 -14.6539 -14.6350 -14.6350 -14.6184
   -14.6178 -14.6178 -14.6096 -14.6096 -14.6050 -14.6008 -14.6007 -14.5997
   -14.5914 -14.5914 -14.5877 -14.5877 -14.5830 -14.5727 -14.5596 -14.5596
   -14.1361  -9.7588  -8.3471  -6.5469  -5.2571  -4.8941  -4.8941  -4.5670
    -4.3640  -4.3640  -4.0066  -3.4109  -3.4109  -2.6543  -2.6503  -2.6503
    -2.1713  -1.5902  -1.5533  -1.5533  -0.5959  -0.5959  -0.5377   0.7078
     0.7078   0.9327   1.6176   3.0919   3.3469   3.3469   3.3814

[...]

          k =-0.0821 0.0474 0.0000 ( 20384 PWs)   bands (ev):

[...]

     the Fermi energy is     0.3556 ev

!    total energy              =   -5020.56040032 Ry
     Harris-Foulkes estimate   =   -5020.56040202 Ry
     estimated scf accuracy    <       0.00000046 Ry

     The total energy is the sum of the following terms:

     one-electron contribution =  -27654.95222154 Ry
     hartree contribution      =   13835.25884760 Ry
     xc contribution           =    -602.80155885 Ry
     ewald contribution        =    9401.96949220 Ry
     electric field correction =       0.00001612 Ry
     smearing contrib. (-TS)   =      -0.03497586 Ry

     convergence has been achieved in  20 iterations

 BEEF-vdW xc energy contributions
           1 :   -538.713578687595
           2 :    488.964384752928
           3 :   -405.565366585810
           4 :    312.757000878385
           5 :   -231.983370016734
           6 :    173.860338046707
           7 :   -136.669993787628
           8 :    111.137176676078
           9 :   -87.8798726143232
          10 :    62.9043993416855
          11 :   -38.3776378925493
          12 :    19.1984057588841
          13 :   -8.43625229027862
          14 :    4.91365666520119
          15 :   -4.24201499633455
          16 :    2.05808259085859
          17 :    3.13200275842348
          18 :   -9.48688241400828
          19 :    13.7921158446296
          20 :   -14.1560680274652
          21 :    11.4009890423642
          22 :   -8.27759323117880
          23 :    7.30149746395841
          24 :   -8.94709057320767
          25 :    11.5121738291136
          26 :   -12.6219937197377
          27 :    11.1205858688706
          28 :   -7.90424800213555
          29 :    5.14534941509453
          30 :   -4.59663490710977
          31 :   -39.9441821016044
          32 :   -27.1299623057545

     Forces acting on atoms (Ry/au):

     negative rho (up, down):  1.184E-03 0.000E+00
     atom    1 type  1   force =     0.00000149    0.00000391    0.00349967
     atom    2 type  1   force =     0.00000671   -0.00001465    0.00204285
     atom    3 type  1   force =    -0.00000097    0.00001510    0.00199420
     atom    4 type  1   force =     0.00001381    0.00001173    0.00202038
     atom    5 type  1   force =    -0.00067171    0.00038634    0.00642951
     atom    6 type  1   force =     0.00066627    0.00038949    0.00633522
     atom    7 type  1   force =     0.00000016   -0.00000096   -0.00688041
     atom    8 type  1   force =    -0.00000664   -0.00077253    0.00635879
     atom    9 type  1   force =     0.00039221    0.00022559    0.02071769
     atom   10 type  1   force =    -0.00039103    0.00022072    0.02072551
     atom   11 type  1   force =    -0.00000148   -0.00046060    0.02070150
     atom   12 type  1   force =    -0.00000347   -0.00000204   -0.00983250
     atom   13 type  2   force =    -0.00000271   -0.00000089   -0.03788355
     atom   14 type  3   force =    -0.00000264   -0.00000119   -0.03622887

     Total force =     0.064283     Total SCF correction =     0.002375

     entering subroutine stress ...

     negative rho (up, down):  1.184E-03 0.000E+00
          total   stress  (Ry/bohr**3)                   (kbar)     P=  -11.34
  -0.00006945  -0.00000000   0.00000000        -10.22     -0.00      0.00
  -0.00000000  -0.00006945  -0.00000000         -0.00    -10.22     -0.00
   0.00000000  -0.00000000  -0.00009241          0.00     -0.00    -13.59

     BFGS Geometry Optimization

     number of scf cycles    =   1
     number of bfgs steps    =   0

     energy   new            =   -5020.5604003231 Ry

     new trust radius        =       0.0378835516 bohr
     new conv_thr            =       0.0000099958 Ry

ATOMIC_POSITIONS (crystal)
Ga1      0.166666667   0.166666667   0.400460194    0   0   0
Ga1      0.666666667   0.166666667   0.400460194    0   0   0
Ga1      0.166666667   0.666666667   0.400460194    0   0   0
Ga1      0.666666667   0.666666667   0.400460194    0   0   0
Ga1      0.833333333   0.333333333   0.500000000    0   0   0
Ga1      0.333333333   0.333333333   0.500000000    0   0   0
Ga1      0.833333333   0.833333333   0.500000000    0   0   0
Ga1      0.333333333   0.833333333   0.500000000    0   0   0
Ga1      0.000022768   0.000022640   0.599978844
Ga1      0.499954939   0.000022151   0.599979009
Ga1      0.000022985   0.499953775   0.599978501
Ga1      0.499999801   0.499999795   0.599331441
N1       0.166666476   0.166666577   0.648974730
H1       0.166666497   0.166666547   0.691058116

     Writing output data file calc.save
     Check: negative starting charge=   -0.001133
     NEW-OLD atomic charge density approx. for the potential
     Check: negative starting charge=   -0.001126

[...]

     energy   old            =   -5020.5604003231 Ry
     energy   new            =   -5020.5643462182 Ry

     CASE: energy  _new < energy  _old

     WARNING: bfgs curvature condition failed, Theta= 0.889
     new trust radius        =       0.0416719068 bohr
     new conv_thr            =       0.0000001000 Ry

[...]

     Total force =     0.015505     Total SCF correction =     0.001601
     SCF correction compared to forces is large: reduce conv_thr to get better values

[...]

     Threshold (ethr) on eigenvalues was too large:
     Diagonalizing with lowered threshold

     Davidson diagonalization with overlap
     ethr =  5.66E-08,  avg # of iterations =  1.0

[...]

     Total force =     0.006281     Total SCF correction =     0.000387

[...]

     Threshold (ethr) on eigenvalues was too large:
     Diagonalizing with lowered threshold

     Davidson diagonalization with overlap
     ethr =  7.96E-08,  avg # of iterations =  1.0

[...]

     number of scf cycles    =  21
     number of bfgs steps    =  20

     energy   old            =   -5020.5925200034 Ry
     energy   new            =   -5020.5926588114 Ry

     CASE: energy  _new < energy  _old

     new trust radius        =       0.0428307697 bohr
     new conv_thr            =       0.0000001000 Ry

ATOMIC_POSITIONS (crystal)
Ga1      0.166666667   0.166666667   0.400460194    0   0   0
Ga1      0.666666667   0.166666667   0.400460194    0   0   0
Ga1      0.166666667   0.666666667   0.400460194    0   0   0
Ga1      0.666666667   0.666666667   0.400460194    0   0   0
Ga1      0.833333333   0.333333333   0.500000000    0   0   0
Ga1      0.333333333   0.333333333   0.500000000    0   0   0
Ga1      0.833333333   0.833333333   0.500000000    0   0   0
Ga1      0.333333333   0.833333333   0.500000000    0   0   0
Ga1     -0.009709364  -0.009720745   0.597739202
Ga1      0.519426129  -0.009718480   0.597739550
Ga1     -0.009706466   0.519422721   0.597738012
Ga1      0.500001844   0.499996794   0.592207181
N1       0.166668705   0.166663938   0.631595598
H1       0.166663612   0.166666847   0.672687306

     Writing output data file calc.save
     Check: negative starting charge=   -0.001171
     NEW-OLD atomic charge density approx. for the potential
     Check: negative starting charge=   -0.001175

[...]

     Self-consistent Calculation

[...]

     total energy              =   -5020.59277573 Ry
     Harris-Foulkes estimate   =   -5020.59277577 Ry
     estimated scf accuracy    <       0.00000028 Ry

     iteration #  8     ecut=    36.75 Ry     beta=0.30
     Davidson diagonalization with overlap
     ethr =  1.20E-10,  avg # of iterations =  2.4

[...]

     negative rho (up, down):  1.163E-03 0.000E+00

     Adding external electric field

     Computed dipole along edir(3) :
        Dipole                0.2010 Ry au,          0.5109 Debye
        Dipole field          0.0005 Ry au

        Potential amp.       -0.0430 Ry
        Total length         46.0091 bohr

     End of self-consistent calculation

[...]

          k = 0.0547-0.0632 0.0000 ( 20377 PWs)   bands (ev):

[...]

          k =-0.0821-0.0474 0.0000 ( 20384 PWs)   bands (ev):

   -94.3489 -94.3485 -94.3484 -94.3327 -94.3326 -94.3321 -94.3257 -94.3257
   -94.3240 -94.2719 -94.2709 -94.2705 -94.2664 -94.2663 -94.2663 -94.2638
   -94.2636 -94.2634 -94.2592 -94.2587 -94.2582 -94.2537 -94.2535 -94.2532
   -94.2527 -94.2511 -94.2510 -94.2507 -94.2447 -94.2447 -94.2446 -94.2339
   -94.2339 -94.2092 -94.1984 -94.1984 -16.2816 -14.7999 -14.7653 -14.7513
   -14.7513 -14.7416 -14.7272 -14.7259 -14.7195 -14.7152 -14.7082 -14.6987
   -14.6843 -14.6825 -14.6806 -14.6789 -14.6702 -14.6669 -14.6662 -14.6621
   -14.6497 -14.6452 -14.6419 -14.6388 -14.6346 -14.6284 -14.6167 -14.6115
   -14.6100 -14.6037 -14.6022 -14.5981 -14.5952 -14.5898 -14.5847 -14.5821
   -14.5744 -14.5695 -14.5609 -14.5557 -14.5532 -14.5508 -14.5496 -14.5419
   -14.5363 -14.5342 -14.5311 -14.5301 -14.5261 -14.5220 -14.5117 -14.5069
   -14.4995 -14.4988 -14.4938 -14.4870 -14.4685 -14.4673 -14.4537 -14.4471
   -14.1299  -8.5201  -8.3887  -7.2283  -7.1139  -6.1170  -6.0201  -5.2616
    -5.0811  -4.9052  -4.3630  -3.0596  -3.0497  -2.9681  -1.3255  -0.9940
    -0.4928  -0.1624   0.0425   0.0436   0.4081   0.7462   1.3904   1.7606
     1.8139   2.2974   2.3748   2.7129   2.7844   2.9941   3.0993

     the Fermi energy is     0.4606 ev

!    total energy              =   -5020.59277570 Ry
     Harris-Foulkes estimate   =   -5020.59277585 Ry
     estimated scf accuracy    <       0.00000004 Ry

     The total energy is the sum of the following terms:

     one-electron contribution =  -28073.24363743 Ry
     hartree contribution      =   14045.12245600 Ry
     xc contribution           =    -602.99941786 Ry
     ewald contribution        =    9610.56089481 Ry
     electric field correction =       0.00009384 Ry
     smearing contrib. (-TS)   =      -0.03316506 Ry

     convergence has been achieved in   8 iterations

 BEEF-vdW xc energy contributions
           1 :   -538.917405834738
           2 :    489.247164391132
           3 :   -405.929873094374
           4 :    313.129387661460
           5 :   -232.268064183771
           6 :    173.998135757464
           7 :   -136.667179368189
           8 :    111.053959342142
           9 :   -87.7895874444414
          10 :    62.8513517760324
          11 :   -38.3595073528350
          12 :    19.1823827493146
          13 :   -8.39377216603566
          14 :    4.84614072336717
          15 :   -4.17980242778867
          16 :    2.03589923585059
          17 :    3.10388542191765
          18 :   -9.43230237212742
          19 :    13.7514358066253
          20 :   -14.1568917459658
          21 :    11.4409071742352
          22 :   -8.33094020722683
          23 :    7.34328099562174
          24 :   -8.97348449564959
          25 :    11.5402716917231
          26 :   -12.6687838371092
          27 :    11.1790053802209
          28 :   -7.93717506623500
          29 :    5.10375243576186
          30 :   -4.45027872121523
          31 :   -39.9593425704836
          32 :   -27.1632020245240

     Forces acting on atoms (Ry/au):

     negative rho (up, down):  1.163E-03 0.000E+00
     atom    1 type  1   force =    -0.00000011   -0.00000005    0.00443893
     atom    2 type  1   force =    -0.00000013   -0.00151041    0.00242619
     atom    3 type  1   force =    -0.00130823    0.00075530    0.00242664
     atom    4 type  1   force =     0.00130813    0.00075536    0.00242655
     atom    5 type  1   force =     0.00304406   -0.00175815   -0.00025324
     atom    6 type  1   force =    -0.00304389   -0.00175844   -0.00025426
     atom    7 type  1   force =    -0.00000046    0.00000126   -0.01073817
     atom    8 type  1   force =     0.00000016    0.00351557   -0.00025372
     atom    9 type  1   force =    -0.00038755   -0.00022142   -0.00050358
     atom   10 type  1   force =     0.00039248   -0.00022674   -0.00050563
     atom   11 type  1   force =    -0.00000167    0.00044747   -0.00050309
     atom   12 type  1   force =     0.00000082   -0.00000118   -0.00059347
     atom   13 type  2   force =    -0.00000495    0.00000144    0.00104414
     atom   14 type  3   force =     0.00000135   -0.00000002    0.00084270

     Total force =     0.001876     Total SCF correction =     0.001103
     SCF correction compared to forces is large: reduce conv_thr to get better values

     entering subroutine stress ...

     negative rho (up, down):  1.163E-03 0.000E+00
          total   stress  (Ry/bohr**3)                   (kbar)     P=   -4.46
  -0.00003757  -0.00000000  -0.00000000         -5.53     -0.00     -0.00
  -0.00000000  -0.00003757   0.00000000         -0.00     -5.53      0.00
  -0.00000000   0.00000000  -0.00001572         -0.00      0.00     -2.31

     bfgs converged in  22 scf cycles and  21 bfgs steps
     (criteria: energy <  1.0E+00, force <  1.9E-03)

     End of BFGS Geometry Optimization

     Final energy   =   -5020.5927756979 Ry
Begin final coordinates

ATOMIC_POSITIONS (crystal)
Ga1      0.166666667   0.166666667   0.400460194    0   0   0
Ga1      0.666666667   0.166666667   0.400460194    0   0   0
Ga1      0.166666667   0.666666667   0.400460194    0   0   0
Ga1      0.666666667   0.666666667   0.400460194    0   0   0
Ga1      0.833333333   0.333333333   0.500000000    0   0   0
Ga1      0.333333333   0.333333333   0.500000000    0   0   0
Ga1      0.833333333   0.833333333   0.500000000    0   0   0
Ga1      0.333333333   0.833333333   0.500000000    0   0   0
Ga1     -0.009709364  -0.009720745   0.597739202
Ga1      0.519426129  -0.009718480   0.597739550
Ga1     -0.009706466   0.519422721   0.597738012
Ga1      0.500001844   0.499996794   0.592207181
N1       0.166668705   0.166663938   0.631595598
H1       0.166663612   0.166666847   0.672687306
End final coordinates

     Writing output data file calc.save

     General routines

     Parallel routines

   This run was terminated on:   0:49:39  18Apr2018

   JOB DONE.