     Program PWSCF v.5.1rc2 (svn rev. 11289) starts on  2May2018 at 16: 8:32

     Current dimensions of program PWSCF are:
     Max number of different atomic species (ntypx) = 10
     Max number of k-points (npk) =  40000
     Max angular momentum in pseudopotentials (lmaxx) =  3
     Presently stress not available with electric field

     IMPORTANT: XC functional enforced from input :
     Exchange-correlation      = BEEF-VDW ( 1  4 27 13 2)
     Any further DFT definition will be discarded
     Please, verify this is what you really want

     Subspace diagonalization in iterative solution of the eigenvalue problem:
     a serial algorithm will be used

     bravais-lattice index     =            0
     lattice parameter (alat)  =       1.8897  a.u.
     unit-cell volume          =    4301.6107 (a.u.)^3
     number of atoms/cell      =           13
     number of atomic types    =            2
     number of electrons       =       184.00
     number of Kohn-Sham states=          102
     kinetic-energy cutoff     =      36.7493  Ry
     charge density cutoff     =     367.4932  Ry
     convergence threshold     =      1.0E-05
     mixing beta               =       0.3000
     number of iterations used =           10  plain     mixing
     Exchange-correlation      = BEEF-VDW ( 1  4 27 13 2)
     nstep                     =           50

     celldm(1)=   1.889726  celldm(2)=   0.000000  celldm(3)=   0.000000
     celldm(4)=   0.000000  celldm(5)=   0.000000  celldm(6)=   0.000000

     crystal axes: (cart. coord. in units of alat)
               a(1) = (   5.483647   0.000000   0.000000 )
               a(2) = (   2.741823   4.748977   0.000000 )
               a(3) = (   0.000000   0.000000  24.477379 )

     reciprocal axes: (cart. coord. in units 2 pi/alat)
               b(1) = (  0.182360 -0.105286  0.000000 )
               b(2) = (  0.000000  0.210572  0.000000 )
               b(3) = (  0.000000  0.000000  0.040854 )

     PseudoPot. # 1 for Tc read from file:
     /u/if/mamunm/psp/gbrv1.5pbe/Tc.UPF
     MD5 check sum: 9eb49e5b028550b2339a02317eb7b844
     Pseudo is Ultrasoft + core correction, Zval = 15.0
     Generated by new atomic code, or converted to UPF format
     Using radial grid of  965 points,  6 beta functions with:
                l(1) =   0
                l(2) =   0
                l(3) =   1
                l(4) =   1
                l(5) =   2
                l(6) =   2
     Q(r) pseudized with  8 coefficients,  rinner =    1.300   1.300   1.300
                                                       1.300   1.300

     PseudoPot. # 2 for C  read from file:
     /u/if/mamunm/psp/gbrv1.5pbe/C.UPF
     MD5 check sum: d1aef80898a10debaa0f26306b886e00
     Pseudo is Ultrasoft + core correction, Zval =  4.0
     Generated by new atomic code, or converted to UPF format
     Using radial grid of  721 points,  4 beta functions with:
                l(1) =   0
                l(2) =   0
                l(3) =   1
                l(4) =   1
     Q(r) pseudized with  8 coefficients,  rinner =    1.100   1.100   1.100

     vdW kernel table read from file vdW_kernel_table
     MD5 check sum: 095c7af220d748ca6e76c0b4c6cfb241

     atomic species   valence    mass     pseudopotential
        Tc1           15.00    97.90721     Tc( 1.00)
        C1             4.00    12.01100     C ( 1.00)

     No symmetry found

   Cartesian axes

     site n.     atom                  positions (alat units)
         1           Tc1 tau(   1) = (   1.3709117   0.7914962  10.0000000  )
         2           Tc1 tau(   2) = (   4.1127351   0.7914962  10.0000000  )
         3           Tc1 tau(   3) = (   2.7418234   3.1659850  10.0000000  )
         4           Tc1 tau(   4) = (   5.4836469   3.1659850  10.0000000  )
         5           Tc1 tau(   5) = (   5.4836469   1.5829925  12.2386895  )
         6           Tc1 tau(   6) = (   2.7418234   1.5829925  12.2386895  )
         7           Tc1 tau(   7) = (   6.8545586   3.9574812  12.2386895  )
         8           Tc1 tau(   8) = (   4.1127351   3.9574812  12.2386895  )
         9           Tc1 tau(   9) = (   0.0000000   0.0000000  14.4773789  )
        10           Tc1 tau(  10) = (   2.7418234   0.0000000  14.4773789  )
        11           Tc1 tau(  11) = (   1.3709117   2.3744887  14.4773789  )
        12           Tc1 tau(  12) = (   4.1127351   2.3744887  14.4773789  )
        13           C1  tau(  13) = (   2.7418234   1.5829925  15.9268789  )

     number of k points=    20  Fermi-Dirac smearing, width (Ry)=  0.0110
                       cart. coord. in units 2pi/alat
        k(    1) = (   0.0000000   0.0000000   0.0000000), wk =   0.0555556
        k(    2) = (   0.0000000   0.0350953   0.0000000), wk =   0.1111111
        k(    3) = (   0.0000000   0.0701905   0.0000000), wk =   0.1111111
        k(    4) = (   0.0000000  -0.1052858   0.0000000), wk =   0.0555556
        k(    5) = (   0.0303934  -0.0175476   0.0000000), wk =   0.1111111
        k(    6) = (   0.0303934   0.0175476   0.0000000), wk =   0.1111111
        k(    7) = (   0.0303934   0.0526429   0.0000000), wk =   0.1111111
        k(    8) = (   0.0303934  -0.1228335   0.0000000), wk =   0.1111111
        k(    9) = (   0.0303934  -0.0877382   0.0000000), wk =   0.1111111
        k(   10) = (   0.0303934  -0.0526429   0.0000000), wk =   0.1111111
        k(   11) = (   0.0607868  -0.0350953   0.0000000), wk =   0.1111111
        k(   12) = (   0.0607868   0.0000000   0.0000000), wk =   0.1111111
        k(   13) = (   0.0607868   0.0350953   0.0000000), wk =   0.1111111
        k(   14) = (   0.0607868  -0.1403811   0.0000000), wk =   0.1111111
        k(   15) = (   0.0607868  -0.1052858   0.0000000), wk =   0.1111111
        k(   16) = (   0.0607868  -0.0701905   0.0000000), wk =   0.1111111
        k(   17) = (  -0.0911802   0.0526429   0.0000000), wk =   0.0555556
        k(   18) = (  -0.0911802   0.0877382   0.0000000), wk =   0.1111111
        k(   19) = (  -0.0911802   0.1228335   0.0000000), wk =   0.1111111
        k(   20) = (  -0.0911802  -0.0526429   0.0000000), wk =   0.0555556

     Largest allocated arrays     est. size (Mb)     dimensions
     Largest temporary arrays     est. size (Mb)     dimensions

     Check: negative/imaginary core charge=   -0.000022    0.000000

     Initial potential from superposition of free atoms
     Check: negative starting charge=   -1.504772

     starting charge  171.99963, renormalised to  184.00000

     negative rho (up, down):  1.610E+00 0.000E+00

     *
     * You are using vdW-DF for exchange-correlation in this calculation.
     * Please cite the following three references that made this development
     * possible:
     *
     *   M. Dion, H. Rydberg, E. Schroder, D. C. Langreth, and
     *   B. I. Lundqvist, Phys. Rev. Lett. 92, 246401 (2004).
     *
     *   T. Thonhauser, V. R. Cooper, S. Li, A. Puzder, P. Hyldgaard, and
     *   D. C. Langreth, Phys. Rev. B 76, 125112 (2007).
     *
     *   G. Roman-Perez and J. M. Soler, Phys. Rev. Lett. 103, 096102 (2009).
     *
     *
     * If you are using vdW-DF2, please also cite:
     *
     *   K. Lee, E. D. Murray, L. Kong, B. I. Lundqvist, and
     *   D. C. Langreth, Phys. Rev. B 82, 081101(R) (2010).
     *
     *
     * If you are calculating the stress with vdW-DF, please also cite:
     *
     *   R. Sabatini, E. Kucukbenli, B. Kolb, T. Thonhauser, and
     *   S. de Gironcoli, J. Phys.: Condens. Matter 24, 424209 (2012).
     *

     Carrying out vdW-DF run using the following parameters:

     Nqs =      20    Nr_points =    1024   r_max =   100.000
     q_mesh =
               0.00001000     0.04494208     0.09755937     0.15916263
               0.23128650     0.31572767     0.41458969     0.53033537
               0.66584808     0.82450364     1.01025438     1.22772762
               1.48234092     1.78043706     2.12944203     2.53805004
               3.01644009     3.57652955     4.23227104     5.00000000

     Gradients computed in reciprocal space

     Adding external electric field

     Computed dipole along edir(3) :
        Dipole               -1.9448 Ry au,         -4.9432 Debye
        Dipole field         -0.0057 Ry au

        Potential amp.        0.5124 Ry
        Total length         45.0992 bohr

     Starting wfc are  160 randomized atomic wfcs

     Self-consistent Calculation

     iteration #  1     ecut=    36.75 Ry     beta=0.30
     Davidson diagonalization with overlap
     ethr =  1.00E-02,  avg # of iterations =  3.3

[...]

     total energy              =   -2042.64376569 Ry
     Harris-Foulkes estimate   =   -2118.21927595 Ry
     estimated scf accuracy    <     158.12970061 Ry

[...]

     End of self-consistent calculation

          k = 0.0000 0.0000 0.0000 ( 16073 PWs)   bands (ev):

   -65.0445 -64.8860 -64.8850 -64.8845 -64.8813 -64.8189 -64.7692 -64.7688
   -64.7260 -64.7043 -64.7035 -64.6893 -37.4856 -37.4818 -37.4816 -37.3796
   -37.3567 -37.3313 -37.3312 -37.2196 -37.2071 -37.2069 -36.9024 -36.8389
   -36.8325 -36.8323 -36.7772 -36.7769 -36.7630 -36.7533 -36.7531 -36.7507
   -36.6147 -36.6145 -36.6040 -36.5636 -36.5593 -36.5592 -36.5335 -36.5197
   -36.5196 -36.4917 -36.4764 -36.4762 -36.3565 -36.3565 -36.2880 -36.2880
    -7.5958  -4.1767  -2.9882  -2.9882  -2.9698  -2.8892  -2.6977  -2.6441
    -2.6441  -2.5219  -2.4238  -2.4238  -2.3693  -2.0727  -2.0726  -2.0386
    -1.0243  -1.0242  -0.7291  -0.2095  -0.1626  -0.1625   0.2539   0.2818
     0.2819   0.5954   0.5954   0.6041   0.8575   0.8576   0.9340   1.0207
     1.0208   1.1761   1.1761   1.4702   2.0178   2.0178   2.1599   2.5555
     2.5867   2.5912   2.5913   2.8669   2.8670   3.1686   3.1687   3.4614
     3.4615   3.7136   3.9111   4.1841   4.1842   4.2601

[...]

          k =-0.0912 0.0526 0.0000 ( 16164 PWs)   bands (ev):

[...]

     the Fermi energy is     2.2069 ev

!    total energy              =   -2114.84940570 Ry
     Harris-Foulkes estimate   =   -2114.84940811 Ry
     estimated scf accuracy    <       0.00000322 Ry

     The total energy is the sum of the following terms:

     one-electron contribution =  -18970.19468709 Ry
     hartree contribution      =    9483.90885782 Ry
     xc contribution           =    -400.46677755 Ry
     ewald contribution        =    7771.99325290 Ry
     electric field correction =       0.00013639 Ry
     smearing contrib. (-TS)   =      -0.09018816 Ry

     convergence has been achieved in  24 iterations

 BEEF-vdW xc energy contributions
           1 :   -350.834829991473
           2 :    322.621196754227
           3 :   -272.428035647781
           4 :    210.310229675138
           5 :   -147.012245220059
           6 :    91.0005627281114
           7 :   -46.8076768296406
           8 :    14.9127830626805
           9 :    7.01105843183376
          10 :   -22.2567396746654
          11 :    33.4088091036084
          12 :   -41.4805972372198
          13 :    45.9807206267171
          14 :   -45.7189832146908
          15 :    39.8499715354458
          16 :   -28.6853771764178
          17 :    13.9323396433411
          18 :    1.68610094673244
          19 :   -15.2454464950301
          20 :    24.4912680453431
          21 :   -28.4209725529826
          22 :    27.3626417748196
          23 :   -22.5906183626575
          24 :    15.6973184232771
          25 :   -8.02911650964438
          26 :   0.408386801029849
          27 :    6.79641401127270
          28 :   -13.3799103876913
          29 :    18.9988204266876
          30 :   -23.0486700206241
          31 :   -33.4636495151198
          32 :   -24.5830917794282

     Forces acting on atoms (Ry/au):

     negative rho (up, down):  1.590E+00 0.000E+00
     atom    1 type  1   force =    -0.00413942   -0.00242528    0.03169894
     atom    2 type  1   force =     0.00414142   -0.00242908    0.03170174
     atom    3 type  1   force =    -0.00000119    0.00481978    0.03173091
     atom    4 type  1   force =     0.00000113    0.00003832    0.03083440
     atom    5 type  1   force =     0.00008321   -0.00674713   -0.02012763
     atom    6 type  1   force =    -0.00007105    0.00002826    0.01790898
     atom    7 type  1   force =     0.00586767    0.00330750   -0.02013595
     atom    8 type  1   force =    -0.00587019    0.00340235   -0.02021784
     atom    9 type  1   force =     0.00000461   -0.00003822   -0.04028808
     atom   10 type  1   force =     0.00000245    0.00816137    0.03871607
     atom   11 type  1   force =     0.00709926   -0.00405891    0.03874330
     atom   12 type  1   force =    -0.00711003   -0.00405946    0.03875457
     atom   13 type  2   force =    -0.00000787    0.00000052   -0.15931942

     Total force =     0.178068     Total SCF correction =     0.006936

     entering subroutine stress ...

     negative rho (up, down):  1.590E+00 0.000E+00
          total   stress  (Ry/bohr**3)                   (kbar)     P=  -36.80
  -0.00021072   0.00000001  -0.00000002        -31.00      0.00     -0.00
   0.00000001  -0.00021074   0.00000000          0.00    -31.00      0.00
  -0.00000002   0.00000000  -0.00032907         -0.00      0.00    -48.41

     BFGS Geometry Optimization

     number of scf cycles    =   1
     number of bfgs steps    =   0

     energy   new            =   -2114.8494056989 Ry

     new trust radius        =       0.1593194156 bohr
     new conv_thr            =       0.0000099958 Ry

ATOMIC_POSITIONS (crystal)
Tc1      0.166666667   0.166666667   0.408540475    0   0   0
Tc1      0.666666667   0.166666667   0.408540475    0   0   0
Tc1      0.166666667   0.666666667   0.408540475    0   0   0
Tc1      0.666666667   0.666666667   0.408540475    0   0   0
Tc1      0.833333333   0.333333333   0.500000000    0   0   0
Tc1      0.333333333   0.333333333   0.500000000    0   0   0
Tc1      0.833333333   0.833333333   0.500000000    0   0   0
Tc1      0.333333333   0.833333333   0.500000000    0   0   0
Tc1      0.000002574  -0.000004259   0.590588536
Tc1      0.499545527   0.000909419   0.592296529
Tc1      0.000911228   0.499547716   0.592297118
Tc1      0.499540048   0.499547655   0.592297362
C1       0.333332544   0.333333391   0.647233136

     Writing output data file calc.save
     Check: negative starting charge=   -1.504772
     NEW-OLD atomic charge density approx. for the potential

     Check: negative/imaginary core charge=   -0.000022    0.000000
     Check: negative starting charge=   -1.508194

[...]

     energy   old            =   -2114.8494056989 Ry
     energy   new            =   -2114.8775111306 Ry

     CASE: energy  _new < energy  _old

[...]

     Total force =     0.019590     Total SCF correction =     0.001986
     SCF correction compared to forces is large: reduce conv_thr to get better values

[...]

     Total force =     0.010088     Total SCF correction =     0.001003

[...]

     number of scf cycles    =  11
     number of bfgs steps    =  10

     energy   old            =   -2114.9180686477 Ry
     energy   new            =   -2114.9181105672 Ry

     CASE: energy  _new < energy  _old

     new trust radius        =       0.0123825927 bohr
     new conv_thr            =       0.0000001000 Ry

ATOMIC_POSITIONS (crystal)
Tc1      0.166666667   0.166666667   0.408540475    0   0   0
Tc1      0.666666667   0.166666667   0.408540475    0   0   0
Tc1      0.166666667   0.666666667   0.408540475    0   0   0
Tc1      0.666666667   0.666666667   0.408540475    0   0   0
Tc1      0.833333333   0.333333333   0.500000000    0   0   0
Tc1      0.333333333   0.333333333   0.500000000    0   0   0
Tc1      0.833333333   0.833333333   0.500000000    0   0   0
Tc1      0.333333333   0.833333333   0.500000000    0   0   0
Tc1      0.000002315  -0.000001823   0.585058589
Tc1      0.503822072  -0.007645996   0.590379475
Tc1     -0.007644810   0.503822454   0.590379946
Tc1      0.503820890   0.503823836   0.590379543
C1       0.333334433   0.333332671   0.634599361

     Writing output data file calc.save
     Check: negative starting charge=   -1.498337
     NEW-OLD atomic charge density approx. for the potential

     Check: negative/imaginary core charge=   -0.000022    0.000000
     Check: negative starting charge=   -1.498037

[...]

     Self-consistent Calculation

[...]

     total energy              =   -2114.91814526 Ry
     Harris-Foulkes estimate   =   -2114.91814526 Ry
     estimated scf accuracy    <       0.00000025 Ry

     iteration # 12     ecut=    36.75 Ry     beta=0.30
     Davidson diagonalization with overlap
     ethr =  1.16E-10,  avg # of iterations =  1.6

[...]

     negative rho (up, down):  1.584E+00 0.000E+00

     Adding external electric field

     Computed dipole along edir(3) :
        Dipole               -0.1152 Ry au,         -0.2928 Debye
        Dipole field         -0.0003 Ry au

        Potential amp.        0.0304 Ry
        Total length         45.0992 bohr

     End of self-consistent calculation

[...]

          k = 0.0608-0.0702 0.0000 ( 16203 PWs)   bands (ev):

[...]

          k =-0.0912-0.0526 0.0000 ( 16164 PWs)   bands (ev):

   -64.8433 -64.8366 -64.7559 -64.7549 -64.6779 -64.6574 -64.6344 -64.6288
   -64.6080 -64.5977 -64.5746 -64.5708 -37.2455 -37.1907 -37.1900 -37.1505
   -37.1265 -37.1062 -36.9949 -36.9736 -36.9354 -36.9082 -36.9009 -36.8891
   -36.7816 -36.7024 -36.6467 -36.6451 -36.6381 -36.6283 -36.6278 -36.6266
   -36.5799 -36.5723 -36.5621 -36.5426 -36.5359 -36.5312 -36.5250 -36.5126
   -36.4381 -36.4113 -36.3754 -36.3434 -36.3395 -36.3005 -36.2617 -36.2523
    -8.0171  -2.9234  -2.5888  -2.3104  -2.0278  -1.9975  -1.9086  -1.8308
    -1.7442  -1.5099  -1.4614  -1.4185  -1.2693  -1.2423  -1.1315  -1.0291
    -0.9523  -0.9376  -0.6804  -0.4848  -0.3008  -0.1991  -0.1791   0.1093
     0.1561   0.2852   0.4241   0.5491   0.6148   0.6271   0.8877   0.9393
     0.9640   1.0148   1.0669   1.0806   1.0925   1.2683   1.2884   1.3501
     1.3882   1.7124   2.0879   2.1623   2.1749   2.2329   2.5337   2.5676
     2.6080   2.7419   2.8082   2.9718   3.0273   3.0977

     the Fermi energy is     2.3307 ev

!    total energy              =   -2114.91814524 Ry
     Harris-Foulkes estimate   =   -2114.91814511 Ry
     estimated scf accuracy    <       0.00000004 Ry

     The total energy is the sum of the following terms:

     one-electron contribution =  -19219.18211804 Ry
     hartree contribution      =    9609.15903391 Ry
     xc contribution           =    -400.90318702 Ry
     ewald contribution        =    7896.09593004 Ry
     electric field correction =       0.00003877 Ry
     smearing contrib. (-TS)   =      -0.08784289 Ry

     convergence has been achieved in  12 iterations

 BEEF-vdW xc energy contributions
           1 :   -351.271826149161
           2 :    323.175199042550
           3 :   -273.130781929801
           4 :    211.084042336652
           5 :   -147.708183678411
           6 :    91.4668456556528
           7 :   -46.9561206546598
           8 :    14.7568532648820
           9 :    7.35741807407794
          10 :   -22.6254333728256
          11 :    33.6497195665457
          12 :   -41.5231212732211
          13 :    45.8591020607373
          14 :   -45.5481564803106
          15 :    39.7654481362043
          16 :   -28.7780110055212
          17 :    14.2056618244159
          18 :    1.31761498558433
          19 :   -14.9155372872685
          20 :    24.3192479228230
          21 :   -28.4581076526804
          22 :    27.5722391613477
          23 :   -22.8695627065259
          24 :    15.9255130079489
          25 :   -8.12318570570767
          26 :   0.356155044468835
          27 :    6.93735402429382
          28 :   -13.5156264767089
          29 :    19.0467651833462
          30 :   -22.9765043780289
          31 :   -33.4913604762447
          32 :   -24.6368179984552

     Forces acting on atoms (Ry/au):

     negative rho (up, down):  1.584E+00 0.000E+00
     atom    1 type  1   force =    -0.00279302   -0.00160935    0.02543519
     atom    2 type  1   force =     0.00279304   -0.00161266    0.02543853
     atom    3 type  1   force =    -0.00000289    0.00322327    0.02543488
     atom    4 type  1   force =     0.00000303   -0.00000193    0.02816213
     atom    5 type  1   force =    -0.00000406   -0.00508449   -0.03511969
     atom    6 type  1   force =     0.00000336   -0.00000231    0.00166730
     atom    7 type  1   force =     0.00440083    0.00254593   -0.03511951
     atom    8 type  1   force =    -0.00440060    0.00254125   -0.03511565
     atom    9 type  1   force =    -0.00000653    0.00000512    0.00060953
     atom   10 type  1   force =     0.00000524   -0.00162327   -0.00060459
     atom   11 type  1   force =    -0.00141016    0.00081287   -0.00061189
     atom   12 type  1   force =     0.00141136    0.00080721   -0.00060537
     atom   13 type  2   force =     0.00000041   -0.00000165    0.00042914

     Total force =     0.003097     Total SCF correction =     0.000908
     SCF correction compared to forces is large: reduce conv_thr to get better values

     entering subroutine stress ...

     negative rho (up, down):  1.584E+00 0.000E+00
          total   stress  (Ry/bohr**3)                   (kbar)     P=  -16.20
  -0.00010490   0.00000000   0.00000000        -15.43      0.00      0.00
   0.00000000  -0.00010490  -0.00000000          0.00    -15.43     -0.00
   0.00000000  -0.00000000  -0.00012066          0.00     -0.00    -17.75

     bfgs converged in  12 scf cycles and  11 bfgs steps
     (criteria: energy <  1.0E+00, force <  1.9E-03)

     End of BFGS Geometry Optimization

     Final energy   =   -2114.9181452356 Ry
Begin final coordinates

ATOMIC_POSITIONS (crystal)
Tc1      0.166666667   0.166666667   0.408540475    0   0   0
Tc1      0.666666667   0.166666667   0.408540475    0   0   0
Tc1      0.166666667   0.666666667   0.408540475    0   0   0
Tc1      0.666666667   0.666666667   0.408540475    0   0   0
Tc1      0.833333333   0.333333333   0.500000000    0   0   0
Tc1      0.333333333   0.333333333   0.500000000    0   0   0
Tc1      0.833333333   0.833333333   0.500000000    0   0   0
Tc1      0.333333333   0.833333333   0.500000000    0   0   0
Tc1      0.000002315  -0.000001823   0.585058589
Tc1      0.503822072  -0.007645996   0.590379475
Tc1     -0.007644810   0.503822454   0.590379946
Tc1      0.503820890   0.503823836   0.590379543
C1       0.333334433   0.333332671   0.634599361
End final coordinates

     Writing output data file calc.save

     General routines

     Parallel routines

   This run was terminated on:  17:31:15   2May2018

   JOB DONE.
Job  /afs/slac/g/suncat/bin/suncat-tsmpirun -x LD_LIBRARY_PATH -wdir /scratch/qe793739_inhAK pw.x -npool 4 -in pw.inp

TID   HOST_NAME   COMMAND_LINE            STATUS            TERMINATION_TIME
00000 suncat0023 pw.x -npool 4 -i  Done                     05/02/2018 17:31:15
00001 suncat0023 pw.x -npool 4 -i  Done                     05/02/2018 17:31:15
00002 suncat0023 pw.x -npool 4 -i  Done                     05/02/2018 17:31:15
00003 suncat0023 pw.x -npool 4 -i  Done                     05/02/2018 17:31:15
00004 suncat0023 pw.x -npool 4 -i  Done                     05/02/2018 17:31:15
00005 suncat0023 pw.x -npool 4 -i  Done                     05/02/2018 17:31:15
00006 suncat0023 pw.x -npool 4 -i  Done                     05/02/2018 17:31:15
00007 suncat0023 pw.x -npool 4 -i  Done                     05/02/2018 17:31:15
00008 suncat0020 pw.x -npool 4 -i  Done                     05/02/2018 17:31:15
00009 suncat0020 pw.x -npool 4 -i  Done                     05/02/2018 17:31:15
00010 suncat0020 pw.x -npool 4 -i  Done                     05/02/2018 17:31:15
00011 suncat0020 pw.x -npool 4 -i  Done                     05/02/2018 17:31:15
00012 suncat0020 pw.x -npool 4 -i  Done                     05/02/2018 17:31:15
00013 suncat0020 pw.x -npool 4 -i  Done                     05/02/2018 17:31:15
00014 suncat0020 pw.x -npool 4 -i  Done                     05/02/2018 17:31:15
00015 suncat0020 pw.x -npool 4 -i  Done                     05/02/2018 17:31:15
00016 suncat0198 pw.x -npool 4 -i  Done                     05/02/2018 17:31:15
00017 suncat0198 pw.x -npool 4 -i  Done                     05/02/2018 17:31:15
00018 suncat0198 pw.x -npool 4 -i  Done                     05/02/2018 17:31:15
00019 suncat0198 pw.x -npool 4 -i  Done                     05/02/2018 17:31:15
00020 suncat0198 pw.x -npool 4 -i  Done                     05/02/2018 17:31:15
00021 suncat0198 pw.x -npool 4 -i  Done                     05/02/2018 17:31:15
00022 suncat0198 pw.x -npool 4 -i  Done                     05/02/2018 17:31:15
00023 suncat0198 pw.x -npool 4 -i  Done                     05/02/2018 17:31:15
00024 suncat0192 pw.x -npool 4 -i  Done                     05/02/2018 17:31:15
00025 suncat0192 pw.x -npool 4 -i  Done                     05/02/2018 17:31:15
00026 suncat0192 pw.x -npool 4 -i  Done                     05/02/2018 17:31:15
00027 suncat0192 pw.x -npool 4 -i  Done                     05/02/2018 17:31:15
00028 suncat0192 pw.x -npool 4 -i  Done                     05/02/2018 17:31:15
00029 suncat0192 pw.x -npool 4 -i  Done                     05/02/2018 17:31:15
00030 suncat0192 pw.x -npool 4 -i  Done                     05/02/2018 17:31:15
00031 suncat0192 pw.x -npool 4 -i  Done                     05/02/2018 17:31:15