     Program PWSCF v.5.1rc2 (svn rev. 11289) starts on 30Apr2018 at 16:24: 2

     Current dimensions of program PWSCF are:
     Max number of different atomic species (ntypx) = 10
     Max number of k-points (npk) =  40000
     Max angular momentum in pseudopotentials (lmaxx) =  3
     Presently stress not available with electric field

     IMPORTANT: XC functional enforced from input :
     Exchange-correlation      = BEEF-VDW ( 1  4 27 13 2)
     Any further DFT definition will be discarded
     Please, verify this is what you really want

     Subspace diagonalization in iterative solution of the eigenvalue problem:
     a serial algorithm will be used

     bravais-lattice index     =            0
     lattice parameter (alat)  =       1.8897  a.u.
     unit-cell volume          =    4650.5773 (a.u.)^3
     number of atoms/cell      =           13
     number of atomic types    =            2
     number of electrons       =        40.00
     number of Kohn-Sham states=           30
     kinetic-energy cutoff     =      36.7493  Ry
     charge density cutoff     =     367.4932  Ry
     convergence threshold     =      1.0E-05
     mixing beta               =       0.3000
     number of iterations used =           10  plain     mixing
     Exchange-correlation      = BEEF-VDW ( 1  4 27 13 2)
     nstep                     =           50

     celldm(1)=   1.889726  celldm(2)=   0.000000  celldm(3)=   0.000000
     celldm(4)=   0.000000  celldm(5)=   0.000000  celldm(6)=   0.000000

     crystal axes: (cart. coord. in units of alat)
               a(1) = (   5.682886   0.000000   0.000000 )
               a(2) = (   2.841443   4.921524   0.000000 )
               a(3) = (   0.000000   0.000000  24.640057 )

     reciprocal axes: (cart. coord. in units 2 pi/alat)
               b(1) = (  0.175967 -0.101595  0.000000 )
               b(2) = (  0.000000  0.203189  0.000000 )
               b(3) = (  0.000000  0.000000  0.040584 )

     PseudoPot. # 1 for Al read from file:
     /u/if/mamunm/psp/gbrv1.5pbe/Al.UPF
     MD5 check sum: 0a6289f5291fc8f409219462bc851e1f
     Pseudo is Ultrasoft + core correction, Zval =  3.0
     Generated by new atomic code, or converted to UPF format
     Using radial grid of  893 points,  3 beta functions with:
                l(1) =   0
                l(2) =   1
                l(3) =   2
     Q(r) pseudized with  8 coefficients,  rinner =    0.900   0.900   0.900
                                                       0.900   0.900

     PseudoPot. # 2 for C  read from file:
     /u/if/mamunm/psp/gbrv1.5pbe/C.UPF
     MD5 check sum: d1aef80898a10debaa0f26306b886e00
     Pseudo is Ultrasoft + core correction, Zval =  4.0
     Generated by new atomic code, or converted to UPF format
     Using radial grid of  721 points,  4 beta functions with:
                l(1) =   0
                l(2) =   0
                l(3) =   1
                l(4) =   1
     Q(r) pseudized with  8 coefficients,  rinner =    1.100   1.100   1.100

     vdW kernel table read from file vdW_kernel_table
     MD5 check sum: 095c7af220d748ca6e76c0b4c6cfb241

     atomic species   valence    mass     pseudopotential
        Al1            3.00    26.98154     Al( 1.00)
        C1             4.00    12.01100     C ( 1.00)

     No symmetry found

   Cartesian axes

     site n.     atom                  positions (alat units)
         1           Al1 tau(   1) = (   1.4207216   0.8202540  10.0000000  )
         2           Al1 tau(   2) = (   4.2621647   0.8202540  10.0000000  )
         3           Al1 tau(   3) = (   2.8414431   3.2810159  10.0000000  )
         4           Al1 tau(   4) = (   5.6828862   3.2810159  10.0000000  )
         5           Al1 tau(   5) = (   5.6828862   1.6405079  12.3200286  )
         6           Al1 tau(   6) = (   2.8414431   1.6405079  12.3200286  )
         7           Al1 tau(   7) = (   7.1036078   4.1012699  12.3200286  )
         8           Al1 tau(   8) = (   4.2621647   4.1012699  12.3200286  )
         9           Al1 tau(   9) = (   0.0000000   0.0000000  14.6400572  )
        10           Al1 tau(  10) = (   2.8414431   0.0000000  14.6400572  )
        11           Al1 tau(  11) = (   1.4207216   2.4607619  14.6400572  )
        12           Al1 tau(  12) = (   4.2621647   2.4607619  14.6400572  )
        13           C1  tau(  13) = (   1.4207216   0.8202540  15.9205572  )

     number of k points=    20  Fermi-Dirac smearing, width (Ry)=  0.0110
                       cart. coord. in units 2pi/alat
        k(    1) = (   0.0000000   0.0000000   0.0000000), wk =   0.0555556
        k(    2) = (   0.0000000   0.0338648   0.0000000), wk =   0.1111111
        k(    3) = (   0.0000000   0.0677297   0.0000000), wk =   0.1111111
        k(    4) = (   0.0000000  -0.1015945   0.0000000), wk =   0.0555556
        k(    5) = (   0.0293278  -0.0169324   0.0000000), wk =   0.1111111
        k(    6) = (   0.0293278   0.0169324   0.0000000), wk =   0.1111111
        k(    7) = (   0.0293278   0.0507973   0.0000000), wk =   0.1111111
        k(    8) = (   0.0293278  -0.1185270   0.0000000), wk =   0.1111111
        k(    9) = (   0.0293278  -0.0846621   0.0000000), wk =   0.1111111
        k(   10) = (   0.0293278  -0.0507973   0.0000000), wk =   0.1111111
        k(   11) = (   0.0586556  -0.0338648   0.0000000), wk =   0.1111111
        k(   12) = (   0.0586556   0.0000000   0.0000000), wk =   0.1111111
        k(   13) = (   0.0586556   0.0338648   0.0000000), wk =   0.1111111
        k(   14) = (   0.0586556  -0.1354594   0.0000000), wk =   0.1111111
        k(   15) = (   0.0586556  -0.1015945   0.0000000), wk =   0.1111111
        k(   16) = (   0.0586556  -0.0677297   0.0000000), wk =   0.1111111
        k(   17) = (  -0.0879835   0.0507973   0.0000000), wk =   0.0555556
        k(   18) = (  -0.0879835   0.0846621   0.0000000), wk =   0.1111111
        k(   19) = (  -0.0879835   0.1185270   0.0000000), wk =   0.1111111
        k(   20) = (  -0.0879835  -0.0507973   0.0000000), wk =   0.0555556

     Largest allocated arrays     est. size (Mb)     dimensions
     Largest temporary arrays     est. size (Mb)     dimensions

     Initial potential from superposition of free atoms
     Check: negative starting charge=   -0.000184

     starting charge   39.97037, renormalised to   40.00000

     negative rho (up, down):  1.840E-04 0.000E+00

     *
     * You are using vdW-DF for exchange-correlation in this calculation.
     * Please cite the following three references that made this development
     * possible:
     *
     *   M. Dion, H. Rydberg, E. Schroder, D. C. Langreth, and
     *   B. I. Lundqvist, Phys. Rev. Lett. 92, 246401 (2004).
     *
     *   T. Thonhauser, V. R. Cooper, S. Li, A. Puzder, P. Hyldgaard, and
     *   D. C. Langreth, Phys. Rev. B 76, 125112 (2007).
     *
     *   G. Roman-Perez and J. M. Soler, Phys. Rev. Lett. 103, 096102 (2009).
     *
     *
     * If you are using vdW-DF2, please also cite:
     *
     *   K. Lee, E. D. Murray, L. Kong, B. I. Lundqvist, and
     *   D. C. Langreth, Phys. Rev. B 82, 081101(R) (2010).
     *
     *
     * If you are calculating the stress with vdW-DF, please also cite:
     *
     *   R. Sabatini, E. Kucukbenli, B. Kolb, T. Thonhauser, and
     *   S. de Gironcoli, J. Phys.: Condens. Matter 24, 424209 (2012).
     *

     Carrying out vdW-DF run using the following parameters:

     Nqs =      20    Nr_points =    1024   r_max =   100.000
     q_mesh =
               0.00001000     0.04494208     0.09755937     0.15916263
               0.23128650     0.31572767     0.41458969     0.53033537
               0.66584808     0.82450364     1.01025438     1.22772762
               1.48234092     1.78043706     2.12944203     2.53805004
               3.01644009     3.57652955     4.23227104     5.00000000

     Gradients computed in reciprocal space

     Adding external electric field

     Computed dipole along edir(3) :
        Dipole               -0.0199 Ry au,         -0.0506 Debye
        Dipole field         -0.0001 Ry au

        Potential amp.        0.0049 Ry
        Total length         45.3989 bohr

     Starting wfc are   52 randomized atomic wfcs

     Self-consistent Calculation

     iteration #  1     ecut=    36.75 Ry     beta=0.30
     Davidson diagonalization with overlap
     ethr =  1.00E-02,  avg # of iterations =  3.0

[...]

     total energy              =     -92.76413413 Ry
     Harris-Foulkes estimate   =     -94.07509137 Ry
     estimated scf accuracy    <       2.92157118 Ry

[...]

     End of self-consistent calculation

          k = 0.0000 0.0000 0.0000 ( 17579 PWs)   bands (ev):

   -12.2794 -11.3053  -9.4378  -6.9083  -6.0244  -6.0244  -5.9502  -5.9502
    -5.9492  -5.7850  -4.8504  -4.8504  -4.5757  -4.2187  -4.0366  -4.0366
    -3.2056  -2.8584  -2.8584  -2.0005  -1.5634  -1.5634  -1.4227  -0.1239
     0.0880   0.0880   0.5213   1.4370   1.4370   1.4613

[...]

          k =-0.0880 0.0508 0.0000 ( 17464 PWs)   bands (ev):

[...]

     the Fermi energy is    -1.2945 ev

!    total energy              =     -93.81594832 Ry
     Harris-Foulkes estimate   =     -93.81594810 Ry
     estimated scf accuracy    <       0.00000083 Ry

     The total energy is the sum of the following terms:

     one-electron contribution =    -721.93977012 Ry
     hartree contribution      =     368.55698274 Ry
     xc contribution           =     -56.69534414 Ry
     ewald contribution        =     316.29463925 Ry
     electric field correction =       0.00059714 Ry
     smearing contrib. (-TS)   =      -0.03305319 Ry

     convergence has been achieved in  11 iterations

 BEEF-vdW xc energy contributions
           1 :   -46.5681858122495
           2 :    40.0376668165894
           3 :   -30.0188854794657
           4 :    20.4742910747433
           5 :   -13.9370241990899
           6 :    10.5528693059340
           7 :   -8.83615005484600
           8 :    7.25541880263479
           9 :   -5.34309183530345
          10 :    3.62777113961157
          11 :   -2.75442346526767
          12 :    2.73248855313874
          13 :   -2.94800689154531
          14 :    2.77631894080061
          15 :   -2.12284308189008
          16 :    1.39692964607218
          17 :   -1.02691862380073
          18 :    1.03941542413472
          19 :   -1.09345256002945
          20 :   0.866828387294944
          21 :  -0.371786178496059
          22 :  -9.501856390812691E-002
          23 :   0.272175280981429
          24 :  -0.182125732078781
          25 :   7.692619639090026E-002
          26 :  -0.167822703846873
          27 :   0.422474682844737
          28 :  -0.620387329325666
          29 :   0.588282652842878
          30 :  -0.370665044307671
          31 :   -6.96994252343146
          32 :   -5.10120776622708

     Forces acting on atoms (Ry/au):

     negative rho (up, down):  4.275E-04 0.000E+00
     atom    1 type  1   force =    -0.00000016   -0.00000010   -0.00493138
     atom    2 type  1   force =     0.00000015    0.00011632   -0.00151454
     atom    3 type  1   force =     0.00010094   -0.00005788   -0.00151519
     atom    4 type  1   force =    -0.00010102   -0.00005829   -0.00151486
     atom    5 type  1   force =     0.00009848   -0.00005694   -0.00226467
     atom    6 type  1   force =    -0.00009834   -0.00005670   -0.00226413
     atom    7 type  1   force =     0.00000018   -0.00000011    0.00011499
     atom    8 type  1   force =    -0.00000034    0.00011376   -0.00226448
     atom    9 type  1   force =     0.01373871    0.00793229    0.03485203
     atom   10 type  1   force =    -0.01373867    0.00793196    0.03485214
     atom   11 type  1   force =    -0.00000019   -0.01586441    0.03485254
     atom   12 type  1   force =     0.00000006   -0.00000055   -0.00621847
     atom   13 type  2   force =     0.00000020    0.00000065   -0.08218396

     Total force =     0.105792     Total SCF correction =     0.000575

     entering subroutine stress ...

     negative rho (up, down):  4.275E-04 0.000E+00
          total   stress  (Ry/bohr**3)                   (kbar)     P=   -8.35
  -0.00007561   0.00000000  -0.00000000        -11.12      0.00     -0.00
   0.00000000  -0.00007561   0.00000000          0.00    -11.12      0.00
  -0.00000000   0.00000000  -0.00001898         -0.00      0.00     -2.79

     BFGS Geometry Optimization

     number of scf cycles    =   1
     number of bfgs steps    =   0

     energy   new            =     -93.8159483226 Ry

     new trust radius        =       0.0821839647 bohr
     new conv_thr            =       0.0000099958 Ry

ATOMIC_POSITIONS (crystal)
Al1      0.166666667   0.166666667   0.405843214    0   0   0
Al1      0.666666667   0.166666667   0.405843214    0   0   0
Al1      0.166666667   0.666666667   0.405843214    0   0   0
Al1      0.666666667   0.666666667   0.405843214    0   0   0
Al1      0.833333333   0.333333333   0.500000000    0   0   0
Al1      0.333333333   0.333333333   0.500000000    0   0   0
Al1      0.833333333   0.833333333   0.500000000    0   0   0
Al1      0.333333333   0.833333333   0.500000000    0   0   0
Al1      0.000852865   0.000852904   0.594905279
Al1      0.498294253   0.000852868   0.594905281
Al1      0.000852876   0.498294211   0.594905290
Al1      0.500000035   0.499999941   0.594023236
C1       0.166666651   0.166666736   0.644360002

     Writing output data file calc.save
     Check: negative starting charge=   -0.000184
     NEW-OLD atomic charge density approx. for the potential
     Check: negative starting charge=   -0.000184

[...]

     energy   old            =     -93.8159483226 Ry
     energy   new            =     -93.8259181918 Ry

     CASE: energy  _new < energy  _old

[...]

     number of scf cycles    =   9
     number of bfgs steps    =   8

     energy   old            =     -93.8480546521 Ry
     energy   new            =     -93.8480999980 Ry

     CASE: energy  _new < energy  _old

     new trust radius        =       0.0091674411 bohr
     new conv_thr            =       0.0000001000 Ry

ATOMIC_POSITIONS (crystal)
Al1      0.166666667   0.166666667   0.405843214    0   0   0
Al1      0.666666667   0.166666667   0.405843214    0   0   0
Al1      0.166666667   0.666666667   0.405843214    0   0   0
Al1      0.666666667   0.666666667   0.405843214    0   0   0
Al1      0.833333333   0.333333333   0.500000000    0   0   0
Al1      0.333333333   0.333333333   0.500000000    0   0   0
Al1      0.833333333   0.833333333   0.500000000    0   0   0
Al1      0.333333333   0.833333333   0.500000000    0   0   0
Al1     -0.006936642  -0.006936643   0.600012343
Al1      0.513873338  -0.006936701   0.600012342
Al1     -0.006936748   0.513873447   0.600012344
Al1      0.500000010   0.499999935   0.591200456
C1       0.166666663   0.166666775   0.635344778

     Writing output data file calc.save
     Check: negative starting charge=   -0.000185
     NEW-OLD atomic charge density approx. for the potential
     Check: negative starting charge=   -0.000185

[...]

     Self-consistent Calculation

[...]

     Threshold (ethr) on eigenvalues was too large:
     Diagonalizing with lowered threshold

     Davidson diagonalization with overlap
     ethr =  3.43E-08,  avg # of iterations =  1.8

[...]

     total energy              =     -93.84812450 Ry
     Harris-Foulkes estimate   =     -93.84812460 Ry
     estimated scf accuracy    <       0.00000015 Ry

     iteration #  6     ecut=    36.75 Ry     beta=0.30
     Davidson diagonalization with overlap
     ethr =  3.74E-10,  avg # of iterations =  2.0

[...]

     negative rho (up, down):  4.735E-04 0.000E+00

     Adding external electric field

     Computed dipole along edir(3) :
        Dipole               -0.3242 Ry au,         -0.8241 Debye
        Dipole field         -0.0009 Ry au

        Potential amp.        0.0795 Ry
        Total length         45.3989 bohr

     End of self-consistent calculation

[...]

          k = 0.0587-0.0677 0.0000 ( 17495 PWs)   bands (ev):

[...]

          k =-0.0880-0.0508 0.0000 ( 17464 PWs)   bands (ev):

   -11.8697 -10.1950  -9.8856  -8.6264  -7.8357  -7.1924  -6.9965  -6.1589
    -5.8632  -5.7127  -4.4394  -3.7976  -3.4474  -3.1616  -2.0221  -1.7663
    -1.7278  -1.5710  -1.3509  -1.1603  -1.0672  -0.4057  -0.0381   0.2279
     0.5018   0.7327   0.9031   1.2268   1.8334   2.0188

     the Fermi energy is    -1.1316 ev

!    total energy              =     -93.84812453 Ry
     Harris-Foulkes estimate   =     -93.84812480 Ry
     estimated scf accuracy    <       0.00000003 Ry

     The total energy is the sum of the following terms:

     one-electron contribution =    -726.49169131 Ry
     hartree contribution      =     371.09843732 Ry
     xc contribution           =     -56.83035783 Ry
     ewald contribution        =     318.41061599 Ry
     electric field correction =       0.00028407 Ry
     smearing contrib. (-TS)   =      -0.03541277 Ry

     convergence has been achieved in   6 iterations

 BEEF-vdW xc energy contributions
           1 :   -46.6982105827781
           2 :    40.1565732357159
           3 :   -30.0941399513665
           4 :    20.4591440616405
           5 :   -13.7886205035585
           6 :    10.2478886147478
           7 :   -8.38619719017895
           8 :    6.71133663407569
           9 :   -4.77644409015825
          10 :    3.09596150152817
          11 :   -2.27530009193710
          12 :    2.29071529078323
          13 :   -2.52675660997245
          14 :    2.38295555679446
          15 :   -1.78276661070679
          16 :    1.12289434532890
          17 :  -0.798823436119719
          18 :   0.816907209769148
          19 :  -0.847563598257963
          20 :   0.599354623041208
          21 :  -0.105793680751610
          22 :  -0.341102246439320
          23 :   0.499173610784126
          24 :  -0.400217175837376
          25 :   0.285404623515483
          26 :  -0.349142407478304
          27 :   0.558178292299253
          28 :  -0.711408253790168
          29 :   0.656584245087259
          30 :  -0.439416171251644
          31 :   -6.97751759481685
          32 :   -5.10016456991097

     Forces acting on atoms (Ry/au):

     negative rho (up, down):  4.735E-04 0.000E+00
     atom    1 type  1   force =    -0.00000000    0.00000000   -0.00341692
     atom    2 type  1   force =    -0.00000001    0.00063961   -0.00307302
     atom    3 type  1   force =     0.00055393   -0.00031981   -0.00307303
     atom    4 type  1   force =    -0.00055392   -0.00031980   -0.00307302
     atom    5 type  1   force =     0.00272096   -0.00157096    0.00156526
     atom    6 type  1   force =    -0.00272096   -0.00157094    0.00156525
     atom    7 type  1   force =     0.00000000    0.00000000    0.00392601
     atom    8 type  1   force =    -0.00000000    0.00314188    0.00156526
     atom    9 type  1   force =     0.00129881    0.00074987    0.00175019
     atom   10 type  1   force =    -0.00129876    0.00074987    0.00175015
     atom   11 type  1   force =     0.00000002   -0.00149973    0.00175016
     atom   12 type  1   force =    -0.00000000    0.00000005   -0.00174908
     atom   13 type  2   force =    -0.00000007   -0.00000005    0.00051280

     Total force =     0.004389     Total SCF correction =     0.000080

     entering subroutine stress ...

     negative rho (up, down):  4.735E-04 0.000E+00
          total   stress  (Ry/bohr**3)                   (kbar)     P=   -3.87
  -0.00004750  -0.00000000  -0.00000000         -6.99     -0.00     -0.00
  -0.00000000  -0.00004750  -0.00000000         -0.00     -6.99     -0.00
  -0.00000000  -0.00000000   0.00001611         -0.00     -0.00      2.37

     bfgs converged in  10 scf cycles and   9 bfgs steps
     (criteria: energy <  1.0E+00, force <  1.9E-03)

     End of BFGS Geometry Optimization

     Final energy   =     -93.8481245342 Ry
Begin final coordinates

ATOMIC_POSITIONS (crystal)
Al1      0.166666667   0.166666667   0.405843214    0   0   0
Al1      0.666666667   0.166666667   0.405843214    0   0   0
Al1      0.166666667   0.666666667   0.405843214    0   0   0
Al1      0.666666667   0.666666667   0.405843214    0   0   0
Al1      0.833333333   0.333333333   0.500000000    0   0   0
Al1      0.333333333   0.333333333   0.500000000    0   0   0
Al1      0.833333333   0.833333333   0.500000000    0   0   0
Al1      0.333333333   0.833333333   0.500000000    0   0   0
Al1     -0.006936642  -0.006936643   0.600012343
Al1      0.513873338  -0.006936701   0.600012342
Al1     -0.006936748   0.513873447   0.600012344
Al1      0.500000010   0.499999935   0.591200456
C1       0.166666663   0.166666775   0.635344778
End final coordinates

     Writing output data file calc.save

     General routines

     Parallel routines

   This run was terminated on:  16:51: 9  30Apr2018

   JOB DONE.
Job  /afs/slac/g/suncat/bin/suncat-tsmpirun -x LD_LIBRARY_PATH -wdir /scratch/qe508144_OS8L6 pw.x -npool 4 -in pw.inp

TID   HOST_NAME   COMMAND_LINE            STATUS            TERMINATION_TIME
00000 suncat0174 pw.x -npool 4 -i  Done                     04/30/2018 16:51:09
00001 suncat0174 pw.x -npool 4 -i  Done                     04/30/2018 16:51:09
00002 suncat0174 pw.x -npool 4 -i  Done                     04/30/2018 16:51:09
00003 suncat0174 pw.x -npool 4 -i  Done                     04/30/2018 16:51:09
00004 suncat0174 pw.x -npool 4 -i  Done                     04/30/2018 16:51:09
00005 suncat0174 pw.x -npool 4 -i  Done                     04/30/2018 16:51:09
00006 suncat0174 pw.x -npool 4 -i  Done                     04/30/2018 16:51:09
00007 suncat0174 pw.x -npool 4 -i  Done                     04/30/2018 16:51:09
00008 suncat0155 pw.x -npool 4 -i  Done                     04/30/2018 16:51:09
00009 suncat0155 pw.x -npool 4 -i  Done                     04/30/2018 16:51:09
00010 suncat0155 pw.x -npool 4 -i  Done                     04/30/2018 16:51:09
00011 suncat0155 pw.x -npool 4 -i  Done                     04/30/2018 16:51:09
00012 suncat0155 pw.x -npool 4 -i  Done                     04/30/2018 16:51:09
00013 suncat0155 pw.x -npool 4 -i  Done                     04/30/2018 16:51:09
00014 suncat0155 pw.x -npool 4 -i  Done                     04/30/2018 16:51:09
00015 suncat0155 pw.x -npool 4 -i  Done                     04/30/2018 16:51:09
00016 suncat0137 pw.x -npool 4 -i  Done                     04/30/2018 16:51:09
00017 suncat0137 pw.x -npool 4 -i  Done                     04/30/2018 16:51:09
00018 suncat0137 pw.x -npool 4 -i  Done                     04/30/2018 16:51:09
00019 suncat0137 pw.x -npool 4 -i  Done                     04/30/2018 16:51:09
00020 suncat0137 pw.x -npool 4 -i  Done                     04/30/2018 16:51:09
00021 suncat0137 pw.x -npool 4 -i  Done                     04/30/2018 16:51:09
00022 suncat0137 pw.x -npool 4 -i  Done                     04/30/2018 16:51:09
00023 suncat0137 pw.x -npool 4 -i  Done                     04/30/2018 16:51:09
00024 suncat0120 pw.x -npool 4 -i  Done                     04/30/2018 16:51:09
00025 suncat0120 pw.x -npool 4 -i  Done                     04/30/2018 16:51:09
00026 suncat0120 pw.x -npool 4 -i  Done                     04/30/2018 16:51:09
00027 suncat0120 pw.x -npool 4 -i  Done                     04/30/2018 16:51:09
00028 suncat0120 pw.x -npool 4 -i  Done                     04/30/2018 16:51:09
00029 suncat0120 pw.x -npool 4 -i  Done                     04/30/2018 16:51:09
00030 suncat0120 pw.x -npool 4 -i  Done                     04/30/2018 16:51:09
00031 suncat0120 pw.x -npool 4 -i  Done                     04/30/2018 16:51:09