     Program PWSCF v.5.1rc2 (svn rev. 11289) starts on 24Apr2018 at 16:40:47

     Current dimensions of program PWSCF are:
     Max number of different atomic species (ntypx) = 10
     Max number of k-points (npk) =  40000
     Max angular momentum in pseudopotentials (lmaxx) =  3
     Presently stress not available with electric field

     IMPORTANT: XC functional enforced from input :
     Exchange-correlation      = BEEF-VDW ( 1  4 27 13 2)
     Any further DFT definition will be discarded
     Please, verify this is what you really want

     Subspace diagonalization in iterative solution of the eigenvalue problem:
     a serial algorithm will be used

     bravais-lattice index     =            0
     lattice parameter (alat)  =       1.8897  a.u.
     unit-cell volume          =    4704.3541 (a.u.)^3
     number of atoms/cell      =           14
     number of atomic types    =            3
     number of electrons       =       174.00
     number of Kohn-Sham states=           97
     kinetic-energy cutoff     =      36.7493  Ry
     charge density cutoff     =     367.4932  Ry
     convergence threshold     =      1.0E-05
     mixing beta               =       0.3000
     number of iterations used =           10  plain     mixing
     Exchange-correlation      = BEEF-VDW ( 1  4 27 13 2)
     nstep                     =           50

     celldm(1)=   1.889726  celldm(2)=   0.000000  celldm(3)=   0.000000
     celldm(4)=   0.000000  celldm(5)=   0.000000  celldm(6)=   0.000000

     crystal axes: (cart. coord. in units of alat)
               a(1) = (   5.712816   0.000000   0.000000 )
               a(2) = (   2.856408   4.947444   0.000000 )
               a(3) = (   0.000000   0.000000  24.664495 )

     reciprocal axes: (cart. coord. in units 2 pi/alat)
               b(1) = (  0.175045 -0.101062  0.000000 )
               b(2) = (  0.000000  0.202125  0.000000 )
               b(3) = (  0.000000  0.000000  0.040544 )

     PseudoPot. # 1 for W  read from file:
     /u/if/mamunm/psp/gbrv1.5pbe/W.UPF
     MD5 check sum: 9c083fa34c2a2ea0f02f1f893e16e1c8
     Pseudo is Ultrasoft + core correction, Zval = 14.0
     Generated by new atomic code, or converted to UPF format
     Using radial grid of  923 points,  8 beta functions with:
                l(1) =   0
                l(2) =   0
                l(3) =   0
                l(4) =   1
                l(5) =   1
                l(6) =   2
                l(7) =   2
                l(8) =   3
     Q(r) pseudized with  6 coefficients,  rinner =    1.350   1.350   1.350
                                                       1.350   1.350   1.350
                                                       1.350

     PseudoPot. # 2 for N  read from file:
     /u/if/mamunm/psp/gbrv1.5pbe/N.UPF
     MD5 check sum: 95339753478d7afb44899504a8723017
     Pseudo is Ultrasoft + core correction, Zval =  5.0
     Generated by new atomic code, or converted to UPF format
     Using radial grid of  729 points,  4 beta functions with:
                l(1) =   0
                l(2) =   0
                l(3) =   1
                l(4) =   1
     Q(r) pseudized with  8 coefficients,  rinner =    0.900   0.900   0.900

     PseudoPot. # 3 for H  read from file:
     /u/if/mamunm/psp/gbrv1.5pbe/H.UPF
     MD5 check sum: 761ae9a214b05c3daf00ab9f6b793d6f
     Pseudo is Ultrasoft, Zval =  1.0
     Generated by new atomic code, or converted to UPF format
     Using radial grid of  615 points,  2 beta functions with:
                l(1) =   0
                l(2) =   0
     Q(r) pseudized with  8 coefficients,  rinner =    0.700

     vdW kernel table read from file vdW_kernel_table
     MD5 check sum: 095c7af220d748ca6e76c0b4c6cfb241

     atomic species   valence    mass     pseudopotential
        W1            14.00   183.84000     W ( 1.00)
        N1             5.00    14.00700     N ( 1.00)
        H1             1.00     1.00800     H ( 1.00)

     No symmetry found

   Cartesian axes

     site n.     atom                  positions (alat units)
         1           W1  tau(   1) = (   1.4282041   0.8245740  10.0000000  )
         2           W1  tau(   2) = (   4.2846123   0.8245740  10.0000000  )
         3           W1  tau(   3) = (   2.8564082   3.2982961  10.0000000  )
         4           W1  tau(   4) = (   5.7128165   3.2982961  10.0000000  )
         5           W1  tau(   5) = (   5.7128165   1.6491481  12.3322476  )
         6           W1  tau(   6) = (   2.8564082   1.6491481  12.3322476  )
         7           W1  tau(   7) = (   7.1410206   4.1228701  12.3322476  )
         8           W1  tau(   8) = (   4.2846123   4.1228701  12.3322476  )
         9           W1  tau(   9) = (   0.0000000   0.0000000  14.6644951  )
        10           W1  tau(  10) = (   2.8564082   0.0000000  14.6644951  )
        11           W1  tau(  11) = (   1.4282041   2.4737221  14.6644951  )
        12           W1  tau(  12) = (   4.2846123   2.4737221  14.6644951  )
        13           N1  tau(  13) = (   1.4282041   0.8245740  16.1789951  )
        14           H1  tau(  14) = (   1.4282041   0.8245740  17.2289951  )

     number of k points=    20  Fermi-Dirac smearing, width (Ry)=  0.0110
                       cart. coord. in units 2pi/alat
        k(    1) = (   0.0000000   0.0000000   0.0000000), wk =   0.0555556
        k(    2) = (   0.0000000   0.0336874   0.0000000), wk =   0.1111111
        k(    3) = (   0.0000000   0.0673749   0.0000000), wk =   0.1111111
        k(    4) = (   0.0000000  -0.1010623   0.0000000), wk =   0.0555556
        k(    5) = (   0.0291742  -0.0168437   0.0000000), wk =   0.1111111
        k(    6) = (   0.0291742   0.0168437   0.0000000), wk =   0.1111111
        k(    7) = (   0.0291742   0.0505311   0.0000000), wk =   0.1111111
        k(    8) = (   0.0291742  -0.1179060   0.0000000), wk =   0.1111111
        k(    9) = (   0.0291742  -0.0842186   0.0000000), wk =   0.1111111
        k(   10) = (   0.0291742  -0.0505311   0.0000000), wk =   0.1111111
        k(   11) = (   0.0583483  -0.0336874   0.0000000), wk =   0.1111111
        k(   12) = (   0.0583483  -0.0000000   0.0000000), wk =   0.1111111
        k(   13) = (   0.0583483   0.0336874   0.0000000), wk =   0.1111111
        k(   14) = (   0.0583483  -0.1347497   0.0000000), wk =   0.1111111
        k(   15) = (   0.0583483  -0.1010623   0.0000000), wk =   0.1111111
        k(   16) = (   0.0583483  -0.0673749   0.0000000), wk =   0.1111111
        k(   17) = (  -0.0875225   0.0505311   0.0000000), wk =   0.0555556
        k(   18) = (  -0.0875225   0.0842186   0.0000000), wk =   0.1111111
        k(   19) = (  -0.0875225   0.1179060   0.0000000), wk =   0.1111111
        k(   20) = (  -0.0875225  -0.0505311   0.0000000), wk =   0.0555556

     Largest allocated arrays     est. size (Mb)     dimensions
     Largest temporary arrays     est. size (Mb)     dimensions

     Initial potential from superposition of free atoms
     Check: negative starting charge=   -0.760347

     starting charge  172.79590, renormalised to  174.00000

     negative rho (up, down):  7.656E-01 0.000E+00

     *
     * You are using vdW-DF for exchange-correlation in this calculation.
     * Please cite the following three references that made this development
     * possible:
     *
     *   M. Dion, H. Rydberg, E. Schroder, D. C. Langreth, and
     *   B. I. Lundqvist, Phys. Rev. Lett. 92, 246401 (2004).
     *
     *   T. Thonhauser, V. R. Cooper, S. Li, A. Puzder, P. Hyldgaard, and
     *   D. C. Langreth, Phys. Rev. B 76, 125112 (2007).
     *
     *   G. Roman-Perez and J. M. Soler, Phys. Rev. Lett. 103, 096102 (2009).
     *
     *
     * If you are using vdW-DF2, please also cite:
     *
     *   K. Lee, E. D. Murray, L. Kong, B. I. Lundqvist, and
     *   D. C. Langreth, Phys. Rev. B 82, 081101(R) (2010).
     *
     *
     * If you are calculating the stress with vdW-DF, please also cite:
     *
     *   R. Sabatini, E. Kucukbenli, B. Kolb, T. Thonhauser, and
     *   S. de Gironcoli, J. Phys.: Condens. Matter 24, 424209 (2012).
     *

     Carrying out vdW-DF run using the following parameters:

     Nqs =      20    Nr_points =    1024   r_max =   100.000
     q_mesh =
               0.00001000     0.04494208     0.09755937     0.15916263
               0.23128650     0.31572767     0.41458969     0.53033537
               0.66584808     0.82450364     1.01025438     1.22772762
               1.48234092     1.78043706     2.12944203     2.53805004
               3.01644009     3.57652955     4.23227104     5.00000000

     Gradients computed in reciprocal space

     Adding external electric field

     Computed dipole along edir(3) :
        Dipole               -0.3176 Ry au,         -0.8073 Debye
        Dipole field         -0.0008 Ry au

        Potential amp.        0.0771 Ry
        Total length         45.4439 bohr

     Starting wfc are  161 randomized atomic wfcs

     Self-consistent Calculation

     iteration #  1     ecut=    36.75 Ry     beta=0.30
     Davidson diagonalization with overlap
     ethr =  1.00E-02,  avg # of iterations =  2.0

[...]

     total energy              =   -1943.59006421 Ry
     Harris-Foulkes estimate   =   -1946.81114025 Ry
     estimated scf accuracy    <       6.91230307 Ry

[...]

     End of self-consistent calculation

          k = 0.0000 0.0000 0.0000 ( 17753 PWs)   bands (ev):

   -71.4992 -71.4393 -71.4392 -71.3658 -71.3553 -71.3044 -71.2891 -71.2747
   -71.2744 -71.2514 -71.2510 -71.2412 -36.0498 -35.9766 -35.9766 -35.9449
   -35.9106 -35.9106 -35.9092 -35.7750 -35.7640 -35.7638 -35.5846 -35.5125
   -35.5125 -35.4742 -35.3949 -35.3946 -35.3904 -35.3358 -35.3357 -35.3263
   -35.2154 -35.2153 -35.2125 -35.1952 -35.1913 -35.1912 -35.1293 -35.1014
   -35.1014 -35.0694 -35.0692 -35.0659 -35.0073 -35.0073 -34.8919 -34.8919
   -12.5261  -5.5035  -4.6273  -3.2546  -2.6299  -2.2552  -2.2552  -2.1607
    -2.1607  -2.1554  -1.8035  -1.3810  -1.3809  -1.1954  -1.1954  -1.1551
    -0.6670  -0.3216  -0.3215   0.6601   0.6602   0.8605   1.4381   1.5343
     1.5353   1.5353   1.8390   2.2418   2.2418   2.3342   2.3784   2.3785
     2.5965   2.5965   2.6722   2.6837   2.7531   2.7531   2.8728   2.8729
     3.4489   3.7520   3.7521   4.3127   4.4765   4.5122   4.5122   4.9351
     4.9351

[...]

          k =-0.0875 0.0505 0.0000 ( 17668 PWs)   bands (ev):

[...]

     the Fermi energy is     2.8577 ev

!    total energy              =   -1946.37368190 Ry
     Harris-Foulkes estimate   =   -1946.37368049 Ry
     estimated scf accuracy    <       0.00000493 Ry

     The total energy is the sum of the following terms:

     one-electron contribution =  -15076.35947646 Ry
     hartree contribution      =    7525.78474247 Ry
     xc contribution           =    -516.58025001 Ry
     ewald contribution        =    6120.87756282 Ry
     electric field correction =       0.00022555 Ry
     smearing contrib. (-TS)   =      -0.09648627 Ry

     convergence has been achieved in  17 iterations

 BEEF-vdW xc energy contributions
           1 :   -454.370434663568
           2 :    420.247963050999
           3 :   -360.183464464375
           4 :    287.364828310695
           5 :   -215.495608535318
           6 :    154.836434207756
           7 :   -110.021292411049
           8 :    80.1533522602509
           9 :   -60.7786586689250
          10 :    46.6324229698787
          11 :   -33.9166083851984
          12 :    21.2896293459042
          13 :   -9.48211005082010
          14 :   6.884718204287310E-002
          15 :    5.82285908858159
          16 :   -8.23788323637314
          17 :    8.32649028536258
          18 :   -7.69312125804424
          19 :    7.59917401337304
          20 :   -8.44882987001699
          21 :    9.78260005642539
          22 :   -10.7179825311908
          23 :    10.5512250971314
          24 :   -9.18534151576648
          25 :    7.17599856185802
          26 :   -5.40772038441651
          27 :    4.60331218575482
          28 :   -4.94492405515797
          29 :    6.00499489706482
          30 :   -7.00539796416371
          31 :   -41.2750143018056
          32 :   -30.8991990864079

     Forces acting on atoms (Ry/au):

     negative rho (up, down):  7.930E-01 0.000E+00
     atom    1 type  1   force =    -0.00002672    0.00000480   -0.00260624
     atom    2 type  1   force =     0.00002642   -0.00008546   -0.00693355
     atom    3 type  1   force =    -0.00008433    0.00005415   -0.00691309
     atom    4 type  1   force =     0.00008053    0.00002246   -0.00696663
     atom    5 type  1   force =     0.00496750   -0.00290327    0.00097874
     atom    6 type  1   force =    -0.00496513   -0.00284050    0.00090894
     atom    7 type  1   force =     0.00005020    0.00000557   -0.00848137
     atom    8 type  1   force =    -0.00005381    0.00573712    0.00094600
     atom    9 type  1   force =    -0.00475099   -0.00272817    0.07323305
     atom   10 type  1   force =     0.00475326   -0.00274122    0.07326476
     atom   11 type  1   force =    -0.00001136    0.00548209    0.07323326
     atom   12 type  1   force =     0.00001222   -0.00001029   -0.05236991
     atom   13 type  2   force =     0.00000161    0.00000361   -0.08869786
     atom   14 type  3   force =     0.00000059   -0.00000089   -0.04959612

     Total force =     0.171037     Total SCF correction =     0.005402

     entering subroutine stress ...

     negative rho (up, down):  7.930E-01 0.000E+00
          total   stress  (Ry/bohr**3)                   (kbar)     P=  -51.18
  -0.00044982  -0.00000001   0.00000000        -66.17     -0.00      0.00
  -0.00000001  -0.00044982  -0.00000000         -0.00    -66.17     -0.00
   0.00000000  -0.00000000  -0.00014403          0.00     -0.00    -21.19

     BFGS Geometry Optimization

     number of scf cycles    =   1
     number of bfgs steps    =   0

     energy   new            =   -1946.3736818986 Ry

     new trust radius        =       0.0886978614 bohr
     new conv_thr            =       0.0000099958 Ry

ATOMIC_POSITIONS (crystal)
W1       0.166666667   0.166666667   0.405441099    0   0   0
W1       0.666666667   0.166666667   0.405441099    0   0   0
W1       0.166666667   0.666666667   0.405441099    0   0   0
W1       0.666666667   0.666666667   0.405441099    0   0   0
W1       0.833333333   0.333333333   0.500000000    0   0   0
W1       0.333333333   0.333333333   0.500000000    0   0   0
W1       0.833333333   0.833333333   0.500000000    0   0   0
W1       0.333333333   0.833333333   0.500000000    0   0   0
W1      -0.000294181  -0.000291804   0.596130118
W1       0.500586894  -0.000293200   0.596130798
W1      -0.000294234   0.500586363   0.596130122
W1       0.500001682   0.499998899   0.593435304
N1       0.166666623   0.166667053   0.654059941
H1       0.166666769   0.166666571   0.697470185

     Writing output data file calc.save
     Check: negative starting charge=   -0.760347
     NEW-OLD atomic charge density approx. for the potential
     Check: negative starting charge=   -0.760971

[...]

     energy   old            =   -1946.3736818986 Ry
     energy   new            =   -1946.3984426579 Ry

     CASE: energy  _new < energy  _old

[...]

     iteration #  1     ecut=    36.75 Ry     beta=0.30
     Davidson diagonalization with overlap
     c_bands:  2 eigenvalues not converged
     c_bands:  1 eigenvalues not converged
     ethr =  1.00E-06,  avg # of iterations = 14.9

[...]

     Threshold (ethr) on eigenvalues was too large:
     Diagonalizing with lowered threshold

     Davidson diagonalization with overlap
     ethr =  4.74E-08,  avg # of iterations =  2.4

[...]

     Total force =     0.006959     Total SCF correction =     0.000352

[...]

     Total force =     0.004682     Total SCF correction =     0.001060
     SCF correction compared to forces is large: reduce conv_thr to get better values

[...]

     number of scf cycles    =  13
     number of bfgs steps    =  12

     energy   old            =   -1946.4383243783 Ry
     energy   new            =   -1946.4383937135 Ry

     CASE: energy  _new < energy  _old

     new trust radius        =       0.0123319962 bohr
     new conv_thr            =       0.0000001000 Ry

ATOMIC_POSITIONS (crystal)
W1       0.166666667   0.166666667   0.405441099    0   0   0
W1       0.666666667   0.166666667   0.405441099    0   0   0
W1       0.166666667   0.666666667   0.405441099    0   0   0
W1       0.666666667   0.666666667   0.405441099    0   0   0
W1       0.833333333   0.333333333   0.500000000    0   0   0
W1       0.333333333   0.333333333   0.500000000    0   0   0
W1       0.833333333   0.833333333   0.500000000    0   0   0
W1       0.333333333   0.833333333   0.500000000    0   0   0
W1      -0.004284053  -0.004284439   0.597826908
W1       0.508569396  -0.004284344   0.597826915
W1      -0.004283951   0.508568993   0.597826893
W1       0.500000608   0.500000046   0.583504250
N1       0.166666849   0.166666858   0.648041256
H1       0.166666561   0.166666917   0.689463144

     Writing output data file calc.save
     Check: negative starting charge=   -0.759575
     NEW-OLD atomic charge density approx. for the potential
     Check: negative starting charge=   -0.759251

[...]

     Self-consistent Calculation

[...]

     Threshold (ethr) on eigenvalues was too large:
     Diagonalizing with lowered threshold

     Davidson diagonalization with overlap
     ethr =  3.95E-08,  avg # of iterations =  3.0

[...]

     total energy              =   -1946.43842447 Ry
     Harris-Foulkes estimate   =   -1946.43842478 Ry
     estimated scf accuracy    <       0.00000020 Ry

     iteration #  9     ecut=    36.75 Ry     beta=0.30
     Davidson diagonalization with overlap
     ethr =  1.15E-10,  avg # of iterations =  3.2

[...]

     negative rho (up, down):  7.929E-01 0.000E+00

     Adding external electric field

     Computed dipole along edir(3) :
        Dipole                0.3407 Ry au,          0.8659 Debye
        Dipole field          0.0009 Ry au

        Potential amp.       -0.0827 Ry
        Total length         45.4439 bohr

     End of self-consistent calculation

[...]

          k = 0.0583-0.0674 0.0000 ( 17692 PWs)   bands (ev):

[...]

          k =-0.0875-0.0505 0.0000 ( 17668 PWs)   bands (ev):

   -71.4425 -71.4190 -71.4026 -71.3498 -71.2230 -71.2060 -71.1886 -71.1788
   -71.1764 -71.1588 -71.1581 -71.0976 -35.8829 -35.7899 -35.7771 -35.7385
   -35.7136 -35.6941 -35.6352 -35.6027 -35.5585 -35.5449 -35.5411 -35.5094
   -35.5001 -35.4691 -35.4580 -35.3677 -35.3406 -35.3281 -35.2856 -35.2680
   -35.2422 -35.2324 -35.2089 -35.2082 -35.1946 -35.1658 -35.1539 -35.1217
   -35.1144 -35.0771 -35.0437 -34.9583 -34.9315 -34.9043 -34.8697 -34.8502
   -13.4301  -5.1964  -3.5149  -3.2466  -2.4390  -1.9977  -1.6983  -1.4165
    -1.1012  -1.0787  -0.9647  -0.9364  -0.9123  -0.3210  -0.2268  -0.0181
     0.0927   0.1837   0.2451   0.4131   0.6234   0.7862   0.8107   0.8224
     1.0610   1.0801   1.2807   1.5094   1.6127   1.7242   1.8334   1.8523
     1.8964   1.9738   2.0343   2.4345   2.4779   2.4935   2.6206   2.9548
     2.9922   3.1318   3.5690   3.7178   3.7937   3.8959   3.9944   4.1815
     4.2935

     the Fermi energy is     2.9481 ev

!    total energy              =   -1946.43842445 Ry
     Harris-Foulkes estimate   =   -1946.43842425 Ry
     estimated scf accuracy    <       0.00000007 Ry

     The total energy is the sum of the following terms:

     one-electron contribution =  -15148.79876242 Ry
     hartree contribution      =    7562.28205681 Ry
     xc contribution           =    -516.82776891 Ry
     ewald contribution        =    6156.99554268 Ry
     electric field correction =       0.00031000 Ry
     smearing contrib. (-TS)   =      -0.08980262 Ry

     convergence has been achieved in   9 iterations

 BEEF-vdW xc energy contributions
           1 :   -454.617019129964
           2 :    420.544454266223
           3 :   -360.532777557983
           4 :    287.717714988775
           5 :   -215.776755437561
           6 :    154.978031092394
           7 :   -109.990891490038
           8 :    79.9668442184270
           9 :   -60.4954326354606
          10 :    46.3344032867350
          11 :   -33.6778521201362
          12 :    21.1485064331484
          13 :   -9.42810321788619
          14 :   5.067606067939323E-002
          15 :    5.86978745570252
          16 :   -8.35700602322544
          17 :    8.51602558381347
          18 :   -7.90564304751393
          19 :    7.76658726326065
          20 :   -8.52080267595755
          21 :    9.75712609801161
          22 :   -10.6461969867333
          23 :    10.5127618813657
          24 :   -9.24700878988034
          25 :    7.35605316821466
          26 :   -5.66452784713641
          27 :    4.85471658876764
          28 :   -5.10864624906577
          29 :    6.03907906132514
          30 :   -6.92839885510483
          31 :   -41.2893347721378
          32 :   -30.9229341194882

     Forces acting on atoms (Ry/au):

     negative rho (up, down):  7.929E-01 0.000E+00
     atom    1 type  1   force =    -0.00000002   -0.00000001    0.00844938
     atom    2 type  1   force =    -0.00000004    0.00178018   -0.00734676
     atom    3 type  1   force =     0.00154165   -0.00089012   -0.00734679
     atom    4 type  1   force =    -0.00154173   -0.00089011   -0.00734680
     atom    5 type  1   force =     0.02580864   -0.01490071   -0.00511446
     atom    6 type  1   force =    -0.02580859   -0.01490057   -0.00511414
     atom    7 type  1   force =    -0.00000014    0.00000006    0.02804284
     atom    8 type  1   force =    -0.00000008    0.02980128   -0.00511424
     atom    9 type  1   force =    -0.00041880   -0.00024184    0.00014359
     atom   10 type  1   force =     0.00041886   -0.00024201    0.00014383
     atom   11 type  1   force =    -0.00000012    0.00048390    0.00014378
     atom   12 type  1   force =     0.00000014    0.00000013    0.00010565
     atom   13 type  2   force =     0.00000010   -0.00000018    0.00016541
     atom   14 type  3   force =     0.00000014   -0.00000000    0.00018872

     Total force =     0.000916     Total SCF correction =     0.000394
     SCF correction compared to forces is large: reduce conv_thr to get better values

     entering subroutine stress ...

     negative rho (up, down):  7.929E-01 0.000E+00
          total   stress  (Ry/bohr**3)                   (kbar)     P=  -40.02
  -0.00037368  -0.00000000   0.00000000        -54.97     -0.00      0.00
  -0.00000000  -0.00037368  -0.00000000         -0.00    -54.97     -0.00
   0.00000000  -0.00000000  -0.00006872          0.00     -0.00    -10.11

     bfgs converged in  14 scf cycles and  13 bfgs steps
     (criteria: energy <  1.0E+00, force <  1.9E-03)

     End of BFGS Geometry Optimization

     Final energy   =   -1946.4384244544 Ry
Begin final coordinates

ATOMIC_POSITIONS (crystal)
W1       0.166666667   0.166666667   0.405441099    0   0   0
W1       0.666666667   0.166666667   0.405441099    0   0   0
W1       0.166666667   0.666666667   0.405441099    0   0   0
W1       0.666666667   0.666666667   0.405441099    0   0   0
W1       0.833333333   0.333333333   0.500000000    0   0   0
W1       0.333333333   0.333333333   0.500000000    0   0   0
W1       0.833333333   0.833333333   0.500000000    0   0   0
W1       0.333333333   0.833333333   0.500000000    0   0   0
W1      -0.004284053  -0.004284439   0.597826908
W1       0.508569396  -0.004284344   0.597826915
W1      -0.004283951   0.508568993   0.597826893
W1       0.500000608   0.500000046   0.583504250
N1       0.166666849   0.166666858   0.648041256
H1       0.166666561   0.166666917   0.689463144
End final coordinates

     Writing output data file calc.save

     General routines

     Parallel routines

   This run was terminated on:  18:45:15  24Apr2018

   JOB DONE.
Job  /afs/slac/g/suncat/bin/suncat-tsmpirun -x LD_LIBRARY_PATH -wdir /scratch/qe951478_qN5xc pw.x -npool 4 -in pw.inp

TID   HOST_NAME   COMMAND_LINE            STATUS            TERMINATION_TIME
00000 suncat0055 pw.x -npool 4 -i  Done                     04/24/2018 18:45:15
00001 suncat0055 pw.x -npool 4 -i  Done                     04/24/2018 18:45:15
00002 suncat0055 pw.x -npool 4 -i  Done                     04/24/2018 18:45:15
00003 suncat0055 pw.x -npool 4 -i  Done                     04/24/2018 18:45:15
00004 suncat0055 pw.x -npool 4 -i  Done                     04/24/2018 18:45:15
00005 suncat0055 pw.x -npool 4 -i  Done                     04/24/2018 18:45:15
00006 suncat0055 pw.x -npool 4 -i  Done                     04/24/2018 18:45:15
00007 suncat0055 pw.x -npool 4 -i  Done                     04/24/2018 18:45:15
00008 suncat0052 pw.x -npool 4 -i  Done                     04/24/2018 18:45:15
00009 suncat0052 pw.x -npool 4 -i  Done                     04/24/2018 18:45:15
00010 suncat0052 pw.x -npool 4 -i  Done                     04/24/2018 18:45:15
00011 suncat0052 pw.x -npool 4 -i  Done                     04/24/2018 18:45:15
00012 suncat0052 pw.x -npool 4 -i  Done                     04/24/2018 18:45:15
00013 suncat0052 pw.x -npool 4 -i  Done                     04/24/2018 18:45:15
00014 suncat0052 pw.x -npool 4 -i  Done                     04/24/2018 18:45:15
00015 suncat0052 pw.x -npool 4 -i  Done                     04/24/2018 18:45:15
00016 suncat0272 pw.x -npool 4 -i  Done                     04/24/2018 18:45:15
00017 suncat0272 pw.x -npool 4 -i  Done                     04/24/2018 18:45:15
00018 suncat0272 pw.x -npool 4 -i  Done                     04/24/2018 18:45:15
00019 suncat0272 pw.x -npool 4 -i  Done                     04/24/2018 18:45:15
00020 suncat0272 pw.x -npool 4 -i  Done                     04/24/2018 18:45:15
00021 suncat0272 pw.x -npool 4 -i  Done                     04/24/2018 18:45:15
00022 suncat0272 pw.x -npool 4 -i  Done                     04/24/2018 18:45:15
00023 suncat0272 pw.x -npool 4 -i  Done                     04/24/2018 18:45:15
00024 suncat0248 pw.x -npool 4 -i  Done                     04/24/2018 18:45:15
00025 suncat0248 pw.x -npool 4 -i  Done                     04/24/2018 18:45:15
00026 suncat0248 pw.x -npool 4 -i  Done                     04/24/2018 18:45:15
00027 suncat0248 pw.x -npool 4 -i  Done                     04/24/2018 18:45:15
00028 suncat0248 pw.x -npool 4 -i  Done                     04/24/2018 18:45:15
00029 suncat0248 pw.x -npool 4 -i  Done                     04/24/2018 18:45:15
00030 suncat0248 pw.x -npool 4 -i  Done                     04/24/2018 18:45:15
00031 suncat0248 pw.x -npool 4 -i  Done                     04/24/2018 18:45:15