     Program PWSCF v.5.1rc2 starts on 27Apr2018 at 11:25: 1

     Current dimensions of program PWSCF are:
     Max number of different atomic species (ntypx) = 10
     Max number of k-points (npk) =  40000
     Max angular momentum in pseudopotentials (lmaxx) =  3
     Presently stress not available with electric field

     IMPORTANT: XC functional enforced from input :
     Exchange-correlation      = BEEF-VDW ( 1  4 27 13 2)
     Any further DFT definition will be discarded
     Please, verify this is what you really want

     bravais-lattice index     =            0
     lattice parameter (alat)  =       1.8897  a.u.
     unit-cell volume          =    6082.7792 (a.u.)^3
     number of atoms/cell      =           16
     number of atomic types    =            3
     number of electrons       =       151.00
     number of Kohn-Sham states=           85
     kinetic-energy cutoff     =      36.7493  Ry
     charge density cutoff     =     367.4932  Ry
     convergence threshold     =      1.0E-05
     mixing beta               =       0.3000
     number of iterations used =           10  plain     mixing
     Exchange-correlation      = BEEF-VDW ( 1  4 27 13 2)
     nstep                     =           50

     celldm(1)=   1.889726  celldm(2)=   0.000000  celldm(3)=   0.000000
     celldm(4)=   0.000000  celldm(5)=   0.000000  celldm(6)=   0.000000

     crystal axes: (cart. coord. in units of alat)
               a(1) = (   6.421223   0.000000   0.000000 )
               a(2) = (   3.210611   5.560942   0.000000 )
               a(3) = (   0.000000   0.000000  25.242906 )

     reciprocal axes: (cart. coord. in units 2 pi/alat)
               b(1) = (  0.155734 -0.089913  0.000000 )
               b(2) = (  0.000000  0.179826  0.000000 )
               b(3) = (  0.000000  0.000000  0.039615 )

     PseudoPot. # 1 for Zr read from file:
     /home/users/mamunm/src/pseudo/gbrv1.5pbe/Zr.UPF
     MD5 check sum: 5db81b1e868ab7776c4564c113de050b
     Pseudo is Ultrasoft + core correction, Zval = 12.0
     Generated by new atomic code, or converted to UPF format
     Using radial grid of  887 points,  6 beta functions with:
                l(1) =   0
                l(2) =   0
                l(3) =   1
                l(4) =   1
                l(5) =   2
                l(6) =   2
     Q(r) pseudized with  6 coefficients,  rinner =    1.200   1.200   1.200
                                                       1.200   1.200

     PseudoPot. # 2 for C  read from file:
     /home/users/mamunm/src/pseudo/gbrv1.5pbe/C.UPF
     MD5 check sum: d1aef80898a10debaa0f26306b886e00
     Pseudo is Ultrasoft + core correction, Zval =  4.0
     Generated by new atomic code, or converted to UPF format
     Using radial grid of  721 points,  4 beta functions with:
                l(1) =   0
                l(2) =   0
                l(3) =   1
                l(4) =   1
     Q(r) pseudized with  8 coefficients,  rinner =    1.100   1.100   1.100

     PseudoPot. # 3 for H  read from file:
     /home/users/mamunm/src/pseudo/gbrv1.5pbe/H.UPF
     MD5 check sum: 761ae9a214b05c3daf00ab9f6b793d6f
     Pseudo is Ultrasoft, Zval =  1.0
     Generated by new atomic code, or converted to UPF format
     Using radial grid of  615 points,  2 beta functions with:
                l(1) =   0
                l(2) =   0
     Q(r) pseudized with  8 coefficients,  rinner =    0.700

     vdW kernel table read from file vdW_kernel_table
     MD5 check sum: 095c7af220d748ca6e76c0b4c6cfb241

     atomic species   valence    mass     pseudopotential
        Zr1           12.00    91.22400     Zr( 1.00)
        C1             4.00    12.01100     C ( 1.00)
        H1             1.00     1.00800     H ( 1.00)

     No symmetry found

   Cartesian axes

     site n.     atom                  positions (alat units)
         1           Zr1 tau(   1) = (   1.6053057   0.9268237  10.0000000  )
         2           Zr1 tau(   2) = (   4.8159170   0.9268237  10.0000000  )
         3           Zr1 tau(   3) = (   3.2106113   3.7072946  10.0000000  )
         4           Zr1 tau(   4) = (   6.4212227   3.7072946  10.0000000  )
         5           Zr1 tau(   5) = (   6.4212227   1.8536473  12.6214532  )
         6           Zr1 tau(   6) = (   3.2106113   1.8536473  12.6214532  )
         7           Zr1 tau(   7) = (   8.0265283   4.6341183  12.6214532  )
         8           Zr1 tau(   8) = (   4.8159170   4.6341183  12.6214532  )
         9           Zr1 tau(   9) = (   0.0000000   0.0000000  15.2429064  )
        10           Zr1 tau(  10) = (   3.2106113   0.0000000  15.2429064  )
        11           Zr1 tau(  11) = (   1.6053057   2.7804710  15.2429064  )
        12           Zr1 tau(  12) = (   4.8159170   2.7804710  15.2429064  )
        13           C1  tau(  13) = (   1.6053057   0.9268237  16.8744064  )
        14           H1  tau(  14) = (   2.6953057   0.9268237  17.5044064  )
        15           H1  tau(  15) = (   1.1553057   1.8163237  17.5044064  )
        16           H1  tau(  16) = (   1.1553057   0.0373237  17.5044064  )

     number of k points=    20  Fermi-Dirac smearing, width (Ry)=  0.0110
                       cart. coord. in units 2pi/alat
        k(    1) = (   0.0000000   0.0000000   0.0000000), wk =   0.0555556
        k(    2) = (   0.0000000   0.0299709   0.0000000), wk =   0.1111111
        k(    3) = (   0.0000000   0.0599419   0.0000000), wk =   0.1111111
        k(    4) = (   0.0000000  -0.0899128   0.0000000), wk =   0.0555556
        k(    5) = (   0.0259556  -0.0149855   0.0000000), wk =   0.1111111
        k(    6) = (   0.0259556   0.0149855   0.0000000), wk =   0.1111111
        k(    7) = (   0.0259556   0.0449564   0.0000000), wk =   0.1111111
        k(    8) = (   0.0259556  -0.1048983   0.0000000), wk =   0.1111111
        k(    9) = (   0.0259556  -0.0749274   0.0000000), wk =   0.1111111
        k(   10) = (   0.0259556  -0.0449564   0.0000000), wk =   0.1111111
        k(   11) = (   0.0519112  -0.0299709   0.0000000), wk =   0.1111111
        k(   12) = (   0.0519112   0.0000000   0.0000000), wk =   0.1111111
        k(   13) = (   0.0519112   0.0299709   0.0000000), wk =   0.1111111
        k(   14) = (   0.0519112  -0.1198838   0.0000000), wk =   0.1111111
        k(   15) = (   0.0519112  -0.0899128   0.0000000), wk =   0.1111111
        k(   16) = (   0.0519112  -0.0599419   0.0000000), wk =   0.1111111
        k(   17) = (  -0.0778668   0.0449564   0.0000000), wk =   0.0555556
        k(   18) = (  -0.0778668   0.0749274   0.0000000), wk =   0.1111111
        k(   19) = (  -0.0778668   0.1048983   0.0000000), wk =   0.1111111
        k(   20) = (  -0.0778668  -0.0449564   0.0000000), wk =   0.0555556

     Largest allocated arrays     est. size (Mb)     dimensions
     Largest temporary arrays     est. size (Mb)     dimensions

     Initial potential from superposition of free atoms
     Check: negative starting charge=   -0.728996

     starting charge  150.97414, renormalised to  151.00000

     negative rho (up, down):  7.291E-01 0.000E+00

     *
     * You are using vdW-DF for exchange-correlation in this calculation.
     * Please cite the following three references that made this development
     * possible:
     *
     *   M. Dion, H. Rydberg, E. Schroder, D. C. Langreth, and
     *   B. I. Lundqvist, Phys. Rev. Lett. 92, 246401 (2004).
     *
     *   T. Thonhauser, V. R. Cooper, S. Li, A. Puzder, P. Hyldgaard, and
     *   D. C. Langreth, Phys. Rev. B 76, 125112 (2007).
     *
     *   G. Roman-Perez and J. M. Soler, Phys. Rev. Lett. 103, 096102 (2009).
     *
     *
     * If you are using vdW-DF2, please also cite:
     *
     *   K. Lee, E. D. Murray, L. Kong, B. I. Lundqvist, and
     *   D. C. Langreth, Phys. Rev. B 82, 081101(R) (2010).
     *
     *
     * If you are calculating the stress with vdW-DF, please also cite:
     *
     *   R. Sabatini, E. Kucukbenli, B. Kolb, T. Thonhauser, and
     *   S. de Gironcoli, J. Phys.: Condens. Matter 24, 424209 (2012).
     *

     Carrying out vdW-DF run using the following parameters:

     Nqs =      20    Nr_points =    1024   r_max =   100.000
     q_mesh =
               0.00001000     0.04494208     0.09755937     0.15916263
               0.23128650     0.31572767     0.41458969     0.53033537
               0.66584808     0.82450364     1.01025438     1.22772762
               1.48234092     1.78043706     2.12944203     2.53805004
               3.01644009     3.57652955     4.23227104     5.00000000

     Gradients computed in reciprocal space

     Adding external electric field

     Computed dipole along edir(3) :
        Dipole               -0.0097 Ry au,         -0.0246 Debye
        Dipole field         -0.0000 Ry au

        Potential amp.        0.0019 Ry
        Total length         46.5096 bohr

     Starting wfc are  163 randomized atomic wfcs

     Self-consistent Calculation

     iteration #  1     ecut=    36.75 Ry     beta=0.30
     Davidson diagonalization with overlap
     ethr =  1.00E-02,  avg # of iterations =  2.0

[...]

     total energy              =   -1209.13283811 Ry
     Harris-Foulkes estimate   =   -1212.83972136 Ry
     estimated scf accuracy    <       7.84994772 Ry

[...]

     End of self-consistent calculation

          k = 0.0000 0.0000 0.0000 ( 22923 PWs)   bands (ev):

   -47.4423 -47.4357 -47.3604 -47.3509 -47.3504 -47.3495 -47.3345 -47.3277
   -47.1212 -47.0488 -47.0487 -46.9978 -25.7356 -25.7333 -25.7309 -25.6897
   -25.6875 -25.6852 -25.6484 -25.5696 -25.5560 -25.5539 -25.4691 -25.3697
   -25.3634 -25.3589 -25.2204 -25.2155 -25.2133 -25.1780 -25.1777 -25.1772
   -25.1619 -25.1596 -25.1493 -25.0095 -25.0094 -24.9925 -24.9917 -24.9636
   -24.9632 -24.9506 -24.8969 -24.8622 -24.8499 -24.8499 -24.7010 -24.7008
   -11.8024  -4.9069  -4.4909  -3.3876  -2.8134  -1.7753  -1.1100  -0.7139
    -0.6899  -0.6867  -0.5837  -0.5803  -0.4510  -0.1354  -0.1314  -0.0534
     0.0465   0.0487   0.3918   0.8938   0.9069   1.5012   1.7475   1.9076
     1.9423   1.9641   2.1664   2.4273   2.4583   2.4725   2.5052   2.6761
     2.7300   2.7306   2.9497   2.9574   3.0043

[...]

          k =-0.0779 0.0450 0.0000 ( 22880 PWs)   bands (ev):

[...]

     the Fermi energy is     1.8392 ev

!    total energy              =   -1212.12615568 Ry
     Harris-Foulkes estimate   =   -1212.12615715 Ry
     estimated scf accuracy    <       0.00000090 Ry

     The total energy is the sum of the following terms:

     one-electron contribution =   -8486.33293148 Ry
     hartree contribution      =    4237.69057058 Ry
     xc contribution           =    -226.44003284 Ry
     ewald contribution        =    3263.07643704 Ry
     electric field correction =       0.00012819 Ry
     smearing contrib. (-TS)   =      -0.12032717 Ry

     convergence has been achieved in  17 iterations

 BEEF-vdW xc energy contributions
           1 :   -193.815397023957
           2 :    175.301058204145
           3 :   -144.143352718547
           4 :    109.151552937104
           5 :   -78.2352050740284
           6 :    55.6641676394928
           7 :   -41.4184701505991
           8 :    32.5297383238376
           9 :   -25.3982382184340
          10 :    17.7666004056400
          11 :   -9.45952471038430
          12 :    1.80890192488840
          13 :    3.61340227974637
          14 :   -6.10293323324720
          15 :    6.19044516535837
          16 :   -5.21219672155127
          17 :    4.47321394750549
          18 :   -4.55727821477979
          19 :    5.17059875718533
          20 :   -5.53713924014357
          21 :    5.02866294321097
          22 :   -3.60868280563039
          23 :    1.83332270004695
          24 :  -0.460634509474119
          25 :  -3.600917280448357E-002
          26 :  -0.273246540378636
          27 :   0.884402719283969
          28 :   -1.22710805759561
          29 :    1.02816795421046
          30 :  -0.442364293328467
          31 :   -22.5858881600205
          32 :   -16.8236399366162

     Forces acting on atoms (Ry/au):

     negative rho (up, down):  7.494E-01 0.000E+00
     atom    1 type  1   force =     0.00000227    0.00001499    0.01532725
     atom    2 type  1   force =     0.00010179    0.00112565    0.01532598
     atom    3 type  1   force =     0.00091768   -0.00057056    0.01534123
     atom    4 type  1   force =    -0.00100266   -0.00050261    0.01530855
     atom    5 type  1   force =     0.00102237    0.00045306   -0.00239702
     atom    6 type  1   force =    -0.00030126   -0.00115338   -0.00265417
     atom    7 type  1   force =     0.00026695   -0.00004499   -0.00267471
     atom    8 type  1   force =    -0.00122459    0.00058285   -0.00262979
     atom    9 type  1   force =    -0.01139848   -0.00807108   -0.01230055
     atom   10 type  1   force =     0.01318254   -0.00514301   -0.00890123
     atom   11 type  1   force =    -0.00282528    0.01257877   -0.01123578
     atom   12 type  1   force =     0.00136947   -0.00019570   -0.02898977
     atom   13 type  2   force =     0.04192463    0.00112965    0.16347208
     atom   14 type  3   force =    -0.07024248   -0.00594492   -0.06536133
     atom   15 type  3   force =     0.01906012   -0.03676662   -0.04329398
     atom   16 type  3   force =     0.00914692    0.04250789   -0.04433675

     Total force =     0.216633     Total SCF correction =     0.000394

     entering subroutine stress ...

     negative rho (up, down):  7.494E-01 0.000E+00
          total   stress  (Ry/bohr**3)                   (kbar)     P=  -13.83
  -0.00008592   0.00000002  -0.00000813        -12.64      0.00     -1.20
   0.00000002  -0.00008071   0.00000042          0.00    -11.87      0.06
  -0.00000813   0.00000042  -0.00011549         -1.20      0.06    -16.99

     BFGS Geometry Optimization

     number of scf cycles    =   1
     number of bfgs steps    =   0

     energy   new            =   -1212.1261556829 Ry

     new trust radius        =       0.1687663199 bohr
     new conv_thr            =       0.0000099958 Ry

ATOMIC_POSITIONS (crystal)
Zr1      0.166666667   0.166666667   0.396150897    0   0   0
Zr1      0.666666667   0.166666667   0.396150897    0   0   0
Zr1      0.166666667   0.666666667   0.396150897    0   0   0
Zr1      0.666666667   0.666666667   0.396150897    0   0   0
Zr1      0.833333333   0.333333333   0.500000000    0   0   0
Zr1      0.333333333   0.333333333   0.500000000    0   0   0
Zr1      0.833333333   0.833333333   0.500000000    0   0   0
Zr1      0.333333333   0.833333333   0.500000000    0   0   0
Zr1     -0.000555336  -0.000768041   0.603591241
Zr1      0.501331086  -0.000489407   0.603662503
Zr1     -0.000831329   0.501196991   0.603613563
Zr1      0.500122170   0.499981377   0.603241379
C1       0.170067955   0.166774164   0.671908053
H1       0.330910399   0.166100950   0.692068432
H1       0.019929204   0.323122884   0.692531039
H1       0.175295299   0.010756786   0.692509179

     Writing output data file calc.save
     Check: negative starting charge=   -0.728996
     NEW-OLD atomic charge density approx. for the potential
     Check: negative starting charge=   -0.729393

[...]

     energy   old            =   -1212.1261556829 Ry
     energy   new            =   -1212.1580364217 Ry

     CASE: energy  _new < energy  _old

[...]

     iteration #  1     ecut=    36.75 Ry     beta=0.30
     Davidson diagonalization with overlap
     c_bands:  1 eigenvalues not converged
     ethr =  1.00E-06,  avg # of iterations = 11.6

[...]

     Threshold (ethr) on eigenvalues was too large:
     Diagonalizing with lowered threshold

     Davidson diagonalization with overlap
     ethr =  8.63E-08,  avg # of iterations =  2.0

[...]

     number of scf cycles    =  28
     number of bfgs steps    =  27

     energy   old            =   -1212.1737719014 Ry
     energy   new            =   -1212.1738777227 Ry

     CASE: energy  _new < energy  _old

     new trust radius        =       0.0097373950 bohr
     new conv_thr            =       0.0000001000 Ry

ATOMIC_POSITIONS (crystal)
Zr1      0.166666667   0.166666667   0.396150897    0   0   0
Zr1      0.666666667   0.166666667   0.396150897    0   0   0
Zr1      0.166666667   0.666666667   0.396150897    0   0   0
Zr1      0.666666667   0.666666667   0.396150897    0   0   0
Zr1      0.833333333   0.333333333   0.500000000    0   0   0
Zr1      0.333333333   0.333333333   0.500000000    0   0   0
Zr1      0.833333333   0.833333333   0.500000000    0   0   0
Zr1      0.333333333   0.833333333   0.500000000    0   0   0
Zr1     -0.004781215   0.001471181   0.600897070
Zr1      0.501133713  -0.003120746   0.600988778
Zr1     -0.000396404   0.502432425   0.600860873
Zr1      0.500898136   0.499424077   0.596326640
C1       0.167779635   0.166573181   0.671208211
H1       0.346975240   0.081458875   0.690441911
H1       0.074173003   0.346902929   0.689962319
H1       0.081371515   0.072311526   0.689858464

     Writing output data file calc.save
     Check: negative starting charge=   -0.728190
     NEW-OLD atomic charge density approx. for the potential
     Check: negative starting charge=   -0.728166

[...]

     Self-consistent Calculation

[...]

     Threshold (ethr) on eigenvalues was too large:
     Diagonalizing with lowered threshold

     Davidson diagonalization with overlap
     ethr =  2.75E-08,  avg # of iterations =  4.2

[...]

     total energy              =   -1212.17391661 Ry
     Harris-Foulkes estimate   =   -1212.17391652 Ry
     estimated scf accuracy    <       0.00000018 Ry

     iteration #  9     ecut=    36.75 Ry     beta=0.30
     Davidson diagonalization with overlap
     ethr =  1.16E-10,  avg # of iterations =  3.7

[...]

     negative rho (up, down):  7.486E-01 0.000E+00

     Adding external electric field

     Computed dipole along edir(3) :
        Dipole                0.1853 Ry au,          0.4710 Debye
        Dipole field          0.0004 Ry au

        Potential amp.       -0.0356 Ry
        Total length         46.5096 bohr

     End of self-consistent calculation

[...]

          k = 0.0519-0.0599 0.0000 ( 22856 PWs)   bands (ev):

[...]

          k =-0.0779-0.0450 0.0000 ( 22880 PWs)   bands (ev):

   -47.4720 -47.4719 -47.4381 -47.4270 -47.4269 -47.4236 -47.3919 -47.3434
   -47.1065 -47.0979 -47.0670 -47.0423 -25.6791 -25.6741 -25.6409 -25.6332
   -25.6183 -25.6173 -25.5542 -25.5443 -25.5261 -25.5223 -25.4812 -25.4799
   -25.4403 -25.4365 -25.4124 -25.3905 -25.3864 -25.3814 -25.3615 -25.3375
   -25.1714 -25.1704 -25.1670 -25.1510 -25.1256 -25.1215 -25.0465 -25.0338
   -25.0115 -25.0030 -24.9589 -24.9463 -24.9203 -24.9159 -24.8111 -24.8003
   -12.0872  -5.2007  -5.1184  -2.3349  -1.7434  -1.6208  -0.7765  -0.5787
    -0.1381  -0.1323  -0.0300  -0.0249  -0.0134   0.1278   0.6400   0.7203
     0.7427   0.7714   0.8063   0.8552   1.1387   1.2215   1.2294   1.2663
     1.3103   1.4021   1.5260   1.5768   1.5861   1.7468   1.7979   1.8394
     1.9088   2.0594   2.0742   2.2694   2.4486

     the Fermi energy is     1.7558 ev

!    total energy              =   -1212.17391657 Ry
     Harris-Foulkes estimate   =   -1212.17391673 Ry
     estimated scf accuracy    <       0.00000010 Ry

     The total energy is the sum of the following terms:

     one-electron contribution =   -8597.81500273 Ry
     hartree contribution      =    4293.26068616 Ry
     xc contribution           =    -226.71844420 Ry
     ewald contribution        =    3319.21603922 Ry
     electric field correction =       0.00007094 Ry
     smearing contrib. (-TS)   =      -0.11726595 Ry

     convergence has been achieved in   9 iterations

 BEEF-vdW xc energy contributions
           1 :   -194.070666451746
           2 :    175.556740494104
           3 :   -144.393285574631
           4 :    109.369165100898
           5 :   -78.3807509900623
           6 :    55.7187775238712
           7 :   -41.4104068113534
           8 :    32.5241900455305
           9 :   -25.4571216825319
          10 :    17.9086814566411
          11 :   -9.64791406838023
          12 :    1.97272320839778
          13 :    3.53739872725029
          14 :   -6.13394296694773
          15 :    6.29241214206218
          16 :   -5.31320603080283
          17 :    4.50660287260510
          18 :   -4.50283493536017
          19 :    5.06861680184483
          20 :   -5.46278710090991
          21 :    5.04171536185839
          22 :   -3.71238647613077
          23 :    1.97171749975584
          24 :  -0.556704889960145
          25 :  -2.858959876499512E-002
          26 :  -0.205673415663227
          27 :   0.803038410597424
          28 :   -1.19673135891492
          29 :    1.07353687765112
          30 :  -0.534605836779122
          31 :   -22.6036874191599
          32 :   -16.8402456741417

     Forces acting on atoms (Ry/au):

     negative rho (up, down):  7.486E-01 0.000E+00
     atom    1 type  1   force =     0.00007059   -0.00002312    0.01195281
     atom    2 type  1   force =    -0.00009770    0.00162821    0.01310540
     atom    3 type  1   force =     0.00146964   -0.00079685    0.01307356
     atom    4 type  1   force =    -0.00140562   -0.00080900    0.01312813
     atom    5 type  1   force =     0.00668213   -0.00267730   -0.01460614
     atom    6 type  1   force =    -0.00536182   -0.00433901   -0.01335368
     atom    7 type  1   force =    -0.00041368    0.00016155   -0.01147649
     atom    8 type  1   force =    -0.00135875    0.00679872   -0.01338713
     atom    9 type  1   force =     0.00178616   -0.00165896   -0.00022874
     atom   10 type  1   force =     0.00097070    0.00140370   -0.00065109
     atom   11 type  1   force =    -0.00061847   -0.00031878   -0.00026050
     atom   12 type  1   force =    -0.00101839    0.00054297    0.00061304
     atom   13 type  2   force =    -0.00019979    0.00016832    0.00078106
     atom   14 type  3   force =    -0.00020763   -0.00123129   -0.00013661
     atom   15 type  3   force =    -0.00120480   -0.00039163    0.00059391
     atom   16 type  3   force =     0.00090746    0.00154246    0.00085247

     Total force =     0.004442     Total SCF correction =     0.000262

     entering subroutine stress ...

     negative rho (up, down):  7.486E-01 0.000E+00
          total   stress  (Ry/bohr**3)                   (kbar)     P=   -6.82
  -0.00004967  -0.00000064  -0.00000013         -7.31     -0.09     -0.02
  -0.00000064  -0.00004967   0.00000005         -0.09     -7.31      0.01
  -0.00000013   0.00000005  -0.00003972         -0.02      0.01     -5.84

     bfgs converged in  29 scf cycles and  28 bfgs steps
     (criteria: energy <  1.0E+00, force <  1.9E-03)

     End of BFGS Geometry Optimization

     Final energy   =   -1212.1739165661 Ry
Begin final coordinates

ATOMIC_POSITIONS (crystal)
Zr1      0.166666667   0.166666667   0.396150897    0   0   0
Zr1      0.666666667   0.166666667   0.396150897    0   0   0
Zr1      0.166666667   0.666666667   0.396150897    0   0   0
Zr1      0.666666667   0.666666667   0.396150897    0   0   0
Zr1      0.833333333   0.333333333   0.500000000    0   0   0
Zr1      0.333333333   0.333333333   0.500000000    0   0   0
Zr1      0.833333333   0.833333333   0.500000000    0   0   0
Zr1      0.333333333   0.833333333   0.500000000    0   0   0
Zr1     -0.004781215   0.001471181   0.600897070
Zr1      0.501133713  -0.003120746   0.600988778
Zr1     -0.000396404   0.502432425   0.600860873
Zr1      0.500898136   0.499424077   0.596326640
C1       0.167779635   0.166573181   0.671208211
H1       0.346975240   0.081458875   0.690441911
H1       0.074173003   0.346902929   0.689962319
H1       0.081371515   0.072311526   0.689858464
End final coordinates

     Writing output data file calc.save

     General routines

     Parallel routines

   This run was terminated on:  12:50:52  27Apr2018

   JOB DONE.