     Program PWSCF v.5.1rc2 (svn rev. 11289) starts on  2May2018 at 14:10:27

     Current dimensions of program PWSCF are:
     Max number of different atomic species (ntypx) = 10
     Max number of k-points (npk) =  40000
     Max angular momentum in pseudopotentials (lmaxx) =  3
     Presently stress not available with electric field

     IMPORTANT: XC functional enforced from input :
     Exchange-correlation      = BEEF-VDW ( 1  4 27 13 2)
     Any further DFT definition will be discarded
     Please, verify this is what you really want

     Subspace diagonalization in iterative solution of the eigenvalue problem:
     a serial algorithm will be used

     bravais-lattice index     =            0
     lattice parameter (alat)  =       1.8897  a.u.
     unit-cell volume          =    3724.3394 (a.u.)^3
     number of atoms/cell      =           13
     number of atomic types    =            2
     number of electrons       =       174.00
     number of Kohn-Sham states=           97
     kinetic-energy cutoff     =      36.7493  Ry
     charge density cutoff     =     367.4932  Ry
     convergence threshold     =      1.0E-05
     mixing beta               =       0.3000
     number of iterations used =           10  plain     mixing
     Exchange-correlation      = BEEF-VDW ( 1  4 27 13 2)
     nstep                     =           50

     celldm(1)=   1.889726  celldm(2)=   0.000000  celldm(3)=   0.000000
     celldm(4)=   0.000000  celldm(5)=   0.000000  celldm(6)=   0.000000

     crystal axes: (cart. coord. in units of alat)
               a(1) = (   5.132588   0.000000   0.000000 )
               a(2) = (   2.566294   4.444952   0.000000 )
               a(3) = (   0.000000   0.000000  24.190741 )

     reciprocal axes: (cart. coord. in units 2 pi/alat)
               b(1) = (  0.194833 -0.112487  0.000000 )
               b(2) = (  0.000000  0.224974  0.000000 )
               b(3) = (  0.000000  0.000000  0.041338 )

     PseudoPot. # 1 for Cr read from file:
     /u/if/mamunm/psp/gbrv1.5pbe/Cr.UPF
     MD5 check sum: 0d52af634a40206e4dee301ad30da4bf
     Pseudo is Ultrasoft + core correction, Zval = 14.0
     Generated by new atomic code, or converted to UPF format
     Using radial grid of  857 points,  6 beta functions with:
                l(1) =   0
                l(2) =   0
                l(3) =   1
                l(4) =   1
                l(5) =   2
                l(6) =   2
     Q(r) pseudized with  8 coefficients,  rinner =    0.950   0.950   0.950
                                                       0.950   0.950

     PseudoPot. # 2 for S  read from file:
     /u/if/mamunm/psp/gbrv1.5pbe/S.UPF
     MD5 check sum: 88d86576ff6df21479756cfb9bdac1df
     Pseudo is Ultrasoft + core correction, Zval =  6.0
     Generated by new atomic code, or converted to UPF format
     Using radial grid of  907 points,  6 beta functions with:
                l(1) =   0
                l(2) =   0
                l(3) =   1
                l(4) =   1
                l(5) =   2
                l(6) =   2
     Q(r) pseudized with  8 coefficients,  rinner =    1.300   1.300   1.300
                                                       1.300   1.300

     vdW kernel table read from file vdW_kernel_table
     MD5 check sum: 095c7af220d748ca6e76c0b4c6cfb241

     atomic species   valence    mass     pseudopotential
        Cr1           14.00    51.99610     Cr( 1.00)
        S1             6.00    32.06000     S ( 1.00)

     No symmetry found

   Cartesian axes

     site n.     atom                  positions (alat units)
         1           Cr1 tau(   1) = (   1.2831471   0.7408253  10.0000000  )
         2           Cr1 tau(   2) = (   3.8494412   0.7408253  10.0000000  )
         3           Cr1 tau(   3) = (   2.5662941   2.9633012  10.0000000  )
         4           Cr1 tau(   4) = (   5.1325882   2.9633012  10.0000000  )
         5           Cr1 tau(   5) = (   5.1325882   1.4816506  12.0953704  )
         6           Cr1 tau(   6) = (   2.5662941   1.4816506  12.0953704  )
         7           Cr1 tau(   7) = (   6.4157353   3.7041265  12.0953704  )
         8           Cr1 tau(   8) = (   3.8494412   3.7041265  12.0953704  )
         9           Cr1 tau(   9) = (   0.0000000   0.0000000  14.1907408  )
        10           Cr1 tau(  10) = (   2.5662941   0.0000000  14.1907408  )
        11           Cr1 tau(  11) = (   1.2831471   2.2224759  14.1907408  )
        12           Cr1 tau(  12) = (   3.8494412   2.2224759  14.1907408  )
        13           S1  tau(  13) = (   1.2831471   0.0000000  16.0207408  )

     number of k points=    20  Fermi-Dirac smearing, width (Ry)=  0.0110
                       cart. coord. in units 2pi/alat
        k(    1) = (   0.0000000   0.0000000   0.0000000), wk =   0.0555556
        k(    2) = (   0.0000000   0.0374957   0.0000000), wk =   0.1111111
        k(    3) = (   0.0000000   0.0749914   0.0000000), wk =   0.1111111
        k(    4) = (   0.0000000  -0.1124872   0.0000000), wk =   0.0555556
        k(    5) = (   0.0324722  -0.0187479   0.0000000), wk =   0.1111111
        k(    6) = (   0.0324722   0.0187479   0.0000000), wk =   0.1111111
        k(    7) = (   0.0324722   0.0562436   0.0000000), wk =   0.1111111
        k(    8) = (   0.0324722  -0.1312350   0.0000000), wk =   0.1111111
        k(    9) = (   0.0324722  -0.0937393   0.0000000), wk =   0.1111111
        k(   10) = (   0.0324722  -0.0562436   0.0000000), wk =   0.1111111
        k(   11) = (   0.0649445  -0.0374957   0.0000000), wk =   0.1111111
        k(   12) = (   0.0649445   0.0000000   0.0000000), wk =   0.1111111
        k(   13) = (   0.0649445   0.0374957   0.0000000), wk =   0.1111111
        k(   14) = (   0.0649445  -0.1499829   0.0000000), wk =   0.1111111
        k(   15) = (   0.0649445  -0.1124872   0.0000000), wk =   0.1111111
        k(   16) = (   0.0649445  -0.0749914   0.0000000), wk =   0.1111111
        k(   17) = (  -0.0974167   0.0562436   0.0000000), wk =   0.0555556
        k(   18) = (  -0.0974167   0.0937393   0.0000000), wk =   0.1111111
        k(   19) = (  -0.0974167   0.1312350   0.0000000), wk =   0.1111111
        k(   20) = (  -0.0974167  -0.0562436   0.0000000), wk =   0.0555556

     Largest allocated arrays     est. size (Mb)     dimensions
     Largest temporary arrays     est. size (Mb)     dimensions

     Check: negative/imaginary core charge=   -0.000004    0.000000

     Initial potential from superposition of free atoms
     Check: negative starting charge=   -0.014860

     starting charge  161.99978, renormalised to  174.00000

     negative rho (up, down):  1.596E-02 0.000E+00

     *
     * You are using vdW-DF for exchange-correlation in this calculation.
     * Please cite the following three references that made this development
     * possible:
     *
     *   M. Dion, H. Rydberg, E. Schroder, D. C. Langreth, and
     *   B. I. Lundqvist, Phys. Rev. Lett. 92, 246401 (2004).
     *
     *   T. Thonhauser, V. R. Cooper, S. Li, A. Puzder, P. Hyldgaard, and
     *   D. C. Langreth, Phys. Rev. B 76, 125112 (2007).
     *
     *   G. Roman-Perez and J. M. Soler, Phys. Rev. Lett. 103, 096102 (2009).
     *
     *
     * If you are using vdW-DF2, please also cite:
     *
     *   K. Lee, E. D. Murray, L. Kong, B. I. Lundqvist, and
     *   D. C. Langreth, Phys. Rev. B 82, 081101(R) (2010).
     *
     *
     * If you are calculating the stress with vdW-DF, please also cite:
     *
     *   R. Sabatini, E. Kucukbenli, B. Kolb, T. Thonhauser, and
     *   S. de Gironcoli, J. Phys.: Condens. Matter 24, 424209 (2012).
     *

     Carrying out vdW-DF run using the following parameters:

     Nqs =      20    Nr_points =    1024   r_max =   100.000
     q_mesh =
               0.00001000     0.04494208     0.09755937     0.15916263
               0.23128650     0.31572767     0.41458969     0.53033537
               0.66584808     0.82450364     1.01025438     1.22772762
               1.48234092     1.78043706     2.12944203     2.53805004
               3.01644009     3.57652955     4.23227104     5.00000000

     Gradients computed in reciprocal space

     Adding external electric field

     Computed dipole along edir(3) :
        Dipole               -3.2966 Ry au,         -8.3791 Debye
        Dipole field         -0.0111 Ry au

        Potential amp.        0.9915 Ry
        Total length         44.5710 bohr

     Starting wfc are  124 randomized atomic wfcs

     Self-consistent Calculation

     iteration #  1     ecut=    36.75 Ry     beta=0.30
     Davidson diagonalization with overlap
     ethr =  1.00E-02,  avg # of iterations =  8.2

[...]

     total energy              =   -1856.86975618 Ry
     Harris-Foulkes estimate   =   -2138.08057850 Ry
     estimated scf accuracy    <     586.74710556 Ry

     iteration #  2     ecut=    36.75 Ry     beta=0.30
     Davidson diagonalization with overlap
     c_bands:  2 eigenvalues not converged
     ethr =  1.00E-02,  avg # of iterations = 17.9

[...]

     End of self-consistent calculation

          k = 0.0000 0.0000 0.0000 ( 14081 PWs)   bands (ev):

   -70.4043 -70.3274 -70.2709 -70.2667 -70.2469 -70.2367 -70.2341 -70.2318
   -70.2201 -70.1409 -70.1395 -70.1381 -42.0033 -41.9882 -41.9803 -41.9547
   -41.9334 -41.9212 -41.9052 -41.8085 -41.8048 -41.8021 -41.6712 -41.6266
   -41.6143 -41.5968 -41.5312 -41.5300 -41.5294 -41.4841 -41.4782 -41.4731
   -41.4130 -41.4119 -41.4007 -41.3923 -41.3857 -41.3756 -41.3554 -41.3153
   -41.3066 -41.2853 -41.2847 -41.2832 -41.2631 -41.2424 -41.1526 -41.1503
   -11.4658  -5.3387  -3.7103  -2.8145  -2.7025  -2.4514  -2.3936  -2.3078
    -2.2954  -2.1299  -1.8348  -1.7990  -1.6644  -1.5792  -1.5788  -1.5043
    -1.1951  -1.1606  -1.1289  -0.6177  -0.2205  -0.1271   0.3263   0.3984
     0.5014   0.6075   0.6437   0.9029   0.9045   1.0634   1.0686   1.1100
     1.1541   1.1588   1.1636   1.1803   1.2460   1.2481   1.4162   1.4306
     1.9011   2.0405   2.1878   2.2044   2.2383   2.2618   2.5204   2.5234
     2.7684

[...]

          k =-0.0974 0.0562 0.0000 ( 14010 PWs)   bands (ev):

[...]

     the Fermi energy is     1.3320 ev

!    total energy              =   -2139.47262901 Ry
     Harris-Foulkes estimate   =   -2139.47262814 Ry
     estimated scf accuracy    <       0.00000090 Ry

     The total energy is the sum of the following terms:

     one-electron contribution =  -19948.02401630 Ry
     hartree contribution      =    9967.86499721 Ry
     xc contribution           =    -287.94423055 Ry
     ewald contribution        =    8128.76407949 Ry
     electric field correction =       0.00001975 Ry
     smearing contrib. (-TS)   =      -0.13347860 Ry

     convergence has been achieved in  55 iterations

 BEEF-vdW xc energy contributions
           1 :   -249.148247258979
           2 :    224.178710495857
           3 :   -182.461373897990
           4 :    136.493539143556
           5 :   -97.6586592320200
           6 :    72.1154436741215
           7 :   -59.6263469004824
           8 :    55.3876058231634
           9 :   -53.4645173690230
          10 :    49.8608171651952
          11 :   -43.8077230132452
          12 :    37.0391383039752
          13 :   -31.9190040491236
          14 :    29.7054204477221
          15 :   -29.8886869062680
          16 :    30.7516384181272
          17 :   -30.5907003089163
          18 :    28.7502431239837
          19 :   -25.8634299048608
          20 :    23.2524030228236
          21 :   -21.9681727090042
          22 :    22.1207387835029
          23 :   -22.8979750876446
          24 :    23.1860428683422
          25 :   -22.3255049989775
          26 :    20.4968345209010
          27 :   -18.5235203644178
          28 :    17.2764728068917
          29 :   -17.1019681556711
          30 :    17.6371052766328
          31 :   -24.7849753562481
          32 :   -17.8000754411541

     Forces acting on atoms (Ry/au):

     negative rho (up, down):  1.457E-02 0.000E+00
     atom    1 type  1   force =     0.00000432    0.00096603    0.00067431
     atom    2 type  1   force =    -0.00000247    0.00002582    0.00038695
     atom    3 type  1   force =    -0.00080824   -0.00080956   -0.00032322
     atom    4 type  1   force =     0.00081009   -0.00081410   -0.00032889
     atom    5 type  1   force =     0.00101328   -0.00033183    0.00212396
     atom    6 type  1   force =    -0.00101468   -0.00030647    0.00213420
     atom    7 type  1   force =     0.00000526   -0.00355729   -0.01063186
     atom    8 type  1   force =    -0.00000539    0.00427579    0.00726612
     atom    9 type  1   force =    -0.04069970    0.00323441    0.01498905
     atom   10 type  1   force =     0.04069381    0.00326082    0.01497375
     atom   11 type  1   force =    -0.00000018    0.00275261    0.00660038
     atom   12 type  1   force =     0.00001383   -0.01177646   -0.00418873
     atom   13 type  2   force =    -0.00000993    0.00308023   -0.03367601

     Total force =     0.071648     Total SCF correction =     0.002362

     entering subroutine stress ...

     negative rho (up, down):  1.457E-02 0.000E+00
          total   stress  (Ry/bohr**3)                   (kbar)     P=  -24.35
  -0.00019640  -0.00000000  -0.00000003        -28.89     -0.00     -0.00
  -0.00000000  -0.00025680   0.00000413         -0.00    -37.78      0.61
  -0.00000003   0.00000413  -0.00004336         -0.00      0.61     -6.38

     BFGS Geometry Optimization

     number of scf cycles    =   1
     number of bfgs steps    =   0

     energy   new            =   -2139.4726290053 Ry

     new trust radius        =       0.0434925138 bohr
     new conv_thr            =       0.0000099958 Ry

ATOMIC_POSITIONS (crystal)
Cr1      0.166666667   0.166666667   0.413381306    0   0   0
Cr1      0.666666667   0.166666667   0.413381306    0   0   0
Cr1      0.166666667   0.666666667   0.413381306    0   0   0
Cr1      0.666666667   0.666666667   0.413381306    0   0   0
Cr1      0.833333333   0.333333333   0.500000000    0   0   0
Cr1      0.333333333   0.333333333   0.500000000    0   0   0
Cr1      0.833333333   0.833333333   0.500000000    0   0   0
Cr1      0.333333333   0.833333333   0.500000000    0   0   0
Cr1     -0.004388728   0.000385061   0.586946583
Cr1      0.504001488   0.000388205   0.586946248
Cr1     -0.000163869   0.500327702   0.586763079
Cr1      0.500702427   0.498597998   0.586527065
S1       0.249815623   0.000366705   0.661530804

     Writing output data file calc.save
     Check: negative starting charge=   -0.014860
     NEW-OLD atomic charge density approx. for the potential

     Check: negative/imaginary core charge=   -0.000004    0.000000
     Check: negative starting charge=   -0.014571

[...]

     energy   old            =   -2139.4726290053 Ry
     energy   new            =   -2139.4773185472 Ry

     CASE: energy  _new < energy  _old

     WARNING: bfgs curvature condition failed, Theta= 0.968
     new trust radius        =       0.0652387707 bohr
     new conv_thr            =       0.0000001000 Ry

[...]

     Total force =     0.006281     Total SCF correction =     0.000655
     SCF correction compared to forces is large: reduce conv_thr to get better values

[...]

     iteration # 10     ecut=    36.75 Ry     beta=0.30
     Davidson diagonalization with overlap
     c_bands:  1 eigenvalues not converged
     ethr =  1.06E-07,  avg # of iterations =  6.2

[...]

     Total force =     0.005268     Total SCF correction =     0.000408

[...]

     number of scf cycles    =  36
     number of bfgs steps    =  35

     energy   old            =   -2139.5158926732 Ry
     energy   new            =   -2139.5159286069 Ry

     CASE: energy  _new < energy  _old

     new trust radius        =       0.0138771137 bohr
     new conv_thr            =       0.0000001000 Ry

ATOMIC_POSITIONS (crystal)
Cr1      0.166666667   0.166666667   0.413381306    0   0   0
Cr1      0.666666667   0.166666667   0.413381306    0   0   0
Cr1      0.166666667   0.666666667   0.413381306    0   0   0
Cr1      0.666666667   0.666666667   0.413381306    0   0   0
Cr1      0.833333333   0.333333333   0.500000000    0   0   0
Cr1      0.333333333   0.333333333   0.500000000    0   0   0
Cr1      0.833333333   0.833333333   0.500000000    0   0   0
Cr1      0.333333333   0.833333333   0.500000000    0   0   0
Cr1     -0.017075783   0.009324088   0.589255103
Cr1      0.507920587   0.009182266   0.589257536
Cr1     -0.017450933   0.534899518   0.589596964
Cr1      0.488347680   0.523227703   0.571400437
S1       0.158924936   0.182356273   0.657501637

     Writing output data file calc.save
     Check: negative starting charge=   -0.012969
     NEW-OLD atomic charge density approx. for the potential

     Check: negative/imaginary core charge=   -0.000004    0.000000
     Check: negative starting charge=   -0.013146

[...]

     Self-consistent Calculation

[...]

     total energy              =   -2139.51599300 Ry
     Harris-Foulkes estimate   =   -2139.51599302 Ry
     estimated scf accuracy    <       0.00000021 Ry

     iteration # 21     ecut=    36.75 Ry     beta=0.30
     Davidson diagonalization with overlap
     ethr =  1.23E-10,  avg # of iterations =  4.8

[...]

     negative rho (up, down):  1.294E-02 0.000E+00

     Adding external electric field

     Computed dipole along edir(3) :
        Dipole               -0.0825 Ry au,         -0.2098 Debye
        Dipole field         -0.0003 Ry au

        Potential amp.        0.0248 Ry
        Total length         44.5710 bohr

     End of self-consistent calculation

[...]

          k = 0.0649-0.0750 0.0000 ( 13990 PWs)   bands (ev):

[...]

          k =-0.0974-0.0562 0.0000 ( 14010 PWs)   bands (ev):

   -70.4301 -70.4082 -70.3627 -70.3279 -70.3077 -70.3048 -70.2853 -70.2430
   -70.2356 -70.1983 -70.1863 -70.1833 -42.1344 -41.9884 -41.9772 -41.9340
   -41.9186 -41.8614 -41.8282 -41.8011 -41.7565 -41.7471 -41.7264 -41.7040
   -41.6982 -41.6458 -41.6247 -41.6122 -41.5951 -41.5867 -41.5598 -41.5289
   -41.5184 -41.5108 -41.5080 -41.4904 -41.4678 -41.4645 -41.4608 -41.4497
   -41.4289 -41.4057 -41.3640 -41.3392 -41.2978 -41.2656 -41.2621 -41.1960
   -11.6123  -3.7652  -3.5916  -2.8502  -2.7361  -2.3893  -1.9507  -1.8166
    -1.6691  -1.6495  -1.5799  -1.5590  -1.4989  -1.0326  -1.0200  -0.9044
    -0.7973  -0.7623  -0.6248  -0.5393  -0.3592  -0.2900  -0.1561  -0.0910
    -0.0798  -0.0428   0.1194   0.2379   0.2496   0.4485   0.5274   0.5574
     0.6145   0.7003   0.7621   0.9117   0.9382   0.9875   1.0503   1.1142
     1.3426   1.5621   1.6579   1.7475   1.8046   1.8814   1.9058   2.0275
     2.2042

     the Fermi energy is     1.2994 ev

!    total energy              =   -2139.51599297 Ry
     Harris-Foulkes estimate   =   -2139.51599254 Ry
     estimated scf accuracy    <       0.00000004 Ry

     The total energy is the sum of the following terms:

     one-electron contribution =  -20086.60400527 Ry
     hartree contribution      =   10036.81541013 Ry
     xc contribution           =    -288.12308392 Ry
     ewald contribution        =    8198.51771258 Ry
     electric field correction =       0.00002299 Ry
     smearing contrib. (-TS)   =      -0.12204948 Ry

     convergence has been achieved in  21 iterations

 BEEF-vdW xc energy contributions
           1 :   -249.334117184698
           2 :    224.416788933885
           3 :   -182.741600662455
           4 :    136.735969564913
           5 :   -97.7637273519833
           6 :    72.0294120636269
           7 :   -59.3743149919148
           8 :    55.0555213879593
           9 :   -53.1491791913959
          10 :    49.6226006635389
          11 :   -43.6489076022166
          12 :    36.9105916392527
          13 :   -31.7467789456928
          14 :    29.4279169790260
          15 :   -29.4934004697153
          16 :    30.2933862169027
          17 :   -30.1732256736975
          18 :    28.4719186098031
          19 :   -25.7557968265205
          20 :    23.2540805205484
          21 :   -21.9584107195938
          22 :    21.9950904363287
          23 :   -22.6357735347937
          24 :    22.8624275136518
          25 :   -22.0594582918757
          26 :    20.3710581614399
          27 :   -18.5295768384192
          28 :    17.3195778144805
          29 :   -17.0603143429474
          30 :    17.4372537299678
          31 :   -24.7970910324460
          32 :   -17.8185046503550

     Forces acting on atoms (Ry/au):

     negative rho (up, down):  1.294E-02 0.000E+00
     atom    1 type  1   force =    -0.00000651    0.00074348    0.00755802
     atom    2 type  1   force =     0.00000475   -0.00053665   -0.00153345
     atom    3 type  1   force =     0.00053846   -0.00139014   -0.00209230
     atom    4 type  1   force =    -0.00053479   -0.00138983   -0.00209156
     atom    5 type  1   force =     0.01927262   -0.01182848   -0.00161725
     atom    6 type  1   force =    -0.01927985   -0.01185260   -0.00159118
     atom    7 type  1   force =     0.00000798   -0.00272927    0.00965545
     atom    8 type  1   force =     0.00001136    0.02444895   -0.00784945
     atom    9 type  1   force =    -0.00127629    0.00052049   -0.00109605
     atom   10 type  1   force =     0.00127507    0.00058410   -0.00111491
     atom   11 type  1   force =     0.00002261    0.00165929    0.00182160
     atom   12 type  1   force =     0.00000358    0.00145268   -0.00121903
     atom   13 type  2   force =    -0.00003899    0.00031797    0.00117011

     Total force =     0.004177     Total SCF correction =     0.000900
     SCF correction compared to forces is large: reduce conv_thr to get better values

     entering subroutine stress ...

     negative rho (up, down):  1.294E-02 0.000E+00
          total   stress  (Ry/bohr**3)                   (kbar)     P=  -15.70
  -0.00016082   0.00000006  -0.00000004        -23.66      0.01     -0.01
   0.00000006  -0.00014858   0.00000758          0.01    -21.86      1.12
  -0.00000004   0.00000758  -0.00001070         -0.01      1.12     -1.57

     bfgs converged in  37 scf cycles and  36 bfgs steps
     (criteria: energy <  1.0E+00, force <  1.9E-03)

     End of BFGS Geometry Optimization

     Final energy   =   -2139.5159929700 Ry
Begin final coordinates

ATOMIC_POSITIONS (crystal)
Cr1      0.166666667   0.166666667   0.413381306    0   0   0
Cr1      0.666666667   0.166666667   0.413381306    0   0   0
Cr1      0.166666667   0.666666667   0.413381306    0   0   0
Cr1      0.666666667   0.666666667   0.413381306    0   0   0
Cr1      0.833333333   0.333333333   0.500000000    0   0   0
Cr1      0.333333333   0.333333333   0.500000000    0   0   0
Cr1      0.833333333   0.833333333   0.500000000    0   0   0
Cr1      0.333333333   0.833333333   0.500000000    0   0   0
Cr1     -0.017075783   0.009324088   0.589255103
Cr1      0.507920587   0.009182266   0.589257536
Cr1     -0.017450933   0.534899518   0.589596964
Cr1      0.488347680   0.523227703   0.571400437
S1       0.158924936   0.182356273   0.657501637
End final coordinates

     Writing output data file calc.save

     General routines

     Parallel routines

   This run was terminated on:  19:34:41   2May2018

   JOB DONE.
Job  /afs/slac/g/suncat/bin/suncat-tsmpirun -x LD_LIBRARY_PATH -wdir /scratch/qe717751_rzRos pw.x -npool 4 -in pw.inp

TID   HOST_NAME   COMMAND_LINE            STATUS            TERMINATION_TIME
00000 suncat0072 pw.x -npool 4 -i  Done                     05/02/2018 19:34:41
00001 suncat0072 pw.x -npool 4 -i  Done                     05/02/2018 19:34:41
00002 suncat0072 pw.x -npool 4 -i  Done                     05/02/2018 19:34:41
00003 suncat0072 pw.x -npool 4 -i  Done                     05/02/2018 19:34:41
00004 suncat0072 pw.x -npool 4 -i  Done                     05/02/2018 19:34:41
00005 suncat0072 pw.x -npool 4 -i  Done                     05/02/2018 19:34:41
00006 suncat0072 pw.x -npool 4 -i  Done                     05/02/2018 19:34:41
00007 suncat0072 pw.x -npool 4 -i  Done                     05/02/2018 19:34:41
00008 suncat0070 pw.x -npool 4 -i  Done                     05/02/2018 19:34:41
00009 suncat0070 pw.x -npool 4 -i  Done                     05/02/2018 19:34:41
00010 suncat0070 pw.x -npool 4 -i  Done                     05/02/2018 19:34:41
00011 suncat0070 pw.x -npool 4 -i  Done                     05/02/2018 19:34:41
00012 suncat0070 pw.x -npool 4 -i  Done                     05/02/2018 19:34:41
00013 suncat0070 pw.x -npool 4 -i  Done                     05/02/2018 19:34:41
00014 suncat0070 pw.x -npool 4 -i  Done                     05/02/2018 19:34:41
00015 suncat0070 pw.x -npool 4 -i  Done                     05/02/2018 19:34:41
00016 suncat0193 pw.x -npool 4 -i  Done                     05/02/2018 19:34:41
00017 suncat0193 pw.x -npool 4 -i  Done                     05/02/2018 19:34:41
00018 suncat0193 pw.x -npool 4 -i  Done                     05/02/2018 19:34:41
00019 suncat0193 pw.x -npool 4 -i  Done                     05/02/2018 19:34:41
00020 suncat0193 pw.x -npool 4 -i  Done                     05/02/2018 19:34:41
00021 suncat0193 pw.x -npool 4 -i  Done                     05/02/2018 19:34:41
00022 suncat0193 pw.x -npool 4 -i  Done                     05/02/2018 19:34:41
00023 suncat0193 pw.x -npool 4 -i  Done                     05/02/2018 19:34:41
00024 suncat0190 pw.x -npool 4 -i  Done                     05/02/2018 19:34:41
00025 suncat0190 pw.x -npool 4 -i  Done                     05/02/2018 19:34:41
00026 suncat0190 pw.x -npool 4 -i  Done                     05/02/2018 19:34:41
00027 suncat0190 pw.x -npool 4 -i  Done                     05/02/2018 19:34:41
00028 suncat0190 pw.x -npool 4 -i  Done                     05/02/2018 19:34:41
00029 suncat0190 pw.x -npool 4 -i  Done                     05/02/2018 19:34:41
00030 suncat0190 pw.x -npool 4 -i  Done                     05/02/2018 19:34:41
00031 suncat0190 pw.x -npool 4 -i  Done                     05/02/2018 19:34:41