     Program PWSCF v.5.1rc2 (svn rev. 11289) starts on  3May2018 at  7:43:11

     Current dimensions of program PWSCF are:
     Max number of different atomic species (ntypx) = 10
     Max number of k-points (npk) =  40000
     Max angular momentum in pseudopotentials (lmaxx) =  3
     Presently stress not available with electric field

     IMPORTANT: XC functional enforced from input :
     Exchange-correlation      = BEEF-VDW ( 1  4 27 13 2)
     Any further DFT definition will be discarded
     Please, verify this is what you really want

     Subspace diagonalization in iterative solution of the eigenvalue problem:
     a serial algorithm will be used

     bravais-lattice index     =            0
     lattice parameter (alat)  =       1.8897  a.u.
     unit-cell volume          =    4569.9960 (a.u.)^3
     number of atoms/cell      =           13
     number of atomic types    =            2
     number of electrons       =       196.00
     number of Kohn-Sham states=          108
     kinetic-energy cutoff     =      36.7493  Ry
     charge density cutoff     =     367.4932  Ry
     convergence threshold     =      1.0E-05
     mixing beta               =       0.3000
     number of iterations used =           10  plain     mixing
     Exchange-correlation      = BEEF-VDW ( 1  4 27 13 2)
     nstep                     =           50

     celldm(1)=   1.889726  celldm(2)=   0.000000  celldm(3)=   0.000000
     celldm(4)=   0.000000  celldm(5)=   0.000000  celldm(6)=   0.000000

     crystal axes: (cart. coord. in units of alat)
               a(1) = (   5.637663   0.000000   0.000000 )
               a(2) = (   2.818831   4.882359   0.000000 )
               a(3) = (   0.000000   0.000000  24.603132 )

     reciprocal axes: (cart. coord. in units 2 pi/alat)
               b(1) = (  0.177378 -0.102410  0.000000 )
               b(2) = (  0.000000  0.204819  0.000000 )
               b(3) = (  0.000000  0.000000  0.040645 )

     PseudoPot. # 1 for Pd read from file:
     /u/if/mamunm/psp/gbrv1.5pbe/Pd.UPF
     MD5 check sum: 2d733d2bc2cbfd217af676df1668a4bc
     Pseudo is Ultrasoft + core correction, Zval = 16.0
     Generated by new atomic code, or converted to UPF format
     Using radial grid of  887 points,  6 beta functions with:
                l(1) =   0
                l(2) =   0
                l(3) =   1
                l(4) =   1
                l(5) =   2
                l(6) =   2
     Q(r) pseudized with  8 coefficients,  rinner =    1.130   1.130   1.130
                                                       1.130   1.130

     PseudoPot. # 2 for C  read from file:
     /u/if/mamunm/psp/gbrv1.5pbe/C.UPF
     MD5 check sum: d1aef80898a10debaa0f26306b886e00
     Pseudo is Ultrasoft + core correction, Zval =  4.0
     Generated by new atomic code, or converted to UPF format
     Using radial grid of  721 points,  4 beta functions with:
                l(1) =   0
                l(2) =   0
                l(3) =   1
                l(4) =   1
     Q(r) pseudized with  8 coefficients,  rinner =    1.100   1.100   1.100

     vdW kernel table read from file vdW_kernel_table
     MD5 check sum: 095c7af220d748ca6e76c0b4c6cfb241

     atomic species   valence    mass     pseudopotential
        Pd1           16.00   106.42000     Pd( 1.00)
        C1             4.00    12.01100     C ( 1.00)

     No symmetry found

   Cartesian axes

     site n.     atom                  positions (alat units)
         1           Pd1 tau(   1) = (   1.4094157   0.8137265  10.0000000  )
         2           Pd1 tau(   2) = (   4.2282471   0.8137265  10.0000000  )
         3           Pd1 tau(   3) = (   2.8188314   3.2549061  10.0000000  )
         4           Pd1 tau(   4) = (   5.6376627   3.2549061  10.0000000  )
         5           Pd1 tau(   5) = (   5.6376627   1.6274531  12.3015662  )
         6           Pd1 tau(   6) = (   2.8188314   1.6274531  12.3015662  )
         7           Pd1 tau(   7) = (   7.0470784   4.0686326  12.3015662  )
         8           Pd1 tau(   8) = (   4.2282471   4.0686326  12.3015662  )
         9           Pd1 tau(   9) = (   0.0000000   0.0000000  14.6031324  )
        10           Pd1 tau(  10) = (   2.8188314   0.0000000  14.6031324  )
        11           Pd1 tau(  11) = (   1.4094157   2.4411796  14.6031324  )
        12           Pd1 tau(  12) = (   4.2282471   2.4411796  14.6031324  )
        13           C1  tau(  13) = (   2.8188314   1.6274531  16.0006324  )

     number of k points=    20  Fermi-Dirac smearing, width (Ry)=  0.0110
                       cart. coord. in units 2pi/alat
        k(    1) = (   0.0000000   0.0000000   0.0000000), wk =   0.0555556
        k(    2) = (   0.0000000   0.0341365   0.0000000), wk =   0.1111111
        k(    3) = (   0.0000000   0.0682730   0.0000000), wk =   0.1111111
        k(    4) = (   0.0000000  -0.1024095   0.0000000), wk =   0.0555556
        k(    5) = (   0.0295631  -0.0170683   0.0000000), wk =   0.1111111
        k(    6) = (   0.0295631   0.0170683   0.0000000), wk =   0.1111111
        k(    7) = (   0.0295631   0.0512048   0.0000000), wk =   0.1111111
        k(    8) = (   0.0295631  -0.1194778   0.0000000), wk =   0.1111111
        k(    9) = (   0.0295631  -0.0853413   0.0000000), wk =   0.1111111
        k(   10) = (   0.0295631  -0.0512048   0.0000000), wk =   0.1111111
        k(   11) = (   0.0591262  -0.0341365   0.0000000), wk =   0.1111111
        k(   12) = (   0.0591262  -0.0000000   0.0000000), wk =   0.1111111
        k(   13) = (   0.0591262   0.0341365   0.0000000), wk =   0.1111111
        k(   14) = (   0.0591262  -0.1365460   0.0000000), wk =   0.1111111
        k(   15) = (   0.0591262  -0.1024095   0.0000000), wk =   0.1111111
        k(   16) = (   0.0591262  -0.0682730   0.0000000), wk =   0.1111111
        k(   17) = (  -0.0886892   0.0512048   0.0000000), wk =   0.0555556
        k(   18) = (  -0.0886892   0.0853413   0.0000000), wk =   0.1111111
        k(   19) = (  -0.0886892   0.1194778   0.0000000), wk =   0.1111111
        k(   20) = (  -0.0886892  -0.0512048   0.0000000), wk =   0.0555556

     Largest allocated arrays     est. size (Mb)     dimensions
     Largest temporary arrays     est. size (Mb)     dimensions

     Initial potential from superposition of free atoms
     Check: negative starting charge=   -0.904051

     starting charge  189.99988, renormalised to  196.00000

     negative rho (up, down):  9.326E-01 0.000E+00

     *
     * You are using vdW-DF for exchange-correlation in this calculation.
     * Please cite the following three references that made this development
     * possible:
     *
     *   M. Dion, H. Rydberg, E. Schroder, D. C. Langreth, and
     *   B. I. Lundqvist, Phys. Rev. Lett. 92, 246401 (2004).
     *
     *   T. Thonhauser, V. R. Cooper, S. Li, A. Puzder, P. Hyldgaard, and
     *   D. C. Langreth, Phys. Rev. B 76, 125112 (2007).
     *
     *   G. Roman-Perez and J. M. Soler, Phys. Rev. Lett. 103, 096102 (2009).
     *
     *
     * If you are using vdW-DF2, please also cite:
     *
     *   K. Lee, E. D. Murray, L. Kong, B. I. Lundqvist, and
     *   D. C. Langreth, Phys. Rev. B 82, 081101(R) (2010).
     *
     *
     * If you are calculating the stress with vdW-DF, please also cite:
     *
     *   R. Sabatini, E. Kucukbenli, B. Kolb, T. Thonhauser, and
     *   S. de Gironcoli, J. Phys.: Condens. Matter 24, 424209 (2012).
     *

     Carrying out vdW-DF run using the following parameters:

     Nqs =      20    Nr_points =    1024   r_max =   100.000
     q_mesh =
               0.00001000     0.04494208     0.09755937     0.15916263
               0.23128650     0.31572767     0.41458969     0.53033537
               0.66584808     0.82450364     1.01025438     1.22772762
               1.48234092     1.78043706     2.12944203     2.53805004
               3.01644009     3.57652955     4.23227104     5.00000000

     Gradients computed in reciprocal space

     Adding external electric field

     Computed dipole along edir(3) :
        Dipole               -0.8827 Ry au,         -2.2436 Debye
        Dipole field         -0.0024 Ry au

        Potential amp.        0.2201 Ry
        Total length         45.3309 bohr

     Starting wfc are  148 randomized atomic wfcs

     Self-consistent Calculation

     iteration #  1     ecut=    36.75 Ry     beta=0.30
     Davidson diagonalization with overlap
     ethr =  1.00E-02,  avg # of iterations =  4.8

[...]

     total energy              =   -2384.92524460 Ry
     Harris-Foulkes estimate   =   -2412.73298617 Ry
     estimated scf accuracy    <      59.35146757 Ry

[...]

     End of self-consistent calculation

          k = 0.0000 0.0000 0.0000 ( 17231 PWs)   bands (ev):

   -49.6982 -49.5652 -49.5649 -49.2960 -49.2957 -49.2254 -49.1991 -49.1462
   -49.1459 -49.1102 -49.0821 -49.0816 -49.0077 -48.9884 -48.9876 -48.9358
   -48.9225 -48.9220 -48.9213 -48.8666 -48.8666 -48.8573 -48.8564 -48.8316
   -48.6937 -48.6933 -48.6715 -48.6435 -48.6434 -48.6250 -48.6247 -48.5901
   -48.5142 -48.5001 -48.4983 -48.4946  -9.3259  -4.8955  -3.9071  -3.7988
    -3.7986  -3.7674  -3.6605  -3.6604  -3.6385  -3.5490  -3.3966  -3.3964
    -3.3150  -3.1589  -3.1387  -3.1382  -2.6086  -2.6085  -2.3207  -2.0461
    -2.0458  -1.9626  -1.8891  -1.8890  -1.7560  -1.6109  -1.6109  -1.5465
    -1.5464  -1.4735  -1.3450  -1.3449  -1.1884  -1.1881  -1.1438  -0.7445
    -0.7442  -0.6929  -0.5339  -0.3362  -0.3362  -0.2436  -0.1777  -0.1777
    -0.0392  -0.0388   0.2321   0.2330   0.4209   0.4252   0.4257   0.4531
     0.5416   0.5418   0.5420   0.6663   0.6663   0.7883   0.8194   0.8195
     0.9984   0.9992   1.0101   1.2115   1.5082   1.9092   1.9092   2.9187
     3.1447   3.1447   3.7003   4.5572

[...]

          k =-0.0887 0.0512 0.0000 ( 17240 PWs)   bands (ev):

[...]

     the Fermi energy is     0.7764 ev

!    total energy              =   -2408.81960860 Ry
     Harris-Foulkes estimate   =   -2408.81963988 Ry
     estimated scf accuracy    <       0.00000826 Ry

     The total energy is the sum of the following terms:

     one-electron contribution =  -20520.19610588 Ry
     hartree contribution      =   10309.00721228 Ry
     xc contribution           =    -393.51691884 Ry
     ewald contribution        =    8195.98783023 Ry
     electric field correction =       0.00007791 Ry
     smearing contrib. (-TS)   =      -0.10170430 Ry

     convergence has been achieved in  18 iterations

 BEEF-vdW xc energy contributions
           1 :   -342.558157379219
           2 :    313.045863497826
           3 :   -262.694291649956
           4 :    205.029868493258
           5 :   -153.154985183782
           6 :    115.436129622641
           7 :   -93.6886694144889
           8 :    84.1687043825548
           9 :   -80.5139268405154
          10 :    77.0506773433694
          11 :   -70.9724673489108
          12 :    62.6464954212636
          13 :   -54.3289509006213
          14 :    48.2838209024437
          15 :   -45.3988405377694
          16 :    44.8950346510699
          17 :   -45.0403649384981
          18 :    44.2661256061472
          19 :   -41.9859270716836
          20 :    38.7080386516685
          21 :   -35.5083739549335
          22 :    33.2776332610579
          23 :   -32.2165758703359
          24 :    31.8283226719610
          25 :   -31.3318687714174
          26 :    30.1840815733509
          27 :   -28.3800170941115
          28 :    26.3774967735653
          29 :   -24.7414802714886
          30 :    23.7622783169769
          31 :   -33.4604051320406
          32 :   -24.7337552900776

     Forces acting on atoms (Ry/au):

     negative rho (up, down):  9.421E-01 0.000E+00
     atom    1 type  1   force =     0.00036782    0.00017871   -0.00303376
     atom    2 type  1   force =    -0.00037333    0.00012687   -0.00303481
     atom    3 type  1   force =    -0.00004441   -0.00038056   -0.00304402
     atom    4 type  1   force =     0.00005112    0.00005911    0.00098759
     atom    5 type  1   force =    -0.00004210   -0.00138153    0.00136501
     atom    6 type  1   force =     0.00004611    0.00004574   -0.01621385
     atom    7 type  1   force =     0.00123540    0.00069296    0.00130832
     atom    8 type  1   force =    -0.00125440    0.00065929    0.00139906
     atom    9 type  1   force =    -0.00002761   -0.00004008   -0.00179797
     atom   10 type  1   force =     0.00005038    0.03679703    0.05448636
     atom   11 type  1   force =     0.03191983   -0.01834676    0.05450263
     atom   12 type  1   force =    -0.03192339   -0.01840363    0.05451073
     atom   13 type  2   force =    -0.00000541   -0.00000715   -0.14143529

     Total force =     0.181618     Total SCF correction =     0.012923

     entering subroutine stress ...

     negative rho (up, down):  9.421E-01 0.000E+00
          total   stress  (Ry/bohr**3)                   (kbar)     P=  -13.22
  -0.00010146   0.00000000   0.00000001        -14.93      0.00      0.00
   0.00000000  -0.00010145   0.00000001          0.00    -14.92      0.00
   0.00000001   0.00000001  -0.00006668          0.00      0.00     -9.81

     BFGS Geometry Optimization

     number of scf cycles    =   1
     number of bfgs steps    =   0

     energy   new            =   -2408.8196085979 Ry

     new trust radius        =       0.1414352877 bohr
     new conv_thr            =       0.0000099958 Ry

ATOMIC_POSITIONS (crystal)
Pd1      0.166666667   0.166666667   0.406452311    0   0   0
Pd1      0.666666667   0.166666667   0.406452311    0   0   0
Pd1      0.166666667   0.666666667   0.406452311    0   0   0
Pd1      0.666666667   0.666666667   0.406452311    0   0   0
Pd1      0.833333333   0.333333333   0.500000000    0   0   0
Pd1      0.333333333   0.333333333   0.500000000    0   0   0
Pd1      0.833333333   0.833333333   0.500000000    0   0   0
Pd1      0.333333333   0.833333333   0.500000000    0   0   0
Pd1     -0.000000420  -0.000004344   0.593509017
Pd1      0.498010596   0.003988266   0.594719611
Pd1      0.003990405   0.498011476   0.594719960
Pd1      0.498000866   0.498005312   0.594720135
C1       0.333333213   0.333332558   0.647307334

     Writing output data file calc.save
     Check: negative starting charge=   -0.904051
     NEW-OLD atomic charge density approx. for the potential
     Check: negative starting charge=   -0.906211

[...]

     energy   old            =   -2408.8196085979 Ry
     energy   new            =   -2408.8490325471 Ry

     CASE: energy  _new < energy  _old

[...]

     Total force =     0.009249     Total SCF correction =     0.001064
     SCF correction compared to forces is large: reduce conv_thr to get better values

[...]

     number of scf cycles    =  11
     number of bfgs steps    =  10

     energy   old            =   -2408.8880951145 Ry
     energy   new            =   -2408.8883562833 Ry

     CASE: energy  _new < energy  _old

     new trust radius        =       0.0479282058 bohr
     new conv_thr            =       0.0000001000 Ry

ATOMIC_POSITIONS (crystal)
Pd1      0.166666667   0.166666667   0.406452311    0   0   0
Pd1      0.666666667   0.166666667   0.406452311    0   0   0
Pd1      0.166666667   0.666666667   0.406452311    0   0   0
Pd1      0.666666667   0.666666667   0.406452311    0   0   0
Pd1      0.833333333   0.333333333   0.500000000    0   0   0
Pd1      0.333333333   0.333333333   0.500000000    0   0   0
Pd1      0.833333333   0.833333333   0.500000000    0   0   0
Pd1      0.333333333   0.833333333   0.500000000    0   0   0
Pd1      0.000002310   0.000003021   0.592681111
Pd1      0.502566573  -0.005140487   0.596201758
Pd1     -0.005139532   0.502565413   0.596201898
Pd1      0.502571927   0.502570676   0.596201970
C1       0.333334234   0.333333894   0.633685574

     Writing output data file calc.save
     Check: negative starting charge=   -0.904653
     NEW-OLD atomic charge density approx. for the potential
     Check: negative starting charge=   -0.906935

[...]

     Self-consistent Calculation

[...]

     total energy              =   -2408.88860028 Ry
     Harris-Foulkes estimate   =   -2408.88860032 Ry
     estimated scf accuracy    <       0.00000044 Ry

     iteration # 13     ecut=    36.75 Ry     beta=0.30
     Davidson diagonalization with overlap
     ethr =  2.25E-10,  avg # of iterations =  1.0

[...]

     negative rho (up, down):  9.465E-01 0.000E+00

     Adding external electric field

     Computed dipole along edir(3) :
        Dipole               -0.0707 Ry au,         -0.1797 Debye
        Dipole field         -0.0002 Ry au

        Potential amp.        0.0176 Ry
        Total length         45.3309 bohr

     End of self-consistent calculation

[...]

          k = 0.0591-0.0683 0.0000 ( 17183 PWs)   bands (ev):

[...]

          k =-0.0887-0.0512 0.0000 ( 17240 PWs)   bands (ev):

   -50.0595 -49.9997 -49.9438 -49.4120 -49.3925 -49.3578 -49.3102 -49.2907
   -49.2664 -48.9120 -48.8745 -48.8365 -48.8334 -48.8322 -48.8248 -48.8192
   -48.8181 -48.7477 -48.7468 -48.6989 -48.6950 -48.6689 -48.6286 -48.6194
   -48.5673 -48.5586 -48.5538 -48.5057 -48.4824 -48.4756 -48.4678 -48.4278
   -48.3467 -48.3409 -48.3357 -48.3356 -10.4310  -4.8447  -4.1586  -3.8477
    -3.5173  -3.3627  -3.1255  -2.9868  -2.8657  -2.8273  -2.7410  -2.6510
    -2.6095  -2.5526  -2.5093  -2.4522  -2.4295  -2.3139  -2.2527  -2.1834
    -1.9808  -1.9693  -1.8960  -1.8794  -1.7988  -1.7580  -1.6896  -1.6518
    -1.5452  -1.4186  -1.3320  -1.3195  -1.2458  -1.1809  -1.0946  -1.0646
    -0.9912  -0.9796  -0.9349  -0.8935  -0.8034  -0.7887  -0.6930  -0.5590
    -0.5551  -0.5248  -0.4345  -0.4100  -0.3763  -0.2618  -0.2476  -0.1277
    -0.1019   0.0645   0.0895   0.2074   0.2409   0.3307   0.4253   0.6634
     0.7072   0.7172   0.8794   0.9406   1.2921   2.0317   2.1311   2.9192
     3.4866   3.6832   3.9356   4.3632

     the Fermi energy is     0.9316 ev

!    total energy              =   -2408.88860027 Ry
     Harris-Foulkes estimate   =   -2408.88860065 Ry
     estimated scf accuracy    <       0.00000005 Ry

     The total energy is the sum of the following terms:

     one-electron contribution =  -20502.27417624 Ry
     hartree contribution      =   10300.33437826 Ry
     xc contribution           =    -393.78150433 Ry
     ewald contribution        =    8186.92734047 Ry
     electric field correction =       0.00001374 Ry
     smearing contrib. (-TS)   =      -0.09465217 Ry

     convergence has been achieved in  13 iterations

 BEEF-vdW xc energy contributions
           1 :   -342.828489901165
           2 :    313.391199140780
           3 :   -263.129518629853
           4 :    205.503627870654
           5 :   -153.579810210211
           6 :    115.724751073198
           7 :   -93.7873718830243
           8 :    84.0799735426936
           9 :   -80.3000002774405
          10 :    76.8138620267966
          11 :   -70.8159781866487
          12 :    62.6323158668334
          13 :   -54.4526767559768
          14 :    48.4773523385774
          15 :   -45.5603741062536
          16 :    44.9355553163691
          17 :   -44.9256312470358
          18 :    44.0328382701346
          19 :   -41.7241759188236
          20 :    38.5177266499179
          21 :   -35.4507080324299
          22 :    33.3470966985320
          23 :   -32.3479526636554
          24 :    31.9341921284844
          25 :   -31.3486407554144
          26 :    30.1016049926282
          27 :   -28.2408971583869
          28 :    26.2490721043930
          29 :   -24.6779103572179
          30 :    23.7781399171665
          31 :   -33.4771169696806
          32 :   -24.7667491949616

     Forces acting on atoms (Ry/au):

     negative rho (up, down):  9.465E-01 0.000E+00
     atom    1 type  1   force =    -0.00018967   -0.00010863   -0.00311730
     atom    2 type  1   force =     0.00019112   -0.00011374   -0.00311480
     atom    3 type  1   force =    -0.00000430    0.00022238   -0.00311605
     atom    4 type  1   force =     0.00000438    0.00000153    0.00151951
     atom    5 type  1   force =    -0.00000478    0.00185502    0.00530969
     atom    6 type  1   force =     0.00000521    0.00000204   -0.00850811
     atom    7 type  1   force =    -0.00161062   -0.00092932    0.00531497
     atom    8 type  1   force =     0.00160624   -0.00093197    0.00531175
     atom    9 type  1   force =    -0.00001317   -0.00000825    0.00145423
     atom   10 type  1   force =     0.00001520    0.00191076   -0.00059966
     atom   11 type  1   force =     0.00166110   -0.00094065   -0.00060142
     atom   12 type  1   force =    -0.00166168   -0.00095854   -0.00059802
     atom   13 type  2   force =     0.00000097   -0.00000064    0.00074520

     Total force =     0.003837     Total SCF correction =     0.000332

     entering subroutine stress ...

     negative rho (up, down):  9.465E-01 0.000E+00
          total   stress  (Ry/bohr**3)                   (kbar)     P=   -3.77
  -0.00003445   0.00000000   0.00000000         -5.07      0.00      0.00
   0.00000000  -0.00003445   0.00000000          0.00     -5.07      0.00
   0.00000000   0.00000000  -0.00000805          0.00      0.00     -1.18

     bfgs converged in  12 scf cycles and  11 bfgs steps
     (criteria: energy <  1.0E+00, force <  1.9E-03)

     End of BFGS Geometry Optimization

     Final energy   =   -2408.8886002744 Ry
Begin final coordinates

ATOMIC_POSITIONS (crystal)
Pd1      0.166666667   0.166666667   0.406452311    0   0   0
Pd1      0.666666667   0.166666667   0.406452311    0   0   0
Pd1      0.166666667   0.666666667   0.406452311    0   0   0
Pd1      0.666666667   0.666666667   0.406452311    0   0   0
Pd1      0.833333333   0.333333333   0.500000000    0   0   0
Pd1      0.333333333   0.333333333   0.500000000    0   0   0
Pd1      0.833333333   0.833333333   0.500000000    0   0   0
Pd1      0.333333333   0.833333333   0.500000000    0   0   0
Pd1      0.000002310   0.000003021   0.592681111
Pd1      0.502566573  -0.005140487   0.596201758
Pd1     -0.005139532   0.502565413   0.596201898
Pd1      0.502571927   0.502570676   0.596201970
C1       0.333334234   0.333333894   0.633685574
End final coordinates

     Writing output data file calc.save

     General routines

     Parallel routines

   This run was terminated on:   8:57:11   3May2018

   JOB DONE.
Job  /afs/slac/g/suncat/bin/suncat-tsmpirun -x LD_LIBRARY_PATH -wdir /scratch/qe674473_70TDN pw.x -npool 4 -in pw.inp

TID   HOST_NAME   COMMAND_LINE            STATUS            TERMINATION_TIME
00000 suncat0076 pw.x -npool 4 -i  Done                     05/03/2018 08:57:11
00001 suncat0076 pw.x -npool 4 -i  Done                     05/03/2018 08:57:11
00002 suncat0076 pw.x -npool 4 -i  Done                     05/03/2018 08:57:11
00003 suncat0076 pw.x -npool 4 -i  Done                     05/03/2018 08:57:11
00004 suncat0076 pw.x -npool 4 -i  Done                     05/03/2018 08:57:11
00005 suncat0076 pw.x -npool 4 -i  Done                     05/03/2018 08:57:11
00006 suncat0076 pw.x -npool 4 -i  Done                     05/03/2018 08:57:11
00007 suncat0076 pw.x -npool 4 -i  Done                     05/03/2018 08:57:11
00008 suncat0073 pw.x -npool 4 -i  Done                     05/03/2018 08:57:11
00009 suncat0073 pw.x -npool 4 -i  Done                     05/03/2018 08:57:11
00010 suncat0073 pw.x -npool 4 -i  Done                     05/03/2018 08:57:11
00011 suncat0073 pw.x -npool 4 -i  Done                     05/03/2018 08:57:11
00012 suncat0073 pw.x -npool 4 -i  Done                     05/03/2018 08:57:11
00013 suncat0073 pw.x -npool 4 -i  Done                     05/03/2018 08:57:11
00014 suncat0073 pw.x -npool 4 -i  Done                     05/03/2018 08:57:11
00015 suncat0073 pw.x -npool 4 -i  Done                     05/03/2018 08:57:11
00016 suncat0010 pw.x -npool 4 -i  Done                     05/03/2018 08:57:11
00017 suncat0010 pw.x -npool 4 -i  Done                     05/03/2018 08:57:11
00018 suncat0010 pw.x -npool 4 -i  Done                     05/03/2018 08:57:11
00019 suncat0010 pw.x -npool 4 -i  Done                     05/03/2018 08:57:11
00020 suncat0010 pw.x -npool 4 -i  Done                     05/03/2018 08:57:11
00021 suncat0010 pw.x -npool 4 -i  Done                     05/03/2018 08:57:11
00022 suncat0010 pw.x -npool 4 -i  Done                     05/03/2018 08:57:11
00023 suncat0010 pw.x -npool 4 -i  Done                     05/03/2018 08:57:11
00024 suncat0191 pw.x -npool 4 -i  Done                     05/03/2018 08:57:11
00025 suncat0191 pw.x -npool 4 -i  Done                     05/03/2018 08:57:11
00026 suncat0191 pw.x -npool 4 -i  Done                     05/03/2018 08:57:11
00027 suncat0191 pw.x -npool 4 -i  Done                     05/03/2018 08:57:11
00028 suncat0191 pw.x -npool 4 -i  Done                     05/03/2018 08:57:11
00029 suncat0191 pw.x -npool 4 -i  Done                     05/03/2018 08:57:11
00030 suncat0191 pw.x -npool 4 -i  Done                     05/03/2018 08:57:11
00031 suncat0191 pw.x -npool 4 -i  Done                     05/03/2018 08:57:11