     Program PWSCF v.5.1rc2 (svn rev. 11289) starts on 13Jan2018 at 22: 7:43

     Current dimensions of program PWSCF are:
     Max number of different atomic species (ntypx) = 10
     Max number of k-points (npk) =  40000
     Max angular momentum in pseudopotentials (lmaxx) =  3
     Presently stress not available with electric field

     IMPORTANT: XC functional enforced from input :
     Exchange-correlation      = BEEF-VDW ( 1  4 27 13 2)
     Any further DFT definition will be discarded
     Please, verify this is what you really want

     Subspace diagonalization in iterative solution of the eigenvalue problem:
     a serial algorithm will be used

     bravais-lattice index     =            0
     lattice parameter (alat)  =       1.8897  a.u.
     unit-cell volume          =    4299.0717 (a.u.)^3
     number of atoms/cell      =           13
     number of atomic types    =            2
     number of electrons       =       181.00
     number of Kohn-Sham states=          100
     kinetic-energy cutoff     =      36.7493  Ry
     charge density cutoff     =     367.4932  Ry
     convergence threshold     =      1.0E-05
     mixing beta               =       0.3000
     number of iterations used =           10  plain     mixing
     Exchange-correlation      = BEEF-VDW ( 1  4 27 13 2)
     nstep                     =           50

     celldm(1)=   1.889726  celldm(2)=   0.000000  celldm(3)=   0.000000
     celldm(4)=   0.000000  celldm(5)=   0.000000  celldm(6)=   0.000000

     crystal axes: (cart. coord. in units of alat)
               a(1) = (   5.482164   0.000000   0.000000 )
               a(2) = (   2.741082   4.747693   0.000000 )
               a(3) = (   0.000000   0.000000  24.476168 )

     reciprocal axes: (cart. coord. in units 2 pi/alat)
               b(1) = (  0.182410 -0.105314  0.000000 )
               b(2) = (  0.000000  0.210629  0.000000 )
               b(3) = (  0.000000  0.000000  0.040856 )

     PseudoPot. # 1 for Ir read from file:
     /afs/slac.stanford.edu/u/if/mamunm/psp/gbrv1.5pbe/Ir.UPF
     MD5 check sum: 8836f839c3459d2b385c504ce6d91f2c
     Pseudo is Ultrasoft + core correction, Zval = 15.0
     Generated by new atomic code, or converted to UPF format
     Using radial grid of  983 points,  7 beta functions with:
                l(1) =   0
                l(2) =   0
                l(3) =   1
                l(4) =   1
                l(5) =   1
                l(6) =   2
                l(7) =   2
     Q(r) pseudized with  8 coefficients,  rinner =    1.400   1.400   1.400
                                                       1.400   1.400

     PseudoPot. # 2 for H  read from file:
     /afs/slac.stanford.edu/u/if/mamunm/psp/gbrv1.5pbe/H.UPF
     MD5 check sum: 761ae9a214b05c3daf00ab9f6b793d6f
     Pseudo is Ultrasoft, Zval =  1.0
     Generated by new atomic code, or converted to UPF format
     Using radial grid of  615 points,  2 beta functions with:
                l(1) =   0
                l(2) =   0
     Q(r) pseudized with  8 coefficients,  rinner =    0.700

     vdW kernel table read from file vdW_kernel_table
     MD5 check sum: 095c7af220d748ca6e76c0b4c6cfb241

     atomic species   valence    mass     pseudopotential
        Ir1           15.00   192.21700     Ir( 1.00)
        H1             1.00     1.00800     H ( 1.00)

     No symmetry found

   Cartesian axes

     site n.     atom                  positions (alat units)
         1           Ir1 tau(   1) = (   1.3705410   0.7912822  10.0000000  )
         2           Ir1 tau(   2) = (   4.1116229   0.7912822  10.0000000  )
         3           Ir1 tau(   3) = (   2.7410819   3.1651288  10.0000000  )
         4           Ir1 tau(   4) = (   5.4821639   3.1651288  10.0000000  )
         5           Ir1 tau(   5) = (   5.4821639   1.5825644  12.2380840  )
         6           Ir1 tau(   6) = (   2.7410819   1.5825644  12.2380840  )
         7           Ir1 tau(   7) = (   6.8527049   3.9564110  12.2380840  )
         8           Ir1 tau(   8) = (   4.1116229   3.9564110  12.2380840  )
         9           Ir1 tau(   9) = (   0.0000000   0.0000000  14.4761681  )
        10           Ir1 tau(  10) = (   2.7410819   0.0000000  14.4761681  )
        11           Ir1 tau(  11) = (   1.3705410   2.3738466  14.4761681  )
        12           Ir1 tau(  12) = (   4.1116229   2.3738466  14.4761681  )
        13           H1  tau(  13) = (   1.3705410   0.0000000  16.1961681  )

     number of k points=    20  Fermi-Dirac smearing, width (Ry)=  0.0110
                       cart. coord. in units 2pi/alat
        k(    1) = (   0.0000000   0.0000000   0.0000000), wk =   0.0555556
        k(    2) = (   0.0000000   0.0351048   0.0000000), wk =   0.1111111
        k(    3) = (   0.0000000   0.0702095   0.0000000), wk =   0.1111111
        k(    4) = (   0.0000000  -0.1053143   0.0000000), wk =   0.0555556
        k(    5) = (   0.0304016  -0.0175524   0.0000000), wk =   0.1111111
        k(    6) = (   0.0304016   0.0175524   0.0000000), wk =   0.1111111
        k(    7) = (   0.0304016   0.0526572   0.0000000), wk =   0.1111111
        k(    8) = (   0.0304016  -0.1228667   0.0000000), wk =   0.1111111
        k(    9) = (   0.0304016  -0.0877619   0.0000000), wk =   0.1111111
        k(   10) = (   0.0304016  -0.0526572   0.0000000), wk =   0.1111111
        k(   11) = (   0.0608032  -0.0351048   0.0000000), wk =   0.1111111
        k(   12) = (   0.0608032   0.0000000   0.0000000), wk =   0.1111111
        k(   13) = (   0.0608032   0.0351048   0.0000000), wk =   0.1111111
        k(   14) = (   0.0608032  -0.1404191   0.0000000), wk =   0.1111111
        k(   15) = (   0.0608032  -0.1053143   0.0000000), wk =   0.1111111
        k(   16) = (   0.0608032  -0.0702095   0.0000000), wk =   0.1111111
        k(   17) = (  -0.0912049   0.0526572   0.0000000), wk =   0.0555556
        k(   18) = (  -0.0912049   0.0877619   0.0000000), wk =   0.1111111
        k(   19) = (  -0.0912049   0.1228667   0.0000000), wk =   0.1111111
        k(   20) = (  -0.0912049  -0.0526572   0.0000000), wk =   0.0555556

     Largest allocated arrays     est. size (Mb)     dimensions
     Largest temporary arrays     est. size (Mb)     dimensions

     Initial potential from superposition of free atoms
     Check: negative starting charge=   -4.361851

     starting charge  174.99961, renormalised to  181.00000

     negative rho (up, down):  4.511E+00 0.000E+00

     *
     * You are using vdW-DF for exchange-correlation in this calculation.
     * Please cite the following three references that made this development
     * possible:
     *
     *   M. Dion, H. Rydberg, E. Schroder, D. C. Langreth, and
     *   B. I. Lundqvist, Phys. Rev. Lett. 92, 246401 (2004).
     *
     *   T. Thonhauser, V. R. Cooper, S. Li, A. Puzder, P. Hyldgaard, and
     *   D. C. Langreth, Phys. Rev. B 76, 125112 (2007).
     *
     *   G. Roman-Perez and J. M. Soler, Phys. Rev. Lett. 103, 096102 (2009).
     *
     *
     * If you are using vdW-DF2, please also cite:
     *
     *   K. Lee, E. D. Murray, L. Kong, B. I. Lundqvist, and
     *   D. C. Langreth, Phys. Rev. B 82, 081101(R) (2010).
     *
     *
     * If you are calculating the stress with vdW-DF, please also cite:
     *
     *   R. Sabatini, E. Kucukbenli, B. Kolb, T. Thonhauser, and
     *   S. de Gironcoli, J. Phys.: Condens. Matter 24, 424209 (2012).
     *

     Carrying out vdW-DF run using the following parameters:

     Nqs =      20    Nr_points =    1024   r_max =   100.000
     q_mesh =
               0.00001000     0.04494208     0.09755937     0.15916263
               0.23128650     0.31572767     0.41458969     0.53033537
               0.66584808     0.82450364     1.01025438     1.22772762
               1.48234092     1.78043706     2.12944203     2.53805004
               3.01644009     3.57652955     4.23227104     5.00000000

     Gradients computed in reciprocal space

     Adding external electric field

     Computed dipole along edir(3) :
        Dipole               -0.2564 Ry au,         -0.6517 Debye
        Dipole field         -0.0007 Ry au

        Potential amp.        0.0676 Ry
        Total length         45.0969 bohr

     Starting wfc are  145 randomized atomic wfcs

     Self-consistent Calculation

     iteration #  1     ecut=    36.75 Ry     beta=0.30
     Davidson diagonalization with overlap
     ethr =  1.00E-02,  avg # of iterations =  2.1

[...]

     total energy              =   -2197.36096820 Ry
     Harris-Foulkes estimate   =   -2204.02478771 Ry
     estimated scf accuracy    <      15.64198385 Ry

[...]

     iteration # 15     ecut=    36.75 Ry     beta=0.30
     Davidson diagonalization with overlap
     c_bands:  1 eigenvalues not converged
     ethr =  1.81E-07,  avg # of iterations =  4.3

[...]

     End of self-consistent calculation

          k = 0.0000 0.0000 0.0000 ( 16073 PWs)   bands (ev):

   -47.6878 -47.6794 -47.6729 -47.5457 -47.4741 -47.4571 -47.4479 -47.2766
   -47.2697 -47.2568 -47.2190 -47.1823 -47.1686 -47.1346 -47.1329 -47.1103
   -47.1026 -47.1019 -46.8776 -46.8548 -46.8148 -46.7788 -46.7771 -46.7581
   -46.7558 -46.7533 -46.7498 -46.7324 -46.7105 -46.7036 -46.6991 -46.6980
   -46.6651 -46.6565 -46.6271 -46.6249  -7.0975  -5.2448  -4.8317  -4.5104
    -4.4992  -4.4984  -4.2334  -4.2008  -4.1989  -3.7444  -3.7012  -3.6958
    -3.4543  -3.4256  -3.4106  -2.2263  -1.9393  -1.9288  -1.4619  -1.3802
    -1.3787  -1.2003  -1.0622  -1.0420  -1.0385  -0.6002  -0.5838  -0.5415
    -0.5358  -0.5303  -0.3236  -0.2823  -0.2158   0.0021   0.0362   0.2084
     1.3001   1.3090   1.3218   1.3542   1.3743   1.3980   1.4078   1.4081
     2.1286   2.1411   2.2421   2.6961   2.7384   2.7626   2.8354   2.8424
     2.8439   3.0269   3.0312   3.3683   3.3711   3.3742   3.4598   3.6439
     3.6577   3.8363   3.8530   3.8666

[...]

          k =-0.0912 0.0527 0.0000 ( 16164 PWs)   bands (ev):

[...]

     the Fermi energy is     2.4152 ev

!    total energy              =   -2200.90410911 Ry
     Harris-Foulkes estimate   =   -2200.90411403 Ry
     estimated scf accuracy    <       0.00000673 Ry

     The total energy is the sum of the following terms:

     one-electron contribution =  -18450.86409217 Ry
     hartree contribution      =    9255.10627365 Ry
     xc contribution           =    -624.20073176 Ry
     ewald contribution        =    7619.15477359 Ry
     electric field correction =       0.00000031 Ry
     smearing contrib. (-TS)   =      -0.10033273 Ry

     convergence has been achieved in  17 iterations

 BEEF-vdW xc energy contributions
           1 :   -552.928410986238
           2 :    514.453313017960
           3 :   -445.606689587003
           4 :    359.877024429504
           5 :   -272.147845179994
           6 :    194.847140049647
           7 :   -135.296144079213
           8 :    94.8785071741179
           9 :   -70.0694673238809
          10 :    54.7408658418128
          11 :   -42.7958668160004
          12 :    30.1936930998310
          13 :   -15.7920962377397
          14 :   0.946756525260980
          15 :    11.7407996860420
          16 :   -19.9126303200183
[...]
00030 suncat0247 pw.x -in pw.inp   Done                     01/13/2018 22:18:21
00031 suncat0247 pw.x -in pw.inp   Done                     01/13/2018 22:18:21

     Program PWSCF v.5.1rc2 (svn rev. 11289) starts on 13Jan2018 at 22:18:27

[...]

     Total force =     0.071894     Total SCF correction =     0.003272

[...]

   This run was terminated on:  22:29: 8  13Jan2018

[...]

     Total force =     0.065023     Total SCF correction =     0.006212

[...]

   This run was terminated on:  23: 9:41  13Jan2018

[...]

     Program PWSCF v.5.1rc2 (svn rev. 11289) starts on 13Jan2018 at 23: 9:47

[...]

   This run was terminated on:  23:19:51  13Jan2018

[...]

     Program PWSCF v.5.1rc2 (svn rev. 11289) starts on 13Jan2018 at 23:19:57

     Current dimensions of program PWSCF are:
     Max number of different atomic species (ntypx) = 10
     Max number of k-points (npk) =  40000
     Max angular momentum in pseudopotentials (lmaxx) =  3
     Presently stress not available with electric field

     IMPORTANT: XC functional enforced from input :
     Exchange-correlation      = BEEF-VDW ( 1  4 27 13 2)
     Any further DFT definition will be discarded
     Please, verify this is what you really want

     Subspace diagonalization in iterative solution of the eigenvalue problem:
     a serial algorithm will be used

     bravais-lattice index     =            0
     lattice parameter (alat)  =       1.8897  a.u.
     unit-cell volume          =    4299.0717 (a.u.)^3
     number of atoms/cell      =           13
     number of atomic types    =            2
     number of electrons       =       181.00
     number of Kohn-Sham states=          100
     kinetic-energy cutoff     =      36.7493  Ry
     charge density cutoff     =     367.4932  Ry
     convergence threshold     =      1.0E-05
     mixing beta               =       0.3000
     number of iterations used =           10  plain     mixing
     Exchange-correlation      = BEEF-VDW ( 1  4 27 13 2)
     nstep                     =           50

     celldm(1)=   1.889726  celldm(2)=   0.000000  celldm(3)=   0.000000
     celldm(4)=   0.000000  celldm(5)=   0.000000  celldm(6)=   0.000000

     crystal axes: (cart. coord. in units of alat)
               a(1) = (   5.482164   0.000000   0.000000 )
               a(2) = (   2.741082   4.747693   0.000000 )
               a(3) = (   0.000000   0.000000  24.476168 )

     reciprocal axes: (cart. coord. in units 2 pi/alat)
               b(1) = (  0.182410 -0.105314  0.000000 )
               b(2) = (  0.000000  0.210629  0.000000 )
               b(3) = (  0.000000  0.000000  0.040856 )

     PseudoPot. # 1 for Ir read from file:
     /afs/slac.stanford.edu/u/if/mamunm/psp/gbrv1.5pbe/Ir.UPF
     MD5 check sum: 8836f839c3459d2b385c504ce6d91f2c
     Pseudo is Ultrasoft + core correction, Zval = 15.0
     Generated by new atomic code, or converted to UPF format
     Using radial grid of  983 points,  7 beta functions with:
                l(1) =   0
                l(2) =   0
                l(3) =   1
                l(4) =   1
                l(5) =   1
                l(6) =   2
                l(7) =   2
     Q(r) pseudized with  8 coefficients,  rinner =    1.400   1.400   1.400
                                                       1.400   1.400

     PseudoPot. # 2 for H  read from file:
     /afs/slac.stanford.edu/u/if/mamunm/psp/gbrv1.5pbe/H.UPF
     MD5 check sum: 761ae9a214b05c3daf00ab9f6b793d6f
     Pseudo is Ultrasoft, Zval =  1.0
     Generated by new atomic code, or converted to UPF format
     Using radial grid of  615 points,  2 beta functions with:
                l(1) =   0
                l(2) =   0
     Q(r) pseudized with  8 coefficients,  rinner =    0.700

     vdW kernel table read from file vdW_kernel_table
     MD5 check sum: 095c7af220d748ca6e76c0b4c6cfb241

     atomic species   valence    mass     pseudopotential
        Ir1           15.00   192.21700     Ir( 1.00)
        H1             1.00     1.00800     H ( 1.00)

     No symmetry found

   Cartesian axes

     site n.     atom                  positions (alat units)
         1           Ir1 tau(   1) = (   1.3705410   0.7912822  10.0000000  )
         2           Ir1 tau(   2) = (   4.1116229   0.7912822  10.0000000  )
         3           Ir1 tau(   3) = (   2.7410819   3.1651288  10.0000000  )
         4           Ir1 tau(   4) = (   5.4821639   3.1651288  10.0000000  )
         5           Ir1 tau(   5) = (   5.4821639   1.5825644  12.2380840  )
         6           Ir1 tau(   6) = (   2.7410819   1.5825644  12.2380840  )
         7           Ir1 tau(   7) = (   6.8527049   3.9564110  12.2380840  )
         8           Ir1 tau(   8) = (   4.1116229   3.9564110  12.2380840  )
         9           Ir1 tau(   9) = (   8.2120818   4.7441363  14.4588291  )
        10           Ir1 tau(  10) = (   5.4933279   4.7441250  14.4588228  )
        11           Ir1 tau(  11) = (   6.8527086   2.3968601  14.4056037  )
        12           Ir1 tau(  12) = (   4.1116148   2.3469307  14.4116600  )
        13           H1  tau(  13) = (   1.3705198   0.0147609  15.6232507  )

     number of k points=    20  Fermi-Dirac smearing, width (Ry)=  0.0110
                       cart. coord. in units 2pi/alat
        k(    1) = (   0.0000000   0.0000000   0.0000000), wk =   0.0555556
        k(    2) = (   0.0000000   0.0351048   0.0000000), wk =   0.1111111
        k(    3) = (   0.0000000   0.0702095   0.0000000), wk =   0.1111111
        k(    4) = (   0.0000000  -0.1053143   0.0000000), wk =   0.0555556
        k(    5) = (   0.0304016  -0.0175524   0.0000000), wk =   0.1111111
        k(    6) = (   0.0304016   0.0175524   0.0000000), wk =   0.1111111
        k(    7) = (   0.0304016   0.0526572   0.0000000), wk =   0.1111111
        k(    8) = (   0.0304016  -0.1228667   0.0000000), wk =   0.1111111
        k(    9) = (   0.0304016  -0.0877619   0.0000000), wk =   0.1111111
        k(   10) = (   0.0304016  -0.0526572   0.0000000), wk =   0.1111111
        k(   11) = (   0.0608032  -0.0351048   0.0000000), wk =   0.1111111
        k(   12) = (   0.0608032   0.0000000   0.0000000), wk =   0.1111111
        k(   13) = (   0.0608032   0.0351048   0.0000000), wk =   0.1111111
        k(   14) = (   0.0608032  -0.1404191   0.0000000), wk =   0.1111111
        k(   15) = (   0.0608032  -0.1053143   0.0000000), wk =   0.1111111
        k(   16) = (   0.0608032  -0.0702095   0.0000000), wk =   0.1111111
        k(   17) = (  -0.0912049   0.0526572   0.0000000), wk =   0.0555556
        k(   18) = (  -0.0912049   0.0877619   0.0000000), wk =   0.1111111
        k(   19) = (  -0.0912049   0.1228667   0.0000000), wk =   0.1111111
        k(   20) = (  -0.0912049  -0.0526572   0.0000000), wk =   0.0555556

     Largest allocated arrays     est. size (Mb)     dimensions
     Largest temporary arrays     est. size (Mb)     dimensions

     Initial potential from superposition of free atoms
     Check: negative starting charge=   -4.366935

     starting charge  174.99961, renormalised to  181.00000

[...]

     *
     * You are using vdW-DF for exchange-correlation in this calculation.
     * Please cite the following three references that made this development
     * possible:
     *
     *   M. Dion, H. Rydberg, E. Schroder, D. C. Langreth, and
     *   B. I. Lundqvist, Phys. Rev. Lett. 92, 246401 (2004).
     *
     *   T. Thonhauser, V. R. Cooper, S. Li, A. Puzder, P. Hyldgaard, and
     *   D. C. Langreth, Phys. Rev. B 76, 125112 (2007).
     *
     *   G. Roman-Perez and J. M. Soler, Phys. Rev. Lett. 103, 096102 (2009).
     *
     *
     * If you are using vdW-DF2, please also cite:
     *
     *   K. Lee, E. D. Murray, L. Kong, B. I. Lundqvist, and
     *   D. C. Langreth, Phys. Rev. B 82, 081101(R) (2010).
     *
     *
     * If you are calculating the stress with vdW-DF, please also cite:
     *
     *   R. Sabatini, E. Kucukbenli, B. Kolb, T. Thonhauser, and
     *   S. de Gironcoli, J. Phys.: Condens. Matter 24, 424209 (2012).
     *

     Carrying out vdW-DF run using the following parameters:

     Nqs =      20    Nr_points =    1024   r_max =   100.000
     q_mesh =
               0.00001000     0.04494208     0.09755937     0.15916263
               0.23128650     0.31572767     0.41458969     0.53033537
               0.66584808     0.82450364     1.01025438     1.22772762
               1.48234092     1.78043706     2.12944203     2.53805004
               3.01644009     3.57652955     4.23227104     5.00000000

     Gradients computed in reciprocal space

[...]

     Starting wfc are  145 randomized atomic wfcs

     Self-consistent Calculation

[...]

     total energy              =   -2200.95658793 Ry
     Harris-Foulkes estimate   =   -2200.95659416 Ry
     estimated scf accuracy    <       0.00011186 Ry

     iteration # 16     ecut=    36.75 Ry     beta=0.30
     Davidson diagonalization with overlap
     ethr =  6.18E-08,  avg # of iterations =  2.8

[...]

     negative rho (up, down):  3.880E+00 0.000E+00

     Adding external electric field

     Computed dipole along edir(3) :
        Dipole                0.0115 Ry au,          0.0293 Debye
        Dipole field          0.0000 Ry au

        Potential amp.       -0.0030 Ry
        Total length         45.0969 bohr

     End of self-consistent calculation

[...]

          k = 0.0608-0.0702 0.0000 ( 16191 PWs)   bands (ev):

[...]

          k =-0.0912-0.0527 0.0000 ( 16164 PWs)   bands (ev):

   -47.5661 -47.5610 -47.4887 -47.4843 -47.4398 -47.4314 -47.4054 -47.3960
   -47.3599 -47.3375 -47.1785 -47.1778 -47.1047 -47.0953 -47.0071 -47.0047
   -46.9856 -46.9777 -46.8993 -46.8759 -46.8433 -46.8413 -46.8065 -46.8057
   -46.7871 -46.7758 -46.7706 -46.7562 -46.7388 -46.7218 -46.6792 -46.6783
   -46.6641 -46.6595 -46.6461 -46.6381  -5.3132  -5.2554  -4.3309  -3.7868
    -3.5570  -3.4797  -3.4450  -3.3941  -3.3700  -3.3505  -3.1186  -2.8025
    -2.7765  -2.4740  -2.4107  -2.3184  -2.2707  -2.0015  -1.9772  -1.9285
    -1.8724  -1.5658  -1.4988  -1.0941  -1.0435  -0.7613  -0.7203  -0.6935
    -0.6405  -0.6050  -0.5114  -0.3440  -0.3029  -0.2693  -0.2579  -0.2456
    -0.2026  -0.1714  -0.1390  -0.0992   0.5603   0.5826   0.6843   0.8167
     0.9333   0.9527   1.1509   1.2011   1.3666   1.4459   1.5810   1.6183
     1.7937   1.9983   2.0144   2.0408   2.1410   2.1606   2.7518   2.8289
     3.1497   3.1699   3.4391   3.4837

     the Fermi energy is     2.4597 ev

!    total energy              =   -2200.95658848 Ry
     Harris-Foulkes estimate   =   -2200.95659441 Ry
     estimated scf accuracy    <       0.00000550 Ry

     The total energy is the sum of the following terms:

     one-electron contribution =  -18598.33420744 Ry
     hartree contribution      =    9328.90140164 Ry
     xc contribution           =    -624.45696183 Ry
     ewald contribution        =    7693.03169704 Ry
     electric field correction =       0.00000039 Ry
     smearing contrib. (-TS)   =      -0.09851829 Ry

     convergence has been achieved in  16 iterations

 BEEF-vdW xc energy contributions
           1 :   -553.188578106383
           2 :    514.792503701164
           3 :   -446.047174134853
           4 :    360.365974952042
           5 :   -272.579976406103
           6 :    195.114040176145
           7 :   -135.340814214042
           8 :    94.7273884002084
           9 :   -69.8252133840579
          10 :    54.5384568136298
          11 :   -42.7429058637385
          12 :    30.3231303001896
          13 :   -16.0494141076908
          14 :    1.21729123203136
          15 :    11.5775307999373
          16 :   -19.9275789921212
          17 :    22.7636992629091
          18 :   -20.7801597951353
          19 :    16.0720463283510
          20 :   -11.2384071354784
          21 :    8.37131576858565
          22 :   -8.34157359267692
          23 :    10.6317683049886
          24 :   -13.7352781560422
          25 :    15.9103259178366
          26 :   -15.9544550177948
          27 :    13.6785836412758
          28 :   -9.91021150186270
          29 :    6.06352200109700
          30 :   -3.49372729744914
          31 :   -47.3651411854897
          32 :   -35.5358133318524

     Forces acting on atoms (Ry/au):

     negative rho (up, down):  3.880E+00 0.000E+00
     atom    1 type  1   force =    -0.00001099   -0.00054043    0.01669837
     atom    2 type  1   force =     0.00001273   -0.00208179    0.01589336
     atom    3 type  1   force =     0.00184375    0.00008314    0.01497549
     atom    4 type  1   force =    -0.00184648    0.00007174    0.01499331
     atom    5 type  1   force =    -0.00015763   -0.00080085   -0.01911936
     atom    6 type  1   force =     0.00015313   -0.00080938   -0.01911609
     atom    7 type  1   force =    -0.00000453    0.00028287   -0.00949797
     atom    8 type  1   force =     0.00000142    0.00075863   -0.01399867
     atom    9 type  1   force =    -0.00011849    0.00049130   -0.00038003
     atom   10 type  1   force =     0.00012299    0.00047642   -0.00045399
     atom   11 type  1   force =    -0.00000995    0.00039938    0.00005927
     atom   12 type  1   force =     0.00000912    0.00062976    0.00005353
     atom   13 type  2   force =     0.00000494    0.00103922   -0.00010722

     Total force =     0.044873     Total SCF correction =     0.018718
     SCF correction compared to forces is large: reduce conv_thr to get better values

     entering subroutine stress ...

     negative rho (up, down):  3.880E+00 0.000E+00
          total   stress  (Ry/bohr**3)                   (kbar)     P=  -27.20
  -0.00022986   0.00000000   0.00000001        -33.81      0.00      0.00
   0.00000000  -0.00021215   0.00000588          0.00    -31.21      0.87
   0.00000001   0.00000588  -0.00011275          0.00      0.87    -16.59

 !ASE

     Writing output data file calc.save

     General routines

     Parallel routines

   This run was terminated on:  23:30: 2  13Jan2018

   JOB DONE.
Job  /afs/slac/g/suncat/bin/suncat-tsmpirun -x LD_LIBRARY_PATH -wdir /scratch/qe842452_ljFnO pw.x -in pw.inp

TID   HOST_NAME   COMMAND_LINE            STATUS            TERMINATION_TIME
00000 suncat0253 pw.x -in pw.inp   Done                     01/13/2018 23:30:02
00001 suncat0253 pw.x -in pw.inp   Done                     01/13/2018 23:30:02
00002 suncat0253 pw.x -in pw.inp   Done                     01/13/2018 23:30:02
00003 suncat0253 pw.x -in pw.inp   Done                     01/13/2018 23:30:02
00004 suncat0253 pw.x -in pw.inp   Done                     01/13/2018 23:30:02
00005 suncat0253 pw.x -in pw.inp   Done                     01/13/2018 23:30:02
00006 suncat0253 pw.x -in pw.inp   Done                     01/13/2018 23:30:02
00007 suncat0253 pw.x -in pw.inp   Done                     01/13/2018 23:30:02
00008 suncat0249 pw.x -in pw.inp   Done                     01/13/2018 23:30:02
00009 suncat0249 pw.x -in pw.inp   Done                     01/13/2018 23:30:02
00010 suncat0249 pw.x -in pw.inp   Done                     01/13/2018 23:30:02
00011 suncat0249 pw.x -in pw.inp   Done                     01/13/2018 23:30:02
00012 suncat0249 pw.x -in pw.inp   Done                     01/13/2018 23:30:02
00013 suncat0249 pw.x -in pw.inp   Done                     01/13/2018 23:30:02
00014 suncat0249 pw.x -in pw.inp   Done                     01/13/2018 23:30:02
00015 suncat0249 pw.x -in pw.inp   Done                     01/13/2018 23:30:02
00016 suncat0248 pw.x -in pw.inp   Done                     01/13/2018 23:30:02
00017 suncat0248 pw.x -in pw.inp   Done                     01/13/2018 23:30:02
00018 suncat0248 pw.x -in pw.inp   Done                     01/13/2018 23:30:02
00019 suncat0248 pw.x -in pw.inp   Done                     01/13/2018 23:30:02
00020 suncat0248 pw.x -in pw.inp   Done                     01/13/2018 23:30:02
00021 suncat0248 pw.x -in pw.inp   Done                     01/13/2018 23:30:02
00022 suncat0248 pw.x -in pw.inp   Done                     01/13/2018 23:30:02
00023 suncat0248 pw.x -in pw.inp   Done                     01/13/2018 23:30:02
00024 suncat0247 pw.x -in pw.inp   Done                     01/13/2018 23:30:02
00025 suncat0247 pw.x -in pw.inp   Done                     01/13/2018 23:30:02
00026 suncat0247 pw.x -in pw.inp   Done                     01/13/2018 23:30:02
00027 suncat0247 pw.x -in pw.inp   Done                     01/13/2018 23:30:02
00028 suncat0247 pw.x -in pw.inp   Done                     01/13/2018 23:30:02
00029 suncat0247 pw.x -in pw.inp   Done                     01/13/2018 23:30:02
00030 suncat0247 pw.x -in pw.inp   Done                     01/13/2018 23:30:02
00031 suncat0247 pw.x -in pw.inp   Done                     01/13/2018 23:30:02