     Program PWSCF v.5.1rc2 (svn rev. 11289) starts on 11Jan2019 at 13: 6:58

     Current dimensions of program PWSCF are:
     Max number of different atomic species (ntypx) = 10
     Max number of k-points (npk) =  40000
     Max angular momentum in pseudopotentials (lmaxx) =  3

     IMPORTANT: XC functional enforced from input :
     Exchange-correlation      = BEEF-VDW ( 1  4 27 13 2)
     Any further DFT definition will be discarded
     Please, verify this is what you really want

     Subspace diagonalization in iterative solution of the eigenvalue problem:
     a serial algorithm will be used

     Generating pointlists ...
     new r_m :   0.1311 (alat units)  1.2421 (a.u.) for type    1
     new r_m :   0.1311 (alat units)  1.2421 (a.u.) for type    2

     bravais-lattice index     =            0
     lattice parameter (alat)  =       9.4723  a.u.
     unit-cell volume          =    3537.7769 (a.u.)^3
     number of atoms/cell      =           13
     number of atomic types    =            2
     number of electrons       =       208.00
     number of Kohn-Sham states=          114
     kinetic-energy cutoff     =      36.7493  Ry
     charge density cutoff     =     367.4933  Ry
     convergence threshold     =      1.0E-04
     mixing beta               =       0.1000
     number of iterations used =            8  plain     mixing
     Exchange-correlation      = BEEF-VDW ( 1  4 27 13 2)
     nstep                     =           50

     celldm(1)=   9.472344  celldm(2)=   0.000000  celldm(3)=   0.000000
     celldm(4)=   0.000000  celldm(5)=   0.000000  celldm(6)=   0.000000

     crystal axes: (cart. coord. in units of alat)
               a(1) = (   1.000000   0.000000   0.000000 )
               a(2) = (   0.500000   0.866025   0.000000 )
               a(3) = (   0.000000   0.000000   4.806483 )

     reciprocal axes: (cart. coord. in units 2 pi/alat)
               b(1) = (  1.000000 -0.577350  0.000000 )
               b(2) = (  0.000000  1.154701  0.000000 )
               b(3) = (  0.000000  0.000000  0.208052 )

     PseudoPot. # 1 for Co read from file:
     /u/if/jboes/code/decaf-espresso/gbrv15pbe/Co.UPF
     MD5 check sum: 5f91765df6ddd3222702df6e7b74a16d
     Pseudo is Ultrasoft + core correction, Zval = 17.0
     Generated by new atomic code, or converted to UPF format
     Using radial grid of  863 points,  6 beta functions with:
                l(1) =   0
                l(2) =   0
                l(3) =   1
                l(4) =   1
                l(5) =   2
                l(6) =   2
     Q(r) pseudized with  8 coefficients,  rinner =    1.200   1.200   1.200
                                                       1.200   1.200

     PseudoPot. # 2 for C  read from file:
     /u/if/jboes/code/decaf-espresso/gbrv15pbe/C.UPF
     MD5 check sum: d1aef80898a10debaa0f26306b886e00
     Pseudo is Ultrasoft + core correction, Zval =  4.0
     Generated by new atomic code, or converted to UPF format
     Using radial grid of  721 points,  4 beta functions with:
                l(1) =   0
                l(2) =   0
                l(3) =   1
                l(4) =   1
     Q(r) pseudized with  8 coefficients,  rinner =    1.100   1.100   1.100

     vdW kernel table read from file vdW_kernel_table
     MD5 check sum: 095c7af220d748ca6e76c0b4c6cfb241

     atomic species   valence    mass     pseudopotential
        Co            17.00    58.93319     Co( 1.00)
        C              4.00    12.01100     C ( 1.00)

     Starting magnetic structure
     atomic species   magnetization
        Co           0.118
        C            0.000

     No symmetry found

   Cartesian axes

     site n.     atom                  positions (alat units)
         1           Co  tau(   1) = (   0.2500000   0.1443376   1.9949931  )
         2           Co  tau(   2) = (   0.7500000   0.1443376   1.9949931  )
         3           Co  tau(   3) = (   0.5000000   0.5773503   1.9949931  )
         4           Co  tau(   4) = (   1.0000000   0.5773503   1.9949931  )
         5           Co  tau(   5) = (   1.0000000   0.2886751   2.4032414  )
         6           Co  tau(   6) = (   0.5000000   0.2886751   2.4032414  )
         7           Co  tau(   7) = (   1.2500000   0.7216878   2.4032414  )
         8           Co  tau(   8) = (   0.7500000   0.7216878   2.4032414  )
         9           Co  tau(   9) = (   0.0000030  -0.0000016   2.8232950  )
        10           Co  tau(  10) = (   0.4999964  -0.0002215   2.8067333  )
        11           Co  tau(  11) = (   0.2498096   0.4331231   2.8067135  )
        12           Co  tau(  12) = (   0.7501912   0.4331282   2.8067148  )
        13           C   tau(  13) = (  -0.0000002  -0.0000019   3.1411913  )

     number of k points=    40  Fermi-Dirac smearing, width (Ry)=  0.0110
                       cart. coord. in units 2pi/alat
        k(    1) = (   0.0000000   0.0000000   0.0000000), wk =   0.0277778
        k(    2) = (   0.0000000   0.1924501   0.0000000), wk =   0.0555556
        k(    3) = (   0.0000000   0.3849002   0.0000000), wk =   0.0555556
        k(    4) = (   0.0000000  -0.5773503   0.0000000), wk =   0.0277778
        k(    5) = (   0.1666667  -0.0962250   0.0000000), wk =   0.0555556
        k(    6) = (   0.1666667   0.0962250   0.0000000), wk =   0.0555556
        k(    7) = (   0.1666667   0.2886751   0.0000000), wk =   0.0555556
        k(    8) = (   0.1666667  -0.6735753   0.0000000), wk =   0.0555556
        k(    9) = (   0.1666667  -0.4811252   0.0000000), wk =   0.0555556
        k(   10) = (   0.1666667  -0.2886751   0.0000000), wk =   0.0555556
        k(   11) = (   0.3333333  -0.1924501   0.0000000), wk =   0.0555556
        k(   12) = (   0.3333333  -0.0000000   0.0000000), wk =   0.0555556
        k(   13) = (   0.3333333   0.1924501   0.0000000), wk =   0.0555556
        k(   14) = (   0.3333333  -0.7698004   0.0000000), wk =   0.0555556
        k(   15) = (   0.3333333  -0.5773503   0.0000000), wk =   0.0555556
        k(   16) = (   0.3333333  -0.3849002   0.0000000), wk =   0.0555556
        k(   17) = (  -0.5000000   0.2886751   0.0000000), wk =   0.0277778
        k(   18) = (  -0.5000000   0.4811252   0.0000000), wk =   0.0555556
        k(   19) = (  -0.5000000   0.6735753   0.0000000), wk =   0.0555556
        k(   20) = (  -0.5000000  -0.2886751   0.0000000), wk =   0.0277778
        k(   21) = (   0.0000000   0.0000000   0.0000000), wk =   0.0277778
        k(   22) = (   0.0000000   0.1924501   0.0000000), wk =   0.0555556
        k(   23) = (   0.0000000   0.3849002   0.0000000), wk =   0.0555556
        k(   24) = (   0.0000000  -0.5773503   0.0000000), wk =   0.0277778
        k(   25) = (   0.1666667  -0.0962250   0.0000000), wk =   0.0555556
        k(   26) = (   0.1666667   0.0962250   0.0000000), wk =   0.0555556
        k(   27) = (   0.1666667   0.2886751   0.0000000), wk =   0.0555556
        k(   28) = (   0.1666667  -0.6735753   0.0000000), wk =   0.0555556
        k(   29) = (   0.1666667  -0.4811252   0.0000000), wk =   0.0555556
        k(   30) = (   0.1666667  -0.2886751   0.0000000), wk =   0.0555556
        k(   31) = (   0.3333333  -0.1924501   0.0000000), wk =   0.0555556
        k(   32) = (   0.3333333  -0.0000000   0.0000000), wk =   0.0555556
        k(   33) = (   0.3333333   0.1924501   0.0000000), wk =   0.0555556
        k(   34) = (   0.3333333  -0.7698004   0.0000000), wk =   0.0555556
        k(   35) = (   0.3333333  -0.5773503   0.0000000), wk =   0.0555556
        k(   36) = (   0.3333333  -0.3849002   0.0000000), wk =   0.0555556
        k(   37) = (  -0.5000000   0.2886751   0.0000000), wk =   0.0277778
        k(   38) = (  -0.5000000   0.4811252   0.0000000), wk =   0.0555556
        k(   39) = (  -0.5000000   0.6735753   0.0000000), wk =   0.0555556
        k(   40) = (  -0.5000000  -0.2886751   0.0000000), wk =   0.0277778

     Largest allocated arrays     est. size (Mb)     dimensions
     Largest temporary arrays     est. size (Mb)     dimensions

     Check: negative/imaginary core charge=   -0.000007    0.000000

     Initial potential from superposition of free atoms
     Check: negative starting charge=(component1):   -0.000186
     Check: negative starting charge=(component2):   -0.000148

     starting charge  195.99988, renormalised to  208.00000

     negative rho (up, down):  1.977E-04 1.571E-04

     *
     * You are using vdW-DF for exchange-correlation in this calculation.
     * Please cite the following three references that made this development
     * possible:
     *
     *   M. Dion, H. Rydberg, E. Schroder, D. C. Langreth, and
     *   B. I. Lundqvist, Phys. Rev. Lett. 92, 246401 (2004).
     *
     *   T. Thonhauser, V. R. Cooper, S. Li, A. Puzder, P. Hyldgaard, and
     *   D. C. Langreth, Phys. Rev. B 76, 125112 (2007).
     *
     *   G. Roman-Perez and J. M. Soler, Phys. Rev. Lett. 103, 096102 (2009).
     *
     *
     * If you are using vdW-DF2, please also cite:
     *
     *   K. Lee, E. D. Murray, L. Kong, B. I. Lundqvist, and
     *   D. C. Langreth, Phys. Rev. B 82, 081101(R) (2010).
     *
     *
     * If you are calculating the stress with vdW-DF, please also cite:
     *
     *   R. Sabatini, E. Kucukbenli, B. Kolb, T. Thonhauser, and
     *   S. de Gironcoli, J. Phys.: Condens. Matter 24, 424209 (2012).
     *

     Carrying out vdW-DF run using the following parameters:

     Nqs =      20    Nr_points =    1024   r_max =   100.000
     q_mesh =
               0.00001000     0.04494208     0.09755937     0.15916263
               0.23128650     0.31572767     0.41458969     0.53033537
               0.66584808     0.82450364     1.01025438     1.22772762
               1.48234092     1.78043706     2.12944203     2.53805004
               3.01644009     3.57652955     4.23227104     5.00000000

     Gradients computed in reciprocal space

     Adding external electric field

     Computed dipole along edir(3) :
        Dipole               -1.7121 Ry au,         -4.3516 Debye
        Dipole field         -0.0061 Ry au

        Potential amp.        0.4984 Ry
        Total length         40.9758 bohr

[...]

     Starting wfc are  160 randomized atomic wfcs

     Self-consistent Calculation

     iteration #  1     ecut=    36.75 Ry     beta=0.10
     Davidson diagonalization with overlap
     ethr =  1.00E-02,  avg # of iterations =  7.3

[...]

     Magnetic moment per site:
     atom:    1    charge:   13.4907    magn:    1.5368    constr:    0.0000
     atom:    2    charge:   13.4908    magn:    1.5368    constr:    0.0000
     atom:    3    charge:   13.4907    magn:    1.5368    constr:    0.0000
     atom:    4    charge:   13.4897    magn:    1.5352    constr:    0.0000
     atom:    5    charge:   13.3972    magn:    1.5244    constr:    0.0000
     atom:    6    charge:   13.3992    magn:    1.5225    constr:    0.0000
     atom:    7    charge:   13.3972    magn:    1.5244    constr:    0.0000
     atom:    8    charge:   13.3973    magn:    1.5244    constr:    0.0000
     atom:    9    charge:   13.3104    magn:    1.4845    constr:    0.0000
     atom:   10    charge:   13.2390    magn:    1.4924    constr:    0.0000
     atom:   11    charge:   13.2390    magn:    1.4924    constr:    0.0000
     atom:   12    charge:   13.2390    magn:    1.4924    constr:    0.0000
     atom:   13    charge:    1.9917    magn:    0.0067    constr:    0.0000

     total energy              =   -3510.55128587 Ry
     Harris-Foulkes estimate   =   -3630.50843166 Ry
     estimated scf accuracy    <     666.65478305 Ry

     total magnetization       =     9.64 Bohr mag/cell
     absolute magnetization    =    10.37 Bohr mag/cell

[...]

     End of self-consistent calculation

 ------ SPIN UP ------------

          k = 0.0000 0.0000 0.0000 ( 13257 PWs)   bands (ev):

   -95.8648 -95.8204 -95.8012 -95.8007 -95.6626 -95.6567 -95.6348 -95.6338
   -95.6333 -95.6326 -95.6239 -95.2390 -59.2140 -59.2138 -59.1883 -59.1499
   -59.1136 -59.0993 -59.0989 -59.0284 -59.0284 -59.0200 -59.0155 -58.9861
   -58.9693 -58.9690 -58.9681 -58.9603 -58.9592 -58.9551 -58.9549 -58.9548
   -58.9400 -58.9398 -58.9312 -58.8945 -58.8930 -58.8923 -58.8594 -58.8097
   -58.8049 -58.8042 -58.8009 -58.8001 -58.7538 -58.7538 -58.2651 -58.2650
    -9.0786  -7.2243  -5.3241  -4.5046  -4.2787  -4.2786  -4.2635  -4.0555
    -4.0554  -4.0230  -3.7375  -3.7374  -3.7235  -3.5684  -3.5052  -3.5050
    -3.1599  -3.1597  -2.8956  -2.5069  -2.4710  -2.4709  -2.3126  -2.2122
    -2.1634  -2.1634  -2.0235  -2.0206  -2.0205  -1.9906  -1.9260  -1.9259
    -1.7717  -1.7715  -1.7482  -1.7479  -1.5098  -1.5097  -1.1834  -1.1462
    -1.1459  -1.1293  -1.1173  -1.1173  -0.8734  -0.8730  -0.8198  -0.6310
    -0.6308  -0.5590  -0.5587  -0.5544  -0.4869  -0.4868  -0.2992  -0.2991
    -0.2950  -0.2123  -0.1172  -0.0725  -0.0720  -0.0673   0.1324   0.1327
     0.7553   0.7554

[...]

          k =-0.5000 0.2887 0.0000 ( 13378 PWs)   bands (ev):

[...]

 ------ SPIN DOWN ----------

[...]

     the Fermi energy is     0.6841 ev

!    total energy              =   -3605.66970153 Ry
     Harris-Foulkes estimate   =   -3605.66969362 Ry
     estimated scf accuracy    <       0.00009732 Ry

     The total energy is the sum of the following terms:

     one-electron contribution =  -31623.79456276 Ry
     hartree contribution      =   15817.98592738 Ry
     xc contribution           =    -408.70708441 Ry
     ewald contribution        =   12608.92386014 Ry
     electric field correction =       0.00011094 Ry
     smearing contrib. (-TS)   =      -0.07795283 Ry

[...]

     convergence has been achieved in  31 iterations

     Forces acting on atoms (Ry/au):

     negative rho (up, down):  6.204E-04 3.296E-04
     atom    1 type  1   force =    -0.00032947   -0.00015608    0.01827917
     atom    2 type  1   force =     0.00031468   -0.00026354    0.01863944
     atom    3 type  1   force =    -0.00009750    0.00039175    0.01867279
     atom    4 type  1   force =     0.00009905    0.00002962    0.02129416
     atom    5 type  1   force =    -0.00016939    0.00471473   -0.00981145
     atom    6 type  1   force =     0.00017451    0.00040270   -0.01118662
     atom    7 type  1   force =    -0.00373686   -0.00245834   -0.01019735
     atom    8 type  1   force =     0.00374532   -0.00265806   -0.01008072
     atom    9 type  1   force =    -0.00012699   -0.00004816    0.00229406
     atom   10 type  1   force =     0.00014486   -0.00148347   -0.01362038
     atom   11 type  1   force =    -0.00121074    0.00085133   -0.01364881
     atom   12 type  1   force =     0.00119374    0.00067350   -0.01380624
     atom   13 type  2   force =    -0.00000121    0.00000403    0.00317196

     Total force =     0.024167     Total SCF correction =     0.027446
     SCF correction compared to forces is large: reduce conv_thr to get better values

     BFGS Geometry Optimization

     number of scf cycles    =   1
     number of bfgs steps    =   0

     energy   new            =   -3605.6697015311 Ry

     new trust radius        =       0.0138741108 bohr
     new conv_thr            =       0.0001000000 Ry

ATOMIC_POSITIONS (angstrom)
Co       1.253137179   0.723499087  10.000000000    0   0   0
Co       3.759411536   0.723499087  10.000000000    0   0   0
Co       2.506274357   2.893996350  10.000000000    0   0   0
Co       5.012548715   2.893996350  10.000000000    0   0   0
Co       5.012548715   1.446998175  12.046364444    0   0   0
Co       2.506274357   1.446998175  12.046364444    0   0   0
Co       6.265685894   3.617495438  12.046364444    0   0   0
Co       3.759411536   3.617495438  12.046364444    0   0   0
Co      -0.000052266  -0.000033587  14.153117829
Co       2.506332904  -0.001895074  14.061679665
Co       1.251542118   2.171501249  14.061565335
Co       3.761001748   2.171432493  14.061488940
C       -0.000001592  -0.000007227  15.747053100

     Writing output data file calc.save
     Check: negative starting charge=(component1):   -0.000334
     NEW-OLD atomic charge density approx. for the potential

     Check: negative/imaginary core charge=   -0.000007    0.000000
     Check: negative starting charge=(component1):   -0.000333

[...]

     energy   old            =   -3605.6697015311 Ry
     energy   new            =   -3605.6700090753 Ry

     CASE: energy  _new < energy  _old

[...]

     number of scf cycles    =   6
     number of bfgs steps    =   5

     energy   old            =   -3605.6706319841 Ry
     energy   new            =   -3605.6706548898 Ry

     CASE: energy  _new < energy  _old

     new trust radius        =       0.0027372415 bohr
     new conv_thr            =       0.0000010000 Ry

ATOMIC_POSITIONS (angstrom)
Co       1.253137179   0.723499087  10.000000000    0   0   0
Co       3.759411536   0.723499087  10.000000000    0   0   0
Co       2.506274357   2.893996350  10.000000000    0   0   0
Co       5.012548715   2.893996350  10.000000000    0   0   0
Co       5.012548715   1.446998175  12.046364444    0   0   0
Co       2.506274358   1.446998175  12.046364444    0   0   0
Co       6.265685894   3.617495437  12.046364444    0   0   0
Co       3.759411536   3.617495437  12.046364444    0   0   0
Co      -0.000025473   0.000010178  14.154549418
Co       2.506253014  -0.003727361  14.030668745
Co       1.249871226   2.172355068  14.030566402
Co       3.762641065   2.172352535  14.030720035
C        0.000028719   0.000006935  15.746823352

     Writing output data file calc.save
     Check: negative starting charge=(component1):   -0.000328
     NEW-OLD atomic charge density approx. for the potential

     Check: negative/imaginary core charge=   -0.000007    0.000000
     Check: negative starting charge=(component1):   -0.000328

[...]

     Self-consistent Calculation

[...]

     total energy              =   -3605.67065931 Ry
     Harris-Foulkes estimate   =   -3605.67065923 Ry
     estimated scf accuracy    <       0.00000161 Ry

[...]

     iteration #  8     ecut=    36.75 Ry     beta=0.10
     Davidson diagonalization with overlap
     ethr =  5.02E-10,  avg # of iterations =  1.0

     negative rho (up, down):  6.078E-04 3.246E-04

[...]

     Adding external electric field

     Computed dipole along edir(3) :
        Dipole               -0.1650 Ry au,         -0.4194 Debye
        Dipole field         -0.0006 Ry au

        Potential amp.        0.0480 Ry
        Total length         40.9758 bohr

     Magnetic moment per site:
     atom:    1    charge:   13.0471    magn:    1.6061    constr:    0.0000
     atom:    2    charge:   13.0468    magn:    1.6064    constr:    0.0000
     atom:    3    charge:   13.0468    magn:    1.6063    constr:    0.0000
     atom:    4    charge:   13.0471    magn:    1.5943    constr:    0.0000
     atom:    5    charge:   13.0381    magn:    1.5798    constr:    0.0000
     atom:    6    charge:   13.0373    magn:    1.6044    constr:    0.0000
     atom:    7    charge:   13.0382    magn:    1.5797    constr:    0.0000
     atom:    8    charge:   13.0382    magn:    1.5797    constr:    0.0000
     atom:    9    charge:   13.0505    magn:    0.3973    constr:    0.0000
     atom:   10    charge:   13.0305    magn:    1.5771    constr:    0.0000
     atom:   11    charge:   13.0301    magn:    1.5774    constr:    0.0000
     atom:   12    charge:   13.0305    magn:    1.5772    constr:    0.0000
     atom:   13    charge:    1.8864    magn:   -0.1292    constr:    0.0000

     End of self-consistent calculation

 ------ SPIN UP ------------

[...]

 ------ SPIN DOWN ----------

[...]

          k = 0.3333-0.3849 0.0000 ( 13313 PWs)   bands (ev):

[...]

          k =-0.5000-0.2887 0.0000 ( 13378 PWs)   bands (ev):

   -94.6023 -93.4118 -93.4089 -93.3926 -93.3907 -93.2541 -93.2458 -93.2375
   -93.2107 -93.2083 -93.1933 -93.1913 -58.6015 -57.5826 -57.5762 -56.8463
   -56.8425 -56.8108 -56.8036 -56.7922 -56.7822 -56.7733 -56.7643 -56.7512
   -56.7455 -56.6787 -56.6690 -56.6682 -56.6381 -56.6280 -56.6226 -56.6088
   -56.6050 -56.6035 -56.5703 -56.5689 -56.5549 -56.5546 -56.5497 -56.5440
   -56.5391 -56.5286 -56.5205 -56.5190 -56.5176 -56.5165 -56.4794 -56.4755
    -9.2187  -5.6024  -5.4929  -3.8724  -3.6955  -3.1491  -3.0455  -2.9046
    -2.7756  -2.6447  -2.4629  -2.4000  -2.3138  -2.1146  -1.8485  -1.7975
    -1.7806  -1.6687  -1.4993  -1.3754  -1.2774  -1.2098  -1.1872  -1.1620
    -1.0557  -0.9967  -0.8499  -0.6474  -0.6438  -0.6117  -0.5938  -0.5755
    -0.4665  -0.4606  -0.3332  -0.3139  -0.1802  -0.1513  -0.0789  -0.0593
     0.0279   0.0820   0.4130   0.4857   0.5169   0.5974   0.6068   0.6763
     0.6972   0.7964   0.8633   0.9029   0.9246   0.9691   1.0604   1.0914
     1.2026   1.2086   1.2760   1.4176   1.5694   1.6067   1.7181   1.7560
     1.8296   2.1515

     the Fermi energy is     0.6646 ev

!    total energy              =   -3605.67065874 Ry
     Harris-Foulkes estimate   =   -3605.67065515 Ry
     estimated scf accuracy    <       0.00000089 Ry

     The total energy is the sum of the following terms:

     one-electron contribution =  -31736.23568809 Ry
     hartree contribution      =   15874.12622138 Ry
     xc contribution           =    -408.73521372 Ry
     ewald contribution        =   12665.25097074 Ry
     electric field correction =       0.00009671 Ry
     smearing contrib. (-TS)   =      -0.07704575 Ry

     total magnetization       =    18.91 Bohr mag/cell
     absolute magnetization    =    21.89 Bohr mag/cell

     convergence has been achieved in   8 iterations

     Forces acting on atoms (Ry/au):

     negative rho (up, down):  6.078E-04 3.246E-04
     atom    1 type  1   force =     0.00024287    0.00016701    0.00962495
     atom    2 type  1   force =    -0.00024604    0.00016624    0.00961698
     atom    3 type  1   force =    -0.00000255   -0.00031105    0.00960098
     atom    4 type  1   force =    -0.00000218   -0.00002846    0.01237605
     atom    5 type  1   force =    -0.00000910    0.00276955   -0.00964620
     atom    6 type  1   force =     0.00000468    0.00005924   -0.01301789
     atom    7 type  1   force =    -0.00234908   -0.00141350   -0.00970057
     atom    8 type  1   force =     0.00234276   -0.00142044   -0.00969179
     atom    9 type  1   force =     0.00000779    0.00002646    0.00050751
     atom   10 type  1   force =     0.00000817    0.00021969   -0.00027560
     atom   11 type  1   force =     0.00018546   -0.00011323   -0.00025288
     atom   12 type  1   force =    -0.00018297   -0.00011968   -0.00031367
     atom   13 type  2   force =     0.00000020   -0.00000182    0.00117214

     Total force =     0.001419     Total SCF correction =     0.006482
     SCF correction compared to forces is large: reduce conv_thr to get better values

     bfgs converged in   7 scf cycles and   6 bfgs steps
     (criteria: energy <  1.0E+12, force <  1.9E-03)

     End of BFGS Geometry Optimization

     Final energy   =   -3605.6706587384 Ry
Begin final coordinates

ATOMIC_POSITIONS (angstrom)
Co       1.253137179   0.723499087  10.000000000    0   0   0
Co       3.759411536   0.723499087  10.000000000    0   0   0
Co       2.506274357   2.893996350  10.000000000    0   0   0
Co       5.012548715   2.893996350  10.000000000    0   0   0
Co       5.012548715   1.446998175  12.046364444    0   0   0
Co       2.506274358   1.446998175  12.046364444    0   0   0
Co       6.265685894   3.617495437  12.046364444    0   0   0
Co       3.759411536   3.617495437  12.046364444    0   0   0
Co      -0.000025473   0.000010178  14.154549418
Co       2.506253014  -0.003727361  14.030668745
Co       1.249871226   2.172355068  14.030566402
Co       3.762641065   2.172352535  14.030720035
C        0.000028719   0.000006935  15.746823352
End final coordinates

     Writing output data file calc.save

     General routines

     Parallel routines

   This run was terminated on:  13:57:52  11Jan2019

   JOB DONE.
Job  /afs/slac/g/suncat/bin/suncat-tsmpirun -x LD_LIBRARY_PATH -wdir /tmp/qe_623578q825mvne_scratch pw.x -npool 3 -in pw.pwi

TID   HOST_NAME   COMMAND_LINE            STATUS            TERMINATION_TIME
00000 suncat1032 pw.x -npool 3 -i  Done                     01/11/2019 13:57:52
00001 suncat1032 pw.x -npool 3 -i  Done                     01/11/2019 13:57:52
00002 suncat1032 pw.x -npool 3 -i  Done                     01/11/2019 13:57:52
00003 suncat1032 pw.x -npool 3 -i  Done                     01/11/2019 13:57:52
00004 suncat1032 pw.x -npool 3 -i  Done                     01/11/2019 13:57:52
00005 suncat1032 pw.x -npool 3 -i  Done                     01/11/2019 13:57:52
00006 suncat1032 pw.x -npool 3 -i  Done                     01/11/2019 13:57:52
00007 suncat1032 pw.x -npool 3 -i  Done                     01/11/2019 13:57:52
00008 suncat1032 pw.x -npool 3 -i  Done                     01/11/2019 13:57:52
00009 suncat1032 pw.x -npool 3 -i  Done                     01/11/2019 13:57:52
00010 suncat1032 pw.x -npool 3 -i  Done                     01/11/2019 13:57:52
00011 suncat1032 pw.x -npool 3 -i  Done                     01/11/2019 13:57:52
00012 suncat1018 pw.x -npool 3 -i  Done                     01/11/2019 13:57:52
00013 suncat1018 pw.x -npool 3 -i  Done                     01/11/2019 13:57:52
00014 suncat1018 pw.x -npool 3 -i  Done                     01/11/2019 13:57:52
00015 suncat1018 pw.x -npool 3 -i  Done                     01/11/2019 13:57:52
00016 suncat1018 pw.x -npool 3 -i  Done                     01/11/2019 13:57:52
00017 suncat1018 pw.x -npool 3 -i  Done                     01/11/2019 13:57:52
00018 suncat1018 pw.x -npool 3 -i  Done                     01/11/2019 13:57:52
00019 suncat1018 pw.x -npool 3 -i  Done                     01/11/2019 13:57:52
00020 suncat1018 pw.x -npool 3 -i  Done                     01/11/2019 13:57:52
00021 suncat1018 pw.x -npool 3 -i  Done                     01/11/2019 13:57:52
00022 suncat1018 pw.x -npool 3 -i  Done                     01/11/2019 13:57:52
00023 suncat1018 pw.x -npool 3 -i  Done                     01/11/2019 13:57:52
00024 suncat1017 pw.x -npool 3 -i  Done                     01/11/2019 13:57:52
00025 suncat1017 pw.x -npool 3 -i  Done                     01/11/2019 13:57:52
00026 suncat1017 pw.x -npool 3 -i  Done                     01/11/2019 13:57:52
00027 suncat1017 pw.x -npool 3 -i  Done                     01/11/2019 13:57:52
00028 suncat1017 pw.x -npool 3 -i  Done                     01/11/2019 13:57:52
00029 suncat1017 pw.x -npool 3 -i  Done                     01/11/2019 13:57:52
00030 suncat1017 pw.x -npool 3 -i  Done                     01/11/2019 13:57:52
00031 suncat1017 pw.x -npool 3 -i  Done                     01/11/2019 13:57:52
00032 suncat1017 pw.x -npool 3 -i  Done                     01/11/2019 13:57:52
00033 suncat1017 pw.x -npool 3 -i  Done                     01/11/2019 13:57:52
00034 suncat1017 pw.x -npool 3 -i  Done                     01/11/2019 13:57:52
00035 suncat1017 pw.x -npool 3 -i  Done                     01/11/2019 13:57:52