     Program PWSCF v.5.1rc2 (svn rev. 11289) starts on 16Jan2018 at 20:30:51

     Current dimensions of program PWSCF are:
     Max number of different atomic species (ntypx) = 10
     Max number of k-points (npk) =  40000
     Max angular momentum in pseudopotentials (lmaxx) =  3
     Presently stress not available with electric field

     IMPORTANT: XC functional enforced from input :
     Exchange-correlation      = BEEF-VDW ( 1  4 27 13 2)
     Any further DFT definition will be discarded
     Please, verify this is what you really want

     Subspace diagonalization in iterative solution of the eigenvalue problem:
     a serial algorithm will be used

     bravais-lattice index     =            0
     lattice parameter (alat)  =       1.8897  a.u.
     unit-cell volume          =    6501.5726 (a.u.)^3
     number of atoms/cell      =           13
     number of atomic types    =            2
     number of electrons       =       162.00
     number of Kohn-Sham states=           91
     kinetic-energy cutoff     =      36.7493  Ry
     charge density cutoff     =     367.4932  Ry
     convergence threshold     =      1.0E-05
     mixing beta               =       0.3000
     number of iterations used =           10  plain     mixing
     Exchange-correlation      = BEEF-VDW ( 1  4 27 13 2)
     nstep                     =           50

     celldm(1)=   1.889726  celldm(2)=   0.000000  celldm(3)=   0.000000
     celldm(4)=   0.000000  celldm(5)=   0.000000  celldm(6)=   0.000000

     crystal axes: (cart. coord. in units of alat)
               a(1) = (   6.617606   0.000000   0.000000 )
               a(2) = (   3.308803   5.731015   0.000000 )
               a(3) = (   0.000000   0.000000  25.403253 )

     reciprocal axes: (cart. coord. in units 2 pi/alat)
               b(1) = (  0.151112 -0.087245  0.000000 )
               b(2) = (  0.000000  0.174489  0.000000 )
               b(3) = (  0.000000  0.000000  0.039365 )

     PseudoPot. # 1 for In read from file:
     /afs/slac.stanford.edu/u/if/mamunm/psp/gbrv1.5pbe/In.UPF
     MD5 check sum: 90777abd96fbb83f2e67db2a40c566b9
     Pseudo is Ultrasoft + core correction, Zval = 13.0
     Generated by new atomic code, or converted to UPF format
     Using radial grid of  889 points,  6 beta functions with:
                l(1) =   0
                l(2) =   0
                l(3) =   1
                l(4) =   1
                l(5) =   2
                l(6) =   2
     Q(r) pseudized with  6 coefficients,  rinner =    1.400   1.400   1.400
                                                       1.400   1.400

     PseudoPot. # 2 for O  read from file:
     /afs/slac.stanford.edu/u/if/mamunm/psp/gbrv1.5pbe/O.UPF
     MD5 check sum: 734c27235a0248c51dbae37a1fbe46ec
     Pseudo is Ultrasoft + core correction, Zval =  6.0
     Generated by new atomic code, or converted to UPF format
     Using radial grid of  737 points,  5 beta functions with:
                l(1) =   0
                l(2) =   0
                l(3) =   1
                l(4) =   1
                l(5) =   2
     Q(r) pseudized with  8 coefficients,  rinner =    0.900   0.900   0.900
                                                       0.900   0.900

     vdW kernel table read from file vdW_kernel_table
     MD5 check sum: 095c7af220d748ca6e76c0b4c6cfb241

     atomic species   valence    mass     pseudopotential
        In1           13.00   114.81800     In( 1.00)
        O1             6.00    15.99900     O ( 1.00)

     No symmetry found

   Cartesian axes

     site n.     atom                  positions (alat units)
         1           In1 tau(   1) = (   1.6544016   0.9551692  10.0000000  )
         2           In1 tau(   2) = (   4.9632047   0.9551692  10.0000000  )
         3           In1 tau(   3) = (   3.3088031   3.8206768  10.0000000  )
         4           In1 tau(   4) = (   6.6176063   3.8206768  10.0000000  )
         5           In1 tau(   5) = (   6.6176063   1.9103384  12.7016265  )
         6           In1 tau(   6) = (   3.3088031   1.9103384  12.7016265  )
         7           In1 tau(   7) = (   8.2720078   4.7758460  12.7016265  )
         8           In1 tau(   8) = (   4.9632047   4.7758460  12.7016265  )
         9           In1 tau(   9) = (   0.0000000   0.0000000  15.4032529  )
        10           In1 tau(  10) = (   3.3088031   0.0000000  15.4032529  )
        11           In1 tau(  11) = (   1.6544016   2.8655076  15.4032529  )
        12           In1 tau(  12) = (   4.9632047   2.8655076  15.4032529  )
        13           O1  tau(  13) = (   1.6544016   0.9551692  17.4832529  )

     number of k points=    20  Fermi-Dirac smearing, width (Ry)=  0.0110
                       cart. coord. in units 2pi/alat
        k(    1) = (   0.0000000   0.0000000   0.0000000), wk =   0.0555556
        k(    2) = (   0.0000000   0.0290815   0.0000000), wk =   0.1111111
        k(    3) = (   0.0000000   0.0581631   0.0000000), wk =   0.1111111
        k(    4) = (   0.0000000  -0.0872446   0.0000000), wk =   0.0555556
        k(    5) = (   0.0251853  -0.0145408   0.0000000), wk =   0.1111111
        k(    6) = (   0.0251853   0.0145408   0.0000000), wk =   0.1111111
        k(    7) = (   0.0251853   0.0436223   0.0000000), wk =   0.1111111
        k(    8) = (   0.0251853  -0.1017853   0.0000000), wk =   0.1111111
        k(    9) = (   0.0251853  -0.0727038   0.0000000), wk =   0.1111111
        k(   10) = (   0.0251853  -0.0436223   0.0000000), wk =   0.1111111
        k(   11) = (   0.0503707  -0.0290815   0.0000000), wk =   0.1111111
        k(   12) = (   0.0503707   0.0000000   0.0000000), wk =   0.1111111
        k(   13) = (   0.0503707   0.0290815   0.0000000), wk =   0.1111111
        k(   14) = (   0.0503707  -0.1163261   0.0000000), wk =   0.1111111
        k(   15) = (   0.0503707  -0.0872446   0.0000000), wk =   0.1111111
        k(   16) = (   0.0503707  -0.0581631   0.0000000), wk =   0.1111111
        k(   17) = (  -0.0755560   0.0436223   0.0000000), wk =   0.0555556
        k(   18) = (  -0.0755560   0.0727038   0.0000000), wk =   0.1111111
        k(   19) = (  -0.0755560   0.1017853   0.0000000), wk =   0.1111111
        k(   20) = (  -0.0755560  -0.0436223   0.0000000), wk =   0.0555556

     Largest allocated arrays     est. size (Mb)     dimensions
     Largest temporary arrays     est. size (Mb)     dimensions

     Initial potential from superposition of free atoms
     Check: negative starting charge=   -0.000402

     starting charge  143.99999, renormalised to  162.00000

     negative rho (up, down):  4.517E-04 0.000E+00

     *
     * You are using vdW-DF for exchange-correlation in this calculation.
     * Please cite the following three references that made this development
     * possible:
     *
     *   M. Dion, H. Rydberg, E. Schroder, D. C. Langreth, and
     *   B. I. Lundqvist, Phys. Rev. Lett. 92, 246401 (2004).
     *
     *   T. Thonhauser, V. R. Cooper, S. Li, A. Puzder, P. Hyldgaard, and
     *   D. C. Langreth, Phys. Rev. B 76, 125112 (2007).
     *
     *   G. Roman-Perez and J. M. Soler, Phys. Rev. Lett. 103, 096102 (2009).
     *
     *
     * If you are using vdW-DF2, please also cite:
     *
     *   K. Lee, E. D. Murray, L. Kong, B. I. Lundqvist, and
     *   D. C. Langreth, Phys. Rev. B 82, 081101(R) (2010).
     *
     *
     * If you are calculating the stress with vdW-DF, please also cite:
     *
     *   R. Sabatini, E. Kucukbenli, B. Kolb, T. Thonhauser, and
     *   S. de Gironcoli, J. Phys.: Condens. Matter 24, 424209 (2012).
     *

     Carrying out vdW-DF run using the following parameters:

     Nqs =      20    Nr_points =    1024   r_max =   100.000
     q_mesh =
               0.00001000     0.04494208     0.09755937     0.15916263
               0.23128650     0.31572767     0.41458969     0.53033537
               0.66584808     0.82450364     1.01025438     1.22772762
               1.48234092     1.78043706     2.12944203     2.53805004
               3.01644009     3.57652955     4.23227104     5.00000000

     Gradients computed in reciprocal space

     Adding external electric field

     Computed dipole along edir(3) :
        Dipole               -6.7770 Ry au,        -17.2253 Debye
        Dipole field         -0.0131 Ry au

        Potential amp.        1.2262 Ry
        Total length         46.8051 bohr

     Starting wfc are  112 randomized atomic wfcs

     Self-consistent Calculation

     iteration #  1     ecut=    36.75 Ry     beta=0.30
     Davidson diagonalization with overlap
     ethr =  1.00E-02,  avg # of iterations =  8.1

[...]

     total energy              =   -1127.49291219 Ry
     Harris-Foulkes estimate   =   -1639.02994836 Ry
     estimated scf accuracy    <    1093.92910722 Ry

[...]

     End of self-consistent calculation

          k = 0.0000 0.0000 0.0000 ( 24345 PWs)   bands (ev):

   -15.7070 -15.4326 -15.4326 -15.4300 -15.3422 -15.3422 -15.3330 -15.3223
   -15.3214 -15.3214 -15.3204 -15.2736 -15.2706 -15.2706 -15.2540 -15.2540
   -15.2502 -15.2391 -15.2300 -15.2300 -15.2144 -15.2144 -15.2023 -15.2023
   -15.1936 -15.1762 -15.1656 -15.1656 -15.1437 -15.1437 -15.0952 -15.0768
   -15.0768 -15.0442 -15.0442 -15.0392 -15.0076 -15.0076 -15.0019 -15.0019
   -14.9983 -14.9622 -14.9622 -14.9522 -14.9522 -14.9498 -14.9437 -14.9283
   -14.9283 -14.9191 -14.9113 -14.9113 -14.8990 -14.8990 -14.8987 -14.8706
   -14.8706 -14.8637 -14.8263 -14.8263 -14.8219  -9.4390  -8.0003  -5.8563
    -4.6139  -4.6054  -4.6054  -4.3109  -4.3098  -4.3098  -3.0678  -3.0440
    -3.0440  -2.8186  -2.8161  -2.8161  -2.3345  -1.4925  -1.4535  -1.4535
    -1.0258  -1.0258  -0.9782  -0.3029  -0.3029  -0.0594   0.9980   2.4980
     2.4980   2.5372   2.7697

[...]

          k =-0.0756 0.0436 0.0000 ( 24448 PWs)   bands (ev):

[...]

     the Fermi energy is    -0.2545 ev

!    total energy              =   -1649.69839516 Ry
     Harris-Foulkes estimate   =   -1649.69845259 Ry
     estimated scf accuracy    <       0.00000198 Ry

     The total energy is the sum of the following terms:

     one-electron contribution =   -9396.00479800 Ry
     hartree contribution      =    4776.63305204 Ry
     xc contribution           =    -476.87713709 Ry
     ewald contribution        =    3446.59261772 Ry
     electric field correction =       0.00175657 Ry
     smearing contrib. (-TS)   =      -0.04388640 Ry

     convergence has been achieved in  30 iterations

 BEEF-vdW xc energy contributions
           1 :   -417.566641253144
           2 :    381.314266417733
           3 :   -320.252858608486
           4 :    251.693811855678
           5 :   -191.295734964544
           6 :    147.424432896912
           7 :   -119.661851174495
           8 :    101.517943838487
           9 :   -85.3717535642536
          10 :    66.7711917185125
          11 :   -45.9870011812789
          12 :    26.5318335068858
          13 :   -12.1141336145757
          14 :    4.13214147184186
          15 :   -1.09835686034381
          16 :  -5.964790454470403E-002
          17 :    1.98811152522967
          18 :   -5.54941441144894
          19 :    9.81444597031305
[...]

     Program PWSCF v.5.1rc2 (svn rev. 11289) starts on 16Jan2018 at 23:29: 3

[...]

   This run was terminated on:  23:40:52  16Jan2018

[...]

     Total force =     0.035990     Total SCF correction =     0.008075
     SCF correction compared to forces is large: reduce conv_thr to get better values

[...]

   This run was terminated on:  23:51: 8  16Jan2018

[...]

     Program PWSCF v.5.1rc2 (svn rev. 11289) starts on 16Jan2018 at 23:51:13

     Current dimensions of program PWSCF are:
     Max number of different atomic species (ntypx) = 10
     Max number of k-points (npk) =  40000
     Max angular momentum in pseudopotentials (lmaxx) =  3
     Presently stress not available with electric field

     IMPORTANT: XC functional enforced from input :
     Exchange-correlation      = BEEF-VDW ( 1  4 27 13 2)
     Any further DFT definition will be discarded
     Please, verify this is what you really want

     Subspace diagonalization in iterative solution of the eigenvalue problem:
     a serial algorithm will be used

     bravais-lattice index     =            0
     lattice parameter (alat)  =       1.8897  a.u.
     unit-cell volume          =    6501.5726 (a.u.)^3
     number of atoms/cell      =           13
     number of atomic types    =            2
     number of electrons       =       162.00
     number of Kohn-Sham states=           91
     kinetic-energy cutoff     =      36.7493  Ry
     charge density cutoff     =     367.4932  Ry
     convergence threshold     =      1.0E-05
     mixing beta               =       0.3000
     number of iterations used =           10  plain     mixing
     Exchange-correlation      = BEEF-VDW ( 1  4 27 13 2)
     nstep                     =           50

     celldm(1)=   1.889726  celldm(2)=   0.000000  celldm(3)=   0.000000
     celldm(4)=   0.000000  celldm(5)=   0.000000  celldm(6)=   0.000000

     crystal axes: (cart. coord. in units of alat)
               a(1) = (   6.617606   0.000000   0.000000 )
               a(2) = (   3.308803   5.731015   0.000000 )
               a(3) = (   0.000000   0.000000  25.403253 )

     reciprocal axes: (cart. coord. in units 2 pi/alat)
               b(1) = (  0.151112 -0.087245  0.000000 )
               b(2) = (  0.000000  0.174489  0.000000 )
               b(3) = (  0.000000  0.000000  0.039365 )

     PseudoPot. # 1 for In read from file:
     /afs/slac.stanford.edu/u/if/mamunm/psp/gbrv1.5pbe/In.UPF
     MD5 check sum: 90777abd96fbb83f2e67db2a40c566b9
     Pseudo is Ultrasoft + core correction, Zval = 13.0
     Generated by new atomic code, or converted to UPF format
     Using radial grid of  889 points,  6 beta functions with:
                l(1) =   0
                l(2) =   0
                l(3) =   1
                l(4) =   1
                l(5) =   2
                l(6) =   2
     Q(r) pseudized with  6 coefficients,  rinner =    1.400   1.400   1.400
                                                       1.400   1.400

     PseudoPot. # 2 for O  read from file:
     /afs/slac.stanford.edu/u/if/mamunm/psp/gbrv1.5pbe/O.UPF
     MD5 check sum: 734c27235a0248c51dbae37a1fbe46ec
     Pseudo is Ultrasoft + core correction, Zval =  6.0
     Generated by new atomic code, or converted to UPF format
     Using radial grid of  737 points,  5 beta functions with:
                l(1) =   0
                l(2) =   0
                l(3) =   1
                l(4) =   1
                l(5) =   2
     Q(r) pseudized with  8 coefficients,  rinner =    0.900   0.900   0.900
                                                       0.900   0.900

     vdW kernel table read from file vdW_kernel_table
     MD5 check sum: 095c7af220d748ca6e76c0b4c6cfb241

     atomic species   valence    mass     pseudopotential
        In1           13.00   114.81800     In( 1.00)
        O1             6.00    15.99900     O ( 1.00)

     No symmetry found

   Cartesian axes

     site n.     atom                  positions (alat units)
         1           In1 tau(   1) = (   1.6544016   0.9551692  10.0000000  )
         2           In1 tau(   2) = (   4.9632047   0.9551692  10.0000000  )
         3           In1 tau(   3) = (   3.3088031   3.8206768  10.0000000  )
         4           In1 tau(   4) = (   6.6176063   3.8206768  10.0000000  )
         5           In1 tau(   5) = (   6.6176063   1.9103384  12.7016265  )
         6           In1 tau(   6) = (   3.3088031   1.9103384  12.7016265  )
         7           In1 tau(   7) = (   8.2720078   4.7758460  12.7016265  )
         8           In1 tau(   8) = (   4.9632047   4.7758460  12.7016265  )
         9           In1 tau(   9) = (   9.8662120   5.6962647  15.7044482  )
        10           In1 tau(  10) = (   6.6777838   5.6962559  15.7044520  )
        11           In1 tau(  11) = (   8.2719896   2.9349980  15.7044470  )
        12           In1 tau(  12) = (   4.9632122   2.8654893  15.3819883  )
        13           O1  tau(  13) = (   1.6543986   0.9551621  16.5926596  )

     number of k points=    20  Fermi-Dirac smearing, width (Ry)=  0.0110
                       cart. coord. in units 2pi/alat
        k(    1) = (   0.0000000   0.0000000   0.0000000), wk =   0.0555556
        k(    2) = (   0.0000000   0.0290815   0.0000000), wk =   0.1111111
        k(    3) = (   0.0000000   0.0581631   0.0000000), wk =   0.1111111
        k(    4) = (   0.0000000  -0.0872446   0.0000000), wk =   0.0555556
        k(    5) = (   0.0251853  -0.0145408   0.0000000), wk =   0.1111111
        k(    6) = (   0.0251853   0.0145408   0.0000000), wk =   0.1111111
        k(    7) = (   0.0251853   0.0436223   0.0000000), wk =   0.1111111
        k(    8) = (   0.0251853  -0.1017853   0.0000000), wk =   0.1111111
        k(    9) = (   0.0251853  -0.0727038   0.0000000), wk =   0.1111111
        k(   10) = (   0.0251853  -0.0436223   0.0000000), wk =   0.1111111
        k(   11) = (   0.0503707  -0.0290815   0.0000000), wk =   0.1111111
        k(   12) = (   0.0503707   0.0000000   0.0000000), wk =   0.1111111
        k(   13) = (   0.0503707   0.0290815   0.0000000), wk =   0.1111111
        k(   14) = (   0.0503707  -0.1163261   0.0000000), wk =   0.1111111
        k(   15) = (   0.0503707  -0.0872446   0.0000000), wk =   0.1111111
        k(   16) = (   0.0503707  -0.0581631   0.0000000), wk =   0.1111111
        k(   17) = (  -0.0755560   0.0436223   0.0000000), wk =   0.0555556
        k(   18) = (  -0.0755560   0.0727038   0.0000000), wk =   0.1111111
        k(   19) = (  -0.0755560   0.1017853   0.0000000), wk =   0.1111111
        k(   20) = (  -0.0755560  -0.0436223   0.0000000), wk =   0.0555556

     Largest allocated arrays     est. size (Mb)     dimensions
     Largest temporary arrays     est. size (Mb)     dimensions

     Initial potential from superposition of free atoms
     Check: negative starting charge=   -0.000414

     starting charge  143.99999, renormalised to  162.00000

[...]

     *
     * You are using vdW-DF for exchange-correlation in this calculation.
     * Please cite the following three references that made this development
     * possible:
     *
     *   M. Dion, H. Rydberg, E. Schroder, D. C. Langreth, and
     *   B. I. Lundqvist, Phys. Rev. Lett. 92, 246401 (2004).
     *
     *   T. Thonhauser, V. R. Cooper, S. Li, A. Puzder, P. Hyldgaard, and
     *   D. C. Langreth, Phys. Rev. B 76, 125112 (2007).
     *
     *   G. Roman-Perez and J. M. Soler, Phys. Rev. Lett. 103, 096102 (2009).
     *
     *
     * If you are using vdW-DF2, please also cite:
     *
     *   K. Lee, E. D. Murray, L. Kong, B. I. Lundqvist, and
     *   D. C. Langreth, Phys. Rev. B 82, 081101(R) (2010).
     *
     *
     * If you are calculating the stress with vdW-DF, please also cite:
     *
     *   R. Sabatini, E. Kucukbenli, B. Kolb, T. Thonhauser, and
     *   S. de Gironcoli, J. Phys.: Condens. Matter 24, 424209 (2012).
     *

     Carrying out vdW-DF run using the following parameters:

     Nqs =      20    Nr_points =    1024   r_max =   100.000
     q_mesh =
               0.00001000     0.04494208     0.09755937     0.15916263
               0.23128650     0.31572767     0.41458969     0.53033537
               0.66584808     0.82450364     1.01025438     1.22772762
               1.48234092     1.78043706     2.12944203     2.53805004
               3.01644009     3.57652955     4.23227104     5.00000000

     Gradients computed in reciprocal space

[...]

     Starting wfc are  112 randomized atomic wfcs

     Self-consistent Calculation

[...]

     iteration #  4     ecut=    36.75 Ry     beta=0.30
     Davidson diagonalization with overlap
     c_bands:  1 eigenvalues not converged
     c_bands:  1 eigenvalues not converged
     c_bands:  1 eigenvalues not converged
     c_bands:  1 eigenvalues not converged
     ethr =  1.00E-02,  avg # of iterations = 18.8

[...]

     total energy              =   -1649.87751443 Ry
     Harris-Foulkes estimate   =   -1649.87752701 Ry
     estimated scf accuracy    <       0.00003097 Ry

     iteration # 33     ecut=    36.75 Ry     beta=0.30
     Davidson diagonalization with overlap
     ethr =  1.54E-08,  avg # of iterations =  3.0

[...]

     negative rho (up, down):  1.196E-03 0.000E+00

     Adding external electric field

     Computed dipole along edir(3) :
        Dipole               -0.1474 Ry au,         -0.3746 Debye
        Dipole field         -0.0003 Ry au

        Potential amp.        0.0267 Ry
        Total length         46.8051 bohr

     End of self-consistent calculation

[...]

          k = 0.0504-0.0582 0.0000 ( 24479 PWs)   bands (ev):

[...]

          k =-0.0756-0.0436 0.0000 ( 24448 PWs)   bands (ev):

   -17.8628 -14.5549 -14.5510 -14.5056 -14.4971 -14.4880 -14.4873 -14.4839
   -14.4817 -14.4576 -14.4535 -14.4472 -14.4348 -14.4313 -14.4276 -14.4169
   -14.4109 -14.4013 -14.3877 -14.3876 -14.3775 -14.3730 -14.3617 -14.3609
   -14.3582 -14.3464 -14.3330 -14.3315 -14.3265 -14.3164 -14.3056 -14.3007
   -14.2973 -14.2966 -14.2823 -14.2781 -14.2740 -14.2683 -14.2651 -14.2626
   -14.2598 -14.2576 -14.2564 -14.2444 -14.2418 -14.2263 -14.2261 -14.2215
   -14.2158 -14.2007 -14.1919 -14.1887 -14.1841 -14.1795 -14.1630 -14.1552
   -14.1394 -14.1339 -14.1254 -14.0491 -13.6623  -7.3092  -7.1742  -6.1967
    -5.6460  -4.9981  -4.7441  -4.5006  -4.3689  -3.9605  -3.4534  -2.8976
    -2.5885  -2.1854  -1.0662  -0.9860  -0.2835  -0.1763   0.2174   0.2808
     0.6370   0.8761   1.5467   1.7380   1.7717   2.0612   2.3474   2.6315
     2.7740   3.0088   3.0565

     the Fermi energy is     0.5444 ev

!    total energy              =   -1649.87751684 Ry
     Harris-Foulkes estimate   =   -1649.87751604 Ry
     estimated scf accuracy    <       0.00000015 Ry

     The total energy is the sum of the following terms:

     one-electron contribution =   -9319.13802349 Ry
     hartree contribution      =    4741.85385615 Ry
     xc contribution           =    -477.16164703 Ry
     ewald contribution        =    3404.60488849 Ry
     electric field correction =       0.00004199 Ry
     smearing contrib. (-TS)   =      -0.03663294 Ry

     convergence has been achieved in  33 iterations

 BEEF-vdW xc energy contributions
           1 :   -417.859764788757
           2 :    381.660129806165
           3 :   -320.586290017341
           4 :    251.884914467787
           5 :   -191.266235974146
           6 :    147.194422065497
           7 :   -119.325069995964
           8 :    101.189267170906
           9 :   -85.1397719090722
          10 :    66.6713067533716
          11 :   -45.9975236292688
          12 :    26.5943905926212
          13 :   -12.1712566201697
          14 :    4.15703175061213
          15 :   -1.09689423407633
          16 :  -6.475980528864511E-002
          17 :    1.97525182049276
          18 :   -5.51480729964840
          19 :    9.77947183134404
          20 :   -13.1383923189732
          21 :    14.4889973185384
          22 :   -13.8919434039985
          23 :    12.3225872374705
          24 :   -10.8997260055642
          25 :    10.2104780843940
          26 :   -10.1444154250264
          27 :    10.2089545867597
          28 :   -9.98358730058084
          29 :    9.36553943625131
          30 :   -8.50647212834429
          31 :   -38.0303339719733
          32 :   -27.5534617751668

     Forces acting on atoms (Ry/au):

     negative rho (up, down):  1.196E-03 0.000E+00
     atom    1 type  1   force =    -0.00000019    0.00000087   -0.01047968
     atom    2 type  1   force =    -0.00000081   -0.00104251   -0.01070505
     atom    3 type  1   force =    -0.00090148    0.00052083   -0.01070665
     atom    4 type  1   force =     0.00090307    0.00052204   -0.01070518
     atom    5 type  1   force =     0.00307323   -0.00177405    0.01166215
     atom    6 type  1   force =    -0.00307278   -0.00177513    0.01166200
     atom    7 type  1   force =    -0.00000044   -0.00000076    0.00813252
     atom    8 type  1   force =     0.00000107    0.00354834    0.01166177
     atom    9 type  1   force =     0.00063904    0.00036703   -0.00017007
     atom   10 type  1   force =    -0.00063918    0.00036888   -0.00017062
     atom   11 type  1   force =     0.00000175   -0.00073721   -0.00017084
     atom   12 type  1   force =    -0.00000221    0.00000143    0.00130610
     atom   13 type  2   force =    -0.00000108    0.00000024   -0.00131644

     Total force =     0.031209     Total SCF correction =     0.000970

     entering subroutine stress ...

     negative rho (up, down):  1.196E-03 0.000E+00
          total   stress  (Ry/bohr**3)                   (kbar)     P=    6.26
   0.00005251  -0.00000000  -0.00000000          7.72     -0.00     -0.00
  -0.00000000   0.00005251   0.00000000         -0.00      7.72      0.00
  -0.00000000   0.00000000   0.00002259         -0.00      0.00      3.32

 !ASE

     Writing output data file calc.save

     General routines

     Parallel routines

   This run was terminated on:   0: 3:15  17Jan2018

   JOB DONE.
Job  /afs/slac/g/suncat/bin/suncat-tsmpirun -x LD_LIBRARY_PATH -wdir /scratch/qe842449_jhzHk pw.x -in pw.inp

TID   HOST_NAME   COMMAND_LINE            STATUS            TERMINATION_TIME
00000 suncat2070 pw.x -in pw.inp   Done                     01/17/2018 00:03:15
00001 suncat2070 pw.x -in pw.inp   Done                     01/17/2018 00:03:15
00002 suncat2070 pw.x -in pw.inp   Done                     01/17/2018 00:03:15
00003 suncat2070 pw.x -in pw.inp   Done                     01/17/2018 00:03:15
00004 suncat2070 pw.x -in pw.inp   Done                     01/17/2018 00:03:15
00005 suncat2070 pw.x -in pw.inp   Done                     01/17/2018 00:03:15
00006 suncat2070 pw.x -in pw.inp   Done                     01/17/2018 00:03:15
00007 suncat2070 pw.x -in pw.inp   Done                     01/17/2018 00:03:15
00008 suncat2070 pw.x -in pw.inp   Done                     01/17/2018 00:03:15
00009 suncat2070 pw.x -in pw.inp   Done                     01/17/2018 00:03:15
00010 suncat2070 pw.x -in pw.inp   Done                     01/17/2018 00:03:15
00011 suncat2070 pw.x -in pw.inp   Done                     01/17/2018 00:03:15
00012 suncat2070 pw.x -in pw.inp   Done                     01/17/2018 00:03:15
00013 suncat2070 pw.x -in pw.inp   Done                     01/17/2018 00:03:15
00014 suncat2070 pw.x -in pw.inp   Done                     01/17/2018 00:03:15
00015 suncat2070 pw.x -in pw.inp   Done                     01/17/2018 00:03:15
00016 suncat2062 pw.x -in pw.inp   Done                     01/17/2018 00:03:15
00017 suncat2062 pw.x -in pw.inp   Done                     01/17/2018 00:03:15
00018 suncat2062 pw.x -in pw.inp   Done                     01/17/2018 00:03:15
00019 suncat2062 pw.x -in pw.inp   Done                     01/17/2018 00:03:15
00020 suncat2062 pw.x -in pw.inp   Done                     01/17/2018 00:03:15
00021 suncat2062 pw.x -in pw.inp   Done                     01/17/2018 00:03:15
00022 suncat2062 pw.x -in pw.inp   Done                     01/17/2018 00:03:15
00023 suncat2062 pw.x -in pw.inp   Done                     01/17/2018 00:03:15
00024 suncat2062 pw.x -in pw.inp   Done                     01/17/2018 00:03:15
00025 suncat2062 pw.x -in pw.inp   Done                     01/17/2018 00:03:15
00026 suncat2062 pw.x -in pw.inp   Done                     01/17/2018 00:03:15
00027 suncat2062 pw.x -in pw.inp   Done                     01/17/2018 00:03:15
00028 suncat2062 pw.x -in pw.inp   Done                     01/17/2018 00:03:15
00029 suncat2062 pw.x -in pw.inp   Done                     01/17/2018 00:03:15
00030 suncat2062 pw.x -in pw.inp   Done                     01/17/2018 00:03:15
00031 suncat2062 pw.x -in pw.inp   Done                     01/17/2018 00:03:15