     Program PWSCF v.5.1rc2 (svn rev. 11289) starts on  4May2018 at  7:33:14

     Current dimensions of program PWSCF are:
     Max number of different atomic species (ntypx) = 10
     Max number of k-points (npk) =  40000
     Max angular momentum in pseudopotentials (lmaxx) =  3
     Presently stress not available with electric field

     IMPORTANT: XC functional enforced from input :
     Exchange-correlation      = BEEF-VDW ( 1  4 27 13 2)
     Any further DFT definition will be discarded
     Please, verify this is what you really want

     Subspace diagonalization in iterative solution of the eigenvalue problem:
     a serial algorithm will be used

     bravais-lattice index     =            0
     lattice parameter (alat)  =       1.8897  a.u.
     unit-cell volume          =    5144.9564 (a.u.)^3
     number of atoms/cell      =           13
     number of atomic types    =            2
     number of electrons       =       136.00
     number of Kohn-Sham states=           78
     kinetic-energy cutoff     =      36.7493  Ry
     charge density cutoff     =     367.4932  Ry
     convergence threshold     =      1.0E-05
     mixing beta               =       0.3000
     number of iterations used =           10  plain     mixing
     Exchange-correlation      = BEEF-VDW ( 1  4 27 13 2)
     nstep                     =           50

     celldm(1)=   1.889726  celldm(2)=   0.000000  celldm(3)=   0.000000
     celldm(4)=   0.000000  celldm(5)=   0.000000  celldm(6)=   0.000000

     crystal axes: (cart. coord. in units of alat)
               a(1) = (   5.950946   0.000000   0.000000 )
               a(2) = (   2.975473   5.153671   0.000000 )
               a(3) = (   0.000000   0.000000  24.858927 )

     reciprocal axes: (cart. coord. in units 2 pi/alat)
               b(1) = (  0.168040 -0.097018  0.000000 )
               b(2) = (  0.000000  0.194036  0.000000 )
               b(3) = (  0.000000  0.000000  0.040227 )

     PseudoPot. # 1 for Au read from file:
     /u/if/mamunm/psp/gbrv1.5pbe/Au.UPF
     MD5 check sum: 9d7f43293ad2c663164586bc4b293ffc
     Pseudo is Ultrasoft + core correction, Zval = 11.0
     Generated by new atomic code, or converted to UPF format
     Using radial grid of  985 points,  7 beta functions with:
                l(1) =   0
                l(2) =   0
                l(3) =   1
                l(4) =   1
                l(5) =   2
                l(6) =   2
                l(7) =   3
     Q(r) pseudized with  6 coefficients,  rinner =    1.900   1.900   1.900
                                                       1.900   1.900   1.900
                                                       1.900

     PseudoPot. # 2 for C  read from file:
     /u/if/mamunm/psp/gbrv1.5pbe/C.UPF
     MD5 check sum: d1aef80898a10debaa0f26306b886e00
     Pseudo is Ultrasoft + core correction, Zval =  4.0
     Generated by new atomic code, or converted to UPF format
     Using radial grid of  721 points,  4 beta functions with:
                l(1) =   0
                l(2) =   0
                l(3) =   1
                l(4) =   1
     Q(r) pseudized with  8 coefficients,  rinner =    1.100   1.100   1.100

     vdW kernel table read from file vdW_kernel_table
     MD5 check sum: 095c7af220d748ca6e76c0b4c6cfb241

     atomic species   valence    mass     pseudopotential
        Au1           11.00   196.96657     Au( 1.00)
        C1             4.00    12.01100     C ( 1.00)

     No symmetry found

   Cartesian axes

     site n.     atom                  positions (alat units)
         1           Au1 tau(   1) = (   1.4877366   0.8589451  10.0000000  )
         2           Au1 tau(   2) = (   4.4632098   0.8589451  10.0000000  )
         3           Au1 tau(   3) = (   2.9754732   3.4357805  10.0000000  )
         4           Au1 tau(   4) = (   5.9509464   3.4357805  10.0000000  )
         5           Au1 tau(   5) = (   5.9509464   1.7178903  12.4294637  )
         6           Au1 tau(   6) = (   2.9754732   1.7178903  12.4294637  )
         7           Au1 tau(   7) = (   7.4386830   4.2947256  12.4294637  )
         8           Au1 tau(   8) = (   4.4632098   4.2947256  12.4294637  )
         9           Au1 tau(   9) = (   0.0000000   0.0000000  14.8589274  )
        10           Au1 tau(  10) = (   2.9754732   0.0000000  14.8589274  )
        11           Au1 tau(  11) = (   1.4877366   2.5768354  14.8589274  )
        12           Au1 tau(  12) = (   4.4632098   2.5768354  14.8589274  )
        13           C1  tau(  13) = (   2.9754732   1.7178903  16.2369274  )

     number of k points=    20  Fermi-Dirac smearing, width (Ry)=  0.0110
                       cart. coord. in units 2pi/alat
        k(    1) = (   0.0000000   0.0000000   0.0000000), wk =   0.0555556
        k(    2) = (   0.0000000   0.0323394   0.0000000), wk =   0.1111111
        k(    3) = (   0.0000000   0.0646788   0.0000000), wk =   0.1111111
        k(    4) = (   0.0000000  -0.0970182   0.0000000), wk =   0.0555556
        k(    5) = (   0.0280067  -0.0161697   0.0000000), wk =   0.1111111
        k(    6) = (   0.0280067   0.0161697   0.0000000), wk =   0.1111111
        k(    7) = (   0.0280067   0.0485091   0.0000000), wk =   0.1111111
        k(    8) = (   0.0280067  -0.1131879   0.0000000), wk =   0.1111111
        k(    9) = (   0.0280067  -0.0808485   0.0000000), wk =   0.1111111
        k(   10) = (   0.0280067  -0.0485091   0.0000000), wk =   0.1111111
        k(   11) = (   0.0560135  -0.0323394   0.0000000), wk =   0.1111111
        k(   12) = (   0.0560135   0.0000000   0.0000000), wk =   0.1111111
        k(   13) = (   0.0560135   0.0323394   0.0000000), wk =   0.1111111
        k(   14) = (   0.0560135  -0.1293576   0.0000000), wk =   0.1111111
        k(   15) = (   0.0560135  -0.0970182   0.0000000), wk =   0.1111111
        k(   16) = (   0.0560135  -0.0646788   0.0000000), wk =   0.1111111
        k(   17) = (  -0.0840202   0.0485091   0.0000000), wk =   0.0555556
        k(   18) = (  -0.0840202   0.0808485   0.0000000), wk =   0.1111111
        k(   19) = (  -0.0840202   0.1131879   0.0000000), wk =   0.1111111
        k(   20) = (  -0.0840202  -0.0485091   0.0000000), wk =   0.0555556

     Largest allocated arrays     est. size (Mb)     dimensions
     Largest temporary arrays     est. size (Mb)     dimensions

     Check: negative/imaginary core charge=   -0.000002    0.000000

     Initial potential from superposition of free atoms
     Check: negative starting charge=   -0.000116

     starting charge  135.99849, renormalised to  136.00000

     negative rho (up, down):  1.160E-04 0.000E+00

     *
     * You are using vdW-DF for exchange-correlation in this calculation.
     * Please cite the following three references that made this development
     * possible:
     *
     *   M. Dion, H. Rydberg, E. Schroder, D. C. Langreth, and
     *   B. I. Lundqvist, Phys. Rev. Lett. 92, 246401 (2004).
     *
     *   T. Thonhauser, V. R. Cooper, S. Li, A. Puzder, P. Hyldgaard, and
     *   D. C. Langreth, Phys. Rev. B 76, 125112 (2007).
     *
     *   G. Roman-Perez and J. M. Soler, Phys. Rev. Lett. 103, 096102 (2009).
     *
     *
     * If you are using vdW-DF2, please also cite:
     *
     *   K. Lee, E. D. Murray, L. Kong, B. I. Lundqvist, and
     *   D. C. Langreth, Phys. Rev. B 82, 081101(R) (2010).
     *
     *
     * If you are calculating the stress with vdW-DF, please also cite:
     *
     *   R. Sabatini, E. Kucukbenli, B. Kolb, T. Thonhauser, and
     *   S. de Gironcoli, J. Phys.: Condens. Matter 24, 424209 (2012).
     *

     Carrying out vdW-DF run using the following parameters:

     Nqs =      20    Nr_points =    1024   r_max =   100.000
     q_mesh =
               0.00001000     0.04494208     0.09755937     0.15916263
               0.23128650     0.31572767     0.41458969     0.53033537
               0.66584808     0.82450364     1.01025438     1.22772762
               1.48234092     1.78043706     2.12944203     2.53805004
               3.01644009     3.57652955     4.23227104     5.00000000

     Gradients computed in reciprocal space

     Adding external electric field

     Computed dipole along edir(3) :
        Dipole               -0.0000 Ry au,         -0.0001 Debye
        Dipole field         -0.0000 Ry au

        Potential amp.        0.0000 Ry
        Total length         45.8022 bohr

     Starting wfc are  112 randomized atomic wfcs

     Self-consistent Calculation

     iteration #  1     ecut=    36.75 Ry     beta=0.30
     Davidson diagonalization with overlap
     ethr =  1.00E-02,  avg # of iterations =  2.0

[...]

     total energy              =   -1410.98110012 Ry
     Harris-Foulkes estimate   =   -1411.92076351 Ry
     estimated scf accuracy    <       2.09327569 Ry

[...]

     End of self-consistent calculation

          k = 0.0000 0.0000 0.0000 ( 19315 PWs)   bands (ev):

   -10.7744  -7.9540  -6.5016  -6.2991  -6.1664  -6.1664  -6.0565  -5.9590
    -5.9590  -5.8674  -5.6823  -5.6823  -5.6391  -5.4644  -5.4644  -5.3945
    -4.8058  -4.8058  -4.4627  -4.3799  -4.3799  -4.3705  -4.3349  -4.3349
    -4.1950  -4.1350  -4.1350  -4.0127  -4.0127  -3.9726  -3.8189  -3.8189
    -3.6705  -3.6609  -3.6609  -3.2895  -3.2895  -3.2502  -3.0923  -2.9429
    -2.9429  -2.7057  -2.7057  -2.6297  -2.6297  -2.5622  -2.3295  -2.3295
    -2.2414  -2.2205  -2.2205  -2.1513  -2.1119  -2.1119  -2.0441  -2.0027
    -2.0027  -1.9266  -1.8714  -1.8714  -1.6580  -1.6390  -1.6390  -0.9782
    -0.3551  -0.0811  -0.0811   0.7183   0.7183   0.8280   1.1504   1.3818
     1.3818   1.4650   1.5390   1.5390   3.1802   3.5031

[...]

          k =-0.0840 0.0485 0.0000 ( 19380 PWs)   bands (ev):

[...]

     the Fermi energy is     0.0121 ev

!    total energy              =   -1411.76887315 Ry
     Harris-Foulkes estimate   =   -1411.76887028 Ry
     estimated scf accuracy    <       0.00000416 Ry

     The total energy is the sum of the following terms:

     one-electron contribution =   -8227.52494342 Ry
     hartree contribution      =    4209.96069857 Ry
     xc contribution           =    -771.45184111 Ry
     ewald contribution        =    3377.27250921 Ry
     electric field correction =       0.00010383 Ry
     smearing contrib. (-TS)   =      -0.02540023 Ry

     convergence has been achieved in  11 iterations

 BEEF-vdW xc energy contributions
           1 :   -689.530967142621
           2 :    641.026352277193
           3 :   -554.241894026574
           4 :    445.947238100644
           5 :   -334.298009338709
           6 :    234.162267887956
           7 :   -154.293790966408
           8 :    96.8393414943223
           9 :   -58.9072246835327
          10 :    35.2068014436747
          11 :   -20.5660775368030
          12 :    11.3975254143193
          13 :   -5.86599504858373
          14 :    3.14218875026791
          15 :   -2.46636001467459
          16 :    2.62333637763868
          17 :   -2.07231060449476
          18 :  -0.450255835457597
          19 :    5.27904209206099
          20 :   -11.5571881286680
          21 :    17.5521753447449
          22 :   -21.4206129584571
          23 :    22.0343395580655
          24 :   -19.4614010072237
          25 :    14.8789960246706
          26 :   -9.99499355513842
          27 :    6.28647331731554
          28 :   -4.43676273854180
          29 :    4.21631695879876
          30 :   -4.81309614775478
          31 :   -54.5893782550155
          32 :   -39.8062676772640

     Forces acting on atoms (Ry/au):

     negative rho (up, down):  2.425E-04 0.000E+00
     atom    1 type  1   force =    -0.00150170   -0.00087863   -0.00191388
     atom    2 type  1   force =     0.00151598   -0.00087551   -0.00190731
     atom    3 type  1   force =     0.00001205    0.00173828   -0.00189320
     atom    4 type  1   force =    -0.00000711   -0.00000631   -0.00385658
     atom    5 type  1   force =    -0.00000474    0.00380569    0.00271385
     atom    6 type  1   force =     0.00000202    0.00000340   -0.00831931
     atom    7 type  1   force =    -0.00329030   -0.00190746    0.00270443
     atom    8 type  1   force =     0.00328874   -0.00188925    0.00270605
     atom    9 type  1   force =    -0.00000934    0.00000210   -0.00262725
     atom   10 type  1   force =    -0.00000344    0.00631016    0.02887497
     atom   11 type  1   force =     0.00545892   -0.00315500    0.02891819
     atom   12 type  1   force =    -0.00546295   -0.00314548    0.02891735
     atom   13 type  2   force =     0.00000187   -0.00000199   -0.07431732

     Total force =     0.090308     Total SCF correction =     0.005361

     entering subroutine stress ...

     negative rho (up, down):  2.425E-04 0.000E+00
          total   stress  (Ry/bohr**3)                   (kbar)     P=  -11.09
  -0.00010611   0.00000000  -0.00000000        -15.61      0.00     -0.00
   0.00000000  -0.00010611  -0.00000000          0.00    -15.61     -0.00
  -0.00000000  -0.00000000  -0.00001405         -0.00     -0.00     -2.07

     BFGS Geometry Optimization

     number of scf cycles    =   1
     number of bfgs steps    =   0

     energy   new            =   -1411.7688731504 Ry

     new trust radius        =       0.0743173235 bohr
     new conv_thr            =       0.0000099958 Ry

ATOMIC_POSITIONS (crystal)
Au1      0.166666667   0.166666667   0.402269971    0   0   0
Au1      0.666666667   0.166666667   0.402269971    0   0   0
Au1      0.166666667   0.666666667   0.402269971    0   0   0
Au1      0.666666667   0.666666667   0.402269971    0   0   0
Au1      0.833333333   0.333333333   0.500000000    0   0   0
Au1      0.333333333   0.333333333   0.500000000    0   0   0
Au1      0.833333333   0.833333333   0.500000000    0   0   0
Au1      0.333333333   0.833333333   0.500000000    0   0   0
Au1     -0.000000938   0.000000216   0.597674102
Au1      0.499675731   0.000647926   0.598344697
Au1      0.000647402   0.499676045   0.598345617
Au1      0.499675705   0.499677023   0.598345599
C1       0.333333602   0.333333129   0.651580823

     Writing output data file calc.save
     Check: negative starting charge=   -0.000116
     NEW-OLD atomic charge density approx. for the potential

     Check: negative/imaginary core charge=   -0.000002    0.000000
     Check: negative starting charge=   -0.000117

[...]

     energy   old            =   -1411.7688731504 Ry
     energy   new            =   -1411.7764992515 Ry

     CASE: energy  _new < energy  _old

     WARNING: bfgs curvature condition failed, Theta= 0.942
     new trust radius        =       0.1114759852 bohr
     new conv_thr            =       0.0000001000 Ry

[...]

     Total force =     0.005494     Total SCF correction =     0.000413

[...]

     Threshold (ethr) on eigenvalues was too large:
     Diagonalizing with lowered threshold

     Davidson diagonalization with overlap
     ethr =  1.39E-08,  avg # of iterations =  4.0

[...]

     Total force =     0.003003     Total SCF correction =     0.000495
     SCF correction compared to forces is large: reduce conv_thr to get better values

[...]

     new trust radius        =       0.0044040179 bohr
     new conv_thr            =       0.0000001000 Ry

[...]

     number of scf cycles    =  10
     number of bfgs steps    =   9

     energy   old            =   -1411.7995320997 Ry
     energy   new            =   -1411.7995419516 Ry

     CASE: energy  _new < energy  _old

     WARNING: bfgs curvature condition failed, Theta= 0.926
     new trust radius        =       0.0066060268 bohr
     new conv_thr            =       0.0000001000 Ry

ATOMIC_POSITIONS (crystal)
Au1      0.166666667   0.166666667   0.402269971    0   0   0
Au1      0.666666667   0.166666667   0.402269971    0   0   0
Au1      0.166666667   0.666666667   0.402269971    0   0   0
Au1      0.666666667   0.666666667   0.402269971    0   0   0
Au1      0.833333333   0.333333333   0.500000000    0   0   0
Au1      0.333333333   0.333333333   0.500000000    0   0   0
Au1      0.833333333   0.833333333   0.500000000    0   0   0
Au1      0.333333333   0.833333333   0.500000000    0   0   0
Au1     -0.000002601   0.000000943   0.596446274
Au1      0.507348767  -0.014699005   0.602805064
Au1     -0.014702428   0.507351262   0.602807737
Au1      0.507348341   0.507353619   0.602807607
C1       0.333334510   0.333331058   0.640692478

     Writing output data file calc.save
     Check: negative starting charge=   -0.000118
     NEW-OLD atomic charge density approx. for the potential

     Check: negative/imaginary core charge=   -0.000002    0.000000
     Check: negative starting charge=   -0.000118

[...]

     Self-consistent Calculation

[...]

     Threshold (ethr) on eigenvalues was too large:
     Diagonalizing with lowered threshold

     Davidson diagonalization with overlap
     ethr =  4.46E-09,  avg # of iterations =  3.0

[...]

     total energy              =   -1411.79955367 Ry
     Harris-Foulkes estimate   =   -1411.79955435 Ry
     estimated scf accuracy    <       0.00000766 Ry

     iteration #  4     ecut=    36.75 Ry     beta=0.30
     Davidson diagonalization with overlap
     ethr =  4.24E-09,  avg # of iterations =  2.0

[...]

     negative rho (up, down):  2.429E-04 0.000E+00

     Adding external electric field

     Computed dipole along edir(3) :
        Dipole               -0.1018 Ry au,         -0.2589 Debye
        Dipole field         -0.0002 Ry au

        Potential amp.        0.0228 Ry
        Total length         45.8022 bohr

     End of self-consistent calculation

[...]

          k = 0.0560-0.0647 0.0000 ( 19376 PWs)   bands (ev):

[...]

          k =-0.0840-0.0485 0.0000 ( 19380 PWs)   bands (ev):

   -11.5327  -6.8782  -6.4125  -6.1734  -5.6880  -5.5491  -5.5214  -5.3247
    -5.3099  -5.2585  -5.2341  -5.1184  -5.0485  -4.9217  -4.8480  -4.8147
    -4.7914  -4.6887  -4.6216  -4.5482  -4.3866  -4.3777  -4.3721  -4.3451
    -4.2927  -4.1577  -4.1381  -4.1040  -4.0510  -3.8913  -3.8292  -3.8120
    -3.7009  -3.6645  -3.5767  -3.5522  -3.4884  -3.4747  -3.4578  -3.4088
    -3.3858  -3.3397  -3.2407  -3.2002  -3.1579  -3.1412  -3.0261  -3.0126
    -3.0053  -2.8859  -2.8857  -2.7206  -2.6465  -2.5870  -2.5439  -2.4527
    -2.3965  -2.2739  -2.2288  -2.0618  -2.0198  -1.9977  -1.8451  -1.7886
    -1.3437  -0.7166  -0.5348  -0.0874   0.4335   0.5001   0.7973   1.4803
     2.0380   2.6090   3.6471   3.8079   4.3874   4.8372

     the Fermi energy is     0.1368 ev

!    total energy              =   -1411.79955412 Ry
     Harris-Foulkes estimate   =   -1411.79955428 Ry
     estimated scf accuracy    <       0.00000009 Ry

     The total energy is the sum of the following terms:

     one-electron contribution =   -8175.13391505 Ry
     hartree contribution      =    4183.93578614 Ry
     xc contribution           =    -771.54179301 Ry
     ewald contribution        =    3350.96566712 Ry
     electric field correction =       0.00002534 Ry
     smearing contrib. (-TS)   =      -0.02532466 Ry

     convergence has been achieved in   4 iterations

 BEEF-vdW xc energy contributions
           1 :   -689.625221979981
           2 :    641.140866864710
           3 :   -554.374276365728
           4 :    446.079779717001
           5 :   -334.412544167248
           6 :    234.242781496463
           7 :   -154.323928986102
           8 :    96.8061890152334
           9 :   -58.8114710653857
          10 :    35.0731471217298
          11 :   -20.4437213216019
          12 :    11.3450257123870
          13 :   -5.92407890978689
          14 :    3.30736912916063
          15 :   -2.68158463501493
          16 :    2.79633262707864
          17 :   -2.11770209067595
          18 :  -0.566000860840973
          19 :    5.51541427470124
          20 :   -11.8144058232557
          21 :    17.7177246700180
          22 :   -21.4240658972328
          23 :    21.8819104297522
          24 :   -19.2319247689966
          25 :    14.6821416790873
          26 :   -9.91337469177256
          27 :    6.33409266823594
          28 :   -4.55644722007014
          29 :    4.31584877351042
          30 :   -4.81853278504059
          31 :   -54.5955250612899
          32 :   -39.8154158734761

     Forces acting on atoms (Ry/au):

     negative rho (up, down):  2.429E-04 0.000E+00
     atom    1 type  1   force =    -0.00165419   -0.00095507   -0.00498174
     atom    2 type  1   force =     0.00165418   -0.00095510   -0.00498158
     atom    3 type  1   force =    -0.00000005    0.00191013   -0.00498102
     atom    4 type  1   force =     0.00000002    0.00000005   -0.00520306
     atom    5 type  1   force =     0.00000001    0.00521408    0.00656611
     atom    6 type  1   force =    -0.00000004    0.00000102    0.00307929
     atom    7 type  1   force =    -0.00451479   -0.00260785    0.00656477
     atom    8 type  1   force =     0.00451460   -0.00260754    0.00656520
     atom    9 type  1   force =     0.00000072    0.00000024   -0.00180805
     atom   10 type  1   force =     0.00000015    0.00082283    0.00014404
     atom   11 type  1   force =     0.00071326   -0.00041125    0.00014280
     atom   12 type  1   force =    -0.00071351   -0.00041199    0.00014247
     atom   13 type  2   force =    -0.00000034    0.00000045   -0.00124922

     Total force =     0.002631     Total SCF correction =     0.000369
     SCF correction compared to forces is large: reduce conv_thr to get better values

     entering subroutine stress ...

     negative rho (up, down):  2.429E-04 0.000E+00
          total   stress  (Ry/bohr**3)                   (kbar)     P=   -6.10
  -0.00006923   0.00000000   0.00000000        -10.18      0.00      0.00
   0.00000000  -0.00006923   0.00000000          0.00    -10.18      0.00
   0.00000000   0.00000000   0.00001409          0.00      0.00      2.07

     bfgs converged in  11 scf cycles and  10 bfgs steps
     (criteria: energy <  1.0E+00, force <  1.9E-03)

     End of BFGS Geometry Optimization

     Final energy   =   -1411.7995541238 Ry
Begin final coordinates

ATOMIC_POSITIONS (crystal)
Au1      0.166666667   0.166666667   0.402269971    0   0   0
Au1      0.666666667   0.166666667   0.402269971    0   0   0
Au1      0.166666667   0.666666667   0.402269971    0   0   0
Au1      0.666666667   0.666666667   0.402269971    0   0   0
Au1      0.833333333   0.333333333   0.500000000    0   0   0
Au1      0.333333333   0.333333333   0.500000000    0   0   0
Au1      0.833333333   0.833333333   0.500000000    0   0   0
Au1      0.333333333   0.833333333   0.500000000    0   0   0
Au1     -0.000002601   0.000000943   0.596446274
Au1      0.507348767  -0.014699005   0.602805064
Au1     -0.014702428   0.507351262   0.602807737
Au1      0.507348341   0.507353619   0.602807607
C1       0.333334510   0.333331058   0.640692478
End final coordinates

     Writing output data file calc.save

     General routines

     Parallel routines

   This run was terminated on:   8:43:25   4May2018

   JOB DONE.
Job  /afs/slac/g/suncat/bin/suncat-tsmpirun -x LD_LIBRARY_PATH -wdir /scratch/qe917205_veXVa pw.x -npool 4 -in pw.inp

TID   HOST_NAME   COMMAND_LINE            STATUS            TERMINATION_TIME
00000 suncat0065 pw.x -npool 4 -i  Done                     05/04/2018 08:43:25
00001 suncat0065 pw.x -npool 4 -i  Done                     05/04/2018 08:43:25
00002 suncat0065 pw.x -npool 4 -i  Done                     05/04/2018 08:43:25
00003 suncat0065 pw.x -npool 4 -i  Done                     05/04/2018 08:43:25
00004 suncat0065 pw.x -npool 4 -i  Done                     05/04/2018 08:43:25
00005 suncat0065 pw.x -npool 4 -i  Done                     05/04/2018 08:43:25
00006 suncat0065 pw.x -npool 4 -i  Done                     05/04/2018 08:43:25
00007 suncat0065 pw.x -npool 4 -i  Done                     05/04/2018 08:43:25
00008 suncat0046 pw.x -npool 4 -i  Done                     05/04/2018 08:43:25
00009 suncat0046 pw.x -npool 4 -i  Done                     05/04/2018 08:43:25
00010 suncat0046 pw.x -npool 4 -i  Done                     05/04/2018 08:43:25
00011 suncat0046 pw.x -npool 4 -i  Done                     05/04/2018 08:43:25
00012 suncat0046 pw.x -npool 4 -i  Done                     05/04/2018 08:43:25
00013 suncat0046 pw.x -npool 4 -i  Done                     05/04/2018 08:43:25
00014 suncat0046 pw.x -npool 4 -i  Done                     05/04/2018 08:43:25
00015 suncat0046 pw.x -npool 4 -i  Done                     05/04/2018 08:43:25
00016 suncat0113 pw.x -npool 4 -i  Done                     05/04/2018 08:43:25
00017 suncat0113 pw.x -npool 4 -i  Done                     05/04/2018 08:43:25
00018 suncat0113 pw.x -npool 4 -i  Done                     05/04/2018 08:43:25
00019 suncat0113 pw.x -npool 4 -i  Done                     05/04/2018 08:43:25
00020 suncat0113 pw.x -npool 4 -i  Done                     05/04/2018 08:43:25
00021 suncat0113 pw.x -npool 4 -i  Done                     05/04/2018 08:43:25
00022 suncat0113 pw.x -npool 4 -i  Done                     05/04/2018 08:43:25
00023 suncat0113 pw.x -npool 4 -i  Done                     05/04/2018 08:43:25
00024 suncat0277 pw.x -npool 4 -i  Done                     05/04/2018 08:43:25
00025 suncat0277 pw.x -npool 4 -i  Done                     05/04/2018 08:43:25
00026 suncat0277 pw.x -npool 4 -i  Done                     05/04/2018 08:43:25
00027 suncat0277 pw.x -npool 4 -i  Done                     05/04/2018 08:43:25
00028 suncat0277 pw.x -npool 4 -i  Done                     05/04/2018 08:43:25
00029 suncat0277 pw.x -npool 4 -i  Done                     05/04/2018 08:43:25
00030 suncat0277 pw.x -npool 4 -i  Done                     05/04/2018 08:43:25
00031 suncat0277 pw.x -npool 4 -i  Done                     05/04/2018 08:43:25