     Program PWSCF v.5.1rc2 (svn rev. 11289) starts on 11Jan2019 at 17:48:39

     Current dimensions of program PWSCF are:
     Max number of different atomic species (ntypx) = 10
     Max number of k-points (npk) =  40000
     Max angular momentum in pseudopotentials (lmaxx) =  3

     IMPORTANT: XC functional enforced from input :
     Exchange-correlation      = BEEF-VDW ( 1  4 27 13 2)
     Any further DFT definition will be discarded
     Please, verify this is what you really want

     Subspace diagonalization in iterative solution of the eigenvalue problem:
     a serial algorithm will be used

     Generating pointlists ...
     new r_m :   0.1669 (alat units)  1.5809 (a.u.) for type    1
     new r_m :   0.1669 (alat units)  1.5809 (a.u.) for type    2

     bravais-lattice index     =            0
     lattice parameter (alat)  =       9.4723  a.u.
     unit-cell volume          =    3537.7769 (a.u.)^3
     number of atoms/cell      =           13
     number of atomic types    =            2
     number of electrons       =       210.00
     number of Kohn-Sham states=          115
     kinetic-energy cutoff     =      36.7493  Ry
     charge density cutoff     =     367.4933  Ry
     convergence threshold     =      1.0E-04
     mixing beta               =       0.1000
     number of iterations used =            8  plain     mixing
     Exchange-correlation      = BEEF-VDW ( 1  4 27 13 2)
     nstep                     =           50

     celldm(1)=   9.472344  celldm(2)=   0.000000  celldm(3)=   0.000000
     celldm(4)=   0.000000  celldm(5)=   0.000000  celldm(6)=   0.000000

     crystal axes: (cart. coord. in units of alat)
               a(1) = (   1.000000   0.000000   0.000000 )
               a(2) = (   0.500000   0.866025   0.000000 )
               a(3) = (   0.000000   0.000000   4.806483 )

     reciprocal axes: (cart. coord. in units 2 pi/alat)
               b(1) = (  1.000000 -0.577350  0.000000 )
               b(2) = (  0.000000  1.154701  0.000000 )
               b(3) = (  0.000000  0.000000  0.208052 )

     PseudoPot. # 1 for Co read from file:
     /u/if/jboes/code/decaf-espresso/gbrv15pbe/Co.UPF
     MD5 check sum: 5f91765df6ddd3222702df6e7b74a16d
     Pseudo is Ultrasoft + core correction, Zval = 17.0
     Generated by new atomic code, or converted to UPF format
     Using radial grid of  863 points,  6 beta functions with:
                l(1) =   0
                l(2) =   0
                l(3) =   1
                l(4) =   1
                l(5) =   2
                l(6) =   2
     Q(r) pseudized with  8 coefficients,  rinner =    1.200   1.200   1.200
                                                       1.200   1.200

     PseudoPot. # 2 for S  read from file:
     /u/if/jboes/code/decaf-espresso/gbrv15pbe/S.UPF
     MD5 check sum: 88d86576ff6df21479756cfb9bdac1df
     Pseudo is Ultrasoft + core correction, Zval =  6.0
     Generated by new atomic code, or converted to UPF format
     Using radial grid of  907 points,  6 beta functions with:
                l(1) =   0
                l(2) =   0
                l(3) =   1
                l(4) =   1
                l(5) =   2
                l(6) =   2
     Q(r) pseudized with  8 coefficients,  rinner =    1.300   1.300   1.300
                                                       1.300   1.300

     vdW kernel table read from file vdW_kernel_table
     MD5 check sum: 095c7af220d748ca6e76c0b4c6cfb241

     atomic species   valence    mass     pseudopotential
        Co            17.00    58.93319     Co( 1.00)
        S              6.00    32.06000     S ( 1.00)

     Starting magnetic structure
     atomic species   magnetization
        Co           0.118
        S            0.000

     No symmetry found

   Cartesian axes

     site n.     atom                  positions (alat units)
         1           Co  tau(   1) = (   0.2500000   0.1443376   1.9949931  )
         2           Co  tau(   2) = (   0.7500000   0.1443376   1.9949931  )
         3           Co  tau(   3) = (   0.5000000   0.5773503   1.9949931  )
         4           Co  tau(   4) = (   1.0000000   0.5773503   1.9949931  )
         5           Co  tau(   5) = (   1.0000000   0.2886751   2.4032414  )
         6           Co  tau(   6) = (   0.5000000   0.2886751   2.4032414  )
         7           Co  tau(   7) = (   1.2500000   0.7216878   2.4032414  )
         8           Co  tau(   8) = (   0.7500000   0.7216878   2.4032414  )
         9           Co  tau(   9) = (   0.0000001  -0.0000352   2.7839127  )
        10           Co  tau(  10) = (   0.4999985  -0.0020320   2.8112284  )
        11           Co  tau(  11) = (   0.2482659   0.4340402   2.8112304  )
        12           Co  tau(  12) = (   0.7517332   0.4340438   2.8112276  )
        13           S   tau(  13) = (   0.0000014  -0.0000081   3.1885055  )

     number of k points=    40  Fermi-Dirac smearing, width (Ry)=  0.0110
                       cart. coord. in units 2pi/alat
        k(    1) = (   0.0000000   0.0000000   0.0000000), wk =   0.0277778
        k(    2) = (   0.0000000   0.1924501   0.0000000), wk =   0.0555556
        k(    3) = (   0.0000000   0.3849002   0.0000000), wk =   0.0555556
        k(    4) = (   0.0000000  -0.5773503   0.0000000), wk =   0.0277778
        k(    5) = (   0.1666667  -0.0962250   0.0000000), wk =   0.0555556
        k(    6) = (   0.1666667   0.0962250   0.0000000), wk =   0.0555556
        k(    7) = (   0.1666667   0.2886751   0.0000000), wk =   0.0555556
        k(    8) = (   0.1666667  -0.6735753   0.0000000), wk =   0.0555556
        k(    9) = (   0.1666667  -0.4811252   0.0000000), wk =   0.0555556
        k(   10) = (   0.1666667  -0.2886751   0.0000000), wk =   0.0555556
        k(   11) = (   0.3333333  -0.1924501   0.0000000), wk =   0.0555556
        k(   12) = (   0.3333333  -0.0000000   0.0000000), wk =   0.0555556
        k(   13) = (   0.3333333   0.1924501   0.0000000), wk =   0.0555556
        k(   14) = (   0.3333333  -0.7698004   0.0000000), wk =   0.0555556
        k(   15) = (   0.3333333  -0.5773503   0.0000000), wk =   0.0555556
        k(   16) = (   0.3333333  -0.3849002   0.0000000), wk =   0.0555556
        k(   17) = (  -0.5000000   0.2886751   0.0000000), wk =   0.0277778
        k(   18) = (  -0.5000000   0.4811252   0.0000000), wk =   0.0555556
        k(   19) = (  -0.5000000   0.6735753   0.0000000), wk =   0.0555556
        k(   20) = (  -0.5000000  -0.2886751   0.0000000), wk =   0.0277778
        k(   21) = (   0.0000000   0.0000000   0.0000000), wk =   0.0277778
        k(   22) = (   0.0000000   0.1924501   0.0000000), wk =   0.0555556
        k(   23) = (   0.0000000   0.3849002   0.0000000), wk =   0.0555556
        k(   24) = (   0.0000000  -0.5773503   0.0000000), wk =   0.0277778
        k(   25) = (   0.1666667  -0.0962250   0.0000000), wk =   0.0555556
        k(   26) = (   0.1666667   0.0962250   0.0000000), wk =   0.0555556
        k(   27) = (   0.1666667   0.2886751   0.0000000), wk =   0.0555556
        k(   28) = (   0.1666667  -0.6735753   0.0000000), wk =   0.0555556
        k(   29) = (   0.1666667  -0.4811252   0.0000000), wk =   0.0555556
        k(   30) = (   0.1666667  -0.2886751   0.0000000), wk =   0.0555556
        k(   31) = (   0.3333333  -0.1924501   0.0000000), wk =   0.0555556
        k(   32) = (   0.3333333  -0.0000000   0.0000000), wk =   0.0555556
        k(   33) = (   0.3333333   0.1924501   0.0000000), wk =   0.0555556
        k(   34) = (   0.3333333  -0.7698004   0.0000000), wk =   0.0555556
        k(   35) = (   0.3333333  -0.5773503   0.0000000), wk =   0.0555556
        k(   36) = (   0.3333333  -0.3849002   0.0000000), wk =   0.0555556
        k(   37) = (  -0.5000000   0.2886751   0.0000000), wk =   0.0277778
        k(   38) = (  -0.5000000   0.4811252   0.0000000), wk =   0.0555556
        k(   39) = (  -0.5000000   0.6735753   0.0000000), wk =   0.0555556
        k(   40) = (  -0.5000000  -0.2886751   0.0000000), wk =   0.0277778

     Largest allocated arrays     est. size (Mb)     dimensions
     Largest temporary arrays     est. size (Mb)     dimensions

     Check: negative/imaginary core charge=   -0.000007    0.000000

     Initial potential from superposition of free atoms
     Check: negative starting charge=(component1):   -0.000174
     Check: negative starting charge=(component2):   -0.000136

     starting charge  197.99988, renormalised to  210.00000

     negative rho (up, down):  1.845E-04 1.446E-04

     *
     * You are using vdW-DF for exchange-correlation in this calculation.
     * Please cite the following three references that made this development
     * possible:
     *
     *   M. Dion, H. Rydberg, E. Schroder, D. C. Langreth, and
     *   B. I. Lundqvist, Phys. Rev. Lett. 92, 246401 (2004).
     *
     *   T. Thonhauser, V. R. Cooper, S. Li, A. Puzder, P. Hyldgaard, and
     *   D. C. Langreth, Phys. Rev. B 76, 125112 (2007).
     *
     *   G. Roman-Perez and J. M. Soler, Phys. Rev. Lett. 103, 096102 (2009).
     *
     *
     * If you are using vdW-DF2, please also cite:
     *
     *   K. Lee, E. D. Murray, L. Kong, B. I. Lundqvist, and
     *   D. C. Langreth, Phys. Rev. B 82, 081101(R) (2010).
     *
     *
     * If you are calculating the stress with vdW-DF, please also cite:
     *
     *   R. Sabatini, E. Kucukbenli, B. Kolb, T. Thonhauser, and
     *   S. de Gironcoli, J. Phys.: Condens. Matter 24, 424209 (2012).
     *

     Carrying out vdW-DF run using the following parameters:

     Nqs =      20    Nr_points =    1024   r_max =   100.000
     q_mesh =
               0.00001000     0.04494208     0.09755937     0.15916263
               0.23128650     0.31572767     0.41458969     0.53033537
               0.66584808     0.82450364     1.01025438     1.22772762
               1.48234092     1.78043706     2.12944203     2.53805004
               3.01644009     3.57652955     4.23227104     5.00000000

     Gradients computed in reciprocal space

     Adding external electric field

     Computed dipole along edir(3) :
        Dipole               -2.7127 Ry au,         -6.8950 Debye
        Dipole field         -0.0096 Ry au

        Potential amp.        0.7897 Ry
        Total length         40.9758 bohr

[...]

     Starting wfc are  160 randomized atomic wfcs

     Self-consistent Calculation

     iteration #  1     ecut=    36.75 Ry     beta=0.10
     Davidson diagonalization with overlap
     ethr =  1.00E-02,  avg # of iterations =  7.2

[...]

     Magnetic moment per site:
     atom:    1    charge:   15.0041    magn:    1.6941    constr:    0.0000
     atom:    2    charge:   15.0043    magn:    1.6941    constr:    0.0000
     atom:    3    charge:   15.0042    magn:    1.6942    constr:    0.0000
     atom:    4    charge:   15.0040    magn:    1.6953    constr:    0.0000
     atom:    5    charge:   14.8547    magn:    1.7066    constr:    0.0000
     atom:    6    charge:   14.8511    magn:    1.7060    constr:    0.0000
     atom:    7    charge:   14.8546    magn:    1.7066    constr:    0.0000
     atom:    8    charge:   14.8547    magn:    1.7066    constr:    0.0000
     atom:    9    charge:   14.6498    magn:    1.6442    constr:    0.0000
     atom:   10    charge:   14.5395    magn:    1.6379    constr:    0.0000
     atom:   11    charge:   14.5395    magn:    1.6379    constr:    0.0000
     atom:   12    charge:   14.5395    magn:    1.6379    constr:    0.0000
     atom:   13    charge:    3.0478    magn:    0.0038    constr:    0.0000

     total energy              =   -3455.77739036 Ry
     Harris-Foulkes estimate   =   -3643.84761582 Ry
     estimated scf accuracy    <    1034.28827373 Ry

     total magnetization       =    10.51 Bohr mag/cell
     absolute magnetization    =    11.15 Bohr mag/cell

[...]

     End of self-consistent calculation

 ------ SPIN UP ------------

          k = 0.0000 0.0000 0.0000 ( 13257 PWs)   bands (ev):

   -95.5919 -95.5359 -95.5147 -95.5139 -95.4557 -95.4324 -95.4314 -95.3744
   -95.3455 -95.3431 -95.3418 -95.2643 -58.9401 -58.9396 -58.9100 -58.8876
   -58.8530 -58.8196 -58.8191 -58.7776 -58.7582 -58.7580 -58.7403 -58.7402
   -58.7397 -58.7227 -58.7070 -58.7061 -58.6957 -58.6829 -58.6825 -58.6748
   -58.6746 -58.6713 -58.6557 -58.6532 -58.6524 -58.6403 -58.6362 -58.6090
   -58.6084 -58.5258 -58.5218 -58.5213 -58.4701 -58.4700 -58.4122 -58.4121
   -11.5826  -7.1249  -5.2046  -4.2677  -4.0826  -4.0825  -4.0143  -3.9155
    -3.8352  -3.8349  -3.5272  -3.5272  -3.5004  -3.3489  -3.3193  -3.3191
    -2.9717  -2.9714  -2.7322  -2.6102  -2.2215  -2.2213  -2.1378  -2.0031
    -1.9251  -1.9251  -1.8678  -1.7969  -1.7969  -1.7273  -1.7236  -1.7235
    -1.5680  -1.5679  -1.5452  -1.5451  -1.3777  -1.3775  -1.0154  -0.9683
    -0.9449  -0.9447  -0.8752  -0.8750  -0.7536  -0.6364  -0.6363  -0.3881
    -0.3879  -0.3221  -0.2871  -0.2868  -0.2387  -0.2387  -0.2211  -0.0476
    -0.0473  -0.0319   0.0363   0.0366   0.0904   0.1800   0.1802   0.2121
     0.2228   0.2230   0.8236

[...]

          k =-0.5000 0.2887 0.0000 ( 13378 PWs)   bands (ev):

[...]

 ------ SPIN DOWN ----------

[...]

     the Fermi energy is     0.9362 ev

!    total energy              =   -3618.75280146 Ry
     Harris-Foulkes estimate   =   -3618.75278171 Ry
     estimated scf accuracy    <       0.00008588 Ry

     The total energy is the sum of the following terms:

     one-electron contribution =  -31900.60509644 Ry
     hartree contribution      =   15959.15967669 Ry
     xc contribution           =    -414.04522615 Ry
     ewald contribution        =   12736.81835413 Ry
     electric field correction =       0.00010237 Ry
     smearing contrib. (-TS)   =      -0.08061207 Ry

[...]

     convergence has been achieved in  31 iterations

     Forces acting on atoms (Ry/au):

     negative rho (up, down):  5.902E-04 2.889E-04
     atom    1 type  1   force =    -0.00007377   -0.00026756    0.01307261
     atom    2 type  1   force =     0.00008160   -0.00024447    0.01303660
     atom    3 type  1   force =     0.00000807    0.00031600    0.01313160
     atom    4 type  1   force =    -0.00003371    0.00017397    0.01052128
     atom    5 type  1   force =     0.00007688    0.00964830   -0.01455076
     atom    6 type  1   force =    -0.00007507    0.00012454   -0.00551864
     atom    7 type  1   force =    -0.00824979   -0.00494063   -0.01485714
     atom    8 type  1   force =     0.00825854   -0.00483899   -0.01506901
     atom    9 type  1   force =    -0.00000876   -0.00005859    0.00705358
     atom   10 type  1   force =     0.00001759    0.00136472   -0.00188822
     atom   11 type  1   force =     0.00120441   -0.00063541   -0.00180337
     atom   12 type  1   force =    -0.00120329   -0.00065299   -0.00177316
     atom   13 type  2   force =    -0.00000271    0.00001111   -0.00135538

     Total force =     0.008194     Total SCF correction =     0.012286
     SCF correction compared to forces is large: reduce conv_thr to get better values

     BFGS Geometry Optimization

     number of scf cycles    =   1
     number of bfgs steps    =   0

     energy   new            =   -3618.7528014604 Ry

     new trust radius        =       0.0070538303 bohr
     new conv_thr            =       0.0001000000 Ry

ATOMIC_POSITIONS (angstrom)
Co       1.253137179   0.723499087  10.000000000    0   0   0
Co       3.759411536   0.723499087  10.000000000    0   0   0
Co       2.506274357   2.893996350  10.000000000    0   0   0
Co       5.012548715   2.893996350  10.000000000    0   0   0
Co       5.012548715   1.446998175  12.046364444    0   0   0
Co       2.506274357   1.446998175  12.046364444    0   0   0
Co       6.265685894   3.617495438  12.046364444    0   0   0
Co       3.759411536   3.617495438  12.046364444    0   0   0
Co      -0.000004142  -0.000207205  13.958230782
Co       2.506275899  -0.009463368  14.090420157
Co       1.245082204   2.175311162  14.090474836
Co       3.767462470   2.175320232  14.090477094
S        0.000005564  -0.000034641  15.981821872

     Writing output data file calc.save
     Check: negative starting charge=(component1):   -0.000310
     NEW-OLD atomic charge density approx. for the potential

     Check: negative/imaginary core charge=   -0.000007    0.000000
     Check: negative starting charge=(component1):   -0.000310

[...]

     energy   old            =   -3618.7528014604 Ry
     energy   new            =   -3618.7528685682 Ry

     CASE: energy  _new < energy  _old

[...]

     new trust radius        =       0.0022146660 bohr
     new conv_thr            =       0.0000010000 Ry

[...]

     Threshold (ethr) on eigenvalues was too large:
     Diagonalizing with lowered threshold

     Davidson diagonalization with overlap
     ethr =  5.17E-08,  avg # of iterations =  1.6

[...]

     number of scf cycles    =   4
     number of bfgs steps    =   3

     energy   old            =   -3618.7528924755 Ry
     energy   new            =   -3618.7529017422 Ry

     CASE: energy  _new < energy  _old

     WARNING: bfgs curvature condition failed, Theta= 0.762
     new trust radius        =       0.0033219991 bohr
     new conv_thr            =       0.0000010000 Ry

ATOMIC_POSITIONS (angstrom)
Co       1.253137179   0.723499087  10.000000000    0   0   0
Co       3.759411536   0.723499087  10.000000000    0   0   0
Co       2.506274357   2.893996350  10.000000000    0   0   0
Co       5.012548715   2.893996350  10.000000000    0   0   0
Co       5.012548715   1.446998175  12.046364444    0   0   0
Co       2.506274358   1.446998175  12.046364444    0   0   0
Co       6.265685894   3.617495437  12.046364444    0   0   0
Co       3.759411536   3.617495437  12.046364444    0   0   0
Co       0.000024446   0.000021596  13.955406390
Co       2.506248992  -0.007724730  14.089492217
Co       1.246363676   2.174296816  14.089402755
Co       3.766175187   2.174327594  14.089401038
S        0.000005861  -0.000025029  15.978950499

     Writing output data file calc.save
     Check: negative starting charge=(component1):   -0.000310
     NEW-OLD atomic charge density approx. for the potential

     Check: negative/imaginary core charge=   -0.000007    0.000000
     Check: negative starting charge=(component1):   -0.000310

[...]

     Self-consistent Calculation

[...]

     total energy              =   -3618.75291212 Ry
     Harris-Foulkes estimate   =   -3618.75291203 Ry
     estimated scf accuracy    <       0.00000517 Ry

[...]

     iteration #  9     ecut=    36.75 Ry     beta=0.10
     Davidson diagonalization with overlap
     ethr =  2.46E-09,  avg # of iterations =  2.4

     negative rho (up, down):  5.897E-04 2.880E-04

[...]

     Adding external electric field

     Computed dipole along edir(3) :
        Dipole               -0.1432 Ry au,         -0.3641 Debye
        Dipole field         -0.0005 Ry au

        Potential amp.        0.0417 Ry
        Total length         40.9758 bohr

     Magnetic moment per site:
     atom:    1    charge:   14.4896    magn:    1.7359    constr:    0.0000
     atom:    2    charge:   14.4896    magn:    1.7359    constr:    0.0000
     atom:    3    charge:   14.4898    magn:    1.7358    constr:    0.0000
     atom:    4    charge:   14.4887    magn:    1.7432    constr:    0.0000
     atom:    5    charge:   14.5095    magn:    1.6670    constr:    0.0000
     atom:    6    charge:   14.5020    magn:    1.7376    constr:    0.0000
     atom:    7    charge:   14.5096    magn:    1.6669    constr:    0.0000
     atom:    8    charge:   14.5096    magn:    1.6669    constr:    0.0000
     atom:    9    charge:   14.5595    magn:    1.2224    constr:    0.0000
     atom:   10    charge:   14.4968    magn:    1.7959    constr:    0.0000
     atom:   11    charge:   14.4969    magn:    1.7958    constr:    0.0000
     atom:   12    charge:   14.4968    magn:    1.7959    constr:    0.0000
     atom:   13    charge:    2.9244    magn:    0.0837    constr:    0.0000

     End of self-consistent calculation

 ------ SPIN UP ------------

[...]

 ------ SPIN DOWN ----------

[...]

          k = 0.3333-0.3849 0.0000 ( 13313 PWs)   bands (ev):

[...]

          k =-0.5000-0.2887 0.0000 ( 13378 PWs)   bands (ev):

   -93.5382 -93.1899 -93.1836 -93.1723 -93.1468 -92.9689 -92.9685 -92.9618
   -92.9529 -92.9519 -92.9514 -92.9445 -57.1092 -56.7983 -56.7855 -56.6296
   -56.6132 -56.5554 -56.5491 -56.5429 -56.5374 -56.5322 -56.5202 -56.5172
   -56.5139 -56.4611 -56.4376 -56.4073 -56.3954 -56.3804 -56.3338 -56.3310
   -56.3262 -56.3176 -56.3162 -56.3142 -56.3105 -56.3054 -56.2934 -56.2865
   -56.2801 -56.2687 -56.2678 -56.2659 -56.2635 -56.2415 -56.2407 -56.2355
   -11.3674  -5.3515  -5.3406  -3.7493  -3.6318  -2.8654  -2.7357  -2.6211
    -2.4367  -2.3477  -2.2428  -2.2188  -2.1482  -1.8604  -1.6054  -1.5294
    -1.5281  -1.4247  -1.2648  -1.1512  -0.9762  -0.9569  -0.9198  -0.9026
    -0.8165  -0.8058  -0.4932  -0.4551  -0.4212  -0.3584  -0.3583  -0.3381
    -0.2386  -0.0900  -0.0167   0.0412   0.0670   0.0875   0.1260   0.2590
     0.3435   0.3918   0.5084   0.6867   0.7109   0.7754   0.8250   0.9337
     0.9756   0.9983   1.0444   1.0961   1.1262   1.1555   1.1809   1.2307
     1.3924   1.4628   1.5047   1.6270   1.6698   1.8666   1.8804   1.9269
     1.9389   2.0346   2.0679

     the Fermi energy is     0.9362 ev

!    total energy              =   -3618.75291173 Ry
     Harris-Foulkes estimate   =   -3618.75290933 Ry
     estimated scf accuracy    <       0.00000074 Ry

     The total energy is the sum of the following terms:

     one-electron contribution =  -31907.46415621 Ry
     hartree contribution      =   15962.51885564 Ry
     xc contribution           =    -414.04452617 Ry
     ewald contribution        =   12740.31733612 Ry
     electric field correction =       0.00007288 Ry
     smearing contrib. (-TS)   =      -0.08049399 Ry

     total magnetization       =    19.73 Bohr mag/cell
     absolute magnetization    =    22.37 Bohr mag/cell

     convergence has been achieved in   9 iterations

     Forces acting on atoms (Ry/au):

     negative rho (up, down):  5.897E-04 2.880E-04
     atom    1 type  1   force =     0.00009208    0.00007356    0.01052157
     atom    2 type  1   force =    -0.00009354    0.00007516    0.01052201
     atom    3 type  1   force =     0.00000064   -0.00013391    0.01048890
     atom    4 type  1   force =    -0.00000225   -0.00002859    0.00755294
     atom    5 type  1   force =    -0.00001554    0.00872117   -0.01149321
     atom    6 type  1   force =     0.00001380   -0.00003950   -0.00309643
     atom    7 type  1   force =    -0.00758928   -0.00433990   -0.01144940
     atom    8 type  1   force =     0.00758894   -0.00435759   -0.01144092
     atom    9 type  1   force =    -0.00001046    0.00003305    0.00083637
     atom   10 type  1   force =     0.00001112    0.00075504   -0.00060503
     atom   11 type  1   force =     0.00068452   -0.00037213   -0.00060326
     atom   12 type  1   force =    -0.00067901   -0.00038154   -0.00060519
     atom   13 type  2   force =    -0.00000101   -0.00000482   -0.00062834

     Total force =     0.001994     Total SCF correction =     0.003473
     SCF correction compared to forces is large: reduce conv_thr to get better values

     bfgs converged in   5 scf cycles and   4 bfgs steps
     (criteria: energy <  1.0E+12, force <  1.9E-03)

     End of BFGS Geometry Optimization

     Final energy   =   -3618.7529117292 Ry
Begin final coordinates

ATOMIC_POSITIONS (angstrom)
Co       1.253137179   0.723499087  10.000000000    0   0   0
Co       3.759411536   0.723499087  10.000000000    0   0   0
Co       2.506274357   2.893996350  10.000000000    0   0   0
Co       5.012548715   2.893996350  10.000000000    0   0   0
Co       5.012548715   1.446998175  12.046364444    0   0   0
Co       2.506274358   1.446998175  12.046364444    0   0   0
Co       6.265685894   3.617495437  12.046364444    0   0   0
Co       3.759411536   3.617495437  12.046364444    0   0   0
Co       0.000024446   0.000021596  13.955406390
Co       2.506248992  -0.007724730  14.089492217
Co       1.246363676   2.174296816  14.089402755
Co       3.766175187   2.174327594  14.089401038
S        0.000005861  -0.000025029  15.978950499
End final coordinates

     Writing output data file calc.save

     General routines

     Parallel routines

   This run was terminated on:  18:26:25  11Jan2019

   JOB DONE.
Job  /afs/slac/g/suncat/bin/suncat-tsmpirun -x LD_LIBRARY_PATH -wdir /tmp/qe_673167ujltjz_4_scratch pw.x -npool 4 -in pw.pwi

TID   HOST_NAME   COMMAND_LINE            STATUS            TERMINATION_TIME
00000 suncat0030 pw.x -npool 4 -i  Done                     01/11/2019 18:26:25
00001 suncat0030 pw.x -npool 4 -i  Done                     01/11/2019 18:26:25
00002 suncat0030 pw.x -npool 4 -i  Done                     01/11/2019 18:26:25
00003 suncat0030 pw.x -npool 4 -i  Done                     01/11/2019 18:26:25
00004 suncat0030 pw.x -npool 4 -i  Done                     01/11/2019 18:26:25
00005 suncat0030 pw.x -npool 4 -i  Done                     01/11/2019 18:26:25
00006 suncat0030 pw.x -npool 4 -i  Done                     01/11/2019 18:26:25
00007 suncat0030 pw.x -npool 4 -i  Done                     01/11/2019 18:26:25
00008 suncat0010 pw.x -npool 4 -i  Done                     01/11/2019 18:26:25
00009 suncat0010 pw.x -npool 4 -i  Done                     01/11/2019 18:26:25
00010 suncat0010 pw.x -npool 4 -i  Done                     01/11/2019 18:26:25
00011 suncat0010 pw.x -npool 4 -i  Done                     01/11/2019 18:26:25
00012 suncat0010 pw.x -npool 4 -i  Done                     01/11/2019 18:26:25
00013 suncat0010 pw.x -npool 4 -i  Done                     01/11/2019 18:26:25
00014 suncat0010 pw.x -npool 4 -i  Done                     01/11/2019 18:26:25
00015 suncat0010 pw.x -npool 4 -i  Done                     01/11/2019 18:26:25
00016 suncat0188 pw.x -npool 4 -i  Done                     01/11/2019 18:26:25
00017 suncat0188 pw.x -npool 4 -i  Done                     01/11/2019 18:26:25
00018 suncat0188 pw.x -npool 4 -i  Done                     01/11/2019 18:26:25
00019 suncat0188 pw.x -npool 4 -i  Done                     01/11/2019 18:26:25
00020 suncat0188 pw.x -npool 4 -i  Done                     01/11/2019 18:26:25
00021 suncat0188 pw.x -npool 4 -i  Done                     01/11/2019 18:26:25
00022 suncat0188 pw.x -npool 4 -i  Done                     01/11/2019 18:26:25
00023 suncat0188 pw.x -npool 4 -i  Done                     01/11/2019 18:26:25
00024 suncat0267 pw.x -npool 4 -i  Done                     01/11/2019 18:26:25
00025 suncat0267 pw.x -npool 4 -i  Done                     01/11/2019 18:26:25
00026 suncat0267 pw.x -npool 4 -i  Done                     01/11/2019 18:26:25
00027 suncat0267 pw.x -npool 4 -i  Done                     01/11/2019 18:26:25
00028 suncat0267 pw.x -npool 4 -i  Done                     01/11/2019 18:26:25
00029 suncat0267 pw.x -npool 4 -i  Done                     01/11/2019 18:26:25
00030 suncat0267 pw.x -npool 4 -i  Done                     01/11/2019 18:26:25
00031 suncat0267 pw.x -npool 4 -i  Done                     01/11/2019 18:26:25