     Program PWSCF v.5.1rc2 (svn rev. 11289) starts on 16Apr2018 at 13:17: 2

     Current dimensions of program PWSCF are:
     Max number of different atomic species (ntypx) = 10
     Max number of k-points (npk) =  40000
     Max angular momentum in pseudopotentials (lmaxx) =  3
     Presently stress not available with electric field

     IMPORTANT: XC functional enforced from input :
     Exchange-correlation      = BEEF-VDW ( 1  4 27 13 2)
     Any further DFT definition will be discarded
     Please, verify this is what you really want

     Subspace diagonalization in iterative solution of the eigenvalue problem:
     a serial algorithm will be used

     bravais-lattice index     =            0
     lattice parameter (alat)  =       1.8897  a.u.
     unit-cell volume          =    5739.2980 (a.u.)^3
     number of atoms/cell      =           14
     number of atomic types    =            3
     number of electrons       =       151.00
     number of Kohn-Sham states=           85
     kinetic-energy cutoff     =      36.7493  Ry
     charge density cutoff     =     367.4932  Ry
     convergence threshold     =      1.0E-05
     mixing beta               =       0.3000
     number of iterations used =           10  plain     mixing
     Exchange-correlation      = BEEF-VDW ( 1  4 27 13 2)
     nstep                     =           50

     celldm(1)=   1.889726  celldm(2)=   0.000000  celldm(3)=   0.000000
     celldm(4)=   0.000000  celldm(5)=   0.000000  celldm(6)=   0.000000

     crystal axes: (cart. coord. in units of alat)
               a(1) = (   6.254208   0.000000   0.000000 )
               a(2) = (   3.127104   5.416303   0.000000 )
               a(3) = (   0.000000   0.000000  25.106540 )

     reciprocal axes: (cart. coord. in units 2 pi/alat)
               b(1) = (  0.159892 -0.092314  0.000000 )
               b(2) = (  0.000000  0.184628  0.000000 )
               b(3) = (  0.000000  0.000000  0.039830 )

     PseudoPot. # 1 for Cd read from file:
     /u/if/mamunm/psp/gbrv1.5pbe/Cd.UPF
     MD5 check sum: 17164a7926edb8e0dc231208abae86a6
     Pseudo is Ultrasoft + core correction, Zval = 12.0
     Generated by new atomic code, or converted to UPF format
     Using radial grid of  889 points,  6 beta functions with:
                l(1) =   0
                l(2) =   0
                l(3) =   1
                l(4) =   1
                l(5) =   2
                l(6) =   2
     Q(r) pseudized with  6 coefficients,  rinner =    1.000   1.000   1.000
                                                       1.000   1.000

     PseudoPot. # 2 for O  read from file:
     /u/if/mamunm/psp/gbrv1.5pbe/O.UPF
     MD5 check sum: 734c27235a0248c51dbae37a1fbe46ec
     Pseudo is Ultrasoft + core correction, Zval =  6.0
     Generated by new atomic code, or converted to UPF format
     Using radial grid of  737 points,  5 beta functions with:
                l(1) =   0
                l(2) =   0
                l(3) =   1
                l(4) =   1
                l(5) =   2
     Q(r) pseudized with  8 coefficients,  rinner =    0.900   0.900   0.900
                                                       0.900   0.900

     PseudoPot. # 3 for H  read from file:
     /u/if/mamunm/psp/gbrv1.5pbe/H.UPF
     MD5 check sum: 761ae9a214b05c3daf00ab9f6b793d6f
     Pseudo is Ultrasoft, Zval =  1.0
     Generated by new atomic code, or converted to UPF format
     Using radial grid of  615 points,  2 beta functions with:
                l(1) =   0
                l(2) =   0
     Q(r) pseudized with  8 coefficients,  rinner =    0.700

     vdW kernel table read from file vdW_kernel_table
     MD5 check sum: 095c7af220d748ca6e76c0b4c6cfb241

     atomic species   valence    mass     pseudopotential
        Cd1           12.00   112.41400     Cd( 1.00)
        O1             6.00    15.99900     O ( 1.00)
        H1             1.00     1.00800     H ( 1.00)

     No symmetry found

   Cartesian axes

     site n.     atom                  positions (alat units)
         1           Cd1 tau(   1) = (   1.5635521   0.9027172  10.0000000  )
         2           Cd1 tau(   2) = (   4.6906562   0.9027172  10.0000000  )
         3           Cd1 tau(   3) = (   3.1271041   3.6108688  10.0000000  )
         4           Cd1 tau(   4) = (   6.2542083   3.6108688  10.0000000  )
         5           Cd1 tau(   5) = (   6.2542083   1.8054344  12.5532698  )
         6           Cd1 tau(   6) = (   3.1271041   1.8054344  12.5532698  )
         7           Cd1 tau(   7) = (   7.8177603   4.5135860  12.5532698  )
         8           Cd1 tau(   8) = (   4.6906562   4.5135860  12.5532698  )
         9           Cd1 tau(   9) = (   0.0000000   0.0000000  15.1065397  )
        10           Cd1 tau(  10) = (   3.1271041   0.0000000  15.1065397  )
        11           Cd1 tau(  11) = (   1.5635521   2.7081516  15.1065397  )
        12           Cd1 tau(  12) = (   4.6906562   2.7081516  15.1065397  )
        13           O1  tau(  13) = (   1.5635521   0.9027172  16.4715397  )
        14           H1  tau(  14) = (   1.5635521   0.9027172  17.4215397  )

     number of k points=    20  Fermi-Dirac smearing, width (Ry)=  0.0110
                       cart. coord. in units 2pi/alat
        k(    1) = (   0.0000000   0.0000000   0.0000000), wk =   0.0555556
        k(    2) = (   0.0000000   0.0307713   0.0000000), wk =   0.1111111
        k(    3) = (   0.0000000   0.0615426   0.0000000), wk =   0.1111111
        k(    4) = (   0.0000000  -0.0923139   0.0000000), wk =   0.0555556
        k(    5) = (   0.0266487  -0.0153856   0.0000000), wk =   0.1111111
        k(    6) = (   0.0266487   0.0153856   0.0000000), wk =   0.1111111
        k(    7) = (   0.0266487   0.0461569   0.0000000), wk =   0.1111111
        k(    8) = (   0.0266487  -0.1076995   0.0000000), wk =   0.1111111
        k(    9) = (   0.0266487  -0.0769282   0.0000000), wk =   0.1111111
        k(   10) = (   0.0266487  -0.0461569   0.0000000), wk =   0.1111111
        k(   11) = (   0.0532974  -0.0307713   0.0000000), wk =   0.1111111
        k(   12) = (   0.0532974   0.0000000   0.0000000), wk =   0.1111111
        k(   13) = (   0.0532974   0.0307713   0.0000000), wk =   0.1111111
        k(   14) = (   0.0532974  -0.1230852   0.0000000), wk =   0.1111111
        k(   15) = (   0.0532974  -0.0923139   0.0000000), wk =   0.1111111
        k(   16) = (   0.0532974  -0.0615426   0.0000000), wk =   0.1111111
        k(   17) = (  -0.0799462   0.0461569   0.0000000), wk =   0.0555556
        k(   18) = (  -0.0799462   0.0769282   0.0000000), wk =   0.1111111
        k(   19) = (  -0.0799462   0.1076995   0.0000000), wk =   0.1111111
        k(   20) = (  -0.0799462  -0.0461569   0.0000000), wk =   0.0555556

     Largest allocated arrays     est. size (Mb)     dimensions
     Largest temporary arrays     est. size (Mb)     dimensions

     Initial potential from superposition of free atoms
     Check: negative starting charge=   -0.257923

     starting charge  144.99949, renormalised to  151.00000

     negative rho (up, down):  2.686E-01 0.000E+00

     *
     * You are using vdW-DF for exchange-correlation in this calculation.
     * Please cite the following three references that made this development
     * possible:
     *
     *   M. Dion, H. Rydberg, E. Schroder, D. C. Langreth, and
     *   B. I. Lundqvist, Phys. Rev. Lett. 92, 246401 (2004).
     *
     *   T. Thonhauser, V. R. Cooper, S. Li, A. Puzder, P. Hyldgaard, and
     *   D. C. Langreth, Phys. Rev. B 76, 125112 (2007).
     *
     *   G. Roman-Perez and J. M. Soler, Phys. Rev. Lett. 103, 096102 (2009).
     *
     *
     * If you are using vdW-DF2, please also cite:
     *
     *   K. Lee, E. D. Murray, L. Kong, B. I. Lundqvist, and
     *   D. C. Langreth, Phys. Rev. B 82, 081101(R) (2010).
     *
     *
     * If you are calculating the stress with vdW-DF, please also cite:
     *
     *   R. Sabatini, E. Kucukbenli, B. Kolb, T. Thonhauser, and
     *   S. de Gironcoli, J. Phys.: Condens. Matter 24, 424209 (2012).
     *

     Carrying out vdW-DF run using the following parameters:

     Nqs =      20    Nr_points =    1024   r_max =   100.000
     q_mesh =
               0.00001000     0.04494208     0.09755937     0.15916263
               0.23128650     0.31572767     0.41458969     0.53033537
               0.66584808     0.82450364     1.01025438     1.22772762
               1.48234092     1.78043706     2.12944203     2.53805004
               3.01644009     3.57652955     4.23227104     5.00000000

     Gradients computed in reciprocal space

     Adding external electric field

     Computed dipole along edir(3) :
        Dipole               -2.2191 Ry au,         -5.6404 Debye
        Dipole field         -0.0049 Ry au

        Potential amp.        0.4495 Ry
        Total length         46.2584 bohr

     Starting wfc are  113 randomized atomic wfcs

     Self-consistent Calculation

     iteration #  1     ecut=    36.75 Ry     beta=0.30
     Davidson diagonalization with overlap
     ethr =  1.00E-02,  avg # of iterations =  6.2

[...]

     total energy              =   -1419.94933121 Ry
     Harris-Foulkes estimate   =   -1427.42166127 Ry
     estimated scf accuracy    <      15.57019297 Ry

[...]

     End of self-consistent calculation

          k = 0.0000 0.0000 0.0000 ( 21643 PWs)   bands (ev):

   -19.5770  -9.2757  -8.9837  -8.9837  -8.9552  -8.8507  -8.8507  -8.8473
    -8.8275  -8.7380  -8.7380  -8.7060  -8.6812  -8.6812  -8.5551  -8.4639
    -8.4474  -8.4474  -8.4326  -8.4326  -8.4276  -8.3915  -8.3828  -8.3827
    -8.3255  -8.3255  -8.3126  -8.3027  -8.3027  -8.2301  -8.2300  -7.9856
    -7.9856  -7.9523  -7.9523  -7.9117  -7.8787  -7.8662  -7.8661  -7.8196
    -7.7888  -7.7887  -7.7841  -7.7840  -7.7169  -7.7169  -7.7081  -7.6691
    -7.6691  -7.6421  -7.6373  -7.6373  -7.6104  -7.6103  -7.5999  -7.5039
    -7.4733  -7.4733  -7.4718  -7.4661  -7.4660  -7.4101  -6.5062  -5.1674
    -3.3411  -3.3410  -2.6036  -1.2961  -1.2961  -1.2341  -0.9169  -0.9169
    -0.8894  -0.1627   0.1043   0.1044   0.2216   0.9112   0.9112   1.3863
     2.4604   2.4604   2.6944   2.8650   3.1281

[...]

          k =-0.0799 0.0462 0.0000 ( 21576 PWs)   bands (ev):

[...]

     the Fermi energy is     0.9391 ev

!    total energy              =   -1426.80006345 Ry
     Harris-Foulkes estimate   =   -1426.80006643 Ry
     estimated scf accuracy    <       0.00000982 Ry

     The total energy is the sum of the following terms:

     one-electron contribution =   -9178.80328580 Ry
     hartree contribution      =    4686.60316435 Ry
     xc contribution           =    -498.22924379 Ry
     ewald contribution        =    3563.65703337 Ry
     electric field correction =       0.00011273 Ry
     smearing contrib. (-TS)   =      -0.02784431 Ry

     convergence has been achieved in  15 iterations

 BEEF-vdW xc energy contributions
           1 :   -436.399125821425
           2 :    398.965742590740
           3 :   -335.860267056572
           4 :    265.056958321436
           5 :   -203.079468112268
           6 :    159.132690827142
           7 :   -133.404787210117
           8 :    119.624806224287
           9 :   -109.901611667341
          10 :    99.0210837193204
          11 :   -86.1540011111546
          12 :    73.6892711950202
          13 :   -64.5437978845849
          14 :    59.8750395127178
          15 :   -58.4757606458294
          16 :    57.8486335602116
          17 :   -55.9304703932230
          18 :    52.2368563332761
          19 :   -47.8115130741805
          20 :    44.2332539424642
          21 :   -42.4728813503010
          22 :    42.3408730540453
          23 :   -42.7679710036421
          24 :    42.5933397294256
          25 :   -41.2770235423359
          26 :    39.1099460512716
          27 :   -36.8869330372191
          28 :    35.3398243433658
          29 :   -34.7161463049223
          30 :    34.7242234219733
          31 :   -39.4556376861327
          32 :   -28.7635798327401

     Forces acting on atoms (Ry/au):

     negative rho (up, down):  2.666E-01 0.000E+00
     atom    1 type  1   force =     0.00005842    0.00001887   -0.01309987
     atom    2 type  1   force =    -0.00006427   -0.00037065   -0.01632405
     atom    3 type  1   force =    -0.00034685    0.00015378   -0.01635150
     atom    4 type  1   force =     0.00035720    0.00024684   -0.01651783
     atom    5 type  1   force =     0.00224127   -0.00131817    0.00503088
     atom    6 type  1   force =    -0.00227040   -0.00130423    0.00502934
     atom    7 type  1   force =     0.00003337   -0.00000188   -0.00111956
     atom    8 type  1   force =    -0.00000542    0.00259321    0.00510904
     atom    9 type  1   force =    -0.03369684   -0.01947904   -0.00116493
     atom   10 type  1   force =     0.03366132   -0.01944346   -0.00109603
     atom   11 type  1   force =     0.00002598    0.03891323   -0.00118472
     atom   12 type  1   force =     0.00002366    0.00002220    0.00986329
     atom   13 type  2   force =    -0.00001638   -0.00001982   -0.01440523
     atom   14 type  3   force =    -0.00000106   -0.00001089    0.05623116

     Total force =     0.089504     Total SCF correction =     0.006785

     entering subroutine stress ...

     negative rho (up, down):  2.666E-01 0.000E+00
          total   stress  (Ry/bohr**3)                   (kbar)     P=    7.39
   0.00001980   0.00000000   0.00000001          2.91      0.00      0.00
   0.00000000   0.00001980  -0.00000000          0.00      2.91     -0.00
   0.00000001  -0.00000000   0.00011117          0.00     -0.00     16.35

     BFGS Geometry Optimization

     number of scf cycles    =   1
     number of bfgs steps    =   0

     energy   new            =   -1426.8000634493 Ry

     new trust radius        =       0.0562311646 bohr
     new conv_thr            =       0.0000099958 Ry

ATOMIC_POSITIONS (crystal)
Cd1      0.166666667   0.166666667   0.398302599    0   0   0
Cd1      0.666666667   0.166666667   0.398302599    0   0   0
Cd1      0.166666667   0.666666667   0.398302599    0   0   0
Cd1      0.666666667   0.666666667   0.398302599    0   0   0
Cd1      0.833333333   0.333333333   0.500000000    0   0   0
Cd1      0.333333333   0.333333333   0.500000000    0   0   0
Cd1      0.833333333   0.833333333   0.500000000    0   0   0
Cd1      0.333333333   0.833333333   0.500000000    0   0   0
Cd1     -0.001899578  -0.001903118   0.601672848
Cd1      0.503797951  -0.001899641   0.601674300
Cd1     -0.001898729   0.503801854   0.601672430
Cd1      0.500000918   0.500002169   0.601905292
O1       0.166666249   0.166664730   0.655762083
H1       0.166667109   0.166665602   0.695089652

     Writing output data file calc.save
     Check: negative starting charge=   -0.257923
     NEW-OLD atomic charge density approx. for the potential
     Check: negative starting charge=   -0.258354

[...]

     energy   old            =   -1426.8000634493 Ry
     energy   new            =   -1426.8049061725 Ry

     CASE: energy  _new < energy  _old

[...]

     Total force =     0.004462     Total SCF correction =     0.000889
     SCF correction compared to forces is large: reduce conv_thr to get better values

[...]

     Threshold (ethr) on eigenvalues was too large:
     Diagonalizing with lowered threshold

     Davidson diagonalization with overlap
     ethr =  6.84E-08,  avg # of iterations =  1.1

[...]

     Threshold (ethr) on eigenvalues was too large:
     Diagonalizing with lowered threshold

     Davidson diagonalization with overlap
     ethr =  8.21E-08,  avg # of iterations =  1.1

[...]

     Total force =     0.005219     Total SCF correction =     0.000260

[...]

     number of scf cycles    =  22
     number of bfgs steps    =  21

     energy   old            =   -1426.8302987384 Ry
     energy   new            =   -1426.8304528174 Ry

     CASE: energy  _new < energy  _old

     new trust radius        =       0.0714669029 bohr
     new conv_thr            =       0.0000001000 Ry

ATOMIC_POSITIONS (crystal)
Cd1      0.166666667   0.166666667   0.398302599    0   0   0
Cd1      0.666666667   0.166666667   0.398302599    0   0   0
Cd1      0.166666667   0.666666667   0.398302599    0   0   0
Cd1      0.666666667   0.666666667   0.398302599    0   0   0
Cd1      0.833333333   0.333333333   0.500000000    0   0   0
Cd1      0.333333333   0.333333333   0.500000000    0   0   0
Cd1      0.833333333   0.833333333   0.500000000    0   0   0
Cd1      0.333333333   0.833333333   0.500000000    0   0   0
Cd1     -0.008201975  -0.008098901   0.617509695
Cd1      0.516317398  -0.008095622   0.617531106
Cd1     -0.008064100   0.516152013   0.617536624
Cd1      0.500077413   0.499991561   0.608822334
O1       0.166535237   0.166705643   0.674993479
H1       0.166697215   0.166660380   0.713860140

     Writing output data file calc.save
     Check: negative starting charge=   -0.261157
     NEW-OLD atomic charge density approx. for the potential
     Check: negative starting charge=   -0.260062

[...]

     Self-consistent Calculation

[...]

     total energy              =   -1426.83057729 Ry
     Harris-Foulkes estimate   =   -1426.83057753 Ry
     estimated scf accuracy    <       0.00000048 Ry

     iteration #  8     ecut=    36.75 Ry     beta=0.30
     Davidson diagonalization with overlap
     ethr =  3.19E-10,  avg # of iterations =  3.6

[...]

     negative rho (up, down):  2.683E-01 0.000E+00

     Adding external electric field

     Computed dipole along edir(3) :
        Dipole                0.1649 Ry au,          0.4192 Debye
        Dipole field          0.0004 Ry au

        Potential amp.       -0.0334 Ry
        Total length         46.2584 bohr

     End of self-consistent calculation

[...]

          k = 0.0533-0.0615 0.0000 ( 21571 PWs)   bands (ev):

[...]

          k =-0.0799-0.0462 0.0000 ( 21576 PWs)   bands (ev):

   -18.7931  -8.7468  -8.7392  -8.6443  -8.6415  -8.6204  -8.6009  -8.5883
    -8.5635  -8.5567  -8.5392  -8.5370  -8.4587  -8.4343  -8.4292  -8.4042
    -8.3901  -8.3804  -8.3754  -8.3527  -8.2927  -8.2825  -8.2542  -8.2444
    -8.2015  -8.1924  -8.1901  -8.1818  -8.1675  -8.1498  -8.1335  -8.1281
    -8.1041  -8.0523  -8.0454  -8.0375  -8.0219  -8.0162  -7.9942  -7.9941
    -7.9696  -7.9535  -7.9453  -7.9234  -7.9150  -7.9109  -7.9045  -7.8835
    -7.8767  -7.8645  -7.8170  -7.8113  -7.8030  -7.7947  -7.7380  -7.7230
    -7.6970  -7.6526  -7.6515  -7.6025  -7.5782  -6.2592  -5.6075  -5.4094
    -4.3018  -3.5274  -3.0065  -2.7336  -2.4053  -2.3175  -1.6594  -1.4445
    -0.6026  -0.5403   0.9995   1.2004   1.4913   1.8497   3.1404   3.1579
     3.5106   3.5516   3.8308   3.9149   4.2094

     the Fermi energy is     0.9218 ev

!    total energy              =   -1426.83057721 Ry
     Harris-Foulkes estimate   =   -1426.83057711 Ry
     estimated scf accuracy    <       0.00000009 Ry

     The total energy is the sum of the following terms:

     one-electron contribution =   -8671.23133963 Ry
     hartree contribution      =    4432.97208321 Ry
     xc contribution           =    -497.98558796 Ry
     ewald contribution        =    3309.44154668 Ry
     electric field correction =       0.00005955 Ry
     smearing contrib. (-TS)   =      -0.02733906 Ry

     convergence has been achieved in   8 iterations

 BEEF-vdW xc energy contributions
           1 :   -436.131705918819
           2 :    398.512820787734
           3 :   -335.210047546253
           4 :    264.394121966735
           5 :   -202.648299653247
           6 :    159.052414878251
           7 :   -133.577262695182
           8 :    119.804434242880
           9 :   -109.872327062768
          10 :    98.7455577384434
          11 :   -85.7859248473757
          12 :    73.4451026474456
          13 :   -64.5368477795383
          14 :    60.0387056232827
          15 :   -58.6273920673831
          16 :    57.8370619645331
          17 :   -55.7504254394970
          18 :    52.0236945921003
          19 :   -47.7260856467422
          20 :    44.3319232080149
          21 :   -42.6652507399085
          22 :    42.4649422426283
          23 :   -42.7189168188372
          24 :    42.4023706627389
          25 :   -41.0804792483268
          26 :    39.0380339688795
          27 :   -36.9633291682489
          28 :    35.4698800946057
          29 :   -34.7675943862993
          30 :    34.6332614936319
          31 :   -39.4328681990007
          32 :   -28.6967548992253

     Forces acting on atoms (Ry/au):

     negative rho (up, down):  2.683E-01 0.000E+00
     atom    1 type  1   force =    -0.00000466   -0.00000208   -0.01648768
     atom    2 type  1   force =    -0.00000170   -0.00015865   -0.01880983
     atom    3 type  1   force =    -0.00013892    0.00007672   -0.01880982
     atom    4 type  1   force =     0.00013423    0.00007617   -0.01881151
     atom    5 type  1   force =     0.00321646   -0.00185648    0.01999698
     atom    6 type  1   force =    -0.00321863   -0.00185649    0.01999982
     atom    7 type  1   force =    -0.00000350   -0.00000823    0.01213315
     atom    8 type  1   force =    -0.00000113    0.00370959    0.02000817
     atom    9 type  1   force =     0.00076530    0.00033437   -0.00001180
     atom   10 type  1   force =    -0.00079760    0.00039102   -0.00000900
     atom   11 type  1   force =     0.00003253   -0.00069048   -0.00006815
     atom   12 type  1   force =    -0.00004857    0.00005372    0.00021941
     atom   13 type  2   force =     0.00009618   -0.00008334   -0.00072194
     atom   14 type  3   force =    -0.00003000    0.00001417    0.00137218

     Total force =     0.002108     Total SCF correction =     0.000867
     SCF correction compared to forces is large: reduce conv_thr to get better values

     entering subroutine stress ...

     negative rho (up, down):  2.683E-01 0.000E+00
          total   stress  (Ry/bohr**3)                   (kbar)     P=   -0.38
  -0.00002107   0.00000001   0.00000001         -3.10      0.00      0.00
   0.00000001  -0.00002105  -0.00000003          0.00     -3.10     -0.00
   0.00000001  -0.00000003   0.00003427          0.00     -0.00      5.04

     bfgs converged in  23 scf cycles and  22 bfgs steps
     (criteria: energy <  1.0E+00, force <  1.9E-03)

     End of BFGS Geometry Optimization

     Final energy   =   -1426.8305772059 Ry
Begin final coordinates

ATOMIC_POSITIONS (crystal)
Cd1      0.166666667   0.166666667   0.398302599    0   0   0
Cd1      0.666666667   0.166666667   0.398302599    0   0   0
Cd1      0.166666667   0.666666667   0.398302599    0   0   0
Cd1      0.666666667   0.666666667   0.398302599    0   0   0
Cd1      0.833333333   0.333333333   0.500000000    0   0   0
Cd1      0.333333333   0.333333333   0.500000000    0   0   0
Cd1      0.833333333   0.833333333   0.500000000    0   0   0
Cd1      0.333333333   0.833333333   0.500000000    0   0   0
Cd1     -0.008201975  -0.008098901   0.617509695
Cd1      0.516317398  -0.008095622   0.617531106
Cd1     -0.008064100   0.516152013   0.617536624
Cd1      0.500077413   0.499991561   0.608822334
O1       0.166535237   0.166705643   0.674993479
H1       0.166697215   0.166660380   0.713860140
End final coordinates

     Writing output data file calc.save

     General routines

     Parallel routines

   This run was terminated on:  15:41:10  16Apr2018

   JOB DONE.
Job  /afs/slac/g/suncat/bin/suncat-tsmpirun -x LD_LIBRARY_PATH -wdir /scratch/qe130226_3cR9K pw.x -npool 4 -in pw.inp

TID   HOST_NAME   COMMAND_LINE            STATUS            TERMINATION_TIME
00000 suncat0178 pw.x -npool 4 -i  Done                     04/16/2018 15:41:10
00001 suncat0178 pw.x -npool 4 -i  Done                     04/16/2018 15:41:10
00002 suncat0178 pw.x -npool 4 -i  Done                     04/16/2018 15:41:10
00003 suncat0178 pw.x -npool 4 -i  Done                     04/16/2018 15:41:10
00004 suncat0178 pw.x -npool 4 -i  Done                     04/16/2018 15:41:10
00005 suncat0178 pw.x -npool 4 -i  Done                     04/16/2018 15:41:10
00006 suncat0178 pw.x -npool 4 -i  Done                     04/16/2018 15:41:10
00007 suncat0178 pw.x -npool 4 -i  Done                     04/16/2018 15:41:10
00008 suncat0175 pw.x -npool 4 -i  Done                     04/16/2018 15:41:10
00009 suncat0175 pw.x -npool 4 -i  Done                     04/16/2018 15:41:10
00010 suncat0175 pw.x -npool 4 -i  Done                     04/16/2018 15:41:10
00011 suncat0175 pw.x -npool 4 -i  Done                     04/16/2018 15:41:10
00012 suncat0175 pw.x -npool 4 -i  Done                     04/16/2018 15:41:10
00013 suncat0175 pw.x -npool 4 -i  Done                     04/16/2018 15:41:10
00014 suncat0175 pw.x -npool 4 -i  Done                     04/16/2018 15:41:10
00015 suncat0175 pw.x -npool 4 -i  Done                     04/16/2018 15:41:10
00016 suncat0115 pw.x -npool 4 -i  Done                     04/16/2018 15:41:10
00017 suncat0115 pw.x -npool 4 -i  Done                     04/16/2018 15:41:10
00018 suncat0115 pw.x -npool 4 -i  Done                     04/16/2018 15:41:10
00019 suncat0115 pw.x -npool 4 -i  Done                     04/16/2018 15:41:10
00020 suncat0115 pw.x -npool 4 -i  Done                     04/16/2018 15:41:10
00021 suncat0115 pw.x -npool 4 -i  Done                     04/16/2018 15:41:10
00022 suncat0115 pw.x -npool 4 -i  Done                     04/16/2018 15:41:10
00023 suncat0115 pw.x -npool 4 -i  Done                     04/16/2018 15:41:10
00024 suncat0248 pw.x -npool 4 -i  Done                     04/16/2018 15:41:10
00025 suncat0248 pw.x -npool 4 -i  Done                     04/16/2018 15:41:10
00026 suncat0248 pw.x -npool 4 -i  Done                     04/16/2018 15:41:10
00027 suncat0248 pw.x -npool 4 -i  Done                     04/16/2018 15:41:10
00028 suncat0248 pw.x -npool 4 -i  Done                     04/16/2018 15:41:10
00029 suncat0248 pw.x -npool 4 -i  Done                     04/16/2018 15:41:10
00030 suncat0248 pw.x -npool 4 -i  Done                     04/16/2018 15:41:10
00031 suncat0248 pw.x -npool 4 -i  Done                     04/16/2018 15:41:10