     Program PWSCF v.5.1rc2 (svn rev. 11289) starts on 23Apr2018 at  4:53:42

     Current dimensions of program PWSCF are:
     Max number of different atomic species (ntypx) = 10
     Max number of k-points (npk) =  40000
     Max angular momentum in pseudopotentials (lmaxx) =  3
     Presently stress not available with electric field

     IMPORTANT: XC functional enforced from input :
     Exchange-correlation      = BEEF-VDW ( 1  4 27 13 2)
     Any further DFT definition will be discarded
     Please, verify this is what you really want

     Subspace diagonalization in iterative solution of the eigenvalue problem:
     a serial algorithm will be used

     bravais-lattice index     =            0
     lattice parameter (alat)  =       1.8897  a.u.
     unit-cell volume          =    6741.9070 (a.u.)^3
     number of atoms/cell      =           14
     number of atomic types    =            3
     number of electrons       =       175.00
     number of Kohn-Sham states=           97
     kinetic-energy cutoff     =      36.7493  Ry
     charge density cutoff     =     367.4932  Ry
     convergence threshold     =      1.0E-05
     mixing beta               =       0.3000
     number of iterations used =           10  plain     mixing
     Exchange-correlation      = BEEF-VDW ( 1  4 27 13 2)
     nstep                     =           50

     celldm(1)=   1.889726  celldm(2)=   0.000000  celldm(3)=   0.000000
     celldm(4)=   0.000000  celldm(5)=   0.000000  celldm(6)=   0.000000

     crystal axes: (cart. coord. in units of alat)
               a(1) = (   6.726993   0.000000   0.000000 )
               a(2) = (   3.363497   5.825747   0.000000 )
               a(3) = (   0.000000   0.000000  25.492567 )

     reciprocal axes: (cart. coord. in units 2 pi/alat)
               b(1) = (  0.148655 -0.085826  0.000000 )
               b(2) = (  0.000000  0.171652  0.000000 )
               b(3) = (  0.000000  0.000000  0.039227 )

     PseudoPot. # 1 for Sn read from file:
     /u/if/mamunm/psp/gbrv1.5pbe/Sn.UPF
     MD5 check sum: 469debedee59599fedebd795477fea03
     Pseudo is Ultrasoft + core correction, Zval = 14.0
     Generated by new atomic code, or converted to UPF format
     Using radial grid of  891 points,  6 beta functions with:
                l(1) =   0
                l(2) =   0
                l(3) =   1
                l(4) =   1
                l(5) =   2
                l(6) =   2
     Q(r) pseudized with  8 coefficients,  rinner =    1.350   1.350   1.350
                                                       1.350   1.350

     PseudoPot. # 2 for S  read from file:
     /u/if/mamunm/psp/gbrv1.5pbe/S.UPF
     MD5 check sum: 88d86576ff6df21479756cfb9bdac1df
     Pseudo is Ultrasoft + core correction, Zval =  6.0
     Generated by new atomic code, or converted to UPF format
     Using radial grid of  907 points,  6 beta functions with:
                l(1) =   0
                l(2) =   0
                l(3) =   1
                l(4) =   1
                l(5) =   2
                l(6) =   2
     Q(r) pseudized with  8 coefficients,  rinner =    1.300   1.300   1.300
                                                       1.300   1.300

     PseudoPot. # 3 for H  read from file:
     /u/if/mamunm/psp/gbrv1.5pbe/H.UPF
     MD5 check sum: 761ae9a214b05c3daf00ab9f6b793d6f
     Pseudo is Ultrasoft, Zval =  1.0
     Generated by new atomic code, or converted to UPF format
     Using radial grid of  615 points,  2 beta functions with:
                l(1) =   0
                l(2) =   0
     Q(r) pseudized with  8 coefficients,  rinner =    0.700

     vdW kernel table read from file vdW_kernel_table
     MD5 check sum: 095c7af220d748ca6e76c0b4c6cfb241

     atomic species   valence    mass     pseudopotential
        Sn1           14.00   118.71000     Sn( 1.00)
        S1             6.00    32.06000     S ( 1.00)
        H1             1.00     1.00800     H ( 1.00)

     No symmetry found

   Cartesian axes

     site n.     atom                  positions (alat units)
         1           Sn1 tau(   1) = (   1.6817483   0.9709578  10.0000000  )
         2           Sn1 tau(   2) = (   5.0452448   0.9709578  10.0000000  )
         3           Sn1 tau(   3) = (   3.3634965   3.8838312  10.0000000  )
         4           Sn1 tau(   4) = (   6.7269931   3.8838312  10.0000000  )
         5           Sn1 tau(   5) = (   6.7269931   1.9419156  12.7462834  )
         6           Sn1 tau(   6) = (   3.3634965   1.9419156  12.7462834  )
         7           Sn1 tau(   7) = (   8.4087413   4.8547891  12.7462834  )
         8           Sn1 tau(   8) = (   5.0452448   4.8547891  12.7462834  )
         9           Sn1 tau(   9) = (   0.0000000   0.0000000  15.4925668  )
        10           Sn1 tau(  10) = (   3.3634965   0.0000000  15.4925668  )
        11           Sn1 tau(  11) = (   1.6817483   2.9128734  15.4925668  )
        12           Sn1 tau(  12) = (   5.0452448   2.9128734  15.4925668  )
        13           S1  tau(  13) = (   1.6817483   0.9709578  17.0785668  )
        14           H1  tau(  14) = (   1.6817483   0.9709578  18.3285668  )

     number of k points=    20  Fermi-Dirac smearing, width (Ry)=  0.0110
                       cart. coord. in units 2pi/alat
        k(    1) = (   0.0000000   0.0000000   0.0000000), wk =   0.0555556
        k(    2) = (   0.0000000   0.0286086   0.0000000), wk =   0.1111111
        k(    3) = (   0.0000000   0.0572173   0.0000000), wk =   0.1111111
        k(    4) = (   0.0000000  -0.0858259   0.0000000), wk =   0.0555556
        k(    5) = (   0.0247758  -0.0143043   0.0000000), wk =   0.1111111
        k(    6) = (   0.0247758   0.0143043   0.0000000), wk =   0.1111111
        k(    7) = (   0.0247758   0.0429130   0.0000000), wk =   0.1111111
        k(    8) = (   0.0247758  -0.1001302   0.0000000), wk =   0.1111111
        k(    9) = (   0.0247758  -0.0715216   0.0000000), wk =   0.1111111
        k(   10) = (   0.0247758  -0.0429130   0.0000000), wk =   0.1111111
        k(   11) = (   0.0495516  -0.0286086   0.0000000), wk =   0.1111111
        k(   12) = (   0.0495516   0.0000000   0.0000000), wk =   0.1111111
        k(   13) = (   0.0495516   0.0286086   0.0000000), wk =   0.1111111
        k(   14) = (   0.0495516  -0.1144345   0.0000000), wk =   0.1111111
        k(   15) = (   0.0495516  -0.0858259   0.0000000), wk =   0.1111111
        k(   16) = (   0.0495516  -0.0572173   0.0000000), wk =   0.1111111
        k(   17) = (  -0.0743274   0.0429130   0.0000000), wk =   0.0555556
        k(   18) = (  -0.0743274   0.0715216   0.0000000), wk =   0.1111111
        k(   19) = (  -0.0743274   0.1001302   0.0000000), wk =   0.1111111
        k(   20) = (  -0.0743274  -0.0429130   0.0000000), wk =   0.0555556

     Largest allocated arrays     est. size (Mb)     dimensions
     Largest temporary arrays     est. size (Mb)     dimensions

     Initial potential from superposition of free atoms
     Check: negative starting charge=   -0.001325

     starting charge  162.99941, renormalised to  175.00000

     negative rho (up, down):  1.423E-03 0.000E+00

     *
     * You are using vdW-DF for exchange-correlation in this calculation.
     * Please cite the following three references that made this development
     * possible:
     *
     *   M. Dion, H. Rydberg, E. Schroder, D. C. Langreth, and
     *   B. I. Lundqvist, Phys. Rev. Lett. 92, 246401 (2004).
     *
     *   T. Thonhauser, V. R. Cooper, S. Li, A. Puzder, P. Hyldgaard, and
     *   D. C. Langreth, Phys. Rev. B 76, 125112 (2007).
     *
     *   G. Roman-Perez and J. M. Soler, Phys. Rev. Lett. 103, 096102 (2009).
     *
     *
     * If you are using vdW-DF2, please also cite:
     *
     *   K. Lee, E. D. Murray, L. Kong, B. I. Lundqvist, and
     *   D. C. Langreth, Phys. Rev. B 82, 081101(R) (2010).
     *
     *
     * If you are calculating the stress with vdW-DF, please also cite:
     *
     *   R. Sabatini, E. Kucukbenli, B. Kolb, T. Thonhauser, and
     *   S. de Gironcoli, J. Phys.: Condens. Matter 24, 424209 (2012).
     *

     Carrying out vdW-DF run using the following parameters:

     Nqs =      20    Nr_points =    1024   r_max =   100.000
     q_mesh =
               0.00001000     0.04494208     0.09755937     0.15916263
               0.23128650     0.31572767     0.41458969     0.53033537
               0.66584808     0.82450364     1.01025438     1.22772762
               1.48234092     1.78043706     2.12944203     2.53805004
               3.01644009     3.57652955     4.23227104     5.00000000

     Gradients computed in reciprocal space

     Adding external electric field

     Computed dipole along edir(3) :
        Dipole               -4.3927 Ry au,        -11.1651 Debye
        Dipole field         -0.0082 Ry au

        Potential amp.        0.7691 Ry
        Total length         46.9696 bohr

     Starting wfc are  113 randomized atomic wfcs

     Self-consistent Calculation

     iteration #  1     ecut=    36.75 Ry     beta=0.30
     Davidson diagonalization with overlap
     ethr =  1.00E-02,  avg # of iterations =  8.4

[...]

     total energy              =   -1878.42765220 Ry
     Harris-Foulkes estimate   =   -1957.24580980 Ry
     estimated scf accuracy    <     167.67536467 Ry

[...]

     End of self-consistent calculation

          k = 0.0000 0.0000 0.0000 ( 25377 PWs)   bands (ev):

   -21.0883 -20.9824 -20.9824 -20.9819 -20.9630 -20.9630 -20.8957 -20.8957
   -20.8891 -20.8830 -20.8549 -20.8549 -20.8434 -20.8434 -20.8307 -20.8217
   -20.8217 -20.7921 -20.7825 -20.7770 -20.7745 -20.7745 -20.7743 -20.7650
   -20.7650 -20.7524 -20.7524 -20.7452 -20.7395 -20.7395 -20.7380 -20.7357
   -20.7357 -20.7357 -20.7191 -20.7191 -20.7035 -20.7035 -20.6670 -20.6648
   -20.6648 -20.6611 -20.6611 -20.6482 -20.6482 -20.6477 -20.6356 -20.6255
   -20.6255 -20.6223 -20.6223 -20.6083 -20.6012 -20.6012 -20.5956 -20.5893
   -20.5893 -20.5837 -20.5792 -20.5792 -14.4417  -9.6026  -8.6836  -7.3277
    -6.0333  -6.0333  -5.9505  -5.4381  -5.2758  -5.2758  -4.8062  -4.3976
    -4.3976  -3.7622  -3.3052  -3.3052  -2.6690  -2.2191  -2.2191  -2.0627
    -1.5429  -1.5429  -1.4282  -0.6642  -0.6642  -0.3869   1.0207   2.1191
     2.1699   2.1699   2.6972   2.9511   2.9511   3.2455   3.7418   3.7627
     3.7627

[...]

          k =-0.0743 0.0429 0.0000 ( 25386 PWs)   bands (ev):

[...]

     the Fermi energy is     1.2523 ev

!    total energy              =   -1953.83761115 Ry
     Harris-Foulkes estimate   =   -1953.83763382 Ry
     estimated scf accuracy    <       0.00000271 Ry

     The total energy is the sum of the following terms:

     one-electron contribution =  -10678.82423131 Ry
     hartree contribution      =    5406.92646173 Ry
     xc contribution           =    -543.70034277 Ry
     ewald contribution        =    3861.80504011 Ry
     electric field correction =       0.00013347 Ry
     smearing contrib. (-TS)   =      -0.04467238 Ry

     convergence has been achieved in  19 iterations

 BEEF-vdW xc energy contributions
           1 :   -477.495013104753
           2 :    436.887272749310
           3 :   -367.985333533719
           4 :    289.890543791527
           5 :   -220.752371611528
           6 :    171.450855954114
           7 :   -143.166284796790
           8 :    129.363675768273
           9 :   -120.712958062926
          10 :    110.197167789926
          11 :   -95.9091431025703
          12 :    80.5337346170993
          13 :   -68.4209893877706
          14 :    62.3133552249291
          15 :   -61.6590696930089
          16 :    63.2279427351198
          17 :   -63.3155414398335
          18 :    59.9823764939746
          19 :   -53.9644079718538
          20 :    47.8492181239079
          21 :   -44.2150285646718
          22 :    43.9835920456896
          23 :   -45.9837514773228
          24 :    47.8686987972021
          25 :   -47.6808259702465
          26 :    45.0214037302592
          27 :   -41.1338425589205
          28 :    37.9516042540598
          29 :   -36.8090980242461
          30 :    37.6561983025186
          31 :   -42.0341013681102
          32 :   -30.5758377780871

     Forces acting on atoms (Ry/au):

     negative rho (up, down):  3.793E-04 0.000E+00
     atom    1 type  1   force =    -0.00000158    0.00000618   -0.00838286
     atom    2 type  1   force =     0.00000131   -0.00339699    0.00027329
     atom    3 type  1   force =    -0.00293327    0.00169927    0.00027898
     atom    4 type  1   force =     0.00293474    0.00169725    0.00027970
     atom    5 type  1   force =     0.00174618   -0.00100865   -0.00437882
     atom    6 type  1   force =    -0.00175043   -0.00100925   -0.00437319
     atom    7 type  1   force =     0.00000335   -0.00000625   -0.02406846
     atom    8 type  1   force =    -0.00000103    0.00201458   -0.00436558
     atom    9 type  1   force =    -0.04639904   -0.02678755   -0.03608576
     atom   10 type  1   force =     0.04639582   -0.02678777   -0.03608607
     atom   11 type  1   force =     0.00000066    0.05357127   -0.03608363
     atom   12 type  1   force =     0.00000353    0.00000632   -0.00149541
     atom   13 type  2   force =    -0.00000004    0.00000111    0.00412536
     atom   14 type  3   force =    -0.00000019    0.00000049    0.15036245

     Total force =     0.187470     Total SCF correction =     0.001667

     entering subroutine stress ...

     negative rho (up, down):  3.793E-04 0.000E+00
          total   stress  (Ry/bohr**3)                   (kbar)     P=   14.31
   0.00007654  -0.00000000  -0.00000000         11.26     -0.00     -0.00
  -0.00000000   0.00007654   0.00000000         -0.00     11.26      0.00
  -0.00000000   0.00000000   0.00013867         -0.00      0.00     20.40

     BFGS Geometry Optimization

     number of scf cycles    =   1
     number of bfgs steps    =   0

     energy   new            =   -1953.8376111498 Ry

     new trust radius        =       0.1503624509 bohr
     new conv_thr            =       0.0000099958 Ry

ATOMIC_POSITIONS (crystal)
Sn1      0.166666667   0.166666667   0.392271209    0   0   0
Sn1      0.666666667   0.166666667   0.392271209    0   0   0
Sn1      0.166666667   0.666666667   0.392271209    0   0   0
Sn1      0.666666667   0.666666667   0.392271209    0   0   0
Sn1      0.833333333   0.333333333   0.500000000    0   0   0
Sn1      0.333333333   0.333333333   0.500000000    0   0   0
Sn1      0.833333333   0.833333333   0.500000000    0   0   0
Sn1      0.333333333   0.833333333   0.500000000    0   0   0
Sn1     -0.002433356  -0.002433226   0.606979720
Sn1      0.504866339  -0.002433247   0.606979713
Sn1     -0.002433001   0.504866105   0.606979764
Sn1      0.499999990   0.500000574   0.607697750
S1       0.166666613   0.166666767   0.670028640
H1       0.166666630   0.166666711   0.722098145

     Writing output data file calc.save
     Check: negative starting charge=   -0.001325
     NEW-OLD atomic charge density approx. for the potential
     Check: negative starting charge=   -0.001317

[...]

     energy   old            =   -1953.8376111498 Ry
     energy   new            =   -1953.8636560092 Ry

     CASE: energy  _new < energy  _old

[...]

     Total force =     0.011311     Total SCF correction =     0.000173

[...]

     Total force =     0.007174     Total SCF correction =     0.001149
     SCF correction compared to forces is large: reduce conv_thr to get better values

[...]

     number of scf cycles    =  17
     number of bfgs steps    =  16

     energy   old            =   -1953.9407068029 Ry
     energy   new            =   -1953.9409099578 Ry

     CASE: energy  _new < energy  _old

     new trust radius        =       0.0446406503 bohr
     new conv_thr            =       0.0000001000 Ry

ATOMIC_POSITIONS (crystal)
Sn1      0.166666667   0.166666667   0.392271209    0   0   0
Sn1      0.666666667   0.166666667   0.392271209    0   0   0
Sn1      0.166666667   0.666666667   0.392271209    0   0   0
Sn1      0.666666667   0.666666667   0.392271209    0   0   0
Sn1      0.833333333   0.333333333   0.500000000    0   0   0
Sn1      0.333333333   0.333333333   0.500000000    0   0   0
Sn1      0.833333333   0.833333333   0.500000000    0   0   0
Sn1      0.333333333   0.833333333   0.500000000    0   0   0
Sn1     -0.002074873  -0.002074208   0.615000602
Sn1      0.504152956  -0.002075629   0.614998515
Sn1     -0.002074313   0.504149504   0.614999080
Sn1      0.500000570   0.500000032   0.605471938
S1       0.166668595   0.166666503   0.702271342
H1       0.166662783   0.166667975   0.755595028

     Writing output data file calc.save
     Check: negative starting charge=   -0.001188
     NEW-OLD atomic charge density approx. for the potential
     Check: negative starting charge=   -0.001186

[...]

     Self-consistent Calculation

[...]

     total energy              =   -1953.94092513 Ry
     Harris-Foulkes estimate   =   -1953.94092578 Ry
     estimated scf accuracy    <       0.00000085 Ry

     iteration #  8     ecut=    36.75 Ry     beta=0.30
     Davidson diagonalization with overlap
     ethr =  4.85E-10,  avg # of iterations =  3.2

[...]

     negative rho (up, down):  3.624E-04 0.000E+00

     Adding external electric field

     Computed dipole along edir(3) :
        Dipole               -0.1600 Ry au,         -0.4066 Debye
        Dipole field         -0.0003 Ry au

        Potential amp.        0.0280 Ry
        Total length         46.9696 bohr

     End of self-consistent calculation

[...]

          k = 0.0496-0.0572 0.0000 ( 25368 PWs)   bands (ev):

[...]

          k =-0.0743-0.0429 0.0000 ( 25386 PWs)   bands (ev):

   -21.3141 -21.2897 -21.2819 -21.2707 -21.2632 -21.2620 -21.2606 -21.2538
   -21.2435 -21.2402 -21.2344 -21.2341 -21.2306 -21.2224 -21.2085 -21.2002
   -21.1929 -21.1890 -21.1870 -21.1856 -21.1819 -21.1806 -21.1792 -21.1744
   -21.1718 -21.1630 -21.1614 -21.1600 -21.1582 -21.1544 -21.1519 -21.1457
   -21.1399 -21.1323 -21.1275 -21.1200 -21.1129 -21.1092 -21.1011 -21.0990
   -21.0964 -21.0897 -21.0855 -21.0799 -21.0785 -21.0772 -21.0772 -21.0717
   -21.0717 -21.0655 -21.0628 -21.0620 -21.0589 -21.0545 -21.0469 -21.0385
   -21.0352 -21.0343 -21.0185 -21.0050 -12.3474  -8.7325  -8.6534  -7.6260
    -7.5933  -6.5314  -6.4627  -6.2048  -6.0248  -5.5339  -5.5203  -4.5605
    -4.3297  -3.9172  -2.0649  -1.6210  -1.4083  -1.2185  -1.1006  -1.0849
    -1.0482  -0.7824  -0.1626  -0.0404   0.1211   0.1221   0.9100   0.9969
     1.1612   1.5167   1.5186   1.6465   1.7215   1.8965   2.0643   2.1084
     2.1531

     the Fermi energy is     0.8530 ev

!    total energy              =   -1953.94092521 Ry
     Harris-Foulkes estimate   =   -1953.94092498 Ry
     estimated scf accuracy    <       0.00000007 Ry

     The total energy is the sum of the following terms:

     one-electron contribution =  -10309.06737829 Ry
     hartree contribution      =    5220.25028220 Ry
     xc contribution           =    -543.28393136 Ry
     ewald contribution        =    3678.20357871 Ry
     electric field correction =       0.00004769 Ry
     smearing contrib. (-TS)   =      -0.04352415 Ry

     convergence has been achieved in   8 iterations

 BEEF-vdW xc energy contributions
           1 :   -477.065607318635
           2 :    436.272871880063
           3 :   -367.170098726976
           4 :    289.041842140772
           5 :   -220.110585961292
           6 :    171.186600777511
           7 :   -143.282545280261
           8 :    129.698111610747
           9 :   -121.033883844699
          10 :    110.334748223306
          11 :   -95.8426454140190
          12 :    80.3825926910897
          13 :   -68.3490826289631
          14 :    62.4118161915959
          15 :   -61.8849413662469
          16 :    63.4376038957392
          17 :   -63.3667581678285
          18 :    59.8347408501747
          19 :   -53.7108724331574
          20 :    47.6577191789478
          21 :   -44.2186439796853
          22 :    44.1923887711117
          23 :   -46.2763921000561
          24 :    48.0692792901474
          25 :   -47.6699433038535
          26 :    44.8093707030453
          27 :   -40.8506692491110
          28 :    37.7630113573013
          29 :   -36.8140942372384
          30 :    37.8316436765134
          31 :   -42.0004690272200
          32 :   -30.4974313381164

     Forces acting on atoms (Ry/au):

     negative rho (up, down):  3.624E-04 0.000E+00
     atom    1 type  1   force =     0.00000044    0.00000002   -0.00202938
     atom    2 type  1   force =     0.00000039   -0.00017740    0.00341613
     atom    3 type  1   force =    -0.00015324    0.00008813    0.00341558
     atom    4 type  1   force =     0.00015331    0.00008842    0.00341714
     atom    5 type  1   force =     0.00395333   -0.00228235   -0.00138936
     atom    6 type  1   force =    -0.00395532   -0.00228167   -0.00139059
     atom    7 type  1   force =     0.00000018   -0.00000060   -0.00255103
     atom    8 type  1   force =    -0.00000159    0.00456461   -0.00139159
     atom    9 type  1   force =     0.00008473    0.00004891   -0.00073875
     atom   10 type  1   force =    -0.00008345    0.00004748   -0.00074036
     atom   11 type  1   force =     0.00000094   -0.00009686   -0.00074002
     atom   12 type  1   force =     0.00000001    0.00000163    0.00036471
     atom   13 type  2   force =     0.00000103   -0.00000006   -0.00014689
     atom   14 type  3   force =    -0.00000075   -0.00000028    0.00050441

     Total force =     0.001442     Total SCF correction =     0.001234
     SCF correction compared to forces is large: reduce conv_thr to get better values

     entering subroutine stress ...

     negative rho (up, down):  3.624E-04 0.000E+00
          total   stress  (Ry/bohr**3)                   (kbar)     P=   -0.88
   0.00000403  -0.00000000  -0.00000000          0.59     -0.00     -0.00
  -0.00000000   0.00000403   0.00000000         -0.00      0.59      0.00
  -0.00000000   0.00000000  -0.00002607         -0.00      0.00     -3.84

     bfgs converged in  18 scf cycles and  17 bfgs steps
     (criteria: energy <  1.0E+00, force <  1.9E-03)

     End of BFGS Geometry Optimization

     Final energy   =   -1953.9409252082 Ry
Begin final coordinates

ATOMIC_POSITIONS (crystal)
Sn1      0.166666667   0.166666667   0.392271209    0   0   0
Sn1      0.666666667   0.166666667   0.392271209    0   0   0
Sn1      0.166666667   0.666666667   0.392271209    0   0   0
Sn1      0.666666667   0.666666667   0.392271209    0   0   0
Sn1      0.833333333   0.333333333   0.500000000    0   0   0
Sn1      0.333333333   0.333333333   0.500000000    0   0   0
Sn1      0.833333333   0.833333333   0.500000000    0   0   0
Sn1      0.333333333   0.833333333   0.500000000    0   0   0
Sn1     -0.002074873  -0.002074208   0.615000602
Sn1      0.504152956  -0.002075629   0.614998515
Sn1     -0.002074313   0.504149504   0.614999080
Sn1      0.500000570   0.500000032   0.605471938
S1       0.166668595   0.166666503   0.702271342
H1       0.166662783   0.166667975   0.755595028
End final coordinates

     Writing output data file calc.save

     General routines

     Parallel routines

   This run was terminated on:   7:37:59  23Apr2018

   JOB DONE.
Job  /afs/slac/g/suncat/bin/suncat-tsmpirun -x LD_LIBRARY_PATH -wdir /scratch/qe413320_Fe5of pw.x -npool 4 -in pw.inp

TID   HOST_NAME   COMMAND_LINE            STATUS            TERMINATION_TIME
00000 suncat0073 pw.x -npool 4 -i  Done                     04/23/2018 07:37:59
00001 suncat0073 pw.x -npool 4 -i  Done                     04/23/2018 07:37:59
00002 suncat0073 pw.x -npool 4 -i  Done                     04/23/2018 07:37:59
00003 suncat0073 pw.x -npool 4 -i  Done                     04/23/2018 07:37:59
00004 suncat0073 pw.x -npool 4 -i  Done                     04/23/2018 07:37:59
00005 suncat0073 pw.x -npool 4 -i  Done                     04/23/2018 07:37:59
00006 suncat0073 pw.x -npool 4 -i  Done                     04/23/2018 07:37:59
00007 suncat0073 pw.x -npool 4 -i  Done                     04/23/2018 07:37:59
00008 suncat0065 pw.x -npool 4 -i  Done                     04/23/2018 07:37:59
00009 suncat0065 pw.x -npool 4 -i  Done                     04/23/2018 07:37:59
00010 suncat0065 pw.x -npool 4 -i  Done                     04/23/2018 07:37:59
00011 suncat0065 pw.x -npool 4 -i  Done                     04/23/2018 07:37:59
00012 suncat0065 pw.x -npool 4 -i  Done                     04/23/2018 07:37:59
00013 suncat0065 pw.x -npool 4 -i  Done                     04/23/2018 07:37:59
00014 suncat0065 pw.x -npool 4 -i  Done                     04/23/2018 07:37:59
00015 suncat0065 pw.x -npool 4 -i  Done                     04/23/2018 07:37:59
00016 suncat0031 pw.x -npool 4 -i  Done                     04/23/2018 07:37:59
00017 suncat0031 pw.x -npool 4 -i  Done                     04/23/2018 07:37:59
00018 suncat0031 pw.x -npool 4 -i  Done                     04/23/2018 07:37:59
00019 suncat0031 pw.x -npool 4 -i  Done                     04/23/2018 07:37:59
00020 suncat0031 pw.x -npool 4 -i  Done                     04/23/2018 07:37:59
00021 suncat0031 pw.x -npool 4 -i  Done                     04/23/2018 07:37:59
00022 suncat0031 pw.x -npool 4 -i  Done                     04/23/2018 07:37:59
00023 suncat0031 pw.x -npool 4 -i  Done                     04/23/2018 07:37:59
00024 suncat0155 pw.x -npool 4 -i  Done                     04/23/2018 07:37:59
00025 suncat0155 pw.x -npool 4 -i  Done                     04/23/2018 07:37:59
00026 suncat0155 pw.x -npool 4 -i  Done                     04/23/2018 07:37:59
00027 suncat0155 pw.x -npool 4 -i  Done                     04/23/2018 07:37:59
00028 suncat0155 pw.x -npool 4 -i  Done                     04/23/2018 07:37:59
00029 suncat0155 pw.x -npool 4 -i  Done                     04/23/2018 07:37:59
00030 suncat0155 pw.x -npool 4 -i  Done                     04/23/2018 07:37:59
00031 suncat0155 pw.x -npool 4 -i  Done                     04/23/2018 07:37:59