     Program PWSCF v.5.1rc2 (svn rev. 11289) starts on 20Jan2018 at  2:11: 4

     Current dimensions of program PWSCF are:
     Max number of different atomic species (ntypx) = 10
     Max number of k-points (npk) =  40000
     Max angular momentum in pseudopotentials (lmaxx) =  3
     Presently stress not available with electric field

     IMPORTANT: XC functional enforced from input :
     Exchange-correlation      = BEEF-VDW ( 1  4 27 13 2)
     Any further DFT definition will be discarded
     Please, verify this is what you really want

     Subspace diagonalization in iterative solution of the eigenvalue problem:
     a serial algorithm will be used

     bravais-lattice index     =            0
     lattice parameter (alat)  =       1.8897  a.u.
     unit-cell volume          =    7171.5276 (a.u.)^3
     number of atoms/cell      =           13
     number of atomic types    =            2
     number of electrons       =       174.00
     number of Kohn-Sham states=           97
     kinetic-energy cutoff     =      36.7493  Ry
     charge density cutoff     =     367.4932  Ry
     convergence threshold     =      1.0E-05
     mixing beta               =       0.3000
     number of iterations used =           10  plain     mixing
     Exchange-correlation      = BEEF-VDW ( 1  4 27 13 2)
     nstep                     =           50

     celldm(1)=   1.889726  celldm(2)=   0.000000  celldm(3)=   0.000000
     celldm(4)=   0.000000  celldm(5)=   0.000000  celldm(6)=   0.000000

     crystal axes: (cart. coord. in units of alat)
               a(1) = (   6.917003   0.000000   0.000000 )
               a(2) = (   3.458501   5.990300   0.000000 )
               a(3) = (   0.000000   0.000000  25.647709 )

     reciprocal axes: (cart. coord. in units 2 pi/alat)
               b(1) = (  0.144571 -0.083468  0.000000 )
               b(2) = (  0.000000  0.166937  0.000000 )
               b(3) = (  0.000000  0.000000  0.038990 )

     PseudoPot. # 1 for Pb read from file:
     /afs/slac.stanford.edu/u/if/mamunm/psp/gbrv1.5pbe/Pb.UPF
     MD5 check sum: 3d1c1779aa92214d1e8f3a7db79003e2
     Pseudo is Ultrasoft + core correction, Zval = 14.0
     Generated by new atomic code, or converted to UPF format
     Using radial grid of  899 points,  6 beta functions with:
                l(1) =   0
                l(2) =   0
                l(3) =   1
                l(4) =   1
                l(5) =   2
                l(6) =   2
     Q(r) pseudized with  6 coefficients,  rinner =    1.000   1.000   1.000
                                                       1.000   1.000

     PseudoPot. # 2 for O  read from file:
     /afs/slac.stanford.edu/u/if/mamunm/psp/gbrv1.5pbe/O.UPF
     MD5 check sum: 734c27235a0248c51dbae37a1fbe46ec
     Pseudo is Ultrasoft + core correction, Zval =  6.0
     Generated by new atomic code, or converted to UPF format
     Using radial grid of  737 points,  5 beta functions with:
                l(1) =   0
                l(2) =   0
                l(3) =   1
                l(4) =   1
                l(5) =   2
     Q(r) pseudized with  8 coefficients,  rinner =    0.900   0.900   0.900
                                                       0.900   0.900

     vdW kernel table read from file vdW_kernel_table
     MD5 check sum: 095c7af220d748ca6e76c0b4c6cfb241

     atomic species   valence    mass     pseudopotential
        Pb1           14.00   207.20000     Pb( 1.00)
        O1             6.00    15.99900     O ( 1.00)

     No symmetry found

   Cartesian axes

     site n.     atom                  positions (alat units)
         1           Pb1 tau(   1) = (   1.7292506   0.9983833  10.0000000  )
         2           Pb1 tau(   2) = (   5.1877519   0.9983833  10.0000000  )
         3           Pb1 tau(   3) = (   3.4585013   3.9935333  10.0000000  )
         4           Pb1 tau(   4) = (   6.9170025   3.9935333  10.0000000  )
         5           Pb1 tau(   5) = (   6.9170025   1.9967666  12.8238544  )
         6           Pb1 tau(   6) = (   3.4585013   1.9967666  12.8238544  )
         7           Pb1 tau(   7) = (   8.6462531   4.9919166  12.8238544  )
         8           Pb1 tau(   8) = (   5.1877519   4.9919166  12.8238544  )
         9           Pb1 tau(   9) = (   0.0000000   0.0000000  15.6477089  )
        10           Pb1 tau(  10) = (   3.4585013   0.0000000  15.6477089  )
        11           Pb1 tau(  11) = (   1.7292506   2.9951499  15.6477089  )
        12           Pb1 tau(  12) = (   5.1877519   2.9951499  15.6477089  )
        13           O1  tau(  13) = (   3.4585013   1.9967666  17.7677089  )

     number of k points=    20  Fermi-Dirac smearing, width (Ry)=  0.0110
                       cart. coord. in units 2pi/alat
        k(    1) = (   0.0000000   0.0000000   0.0000000), wk =   0.0555556
        k(    2) = (   0.0000000   0.0278228   0.0000000), wk =   0.1111111
        k(    3) = (   0.0000000   0.0556455   0.0000000), wk =   0.1111111
        k(    4) = (   0.0000000  -0.0834683   0.0000000), wk =   0.0555556
        k(    5) = (   0.0240952  -0.0139114   0.0000000), wk =   0.1111111
        k(    6) = (   0.0240952   0.0139114   0.0000000), wk =   0.1111111
        k(    7) = (   0.0240952   0.0417341   0.0000000), wk =   0.1111111
        k(    8) = (   0.0240952  -0.0973797   0.0000000), wk =   0.1111111
        k(    9) = (   0.0240952  -0.0695569   0.0000000), wk =   0.1111111
        k(   10) = (   0.0240952  -0.0417341   0.0000000), wk =   0.1111111
        k(   11) = (   0.0481904  -0.0278228   0.0000000), wk =   0.1111111
        k(   12) = (   0.0481904   0.0000000   0.0000000), wk =   0.1111111
        k(   13) = (   0.0481904   0.0278228   0.0000000), wk =   0.1111111
        k(   14) = (   0.0481904  -0.1112910   0.0000000), wk =   0.1111111
        k(   15) = (   0.0481904  -0.0834683   0.0000000), wk =   0.1111111
        k(   16) = (   0.0481904  -0.0556455   0.0000000), wk =   0.1111111
        k(   17) = (  -0.0722856   0.0417341   0.0000000), wk =   0.0555556
        k(   18) = (  -0.0722856   0.0695569   0.0000000), wk =   0.1111111
        k(   19) = (  -0.0722856   0.0973797   0.0000000), wk =   0.1111111
        k(   20) = (  -0.0722856  -0.0417341   0.0000000), wk =   0.0555556

     Largest allocated arrays     est. size (Mb)     dimensions
     Largest temporary arrays     est. size (Mb)     dimensions

     Check: negative/imaginary core charge=   -0.000001    0.000000

     Initial potential from superposition of free atoms
     Check: negative starting charge=   -0.198277

     starting charge  173.97178, renormalised to  174.00000

     negative rho (up, down):  1.983E-01 0.000E+00

     *
     * You are using vdW-DF for exchange-correlation in this calculation.
     * Please cite the following three references that made this development
     * possible:
     *
     *   M. Dion, H. Rydberg, E. Schroder, D. C. Langreth, and
     *   B. I. Lundqvist, Phys. Rev. Lett. 92, 246401 (2004).
     *
     *   T. Thonhauser, V. R. Cooper, S. Li, A. Puzder, P. Hyldgaard, and
     *   D. C. Langreth, Phys. Rev. B 76, 125112 (2007).
     *
     *   G. Roman-Perez and J. M. Soler, Phys. Rev. Lett. 103, 096102 (2009).
     *
     *
     * If you are using vdW-DF2, please also cite:
     *
     *   K. Lee, E. D. Murray, L. Kong, B. I. Lundqvist, and
     *   D. C. Langreth, Phys. Rev. B 82, 081101(R) (2010).
     *
     *
     * If you are calculating the stress with vdW-DF, please also cite:
     *
     *   R. Sabatini, E. Kucukbenli, B. Kolb, T. Thonhauser, and
     *   S. de Gironcoli, J. Phys.: Condens. Matter 24, 424209 (2012).
     *

     Carrying out vdW-DF run using the following parameters:

     Nqs =      20    Nr_points =    1024   r_max =   100.000
     q_mesh =
               0.00001000     0.04494208     0.09755937     0.15916263
               0.23128650     0.31572767     0.41458969     0.53033537
               0.66584808     0.82450364     1.01025438     1.22772762
               1.48234092     1.78043706     2.12944203     2.53805004
               3.01644009     3.57652955     4.23227104     5.00000000

     Gradients computed in reciprocal space

     Adding external electric field

     Computed dipole along edir(3) :
        Dipole               -0.0091 Ry au,         -0.0231 Debye
        Dipole field         -0.0000 Ry au

        Potential amp.        0.0015 Ry
        Total length         47.2555 bohr

     Starting wfc are  112 randomized atomic wfcs

     Self-consistent Calculation

     iteration #  1     ecut=    36.75 Ry     beta=0.30
     Davidson diagonalization with overlap
     ethr =  1.00E-02,  avg # of iterations =  2.0

[...]

     total energy              =   -2023.60793164 Ry
     Harris-Foulkes estimate   =   -2024.96513637 Ry
     estimated scf accuracy    <       2.89105593 Ry

[...]

     End of self-consistent calculation

          k = 0.0000 0.0000 0.0000 ( 27033 PWs)   bands (ev):

   -17.1644 -17.1644 -17.1643 -17.1195 -17.1180 -17.1180 -17.0778 -17.0778
   -17.0761 -17.0757 -17.0496 -17.0442 -17.0442 -17.0319 -17.0250 -17.0250
   -17.0181 -17.0181 -17.0105 -16.9996 -16.9991 -16.9991 -16.9962 -16.9962
   -16.9819 -16.9819 -16.9807 -16.9712 -16.9611 -16.9611 -16.8993 -16.8993
   -16.8859 -16.8768 -16.8768 -16.8473 -16.8439 -16.8439 -16.8419 -16.8419
   -16.7810 -16.7784 -16.7736 -16.7736 -16.7688 -16.7688 -16.7611 -16.7544
   -16.7544 -16.7433 -16.7433 -16.7366 -16.7366 -16.7239 -16.7239 -16.7231
   -16.7131 -16.7069 -16.6906 -16.6905 -14.8099 -11.1053  -9.9537  -8.4344
    -7.5783  -7.5782  -7.5539  -7.1198  -7.1121  -7.1120  -6.4910  -6.4791
    -6.4791  -3.2760  -3.2760  -3.2700  -2.6816  -2.2476  -2.2475  -2.2287
    -2.1307  -2.0891  -2.0890  -0.2474  -0.2466  -0.2466   0.4176   1.6225
     1.6225   1.6658   2.0582   2.0582   2.1205   2.9300   3.0284   3.0518
     3.0518

[...]

          k =-0.0723 0.0417 0.0000 ( 26962 PWs)   bands (ev):

[...]

     the Fermi energy is     0.4778 ev

!    total energy              =   -2024.60575644 Ry
     Harris-Foulkes estimate   =   -2024.60577215 Ry
     estimated scf accuracy    <       0.00000434 Ry

     The total energy is the sum of the following terms:

     one-electron contribution =   -9594.01613587 Ry
     hartree contribution      =    4866.23081649 Ry
     xc contribution           =    -791.18559875 Ry
     ewald contribution        =    3494.41077341 Ry
     electric field correction =       0.00173057 Ry
     smearing contrib. (-TS)   =      -0.04734229 Ry

     convergence has been achieved in  23 iterations

 BEEF-vdW xc energy contributions
           1 :   -705.027562941901
           2 :    654.501327539224
           3 :   -565.732825446829
           4 :    458.351774622922
           5 :   -352.393605669328
           6 :    262.351423265249
           7 :   -194.140901922772
           8 :    145.617705440488
           9 :   -109.916408955388
          10 :    79.8124673652023
          11 :   -51.0984549195562
          12 :    23.6697126843329
          13 :  -0.283850480207093
          14 :   -15.9194040055156
          15 :    23.6345163085937
          16 :   -24.2524255862315
[...]

[...]

     Program PWSCF v.5.1rc2 (svn rev. 11289) starts on 20Jan2018 at  3:37: 3

[...]

     Program PWSCF v.5.1rc2 (svn rev. 11289) starts on 20Jan2018 at  4:50:54

[...]

   This run was terminated on:   5: 5:51  20Jan2018

[...]

     Program PWSCF v.5.1rc2 (svn rev. 11289) starts on 20Jan2018 at  5: 5:57

     Current dimensions of program PWSCF are:
     Max number of different atomic species (ntypx) = 10
     Max number of k-points (npk) =  40000
     Max angular momentum in pseudopotentials (lmaxx) =  3
     Presently stress not available with electric field

     IMPORTANT: XC functional enforced from input :
     Exchange-correlation      = BEEF-VDW ( 1  4 27 13 2)
     Any further DFT definition will be discarded
     Please, verify this is what you really want

     Subspace diagonalization in iterative solution of the eigenvalue problem:
     a serial algorithm will be used

     bravais-lattice index     =            0
     lattice parameter (alat)  =       1.8897  a.u.
     unit-cell volume          =    7171.5276 (a.u.)^3
     number of atoms/cell      =           13
     number of atomic types    =            2
     number of electrons       =       174.00
     number of Kohn-Sham states=           97
     kinetic-energy cutoff     =      36.7493  Ry
     charge density cutoff     =     367.4932  Ry
     convergence threshold     =      1.0E-05
     mixing beta               =       0.3000
     number of iterations used =           10  plain     mixing
     Exchange-correlation      = BEEF-VDW ( 1  4 27 13 2)
     nstep                     =           50

     celldm(1)=   1.889726  celldm(2)=   0.000000  celldm(3)=   0.000000
     celldm(4)=   0.000000  celldm(5)=   0.000000  celldm(6)=   0.000000

     crystal axes: (cart. coord. in units of alat)
               a(1) = (   6.917003   0.000000   0.000000 )
               a(2) = (   3.458501   5.990300   0.000000 )
               a(3) = (   0.000000   0.000000  25.647709 )

     reciprocal axes: (cart. coord. in units 2 pi/alat)
               b(1) = (  0.144571 -0.083468  0.000000 )
               b(2) = (  0.000000  0.166937  0.000000 )
               b(3) = (  0.000000  0.000000  0.038990 )

     PseudoPot. # 1 for Pb read from file:
     /afs/slac.stanford.edu/u/if/mamunm/psp/gbrv1.5pbe/Pb.UPF
     MD5 check sum: 3d1c1779aa92214d1e8f3a7db79003e2
     Pseudo is Ultrasoft + core correction, Zval = 14.0
     Generated by new atomic code, or converted to UPF format
     Using radial grid of  899 points,  6 beta functions with:
                l(1) =   0
                l(2) =   0
                l(3) =   1
                l(4) =   1
                l(5) =   2
                l(6) =   2
     Q(r) pseudized with  6 coefficients,  rinner =    1.000   1.000   1.000
                                                       1.000   1.000

     PseudoPot. # 2 for O  read from file:
     /afs/slac.stanford.edu/u/if/mamunm/psp/gbrv1.5pbe/O.UPF
     MD5 check sum: 734c27235a0248c51dbae37a1fbe46ec
     Pseudo is Ultrasoft + core correction, Zval =  6.0
     Generated by new atomic code, or converted to UPF format
     Using radial grid of  737 points,  5 beta functions with:
                l(1) =   0
                l(2) =   0
                l(3) =   1
                l(4) =   1
                l(5) =   2
     Q(r) pseudized with  8 coefficients,  rinner =    0.900   0.900   0.900
                                                       0.900   0.900

     vdW kernel table read from file vdW_kernel_table
     MD5 check sum: 095c7af220d748ca6e76c0b4c6cfb241

     atomic species   valence    mass     pseudopotential
        Pb1           14.00   207.20000     Pb( 1.00)
        O1             6.00    15.99900     O ( 1.00)

     No symmetry found

   Cartesian axes

     site n.     atom                  positions (alat units)
         1           Pb1 tau(   1) = (   1.7292506   0.9983833  10.0000000  )
         2           Pb1 tau(   2) = (   5.1877519   0.9983833  10.0000000  )
         3           Pb1 tau(   3) = (   3.4585013   3.9935333  10.0000000  )
         4           Pb1 tau(   4) = (   6.9170025   3.9935333  10.0000000  )
         5           Pb1 tau(   5) = (   6.9170025   1.9967666  12.8238544  )
         6           Pb1 tau(   6) = (   3.4585013   1.9967666  12.8238544  )
         7           Pb1 tau(   7) = (   8.6462531   4.9919166  12.8238544  )
         8           Pb1 tau(   8) = (   5.1877519   4.9919166  12.8238544  )
         9           Pb1 tau(   9) = (   3.4585528   5.9902150  15.7185977  )
        10           Pb1 tau(  10) = (   3.4586259   0.0158091  16.0301261  )
        11           Pb1 tau(  11) = (   1.7424544   2.9873859  16.0301020  )
        12           Pb1 tau(  12) = (   5.1744733   2.9873577  16.0302492  )
        13           O1  tau(  13) = (   3.4585012   1.9963663  17.1713076  )

     number of k points=    20  Fermi-Dirac smearing, width (Ry)=  0.0110
                       cart. coord. in units 2pi/alat
        k(    1) = (   0.0000000   0.0000000   0.0000000), wk =   0.0555556
        k(    2) = (   0.0000000   0.0278228   0.0000000), wk =   0.1111111
        k(    3) = (   0.0000000   0.0556455   0.0000000), wk =   0.1111111
        k(    4) = (   0.0000000  -0.0834683   0.0000000), wk =   0.0555556
        k(    5) = (   0.0240952  -0.0139114   0.0000000), wk =   0.1111111
        k(    6) = (   0.0240952   0.0139114   0.0000000), wk =   0.1111111
        k(    7) = (   0.0240952   0.0417341   0.0000000), wk =   0.1111111
        k(    8) = (   0.0240952  -0.0973797   0.0000000), wk =   0.1111111
        k(    9) = (   0.0240952  -0.0695569   0.0000000), wk =   0.1111111
        k(   10) = (   0.0240952  -0.0417341   0.0000000), wk =   0.1111111
        k(   11) = (   0.0481904  -0.0278228   0.0000000), wk =   0.1111111
        k(   12) = (   0.0481904   0.0000000   0.0000000), wk =   0.1111111
        k(   13) = (   0.0481904   0.0278228   0.0000000), wk =   0.1111111
        k(   14) = (   0.0481904  -0.1112910   0.0000000), wk =   0.1111111
        k(   15) = (   0.0481904  -0.0834683   0.0000000), wk =   0.1111111
        k(   16) = (   0.0481904  -0.0556455   0.0000000), wk =   0.1111111
        k(   17) = (  -0.0722856   0.0417341   0.0000000), wk =   0.0555556
        k(   18) = (  -0.0722856   0.0695569   0.0000000), wk =   0.1111111
        k(   19) = (  -0.0722856   0.0973797   0.0000000), wk =   0.1111111
        k(   20) = (  -0.0722856  -0.0417341   0.0000000), wk =   0.0555556

     Largest allocated arrays     est. size (Mb)     dimensions
     Largest temporary arrays     est. size (Mb)     dimensions

     Check: negative/imaginary core charge=   -0.000001    0.000000

     Initial potential from superposition of free atoms
     Check: negative starting charge=   -0.195393

     starting charge  173.97178, renormalised to  174.00000

[...]

     *
     * You are using vdW-DF for exchange-correlation in this calculation.
     * Please cite the following three references that made this development
     * possible:
     *
     *   M. Dion, H. Rydberg, E. Schroder, D. C. Langreth, and
     *   B. I. Lundqvist, Phys. Rev. Lett. 92, 246401 (2004).
     *
     *   T. Thonhauser, V. R. Cooper, S. Li, A. Puzder, P. Hyldgaard, and
     *   D. C. Langreth, Phys. Rev. B 76, 125112 (2007).
     *
     *   G. Roman-Perez and J. M. Soler, Phys. Rev. Lett. 103, 096102 (2009).
     *
     *
     * If you are using vdW-DF2, please also cite:
     *
     *   K. Lee, E. D. Murray, L. Kong, B. I. Lundqvist, and
     *   D. C. Langreth, Phys. Rev. B 82, 081101(R) (2010).
     *
     *
     * If you are calculating the stress with vdW-DF, please also cite:
     *
     *   R. Sabatini, E. Kucukbenli, B. Kolb, T. Thonhauser, and
     *   S. de Gironcoli, J. Phys.: Condens. Matter 24, 424209 (2012).
     *

     Carrying out vdW-DF run using the following parameters:

     Nqs =      20    Nr_points =    1024   r_max =   100.000
     q_mesh =
               0.00001000     0.04494208     0.09755937     0.15916263
               0.23128650     0.31572767     0.41458969     0.53033537
               0.66584808     0.82450364     1.01025438     1.22772762
               1.48234092     1.78043706     2.12944203     2.53805004
               3.01644009     3.57652955     4.23227104     5.00000000

     Gradients computed in reciprocal space

[...]

     Starting wfc are  112 randomized atomic wfcs

     Self-consistent Calculation

[...]

     Threshold (ethr) on eigenvalues was too large:
     Diagonalizing with lowered threshold

     Davidson diagonalization with overlap
     ethr =  7.90E-04,  avg # of iterations =  1.9

[...]

     total energy              =   -2024.75416007 Ry
     Harris-Foulkes estimate   =   -2024.75416791 Ry
     estimated scf accuracy    <       0.00001439 Ry

     iteration # 11     ecut=    36.75 Ry     beta=0.30
     Davidson diagonalization with overlap
     ethr =  8.27E-09,  avg # of iterations =  3.2

[...]

     negative rho (up, down):  2.113E-01 0.000E+00

     Adding external electric field

     Computed dipole along edir(3) :
        Dipole               -0.2173 Ry au,         -0.5523 Debye
        Dipole field         -0.0004 Ry au

        Potential amp.        0.0360 Ry
        Total length         47.2555 bohr

     End of self-consistent calculation

[...]

          k = 0.0482-0.0556 0.0000 ( 26956 PWs)   bands (ev):

[...]

          k =-0.0723-0.0417 0.0000 ( 26962 PWs)   bands (ev):

   -17.7893 -16.5282 -16.4992 -16.4758 -16.4719 -16.4647 -16.4360 -16.4344
   -16.4295 -16.4270 -16.4234 -16.4210 -16.4209 -16.4110 -16.4033 -16.4022
   -16.4012 -16.3970 -16.3935 -16.3885 -16.3819 -16.3802 -16.3712 -16.3660
   -16.3590 -16.3582 -16.3521 -16.3497 -16.3464 -16.3267 -16.3237 -16.3192
   -16.3157 -16.3065 -16.2950 -16.2754 -16.2752 -16.2678 -16.2640 -16.2583
   -16.2566 -16.2395 -16.2300 -16.2209 -16.2180 -16.2131 -16.2070 -16.1982
   -16.1953 -16.1938 -16.1921 -16.1809 -16.1802 -16.1781 -16.1546 -16.1468
   -16.1453 -16.1402 -16.1174 -16.0879 -15.4050  -9.2586  -9.1701  -8.3512
    -7.9891  -7.3163  -7.2630  -7.1999  -6.9987  -6.8681  -6.4473  -5.9675
    -5.8153  -2.7881  -1.9813  -1.8142  -0.9134  -0.9092  -0.8540  -0.7482
    -0.7062  -0.5465  -0.1503   0.5431   0.7317   0.8634   0.8687   1.3155
     1.6725   1.7752   1.8759   1.9874   2.2862   2.3768   2.4003   2.6390
     2.8929

     the Fermi energy is     1.0651 ev

!    total energy              =   -2024.75415253 Ry
     Harris-Foulkes estimate   =   -2024.75417413 Ry
     estimated scf accuracy    <       0.00000325 Ry

     The total energy is the sum of the following terms:

     one-electron contribution =   -9342.67180517 Ry
     hartree contribution      =    4743.36848814 Ry
     xc contribution           =    -791.34849392 Ry
     ewald contribution        =    3365.94093898 Ry
     electric field correction =       0.00008274 Ry
     smearing contrib. (-TS)   =      -0.04336331 Ry

     convergence has been achieved in  11 iterations

 BEEF-vdW xc energy contributions
           1 :   -705.194581319158
           2 :    654.670277315876
           3 :   -565.841960665991
           4 :    458.338051232095
           5 :   -352.272776669775
           6 :    262.205677190106
           7 :   -194.044218245540
           8 :    145.576340469614
           9 :   -109.871030632662
          10 :    79.6944345971820
          11 :   -50.8931821286703
          12 :    23.4416773887419
          13 :  -0.145986559437688
          14 :   -15.8789885733688
          15 :    23.4238269259752
          16 :   -23.9878755543365
          17 :    20.9760754607807
          18 :   -17.9499900851843
          19 :    16.9876391584284
          20 :   -18.0217002276231
          21 :    19.3970871970699
          22 :   -19.2018540400379
          23 :    16.5487468865051
          24 :   -12.1024457443932
          25 :    7.63669146608072
          26 :   -4.96949001563098
          27 :    4.93391799396477
          28 :   -6.96471283699816
          29 :    9.49131521392439
          30 :   -10.8643880447787
          31 :   -56.5424422681311
          32 :   -41.3811487014221

     Forces acting on atoms (Ry/au):

     negative rho (up, down):  2.113E-01 0.000E+00
     atom    1 type  1   force =     0.00117238    0.00067681   -0.00594457
     atom    2 type  1   force =    -0.00117147    0.00067365   -0.00593197
     atom    3 type  1   force =    -0.00000303   -0.00135223   -0.00593124
     atom    4 type  1   force =    -0.00000229   -0.00001122   -0.00791550
     atom    5 type  1   force =    -0.00000271    0.00037884    0.00314333
     atom    6 type  1   force =     0.00000298    0.00000209    0.01124187
     atom    7 type  1   force =    -0.00031442   -0.00018739    0.00313411
     atom    8 type  1   force =     0.00032661   -0.00018643    0.00314465
     atom    9 type  1   force =     0.00000458   -0.00001717   -0.00017871
     atom   10 type  1   force =    -0.00000669   -0.00081387    0.00151740
     atom   11 type  1   force =    -0.00059517    0.00036213    0.00157271
     atom   12 type  1   force =     0.00060078    0.00037638    0.00156834
     atom   13 type  2   force =    -0.00001155    0.00009841    0.00057958

     Total force =     0.018426     Total SCF correction =     0.008758
     SCF correction compared to forces is large: reduce conv_thr to get better values

     entering subroutine stress ...

     negative rho (up, down):  2.113E-01 0.000E+00
          total   stress  (Ry/bohr**3)                   (kbar)     P=    7.85
   0.00006829   0.00000001  -0.00000001         10.05      0.00     -0.00
   0.00000001   0.00006834   0.00000003          0.00     10.05      0.00
  -0.00000001   0.00000003   0.00002345         -0.00      0.00      3.45

 !ASE

     Writing output data file calc.save

     General routines

     Parallel routines

   This run was terminated on:   5:20:32  20Jan2018

   JOB DONE.
Job  /afs/slac/g/suncat/bin/suncat-tsmpirun -x LD_LIBRARY_PATH -wdir /scratch/qe864359_Krr59 pw.x -in pw.inp

TID   HOST_NAME   COMMAND_LINE            STATUS            TERMINATION_TIME
00000 suncat1043 pw.x -in pw.inp   Done                     01/20/2018 05:20:32
00001 suncat1043 pw.x -in pw.inp   Done                     01/20/2018 05:20:32
00002 suncat1043 pw.x -in pw.inp   Done                     01/20/2018 05:20:32
00003 suncat1043 pw.x -in pw.inp   Done                     01/20/2018 05:20:32
00004 suncat1043 pw.x -in pw.inp   Done                     01/20/2018 05:20:32
00005 suncat1043 pw.x -in pw.inp   Done                     01/20/2018 05:20:32
00006 suncat1043 pw.x -in pw.inp   Done                     01/20/2018 05:20:32
00007 suncat1043 pw.x -in pw.inp   Done                     01/20/2018 05:20:32
00008 suncat1041 pw.x -in pw.inp   Done                     01/20/2018 05:20:32
00009 suncat1041 pw.x -in pw.inp   Done                     01/20/2018 05:20:32
00010 suncat1041 pw.x -in pw.inp   Done                     01/20/2018 05:20:32
00011 suncat1041 pw.x -in pw.inp   Done                     01/20/2018 05:20:32
00012 suncat1041 pw.x -in pw.inp   Done                     01/20/2018 05:20:32
00013 suncat1041 pw.x -in pw.inp   Done                     01/20/2018 05:20:32
00014 suncat1041 pw.x -in pw.inp   Done                     01/20/2018 05:20:32
00015 suncat1041 pw.x -in pw.inp   Done                     01/20/2018 05:20:32
00016 suncat1041 pw.x -in pw.inp   Done                     01/20/2018 05:20:32
00017 suncat1041 pw.x -in pw.inp   Done                     01/20/2018 05:20:32
00018 suncat1041 pw.x -in pw.inp   Done                     01/20/2018 05:20:32
00019 suncat1041 pw.x -in pw.inp   Done                     01/20/2018 05:20:32
00020 suncat1040 pw.x -in pw.inp   Done                     01/20/2018 05:20:32
00021 suncat1040 pw.x -in pw.inp   Done                     01/20/2018 05:20:32
00022 suncat1040 pw.x -in pw.inp   Done                     01/20/2018 05:20:32
00023 suncat1040 pw.x -in pw.inp   Done                     01/20/2018 05:20:32
00024 suncat1040 pw.x -in pw.inp   Done                     01/20/2018 05:20:32
00025 suncat1040 pw.x -in pw.inp   Done                     01/20/2018 05:20:32
00026 suncat1040 pw.x -in pw.inp   Done                     01/20/2018 05:20:32
00027 suncat1040 pw.x -in pw.inp   Done                     01/20/2018 05:20:32
00028 suncat1040 pw.x -in pw.inp   Done                     01/20/2018 05:20:32
00029 suncat1040 pw.x -in pw.inp   Done                     01/20/2018 05:20:32
00030 suncat1040 pw.x -in pw.inp   Done                     01/20/2018 05:20:32
00031 suncat1040 pw.x -in pw.inp   Done                     01/20/2018 05:20:32