     Program PWSCF v.5.1rc2 (svn rev. 11289) starts on  3May2018 at  6:20:11

     Current dimensions of program PWSCF are:
     Max number of different atomic species (ntypx) = 10
     Max number of k-points (npk) =  40000
     Max angular momentum in pseudopotentials (lmaxx) =  3
     Presently stress not available with electric field

     IMPORTANT: XC functional enforced from input :
     Exchange-correlation      = BEEF-VDW ( 1  4 27 13 2)
     Any further DFT definition will be discarded
     Please, verify this is what you really want

     Subspace diagonalization in iterative solution of the eigenvalue problem:
     a serial algorithm will be used

     bravais-lattice index     =            0
     lattice parameter (alat)  =       1.8897  a.u.
     unit-cell volume          =    4704.3541 (a.u.)^3
     number of atoms/cell      =           13
     number of atomic types    =            2
     number of electrons       =       174.00
     number of Kohn-Sham states=           97
     kinetic-energy cutoff     =      36.7493  Ry
     charge density cutoff     =     367.4932  Ry
     convergence threshold     =      1.0E-05
     mixing beta               =       0.3000
     number of iterations used =           10  plain     mixing
     Exchange-correlation      = BEEF-VDW ( 1  4 27 13 2)
     nstep                     =           50

     celldm(1)=   1.889726  celldm(2)=   0.000000  celldm(3)=   0.000000
     celldm(4)=   0.000000  celldm(5)=   0.000000  celldm(6)=   0.000000

     crystal axes: (cart. coord. in units of alat)
               a(1) = (   5.712816   0.000000   0.000000 )
               a(2) = (   2.856408   4.947444   0.000000 )
               a(3) = (   0.000000   0.000000  24.664495 )

     reciprocal axes: (cart. coord. in units 2 pi/alat)
               b(1) = (  0.175045 -0.101062  0.000000 )
               b(2) = (  0.000000  0.202125  0.000000 )
               b(3) = (  0.000000  0.000000  0.040544 )

     PseudoPot. # 1 for W  read from file:
     /u/if/mamunm/psp/gbrv1.5pbe/W.UPF
     MD5 check sum: 9c083fa34c2a2ea0f02f1f893e16e1c8
     Pseudo is Ultrasoft + core correction, Zval = 14.0
     Generated by new atomic code, or converted to UPF format
     Using radial grid of  923 points,  8 beta functions with:
                l(1) =   0
                l(2) =   0
                l(3) =   0
                l(4) =   1
                l(5) =   1
                l(6) =   2
                l(7) =   2
                l(8) =   3
     Q(r) pseudized with  6 coefficients,  rinner =    1.350   1.350   1.350
                                                       1.350   1.350   1.350
                                                       1.350

     PseudoPot. # 2 for S  read from file:
     /u/if/mamunm/psp/gbrv1.5pbe/S.UPF
     MD5 check sum: 88d86576ff6df21479756cfb9bdac1df
     Pseudo is Ultrasoft + core correction, Zval =  6.0
     Generated by new atomic code, or converted to UPF format
     Using radial grid of  907 points,  6 beta functions with:
                l(1) =   0
                l(2) =   0
                l(3) =   1
                l(4) =   1
                l(5) =   2
                l(6) =   2
     Q(r) pseudized with  8 coefficients,  rinner =    1.300   1.300   1.300
                                                       1.300   1.300

     vdW kernel table read from file vdW_kernel_table
     MD5 check sum: 095c7af220d748ca6e76c0b4c6cfb241

     atomic species   valence    mass     pseudopotential
        W1            14.00   183.84000     W ( 1.00)
        S1             6.00    32.06000     S ( 1.00)

     No symmetry found

   Cartesian axes

     site n.     atom                  positions (alat units)
         1           W1  tau(   1) = (   1.4282041   0.8245740  10.0000000  )
         2           W1  tau(   2) = (   4.2846123   0.8245740  10.0000000  )
         3           W1  tau(   3) = (   2.8564082   3.2982961  10.0000000  )
         4           W1  tau(   4) = (   5.7128165   3.2982961  10.0000000  )
         5           W1  tau(   5) = (   5.7128165   1.6491481  12.3322476  )
         6           W1  tau(   6) = (   2.8564082   1.6491481  12.3322476  )
         7           W1  tau(   7) = (   7.1410206   4.1228701  12.3322476  )
         8           W1  tau(   8) = (   4.2846123   4.1228701  12.3322476  )
         9           W1  tau(   9) = (   0.0000000   0.0000000  14.6644951  )
        10           W1  tau(  10) = (   2.8564082   0.0000000  14.6644951  )
        11           W1  tau(  11) = (   1.4282041   2.4737221  14.6644951  )
        12           W1  tau(  12) = (   4.2846123   2.4737221  14.6644951  )
        13           S1  tau(  13) = (   2.8564082   1.6491481  16.3999951  )

     number of k points=    20  Fermi-Dirac smearing, width (Ry)=  0.0110
                       cart. coord. in units 2pi/alat
        k(    1) = (   0.0000000   0.0000000   0.0000000), wk =   0.0555556
        k(    2) = (   0.0000000   0.0336874   0.0000000), wk =   0.1111111
        k(    3) = (   0.0000000   0.0673749   0.0000000), wk =   0.1111111
        k(    4) = (   0.0000000  -0.1010623   0.0000000), wk =   0.0555556
        k(    5) = (   0.0291742  -0.0168437   0.0000000), wk =   0.1111111
        k(    6) = (   0.0291742   0.0168437   0.0000000), wk =   0.1111111
        k(    7) = (   0.0291742   0.0505311   0.0000000), wk =   0.1111111
        k(    8) = (   0.0291742  -0.1179060   0.0000000), wk =   0.1111111
        k(    9) = (   0.0291742  -0.0842186   0.0000000), wk =   0.1111111
        k(   10) = (   0.0291742  -0.0505311   0.0000000), wk =   0.1111111
        k(   11) = (   0.0583483  -0.0336874   0.0000000), wk =   0.1111111
        k(   12) = (   0.0583483  -0.0000000   0.0000000), wk =   0.1111111
        k(   13) = (   0.0583483   0.0336874   0.0000000), wk =   0.1111111
        k(   14) = (   0.0583483  -0.1347497   0.0000000), wk =   0.1111111
        k(   15) = (   0.0583483  -0.1010623   0.0000000), wk =   0.1111111
        k(   16) = (   0.0583483  -0.0673749   0.0000000), wk =   0.1111111
        k(   17) = (  -0.0875225   0.0505311   0.0000000), wk =   0.0555556
        k(   18) = (  -0.0875225   0.0842186   0.0000000), wk =   0.1111111
        k(   19) = (  -0.0875225   0.1179060   0.0000000), wk =   0.1111111
        k(   20) = (  -0.0875225  -0.0505311   0.0000000), wk =   0.0555556

     Largest allocated arrays     est. size (Mb)     dimensions
     Largest temporary arrays     est. size (Mb)     dimensions

     Initial potential from superposition of free atoms
     Check: negative starting charge=   -0.760231

     starting charge  172.79588, renormalised to  174.00000

     negative rho (up, down):  7.655E-01 0.000E+00

     *
     * You are using vdW-DF for exchange-correlation in this calculation.
     * Please cite the following three references that made this development
     * possible:
     *
     *   M. Dion, H. Rydberg, E. Schroder, D. C. Langreth, and
     *   B. I. Lundqvist, Phys. Rev. Lett. 92, 246401 (2004).
     *
     *   T. Thonhauser, V. R. Cooper, S. Li, A. Puzder, P. Hyldgaard, and
     *   D. C. Langreth, Phys. Rev. B 76, 125112 (2007).
     *
     *   G. Roman-Perez and J. M. Soler, Phys. Rev. Lett. 103, 096102 (2009).
     *
     *
     * If you are using vdW-DF2, please also cite:
     *
     *   K. Lee, E. D. Murray, L. Kong, B. I. Lundqvist, and
     *   D. C. Langreth, Phys. Rev. B 82, 081101(R) (2010).
     *
     *
     * If you are calculating the stress with vdW-DF, please also cite:
     *
     *   R. Sabatini, E. Kucukbenli, B. Kolb, T. Thonhauser, and
     *   S. de Gironcoli, J. Phys.: Condens. Matter 24, 424209 (2012).
     *

     Carrying out vdW-DF run using the following parameters:

     Nqs =      20    Nr_points =    1024   r_max =   100.000
     q_mesh =
               0.00001000     0.04494208     0.09755937     0.15916263
               0.23128650     0.31572767     0.41458969     0.53033537
               0.66584808     0.82450364     1.01025438     1.22772762
               1.48234092     1.78043706     2.12944203     2.53805004
               3.01644009     3.57652955     4.23227104     5.00000000

     Gradients computed in reciprocal space

     Adding external electric field

     Computed dipole along edir(3) :
        Dipole               -0.3211 Ry au,         -0.8162 Debye
        Dipole field         -0.0009 Ry au

        Potential amp.        0.0780 Ry
        Total length         45.4439 bohr

     Starting wfc are  160 randomized atomic wfcs

     Self-consistent Calculation

     iteration #  1     ecut=    36.75 Ry     beta=0.30
     Davidson diagonalization with overlap
     ethr =  1.00E-02,  avg # of iterations =  2.0

[...]

     total energy              =   -1946.60677681 Ry
     Harris-Foulkes estimate   =   -1949.66277342 Ry
     estimated scf accuracy    <       6.49973093 Ry

[...]

     End of self-consistent calculation

          k = 0.0000 0.0000 0.0000 ( 17753 PWs)   bands (ev):

   -71.5956 -71.5542 -71.5246 -71.5103 -71.5101 -71.5094 -71.4805 -71.4804
   -71.4801 -71.4618 -71.4613 -71.4575 -36.1793 -36.1421 -36.1419 -36.1179
   -36.0816 -36.0642 -36.0641 -35.9768 -35.9671 -35.9668 -35.7689 -35.6665
   -35.6517 -35.6515 -35.6087 -35.5935 -35.5932 -35.4830 -35.4830 -35.4699
   -35.3957 -35.3956 -35.3907 -35.3694 -35.3694 -35.3436 -35.3232 -35.2806
   -35.2805 -35.2729 -35.2423 -35.2423 -35.1718 -35.1718 -35.1064 -35.1064
   -10.7958  -5.4808  -3.7564  -3.0314  -2.6670  -2.6670  -2.5588  -2.3457
    -2.2943  -2.2943  -1.6994  -1.6891  -1.6891  -1.3618  -1.3492  -1.3491
    -0.7221  -0.7221  -0.4782   0.3080   0.3081   0.6367   1.2692   1.3638
     1.3638   1.6164   1.9109   2.0508   2.0509   2.2177   2.2911   2.2911
     2.4151   2.4152   2.4702   2.5416   2.5723   2.5723   2.7212   2.7212
     3.3541   3.4236   3.4236   4.0002   4.2754   4.3210   4.3211   4.3905
     4.3906

[...]

          k =-0.0875 0.0505 0.0000 ( 17668 PWs)   bands (ev):

[...]

     the Fermi energy is     2.6403 ev

!    total energy              =   -1949.34207360 Ry
     Harris-Foulkes estimate   =   -1949.34207627 Ry
     estimated scf accuracy    <       0.00000699 Ry

     The total energy is the sum of the following terms:

     one-electron contribution =  -15048.31516723 Ry
     hartree contribution      =    7510.68714459 Ry
     xc contribution           =    -519.27684567 Ry
     ewald contribution        =    6107.65835290 Ry
     electric field correction =       0.00000279 Ry
     smearing contrib. (-TS)   =      -0.09556098 Ry

     convergence has been achieved in  16 iterations

 BEEF-vdW xc energy contributions
           1 :   -456.684513605684
           2 :    422.335968568912
           3 :   -361.838646033781
           4 :    288.443100708414
           5 :   -215.967373344630
           6 :    154.809653687233
           7 :   -109.708400723076
           8 :    79.7942461016203
           9 :   -60.5477021848541
          10 :    46.5747583205301
          11 :   -33.9464362689141
          12 :    21.2528074799591
          13 :   -9.24863077222557
          14 :  -0.389491804279032
          15 :    6.40486091601252
          16 :   -8.75387895196121
          17 :    8.59173134123785
          18 :   -7.61882042544164
          19 :    7.23084652030764
          20 :   -7.93562923082391
          21 :    9.29965997378423
          22 :   -10.3849621534800
          23 :    10.3885061235827
          24 :   -9.12580429069919
          25 :    7.11991128903719
          26 :   -5.28585951405347
          27 :    4.41425606847673
          28 :   -4.74934348685292
          29 :    5.88486365793483
          30 :   -7.01480147587279
          31 :   -41.5317106828560
          32 :   -31.0919634865595

     Forces acting on atoms (Ry/au):

     negative rho (up, down):  7.928E-01 0.000E+00
     atom    1 type  1   force =    -0.00168395   -0.00096020   -0.00249118
     atom    2 type  1   force =     0.00168764   -0.00095893   -0.00251342
     atom    3 type  1   force =     0.00000219    0.00192738   -0.00250285
     atom    4 type  1   force =    -0.00000890   -0.00002008   -0.00186653
     atom    5 type  1   force =    -0.00003826   -0.00030343   -0.00763463
     atom    6 type  1   force =     0.00004543   -0.00003679    0.01251674
     atom    7 type  1   force =     0.00022566    0.00019310   -0.00765491
     atom    8 type  1   force =    -0.00022410    0.00014360   -0.00763055
     atom    9 type  1   force =    -0.00001035    0.00002493   -0.03196178
     atom   10 type  1   force =     0.00000923   -0.06028874    0.01142006
     atom   11 type  1   force =    -0.05223314    0.03014300    0.01140268
     atom   12 type  1   force =     0.05222663    0.03013494    0.01141421
     atom   13 type  2   force =     0.00000193    0.00000122    0.01750218

     Total force =     0.112365     Total SCF correction =     0.009931

     entering subroutine stress ...

     negative rho (up, down):  7.928E-01 0.000E+00
          total   stress  (Ry/bohr**3)                   (kbar)     P=  -40.19
  -0.00038745  -0.00000002   0.00000001        -57.00     -0.00      0.00
  -0.00000002  -0.00038745   0.00000001         -0.00    -57.00      0.00
   0.00000001   0.00000001  -0.00004476          0.00      0.00     -6.58

     BFGS Geometry Optimization

     number of scf cycles    =   1
     number of bfgs steps    =   0

     energy   new            =   -1949.3420736045 Ry

     new trust radius        =       0.0613752580 bohr
     new conv_thr            =       0.0000099958 Ry

ATOMIC_POSITIONS (crystal)
W1       0.166666667   0.166666667   0.405441099    0   0   0
W1       0.666666667   0.166666667   0.405441099    0   0   0
W1       0.166666667   0.666666667   0.405441099    0   0   0
W1       0.666666667   0.666666667   0.405441099    0   0   0
W1       0.833333333   0.333333333   0.500000000    0   0   0
W1       0.333333333   0.333333333   0.500000000    0   0   0
W1       0.833333333   0.833333333   0.500000000    0   0   0
W1       0.333333333   0.833333333   0.500000000    0   0   0
W1      -0.000002292   0.000002667   0.593873160
W1       0.503225088  -0.006448466   0.594803919
W1      -0.006450390   0.503224087   0.594803546
W1       0.503226131   0.503223225   0.594803793
S1       0.333333447   0.333333463   0.665298713

     Writing output data file calc.save
     Check: negative starting charge=   -0.760231
     NEW-OLD atomic charge density approx. for the potential
     Check: negative starting charge=   -0.760959

[...]

     Total force =     0.062159     Total SCF correction =     0.009744
     SCF correction compared to forces is large: reduce conv_thr to get better values

[...]

     energy   old            =   -1949.3420736045 Ry
     energy   new            =   -1949.3517197889 Ry

     CASE: energy  _new < energy  _old

[...]

     Total force =     0.007525     Total SCF correction =     0.000150

[...]

     number of scf cycles    =   8
     number of bfgs steps    =   7

     energy   old            =   -1949.3625735529 Ry
     energy   new            =   -1949.3629046248 Ry

     CASE: energy  _new < energy  _old

     new trust radius        =       0.0087078061 bohr
     new conv_thr            =       0.0000001000 Ry

ATOMIC_POSITIONS (crystal)
W1       0.166666667   0.166666667   0.405441099    0   0   0
W1       0.666666667   0.166666667   0.405441099    0   0   0
W1       0.166666667   0.666666667   0.405441099    0   0   0
W1       0.666666667   0.666666667   0.405441099    0   0   0
W1       0.833333333   0.333333333   0.500000000    0   0   0
W1       0.333333333   0.333333333   0.500000000    0   0   0
W1       0.833333333   0.833333333   0.500000000    0   0   0
W1       0.333333333   0.833333333   0.500000000    0   0   0
W1      -0.000000921   0.000001328   0.585372711
W1       0.506904126  -0.013807638   0.597563224
W1      -0.013808345   0.506904575   0.597563214
W1       0.506903611   0.506905082   0.597563216
S1       0.333332728   0.333334114   0.666770611

     Writing output data file calc.save
     Check: negative starting charge=   -0.758842
     NEW-OLD atomic charge density approx. for the potential
     Check: negative starting charge=   -0.758301

[...]

     Self-consistent Calculation

[...]

     Threshold (ethr) on eigenvalues was too large:
     Diagonalizing with lowered threshold

     Davidson diagonalization with overlap
     ethr =  6.84E-08,  avg # of iterations =  1.8

[...]

     total energy              =   -1949.36296195 Ry
     Harris-Foulkes estimate   =   -1949.36296201 Ry
     estimated scf accuracy    <       0.00000042 Ry

     iteration #  8     ecut=    36.75 Ry     beta=0.30
     Davidson diagonalization with overlap
     ethr =  2.30E-10,  avg # of iterations =  3.0

[...]

     negative rho (up, down):  7.916E-01 0.000E+00

     Adding external electric field

     Computed dipole along edir(3) :
        Dipole               -0.0109 Ry au,         -0.0278 Debye
        Dipole field         -0.0000 Ry au

        Potential amp.        0.0027 Ry
        Total length         45.4439 bohr

     End of self-consistent calculation

[...]

          k = 0.0583-0.0674 0.0000 ( 17692 PWs)   bands (ev):

[...]

          k =-0.0875-0.0505 0.0000 ( 17668 PWs)   bands (ev):

   -71.6374 -71.6186 -71.5871 -71.5735 -71.5333 -71.5222 -71.5057 -71.4892
   -71.4888 -71.4747 -71.4573 -71.4476 -36.0710 -36.0536 -36.0388 -36.0037
   -35.9953 -35.9795 -35.8954 -35.8633 -35.8520 -35.8300 -35.8028 -35.7862
   -35.7650 -35.6709 -35.6288 -35.6277 -35.6113 -35.6077 -35.5749 -35.5551
   -35.5492 -35.5135 -35.5109 -35.4943 -35.4826 -35.4652 -35.4212 -35.3995
   -35.3964 -35.3471 -35.3137 -35.2887 -35.2530 -35.2171 -35.2046 -35.1887
   -10.6549  -3.7671  -3.6031  -2.5653  -2.2603  -1.7763  -1.7180  -1.5893
    -1.4163  -1.3319  -1.2514  -1.1176  -0.8830  -0.7222  -0.3849  -0.3287
    -0.1472  -0.1047  -0.0209   0.1746   0.3812   0.4683   0.5860   0.6099
     0.7202   0.8585   1.0920   1.2905   1.2936   1.3745   1.5247   1.5353
     1.5536   1.6584   1.8173   1.9267   2.1556   2.1664   2.2756   2.4412
     2.6030   2.8156   3.1329   3.3446   3.4637   3.6757   3.7838   3.9257
     4.0366

     the Fermi energy is     2.6286 ev

!    total energy              =   -1949.36296195 Ry
     Harris-Foulkes estimate   =   -1949.36296201 Ry
     estimated scf accuracy    <       0.00000007 Ry

     The total energy is the sum of the following terms:

     one-electron contribution =  -15031.62368401 Ry
     hartree contribution      =    7502.15736708 Ry
     xc contribution           =    -519.28980171 Ry
     ewald contribution        =    6099.48623846 Ry
     electric field correction =       0.00000032 Ry
     smearing contrib. (-TS)   =      -0.09308208 Ry

     convergence has been achieved in   8 iterations

 BEEF-vdW xc energy contributions
           1 :   -456.697298884805
           2 :    422.336175450482
           3 :   -361.817396676052
           4 :    288.394863923408
           5 :   -215.888632035062
           6 :    154.697938708139
           7 :   -109.561639886151
           8 :    79.6121437855958
           9 :   -60.3364114397896
          10 :    46.3520550988507
          11 :   -33.7415380389687
          12 :    21.0968256074435
          13 :   -9.15836859673203
          14 :  -0.424503255952516
          15 :    6.42150952903398
          16 :   -8.79831708905374
          17 :    8.69389013145292
          18 :   -7.77309026860240
          19 :    7.39586098522727
          20 :   -8.05558709308150
          21 :    9.33622796737211
          22 :   -10.3418930178806
          23 :    10.3138018378174
          24 :   -9.08795008659069
          25 :    7.17018957028836
          26 :   -5.42808703478312
          27 :    4.60020937983387
          28 :   -4.90391093613579
          29 :    5.94738349425245
          30 :   -6.97334725645783
          31 :   -41.5319300531752
          32 :   -31.0867469395721

     Forces acting on atoms (Ry/au):

     negative rho (up, down):  7.916E-01 0.000E+00
     atom    1 type  1   force =    -0.00263890   -0.00152371   -0.00255610
     atom    2 type  1   force =     0.00263894   -0.00152376   -0.00255608
     atom    3 type  1   force =    -0.00000001    0.00304707   -0.00255609
     atom    4 type  1   force =    -0.00000001   -0.00000002    0.00592330
     atom    5 type  1   force =     0.00000006    0.01551333   -0.01761470
     atom    6 type  1   force =    -0.00000009   -0.00000002    0.05563664
     atom    7 type  1   force =    -0.01343490   -0.00775686   -0.01761448
     atom    8 type  1   force =     0.01343503   -0.00775682   -0.01761419
     atom    9 type  1   force =     0.00000026   -0.00000010   -0.00006366
     atom   10 type  1   force =    -0.00000042   -0.00108254   -0.00058977
     atom   11 type  1   force =    -0.00093770    0.00054180   -0.00058983
     atom   12 type  1   force =     0.00093741    0.00054157   -0.00058956
     atom   13 type  2   force =     0.00000035    0.00000005    0.00078454

     Total force =     0.002276     Total SCF correction =     0.000491
     SCF correction compared to forces is large: reduce conv_thr to get better values

     entering subroutine stress ...

     negative rho (up, down):  7.916E-01 0.000E+00
          total   stress  (Ry/bohr**3)                   (kbar)     P=  -39.38
  -0.00036127  -0.00000000   0.00000000        -53.14     -0.00      0.00
  -0.00000000  -0.00036127   0.00000000         -0.00    -53.14      0.00
   0.00000000   0.00000000  -0.00008051          0.00      0.00    -11.84

     bfgs converged in   9 scf cycles and   8 bfgs steps
     (criteria: energy <  1.0E+00, force <  1.9E-03)

     End of BFGS Geometry Optimization

     Final energy   =   -1949.3629619474 Ry
Begin final coordinates

ATOMIC_POSITIONS (crystal)
W1       0.166666667   0.166666667   0.405441099    0   0   0
W1       0.666666667   0.166666667   0.405441099    0   0   0
W1       0.166666667   0.666666667   0.405441099    0   0   0
W1       0.666666667   0.666666667   0.405441099    0   0   0
W1       0.833333333   0.333333333   0.500000000    0   0   0
W1       0.333333333   0.333333333   0.500000000    0   0   0
W1       0.833333333   0.833333333   0.500000000    0   0   0
W1       0.333333333   0.833333333   0.500000000    0   0   0
W1      -0.000000921   0.000001328   0.585372711
W1       0.506904126  -0.013807638   0.597563224
W1      -0.013808345   0.506904575   0.597563214
W1       0.506903611   0.506905082   0.597563216
S1       0.333332728   0.333334114   0.666770611
End final coordinates

     Writing output data file calc.save

     General routines

     Parallel routines

   This run was terminated on:   7:44: 4   3May2018

   JOB DONE.
Job  /afs/slac/g/suncat/bin/suncat-tsmpirun -x LD_LIBRARY_PATH -wdir /scratch/qe636952_67wjY pw.x -npool 4 -in pw.inp

TID   HOST_NAME   COMMAND_LINE            STATUS            TERMINATION_TIME
00000 suncat0008 pw.x -npool 4 -i  Done                     05/03/2018 07:44:04
00001 suncat0008 pw.x -npool 4 -i  Done                     05/03/2018 07:44:04
00002 suncat0008 pw.x -npool 4 -i  Done                     05/03/2018 07:44:04
00003 suncat0008 pw.x -npool 4 -i  Done                     05/03/2018 07:44:04
00004 suncat0008 pw.x -npool 4 -i  Done                     05/03/2018 07:44:04
00005 suncat0008 pw.x -npool 4 -i  Done                     05/03/2018 07:44:04
00006 suncat0008 pw.x -npool 4 -i  Done                     05/03/2018 07:44:04
00007 suncat0008 pw.x -npool 4 -i  Done                     05/03/2018 07:44:04
00008 suncat0001 pw.x -npool 4 -i  Done                     05/03/2018 07:44:04
00009 suncat0001 pw.x -npool 4 -i  Done                     05/03/2018 07:44:04
00010 suncat0001 pw.x -npool 4 -i  Done                     05/03/2018 07:44:04
00011 suncat0001 pw.x -npool 4 -i  Done                     05/03/2018 07:44:04
00012 suncat0001 pw.x -npool 4 -i  Done                     05/03/2018 07:44:04
00013 suncat0001 pw.x -npool 4 -i  Done                     05/03/2018 07:44:04
00014 suncat0001 pw.x -npool 4 -i  Done                     05/03/2018 07:44:04
00015 suncat0001 pw.x -npool 4 -i  Done                     05/03/2018 07:44:04
00016 suncat0184 pw.x -npool 4 -i  Done                     05/03/2018 07:44:04
00017 suncat0184 pw.x -npool 4 -i  Done                     05/03/2018 07:44:04
00018 suncat0184 pw.x -npool 4 -i  Done                     05/03/2018 07:44:04
00019 suncat0184 pw.x -npool 4 -i  Done                     05/03/2018 07:44:04
00020 suncat0184 pw.x -npool 4 -i  Done                     05/03/2018 07:44:04
00021 suncat0184 pw.x -npool 4 -i  Done                     05/03/2018 07:44:04
00022 suncat0184 pw.x -npool 4 -i  Done                     05/03/2018 07:44:04
00023 suncat0184 pw.x -npool 4 -i  Done                     05/03/2018 07:44:04
00024 suncat0171 pw.x -npool 4 -i  Done                     05/03/2018 07:44:04
00025 suncat0171 pw.x -npool 4 -i  Done                     05/03/2018 07:44:04
00026 suncat0171 pw.x -npool 4 -i  Done                     05/03/2018 07:44:04
00027 suncat0171 pw.x -npool 4 -i  Done                     05/03/2018 07:44:04
00028 suncat0171 pw.x -npool 4 -i  Done                     05/03/2018 07:44:04
00029 suncat0171 pw.x -npool 4 -i  Done                     05/03/2018 07:44:04
00030 suncat0171 pw.x -npool 4 -i  Done                     05/03/2018 07:44:04
00031 suncat0171 pw.x -npool 4 -i  Done                     05/03/2018 07:44:04