     Program PWSCF v.5.1rc2 (svn rev. 11289) starts on  3May2018 at  7:52:33

     Current dimensions of program PWSCF are:
     Max number of different atomic species (ntypx) = 10
     Max number of k-points (npk) =  40000
     Max angular momentum in pseudopotentials (lmaxx) =  3
     Presently stress not available with electric field

     IMPORTANT: XC functional enforced from input :
     Exchange-correlation      = BEEF-VDW ( 1  4 27 13 2)
     Any further DFT definition will be discarded
     Please, verify this is what you really want

     Subspace diagonalization in iterative solution of the eigenvalue problem:
     a serial algorithm will be used

     bravais-lattice index     =            0
     lattice parameter (alat)  =       1.8897  a.u.
     unit-cell volume          =    4569.9960 (a.u.)^3
     number of atoms/cell      =           13
     number of atomic types    =            2
     number of electrons       =       193.00
     number of Kohn-Sham states=          106
     kinetic-energy cutoff     =      36.7493  Ry
     charge density cutoff     =     367.4932  Ry
     convergence threshold     =      1.0E-05
     mixing beta               =       0.3000
     number of iterations used =           10  plain     mixing
     Exchange-correlation      = BEEF-VDW ( 1  4 27 13 2)
     nstep                     =           50

     celldm(1)=   1.889726  celldm(2)=   0.000000  celldm(3)=   0.000000
     celldm(4)=   0.000000  celldm(5)=   0.000000  celldm(6)=   0.000000

     crystal axes: (cart. coord. in units of alat)
               a(1) = (   5.637663   0.000000   0.000000 )
               a(2) = (   2.818831   4.882359   0.000000 )
               a(3) = (   0.000000   0.000000  24.603132 )

     reciprocal axes: (cart. coord. in units 2 pi/alat)
               b(1) = (  0.177378 -0.102410  0.000000 )
               b(2) = (  0.000000  0.204819  0.000000 )
               b(3) = (  0.000000  0.000000  0.040645 )

     PseudoPot. # 1 for Pd read from file:
     /u/if/mamunm/psp/gbrv1.5pbe/Pd.UPF
     MD5 check sum: 2d733d2bc2cbfd217af676df1668a4bc
     Pseudo is Ultrasoft + core correction, Zval = 16.0
     Generated by new atomic code, or converted to UPF format
     Using radial grid of  887 points,  6 beta functions with:
                l(1) =   0
                l(2) =   0
                l(3) =   1
                l(4) =   1
                l(5) =   2
                l(6) =   2
     Q(r) pseudized with  8 coefficients,  rinner =    1.130   1.130   1.130
                                                       1.130   1.130

     PseudoPot. # 2 for H  read from file:
     /u/if/mamunm/psp/gbrv1.5pbe/H.UPF
     MD5 check sum: 761ae9a214b05c3daf00ab9f6b793d6f
     Pseudo is Ultrasoft, Zval =  1.0
     Generated by new atomic code, or converted to UPF format
     Using radial grid of  615 points,  2 beta functions with:
                l(1) =   0
                l(2) =   0
     Q(r) pseudized with  8 coefficients,  rinner =    0.700

     vdW kernel table read from file vdW_kernel_table
     MD5 check sum: 095c7af220d748ca6e76c0b4c6cfb241

     atomic species   valence    mass     pseudopotential
        Pd1           16.00   106.42000     Pd( 1.00)
        H1             1.00     1.00800     H ( 1.00)

     No symmetry found

   Cartesian axes

     site n.     atom                  positions (alat units)
         1           Pd1 tau(   1) = (   1.4094157   0.8137265  10.0000000  )
         2           Pd1 tau(   2) = (   4.2282471   0.8137265  10.0000000  )
         3           Pd1 tau(   3) = (   2.8188314   3.2549061  10.0000000  )
         4           Pd1 tau(   4) = (   5.6376627   3.2549061  10.0000000  )
         5           Pd1 tau(   5) = (   5.6376627   1.6274531  12.3015662  )
         6           Pd1 tau(   6) = (   2.8188314   1.6274531  12.3015662  )
         7           Pd1 tau(   7) = (   7.0470784   4.0686326  12.3015662  )
         8           Pd1 tau(   8) = (   4.2282471   4.0686326  12.3015662  )
         9           Pd1 tau(   9) = (   0.0000000   0.0000000  14.6031324  )
        10           Pd1 tau(  10) = (   2.8188314   0.0000000  14.6031324  )
        11           Pd1 tau(  11) = (   1.4094157   2.4411796  14.6031324  )
        12           Pd1 tau(  12) = (   4.2282471   2.4411796  14.6031324  )
        13           H1  tau(  13) = (   1.4094157   0.0000000  15.8781324  )

     number of k points=    20  Fermi-Dirac smearing, width (Ry)=  0.0110
                       cart. coord. in units 2pi/alat
        k(    1) = (   0.0000000   0.0000000   0.0000000), wk =   0.0555556
        k(    2) = (   0.0000000   0.0341365   0.0000000), wk =   0.1111111
        k(    3) = (   0.0000000   0.0682730   0.0000000), wk =   0.1111111
        k(    4) = (   0.0000000  -0.1024095   0.0000000), wk =   0.0555556
        k(    5) = (   0.0295631  -0.0170683   0.0000000), wk =   0.1111111
        k(    6) = (   0.0295631   0.0170683   0.0000000), wk =   0.1111111
        k(    7) = (   0.0295631   0.0512048   0.0000000), wk =   0.1111111
        k(    8) = (   0.0295631  -0.1194778   0.0000000), wk =   0.1111111
        k(    9) = (   0.0295631  -0.0853413   0.0000000), wk =   0.1111111
        k(   10) = (   0.0295631  -0.0512048   0.0000000), wk =   0.1111111
        k(   11) = (   0.0591262  -0.0341365   0.0000000), wk =   0.1111111
        k(   12) = (   0.0591262  -0.0000000   0.0000000), wk =   0.1111111
        k(   13) = (   0.0591262   0.0341365   0.0000000), wk =   0.1111111
        k(   14) = (   0.0591262  -0.1365460   0.0000000), wk =   0.1111111
        k(   15) = (   0.0591262  -0.1024095   0.0000000), wk =   0.1111111
        k(   16) = (   0.0591262  -0.0682730   0.0000000), wk =   0.1111111
        k(   17) = (  -0.0886892   0.0512048   0.0000000), wk =   0.0555556
        k(   18) = (  -0.0886892   0.0853413   0.0000000), wk =   0.1111111
        k(   19) = (  -0.0886892   0.1194778   0.0000000), wk =   0.1111111
        k(   20) = (  -0.0886892  -0.0512048   0.0000000), wk =   0.0555556

     Largest allocated arrays     est. size (Mb)     dimensions
     Largest temporary arrays     est. size (Mb)     dimensions

     Initial potential from superposition of free atoms
     Check: negative starting charge=   -0.904219

     starting charge  186.99991, renormalised to  193.00000

     negative rho (up, down):  9.332E-01 0.000E+00

     *
     * You are using vdW-DF for exchange-correlation in this calculation.
     * Please cite the following three references that made this development
     * possible:
     *
     *   M. Dion, H. Rydberg, E. Schroder, D. C. Langreth, and
     *   B. I. Lundqvist, Phys. Rev. Lett. 92, 246401 (2004).
     *
     *   T. Thonhauser, V. R. Cooper, S. Li, A. Puzder, P. Hyldgaard, and
     *   D. C. Langreth, Phys. Rev. B 76, 125112 (2007).
     *
     *   G. Roman-Perez and J. M. Soler, Phys. Rev. Lett. 103, 096102 (2009).
     *
     *
     * If you are using vdW-DF2, please also cite:
     *
     *   K. Lee, E. D. Murray, L. Kong, B. I. Lundqvist, and
     *   D. C. Langreth, Phys. Rev. B 82, 081101(R) (2010).
     *
     *
     * If you are calculating the stress with vdW-DF, please also cite:
     *
     *   R. Sabatini, E. Kucukbenli, B. Kolb, T. Thonhauser, and
     *   S. de Gironcoli, J. Phys.: Condens. Matter 24, 424209 (2012).
     *

     Carrying out vdW-DF run using the following parameters:

     Nqs =      20    Nr_points =    1024   r_max =   100.000
     q_mesh =
               0.00001000     0.04494208     0.09755937     0.15916263
               0.23128650     0.31572767     0.41458969     0.53033537
               0.66584808     0.82450364     1.01025438     1.22772762
               1.48234092     1.78043706     2.12944203     2.53805004
               3.01644009     3.57652955     4.23227104     5.00000000

     Gradients computed in reciprocal space

     Adding external electric field

     Computed dipole along edir(3) :
        Dipole               -0.2168 Ry au,         -0.5510 Debye
        Dipole field         -0.0006 Ry au

        Potential amp.        0.0540 Ry
        Total length         45.3309 bohr

     Starting wfc are  145 randomized atomic wfcs

     Self-consistent Calculation

     iteration #  1     ecut=    36.75 Ry     beta=0.30
     Davidson diagonalization with overlap
     ethr =  1.00E-02,  avg # of iterations =  3.1

[...]

     total energy              =   -2392.25216897 Ry
     Harris-Foulkes estimate   =   -2402.51488240 Ry
     estimated scf accuracy    <      23.18757357 Ry

[...]

     End of self-consistent calculation

          k = 0.0000 0.0000 0.0000 ( 17231 PWs)   bands (ev):

   -49.1239 -49.1136 -49.1054 -49.0984 -49.0360 -49.0117 -49.0006 -48.9753
   -48.9530 -48.9397 -48.9377 -48.9297 -48.9196 -48.9064 -48.8673 -48.8640
   -48.8507 -48.8500 -48.8488 -48.7725 -48.7609 -48.7197 -48.7124 -48.6929
   -48.6899 -48.6835 -48.6819 -48.6556 -48.6301 -48.6298 -48.5664 -48.5478
   -48.5434 -48.5310 -48.5176 -48.5112  -5.0902  -4.3161  -3.6375  -3.6258
    -3.5984  -3.5971  -3.4970  -3.4241  -3.4178  -3.3288  -3.2470  -3.2367
    -3.1252  -3.0778  -3.0481  -2.6213  -2.1434  -2.1208  -1.8925  -1.8402
    -1.8359  -1.7045  -1.6258  -1.6226  -1.5400  -1.4687  -1.4209  -1.3368
    -1.3231  -1.3060  -1.3043  -1.3028  -0.8338  -0.7394  -0.6563  -0.5511
    -0.3742  -0.3183  -0.2797  -0.2651  -0.2495  -0.0771  -0.0585   0.0932
     0.1253   0.2511   0.4760   0.5010   0.5160   0.5321   0.5757   0.5947
     0.6000   0.6277   0.7680   0.7827   0.7844   0.8903   0.9236   0.9514
     1.0065   1.0077   1.0091   1.7872   2.7993   3.0806   3.1069   3.8284
     4.3126   4.3560

[...]

          k =-0.0887 0.0512 0.0000 ( 17240 PWs)   bands (ev):

[...]

     the Fermi energy is     0.7849 ev

!    total energy              =   -2398.58987482 Ry
     Harris-Foulkes estimate   =   -2398.58987460 Ry
     estimated scf accuracy    <       0.00000162 Ry

     The total energy is the sum of the following terms:

     one-electron contribution =  -20205.74829030 Ry
     hartree contribution      =   10151.45153931 Ry
     xc contribution           =    -390.81563120 Ry
     ewald contribution        =    8046.64095538 Ry
     electric field correction =       0.00001331 Ry
     smearing contrib. (-TS)   =      -0.11846132 Ry

     convergence has been achieved in  18 iterations

 BEEF-vdW xc energy contributions
           1 :   -340.281583374762
           2 :    310.931617757652
           3 :   -260.867908776296
           4 :    203.585943939607
           5 :   -152.158652598191
           6 :    114.893816413415
           7 :   -93.5250000974931
           8 :    84.2413510637213
           9 :   -80.6641475699760
          10 :    77.1607355148275
          11 :   -70.9975557869784
          12 :    62.6090457449271
          13 :   -54.2856275397665
          14 :    48.2834636979487
          15 :   -45.4505607752841
          16 :    44.9627461518722
          17 :   -45.0656085267351
          18 :    44.2034476148480
          19 :   -41.8295166254329
          20 :    38.4950514163486
          21 :   -35.2995539706333
          22 :    33.1283592353493
          23 :   -32.1537851799852
          24 :    31.8427187479505
          25 :   -31.3867814569880
          26 :    30.2352642258985
          27 :   -28.3969453493880
          28 :    26.3559861365941
          29 :   -24.7016564766728
          30 :    23.7341503703598
          31 :   -33.1226522691459
          32 :   -24.4581688631608

     Forces acting on atoms (Ry/au):

     negative rho (up, down):  9.414E-01 0.000E+00
     atom    1 type  1   force =     0.00000253   -0.00010139   -0.00114378
     atom    2 type  1   force =    -0.00000282    0.00025379   -0.00004024
     atom    3 type  1   force =     0.00115230   -0.00035383   -0.00213070
     atom    4 type  1   force =    -0.00115188   -0.00035069   -0.00213481
     atom    5 type  1   force =    -0.00082799   -0.00001804   -0.00206075
     atom    6 type  1   force =     0.00082857   -0.00001733   -0.00206398
     atom    7 type  1   force =     0.00000285    0.00144461    0.00552265
     atom    8 type  1   force =    -0.00000277    0.00066914   -0.00163106
     atom    9 type  1   force =     0.01377381   -0.00241495    0.02388158
     atom   10 type  1   force =    -0.01377405   -0.00241283    0.02388051
     atom   11 type  1   force =     0.00000286    0.00242507   -0.00070172
     atom   12 type  1   force =    -0.00000275   -0.00052734    0.00235377
     atom   13 type  2   force =    -0.00000067    0.00140381   -0.04373147

     Total force =     0.058807     Total SCF correction =     0.003009

     entering subroutine stress ...

     negative rho (up, down):  9.414E-01 0.000E+00
          total   stress  (Ry/bohr**3)                   (kbar)     P=  -10.58
  -0.00010370   0.00000000   0.00000000        -15.26      0.00      0.00
   0.00000000  -0.00008500  -0.00000018          0.00    -12.50     -0.03
   0.00000000  -0.00000018  -0.00002711          0.00     -0.03     -3.99

     BFGS Geometry Optimization

     number of scf cycles    =   1
     number of bfgs steps    =   0

     energy   new            =   -2398.5898748193 Ry

     new trust radius        =       0.0437539956 bohr
     new conv_thr            =       0.0000099958 Ry

ATOMIC_POSITIONS (crystal)
Pd1      0.166666667   0.166666667   0.406452311    0   0   0
Pd1      0.666666667   0.166666667   0.406452311    0   0   0
Pd1      0.166666667   0.666666667   0.406452311    0   0   0
Pd1      0.666666667   0.666666667   0.406452311    0   0   0
Pd1      0.833333333   0.333333333   0.500000000    0   0   0
Pd1      0.333333333   0.333333333   0.500000000    0   0   0
Pd1      0.833333333   0.833333333   0.500000000    0   0   0
Pd1      0.333333333   0.833333333   0.500000000    0   0   0
Pd1      0.001423747  -0.000261745   0.594061347
Pd1      0.498837862  -0.000261516   0.594061324
Pd1     -0.000131152   0.500262842   0.593532596
Pd1      0.500028320   0.499942844   0.593598315
H1       0.249923861   0.000152152   0.644429759

     Writing output data file calc.save
     Check: negative starting charge=   -0.904219
     NEW-OLD atomic charge density approx. for the potential
     Check: negative starting charge=   -0.904108

[...]

     energy   old            =   -2398.5898748193 Ry
     energy   new            =   -2398.5930506053 Ry

     CASE: energy  _new < energy  _old

     WARNING: bfgs curvature condition failed, Theta= 0.953
     new trust radius        =       0.0481293952 bohr
     new conv_thr            =       0.0000001000 Ry

[...]

     Total force =     0.008971     Total SCF correction =     0.001196
     SCF correction compared to forces is large: reduce conv_thr to get better values

[...]

     Total force =     0.006186     Total SCF correction =     0.000265

[...]

     number of scf cycles    =  12
     number of bfgs steps    =  11

     energy   old            =   -2398.6023787687 Ry
     energy   new            =   -2398.6025422419 Ry

     CASE: energy  _new < energy  _old

     new trust radius        =       0.0188440847 bohr
     new conv_thr            =       0.0000001000 Ry

ATOMIC_POSITIONS (crystal)
Pd1      0.166666667   0.166666667   0.406452311    0   0   0
Pd1      0.666666667   0.166666667   0.406452311    0   0   0
Pd1      0.166666667   0.666666667   0.406452311    0   0   0
Pd1      0.666666667   0.666666667   0.406452311    0   0   0
Pd1      0.833333333   0.333333333   0.500000000    0   0   0
Pd1      0.333333333   0.333333333   0.500000000    0   0   0
Pd1      0.833333333   0.833333333   0.500000000    0   0   0
Pd1      0.333333333   0.833333333   0.500000000    0   0   0
Pd1     -0.002215665  -0.002227775   0.594718733
Pd1      0.504444991  -0.002229628   0.594718685
Pd1      0.001100893   0.497795662   0.593132661
Pd1      0.500668237   0.498666408   0.594004085
H1       0.247080761   0.005840489   0.634514825

     Writing output data file calc.save
     Check: negative starting charge=   -0.905648
     NEW-OLD atomic charge density approx. for the potential
     Check: negative starting charge=   -0.905556

[...]

     Self-consistent Calculation

[...]

     total energy              =   -2398.60259257 Ry
     Harris-Foulkes estimate   =   -2398.60259259 Ry
     estimated scf accuracy    <       0.00000022 Ry

     iteration # 10     ecut=    36.75 Ry     beta=0.30
     Davidson diagonalization with overlap
     ethr =  6.53E-11,  avg # of iterations =  1.2

[...]

     negative rho (up, down):  9.432E-01 0.000E+00

     Adding external electric field

     Computed dipole along edir(3) :
        Dipole               -0.0420 Ry au,         -0.1067 Debye
        Dipole field         -0.0001 Ry au

        Potential amp.        0.0105 Ry
        Total length         45.3309 bohr

     End of self-consistent calculation

[...]

          k = 0.0591-0.0683 0.0000 ( 17183 PWs)   bands (ev):

[...]

          k =-0.0887-0.0512 0.0000 ( 17240 PWs)   bands (ev):

   -49.0767 -49.0568 -49.0223 -49.0151 -48.9648 -48.9602 -48.9520 -48.9468
   -48.9436 -48.9363 -48.9231 -48.9092 -48.8799 -48.8789 -48.8535 -48.8476
   -48.7813 -48.7793 -48.7326 -48.7205 -48.7146 -48.7116 -48.7026 -48.6991
   -48.6937 -48.6871 -48.6841 -48.6561 -48.6288 -48.6258 -48.5430 -48.5128
   -48.5042 -48.4989 -48.4840 -48.4834  -4.6377  -3.5353  -3.4726  -3.0015
    -2.9771  -2.9024  -2.8681  -2.7753  -2.7347  -2.6638  -2.6222  -2.5368
    -2.5313  -2.4233  -2.3954  -2.2873  -2.2608  -1.9759  -1.9513  -1.9305
    -1.8937  -1.8696  -1.8367  -1.6479  -1.6039  -1.3850  -1.3813  -1.3314
    -1.2526  -1.2092  -1.2023  -1.0906  -1.0550  -1.0206  -1.0062  -0.9883
    -0.9769  -0.9560  -0.9133  -0.8716  -0.6285  -0.6092  -0.5676  -0.5112
    -0.4495  -0.4374  -0.3291  -0.3012  -0.2823  -0.2499  -0.1850  -0.1690
     0.0865   0.1119   0.1518   0.1612   0.4639   0.5582   0.5958   0.6445
     0.6600   0.6986   0.8521   0.8627   2.5001   3.0338   3.2901   3.3285
     4.0196   4.3193

     the Fermi energy is     0.8163 ev

!    total energy              =   -2398.60259257 Ry
     Harris-Foulkes estimate   =   -2398.60259242 Ry
     estimated scf accuracy    <       0.00000003 Ry

     The total energy is the sum of the following terms:

     one-electron contribution =  -20181.59631912 Ry
     hartree contribution      =   10139.53092648 Ry
     xc contribution           =    -390.88054077 Ry
     ewald contribution        =    8034.45991543 Ry
     electric field correction =       0.00000485 Ry
     smearing contrib. (-TS)   =      -0.11657944 Ry

     convergence has been achieved in  10 iterations

 BEEF-vdW xc energy contributions
           1 :   -340.345958155806
           2 :    311.002339457799
           3 :   -260.942094509203
           4 :    203.650706782482
           5 :   -152.196317549423
           6 :    114.889902078897
           7 :   -93.4768084880412
           8 :    84.1618535821437
           9 :   -80.5781834255561
          10 :    77.0951839664365
          11 :   -70.9700143661073
          12 :    62.6206358393791
          13 :   -54.3216173311882
          14 :    48.3210070962864
          15 :   -45.4696978034933
          16 :    44.9557297006744
          17 :   -45.0400319068233
          18 :    44.1776895617450
          19 :   -41.8230677970695
          20 :    38.5179492911399
          21 :   -35.3457862789230
          22 :    33.1775169513314
          23 :   -32.1810301260622
          24 :    31.8321061902873
          25 :   -31.3402969946263
          26 :    30.1723683329728
          27 :   -28.3448050217396
          28 :    26.3353517970659
          29 :   -24.7160070929261
          30 :    23.7679868219950
          31 :   -33.1269094166609
          32 :   -24.4628070398888

     Forces acting on atoms (Ry/au):

     negative rho (up, down):  9.432E-01 0.000E+00
     atom    1 type  1   force =    -0.00000002   -0.00011191   -0.00090737
     atom    2 type  1   force =     0.00000002    0.00042042    0.00008774
     atom    3 type  1   force =     0.00137974   -0.00040062   -0.00192548
     atom    4 type  1   force =    -0.00137971   -0.00040061   -0.00192551
     atom    5 type  1   force =    -0.00123619   -0.00130760   -0.00050080
     atom    6 type  1   force =     0.00123617   -0.00130732   -0.00049950
     atom    7 type  1   force =     0.00000031    0.00077572    0.00313180
     atom    8 type  1   force =    -0.00000015    0.00143828    0.00229745
     atom    9 type  1   force =     0.00150329   -0.00074999    0.00033354
     atom   10 type  1   force =    -0.00150313   -0.00074619    0.00033336
     atom   11 type  1   force =     0.00000347    0.00152094    0.00054115
     atom   12 type  1   force =    -0.00000323   -0.00091861   -0.00023355
     atom   13 type  2   force =    -0.00000057    0.00178749   -0.00073282

     Total force =     0.003619     Total SCF correction =     0.000504
     SCF correction compared to forces is large: reduce conv_thr to get better values

     entering subroutine stress ...

     negative rho (up, down):  9.432E-01 0.000E+00
          total   stress  (Ry/bohr**3)                   (kbar)     P=   -8.97
  -0.00008209  -0.00000000  -0.00000000        -12.08     -0.00     -0.00
  -0.00000000  -0.00008864   0.00000200         -0.00    -13.04      0.29
  -0.00000000   0.00000200  -0.00001226         -0.00      0.29     -1.80

     bfgs converged in  13 scf cycles and  12 bfgs steps
     (criteria: energy <  1.0E+00, force <  1.9E-03)

     End of BFGS Geometry Optimization

     Final energy   =   -2398.6025925702 Ry
Begin final coordinates

ATOMIC_POSITIONS (crystal)
Pd1      0.166666667   0.166666667   0.406452311    0   0   0
Pd1      0.666666667   0.166666667   0.406452311    0   0   0
Pd1      0.166666667   0.666666667   0.406452311    0   0   0
Pd1      0.666666667   0.666666667   0.406452311    0   0   0
Pd1      0.833333333   0.333333333   0.500000000    0   0   0
Pd1      0.333333333   0.333333333   0.500000000    0   0   0
Pd1      0.833333333   0.833333333   0.500000000    0   0   0
Pd1      0.333333333   0.833333333   0.500000000    0   0   0
Pd1     -0.002215665  -0.002227775   0.594718733
Pd1      0.504444991  -0.002229628   0.594718685
Pd1      0.001100893   0.497795662   0.593132661
Pd1      0.500668237   0.498666408   0.594004085
H1       0.247080761   0.005840489   0.634514825
End final coordinates

     Writing output data file calc.save

     General routines

     Parallel routines

   This run was terminated on:   9: 7:37   3May2018

   JOB DONE.
Job  /afs/slac/g/suncat/bin/suncat-tsmpirun -x LD_LIBRARY_PATH -wdir /scratch/qe678037_wcLuc pw.x -npool 4 -in pw.inp

TID   HOST_NAME   COMMAND_LINE            STATUS            TERMINATION_TIME
00000 suncat0043 pw.x -npool 4 -i  Done                     05/03/2018 09:07:37
00001 suncat0043 pw.x -npool 4 -i  Done                     05/03/2018 09:07:37
00002 suncat0043 pw.x -npool 4 -i  Done                     05/03/2018 09:07:37
00003 suncat0043 pw.x -npool 4 -i  Done                     05/03/2018 09:07:37
00004 suncat0043 pw.x -npool 4 -i  Done                     05/03/2018 09:07:37
00005 suncat0043 pw.x -npool 4 -i  Done                     05/03/2018 09:07:37
00006 suncat0043 pw.x -npool 4 -i  Done                     05/03/2018 09:07:37
00007 suncat0043 pw.x -npool 4 -i  Done                     05/03/2018 09:07:37
00008 suncat0038 pw.x -npool 4 -i  Done                     05/03/2018 09:07:37
00009 suncat0038 pw.x -npool 4 -i  Done                     05/03/2018 09:07:37
00010 suncat0038 pw.x -npool 4 -i  Done                     05/03/2018 09:07:37
00011 suncat0038 pw.x -npool 4 -i  Done                     05/03/2018 09:07:37
00012 suncat0038 pw.x -npool 4 -i  Done                     05/03/2018 09:07:37
00013 suncat0038 pw.x -npool 4 -i  Done                     05/03/2018 09:07:37
00014 suncat0038 pw.x -npool 4 -i  Done                     05/03/2018 09:07:37
00015 suncat0038 pw.x -npool 4 -i  Done                     05/03/2018 09:07:37
00016 suncat0184 pw.x -npool 4 -i  Done                     05/03/2018 09:07:37
00017 suncat0184 pw.x -npool 4 -i  Done                     05/03/2018 09:07:37
00018 suncat0184 pw.x -npool 4 -i  Done                     05/03/2018 09:07:37
00019 suncat0184 pw.x -npool 4 -i  Done                     05/03/2018 09:07:37
00020 suncat0184 pw.x -npool 4 -i  Done                     05/03/2018 09:07:37
00021 suncat0184 pw.x -npool 4 -i  Done                     05/03/2018 09:07:37
00022 suncat0184 pw.x -npool 4 -i  Done                     05/03/2018 09:07:37
00023 suncat0184 pw.x -npool 4 -i  Done                     05/03/2018 09:07:37
00024 suncat0171 pw.x -npool 4 -i  Done                     05/03/2018 09:07:37
00025 suncat0171 pw.x -npool 4 -i  Done                     05/03/2018 09:07:37
00026 suncat0171 pw.x -npool 4 -i  Done                     05/03/2018 09:07:37
00027 suncat0171 pw.x -npool 4 -i  Done                     05/03/2018 09:07:37
00028 suncat0171 pw.x -npool 4 -i  Done                     05/03/2018 09:07:37
00029 suncat0171 pw.x -npool 4 -i  Done                     05/03/2018 09:07:37
00030 suncat0171 pw.x -npool 4 -i  Done                     05/03/2018 09:07:37
00031 suncat0171 pw.x -npool 4 -i  Done                     05/03/2018 09:07:37