     Program PWSCF v.5.1rc2 (svn rev. 11289) starts on  3May2018 at  7:26:45

     Current dimensions of program PWSCF are:
     Max number of different atomic species (ntypx) = 10
     Max number of k-points (npk) =  40000
     Max angular momentum in pseudopotentials (lmaxx) =  3
     Presently stress not available with electric field

     IMPORTANT: XC functional enforced from input :
     Exchange-correlation      = BEEF-VDW ( 1  4 27 13 2)
     Any further DFT definition will be discarded
     Please, verify this is what you really want

     Subspace diagonalization in iterative solution of the eigenvalue problem:
     a serial algorithm will be used

     bravais-lattice index     =            0
     lattice parameter (alat)  =       1.8897  a.u.
     unit-cell volume          =    5185.0501 (a.u.)^3
     number of atoms/cell      =           13
     number of atomic types    =            2
     number of electrons       =       162.00
     number of Kohn-Sham states=           91
     kinetic-energy cutoff     =      36.7493  Ry
     charge density cutoff     =     367.4932  Ry
     convergence threshold     =      1.0E-05
     mixing beta               =       0.3000
     number of iterations used =           10  plain     mixing
     Exchange-correlation      = BEEF-VDW ( 1  4 27 13 2)
     nstep                     =           50

     celldm(1)=   1.889726  celldm(2)=   0.000000  celldm(3)=   0.000000
     celldm(4)=   0.000000  celldm(5)=   0.000000  celldm(6)=   0.000000

     crystal axes: (cart. coord. in units of alat)
               a(1) = (   5.972022   0.000000   0.000000 )
               a(2) = (   2.986011   5.171923   0.000000 )
               a(3) = (   0.000000   0.000000  24.876136 )

     reciprocal axes: (cart. coord. in units 2 pi/alat)
               b(1) = (  0.167447 -0.096676  0.000000 )
               b(2) = (  0.000000  0.193352  0.000000 )
               b(3) = (  0.000000  0.000000  0.040199 )

     PseudoPot. # 1 for Ta read from file:
     /u/if/mamunm/psp/gbrv1.5pbe/Ta.UPF
     MD5 check sum: f8bbe9446314a3b8ea5d9f3e3836c939
     Pseudo is Ultrasoft + core correction, Zval = 13.0
     Generated by new atomic code, or converted to UPF format
     Using radial grid of  921 points,  7 beta functions with:
                l(1) =   0
                l(2) =   0
                l(3) =   1
                l(4) =   1
                l(5) =   2
                l(6) =   2
                l(7) =   3
     Q(r) pseudized with  6 coefficients,  rinner =    1.300   1.300   1.300
                                                       1.300   1.300   1.300
                                                       1.300

     PseudoPot. # 2 for S  read from file:
     /u/if/mamunm/psp/gbrv1.5pbe/S.UPF
     MD5 check sum: 88d86576ff6df21479756cfb9bdac1df
     Pseudo is Ultrasoft + core correction, Zval =  6.0
     Generated by new atomic code, or converted to UPF format
     Using radial grid of  907 points,  6 beta functions with:
                l(1) =   0
                l(2) =   0
                l(3) =   1
                l(4) =   1
                l(5) =   2
                l(6) =   2
     Q(r) pseudized with  8 coefficients,  rinner =    1.300   1.300   1.300
                                                       1.300   1.300

     vdW kernel table read from file vdW_kernel_table
     MD5 check sum: 095c7af220d748ca6e76c0b4c6cfb241

     atomic species   valence    mass     pseudopotential
        Ta1           13.00   180.94788     Ta( 1.00)
        S1             6.00    32.06000     S ( 1.00)

     No symmetry found

   Cartesian axes

     site n.     atom                  positions (alat units)
         1           Ta1 tau(   1) = (   1.4930055   0.8619871  10.0000000  )
         2           Ta1 tau(   2) = (   4.4790165   0.8619871  10.0000000  )
         3           Ta1 tau(   3) = (   2.9860110   3.4479485  10.0000000  )
         4           Ta1 tau(   4) = (   5.9720221   3.4479485  10.0000000  )
         5           Ta1 tau(   5) = (   5.9720221   1.7239743  12.4380678  )
         6           Ta1 tau(   6) = (   2.9860110   1.7239743  12.4380678  )
         7           Ta1 tau(   7) = (   7.4650276   4.3099357  12.4380678  )
         8           Ta1 tau(   8) = (   4.4790165   4.3099357  12.4380678  )
         9           Ta1 tau(   9) = (   0.0000000   0.0000000  14.8761356  )
        10           Ta1 tau(  10) = (   2.9860110   0.0000000  14.8761356  )
        11           Ta1 tau(  11) = (   1.4930055   2.5859614  14.8761356  )
        12           Ta1 tau(  12) = (   4.4790165   2.5859614  14.8761356  )
        13           S1  tau(  13) = (   1.4930055   0.8619871  16.6636356  )

     number of k points=    20  Fermi-Dirac smearing, width (Ry)=  0.0110
                       cart. coord. in units 2pi/alat
        k(    1) = (   0.0000000   0.0000000   0.0000000), wk =   0.0555556
        k(    2) = (   0.0000000   0.0322253   0.0000000), wk =   0.1111111
        k(    3) = (   0.0000000   0.0644506   0.0000000), wk =   0.1111111
        k(    4) = (   0.0000000  -0.0966758   0.0000000), wk =   0.0555556
        k(    5) = (   0.0279079  -0.0161126   0.0000000), wk =   0.1111111
        k(    6) = (   0.0279079   0.0161126   0.0000000), wk =   0.1111111
        k(    7) = (   0.0279079   0.0483379   0.0000000), wk =   0.1111111
        k(    8) = (   0.0279079  -0.1127885   0.0000000), wk =   0.1111111
        k(    9) = (   0.0279079  -0.0805632   0.0000000), wk =   0.1111111
        k(   10) = (   0.0279079  -0.0483379   0.0000000), wk =   0.1111111
        k(   11) = (   0.0558158  -0.0322253   0.0000000), wk =   0.1111111
        k(   12) = (   0.0558158   0.0000000   0.0000000), wk =   0.1111111
        k(   13) = (   0.0558158   0.0322253   0.0000000), wk =   0.1111111
        k(   14) = (   0.0558158  -0.1289011   0.0000000), wk =   0.1111111
        k(   15) = (   0.0558158  -0.0966758   0.0000000), wk =   0.1111111
        k(   16) = (   0.0558158  -0.0644506   0.0000000), wk =   0.1111111
        k(   17) = (  -0.0837237   0.0483379   0.0000000), wk =   0.0555556
        k(   18) = (  -0.0837237   0.0805632   0.0000000), wk =   0.1111111
        k(   19) = (  -0.0837237   0.1127885   0.0000000), wk =   0.1111111
        k(   20) = (  -0.0837237  -0.0483379   0.0000000), wk =   0.0555556

     Largest allocated arrays     est. size (Mb)     dimensions
     Largest temporary arrays     est. size (Mb)     dimensions

     Initial potential from superposition of free atoms
     Check: negative starting charge=   -1.121420

     starting charge  161.98662, renormalised to  162.00000

     negative rho (up, down):  1.122E+00 0.000E+00

     *
     * You are using vdW-DF for exchange-correlation in this calculation.
     * Please cite the following three references that made this development
     * possible:
     *
     *   M. Dion, H. Rydberg, E. Schroder, D. C. Langreth, and
     *   B. I. Lundqvist, Phys. Rev. Lett. 92, 246401 (2004).
     *
     *   T. Thonhauser, V. R. Cooper, S. Li, A. Puzder, P. Hyldgaard, and
     *   D. C. Langreth, Phys. Rev. B 76, 125112 (2007).
     *
     *   G. Roman-Perez and J. M. Soler, Phys. Rev. Lett. 103, 096102 (2009).
     *
     *
     * If you are using vdW-DF2, please also cite:
     *
     *   K. Lee, E. D. Murray, L. Kong, B. I. Lundqvist, and
     *   D. C. Langreth, Phys. Rev. B 82, 081101(R) (2010).
     *
     *
     * If you are calculating the stress with vdW-DF, please also cite:
     *
     *   R. Sabatini, E. Kucukbenli, B. Kolb, T. Thonhauser, and
     *   S. de Gironcoli, J. Phys.: Condens. Matter 24, 424209 (2012).
     *

     Carrying out vdW-DF run using the following parameters:

     Nqs =      20    Nr_points =    1024   r_max =   100.000
     q_mesh =
               0.00001000     0.04494208     0.09755937     0.15916263
               0.23128650     0.31572767     0.41458969     0.53033537
               0.66584808     0.82450364     1.01025438     1.22772762
               1.48234092     1.78043706     2.12944203     2.53805004
               3.01644009     3.57652955     4.23227104     5.00000000

     Gradients computed in reciprocal space

     Adding external electric field

     Computed dipole along edir(3) :
        Dipole               -0.0037 Ry au,         -0.0093 Debye
        Dipole field         -0.0000 Ry au

        Potential amp.        0.0008 Ry
        Total length         45.8339 bohr

     Starting wfc are  160 randomized atomic wfcs

     Self-consistent Calculation

     iteration #  1     ecut=    36.75 Ry     beta=0.30
     Davidson diagonalization with overlap
     ethr =  1.00E-02,  avg # of iterations =  2.0

[...]

     total energy              =   -1741.04186120 Ry
     Harris-Foulkes estimate   =   -1743.26399624 Ry
     estimated scf accuracy    <       4.77871150 Ry

[...]

     End of self-consistent calculation

          k = 0.0000 0.0000 0.0000 ( 19447 PWs)   bands (ev):

   -66.2679 -66.1727 -66.1199 -66.1151 -66.1151 -66.1113 -66.0782 -66.0782
   -66.0655 -66.0236 -66.0236 -65.9973 -32.9157 -32.9113 -32.9113 -32.8776
   -32.8565 -32.8436 -32.8436 -32.8111 -32.8111 -32.8030 -32.6451 -32.5428
   -32.4917 -32.4916 -32.4466 -32.4289 -32.4289 -32.3245 -32.3245 -32.2977
   -32.2618 -32.2618 -32.2343 -32.2253 -32.2253 -32.2226 -32.1711 -32.1487
   -32.1487 -32.1408 -32.1046 -32.1046 -32.0742 -32.0742 -32.0008 -32.0008
   -10.9984  -5.2592  -3.7078  -2.7644  -2.3883  -2.3883  -2.2518  -1.9277
    -1.9277  -1.8477  -1.4937  -1.4074  -1.4074  -0.9051  -0.8623  -0.8623
    -0.4884  -0.4884  -0.2015   0.5841   0.5841   1.1593   1.4896   1.6574
     1.6574   1.7540   2.0418   2.0967   2.1835   2.1835   2.2803   2.5115
     2.5115   2.7984   2.7984   2.8501   2.8833   2.8894   2.8894   2.9611
     2.9611   3.2190   3.2190

[...]

          k =-0.0837 0.0483 0.0000 ( 19532 PWs)   bands (ev):

[...]

     the Fermi energy is     2.1497 ev

!    total energy              =   -1742.91328105 Ry
     Harris-Foulkes estimate   =   -1742.91328101 Ry
     estimated scf accuracy    <       0.00000590 Ry

     The total energy is the sum of the following terms:

     one-electron contribution =  -11718.28717943 Ry
     hartree contribution      =    5844.22408296 Ry
     xc contribution           =    -531.66192451 Ry
     ewald contribution        =    4662.91410923 Ry
     electric field correction =       0.00000836 Ry
     smearing contrib. (-TS)   =      -0.10237767 Ry

     convergence has been achieved in  13 iterations

 BEEF-vdW xc energy contributions
           1 :   -467.863321099140
           2 :    431.667905073038
           3 :   -368.481670273487
           4 :    292.920516151775
           5 :   -219.664022990623
           6 :    158.956868571210
           7 :   -114.541470377086
           8 :    84.4374338080370
           9 :   -63.6863550986300
          10 :    47.4549384251046
          11 :   -33.0360073311770
          12 :    20.1258459648030
          13 :   -9.75031180985900
          14 :    2.80566121619785
          15 :   0.868315198070832
          16 :   -2.48859947663561
          17 :    3.61184526522163
          18 :   -5.26868294972371
          19 :    7.50309399894036
          20 :   -9.54906352282239
          21 :    10.4716944555620
          22 :   -9.84488253375059
          23 :    8.05587523371713
          24 :   -6.08418679096695
          25 :    4.92801953495297
          26 :   -5.04702360517376
          27 :    6.15045682319487
          28 :   -7.42957394067230
          29 :    8.06339117526949
          30 :   -7.67972652935271
          31 :   -41.9811196853206
          32 :   -31.1337800092120

     Forces acting on atoms (Ry/au):

     negative rho (up, down):  1.177E+00 0.000E+00
     atom    1 type  1   force =    -0.00000432    0.00000150    0.00249324
     atom    2 type  1   force =     0.00000340    0.00182236    0.00452737
     atom    3 type  1   force =     0.00157884   -0.00091121    0.00452638
     atom    4 type  1   force =    -0.00158169   -0.00091610    0.00452258
     atom    5 type  1   force =    -0.00027562    0.00016200    0.00035027
     atom    6 type  1   force =     0.00027754    0.00016444    0.00035324
     atom    7 type  1   force =     0.00000124    0.00000047   -0.00008048
     atom    8 type  1   force =     0.00000069   -0.00032132    0.00035055
     atom    9 type  1   force =    -0.03999495   -0.02308798    0.01210879
     atom   10 type  1   force =     0.03999439   -0.02309577    0.01211427
     atom   11 type  1   force =    -0.00000507    0.04618269    0.01211360
     atom   12 type  1   force =     0.00000519   -0.00000019   -0.03592214
     atom   13 type  2   force =     0.00000035   -0.00000087   -0.01745766

     Total force =     0.091835     Total SCF correction =     0.002573

     entering subroutine stress ...

     negative rho (up, down):  1.177E+00 0.000E+00
          total   stress  (Ry/bohr**3)                   (kbar)     P=  -27.08
  -0.00023237   0.00000000   0.00000000        -34.18      0.00      0.00
   0.00000000  -0.00023239   0.00000001          0.00    -34.19      0.00
   0.00000000   0.00000001  -0.00008747          0.00      0.00    -12.87

     BFGS Geometry Optimization

     number of scf cycles    =   1
     number of bfgs steps    =   0

     energy   new            =   -1742.9132810478 Ry

     new trust radius        =       0.0477464323 bohr
     new conv_thr            =       0.0000099958 Ry

ATOMIC_POSITIONS (crystal)
Ta1      0.166666667   0.166666667   0.401991699    0   0   0
Ta1      0.666666667   0.166666667   0.401991699    0   0   0
Ta1      0.166666667   0.666666667   0.401991699    0   0   0
Ta1      0.666666667   0.666666667   0.401991699    0   0   0
Ta1      0.833333333   0.333333333   0.500000000    0   0   0
Ta1      0.333333333   0.333333333   0.500000000    0   0   0
Ta1      0.833333333   0.833333333   0.500000000    0   0   0
Ta1      0.333333333   0.833333333   0.500000000    0   0   0
Ta1     -0.002362778  -0.002362300   0.598265885
Ta1      0.504725427  -0.002363097   0.598266002
Ta1     -0.002363093   0.504725288   0.598265988
Ta1      0.500000470   0.499999980   0.597244148
S1       0.166666742   0.166666577   0.669492950

     Writing output data file calc.save
     Check: negative starting charge=   -1.121420
     NEW-OLD atomic charge density approx. for the potential
     Check: negative starting charge=   -1.123742

[...]

     energy   old            =   -1742.9132810478 Ry
     energy   new            =   -1742.9207036044 Ry

     CASE: energy  _new < energy  _old

[...]

     Threshold (ethr) on eigenvalues was too large:
     Diagonalizing with lowered threshold

     Davidson diagonalization with overlap
     ethr =  6.00E-08,  avg # of iterations =  1.4

[...]

     Total force =     0.008068     Total SCF correction =     0.000328

[...]

     Total force =     0.002749     Total SCF correction =     0.000317
     SCF correction compared to forces is large: reduce conv_thr to get better values

[...]

     number of scf cycles    =  10
     number of bfgs steps    =   9

     energy   old            =   -1742.9359075831 Ry
     energy   new            =   -1742.9359741410 Ry

     CASE: energy  _new < energy  _old

     new trust radius        =       0.0057592999 bohr
     new conv_thr            =       0.0000001000 Ry

ATOMIC_POSITIONS (crystal)
Ta1      0.166666667   0.166666667   0.401991699    0   0   0
Ta1      0.666666667   0.166666667   0.401991699    0   0   0
Ta1      0.166666667   0.666666667   0.401991699    0   0   0
Ta1      0.666666667   0.666666667   0.401991699    0   0   0
Ta1      0.833333333   0.333333333   0.500000000    0   0   0
Ta1      0.333333333   0.333333333   0.500000000    0   0   0
Ta1      0.833333333   0.833333333   0.500000000    0   0   0
Ta1      0.333333333   0.833333333   0.500000000    0   0   0
Ta1     -0.007638200  -0.007638198   0.599564128
Ta1      0.515276265  -0.007638222   0.599564144
Ta1     -0.007638140   0.515276219   0.599564146
Ta1      0.500000084   0.499999929   0.588585679
S1       0.166666697   0.166666497   0.667236053

     Writing output data file calc.save
     Check: negative starting charge=   -1.123528
     NEW-OLD atomic charge density approx. for the potential
     Check: negative starting charge=   -1.123512

[...]

     Self-consistent Calculation

[...]

     Threshold (ethr) on eigenvalues was too large:
     Diagonalizing with lowered threshold

     Davidson diagonalization with overlap
     ethr =  5.16E-09,  avg # of iterations =  4.5

[...]

     total energy              =   -1742.93598296 Ry
     Harris-Foulkes estimate   =   -1742.93598314 Ry
     estimated scf accuracy    <       0.00000149 Ry

     iteration #  6     ecut=    36.75 Ry     beta=0.30
     Davidson diagonalization with overlap
     ethr =  9.22E-10,  avg # of iterations =  2.2

[...]

     negative rho (up, down):  1.180E+00 0.000E+00

     Adding external electric field

     Computed dipole along edir(3) :
        Dipole               -0.0807 Ry au,         -0.2050 Debye
        Dipole field         -0.0002 Ry au

        Potential amp.        0.0179 Ry
        Total length         45.8339 bohr

     End of self-consistent calculation

[...]

          k = 0.0558-0.0645 0.0000 ( 19521 PWs)   bands (ev):

[...]

          k =-0.0837-0.0483 0.0000 ( 19532 PWs)   bands (ev):

   -66.1776 -66.1776 -66.1485 -66.1485 -66.1356 -66.1085 -66.0941 -66.0646
   -66.0526 -66.0331 -66.0243 -66.0081 -32.8441 -32.8081 -32.7795 -32.7750
   -32.7629 -32.7491 -32.7049 -32.6717 -32.6699 -32.6347 -32.6233 -32.5870
   -32.5492 -32.4930 -32.4871 -32.4576 -32.4494 -32.4322 -32.4290 -32.3913
   -32.3842 -32.3447 -32.3229 -32.3179 -32.3040 -32.2780 -32.2349 -32.2168
   -32.2064 -32.1905 -32.1599 -32.1482 -32.1459 -32.0815 -32.0809 -32.0536
   -10.9822  -3.6663  -3.5047  -2.5752  -2.3134  -2.0026  -1.6529  -1.4699
    -1.1801  -1.1561  -0.9021  -0.8417  -0.7743  -0.4123  -0.0960   0.0992
     0.2151   0.2227   0.3010   0.4208   0.6581   0.8031   0.8348   0.8426
     0.9752   1.0181   1.2065   1.3939   1.4444   1.5039   1.5437   1.5973
     1.7236   1.8428   1.9467   2.2538   2.3663   2.3874   2.5210   2.8303
     2.9318   3.2214   3.4681

     the Fermi energy is     2.1114 ev

!    total energy              =   -1742.93598303 Ry
     Harris-Foulkes estimate   =   -1742.93598301 Ry
     estimated scf accuracy    <       0.00000009 Ry

     The total energy is the sum of the following terms:

     one-electron contribution =  -11777.32988184 Ry
     hartree contribution      =    5873.69727432 Ry
     xc contribution           =    -531.78732195 Ry
     ewald contribution        =    4692.58229534 Ry
     electric field correction =       0.00001576 Ry
     smearing contrib. (-TS)   =      -0.09836467 Ry

     convergence has been achieved in   6 iterations

 BEEF-vdW xc energy contributions
           1 :   -467.989061608905
           2 :    431.817047688267
           3 :   -368.648972256248
           4 :    293.066662817317
           5 :   -219.735711728923
           6 :    158.918120284701
           7 :   -114.397022684669
           8 :    84.2340100014966
           9 :   -63.4911785652260
          10 :    47.3234622050532
          11 :   -32.9856178989975
          12 :    20.1289620367689
          13 :   -9.75056816845387
          14 :    2.74925512112651
          15 :    1.00224504478098
          16 :   -2.67560045795943
          17 :    3.79622611438793
          18 :   -5.39704857065482
          19 :    7.55769455169934
          20 :   -9.55986414237924
          21 :    10.4982616668382
          22 :   -9.93898234044201
          23 :    8.22855129309340
          24 :   -6.29813289288455
          25 :    5.11963132429491
          26 :   -5.16358722574347
          27 :    6.17965796810489
          28 :   -7.40432720628900
          29 :    8.04064423494810
          30 :   -7.70730367888865
          31 :   -41.9893452242109
          32 :   -31.1438471680855

     Forces acting on atoms (Ry/au):

     negative rho (up, down):  1.180E+00 0.000E+00
     atom    1 type  1   force =     0.00000000    0.00000002    0.00514532
     atom    2 type  1   force =    -0.00000001    0.00060718    0.00431725
     atom    3 type  1   force =     0.00052582   -0.00030357    0.00431725
     atom    4 type  1   force =    -0.00052581   -0.00030357    0.00431723
     atom    5 type  1   force =     0.02421608   -0.01398112   -0.00950212
     atom    6 type  1   force =    -0.02421603   -0.01398109   -0.00950202
     atom    7 type  1   force =    -0.00000001    0.00000000    0.00802185
     atom    8 type  1   force =    -0.00000002    0.02796226   -0.00950206
     atom    9 type  1   force =     0.00012932    0.00007461    0.00056810
     atom   10 type  1   force =    -0.00012923    0.00007459    0.00056798
     atom   11 type  1   force =    -0.00000003   -0.00014931    0.00056800
     atom   12 type  1   force =    -0.00000009   -0.00000006    0.00009726
     atom   13 type  2   force =    -0.00000001    0.00000009    0.00058597

     Total force =     0.001178     Total SCF correction =     0.000315
     SCF correction compared to forces is large: reduce conv_thr to get better values

     entering subroutine stress ...

     negative rho (up, down):  1.180E+00 0.000E+00
          total   stress  (Ry/bohr**3)                   (kbar)     P=  -22.36
  -0.00019737   0.00000000  -0.00000000        -29.03      0.00     -0.00
   0.00000000  -0.00019737  -0.00000000          0.00    -29.03     -0.00
  -0.00000000  -0.00000000  -0.00006121         -0.00     -0.00     -9.00

     bfgs converged in  11 scf cycles and  10 bfgs steps
     (criteria: energy <  1.0E+00, force <  1.9E-03)

     End of BFGS Geometry Optimization

     Final energy   =   -1742.9359830320 Ry
Begin final coordinates

ATOMIC_POSITIONS (crystal)
Ta1      0.166666667   0.166666667   0.401991699    0   0   0
Ta1      0.666666667   0.166666667   0.401991699    0   0   0
Ta1      0.166666667   0.666666667   0.401991699    0   0   0
Ta1      0.666666667   0.666666667   0.401991699    0   0   0
Ta1      0.833333333   0.333333333   0.500000000    0   0   0
Ta1      0.333333333   0.333333333   0.500000000    0   0   0
Ta1      0.833333333   0.833333333   0.500000000    0   0   0
Ta1      0.333333333   0.833333333   0.500000000    0   0   0
Ta1     -0.007638200  -0.007638198   0.599564128
Ta1      0.515276265  -0.007638222   0.599564144
Ta1     -0.007638140   0.515276219   0.599564146
Ta1      0.500000084   0.499999929   0.588585679
S1       0.166666697   0.166666497   0.667236053
End final coordinates

     Writing output data file calc.save

     General routines

     Parallel routines

   This run was terminated on:   9: 2:46   3May2018

   JOB DONE.
Job  /afs/slac/g/suncat/bin/suncat-tsmpirun -x LD_LIBRARY_PATH -wdir /scratch/qe664723_xp6Sr pw.x -npool 4 -in pw.inp

TID   HOST_NAME   COMMAND_LINE            STATUS            TERMINATION_TIME
00000 suncat0170 pw.x -npool 4 -i  Done                     05/03/2018 09:02:46
00001 suncat0170 pw.x -npool 4 -i  Done                     05/03/2018 09:02:46
00002 suncat0170 pw.x -npool 4 -i  Done                     05/03/2018 09:02:46
00003 suncat0170 pw.x -npool 4 -i  Done                     05/03/2018 09:02:46
00004 suncat0170 pw.x -npool 4 -i  Done                     05/03/2018 09:02:46
00005 suncat0170 pw.x -npool 4 -i  Done                     05/03/2018 09:02:46
00006 suncat0170 pw.x -npool 4 -i  Done                     05/03/2018 09:02:46
00007 suncat0170 pw.x -npool 4 -i  Done                     05/03/2018 09:02:46
00008 suncat0169 pw.x -npool 4 -i  Done                     05/03/2018 09:02:46
00009 suncat0169 pw.x -npool 4 -i  Done                     05/03/2018 09:02:46
00010 suncat0169 pw.x -npool 4 -i  Done                     05/03/2018 09:02:46
00011 suncat0169 pw.x -npool 4 -i  Done                     05/03/2018 09:02:46
00012 suncat0169 pw.x -npool 4 -i  Done                     05/03/2018 09:02:46
00013 suncat0169 pw.x -npool 4 -i  Done                     05/03/2018 09:02:46
00014 suncat0169 pw.x -npool 4 -i  Done                     05/03/2018 09:02:46
00015 suncat0169 pw.x -npool 4 -i  Done                     05/03/2018 09:02:46
00016 suncat0167 pw.x -npool 4 -i  Done                     05/03/2018 09:02:46
00017 suncat0167 pw.x -npool 4 -i  Done                     05/03/2018 09:02:46
00018 suncat0167 pw.x -npool 4 -i  Done                     05/03/2018 09:02:46
00019 suncat0167 pw.x -npool 4 -i  Done                     05/03/2018 09:02:46
00020 suncat0167 pw.x -npool 4 -i  Done                     05/03/2018 09:02:46
00021 suncat0167 pw.x -npool 4 -i  Done                     05/03/2018 09:02:46
00022 suncat0167 pw.x -npool 4 -i  Done                     05/03/2018 09:02:46
00023 suncat0167 pw.x -npool 4 -i  Done                     05/03/2018 09:02:46
00024 suncat0155 pw.x -npool 4 -i  Done                     05/03/2018 09:02:46
00025 suncat0155 pw.x -npool 4 -i  Done                     05/03/2018 09:02:46
00026 suncat0155 pw.x -npool 4 -i  Done                     05/03/2018 09:02:46
00027 suncat0155 pw.x -npool 4 -i  Done                     05/03/2018 09:02:46
00028 suncat0155 pw.x -npool 4 -i  Done                     05/03/2018 09:02:46
00029 suncat0155 pw.x -npool 4 -i  Done                     05/03/2018 09:02:46
00030 suncat0155 pw.x -npool 4 -i  Done                     05/03/2018 09:02:46
00031 suncat0155 pw.x -npool 4 -i  Done                     05/03/2018 09:02:46