     Program PWSCF v.6.1 starts on  9Jan2019 at 16:24:34

     Current dimensions of program PWSCF are:
     Max number of different atomic species (ntypx) = 10
     Max number of k-points (npk) =  40000
     Max angular momentum in pseudopotentials (lmaxx) =  3

     IMPORTANT: XC functional enforced from input :
     Exchange-correlation      = BEEF-VDW ( 1  4 29 14 2 0)
     Any further DFT definition will be discarded
     Please, verify this is what you really want

     bravais-lattice index     =            0
     lattice parameter (alat)  =       9.4723  a.u.
     unit-cell volume          =    3537.7769 (a.u.)^3
     number of atoms/cell      =           14
     number of atomic types    =            3
     number of electrons       =       211.00
     number of Kohn-Sham states=          115
     kinetic-energy cutoff     =      36.7493  Ry
     charge density cutoff     =     367.4933  Ry
     convergence threshold     =      1.0E-04
     mixing beta               =       0.1000
     number of iterations used =            8  plain     mixing
     Exchange-correlation      = BEEF-VDW ( 1  4 29 14 2 0)
     nstep                     =           50

     celldm(1)=   9.472344  celldm(2)=   0.000000  celldm(3)=   0.000000
     celldm(4)=   0.000000  celldm(5)=   0.000000  celldm(6)=   0.000000

     crystal axes: (cart. coord. in units of alat)
               a(1) = (   1.000000   0.000000   0.000000 )
               a(2) = (   0.500000   0.866025   0.000000 )
               a(3) = (   0.000000   0.000000   4.806483 )

     reciprocal axes: (cart. coord. in units 2 pi/alat)
               b(1) = (  1.000000 -0.577350  0.000000 )
               b(2) = (  0.000000  1.154701  0.000000 )
               b(3) = (  0.000000  0.000000  0.208052 )

     PseudoPot. # 1 for Co read from file:
     /home/users/jrboes/code/decaf-espresso/gbrv15pbe/Co.UPF
     MD5 check sum: 5f91765df6ddd3222702df6e7b74a16d
     Pseudo is Ultrasoft + core correction, Zval = 17.0
     Generated by new atomic code, or converted to UPF format
     Using radial grid of  863 points,  6 beta functions with:
                l(1) =   0
                l(2) =   0
                l(3) =   1
                l(4) =   1
                l(5) =   2
                l(6) =   2
     Q(r) pseudized with  8 coefficients,  rinner =    1.200   1.200   1.200
                                                       1.200   1.200

     PseudoPot. # 2 for O  read from file:
     /home/users/jrboes/code/decaf-espresso/gbrv15pbe/O.UPF
     MD5 check sum: 734c27235a0248c51dbae37a1fbe46ec
     Pseudo is Ultrasoft + core correction, Zval =  6.0
     Generated by new atomic code, or converted to UPF format
     Using radial grid of  737 points,  5 beta functions with:
                l(1) =   0
                l(2) =   0
                l(3) =   1
                l(4) =   1
                l(5) =   2
     Q(r) pseudized with  8 coefficients,  rinner =    0.900   0.900   0.900
                                                       0.900   0.900

     PseudoPot. # 3 for H  read from file:
     /home/users/jrboes/code/decaf-espresso/gbrv15pbe/H.UPF
     MD5 check sum: 761ae9a214b05c3daf00ab9f6b793d6f
     Pseudo is Ultrasoft, Zval =  1.0
     Generated by new atomic code, or converted to UPF format
     Using radial grid of  615 points,  2 beta functions with:
                l(1) =   0
                l(2) =   0
     Q(r) pseudized with  8 coefficients,  rinner =    0.700

     vdW kernel table read from file vdW_kernel_table
     MD5 check sum: 095c7af220d748ca6e76c0b4c6cfb241

     atomic species   valence    mass     pseudopotential
        Co            17.00    58.93319     Co( 1.00)
        O              6.00    15.99900     O ( 1.00)
        H              1.00     1.00800     H ( 1.00)

     Starting magnetic structure
     atomic species   magnetization
        Co           0.118
        O            0.000
        H            0.000

     No symmetry found

   Cartesian axes

     site n.     atom                  positions (alat units)
         1           Co  tau(   1) = (   0.2500000   0.1443376   1.9949931  )
         2           Co  tau(   2) = (   0.7500000   0.1443376   1.9949931  )
         3           Co  tau(   3) = (   0.5000000   0.5773503   1.9949931  )
         4           Co  tau(   4) = (   1.0000000   0.5773503   1.9949931  )
         5           Co  tau(   5) = (   1.0000000   0.2886751   2.4032414  )
         6           Co  tau(   6) = (   0.5000000   0.2886751   2.4032414  )
         7           Co  tau(   7) = (   1.2500000   0.7216878   2.4032414  )
         8           Co  tau(   8) = (   0.7500000   0.7216878   2.4032414  )
         9           Co  tau(   9) = (  -0.0070650  -0.0040622   2.8087252  )
        10           Co  tau(  10) = (   0.5070663  -0.0040702   2.8087339  )
        11           Co  tau(  11) = (   0.2499934   0.4411584   2.8087199  )
        12           Co  tau(  12) = (   0.7500021   0.4329963   2.7874124  )
        13           O   tau(  13) = (   0.2499952   0.1443359   3.0752130  )
        14           H   tau(  14) = (   0.2500010   0.1443346   3.2688014  )

     number of k points=    20  Fermi-Dirac smearing, width (Ry)=  0.0110
                       cart. coord. in units 2pi/alat
        k(    1) = (   0.0000000   0.0000000   0.0000000), wk =   0.0277778
        k(    2) = (   0.0000000   0.1924501   0.0000000), wk =   0.0555556
        k(    3) = (   0.0000000   0.3849002   0.0000000), wk =   0.0555556
        k(    4) = (   0.0000000  -0.5773503   0.0000000), wk =   0.0277778
        k(    5) = (   0.1666667  -0.0962250   0.0000000), wk =   0.0555556
        k(    6) = (   0.1666667   0.0962250   0.0000000), wk =   0.0555556
        k(    7) = (   0.1666667   0.2886751   0.0000000), wk =   0.0555556
        k(    8) = (   0.1666667  -0.6735753   0.0000000), wk =   0.0555556
        k(    9) = (   0.1666667  -0.4811252   0.0000000), wk =   0.0555556
        k(   10) = (   0.1666667  -0.2886751   0.0000000), wk =   0.0555556
        k(   11) = (   0.3333333  -0.1924501   0.0000000), wk =   0.0555556
        k(   12) = (   0.3333333  -0.0000000   0.0000000), wk =   0.0555556
        k(   13) = (   0.3333333   0.1924501   0.0000000), wk =   0.0555556
        k(   14) = (   0.3333333  -0.7698004   0.0000000), wk =   0.0555556
        k(   15) = (   0.3333333  -0.5773503   0.0000000), wk =   0.0555556
        k(   16) = (   0.3333333  -0.3849002   0.0000000), wk =   0.0555556
        k(   17) = (  -0.5000000   0.2886751   0.0000000), wk =   0.0277778
        k(   18) = (  -0.5000000   0.4811252   0.0000000), wk =   0.0555556
        k(   19) = (  -0.5000000   0.6735753   0.0000000), wk =   0.0555556
        k(   20) = (  -0.5000000  -0.2886751   0.0000000), wk =   0.0277778

     Check: negative/imaginary core charge=   -0.000007    0.000000

     Initial potential from superposition of free atoms
     Check: negative starting charge=(component1):   -0.000215
     Check: negative starting charge=(component2):   -0.000183

     starting charge  198.99991, renormalised to  211.00000

     negative rho (up, down):  2.281E-04 1.939E-04

     %%%%%%%%%%%%%%%%%%%%%%%%%%%%%%%%%%%%%%%%%%%%%%%%%%%%%%%%%%%%%%%%%%%%%%%%
     %                                                                      %
     % You are using vdW-DF, which was implemented by the Thonhauser group. %
     % Please cite the following two papers that made this development      %
     % possible and the two reviews that describe the various versions:     %
     %                                                                      %
     %   T. Thonhauser et al., PRL 115, 136402 (2015).                      %
     %   T. Thonhauser et al., PRB 76, 125112 (2007).                       %
     %   K. Berland et al., Rep. Prog. Phys. 78, 066501 (2015).             %
     %   D.C. Langreth et al., J. Phys.: Condens. Matter 21, 084203 (2009). %
     %                                                                      %
     %                                                                      %
     % If you are calculating the stress with vdW-DF, please also cite:     %
     %                                                                      %
     %   R. Sabatini et al., J. Phys.: Condens. Matter 24, 424209 (2012).   %
     %                                                                      %
     %%%%%%%%%%%%%%%%%%%%%%%%%%%%%%%%%%%%%%%%%%%%%%%%%%%%%%%%%%%%%%%%%%%%%%%%

     Adding external electric field

     Computed dipole along edir(3) :
        Dipole               -2.8081 Ry au,         -7.1375 Debye
        Dipole field         -0.0100 Ry au,

        Potential amp.        0.8174 Ry
        Total length         40.9758 bohr

[...]

     Starting wfc are  161 randomized atomic wfcs

     Self-consistent Calculation

     iteration #  1     ecut=    36.75 Ry     beta=0.10
     Davidson diagonalization with overlap
     ethr =  1.00E-02,  avg # of iterations =  7.2

[...]

     total energy              =   -3437.39054292 Ry
     Harris-Foulkes estimate   =   -3654.20032364 Ry
     estimated scf accuracy    <    1189.24338123 Ry

     total magnetization       =     9.81 Bohr mag/cell
     absolute magnetization    =    10.48 Bohr mag/cell

     iteration #  2     ecut=    36.75 Ry     beta=0.10
     Davidson diagonalization with overlap
     c_bands:  2 eigenvalues not converged
     ethr =  1.00E-02,  avg # of iterations = 13.8

[...]

     Magnetic moment per site:
     atom:    1    charge:   14.4211    magn:    1.6990    constr:    0.0000
     atom:    2    charge:   14.4195    magn:    1.6820    constr:    0.0000
     atom:    3    charge:   14.4199    magn:    1.6796    constr:    0.0000
     atom:    4    charge:   14.4203    magn:    1.6807    constr:    0.0000
     atom:    5    charge:   14.4330    magn:    1.6938    constr:    0.0000
     atom:    6    charge:   14.4331    magn:    1.6933    constr:    0.0000
     atom:    7    charge:   14.4373    magn:    1.4704    constr:    0.0000
     atom:    8    charge:   14.4331    magn:    1.6931    constr:    0.0000
     atom:    9    charge:   14.4336    magn:    1.6202    constr:    0.0000
     atom:   10    charge:   14.4330    magn:    1.6207    constr:    0.0000
     atom:   11    charge:   14.4336    magn:    1.6208    constr:    0.0000
     atom:   12    charge:   14.4498    magn:    1.7197    constr:    0.0000
     atom:   13    charge:    1.9652    magn:    0.0252    constr:    0.0000
     atom:   14    charge:    0.3977    magn:    0.0009    constr:    0.0000

     End of self-consistent calculation

 ------ SPIN UP ------------

          k = 0.0000 0.0000 0.0000 ( 13257 PWs)   bands (ev):

   -94.6709 -94.6453 -94.6446 -94.5170 -94.4900 -94.4886 -94.4425 -94.4219
   -94.4162 -94.4105 -94.4022 -94.3987 -58.0493 -58.0316 -57.9969 -57.9964
   -57.9755 -57.9368 -57.9362 -57.9113 -57.9101 -57.8608 -57.8207 -57.8201
   -57.7766 -57.7646 -57.7548 -57.7542 -57.7369 -57.7353 -57.7350 -57.7316
   -57.7181 -57.7165 -57.7149 -57.6548 -57.6543 -57.6504 -57.6496 -57.6233
   -57.5950 -57.5935 -57.5915 -57.5785 -57.5601 -57.5595 -57.5355 -57.5353
   -19.4453  -7.9860  -6.0821  -4.1002  -4.1001  -4.0896  -3.2715  -3.1031
    -3.0673  -3.0672  -2.8989  -2.7639  -2.7637  -2.5472  -2.5471  -2.4505
    -2.2960  -2.2955  -2.2576  -1.6239  -1.6233  -1.5348  -1.2120  -1.1722
    -1.1721  -1.0651  -1.0307  -0.9791  -0.9790  -0.8387  -0.8385  -0.8077
    -0.7182  -0.7177  -0.6361  -0.6359  -0.5543  -0.4263  -0.4251   0.0193
     0.0203   0.0237   0.0644   0.0644   0.2274   0.2278   0.2797   0.3705
     0.3707   0.5759   0.5958   0.6303   0.6314   0.7031   0.7034   0.8602
     0.8874   0.8877   0.9420   0.9423   1.0409   1.0894   1.0903   1.1243
     1.1443   1.1505   1.1516

[...]

          k =-0.5000 0.2887 0.0000 ( 13378 PWs)   bands (ev):

[...]

 ------ SPIN DOWN ----------

[...]

     the Fermi energy is     1.8854 ev

!    total energy              =   -3628.11106313 Ry
     Harris-Foulkes estimate   =   -3628.11108175 Ry
     estimated scf accuracy    <       0.00006247 Ry

     The total energy is the sum of the following terms:

     one-electron contribution =  -32331.45732219 Ry
     hartree contribution      =   16180.64663424 Ry
     xc contribution           =    -413.80240958 Ry
     ewald contribution        =   12936.57606267 Ry
     electric field correction =       0.00067348 Ry
     smearing contrib. (-TS)   =      -0.07470177 Ry

[...]

     convergence has been achieved in  33 iterations

[...]

     Forces acting on atoms (cartesian axes, Ry/au):

     atom    1 type  1   force =     0.00000503    0.00001012    0.00885261
     atom    2 type  1   force =     0.00000912   -0.00154293    0.01113064
     atom    3 type  1   force =    -0.00132940    0.00076405    0.01128301
     atom    4 type  1   force =     0.00131935    0.00074845    0.01104475
     atom    5 type  1   force =     0.00207812   -0.00130977   -0.00904045
     atom    6 type  1   force =    -0.00207018   -0.00119501   -0.00898853
     atom    7 type  1   force =     0.00010071    0.00005456   -0.00887850
     atom    8 type  1   force =    -0.00008844    0.00244448   -0.00889576
     atom    9 type  1   force =    -0.00029634   -0.00014888   -0.00225137
     atom   10 type  1   force =     0.00025767   -0.00013823   -0.00220768
     atom   11 type  1   force =    -0.00001529    0.00033034   -0.00222919
     atom   12 type  1   force =    -0.00000843    0.00000504   -0.00089572
     atom   13 type  2   force =     0.00003837   -0.00002253    0.00078204
     atom   14 type  3   force =    -0.00000030    0.00000030    0.00029415

     Total force =     0.004089     Total SCF correction =     0.004191
     SCF correction compared to forces is large: reduce conv_thr to get better values

     BFGS Geometry Optimization

     number of scf cycles    =   1
     number of bfgs steps    =   0

     energy   new            =   -3628.1110631333 Ry

     new trust radius        =       0.0022756606 bohr
     new conv_thr            =       0.0001000000 Ry

ATOMIC_POSITIONS (angstrom)
Co       1.253137179   0.723499088  10.000000000    0   0   0
Co       3.759411536   0.723499088  10.000000000    0   0   0
Co       2.506274358   2.893996350  10.000000000    0   0   0
Co       5.012548715   2.893996350  10.000000000    0   0   0
Co       5.012548715   1.446998175  12.046364444    0   0   0
Co       2.506274357   1.446998175  12.046364444    0   0   0
Co       6.265685894   3.617495438  12.046364444    0   0   0
Co       3.759411536   3.617495438  12.046364444    0   0   0
Co      -0.035570476  -0.020440673  14.077680542
Co       2.541831103  -0.020475391  14.077747170
Co       1.253095758   2.211502740  14.077665725
Co       3.759417529   2.170417643  13.971566545
O        1.253133265   0.723478982  15.415068965
H        1.253141895   0.723484397  16.385181892

     Writing output data file calc.save
     Check: negative starting charge=(component1):   -0.000397
     NEW-OLD atomic charge density approx. for the potential

     Check: negative/imaginary core charge=   -0.000007    0.000000
     Check: negative starting charge=(component1):   -0.000397

[...]

     energy   old            =   -3628.1110631333 Ry
     energy   new            =   -3628.1110509864 Ry

     CASE: energy  _new > energy  _old

     new trust radius        =       0.0006590290 bohr
     new conv_thr            =       0.0001000000 Ry

[...]

     number of scf cycles    =   3
     number of bfgs steps    =   1

     energy   old            =   -3628.1110631333 Ry
     energy   new            =   -3628.1110999188 Ry

     CASE: energy  _new < energy  _old

     WARNING: bfgs curvature condition failed, Theta= 0.176
     new trust radius        =       0.0009885434 bohr
     new conv_thr            =       0.0000010000 Ry

ATOMIC_POSITIONS (angstrom)
Co       1.253137179   0.723499088  10.000000000    0   0   0
Co       3.759411536   0.723499088  10.000000000    0   0   0
Co       2.506274358   2.893996350  10.000000000    0   0   0
Co       5.012548715   2.893996350  10.000000000    0   0   0
Co       5.012548715   1.446998175  12.046364444    0   0   0
Co       2.506274357   1.446998175  12.046364444    0   0   0
Co       6.265685894   3.617495438  12.046364444    0   0   0
Co       3.759411536   3.617495438  12.046364444    0   0   0
Co      -0.035579877  -0.020455636  14.078022885
Co       2.541856384  -0.020496293  14.078079172
Co       1.253100146   2.211518175  14.078003690
Co       3.759422962   2.170418313  13.971647701
O        1.253118161   0.723487534  15.415075257
H        1.253141614   0.723484579  16.385308215

     Writing output data file calc.save
     Check: negative starting charge=(component1):   -0.000397
     NEW-OLD atomic charge density approx. for the potential

     Check: negative/imaginary core charge=   -0.000007    0.000000
     Check: negative starting charge=(component1):   -0.000397

[...]

     Self-consistent Calculation

[...]

     total energy              =   -3628.11111278 Ry
     Harris-Foulkes estimate   =   -3628.11111262 Ry
     estimated scf accuracy    <       0.00000459 Ry

[...]

     iteration # 10     ecut=    36.75 Ry     beta=0.10
     Davidson diagonalization with overlap
     ethr =  2.17E-09,  avg # of iterations =  1.0

[...]

     Adding external electric field

     Computed dipole along edir(3) :
        Dipole                0.4303 Ry au,          1.0937 Debye
        Dipole field          0.0015 Ry au,

        Potential amp.       -0.1253 Ry
        Total length         40.9758 bohr

     Magnetic moment per site:
     atom:    1    charge:   14.4194    magn:    1.7078    constr:    0.0000
     atom:    2    charge:   14.4205    magn:    1.6873    constr:    0.0000
     atom:    3    charge:   14.4203    magn:    1.6874    constr:    0.0000
     atom:    4    charge:   14.4202    magn:    1.6876    constr:    0.0000
     atom:    5    charge:   14.4322    magn:    1.6907    constr:    0.0000
     atom:    6    charge:   14.4323    magn:    1.6907    constr:    0.0000
     atom:    7    charge:   14.4361    magn:    1.4595    constr:    0.0000
     atom:    8    charge:   14.4322    magn:    1.6907    constr:    0.0000
     atom:    9    charge:   14.4329    magn:    1.6286    constr:    0.0000
     atom:   10    charge:   14.4330    magn:    1.6286    constr:    0.0000
     atom:   11    charge:   14.4329    magn:    1.6287    constr:    0.0000
     atom:   12    charge:   14.4509    magn:    1.7232    constr:    0.0000
     atom:   13    charge:    1.9652    magn:    0.0254    constr:    0.0000
     atom:   14    charge:    0.3980    magn:    0.0009    constr:    0.0000

     End of self-consistent calculation

 ------ SPIN UP ------------

[...]

 ------ SPIN DOWN ----------

[...]

          k = 0.3333-0.3849 0.0000 ( 13313 PWs)   bands (ev):

[...]

          k =-0.5000-0.2887 0.0000 ( 13378 PWs)   bands (ev):

   -92.3296 -92.2581 -92.2477 -92.2391 -92.2184 -92.2061 -92.1990 -92.0518
   -92.0488 -92.0347 -92.0305 -91.9991 -55.7714 -55.7403 -55.7070 -55.7029
   -55.6639 -55.6473 -55.6376 -55.6358 -55.6267 -55.6196 -55.6177 -55.6149
   -55.6029 -55.5624 -55.5598 -55.5469 -55.5245 -55.5109 -55.4911 -55.4826
   -55.4738 -55.4611 -55.4373 -55.4145 -55.4132 -55.3982 -55.3972 -55.3639
   -55.3574 -55.3498 -55.3465 -55.3403 -55.3326 -55.3276 -55.3268 -55.3216
   -19.3487  -7.7490  -4.6738  -4.3534  -3.7669  -3.7310  -2.5186  -2.3689
    -1.8214  -1.8050  -1.3365  -1.3150  -1.2446  -1.1926  -0.7554  -0.6993
    -0.6206  -0.5935  -0.3730  -0.3638  -0.1101  -0.1010  -0.0543  -0.0281
    -0.0209   0.0582   0.2631   0.3862   0.4086   0.5049   0.5425   0.5461
     0.6253   0.6883   0.7018   0.9615   0.9830   0.9873   1.0026   1.1337
     1.1600   1.2275   1.3450   1.5269   1.6208   1.6626   1.6809   1.7523
     1.8190   1.9079   1.9898   1.9948   2.0580   2.0757   2.1006   2.2102
     2.3120   2.3406   2.4186   2.4257   2.4479   2.7254   2.7554   2.8762
     2.9539   2.9695   2.9710

     the Fermi energy is     1.8706 ev

!    total energy              =   -3628.11111257 Ry
     Harris-Foulkes estimate   =   -3628.11110710 Ry
     estimated scf accuracy    <       0.00000093 Ry

     The total energy is the sum of the following terms:

     one-electron contribution =  -32333.93433909 Ry
     hartree contribution      =   16181.79043306 Ry
     xc contribution           =    -413.79795985 Ry
     ewald contribution        =   12937.90462689 Ry
     electric field correction =       0.00065772 Ry
     smearing contrib. (-TS)   =      -0.07453131 Ry

     total magnetization       =    18.93 Bohr mag/cell
     absolute magnetization    =    22.04 Bohr mag/cell

     convergence has been achieved in  10 iterations

     negative rho (up, down):  6.299E-04 3.417E-04

     Forces acting on atoms (cartesian axes, Ry/au):

     atom    1 type  1   force =    -0.00001155    0.00000011    0.00871594
     atom    2 type  1   force =     0.00000695   -0.00153676    0.01120688
     atom    3 type  1   force =    -0.00133024    0.00077254    0.01120873
     atom    4 type  1   force =     0.00132809    0.00076318    0.01120279
     atom    5 type  1   force =     0.00293399   -0.00163481   -0.01171657
     atom    6 type  1   force =    -0.00293953   -0.00164782   -0.01171610
     atom    7 type  1   force =    -0.00000612   -0.00005798   -0.01180645
     atom    8 type  1   force =     0.00000726    0.00333456   -0.01175761
     atom    9 type  1   force =     0.00033427    0.00015204    0.00000378
     atom   10 type  1   force =    -0.00032216    0.00015524    0.00000520
     atom   11 type  1   force =     0.00000875   -0.00034840   -0.00000124
     atom   12 type  1   force =    -0.00000228    0.00004235    0.00091223
     atom   13 type  2   force =    -0.00000502    0.00000469    0.00190895
     atom   14 type  3   force =    -0.00000240    0.00000106    0.00183347

     Total force =     0.002868     Total SCF correction =     0.001810
     SCF correction compared to forces is large: reduce conv_thr to get better values

     bfgs converged in   4 scf cycles and   2 bfgs steps
     (criteria: energy <  1.0E+12 Ry, force <  1.9E-03 Ry/Bohr)

     End of BFGS Geometry Optimization

     Final energy   =   -3628.1111125732 Ry
Begin final coordinates

ATOMIC_POSITIONS (angstrom)
Co       1.253137179   0.723499088  10.000000000    0   0   0
Co       3.759411536   0.723499088  10.000000000    0   0   0
Co       2.506274358   2.893996350  10.000000000    0   0   0
Co       5.012548715   2.893996350  10.000000000    0   0   0
Co       5.012548715   1.446998175  12.046364444    0   0   0
Co       2.506274357   1.446998175  12.046364444    0   0   0
Co       6.265685894   3.617495438  12.046364444    0   0   0
Co       3.759411536   3.617495438  12.046364444    0   0   0
Co      -0.035579877  -0.020455636  14.078022885
Co       2.541856384  -0.020496293  14.078079172
Co       1.253100146   2.211518175  14.078003690
Co       3.759422962   2.170418313  13.971647701
O        1.253118161   0.723487534  15.415075257
H        1.253141614   0.723484579  16.385308215
End final coordinates

     Writing output data file calc.save

     General routines

     Parallel routines

   This run was terminated on:  16:44: 2   9Jan2019

   JOB DONE.