     Program PWSCF v.5.1rc2 (svn rev. 11289) starts on 16Apr2018 at 13:36: 7

     Current dimensions of program PWSCF are:
     Max number of different atomic species (ntypx) = 10
     Max number of k-points (npk) =  40000
     Max angular momentum in pseudopotentials (lmaxx) =  3
     Presently stress not available with electric field

     IMPORTANT: XC functional enforced from input :
     Exchange-correlation      = BEEF-VDW ( 1  4 27 13 2)
     Any further DFT definition will be discarded
     Please, verify this is what you really want

     Subspace diagonalization in iterative solution of the eigenvalue problem:
     a serial algorithm will be used

     bravais-lattice index     =            0
     lattice parameter (alat)  =       1.8897  a.u.
     unit-cell volume          =    5739.2980 (a.u.)^3
     number of atoms/cell      =           14
     number of atomic types    =            3
     number of electrons       =       150.00
     number of Kohn-Sham states=           85
     kinetic-energy cutoff     =      36.7493  Ry
     charge density cutoff     =     367.4932  Ry
     convergence threshold     =      1.0E-05
     mixing beta               =       0.3000
     number of iterations used =           10  plain     mixing
     Exchange-correlation      = BEEF-VDW ( 1  4 27 13 2)
     nstep                     =           50

     celldm(1)=   1.889726  celldm(2)=   0.000000  celldm(3)=   0.000000
     celldm(4)=   0.000000  celldm(5)=   0.000000  celldm(6)=   0.000000

     crystal axes: (cart. coord. in units of alat)
               a(1) = (   6.254208   0.000000   0.000000 )
               a(2) = (   3.127104   5.416303   0.000000 )
               a(3) = (   0.000000   0.000000  25.106540 )

     reciprocal axes: (cart. coord. in units 2 pi/alat)
               b(1) = (  0.159892 -0.092314  0.000000 )
               b(2) = (  0.000000  0.184628  0.000000 )
               b(3) = (  0.000000  0.000000  0.039830 )

     PseudoPot. # 1 for Cd read from file:
     /u/if/mamunm/psp/gbrv1.5pbe/Cd.UPF
     MD5 check sum: 17164a7926edb8e0dc231208abae86a6
     Pseudo is Ultrasoft + core correction, Zval = 12.0
     Generated by new atomic code, or converted to UPF format
     Using radial grid of  889 points,  6 beta functions with:
                l(1) =   0
                l(2) =   0
                l(3) =   1
                l(4) =   1
                l(5) =   2
                l(6) =   2
     Q(r) pseudized with  6 coefficients,  rinner =    1.000   1.000   1.000
                                                       1.000   1.000

     PseudoPot. # 2 for N  read from file:
     /u/if/mamunm/psp/gbrv1.5pbe/N.UPF
     MD5 check sum: 95339753478d7afb44899504a8723017
     Pseudo is Ultrasoft + core correction, Zval =  5.0
     Generated by new atomic code, or converted to UPF format
     Using radial grid of  729 points,  4 beta functions with:
                l(1) =   0
                l(2) =   0
                l(3) =   1
                l(4) =   1
     Q(r) pseudized with  8 coefficients,  rinner =    0.900   0.900   0.900

     PseudoPot. # 3 for H  read from file:
     /u/if/mamunm/psp/gbrv1.5pbe/H.UPF
     MD5 check sum: 761ae9a214b05c3daf00ab9f6b793d6f
     Pseudo is Ultrasoft, Zval =  1.0
     Generated by new atomic code, or converted to UPF format
     Using radial grid of  615 points,  2 beta functions with:
                l(1) =   0
                l(2) =   0
     Q(r) pseudized with  8 coefficients,  rinner =    0.700

     vdW kernel table read from file vdW_kernel_table
     MD5 check sum: 095c7af220d748ca6e76c0b4c6cfb241

     atomic species   valence    mass     pseudopotential
        Cd1           12.00   112.41400     Cd( 1.00)
        N1             5.00    14.00700     N ( 1.00)
        H1             1.00     1.00800     H ( 1.00)

     No symmetry found

   Cartesian axes

     site n.     atom                  positions (alat units)
         1           Cd1 tau(   1) = (   1.5635521   0.9027172  10.0000000  )
         2           Cd1 tau(   2) = (   4.6906562   0.9027172  10.0000000  )
         3           Cd1 tau(   3) = (   3.1271041   3.6108688  10.0000000  )
         4           Cd1 tau(   4) = (   6.2542083   3.6108688  10.0000000  )
         5           Cd1 tau(   5) = (   6.2542083   1.8054344  12.5532698  )
         6           Cd1 tau(   6) = (   3.1271041   1.8054344  12.5532698  )
         7           Cd1 tau(   7) = (   7.8177603   4.5135860  12.5532698  )
         8           Cd1 tau(   8) = (   4.6906562   4.5135860  12.5532698  )
         9           Cd1 tau(   9) = (   0.0000000   0.0000000  15.1065397  )
        10           Cd1 tau(  10) = (   3.1271041   0.0000000  15.1065397  )
        11           Cd1 tau(  11) = (   1.5635521   2.7081516  15.1065397  )
        12           Cd1 tau(  12) = (   4.6906562   2.7081516  15.1065397  )
        13           N1  tau(  13) = (   1.5635521   0.9027172  16.5040397  )
        14           H1  tau(  14) = (   1.5635521   0.9027172  17.5540397  )

     number of k points=    20  Fermi-Dirac smearing, width (Ry)=  0.0110
                       cart. coord. in units 2pi/alat
        k(    1) = (   0.0000000   0.0000000   0.0000000), wk =   0.0555556
        k(    2) = (   0.0000000   0.0307713   0.0000000), wk =   0.1111111
        k(    3) = (   0.0000000   0.0615426   0.0000000), wk =   0.1111111
        k(    4) = (   0.0000000  -0.0923139   0.0000000), wk =   0.0555556
        k(    5) = (   0.0266487  -0.0153856   0.0000000), wk =   0.1111111
        k(    6) = (   0.0266487   0.0153856   0.0000000), wk =   0.1111111
        k(    7) = (   0.0266487   0.0461569   0.0000000), wk =   0.1111111
        k(    8) = (   0.0266487  -0.1076995   0.0000000), wk =   0.1111111
        k(    9) = (   0.0266487  -0.0769282   0.0000000), wk =   0.1111111
        k(   10) = (   0.0266487  -0.0461569   0.0000000), wk =   0.1111111
        k(   11) = (   0.0532974  -0.0307713   0.0000000), wk =   0.1111111
        k(   12) = (   0.0532974   0.0000000   0.0000000), wk =   0.1111111
        k(   13) = (   0.0532974   0.0307713   0.0000000), wk =   0.1111111
        k(   14) = (   0.0532974  -0.1230852   0.0000000), wk =   0.1111111
        k(   15) = (   0.0532974  -0.0923139   0.0000000), wk =   0.1111111
        k(   16) = (   0.0532974  -0.0615426   0.0000000), wk =   0.1111111
        k(   17) = (  -0.0799462   0.0461569   0.0000000), wk =   0.0555556
        k(   18) = (  -0.0799462   0.0769282   0.0000000), wk =   0.1111111
        k(   19) = (  -0.0799462   0.1076995   0.0000000), wk =   0.1111111
        k(   20) = (  -0.0799462  -0.0461569   0.0000000), wk =   0.0555556

     Largest allocated arrays     est. size (Mb)     dimensions
     Largest temporary arrays     est. size (Mb)     dimensions

     Initial potential from superposition of free atoms
     Check: negative starting charge=   -0.257822

     starting charge  143.99949, renormalised to  150.00000

     negative rho (up, down):  2.686E-01 0.000E+00

     *
     * You are using vdW-DF for exchange-correlation in this calculation.
     * Please cite the following three references that made this development
     * possible:
     *
     *   M. Dion, H. Rydberg, E. Schroder, D. C. Langreth, and
     *   B. I. Lundqvist, Phys. Rev. Lett. 92, 246401 (2004).
     *
     *   T. Thonhauser, V. R. Cooper, S. Li, A. Puzder, P. Hyldgaard, and
     *   D. C. Langreth, Phys. Rev. B 76, 125112 (2007).
     *
     *   G. Roman-Perez and J. M. Soler, Phys. Rev. Lett. 103, 096102 (2009).
     *
     *
     * If you are using vdW-DF2, please also cite:
     *
     *   K. Lee, E. D. Murray, L. Kong, B. I. Lundqvist, and
     *   D. C. Langreth, Phys. Rev. B 82, 081101(R) (2010).
     *
     *
     * If you are calculating the stress with vdW-DF, please also cite:
     *
     *   R. Sabatini, E. Kucukbenli, B. Kolb, T. Thonhauser, and
     *   S. de Gironcoli, J. Phys.: Condens. Matter 24, 424209 (2012).
     *

     Carrying out vdW-DF run using the following parameters:

     Nqs =      20    Nr_points =    1024   r_max =   100.000
     q_mesh =
               0.00001000     0.04494208     0.09755937     0.15916263
               0.23128650     0.31572767     0.41458969     0.53033537
               0.66584808     0.82450364     1.01025438     1.22772762
               1.48234092     1.78043706     2.12944203     2.53805004
               3.01644009     3.57652955     4.23227104     5.00000000

     Gradients computed in reciprocal space

     Adding external electric field

     Computed dipole along edir(3) :
        Dipole               -1.9492 Ry au,         -4.9543 Debye
        Dipole field         -0.0043 Ry au

        Potential amp.        0.3948 Ry
        Total length         46.2584 bohr

     Starting wfc are  113 randomized atomic wfcs

     Self-consistent Calculation

     iteration #  1     ecut=    36.75 Ry     beta=0.30
     Davidson diagonalization with overlap
     ethr =  1.00E-02,  avg # of iterations =  6.1

[...]

     total energy              =   -1410.47146939 Ry
     Harris-Foulkes estimate   =   -1415.07773038 Ry
     estimated scf accuracy    <       9.62060552 Ry

[...]

     End of self-consistent calculation

          k = 0.0000 0.0000 0.0000 ( 21643 PWs)   bands (ev):

   -13.9385  -9.2944  -9.2944  -9.2930  -9.1519  -9.1519  -9.1488  -9.1453
    -9.0404  -9.0404  -9.0279  -8.9780  -8.9497  -8.9497  -8.8267  -8.7633
    -8.7633  -8.7326  -8.7164  -8.7164  -8.7099  -8.6256  -8.6256  -8.6173
    -8.6173  -8.6109  -8.5996  -8.5996  -8.5582  -8.4921  -8.4921  -8.2816
    -8.2816  -8.1915  -8.1915  -8.1687  -8.1318  -8.1217  -8.1216  -8.0754
    -8.0731  -8.0730  -8.0659  -8.0659  -8.0113  -8.0113  -7.9956  -7.9530
    -7.9530  -7.9210  -7.9161  -7.9161  -7.8679  -7.8500  -7.8500  -7.7982
    -7.7982  -7.7896  -7.6976  -7.6976  -7.6774  -7.6372  -5.9825  -4.3648
    -2.6923  -1.9149  -1.9149  -1.5881  -1.5881  -1.5309  -1.1461  -1.0629
    -1.0629  -0.3845   0.0156   0.0156   0.0193   0.7191   0.7191   1.2587
     2.2144   2.2145   2.4655   2.9161   3.2858

[...]

          k =-0.0799 0.0462 0.0000 ( 21576 PWs)   bands (ev):

[...]

     the Fermi energy is     0.6391 ev

!    total energy              =   -1414.47432229 Ry
     Harris-Foulkes estimate   =   -1414.47432399 Ry
     estimated scf accuracy    <       0.00000236 Ry

     The total energy is the sum of the following terms:

     one-electron contribution =   -9081.27615237 Ry
     hartree contribution      =    4636.03514539 Ry
     xc contribution           =    -496.02190902 Ry
     ewald contribution        =    3526.81932771 Ry
     electric field correction =       0.00000279 Ry
     smearing contrib. (-TS)   =      -0.03073679 Ry

     convergence has been achieved in  15 iterations

 BEEF-vdW xc energy contributions
           1 :   -434.492014959519
           2 :    397.337929117905
           3 :   -334.672935717802
           4 :    264.302343128432
           5 :   -202.627461684785
           6 :    158.822962209551
           7 :   -133.119868856649
           8 :    119.320370935473
           9 :   -109.595505273771
          10 :    98.7584478770399
          11 :   -85.9708578917773
          12 :    73.5891201484826
          13 :   -64.4960014192035
          14 :    59.8367908441612
          15 :   -58.4209591779288
          16 :    57.7789168587186
          17 :   -55.8650265351613
          18 :    52.1960771796221
          19 :   -47.8036807515730
          20 :    44.2472980914103
          21 :   -42.4825420212910
          22 :    42.3214972891025
          23 :   -42.7154694460723
          24 :    42.5300468141328
          25 :   -41.2387799990975
          26 :    39.1231197748086
          27 :   -36.9513156104486
          28 :    35.4306034240017
          29 :   -34.8029514462235
          30 :    34.7898855978832
          31 :   -39.2973082939361
          32 :   -28.6766037447219

     Forces acting on atoms (Ry/au):

     negative rho (up, down):  2.667E-01 0.000E+00
     atom    1 type  1   force =    -0.00003706   -0.00000305   -0.01443894
     atom    2 type  1   force =     0.00005719   -0.00022389   -0.01770342
     atom    3 type  1   force =    -0.00022341    0.00012181   -0.01759774
     atom    4 type  1   force =     0.00027559    0.00015327   -0.01749482
     atom    5 type  1   force =     0.00296852   -0.00174269    0.00329221
     atom    6 type  1   force =    -0.00298334   -0.00172237    0.00325702
     atom    7 type  1   force =     0.00000338    0.00000196    0.00640969
     atom    8 type  1   force =    -0.00002163    0.00343933    0.00333182
     atom    9 type  1   force =    -0.01537425   -0.00888325    0.02696952
     atom   10 type  1   force =     0.01536803   -0.00889569    0.02695755
     atom   11 type  1   force =    -0.00001131    0.01776402    0.02691184
     atom   12 type  1   force =    -0.00001405   -0.00000253    0.01211987
     atom   13 type  2   force =     0.00000136   -0.00000021   -0.00342432
     atom   14 type  3   force =    -0.00000903   -0.00000671   -0.03859028

     Total force =     0.069082     Total SCF correction =     0.003878

     entering subroutine stress ...

     negative rho (up, down):  2.667E-01 0.000E+00
          total   stress  (Ry/bohr**3)                   (kbar)     P=    3.80
   0.00001546  -0.00000000   0.00000000          2.27     -0.00      0.00
  -0.00000000   0.00001546   0.00000000         -0.00      2.27      0.00
   0.00000000   0.00000000   0.00004652          0.00      0.00      6.84

     BFGS Geometry Optimization

     number of scf cycles    =   1
     number of bfgs steps    =   0

     energy   new            =   -1414.4743222936 Ry

     new trust radius        =       0.0385902803 bohr
     new conv_thr            =       0.0000099958 Ry

ATOMIC_POSITIONS (crystal)
Cd1      0.166666667   0.166666667   0.398302599    0   0   0
Cd1      0.666666667   0.166666667   0.398302599    0   0   0
Cd1      0.166666667   0.666666667   0.398302599    0   0   0
Cd1      0.666666667   0.666666667   0.398302599    0   0   0
Cd1      0.833333333   0.333333333   0.500000000    0   0   0
Cd1      0.333333333   0.333333333   0.500000000    0   0   0
Cd1      0.833333333   0.833333333   0.500000000    0   0   0
Cd1      0.333333333   0.833333333   0.500000000    0   0   0
Cd1     -0.000866886  -0.000867901   0.602265845
Cd1      0.501734868  -0.000869117   0.602265593
Cd1     -0.000868736   0.501735559   0.602264629
Cd1      0.499998935   0.499999752   0.601952855
N1       0.166666792   0.166666646   0.657288014
H1       0.166666230   0.166666011   0.698368585

     Writing output data file calc.save
     Check: negative starting charge=   -0.257822
     NEW-OLD atomic charge density approx. for the potential
     Check: negative starting charge=   -0.259064

[...]

     energy   old            =   -1414.4743222935 Ry
     energy   new            =   -1414.4785690361 Ry

     CASE: energy  _new < energy  _old

[...]

     Total force =     0.002775     Total SCF correction =     0.000086

[...]

     number of scf cycles    =  22
     number of bfgs steps    =  21

     energy   old            =   -1414.5169292617 Ry
     energy   new            =   -1414.5169445264 Ry

     CASE: energy  _new < energy  _old

     new trust radius        =       0.0214278903 bohr
     new conv_thr            =       0.0000001000 Ry

ATOMIC_POSITIONS (crystal)
Cd1      0.166666667   0.166666667   0.398302599    0   0   0
Cd1      0.666666667   0.166666667   0.398302599    0   0   0
Cd1      0.166666667   0.666666667   0.398302599    0   0   0
Cd1      0.666666667   0.666666667   0.398302599    0   0   0
Cd1      0.833333333   0.333333333   0.500000000    0   0   0
Cd1      0.333333333   0.333333333   0.500000000    0   0   0
Cd1      0.833333333   0.833333333   0.500000000    0   0   0
Cd1      0.333333333   0.833333333   0.500000000    0   0   0
Cd1     -0.014323638  -0.014353598   0.621246508
Cd1      0.528562024  -0.014347703   0.621221156
Cd1     -0.014309053   0.528530691   0.621195152
Cd1      0.499975051   0.499976226   0.606829541
N1       0.166639389   0.166657929   0.659937527
H1       0.166645257   0.166702214   0.700797628

     Writing output data file calc.save
     Check: negative starting charge=   -0.258530
     NEW-OLD atomic charge density approx. for the potential
     Check: negative starting charge=   -0.258779

[...]

     Self-consistent Calculation

[...]

     total energy              =   -1414.51698336 Ry
     Harris-Foulkes estimate   =   -1414.51698337 Ry
     estimated scf accuracy    <       0.00000017 Ry

     iteration #  7     ecut=    36.75 Ry     beta=0.30
     Davidson diagonalization with overlap
     ethr =  1.11E-10,  avg # of iterations =  2.1

[...]

     negative rho (up, down):  2.676E-01 0.000E+00

     Adding external electric field

     Computed dipole along edir(3) :
        Dipole                0.1178 Ry au,          0.2994 Debye
        Dipole field          0.0003 Ry au

        Potential amp.       -0.0239 Ry
        Total length         46.2584 bohr

     End of self-consistent calculation

[...]

          k = 0.0533-0.0615 0.0000 ( 21571 PWs)   bands (ev):

[...]

          k =-0.0799-0.0462 0.0000 ( 21576 PWs)   bands (ev):

   -14.4944  -8.8112  -8.7983  -8.7317  -8.7052  -8.6950  -8.6620  -8.6573
    -8.6203  -8.6162  -8.6028  -8.5954  -8.5143  -8.4965  -8.4819  -8.4634
    -8.4478  -8.4450  -8.4312  -8.4021  -8.3747  -8.3672  -8.3244  -8.3202
    -8.2597  -8.2512  -8.2478  -8.2426  -8.2225  -8.2059  -8.2023  -8.1782
    -8.1294  -8.1157  -8.1086  -8.0905  -8.0883  -8.0767  -8.0740  -8.0538
    -8.0467  -8.0171  -8.0008  -7.9925  -7.9788  -7.9717  -7.9584  -7.9274
    -7.9067  -7.8791  -7.8611  -7.8478  -7.8368  -7.7988  -7.7760  -7.7507
    -7.7081  -7.7034  -7.7011  -7.6406  -7.5496  -5.6833  -5.6411  -4.8709
    -4.4139  -3.2089  -2.7727  -2.4662  -2.3806  -2.1503  -1.7045  -0.7700
    -0.1419  -0.0197   1.0803   1.4960   1.6027   2.2125   3.1160   3.1200
     3.4941   3.5282   3.7617   3.9975   4.1597

     the Fermi energy is     0.8545 ev

!    total energy              =   -1414.51698340 Ry
     Harris-Foulkes estimate   =   -1414.51698345 Ry
     estimated scf accuracy    <       0.00000005 Ry

     The total energy is the sum of the following terms:

     one-electron contribution =   -8608.97355950 Ry
     hartree contribution      =    4400.85044207 Ry
     xc contribution           =    -495.96416981 Ry
     ewald contribution        =    3289.59588827 Ry
     electric field correction =       0.00003038 Ry
     smearing contrib. (-TS)   =      -0.02561481 Ry

     convergence has been achieved in   7 iterations

 BEEF-vdW xc energy contributions
           1 :   -434.420720660771
           2 :    397.146838245913
           3 :   -334.331335661996
           4 :    263.900569721456
           5 :   -202.310732516967
           6 :    158.675455946562
           7 :   -133.099829945940
           8 :    119.298698726507
           9 :   -109.463606700917
          10 :    98.5155658922592
          11 :   -85.7200920147056
          12 :    73.4487035374263
          13 :   -64.5011935422237
          14 :    59.9132460534362
          15 :   -58.4512511867092
          16 :    57.7050268558405
          17 :   -55.7378971652486
          18 :    52.1301525390422
          19 :   -47.8751647461435
          20 :    44.4211626108327
          21 :   -42.6311812955940
          22 :    42.3234139228821
          23 :   -42.5550907231204
          24 :    42.3161687347725
          25 :   -41.1239146465157
          26 :    39.1859667991736
          27 :   -37.1351395452394
          28 :    35.5860082214600
          29 :   -34.8022104024787
          30 :    34.6246913887185
          31 :   -39.2871134801563
          32 :   -28.6328986697578

     Forces acting on atoms (Ry/au):

     negative rho (up, down):  2.676E-01 0.000E+00
     atom    1 type  1   force =     0.00000261    0.00000332   -0.01797315
     atom    2 type  1   force =     0.00000020    0.00014304   -0.01923474
     atom    3 type  1   force =     0.00012244   -0.00007180   -0.01923350
     atom    4 type  1   force =    -0.00011940   -0.00007029   -0.01923246
     atom    5 type  1   force =     0.00489500   -0.00282760    0.01978572
     atom    6 type  1   force =    -0.00489401   -0.00282709    0.01978505
     atom    7 type  1   force =     0.00000237    0.00000366    0.01618289
     atom    8 type  1   force =    -0.00000006    0.00565522    0.01978084
     atom    9 type  1   force =    -0.00020997   -0.00011492    0.00067933
     atom   10 type  1   force =     0.00020814   -0.00011621    0.00065967
     atom   11 type  1   force =    -0.00000261    0.00023418    0.00065059
     atom   12 type  1   force =    -0.00000251   -0.00001208   -0.00189204
     atom   13 type  2   force =    -0.00000380   -0.00000629   -0.00001870
     atom   14 type  3   force =     0.00000159    0.00000685    0.00006050

     Total force =     0.002252     Total SCF correction =     0.000405
     SCF correction compared to forces is large: reduce conv_thr to get better values

     entering subroutine stress ...

     negative rho (up, down):  2.676E-01 0.000E+00
          total   stress  (Ry/bohr**3)                   (kbar)     P=    1.98
   0.00000255  -0.00000000  -0.00000000          0.38     -0.00     -0.00
  -0.00000000   0.00000255   0.00000000         -0.00      0.38      0.00
  -0.00000000   0.00000000   0.00003521         -0.00      0.00      5.18

     bfgs converged in  23 scf cycles and  22 bfgs steps
     (criteria: energy <  1.0E+00, force <  1.9E-03)

     End of BFGS Geometry Optimization

     Final energy   =   -1414.5169834021 Ry
Begin final coordinates

ATOMIC_POSITIONS (crystal)
Cd1      0.166666667   0.166666667   0.398302599    0   0   0
Cd1      0.666666667   0.166666667   0.398302599    0   0   0
Cd1      0.166666667   0.666666667   0.398302599    0   0   0
Cd1      0.666666667   0.666666667   0.398302599    0   0   0
Cd1      0.833333333   0.333333333   0.500000000    0   0   0
Cd1      0.333333333   0.333333333   0.500000000    0   0   0
Cd1      0.833333333   0.833333333   0.500000000    0   0   0
Cd1      0.333333333   0.833333333   0.500000000    0   0   0
Cd1     -0.014323638  -0.014353598   0.621246508
Cd1      0.528562024  -0.014347703   0.621221156
Cd1     -0.014309053   0.528530691   0.621195152
Cd1      0.499975051   0.499976226   0.606829541
N1       0.166639389   0.166657929   0.659937527
H1       0.166645257   0.166702214   0.700797628
End final coordinates

     Writing output data file calc.save

     General routines

     Parallel routines

   This run was terminated on:  15:57:30  16Apr2018

   JOB DONE.
Job  /afs/slac/g/suncat/bin/suncat-tsmpirun -x LD_LIBRARY_PATH -wdir /scratch/qe131998_9Ri1O pw.x -npool 4 -in pw.inp

TID   HOST_NAME   COMMAND_LINE            STATUS            TERMINATION_TIME
00000 suncat0016 pw.x -npool 4 -i  Done                     04/16/2018 15:57:30
00001 suncat0016 pw.x -npool 4 -i  Done                     04/16/2018 15:57:30
00002 suncat0016 pw.x -npool 4 -i  Done                     04/16/2018 15:57:30
00003 suncat0016 pw.x -npool 4 -i  Done                     04/16/2018 15:57:30
00004 suncat0016 pw.x -npool 4 -i  Done                     04/16/2018 15:57:30
00005 suncat0016 pw.x -npool 4 -i  Done                     04/16/2018 15:57:30
00006 suncat0016 pw.x -npool 4 -i  Done                     04/16/2018 15:57:30
00007 suncat0016 pw.x -npool 4 -i  Done                     04/16/2018 15:57:30
00008 suncat0014 pw.x -npool 4 -i  Done                     04/16/2018 15:57:30
00009 suncat0014 pw.x -npool 4 -i  Done                     04/16/2018 15:57:30
00010 suncat0014 pw.x -npool 4 -i  Done                     04/16/2018 15:57:30
00011 suncat0014 pw.x -npool 4 -i  Done                     04/16/2018 15:57:30
00012 suncat0014 pw.x -npool 4 -i  Done                     04/16/2018 15:57:30
00013 suncat0014 pw.x -npool 4 -i  Done                     04/16/2018 15:57:30
00014 suncat0014 pw.x -npool 4 -i  Done                     04/16/2018 15:57:30
00015 suncat0014 pw.x -npool 4 -i  Done                     04/16/2018 15:57:30
00016 suncat0139 pw.x -npool 4 -i  Done                     04/16/2018 15:57:30
00017 suncat0139 pw.x -npool 4 -i  Done                     04/16/2018 15:57:30
00018 suncat0139 pw.x -npool 4 -i  Done                     04/16/2018 15:57:30
00019 suncat0139 pw.x -npool 4 -i  Done                     04/16/2018 15:57:30
00020 suncat0139 pw.x -npool 4 -i  Done                     04/16/2018 15:57:30
00021 suncat0139 pw.x -npool 4 -i  Done                     04/16/2018 15:57:30
00022 suncat0139 pw.x -npool 4 -i  Done                     04/16/2018 15:57:30
00023 suncat0139 pw.x -npool 4 -i  Done                     04/16/2018 15:57:30
00024 suncat0135 pw.x -npool 4 -i  Done                     04/16/2018 15:57:30
00025 suncat0135 pw.x -npool 4 -i  Done                     04/16/2018 15:57:30
00026 suncat0135 pw.x -npool 4 -i  Done                     04/16/2018 15:57:30
00027 suncat0135 pw.x -npool 4 -i  Done                     04/16/2018 15:57:30
00028 suncat0135 pw.x -npool 4 -i  Done                     04/16/2018 15:57:30
00029 suncat0135 pw.x -npool 4 -i  Done                     04/16/2018 15:57:30
00030 suncat0135 pw.x -npool 4 -i  Done                     04/16/2018 15:57:30
00031 suncat0135 pw.x -npool 4 -i  Done                     04/16/2018 15:57:30