     Program PWSCF v.5.1rc2 (svn rev. 11289) starts on 30Apr2018 at 16:18:25

     Current dimensions of program PWSCF are:
     Max number of different atomic species (ntypx) = 10
     Max number of k-points (npk) =  40000
     Max angular momentum in pseudopotentials (lmaxx) =  3
     Presently stress not available with electric field

     IMPORTANT: XC functional enforced from input :
     Exchange-correlation      = BEEF-VDW ( 1  4 27 13 2)
     Any further DFT definition will be discarded
     Please, verify this is what you really want

     Subspace diagonalization in iterative solution of the eigenvalue problem:
     a serial algorithm will be used

     bravais-lattice index     =            0
     lattice parameter (alat)  =       1.8897  a.u.
     unit-cell volume          =    4650.5773 (a.u.)^3
     number of atoms/cell      =           13
     number of atomic types    =            2
     number of electrons       =        40.00
     number of Kohn-Sham states=           30
     kinetic-energy cutoff     =      36.7493  Ry
     charge density cutoff     =     367.4932  Ry
     convergence threshold     =      1.0E-05
     mixing beta               =       0.3000
     number of iterations used =           10  plain     mixing
     Exchange-correlation      = BEEF-VDW ( 1  4 27 13 2)
     nstep                     =           50

     celldm(1)=   1.889726  celldm(2)=   0.000000  celldm(3)=   0.000000
     celldm(4)=   0.000000  celldm(5)=   0.000000  celldm(6)=   0.000000

     crystal axes: (cart. coord. in units of alat)
               a(1) = (   5.682886   0.000000   0.000000 )
               a(2) = (   2.841443   4.921524   0.000000 )
               a(3) = (   0.000000   0.000000  24.640057 )

     reciprocal axes: (cart. coord. in units 2 pi/alat)
               b(1) = (  0.175967 -0.101595  0.000000 )
               b(2) = (  0.000000  0.203189  0.000000 )
               b(3) = (  0.000000  0.000000  0.040584 )

     PseudoPot. # 1 for Al read from file:
     /u/if/mamunm/psp/gbrv1.5pbe/Al.UPF
     MD5 check sum: 0a6289f5291fc8f409219462bc851e1f
     Pseudo is Ultrasoft + core correction, Zval =  3.0
     Generated by new atomic code, or converted to UPF format
     Using radial grid of  893 points,  3 beta functions with:
                l(1) =   0
                l(2) =   1
                l(3) =   2
     Q(r) pseudized with  8 coefficients,  rinner =    0.900   0.900   0.900
                                                       0.900   0.900

     PseudoPot. # 2 for C  read from file:
     /u/if/mamunm/psp/gbrv1.5pbe/C.UPF
     MD5 check sum: d1aef80898a10debaa0f26306b886e00
     Pseudo is Ultrasoft + core correction, Zval =  4.0
     Generated by new atomic code, or converted to UPF format
     Using radial grid of  721 points,  4 beta functions with:
                l(1) =   0
                l(2) =   0
                l(3) =   1
                l(4) =   1
     Q(r) pseudized with  8 coefficients,  rinner =    1.100   1.100   1.100

     vdW kernel table read from file vdW_kernel_table
     MD5 check sum: 095c7af220d748ca6e76c0b4c6cfb241

     atomic species   valence    mass     pseudopotential
        Al1            3.00    26.98154     Al( 1.00)
        C1             4.00    12.01100     C ( 1.00)

     No symmetry found

   Cartesian axes

     site n.     atom                  positions (alat units)
         1           Al1 tau(   1) = (   1.4207216   0.8202540  10.0000000  )
         2           Al1 tau(   2) = (   4.2621647   0.8202540  10.0000000  )
         3           Al1 tau(   3) = (   2.8414431   3.2810159  10.0000000  )
         4           Al1 tau(   4) = (   5.6828862   3.2810159  10.0000000  )
         5           Al1 tau(   5) = (   5.6828862   1.6405079  12.3200286  )
         6           Al1 tau(   6) = (   2.8414431   1.6405079  12.3200286  )
         7           Al1 tau(   7) = (   7.1036078   4.1012699  12.3200286  )
         8           Al1 tau(   8) = (   4.2621647   4.1012699  12.3200286  )
         9           Al1 tau(   9) = (   0.0000000   0.0000000  14.6400572  )
        10           Al1 tau(  10) = (   2.8414431   0.0000000  14.6400572  )
        11           Al1 tau(  11) = (   1.4207216   2.4607619  14.6400572  )
        12           Al1 tau(  12) = (   4.2621647   2.4607619  14.6400572  )
        13           C1  tau(  13) = (   0.0000000   0.0000000  16.3145572  )

     number of k points=    20  Fermi-Dirac smearing, width (Ry)=  0.0110
                       cart. coord. in units 2pi/alat
        k(    1) = (   0.0000000   0.0000000   0.0000000), wk =   0.0555556
        k(    2) = (   0.0000000   0.0338648   0.0000000), wk =   0.1111111
        k(    3) = (   0.0000000   0.0677297   0.0000000), wk =   0.1111111
        k(    4) = (   0.0000000  -0.1015945   0.0000000), wk =   0.0555556
        k(    5) = (   0.0293278  -0.0169324   0.0000000), wk =   0.1111111
        k(    6) = (   0.0293278   0.0169324   0.0000000), wk =   0.1111111
        k(    7) = (   0.0293278   0.0507973   0.0000000), wk =   0.1111111
        k(    8) = (   0.0293278  -0.1185270   0.0000000), wk =   0.1111111
        k(    9) = (   0.0293278  -0.0846621   0.0000000), wk =   0.1111111
        k(   10) = (   0.0293278  -0.0507973   0.0000000), wk =   0.1111111
        k(   11) = (   0.0586556  -0.0338648   0.0000000), wk =   0.1111111
        k(   12) = (   0.0586556   0.0000000   0.0000000), wk =   0.1111111
        k(   13) = (   0.0586556   0.0338648   0.0000000), wk =   0.1111111
        k(   14) = (   0.0586556  -0.1354594   0.0000000), wk =   0.1111111
        k(   15) = (   0.0586556  -0.1015945   0.0000000), wk =   0.1111111
        k(   16) = (   0.0586556  -0.0677297   0.0000000), wk =   0.1111111
        k(   17) = (  -0.0879835   0.0507973   0.0000000), wk =   0.0555556
        k(   18) = (  -0.0879835   0.0846621   0.0000000), wk =   0.1111111
        k(   19) = (  -0.0879835   0.1185270   0.0000000), wk =   0.1111111
        k(   20) = (  -0.0879835  -0.0507973   0.0000000), wk =   0.0555556

     Largest allocated arrays     est. size (Mb)     dimensions
     Largest temporary arrays     est. size (Mb)     dimensions

     Initial potential from superposition of free atoms
     Check: negative starting charge=   -0.000174

     starting charge   39.97037, renormalised to   40.00000

     negative rho (up, down):  1.743E-04 0.000E+00

     *
     * You are using vdW-DF for exchange-correlation in this calculation.
     * Please cite the following three references that made this development
     * possible:
     *
     *   M. Dion, H. Rydberg, E. Schroder, D. C. Langreth, and
     *   B. I. Lundqvist, Phys. Rev. Lett. 92, 246401 (2004).
     *
     *   T. Thonhauser, V. R. Cooper, S. Li, A. Puzder, P. Hyldgaard, and
     *   D. C. Langreth, Phys. Rev. B 76, 125112 (2007).
     *
     *   G. Roman-Perez and J. M. Soler, Phys. Rev. Lett. 103, 096102 (2009).
     *
     *
     * If you are using vdW-DF2, please also cite:
     *
     *   K. Lee, E. D. Murray, L. Kong, B. I. Lundqvist, and
     *   D. C. Langreth, Phys. Rev. B 82, 081101(R) (2010).
     *
     *
     * If you are calculating the stress with vdW-DF, please also cite:
     *
     *   R. Sabatini, E. Kucukbenli, B. Kolb, T. Thonhauser, and
     *   S. de Gironcoli, J. Phys.: Condens. Matter 24, 424209 (2012).
     *

     Carrying out vdW-DF run using the following parameters:

     Nqs =      20    Nr_points =    1024   r_max =   100.000
     q_mesh =
               0.00001000     0.04494208     0.09755937     0.15916263
               0.23128650     0.31572767     0.41458969     0.53033537
               0.66584808     0.82450364     1.01025438     1.22772762
               1.48234092     1.78043706     2.12944203     2.53805004
               3.01644009     3.57652955     4.23227104     5.00000000

     Gradients computed in reciprocal space

     Adding external electric field

     Computed dipole along edir(3) :
        Dipole               -0.0221 Ry au,         -0.0561 Debye
        Dipole field         -0.0001 Ry au

        Potential amp.        0.0054 Ry
        Total length         45.3989 bohr

     Starting wfc are   52 randomized atomic wfcs

     Self-consistent Calculation

     iteration #  1     ecut=    36.75 Ry     beta=0.30
     Davidson diagonalization with overlap
     ethr =  1.00E-02,  avg # of iterations =  3.0

[...]

     total energy              =     -91.88969558 Ry
     Harris-Foulkes estimate   =     -93.80719497 Ry
     estimated scf accuracy    <       4.22713289 Ry

[...]

     End of self-consistent calculation

          k = 0.0000 0.0000 0.0000 ( 17579 PWs)   bands (ev):

   -12.2114 -11.3269  -9.7971  -7.2044  -6.1225  -6.1225  -6.0857  -6.0576
    -6.0576  -5.9906  -4.8190  -4.8190  -4.7114  -4.2739  -4.1800  -4.1800
    -3.7662  -2.3204  -2.3145  -2.3145  -1.6960  -1.6960  -1.6421  -0.6387
    -0.4333  -0.4333  -0.0176   1.2761   1.3030   1.3031

[...]

          k =-0.0880 0.0508 0.0000 ( 17464 PWs)   bands (ev):

[...]

     the Fermi energy is    -1.3698 ev

!    total energy              =     -93.56827061 Ry
     Harris-Foulkes estimate   =     -93.56834646 Ry
     estimated scf accuracy    <       0.00000716 Ry

     The total energy is the sum of the following terms:

     one-electron contribution =    -704.30786880 Ry
     hartree contribution      =     359.57092755 Ry
     xc contribution           =     -56.61431662 Ry
     ewald contribution        =     307.81608174 Ry
     electric field correction =       0.00097153 Ry
     smearing contrib. (-TS)   =      -0.03406602 Ry

     convergence has been achieved in  11 iterations

 BEEF-vdW xc energy contributions
           1 :   -46.4838092814729
           2 :    39.9139032958165
           3 :   -29.8447964393505
           4 :    20.2710771046581
           5 :   -13.7442498014467
           6 :    10.4137690312217
           7 :   -8.78774757071559
           8 :    7.32075926366836
           9 :   -5.52408301992382
          10 :    3.90282672213067
          11 :   -3.08485630478552
          12 :    3.07465311349254
          13 :   -3.26352179370525
          14 :    3.03537807141132
          15 :   -2.30372719121850
          16 :    1.48773296179479
          17 :   -1.02889093098046
          18 :   0.966082856764331
          19 :  -0.963253805272380
          20 :   0.694631863613964
          21 :  -0.166948843567056
          22 :  -0.323105908355600
          23 :   0.508093270076479
          24 :  -0.406349073032999
          25 :   0.276052052002129
          26 :  -0.343705672413520
          27 :   0.590298759717044
          28 :  -0.795740046260896
          29 :   0.774593089918781
          30 :  -0.558448668037343
          31 :   -6.96106008264545
          32 :   -5.08183153322656

     Forces acting on atoms (Ry/au):

     negative rho (up, down):  4.592E-04 0.000E+00
     atom    1 type  1   force =    -0.00161433   -0.00093196   -0.00092440
     atom    2 type  1   force =     0.00161580   -0.00093303   -0.00092308
     atom    3 type  1   force =    -0.00000099    0.00186563   -0.00092388
     atom    4 type  1   force =     0.00000048   -0.00000035    0.00180676
     atom    5 type  1   force =    -0.00000056   -0.00414767    0.00085876
     atom    6 type  1   force =     0.00000029    0.00000034    0.00055100
     atom    7 type  1   force =     0.00359163    0.00207349    0.00085812
     atom    8 type  1   force =    -0.00359174    0.00207317    0.00085866
     atom    9 type  1   force =    -0.00000084   -0.00000072   -0.27223212
     atom   10 type  1   force =     0.00000023   -0.00426250    0.01125382
     atom   11 type  1   force =    -0.00369224    0.00213225    0.01125235
     atom   12 type  1   force =     0.00369073    0.00213138    0.01125310
     atom   13 type  2   force =     0.00000155   -0.00000002    0.23631091

     Total force =     0.361092     Total SCF correction =     0.003283

     entering subroutine stress ...

     negative rho (up, down):  4.592E-04 0.000E+00
          total   stress  (Ry/bohr**3)                   (kbar)     P=    1.11
  -0.00006873   0.00000000  -0.00000000        -10.11      0.00     -0.00
   0.00000000  -0.00006873  -0.00000000          0.00    -10.11     -0.00
  -0.00000000  -0.00000000   0.00016012         -0.00     -0.00     23.56

     BFGS Geometry Optimization

     number of scf cycles    =   1
     number of bfgs steps    =   0

     energy   new            =     -93.5682706096 Ry

     new trust radius        =       0.2722321220 bohr
     new conv_thr            =       0.0000099958 Ry

ATOMIC_POSITIONS (crystal)
Al1      0.166666667   0.166666667   0.405843214    0   0   0
Al1      0.666666667   0.166666667   0.405843214    0   0   0
Al1      0.166666667   0.666666667   0.405843214    0   0   0
Al1      0.666666667   0.666666667   0.405843214    0   0   0
Al1      0.833333333   0.333333333   0.500000000    0   0   0
Al1      0.333333333   0.333333333   0.500000000    0   0   0
Al1      0.833333333   0.833333333   0.500000000    0   0   0
Al1      0.333333333   0.833333333   0.500000000    0   0   0
Al1     -0.000000039  -0.000000078   0.588310248
Al1      0.500229179  -0.000458317   0.594398476
Al1     -0.000458446   0.500229266   0.594398445
Al1      0.500229085   0.500229173   0.594398461
C1       0.000000145  -0.000000002   0.667190316

     Writing output data file calc.save
     Check: negative starting charge=   -0.000174
     NEW-OLD atomic charge density approx. for the potential
     Check: negative starting charge=   -0.000169

[...]

     energy   old            =     -93.5682706096 Ry
     energy   new            =     -93.6176145861 Ry

     CASE: energy  _new < energy  _old

[...]

     Threshold (ethr) on eigenvalues was too large:
     Diagonalizing with lowered threshold

     Davidson diagonalization with overlap
     ethr =  3.99E-08,  avg # of iterations =  2.2

[...]

     number of scf cycles    =  13
     number of bfgs steps    =  12

     energy   old            =     -93.6281353922 Ry
     energy   new            =     -93.6281660516 Ry

     CASE: energy  _new < energy  _old

     new trust radius        =       0.0068326947 bohr
     new conv_thr            =       0.0000001000 Ry

ATOMIC_POSITIONS (crystal)
Al1      0.166666667   0.166666667   0.405843214    0   0   0
Al1      0.666666667   0.166666667   0.405843214    0   0   0
Al1      0.166666667   0.666666667   0.405843214    0   0   0
Al1      0.666666667   0.666666667   0.405843214    0   0   0
Al1      0.833333333   0.333333333   0.500000000    0   0   0
Al1      0.333333333   0.333333333   0.500000000    0   0   0
Al1      0.833333333   0.833333333   0.500000000    0   0   0
Al1      0.333333333   0.833333333   0.500000000    0   0   0
Al1     -0.000000418   0.000000063   0.581725219
Al1      0.500611759  -0.001224310   0.601679900
Al1     -0.001224457   0.500612087   0.601679911
Al1      0.500611836   0.500612343   0.601679917
C1       0.000001437  -0.000000291   0.658630912

     Writing output data file calc.save
     Check: negative starting charge=   -0.000174
     NEW-OLD atomic charge density approx. for the potential
     Check: negative starting charge=   -0.000174

[...]

     Self-consistent Calculation

[...]

     Threshold (ethr) on eigenvalues was too large:
     Diagonalizing with lowered threshold

     Davidson diagonalization with overlap
     ethr =  8.17E-08,  avg # of iterations =  1.0

[...]

     total energy              =     -93.62817883 Ry
     Harris-Foulkes estimate   =     -93.62818010 Ry
     estimated scf accuracy    <       0.00000025 Ry

     iteration #  6     ecut=    36.75 Ry     beta=0.30
     Davidson diagonalization with overlap
     ethr =  6.27E-10,  avg # of iterations =  2.0

[...]

     negative rho (up, down):  4.154E-04 0.000E+00

     Adding external electric field

     Computed dipole along edir(3) :
        Dipole               -0.5194 Ry au,         -1.3203 Debye
        Dipole field         -0.0014 Ry au

        Potential amp.        0.1274 Ry
        Total length         45.3989 bohr

     End of self-consistent calculation

[...]

          k = 0.0587-0.0677 0.0000 ( 17495 PWs)   bands (ev):

[...]

          k =-0.0880-0.0508 0.0000 ( 17464 PWs)   bands (ev):

   -11.1468 -10.2246 -10.0881  -8.6162  -8.1597  -7.3386  -7.2999  -6.1507
    -5.8810  -5.7477  -5.1443  -3.4940  -3.2914  -3.1856  -2.5318  -1.7634
    -1.6693  -1.6672  -1.4000  -1.1055  -0.8810  -0.8603  -0.1790   0.0492
     0.1359   0.4000   0.6649   1.0864   1.1523   1.5239

     the Fermi energy is    -1.1933 ev

!    total energy              =     -93.62817747 Ry
     Harris-Foulkes estimate   =     -93.62817932 Ry
     estimated scf accuracy    <       0.00000004 Ry

     The total energy is the sum of the following terms:

     one-electron contribution =    -701.38337713 Ry
     hartree contribution      =     358.24595762 Ry
     xc contribution           =     -56.45211887 Ry
     ewald contribution        =     305.99292553 Ry
     electric field correction =       0.00072904 Ry
     smearing contrib. (-TS)   =      -0.03229365 Ry

     convergence has been achieved in   6 iterations

 BEEF-vdW xc energy contributions
           1 :   -46.3360148883233
           2 :    39.7688484545831
           3 :   -29.6998933456932
           4 :    20.1237703212589
           5 :   -13.5942526534357
           6 :    10.2558965086381
           7 :   -8.60679685216624
           8 :    7.09722224261218
           9 :   -5.24462891086520
          10 :    3.56433336894024
          11 :   -2.68959801657169
          12 :    2.62527162278262
          13 :   -2.76530644568762
          14 :    2.50294894568147
          15 :   -1.76141022304806
          16 :   0.959204613379207
          17 :  -0.525313833592634
          18 :   0.485147237618264
          19 :  -0.500339414758045
          20 :   0.254289871596079
          21 :   0.237863923496121
          22 :  -0.683269182845208
          23 :   0.828408224997318
          24 :  -0.701433328538585
          25 :   0.555327570532214
          26 :  -0.601070471262311
          27 :   0.810439915928171
          28 :  -0.971623313692206
          29 :   0.917396819977100
          30 :  -0.688190521317892
          31 :   -6.95076706872827
          32 :   -5.07234298504305

     Forces acting on atoms (Ry/au):

     negative rho (up, down):  4.154E-04 0.000E+00
     atom    1 type  1   force =    -0.00257103   -0.00148438   -0.00086642
     atom    2 type  1   force =     0.00257103   -0.00148439   -0.00086639
     atom    3 type  1   force =    -0.00000000    0.00296877   -0.00086640
     atom    4 type  1   force =    -0.00000003    0.00000001    0.00150154
     atom    5 type  1   force =    -0.00000001    0.01406969   -0.00592144
     atom    6 type  1   force =    -0.00000005    0.00000001    0.01458468
     atom    7 type  1   force =    -0.01218476   -0.00703487   -0.00592152
     atom    8 type  1   force =     0.01218466   -0.00703481   -0.00592134
     atom    9 type  1   force =    -0.00000031    0.00000007    0.00073132
     atom   10 type  1   force =    -0.00000035   -0.00099187    0.00075981
     atom   11 type  1   force =    -0.00085914    0.00049590    0.00075979
     atom   12 type  1   force =     0.00085881    0.00049610    0.00075979
     atom   13 type  2   force =     0.00000118   -0.00000023    0.00126658

     Total force =     0.002612     Total SCF correction =     0.000096

     entering subroutine stress ...

     negative rho (up, down):  4.154E-04 0.000E+00
          total   stress  (Ry/bohr**3)                   (kbar)     P=   -7.66
  -0.00008073  -0.00000000   0.00000000        -11.88     -0.00      0.00
  -0.00000000  -0.00008073  -0.00000000         -0.00    -11.88     -0.00
   0.00000000  -0.00000000   0.00000533          0.00     -0.00      0.78

     bfgs converged in  14 scf cycles and  13 bfgs steps
     (criteria: energy <  1.0E+00, force <  1.9E-03)

     End of BFGS Geometry Optimization

     Final energy   =     -93.6281774720 Ry
Begin final coordinates

ATOMIC_POSITIONS (crystal)
Al1      0.166666667   0.166666667   0.405843214    0   0   0
Al1      0.666666667   0.166666667   0.405843214    0   0   0
Al1      0.166666667   0.666666667   0.405843214    0   0   0
Al1      0.666666667   0.666666667   0.405843214    0   0   0
Al1      0.833333333   0.333333333   0.500000000    0   0   0
Al1      0.333333333   0.333333333   0.500000000    0   0   0
Al1      0.833333333   0.833333333   0.500000000    0   0   0
Al1      0.333333333   0.833333333   0.500000000    0   0   0
Al1     -0.000000418   0.000000063   0.581725219
Al1      0.500611759  -0.001224310   0.601679900
Al1     -0.001224457   0.500612087   0.601679911
Al1      0.500611836   0.500612343   0.601679917
C1       0.000001437  -0.000000291   0.658630912
End final coordinates

     Writing output data file calc.save

     General routines

     Parallel routines

   This run was terminated on:  16:48:35  30Apr2018

   JOB DONE.
Job  /afs/slac/g/suncat/bin/suncat-tsmpirun -x LD_LIBRARY_PATH -wdir /scratch/qe507623_94UMy pw.x -npool 4 -in pw.inp

TID   HOST_NAME   COMMAND_LINE            STATUS            TERMINATION_TIME
00000 suncat0214 pw.x -npool 4 -i  Done                     04/30/2018 16:48:35
00001 suncat0214 pw.x -npool 4 -i  Done                     04/30/2018 16:48:35
00002 suncat0214 pw.x -npool 4 -i  Done                     04/30/2018 16:48:35
00003 suncat0214 pw.x -npool 4 -i  Done                     04/30/2018 16:48:35
00004 suncat0214 pw.x -npool 4 -i  Done                     04/30/2018 16:48:35
00005 suncat0214 pw.x -npool 4 -i  Done                     04/30/2018 16:48:35
00006 suncat0214 pw.x -npool 4 -i  Done                     04/30/2018 16:48:35
00007 suncat0214 pw.x -npool 4 -i  Done                     04/30/2018 16:48:35
00008 suncat0206 pw.x -npool 4 -i  Done                     04/30/2018 16:48:35
00009 suncat0206 pw.x -npool 4 -i  Done                     04/30/2018 16:48:35
00010 suncat0206 pw.x -npool 4 -i  Done                     04/30/2018 16:48:35
00011 suncat0206 pw.x -npool 4 -i  Done                     04/30/2018 16:48:35
00012 suncat0206 pw.x -npool 4 -i  Done                     04/30/2018 16:48:35
00013 suncat0206 pw.x -npool 4 -i  Done                     04/30/2018 16:48:35
00014 suncat0206 pw.x -npool 4 -i  Done                     04/30/2018 16:48:35
00015 suncat0206 pw.x -npool 4 -i  Done                     04/30/2018 16:48:35
00016 suncat0201 pw.x -npool 4 -i  Done                     04/30/2018 16:48:35
00017 suncat0201 pw.x -npool 4 -i  Done                     04/30/2018 16:48:35
00018 suncat0201 pw.x -npool 4 -i  Done                     04/30/2018 16:48:35
00019 suncat0201 pw.x -npool 4 -i  Done                     04/30/2018 16:48:35
00020 suncat0201 pw.x -npool 4 -i  Done                     04/30/2018 16:48:35
00021 suncat0201 pw.x -npool 4 -i  Done                     04/30/2018 16:48:35
00022 suncat0201 pw.x -npool 4 -i  Done                     04/30/2018 16:48:35
00023 suncat0201 pw.x -npool 4 -i  Done                     04/30/2018 16:48:35
00024 suncat0099 pw.x -npool 4 -i  Done                     04/30/2018 16:48:35
00025 suncat0099 pw.x -npool 4 -i  Done                     04/30/2018 16:48:35
00026 suncat0099 pw.x -npool 4 -i  Done                     04/30/2018 16:48:35
00027 suncat0099 pw.x -npool 4 -i  Done                     04/30/2018 16:48:35
00028 suncat0099 pw.x -npool 4 -i  Done                     04/30/2018 16:48:35
00029 suncat0099 pw.x -npool 4 -i  Done                     04/30/2018 16:48:35
00030 suncat0099 pw.x -npool 4 -i  Done                     04/30/2018 16:48:35
00031 suncat0099 pw.x -npool 4 -i  Done                     04/30/2018 16:48:35