     Program PWSCF v.5.1rc2 (svn rev. 11289) starts on  3May2018 at  4:48:51

     Current dimensions of program PWSCF are:
     Max number of different atomic species (ntypx) = 10
     Max number of k-points (npk) =  40000
     Max angular momentum in pseudopotentials (lmaxx) =  3
     Presently stress not available with electric field

     IMPORTANT: XC functional enforced from input :
     Exchange-correlation      = BEEF-VDW ( 1  4 27 13 2)
     Any further DFT definition will be discarded
     Please, verify this is what you really want

     Subspace diagonalization in iterative solution of the eigenvalue problem:
     a serial algorithm will be used

     bravais-lattice index     =            0
     lattice parameter (alat)  =       1.8897  a.u.
     unit-cell volume          =    4704.3541 (a.u.)^3
     number of atoms/cell      =           13
     number of atomic types    =            2
     number of electrons       =       173.00
     number of Kohn-Sham states=           96
     kinetic-energy cutoff     =      36.7493  Ry
     charge density cutoff     =     367.4932  Ry
     convergence threshold     =      1.0E-05
     mixing beta               =       0.3000
     number of iterations used =           10  plain     mixing
     Exchange-correlation      = BEEF-VDW ( 1  4 27 13 2)
     nstep                     =           50

     celldm(1)=   1.889726  celldm(2)=   0.000000  celldm(3)=   0.000000
     celldm(4)=   0.000000  celldm(5)=   0.000000  celldm(6)=   0.000000

     crystal axes: (cart. coord. in units of alat)
               a(1) = (   5.712816   0.000000   0.000000 )
               a(2) = (   2.856408   4.947444   0.000000 )
               a(3) = (   0.000000   0.000000  24.664495 )

     reciprocal axes: (cart. coord. in units 2 pi/alat)
               b(1) = (  0.175045 -0.101062  0.000000 )
               b(2) = (  0.000000  0.202125  0.000000 )
               b(3) = (  0.000000  0.000000  0.040544 )

     PseudoPot. # 1 for W  read from file:
     /u/if/mamunm/psp/gbrv1.5pbe/W.UPF
     MD5 check sum: 9c083fa34c2a2ea0f02f1f893e16e1c8
     Pseudo is Ultrasoft + core correction, Zval = 14.0
     Generated by new atomic code, or converted to UPF format
     Using radial grid of  923 points,  8 beta functions with:
                l(1) =   0
                l(2) =   0
                l(3) =   0
                l(4) =   1
                l(5) =   1
                l(6) =   2
                l(7) =   2
                l(8) =   3
     Q(r) pseudized with  6 coefficients,  rinner =    1.350   1.350   1.350
                                                       1.350   1.350   1.350
                                                       1.350

     PseudoPot. # 2 for N  read from file:
     /u/if/mamunm/psp/gbrv1.5pbe/N.UPF
     MD5 check sum: 95339753478d7afb44899504a8723017
     Pseudo is Ultrasoft + core correction, Zval =  5.0
     Generated by new atomic code, or converted to UPF format
     Using radial grid of  729 points,  4 beta functions with:
                l(1) =   0
                l(2) =   0
                l(3) =   1
                l(4) =   1
     Q(r) pseudized with  8 coefficients,  rinner =    0.900   0.900   0.900

     vdW kernel table read from file vdW_kernel_table
     MD5 check sum: 095c7af220d748ca6e76c0b4c6cfb241

     atomic species   valence    mass     pseudopotential
        W1            14.00   183.84000     W ( 1.00)
        N1             5.00    14.00700     N ( 1.00)

     No symmetry found

   Cartesian axes

     site n.     atom                  positions (alat units)
         1           W1  tau(   1) = (   1.4282041   0.8245740  10.0000000  )
         2           W1  tau(   2) = (   4.2846123   0.8245740  10.0000000  )
         3           W1  tau(   3) = (   2.8564082   3.2982961  10.0000000  )
         4           W1  tau(   4) = (   5.7128165   3.2982961  10.0000000  )
         5           W1  tau(   5) = (   5.7128165   1.6491481  12.3322476  )
         6           W1  tau(   6) = (   2.8564082   1.6491481  12.3322476  )
         7           W1  tau(   7) = (   7.1410206   4.1228701  12.3322476  )
         8           W1  tau(   8) = (   4.2846123   4.1228701  12.3322476  )
         9           W1  tau(   9) = (   0.0000000   0.0000000  14.6644951  )
        10           W1  tau(  10) = (   2.8564082   0.0000000  14.6644951  )
        11           W1  tau(  11) = (   1.4282041   2.4737221  14.6644951  )
        12           W1  tau(  12) = (   4.2846123   2.4737221  14.6644951  )
        13           N1  tau(  13) = (   1.4282041   0.8245740  16.1789951  )

     number of k points=    20  Fermi-Dirac smearing, width (Ry)=  0.0110
                       cart. coord. in units 2pi/alat
        k(    1) = (   0.0000000   0.0000000   0.0000000), wk =   0.0555556
        k(    2) = (   0.0000000   0.0336874   0.0000000), wk =   0.1111111
        k(    3) = (   0.0000000   0.0673749   0.0000000), wk =   0.1111111
        k(    4) = (   0.0000000  -0.1010623   0.0000000), wk =   0.0555556
        k(    5) = (   0.0291742  -0.0168437   0.0000000), wk =   0.1111111
        k(    6) = (   0.0291742   0.0168437   0.0000000), wk =   0.1111111
        k(    7) = (   0.0291742   0.0505311   0.0000000), wk =   0.1111111
        k(    8) = (   0.0291742  -0.1179060   0.0000000), wk =   0.1111111
        k(    9) = (   0.0291742  -0.0842186   0.0000000), wk =   0.1111111
        k(   10) = (   0.0291742  -0.0505311   0.0000000), wk =   0.1111111
        k(   11) = (   0.0583483  -0.0336874   0.0000000), wk =   0.1111111
        k(   12) = (   0.0583483  -0.0000000   0.0000000), wk =   0.1111111
        k(   13) = (   0.0583483   0.0336874   0.0000000), wk =   0.1111111
        k(   14) = (   0.0583483  -0.1347497   0.0000000), wk =   0.1111111
        k(   15) = (   0.0583483  -0.1010623   0.0000000), wk =   0.1111111
        k(   16) = (   0.0583483  -0.0673749   0.0000000), wk =   0.1111111
        k(   17) = (  -0.0875225   0.0505311   0.0000000), wk =   0.0555556
        k(   18) = (  -0.0875225   0.0842186   0.0000000), wk =   0.1111111
        k(   19) = (  -0.0875225   0.1179060   0.0000000), wk =   0.1111111
        k(   20) = (  -0.0875225  -0.0505311   0.0000000), wk =   0.0555556

     Largest allocated arrays     est. size (Mb)     dimensions
     Largest temporary arrays     est. size (Mb)     dimensions

     Initial potential from superposition of free atoms
     Check: negative starting charge=   -0.760411

     starting charge  171.79591, renormalised to  173.00000

     negative rho (up, down):  7.657E-01 0.000E+00

     *
     * You are using vdW-DF for exchange-correlation in this calculation.
     * Please cite the following three references that made this development
     * possible:
     *
     *   M. Dion, H. Rydberg, E. Schroder, D. C. Langreth, and
     *   B. I. Lundqvist, Phys. Rev. Lett. 92, 246401 (2004).
     *
     *   T. Thonhauser, V. R. Cooper, S. Li, A. Puzder, P. Hyldgaard, and
     *   D. C. Langreth, Phys. Rev. B 76, 125112 (2007).
     *
     *   G. Roman-Perez and J. M. Soler, Phys. Rev. Lett. 103, 096102 (2009).
     *
     *
     * If you are using vdW-DF2, please also cite:
     *
     *   K. Lee, E. D. Murray, L. Kong, B. I. Lundqvist, and
     *   D. C. Langreth, Phys. Rev. B 82, 081101(R) (2010).
     *
     *
     * If you are calculating the stress with vdW-DF, please also cite:
     *
     *   R. Sabatini, E. Kucukbenli, B. Kolb, T. Thonhauser, and
     *   S. de Gironcoli, J. Phys.: Condens. Matter 24, 424209 (2012).
     *

     Carrying out vdW-DF run using the following parameters:

     Nqs =      20    Nr_points =    1024   r_max =   100.000
     q_mesh =
               0.00001000     0.04494208     0.09755937     0.15916263
               0.23128650     0.31572767     0.41458969     0.53033537
               0.66584808     0.82450364     1.01025438     1.22772762
               1.48234092     1.78043706     2.12944203     2.53805004
               3.01644009     3.57652955     4.23227104     5.00000000

     Gradients computed in reciprocal space

     Adding external electric field

     Computed dipole along edir(3) :
        Dipole               -0.2547 Ry au,         -0.6473 Debye
        Dipole field         -0.0007 Ry au

        Potential amp.        0.0618 Ry
        Total length         45.4439 bohr

     Starting wfc are  160 randomized atomic wfcs

     Self-consistent Calculation

     iteration #  1     ecut=    36.75 Ry     beta=0.30
     Davidson diagonalization with overlap
     ethr =  1.00E-02,  avg # of iterations =  2.0

[...]

     total energy              =   -1943.43108944 Ry
     Harris-Foulkes estimate   =   -1945.49513242 Ry
     estimated scf accuracy    <       4.51728483 Ry

[...]

     End of self-consistent calculation

          k = 0.0000 0.0000 0.0000 ( 17753 PWs)   bands (ev):

   -72.1813 -72.1173 -72.1169 -72.0901 -72.0423 -71.9825 -71.9744 -71.9626
   -71.9622 -71.9291 -71.9283 -71.9178 -36.6904 -36.6653 -36.6652 -36.6285
   -36.6039 -36.6039 -36.6034 -36.4512 -36.4425 -36.4422 -36.2728 -36.1973
   -36.1969 -36.1947 -36.0724 -36.0719 -36.0658 -36.0151 -36.0150 -36.0123
   -35.8938 -35.8938 -35.8886 -35.8820 -35.8761 -35.8760 -35.8150 -35.7914
   -35.7914 -35.7493 -35.7490 -35.7461 -35.6947 -35.6947 -35.5701 -35.5701
   -11.1828  -5.9540  -4.1428  -3.4068  -2.8742  -2.8742  -2.8374  -2.8165
    -2.8165  -2.7188  -2.0755  -1.9984  -1.9983  -1.8704  -1.8703  -1.8196
    -0.7485  -0.7485  -0.5233   0.1900   0.1900   0.7236   0.8683   0.8914
     0.8915   1.0402   1.5202   1.5658   1.5659   1.7102   1.7104   1.7195
     1.9204   1.9205   1.9882   2.0941   2.0941   2.1392   2.2473   2.2474
     3.1084   3.1086   3.1557   3.6906   3.7992   3.8502   3.8503   4.3202

[...]

          k =-0.0875 0.0505 0.0000 ( 17668 PWs)   bands (ev):

[...]

     the Fermi energy is     2.1812 ev

!    total energy              =   -1945.09805312 Ry
     Harris-Foulkes estimate   =   -1945.09806897 Ry
     estimated scf accuracy    <       0.00000548 Ry

     The total energy is the sum of the following terms:

     one-electron contribution =  -15029.82610205 Ry
     hartree contribution      =    7498.71275407 Ry
     xc contribution           =    -515.67110558 Ry
     ewald contribution        =    6101.78178042 Ry
     electric field correction =       0.00010439 Ry
     smearing contrib. (-TS)   =      -0.09548439 Ry

     convergence has been achieved in  13 iterations

 BEEF-vdW xc energy contributions
           1 :   -453.612314298147
           2 :    419.580869181586
           3 :   -359.672767377739
           4 :    287.045080128033
           5 :   -215.367693230392
           6 :    154.861031210764
           7 :   -110.127289939629
           8 :    80.2667609811359
           9 :   -60.8546161747264
          10 :    46.6681157091471
          11 :   -33.9384115075161
          12 :    21.3270194929341
          13 :   -9.54351154451712
          14 :   0.134857761235025
          15 :    5.77913155680926
          16 :   -8.22128786683629
          17 :    8.31261826045488
          18 :   -7.64918458084463
          19 :    7.51290809370539
          20 :   -8.34185510694527
          21 :    9.69776743792215
          22 :   -10.6904602741239
          23 :    10.5852391686110
          24 :   -9.25269969548731
          25 :    7.23569214045494
          26 :   -5.43205207415360
          27 :    4.59293162268068
          28 :   -4.92244064652238
          29 :    5.99413180963199
          30 :   -7.01460690267209
          31 :   -41.1675531633603
          32 :   -30.8236333355266

     Forces acting on atoms (Ry/au):

     negative rho (up, down):  7.930E-01 0.000E+00
     atom    1 type  1   force =    -0.00000601   -0.00000300   -0.00351758
     atom    2 type  1   force =     0.00000194    0.00084705   -0.00546410
     atom    3 type  1   force =     0.00073231   -0.00042014   -0.00549790
     atom    4 type  1   force =    -0.00073108   -0.00041983   -0.00546974
     atom    5 type  1   force =     0.00305029   -0.00176771    0.00738177
     atom    6 type  1   force =    -0.00304618   -0.00176928    0.00739329
     atom    7 type  1   force =    -0.00001672    0.00001959    0.00639291
     atom    8 type  1   force =     0.00000555    0.00352158    0.00738639
     atom    9 type  1   force =     0.00932129    0.00538980    0.08090445
     atom   10 type  1   force =    -0.00933393    0.00538942    0.08089595
     atom   11 type  1   force =    -0.00000607   -0.01076914    0.08089890
     atom   12 type  1   force =     0.00001832   -0.00001129   -0.05168244
     atom   13 type  2   force =     0.00001029   -0.00000705   -0.19962188

     Total force =     0.250005     Total SCF correction =     0.007506

     entering subroutine stress ...

     negative rho (up, down):  7.930E-01 0.000E+00
          total   stress  (Ry/bohr**3)                   (kbar)     P=  -52.42
  -0.00043932  -0.00000000  -0.00000000        -64.63     -0.00     -0.00
  -0.00000000  -0.00043935  -0.00000000         -0.00    -64.63     -0.00
  -0.00000000  -0.00000000  -0.00019042         -0.00     -0.00    -28.01

     BFGS Geometry Optimization

     number of scf cycles    =   1
     number of bfgs steps    =   0

     energy   new            =   -1945.0980531249 Ry

     new trust radius        =       0.1996218810 bohr
     new conv_thr            =       0.0000099958 Ry

ATOMIC_POSITIONS (crystal)
W1       0.166666667   0.166666667   0.405441099    0   0   0
W1       0.666666667   0.166666667   0.405441099    0   0   0
W1       0.166666667   0.666666667   0.405441099    0   0   0
W1       0.666666667   0.666666667   0.405441099    0   0   0
W1       0.833333333   0.333333333   0.500000000    0   0   0
W1       0.333333333   0.333333333   0.500000000    0   0   0
W1       0.833333333   0.833333333   0.500000000    0   0   0
W1       0.333333333   0.833333333   0.500000000    0   0   0
W1       0.000575184   0.000576492   0.596294707
W1       0.498847175   0.000576451   0.596294525
W1       0.000575370   0.498848136   0.596294588
W1       0.500002301   0.499998792   0.593450053
N1       0.166667997   0.166665912   0.651680064

     Writing output data file calc.save
     Check: negative starting charge=   -0.760411
     NEW-OLD atomic charge density approx. for the potential
     Check: negative starting charge=   -0.760897

[...]

     energy   old            =   -1945.0980531249 Ry
     energy   new            =   -1945.1538045820 Ry

     CASE: energy  _new < energy  _old

[...]

     iteration #  1     ecut=    36.75 Ry     beta=0.30
     Davidson diagonalization with overlap
     c_bands:  1 eigenvalues not converged
     ethr =  1.00E-06,  avg # of iterations = 14.8

[...]

     Threshold (ethr) on eigenvalues was too large:
     Diagonalizing with lowered threshold

     Davidson diagonalization with overlap
     ethr =  1.21E-08,  avg # of iterations =  4.7

[...]

     Total force =     0.004890     Total SCF correction =     0.000144

[...]

     number of scf cycles    =  11
     number of bfgs steps    =  10

     energy   old            =   -1945.2182214950 Ry
     energy   new            =   -1945.2182550833 Ry

     CASE: energy  _new < energy  _old

     new trust radius        =       0.0092848264 bohr
     new conv_thr            =       0.0000001000 Ry

ATOMIC_POSITIONS (crystal)
W1       0.166666667   0.166666667   0.405441099    0   0   0
W1       0.666666667   0.166666667   0.405441099    0   0   0
W1       0.166666667   0.666666667   0.405441099    0   0   0
W1       0.666666667   0.666666667   0.405441099    0   0   0
W1       0.833333333   0.333333333   0.500000000    0   0   0
W1       0.333333333   0.333333333   0.500000000    0   0   0
W1       0.833333333   0.833333333   0.500000000    0   0   0
W1       0.333333333   0.833333333   0.500000000    0   0   0
W1      -0.002562970  -0.002564331   0.597182257
W1       0.505126492  -0.002563331   0.597182071
W1      -0.002563084   0.505127385   0.597182262
W1       0.500000143   0.500000210   0.583059018
N1       0.166667370   0.166666283   0.640144773

     Writing output data file calc.save
     Check: negative starting charge=   -0.759136
     NEW-OLD atomic charge density approx. for the potential
     Check: negative starting charge=   -0.759093

[...]

     Self-consistent Calculation

[...]

     Threshold (ethr) on eigenvalues was too large:
     Diagonalizing with lowered threshold

     Davidson diagonalization with overlap
     ethr =  3.00E-08,  avg # of iterations =  3.0

[...]

     total energy              =   -1945.21829262 Ry
     Harris-Foulkes estimate   =   -1945.21829264 Ry
     estimated scf accuracy    <       0.00000032 Ry

     iteration #  8     ecut=    36.75 Ry     beta=0.30
     Davidson diagonalization with overlap
     ethr =  1.84E-10,  avg # of iterations =  3.3

[...]

     negative rho (up, down):  7.927E-01 0.000E+00

     Adding external electric field

     Computed dipole along edir(3) :
        Dipole                0.0205 Ry au,          0.0520 Debye
        Dipole field          0.0001 Ry au

        Potential amp.       -0.0050 Ry
        Total length         45.4439 bohr

     End of self-consistent calculation

[...]

          k = 0.0583-0.0674 0.0000 ( 17692 PWs)   bands (ev):

[...]

          k =-0.0875-0.0505 0.0000 ( 17668 PWs)   bands (ev):

   -71.9460 -71.9273 -71.9092 -71.7940 -71.6798 -71.6686 -71.6489 -71.6397
   -71.6311 -71.6137 -71.6012 -71.5713 -36.4336 -36.2683 -36.2557 -36.2500
   -36.2117 -36.1892 -36.1237 -36.0697 -36.0471 -36.0411 -36.0149 -35.9868
   -35.9849 -35.9676 -35.9539 -35.8419 -35.8077 -35.7953 -35.7582 -35.7270
   -35.7186 -35.7032 -35.6954 -35.6676 -35.6629 -35.6302 -35.6132 -35.5857
   -35.5725 -35.5271 -35.4925 -35.4109 -35.3941 -35.3674 -35.3264 -35.3100
   -12.5016  -4.0855  -3.7843  -3.0631  -2.6012  -2.3832  -2.1342  -1.8238
    -1.5590  -1.4799  -1.4286  -1.4239  -1.2640  -0.7207  -0.6963  -0.4986
    -0.3606  -0.3008  -0.1877  -0.0226   0.1975   0.2977   0.3611   0.4313
     0.6107   0.6243   0.8190   1.0355   1.1992   1.2851   1.3796   1.3891
     1.4711   1.5636   1.6693   1.9916   2.0332   2.0712   2.3090   2.4884
     2.6093   2.8586   3.1568   3.3314   3.4433   3.5185   3.6410   3.6940

     the Fermi energy is     2.4849 ev

!    total energy              =   -1945.21829265 Ry
     Harris-Foulkes estimate   =   -1945.21829270 Ry
     estimated scf accuracy    <       0.00000007 Ry

     The total energy is the sum of the following terms:

     one-electron contribution =  -15175.01905143 Ry
     hartree contribution      =    7572.64463669 Ry
     xc contribution           =    -516.10826055 Ry
     ewald contribution        =    6173.35155791 Ry
     electric field correction =       0.00000112 Ry
     smearing contrib. (-TS)   =      -0.08717638 Ry

     convergence has been achieved in   8 iterations

 BEEF-vdW xc energy contributions
           1 :   -454.050210000702
           2 :    420.118818737118
           3 :   -360.321370537911
           4 :    287.715294976546
           5 :   -215.920128116821
           6 :    155.167981003716
           7 :   -110.125197156313
           8 :    79.9829701941038
           9 :   -60.3994081920189
          10 :    46.1932429120745
          11 :   -33.5765289344225
          12 :    21.1388781390039
          13 :   -9.50038826965300
          14 :   0.145030845261317
          15 :    5.81563511210794
          16 :   -8.35812902911385
          17 :    8.52996360021251
          18 :   -7.86811104819196
          19 :    7.64201147939531
          20 :   -8.32891860455794
          21 :    9.55937088904915
          22 :   -10.5060857612577
          23 :    10.4602425651770
          24 :   -9.26938572767170
          25 :    7.41581176122520
          26 :   -5.72666602962312
          27 :    4.90414406918302
          28 :   -5.14782863015313
          29 :    6.07267370194324
          30 :   -6.95263417319012
          31 :   -41.1932123003126
          32 :   -30.8686867270633

     Forces acting on atoms (Ry/au):

     negative rho (up, down):  7.927E-01 0.000E+00
     atom    1 type  1   force =    -0.00000178    0.00000137    0.00629286
     atom    2 type  1   force =     0.00000169    0.00024871   -0.00560876
     atom    3 type  1   force =     0.00021533   -0.00012466   -0.00560956
     atom    4 type  1   force =    -0.00021443   -0.00012614   -0.00560923
     atom    5 type  1   force =     0.02537117   -0.01464709   -0.00329114
     atom    6 type  1   force =    -0.02537124   -0.01463971   -0.00329825
     atom    7 type  1   force =     0.00000414   -0.00000285    0.02287027
     atom    8 type  1   force =    -0.00000636    0.02929133   -0.00329967
     atom    9 type  1   force =    -0.00157768   -0.00090901   -0.00083353
     atom   10 type  1   force =     0.00158094   -0.00091234   -0.00083059
     atom   11 type  1   force =    -0.00000116    0.00182007   -0.00083420
     atom   12 type  1   force =     0.00000044   -0.00000055    0.00072381
     atom   13 type  2   force =    -0.00000106    0.00000085   -0.00067200

     Total force =     0.003608     Total SCF correction =     0.000389
     SCF correction compared to forces is large: reduce conv_thr to get better values

     entering subroutine stress ...

     negative rho (up, down):  7.927E-01 0.000E+00
          total   stress  (Ry/bohr**3)                   (kbar)     P=  -34.25
  -0.00031126  -0.00000000   0.00000000        -45.79     -0.00      0.00
  -0.00000000  -0.00031126  -0.00000000         -0.00    -45.79     -0.00
   0.00000000  -0.00000000  -0.00007589          0.00     -0.00    -11.16

     bfgs converged in  12 scf cycles and  11 bfgs steps
     (criteria: energy <  1.0E+00, force <  1.9E-03)

     End of BFGS Geometry Optimization

     Final energy   =   -1945.2182926453 Ry
Begin final coordinates

ATOMIC_POSITIONS (crystal)
W1       0.166666667   0.166666667   0.405441099    0   0   0
W1       0.666666667   0.166666667   0.405441099    0   0   0
W1       0.166666667   0.666666667   0.405441099    0   0   0
W1       0.666666667   0.666666667   0.405441099    0   0   0
W1       0.833333333   0.333333333   0.500000000    0   0   0
W1       0.333333333   0.333333333   0.500000000    0   0   0
W1       0.833333333   0.833333333   0.500000000    0   0   0
W1       0.333333333   0.833333333   0.500000000    0   0   0
W1      -0.002562970  -0.002564331   0.597182257
W1       0.505126492  -0.002563331   0.597182071
W1      -0.002563084   0.505127385   0.597182262
W1       0.500000143   0.500000210   0.583059018
N1       0.166667370   0.166666283   0.640144773
End final coordinates

     Writing output data file calc.save

     General routines

     Parallel routines

   This run was terminated on:   6:35: 2   3May2018

   JOB DONE.
Job  /afs/slac/g/suncat/bin/suncat-tsmpirun -x LD_LIBRARY_PATH -wdir /scratch/qe617448_uR799 pw.x -npool 4 -in pw.inp

TID   HOST_NAME   COMMAND_LINE            STATUS            TERMINATION_TIME
00000 suncat0002 pw.x -npool 4 -i  Done                     05/03/2018 06:35:02
00001 suncat0002 pw.x -npool 4 -i  Done                     05/03/2018 06:35:02
00002 suncat0002 pw.x -npool 4 -i  Done                     05/03/2018 06:35:02
00003 suncat0002 pw.x -npool 4 -i  Done                     05/03/2018 06:35:02
00004 suncat0002 pw.x -npool 4 -i  Done                     05/03/2018 06:35:02
00005 suncat0002 pw.x -npool 4 -i  Done                     05/03/2018 06:35:02
00006 suncat0002 pw.x -npool 4 -i  Done                     05/03/2018 06:35:02
00007 suncat0002 pw.x -npool 4 -i  Done                     05/03/2018 06:35:02
00008 suncat0185 pw.x -npool 4 -i  Done                     05/03/2018 06:35:02
00009 suncat0185 pw.x -npool 4 -i  Done                     05/03/2018 06:35:02
00010 suncat0185 pw.x -npool 4 -i  Done                     05/03/2018 06:35:02
00011 suncat0185 pw.x -npool 4 -i  Done                     05/03/2018 06:35:02
00012 suncat0185 pw.x -npool 4 -i  Done                     05/03/2018 06:35:02
00013 suncat0185 pw.x -npool 4 -i  Done                     05/03/2018 06:35:02
00014 suncat0185 pw.x -npool 4 -i  Done                     05/03/2018 06:35:02
00015 suncat0185 pw.x -npool 4 -i  Done                     05/03/2018 06:35:02
00016 suncat0227 pw.x -npool 4 -i  Done                     05/03/2018 06:35:02
00017 suncat0227 pw.x -npool 4 -i  Done                     05/03/2018 06:35:02
00018 suncat0227 pw.x -npool 4 -i  Done                     05/03/2018 06:35:02
00019 suncat0227 pw.x -npool 4 -i  Done                     05/03/2018 06:35:02
00020 suncat0227 pw.x -npool 4 -i  Done                     05/03/2018 06:35:02
00021 suncat0227 pw.x -npool 4 -i  Done                     05/03/2018 06:35:02
00022 suncat0227 pw.x -npool 4 -i  Done                     05/03/2018 06:35:02
00023 suncat0227 pw.x -npool 4 -i  Done                     05/03/2018 06:35:02
00024 suncat0226 pw.x -npool 4 -i  Done                     05/03/2018 06:35:02
00025 suncat0226 pw.x -npool 4 -i  Done                     05/03/2018 06:35:02
00026 suncat0226 pw.x -npool 4 -i  Done                     05/03/2018 06:35:02
00027 suncat0226 pw.x -npool 4 -i  Done                     05/03/2018 06:35:02
00028 suncat0226 pw.x -npool 4 -i  Done                     05/03/2018 06:35:02
00029 suncat0226 pw.x -npool 4 -i  Done                     05/03/2018 06:35:02
00030 suncat0226 pw.x -npool 4 -i  Done                     05/03/2018 06:35:02
00031 suncat0226 pw.x -npool 4 -i  Done                     05/03/2018 06:35:02