     Program PWSCF v.5.1rc2 (svn rev. 11289) starts on 15Jan2018 at 18:23:59

     Current dimensions of program PWSCF are:
     Max number of different atomic species (ntypx) = 10
     Max number of k-points (npk) =  40000
     Max angular momentum in pseudopotentials (lmaxx) =  3
     Presently stress not available with electric field

     IMPORTANT: XC functional enforced from input :
     Exchange-correlation      = BEEF-VDW ( 1  4 27 13 2)
     Any further DFT definition will be discarded
     Please, verify this is what you really want

     Subspace diagonalization in iterative solution of the eigenvalue problem:
     a serial algorithm will be used

     bravais-lattice index     =            0
     lattice parameter (alat)  =       1.8897  a.u.
     unit-cell volume          =    4299.0717 (a.u.)^3
     number of atoms/cell      =           13
     number of atomic types    =            2
     number of electrons       =       186.00
     number of Kohn-Sham states=          103
     kinetic-energy cutoff     =      36.7493  Ry
     charge density cutoff     =     367.4932  Ry
     convergence threshold     =      1.0E-05
     mixing beta               =       0.3000
     number of iterations used =           10  plain     mixing
     Exchange-correlation      = BEEF-VDW ( 1  4 27 13 2)
     nstep                     =           50

     celldm(1)=   1.889726  celldm(2)=   0.000000  celldm(3)=   0.000000
     celldm(4)=   0.000000  celldm(5)=   0.000000  celldm(6)=   0.000000

     crystal axes: (cart. coord. in units of alat)
               a(1) = (   5.482164   0.000000   0.000000 )
               a(2) = (   2.741082   4.747693   0.000000 )
               a(3) = (   0.000000   0.000000  24.476168 )

     reciprocal axes: (cart. coord. in units 2 pi/alat)
               b(1) = (  0.182410 -0.105314  0.000000 )
               b(2) = (  0.000000  0.210629  0.000000 )
               b(3) = (  0.000000  0.000000  0.040856 )

     PseudoPot. # 1 for Ir read from file:
     /afs/slac.stanford.edu/u/if/mamunm/psp/gbrv1.5pbe/Ir.UPF
     MD5 check sum: 8836f839c3459d2b385c504ce6d91f2c
     Pseudo is Ultrasoft + core correction, Zval = 15.0
     Generated by new atomic code, or converted to UPF format
     Using radial grid of  983 points,  7 beta functions with:
                l(1) =   0
                l(2) =   0
                l(3) =   1
                l(4) =   1
                l(5) =   1
                l(6) =   2
                l(7) =   2
     Q(r) pseudized with  8 coefficients,  rinner =    1.400   1.400   1.400
                                                       1.400   1.400

     PseudoPot. # 2 for S  read from file:
     /afs/slac.stanford.edu/u/if/mamunm/psp/gbrv1.5pbe/S.UPF
     MD5 check sum: 88d86576ff6df21479756cfb9bdac1df
     Pseudo is Ultrasoft + core correction, Zval =  6.0
     Generated by new atomic code, or converted to UPF format
     Using radial grid of  907 points,  6 beta functions with:
                l(1) =   0
                l(2) =   0
                l(3) =   1
                l(4) =   1
                l(5) =   2
                l(6) =   2
     Q(r) pseudized with  8 coefficients,  rinner =    1.300   1.300   1.300
                                                       1.300   1.300

     vdW kernel table read from file vdW_kernel_table
     MD5 check sum: 095c7af220d748ca6e76c0b4c6cfb241

     atomic species   valence    mass     pseudopotential
        Ir1           15.00   192.21700     Ir( 1.00)
        S1             6.00    32.06000     S ( 1.00)

     No symmetry found

   Cartesian axes

     site n.     atom                  positions (alat units)
         1           Ir1 tau(   1) = (   1.3705410   0.7912822  10.0000000  )
         2           Ir1 tau(   2) = (   4.1116229   0.7912822  10.0000000  )
         3           Ir1 tau(   3) = (   2.7410819   3.1651288  10.0000000  )
         4           Ir1 tau(   4) = (   5.4821639   3.1651288  10.0000000  )
         5           Ir1 tau(   5) = (   5.4821639   1.5825644  12.2380840  )
         6           Ir1 tau(   6) = (   2.7410819   1.5825644  12.2380840  )
         7           Ir1 tau(   7) = (   6.8527049   3.9564110  12.2380840  )
         8           Ir1 tau(   8) = (   4.1116229   3.9564110  12.2380840  )
         9           Ir1 tau(   9) = (   0.0000000   0.0000000  14.4761681  )
        10           Ir1 tau(  10) = (   2.7410819   0.0000000  14.4761681  )
        11           Ir1 tau(  11) = (   1.3705410   2.3738466  14.4761681  )
        12           Ir1 tau(  12) = (   4.1116229   2.3738466  14.4761681  )
        13           S1  tau(  13) = (   0.0000000   0.0000000  16.9361681  )

     number of k points=    20  Fermi-Dirac smearing, width (Ry)=  0.0110
                       cart. coord. in units 2pi/alat
        k(    1) = (   0.0000000   0.0000000   0.0000000), wk =   0.0555556
        k(    2) = (   0.0000000   0.0351048   0.0000000), wk =   0.1111111
        k(    3) = (   0.0000000   0.0702095   0.0000000), wk =   0.1111111
        k(    4) = (   0.0000000  -0.1053143   0.0000000), wk =   0.0555556
        k(    5) = (   0.0304016  -0.0175524   0.0000000), wk =   0.1111111
        k(    6) = (   0.0304016   0.0175524   0.0000000), wk =   0.1111111
        k(    7) = (   0.0304016   0.0526572   0.0000000), wk =   0.1111111
        k(    8) = (   0.0304016  -0.1228667   0.0000000), wk =   0.1111111
        k(    9) = (   0.0304016  -0.0877619   0.0000000), wk =   0.1111111
        k(   10) = (   0.0304016  -0.0526572   0.0000000), wk =   0.1111111
        k(   11) = (   0.0608032  -0.0351048   0.0000000), wk =   0.1111111
        k(   12) = (   0.0608032   0.0000000   0.0000000), wk =   0.1111111
        k(   13) = (   0.0608032   0.0351048   0.0000000), wk =   0.1111111
        k(   14) = (   0.0608032  -0.1404191   0.0000000), wk =   0.1111111
        k(   15) = (   0.0608032  -0.1053143   0.0000000), wk =   0.1111111
        k(   16) = (   0.0608032  -0.0702095   0.0000000), wk =   0.1111111
        k(   17) = (  -0.0912049   0.0526572   0.0000000), wk =   0.0555556
        k(   18) = (  -0.0912049   0.0877619   0.0000000), wk =   0.1111111
        k(   19) = (  -0.0912049   0.1228667   0.0000000), wk =   0.1111111
        k(   20) = (  -0.0912049  -0.0526572   0.0000000), wk =   0.0555556

     Largest allocated arrays     est. size (Mb)     dimensions
     Largest temporary arrays     est. size (Mb)     dimensions

     Initial potential from superposition of free atoms
     Check: negative starting charge=   -4.361340

     starting charge  179.99958, renormalised to  186.00000

     negative rho (up, down):  4.507E+00 0.000E+00

     *
     * You are using vdW-DF for exchange-correlation in this calculation.
     * Please cite the following three references that made this development
     * possible:
     *
     *   M. Dion, H. Rydberg, E. Schroder, D. C. Langreth, and
     *   B. I. Lundqvist, Phys. Rev. Lett. 92, 246401 (2004).
     *
     *   T. Thonhauser, V. R. Cooper, S. Li, A. Puzder, P. Hyldgaard, and
     *   D. C. Langreth, Phys. Rev. B 76, 125112 (2007).
     *
     *   G. Roman-Perez and J. M. Soler, Phys. Rev. Lett. 103, 096102 (2009).
     *
     *
     * If you are using vdW-DF2, please also cite:
     *
     *   K. Lee, E. D. Murray, L. Kong, B. I. Lundqvist, and
     *   D. C. Langreth, Phys. Rev. B 82, 081101(R) (2010).
     *
     *
     * If you are calculating the stress with vdW-DF, please also cite:
     *
     *   R. Sabatini, E. Kucukbenli, B. Kolb, T. Thonhauser, and
     *   S. de Gironcoli, J. Phys.: Condens. Matter 24, 424209 (2012).
     *

     Carrying out vdW-DF run using the following parameters:

     Nqs =      20    Nr_points =    1024   r_max =   100.000
     q_mesh =
               0.00001000     0.04494208     0.09755937     0.15916263
               0.23128650     0.31572767     0.41458969     0.53033537
               0.66584808     0.82450364     1.01025438     1.22772762
               1.48234092     1.78043706     2.12944203     2.53805004
               3.01644009     3.57652955     4.23227104     5.00000000

     Gradients computed in reciprocal space

     Adding external electric field

     Computed dipole along edir(3) :
        Dipole               -1.7754 Ry au,         -4.5126 Debye
        Dipole field         -0.0052 Ry au

        Potential amp.        0.4681 Ry
        Total length         45.0969 bohr

     Starting wfc are  148 randomized atomic wfcs

     Self-consistent Calculation

     iteration #  1     ecut=    36.75 Ry     beta=0.30
     Davidson diagonalization with overlap
     ethr =  1.00E-02,  avg # of iterations =  2.1

[...]

     total energy              =   -2189.56947234 Ry
     Harris-Foulkes estimate   =   -2226.80109427 Ry
     estimated scf accuracy    <      78.21295022 Ry

     iteration #  2     ecut=    36.75 Ry     beta=0.30
     Davidson diagonalization with overlap
     c_bands:  1 eigenvalues not converged
     ethr =  1.00E-02,  avg # of iterations = 16.2

[...]

     End of self-consistent calculation

          k = 0.0000 0.0000 0.0000 ( 16073 PWs)   bands (ev):

   -47.6868 -47.6701 -47.6696 -47.5575 -47.4793 -47.4786 -47.4259 -47.2742
   -47.2685 -47.2682 -47.2432 -47.2429 -47.1762 -47.1368 -47.1264 -47.1263
   -47.0850 -47.0850 -47.0724 -46.8296 -46.8296 -46.7615 -46.7379 -46.7174
   -46.7173 -46.7080 -46.7078 -46.7065 -46.6881 -46.6752 -46.6750 -46.6338
   -46.6337 -46.6149 -46.5934 -46.5934  -9.0121  -7.0423  -5.1419  -4.8024
    -4.4955  -4.4913  -4.4912  -4.1960  -4.1915  -4.1913  -3.7091  -3.7090
    -3.6885  -3.4091  -3.4091  -3.3922  -2.0189  -2.0189  -1.9080  -1.4766
    -1.3891  -1.3891  -1.2412  -1.0323  -1.0323  -1.0222  -0.5774  -0.5773
    -0.5361  -0.5360  -0.5205  -0.4339  -0.2657  -0.2657   0.0454   0.0454
     0.7437   0.7972   0.7973   1.3268   1.3269   1.3542   1.3955   1.4210
     1.4210   1.9935   2.0478   2.0478   2.1934   2.1934   2.7634   2.7635
     2.8552   2.8593   2.8595   2.8640   3.0431   3.0431   3.3765   3.3836
     3.3839   3.6269   3.8337   3.8338   3.9046   3.9068   3.9068

[...]

          k =-0.0912 0.0527 0.0000 ( 16164 PWs)   bands (ev):

[...]

     the Fermi energy is     2.4364 ev

!    total energy              =   -2224.15504333 Ry
     Harris-Foulkes estimate   =   -2224.15507136 Ry
     estimated scf accuracy    <       0.00000612 Ry

     The total energy is the sum of the following terms:

     one-electron contribution =  -18644.23711601 Ry
     hartree contribution      =    9354.30099742 Ry
     xc contribution           =    -632.16941105 Ry
     ewald contribution        =    7698.05435006 Ry
     electric field correction =       0.00009897 Ry
     smearing contrib. (-TS)   =      -0.10396271 Ry

     convergence has been achieved in  19 iterations

 BEEF-vdW xc energy contributions
           1 :   -559.629725987488
           2 :    520.208463898171
           3 :   -449.823389972881
           4 :    362.418103994469
           5 :   -273.228203836802
           6 :    194.876458396271
           7 :   -134.733283666601
           8 :    94.1213792768632
           9 :   -69.3882135590908
[...]

[...]

   This run was terminated on:  20: 4:20  15Jan2018

[...]

     Program PWSCF v.5.1rc2 (svn rev. 11289) starts on 15Jan2018 at 20: 4:26

[...]

     Total force =     0.046650     Total SCF correction =     0.013130
     SCF correction compared to forces is large: reduce conv_thr to get better values

[...]

     Program PWSCF v.5.1rc2 (svn rev. 11289) starts on 15Jan2018 at 20:18:59

     Current dimensions of program PWSCF are:
     Max number of different atomic species (ntypx) = 10
     Max number of k-points (npk) =  40000
     Max angular momentum in pseudopotentials (lmaxx) =  3
     Presently stress not available with electric field

     IMPORTANT: XC functional enforced from input :
     Exchange-correlation      = BEEF-VDW ( 1  4 27 13 2)
     Any further DFT definition will be discarded
     Please, verify this is what you really want

     Subspace diagonalization in iterative solution of the eigenvalue problem:
     a serial algorithm will be used

     bravais-lattice index     =            0
     lattice parameter (alat)  =       1.8897  a.u.
     unit-cell volume          =    4299.0717 (a.u.)^3
     number of atoms/cell      =           13
     number of atomic types    =            2
     number of electrons       =       186.00
     number of Kohn-Sham states=          103
     kinetic-energy cutoff     =      36.7493  Ry
     charge density cutoff     =     367.4932  Ry
     convergence threshold     =      1.0E-05
     mixing beta               =       0.3000
     number of iterations used =           10  plain     mixing
     Exchange-correlation      = BEEF-VDW ( 1  4 27 13 2)
     nstep                     =           50

     celldm(1)=   1.889726  celldm(2)=   0.000000  celldm(3)=   0.000000
     celldm(4)=   0.000000  celldm(5)=   0.000000  celldm(6)=   0.000000

     crystal axes: (cart. coord. in units of alat)
               a(1) = (   5.482164   0.000000   0.000000 )
               a(2) = (   2.741082   4.747693   0.000000 )
               a(3) = (   0.000000   0.000000  24.476168 )

     reciprocal axes: (cart. coord. in units 2 pi/alat)
               b(1) = (  0.182410 -0.105314  0.000000 )
               b(2) = (  0.000000  0.210629  0.000000 )
               b(3) = (  0.000000  0.000000  0.040856 )

     PseudoPot. # 1 for Ir read from file:
     /afs/slac.stanford.edu/u/if/mamunm/psp/gbrv1.5pbe/Ir.UPF
     MD5 check sum: 8836f839c3459d2b385c504ce6d91f2c
     Pseudo is Ultrasoft + core correction, Zval = 15.0
     Generated by new atomic code, or converted to UPF format
     Using radial grid of  983 points,  7 beta functions with:
                l(1) =   0
                l(2) =   0
                l(3) =   1
                l(4) =   1
                l(5) =   1
                l(6) =   2
                l(7) =   2
     Q(r) pseudized with  8 coefficients,  rinner =    1.400   1.400   1.400
                                                       1.400   1.400

     PseudoPot. # 2 for S  read from file:
     /afs/slac.stanford.edu/u/if/mamunm/psp/gbrv1.5pbe/S.UPF
     MD5 check sum: 88d86576ff6df21479756cfb9bdac1df
     Pseudo is Ultrasoft + core correction, Zval =  6.0
     Generated by new atomic code, or converted to UPF format
     Using radial grid of  907 points,  6 beta functions with:
                l(1) =   0
                l(2) =   0
                l(3) =   1
                l(4) =   1
                l(5) =   2
                l(6) =   2
     Q(r) pseudized with  8 coefficients,  rinner =    1.300   1.300   1.300
                                                       1.300   1.300

     vdW kernel table read from file vdW_kernel_table
     MD5 check sum: 095c7af220d748ca6e76c0b4c6cfb241

     atomic species   valence    mass     pseudopotential
        Ir1           15.00   192.21700     Ir( 1.00)
        S1             6.00    32.06000     S ( 1.00)

     No symmetry found

   Cartesian axes

     site n.     atom                  positions (alat units)
         1           Ir1 tau(   1) = (   1.3705410   0.7912822  10.0000000  )
         2           Ir1 tau(   2) = (   4.1116229   0.7912822  10.0000000  )
         3           Ir1 tau(   3) = (   2.7410819   3.1651288  10.0000000  )
         4           Ir1 tau(   4) = (   5.4821639   3.1651288  10.0000000  )
         5           Ir1 tau(   5) = (   5.4821639   1.5825644  12.2380840  )
         6           Ir1 tau(   6) = (   2.7410819   1.5825644  12.2380840  )
         7           Ir1 tau(   7) = (   6.8527049   3.9564110  12.2380840  )
         8           Ir1 tau(   8) = (   4.1116229   3.9564110  12.2380840  )
         9           Ir1 tau(   9) = (   2.7410502   4.7475425  14.4677805  )
        10           Ir1 tau(  10) = (   5.4822179   4.7393220  14.4086024  )
        11           Ir1 tau(  11) = (   6.8455407   2.3781325  14.4085309  )
        12           Ir1 tau(  12) = (   4.1188322   2.3780985  14.4085033  )
        13           S1  tau(  13) = (   8.2232059   4.7476785  16.6405793  )

     number of k points=    20  Fermi-Dirac smearing, width (Ry)=  0.0110
                       cart. coord. in units 2pi/alat
        k(    1) = (   0.0000000   0.0000000   0.0000000), wk =   0.0555556
        k(    2) = (   0.0000000   0.0351048   0.0000000), wk =   0.1111111
        k(    3) = (   0.0000000   0.0702095   0.0000000), wk =   0.1111111
        k(    4) = (   0.0000000  -0.1053143   0.0000000), wk =   0.0555556
        k(    5) = (   0.0304016  -0.0175524   0.0000000), wk =   0.1111111
        k(    6) = (   0.0304016   0.0175524   0.0000000), wk =   0.1111111
        k(    7) = (   0.0304016   0.0526572   0.0000000), wk =   0.1111111
        k(    8) = (   0.0304016  -0.1228667   0.0000000), wk =   0.1111111
        k(    9) = (   0.0304016  -0.0877619   0.0000000), wk =   0.1111111
        k(   10) = (   0.0304016  -0.0526572   0.0000000), wk =   0.1111111
        k(   11) = (   0.0608032  -0.0351048   0.0000000), wk =   0.1111111
        k(   12) = (   0.0608032   0.0000000   0.0000000), wk =   0.1111111
        k(   13) = (   0.0608032   0.0351048   0.0000000), wk =   0.1111111
        k(   14) = (   0.0608032  -0.1404191   0.0000000), wk =   0.1111111
        k(   15) = (   0.0608032  -0.1053143   0.0000000), wk =   0.1111111
        k(   16) = (   0.0608032  -0.0702095   0.0000000), wk =   0.1111111
        k(   17) = (  -0.0912049   0.0526572   0.0000000), wk =   0.0555556
        k(   18) = (  -0.0912049   0.0877619   0.0000000), wk =   0.1111111
        k(   19) = (  -0.0912049   0.1228667   0.0000000), wk =   0.1111111
        k(   20) = (  -0.0912049  -0.0526572   0.0000000), wk =   0.0555556

     Largest allocated arrays     est. size (Mb)     dimensions
     Largest temporary arrays     est. size (Mb)     dimensions

     Initial potential from superposition of free atoms
     Check: negative starting charge=   -4.361488

     starting charge  179.99958, renormalised to  186.00000

[...]

     *
     * You are using vdW-DF for exchange-correlation in this calculation.
     * Please cite the following three references that made this development
     * possible:
     *
     *   M. Dion, H. Rydberg, E. Schroder, D. C. Langreth, and
     *   B. I. Lundqvist, Phys. Rev. Lett. 92, 246401 (2004).
     *
     *   T. Thonhauser, V. R. Cooper, S. Li, A. Puzder, P. Hyldgaard, and
     *   D. C. Langreth, Phys. Rev. B 76, 125112 (2007).
     *
     *   G. Roman-Perez and J. M. Soler, Phys. Rev. Lett. 103, 096102 (2009).
     *
     *
     * If you are using vdW-DF2, please also cite:
     *
     *   K. Lee, E. D. Murray, L. Kong, B. I. Lundqvist, and
     *   D. C. Langreth, Phys. Rev. B 82, 081101(R) (2010).
     *
     *
     * If you are calculating the stress with vdW-DF, please also cite:
     *
     *   R. Sabatini, E. Kucukbenli, B. Kolb, T. Thonhauser, and
     *   S. de Gironcoli, J. Phys.: Condens. Matter 24, 424209 (2012).
     *

     Carrying out vdW-DF run using the following parameters:

     Nqs =      20    Nr_points =    1024   r_max =   100.000
     q_mesh =
               0.00001000     0.04494208     0.09755937     0.15916263
               0.23128650     0.31572767     0.41458969     0.53033537
               0.66584808     0.82450364     1.01025438     1.22772762
               1.48234092     1.78043706     2.12944203     2.53805004
               3.01644009     3.57652955     4.23227104     5.00000000

     Gradients computed in reciprocal space

[...]

     Starting wfc are  148 randomized atomic wfcs

     Self-consistent Calculation

[...]

     iteration #  2     ecut=    36.75 Ry     beta=0.30
     Davidson diagonalization with overlap
     c_bands:  1 eigenvalues not converged
     ethr =  1.00E-02,  avg # of iterations = 16.4

[...]

     total energy              =   -2224.19433220 Ry
     Harris-Foulkes estimate   =   -2224.19433526 Ry
     estimated scf accuracy    <       0.00004288 Ry

     iteration # 21     ecut=    36.75 Ry     beta=0.30
     Davidson diagonalization with overlap
     ethr =  1.99E-08,  avg # of iterations =  1.6

[...]

     negative rho (up, down):  3.881E+00 0.000E+00

     Adding external electric field

     Computed dipole along edir(3) :
        Dipole               -0.0717 Ry au,         -0.1821 Debye
        Dipole field         -0.0002 Ry au

        Potential amp.        0.0189 Ry
        Total length         45.0969 bohr

     End of self-consistent calculation

[...]

          k = 0.0608-0.0702 0.0000 ( 16191 PWs)   bands (ev):

[...]

          k =-0.0912-0.0527 0.0000 ( 16164 PWs)   bands (ev):

   -47.4901 -47.4082 -47.4079 -47.3566 -47.3371 -47.2906 -47.2732 -47.2494
   -47.2313 -47.2011 -47.1742 -47.1540 -47.1240 -47.0263 -47.0222 -46.8665
   -46.7936 -46.7809 -46.7095 -46.6861 -46.6599 -46.6543 -46.6352 -46.6197
   -46.6026 -46.5759 -46.5651 -46.5556 -46.5455 -46.5152 -46.4916 -46.4845
   -46.4766 -46.4522 -46.4279 -46.3928  -9.7667  -5.0948  -5.0825  -3.6418
    -3.6348  -3.3865  -3.3830  -3.2417  -3.2396  -3.2240  -3.1986  -2.7365
    -2.6940  -2.4295  -2.3103  -2.1719  -2.1719  -1.9824  -1.9511  -1.8809
    -1.8012  -1.4840  -1.4014  -1.3176  -1.0672  -1.0650  -0.7869  -0.7318
    -0.6831  -0.5475  -0.5099  -0.4579  -0.3396  -0.1398  -0.1383  -0.1078
    -0.0910  -0.0834  -0.0619  -0.0492   0.0571   0.1792   0.6905   0.7219
     0.8370   1.0544   1.0863   1.2234   1.3727   1.4164   1.5134   1.5571
     1.6530   1.8008   1.8071   1.8818   2.2161   2.2854   2.3533   2.6481
     2.6852   2.9481   3.0890   3.3181   3.3865   3.5504   3.6579

     the Fermi energy is     2.6414 ev

!    total energy              =   -2224.19433227 Ry
     Harris-Foulkes estimate   =   -2224.19433467 Ry
     estimated scf accuracy    <       0.00000112 Ry

     The total energy is the sum of the following terms:

     one-electron contribution =  -18881.74829497 Ry
     hartree contribution      =    9473.84197289 Ry
     xc contribution           =    -632.47125987 Ry
     ewald contribution        =    7816.28201869 Ry
     electric field correction =       0.00001501 Ry
     smearing contrib. (-TS)   =      -0.09878402 Ry

     convergence has been achieved in  21 iterations

 BEEF-vdW xc energy contributions
           1 :   -559.939981715439
           2 :    520.641084810877
           3 :   -450.416176874368
           4 :    363.100126348923
           5 :   -273.859009577115
           6 :    195.314753492353
           7 :   -134.901133480668
           8 :    94.0387024296565
           9 :   -69.1648916422282
          10 :    54.0460351356168
          11 :   -42.4377534644883
          12 :    30.1481853495519
          13 :   -15.9206104895725
          14 :    1.06618335942676
          15 :    11.7769069561703
          16 :   -20.1541053805402
          17 :    22.9650144888049
          18 :   -20.9005409585197
          19 :    16.0810017878636
          20 :   -11.1458962127911
          21 :    8.22133383464484
          22 :   -8.18876886443149
          23 :    10.5151936175473
          24 :   -13.6636357147722
          25 :    15.8660515409756
          26 :   -15.9124366399242
          27 :    13.6272717470690
          28 :   -9.86200994943351
          29 :    6.04763233816993
          30 :   -3.53551066923774
          31 :   -48.2089707465519
          32 :   -36.1073136426049

     Forces acting on atoms (Ry/au):

     negative rho (up, down):  3.881E+00 0.000E+00
     atom    1 type  1   force =    -0.00212477   -0.00123656    0.01788568
     atom    2 type  1   force =     0.00212542   -0.00123951    0.01791336
     atom    3 type  1   force =    -0.00000436    0.00246385    0.01791347
     atom    4 type  1   force =     0.00000523    0.00000509    0.00165961
     atom    5 type  1   force =     0.00005148   -0.00783056   -0.01139064
     atom    6 type  1   force =    -0.00004496   -0.00001855   -0.02162259
     atom    7 type  1   force =     0.00675719    0.00389583   -0.01138712
     atom    8 type  1   force =    -0.00675656    0.00395760   -0.01142619
     atom    9 type  1   force =     0.00003645    0.00010822   -0.00064997
     atom   10 type  1   force =    -0.00002978    0.00034360    0.00007166
     atom   11 type  1   force =     0.00024830   -0.00023876    0.00010828
     atom   12 type  1   force =    -0.00026327   -0.00021363    0.00011628
     atom   13 type  2   force =    -0.00000037    0.00000337    0.00080818

     Total force =     0.045001     Total SCF correction =     0.004348

     entering subroutine stress ...

     negative rho (up, down):  3.881E+00 0.000E+00
          total   stress  (Ry/bohr**3)                   (kbar)     P=  -24.06
  -0.00019573   0.00000001  -0.00000000        -28.79      0.00     -0.00
   0.00000001  -0.00019573   0.00000001          0.00    -28.79      0.00
  -0.00000000   0.00000001  -0.00009918         -0.00      0.00    -14.59

 !ASE

     Writing output data file calc.save

     General routines

     Parallel routines

   This run was terminated on:  20:33:23  15Jan2018

   JOB DONE.
Job  /afs/slac/g/suncat/bin/suncat-tsmpirun -x LD_LIBRARY_PATH -wdir /scratch/qe842452_6NPXl pw.x -in pw.inp

TID   HOST_NAME   COMMAND_LINE            STATUS            TERMINATION_TIME
00000 suncat0253 pw.x -in pw.inp   Done                     01/15/2018 20:33:23
00001 suncat0253 pw.x -in pw.inp   Done                     01/15/2018 20:33:23
00002 suncat0253 pw.x -in pw.inp   Done                     01/15/2018 20:33:23
00003 suncat0253 pw.x -in pw.inp   Done                     01/15/2018 20:33:23
00004 suncat0253 pw.x -in pw.inp   Done                     01/15/2018 20:33:23
00005 suncat0253 pw.x -in pw.inp   Done                     01/15/2018 20:33:23
00006 suncat0253 pw.x -in pw.inp   Done                     01/15/2018 20:33:23
00007 suncat0253 pw.x -in pw.inp   Done                     01/15/2018 20:33:23
00008 suncat0249 pw.x -in pw.inp   Done                     01/15/2018 20:33:23
00009 suncat0249 pw.x -in pw.inp   Done                     01/15/2018 20:33:23
00010 suncat0249 pw.x -in pw.inp   Done                     01/15/2018 20:33:23
00011 suncat0249 pw.x -in pw.inp   Done                     01/15/2018 20:33:23
00012 suncat0249 pw.x -in pw.inp   Done                     01/15/2018 20:33:23
00013 suncat0249 pw.x -in pw.inp   Done                     01/15/2018 20:33:23
00014 suncat0249 pw.x -in pw.inp   Done                     01/15/2018 20:33:23
00015 suncat0249 pw.x -in pw.inp   Done                     01/15/2018 20:33:23
00016 suncat0248 pw.x -in pw.inp   Done                     01/15/2018 20:33:23
00017 suncat0248 pw.x -in pw.inp   Done                     01/15/2018 20:33:23
00018 suncat0248 pw.x -in pw.inp   Done                     01/15/2018 20:33:23
00019 suncat0248 pw.x -in pw.inp   Done                     01/15/2018 20:33:23
00020 suncat0248 pw.x -in pw.inp   Done                     01/15/2018 20:33:23
00021 suncat0248 pw.x -in pw.inp   Done                     01/15/2018 20:33:23
00022 suncat0248 pw.x -in pw.inp   Done                     01/15/2018 20:33:23
00023 suncat0248 pw.x -in pw.inp   Done                     01/15/2018 20:33:23
00024 suncat0247 pw.x -in pw.inp   Done                     01/15/2018 20:33:23
00025 suncat0247 pw.x -in pw.inp   Done                     01/15/2018 20:33:23
00026 suncat0247 pw.x -in pw.inp   Done                     01/15/2018 20:33:23
00027 suncat0247 pw.x -in pw.inp   Done                     01/15/2018 20:33:23
00028 suncat0247 pw.x -in pw.inp   Done                     01/15/2018 20:33:23
00029 suncat0247 pw.x -in pw.inp   Done                     01/15/2018 20:33:23
00030 suncat0247 pw.x -in pw.inp   Done                     01/15/2018 20:33:23
00031 suncat0247 pw.x -in pw.inp   Done                     01/15/2018 20:33:23