     Program PWSCF v.5.1rc2 (svn rev. 11289) starts on  2May2018 at 15:22:34

     Current dimensions of program PWSCF are:
     Max number of different atomic species (ntypx) = 10
     Max number of k-points (npk) =  40000
     Max angular momentum in pseudopotentials (lmaxx) =  3
     Presently stress not available with electric field

     IMPORTANT: XC functional enforced from input :
     Exchange-correlation      = BEEF-VDW ( 1  4 27 13 2)
     Any further DFT definition will be discarded
     Please, verify this is what you really want

     Subspace diagonalization in iterative solution of the eigenvalue problem:
     a serial algorithm will be used

     bravais-lattice index     =            0
     lattice parameter (alat)  =       1.8897  a.u.
     unit-cell volume          =    6116.8020 (a.u.)^3
     number of atoms/cell      =           13
     number of atomic types    =            2
     number of electrons       =       138.00
     number of Kohn-Sham states=           79
     kinetic-energy cutoff     =      36.7493  Ry
     charge density cutoff     =     367.4932  Ry
     convergence threshold     =      1.0E-05
     mixing beta               =       0.3000
     number of iterations used =           10  plain     mixing
     Exchange-correlation      = BEEF-VDW ( 1  4 27 13 2)
     nstep                     =           50

     celldm(1)=   1.889726  celldm(2)=   0.000000  celldm(3)=   0.000000
     celldm(4)=   0.000000  celldm(5)=   0.000000  celldm(6)=   0.000000

     crystal axes: (cart. coord. in units of alat)
               a(1) = (   6.437465   0.000000   0.000000 )
               a(2) = (   3.218732   5.575008   0.000000 )
               a(3) = (   0.000000   0.000000  25.256168 )

     reciprocal axes: (cart. coord. in units 2 pi/alat)
               b(1) = (  0.155341 -0.089686  0.000000 )
               b(2) = (  0.000000  0.179372  0.000000 )
               b(3) = (  0.000000  0.000000  0.039594 )

     PseudoPot. # 1 for Sc read from file:
     /u/if/mamunm/psp/gbrv1.5pbe/Sc.UPF
     MD5 check sum: db30a2753ba66ef00f23801d899b7e7f
     Pseudo is Ultrasoft + core correction, Zval = 11.0
     Generated by new atomic code, or converted to UPF format
     Using radial grid of  849 points,  6 beta functions with:
                l(1) =   0
                l(2) =   0
                l(3) =   1
                l(4) =   1
                l(5) =   2
                l(6) =   2
     Q(r) pseudized with  6 coefficients,  rinner =    1.200   1.200   1.200
                                                       1.200   1.200

     PseudoPot. # 2 for O  read from file:
     /u/if/mamunm/psp/gbrv1.5pbe/O.UPF
     MD5 check sum: 734c27235a0248c51dbae37a1fbe46ec
     Pseudo is Ultrasoft + core correction, Zval =  6.0
     Generated by new atomic code, or converted to UPF format
     Using radial grid of  737 points,  5 beta functions with:
                l(1) =   0
                l(2) =   0
                l(3) =   1
                l(4) =   1
                l(5) =   2
     Q(r) pseudized with  8 coefficients,  rinner =    0.900   0.900   0.900
                                                       0.900   0.900

     vdW kernel table read from file vdW_kernel_table
     MD5 check sum: 095c7af220d748ca6e76c0b4c6cfb241

     atomic species   valence    mass     pseudopotential
        Sc1           11.00    44.95591     Sc( 1.00)
        O1             6.00    15.99900     O ( 1.00)

     No symmetry found

   Cartesian axes

     site n.     atom                  positions (alat units)
         1           Sc1 tau(   1) = (   1.6093662   0.9291680  10.0000000  )
         2           Sc1 tau(   2) = (   4.8280986   0.9291680  10.0000000  )
         3           Sc1 tau(   3) = (   3.2187324   3.7166720  10.0000000  )
         4           Sc1 tau(   4) = (   6.4374648   3.7166720  10.0000000  )
         5           Sc1 tau(   5) = (   6.4374648   1.8583360  12.6280840  )
         6           Sc1 tau(   6) = (   3.2187324   1.8583360  12.6280840  )
         7           Sc1 tau(   7) = (   8.0468310   4.6458400  12.6280840  )
         8           Sc1 tau(   8) = (   4.8280986   4.6458400  12.6280840  )
         9           Sc1 tau(   9) = (   0.0000000   0.0000000  15.2561680  )
        10           Sc1 tau(  10) = (   3.2187324   0.0000000  15.2561680  )
        11           Sc1 tau(  11) = (   1.6093662   2.7875040  15.2561680  )
        12           Sc1 tau(  12) = (   4.8280986   2.7875040  15.2561680  )
        13           O1  tau(  13) = (   0.0000000   0.0000000  17.2621680  )

     number of k points=    20  Fermi-Dirac smearing, width (Ry)=  0.0110
                       cart. coord. in units 2pi/alat
        k(    1) = (   0.0000000   0.0000000   0.0000000), wk =   0.0555556
        k(    2) = (   0.0000000   0.0298953   0.0000000), wk =   0.1111111
        k(    3) = (   0.0000000   0.0597906   0.0000000), wk =   0.1111111
        k(    4) = (   0.0000000  -0.0896860   0.0000000), wk =   0.0555556
        k(    5) = (   0.0258901  -0.0149477   0.0000000), wk =   0.1111111
        k(    6) = (   0.0258901   0.0149477   0.0000000), wk =   0.1111111
        k(    7) = (   0.0258901   0.0448430   0.0000000), wk =   0.1111111
        k(    8) = (   0.0258901  -0.1046336   0.0000000), wk =   0.1111111
        k(    9) = (   0.0258901  -0.0747383   0.0000000), wk =   0.1111111
        k(   10) = (   0.0258901  -0.0448430   0.0000000), wk =   0.1111111
        k(   11) = (   0.0517802  -0.0298953   0.0000000), wk =   0.1111111
        k(   12) = (   0.0517802   0.0000000   0.0000000), wk =   0.1111111
        k(   13) = (   0.0517802   0.0298953   0.0000000), wk =   0.1111111
        k(   14) = (   0.0517802  -0.1195813   0.0000000), wk =   0.1111111
        k(   15) = (   0.0517802  -0.0896860   0.0000000), wk =   0.1111111
        k(   16) = (   0.0517802  -0.0597906   0.0000000), wk =   0.1111111
        k(   17) = (  -0.0776703   0.0448430   0.0000000), wk =   0.0555556
        k(   18) = (  -0.0776703   0.0747383   0.0000000), wk =   0.1111111
        k(   19) = (  -0.0776703   0.1046336   0.0000000), wk =   0.1111111
        k(   20) = (  -0.0776703  -0.0448430   0.0000000), wk =   0.0555556

     Largest allocated arrays     est. size (Mb)     dimensions
     Largest temporary arrays     est. size (Mb)     dimensions

     Initial potential from superposition of free atoms
     Check: negative starting charge=   -0.000417

     starting charge  137.97117, renormalised to  138.00000

     negative rho (up, down):  4.169E-04 0.000E+00

     *
     * You are using vdW-DF for exchange-correlation in this calculation.
     * Please cite the following three references that made this development
     * possible:
     *
     *   M. Dion, H. Rydberg, E. Schroder, D. C. Langreth, and
     *   B. I. Lundqvist, Phys. Rev. Lett. 92, 246401 (2004).
     *
     *   T. Thonhauser, V. R. Cooper, S. Li, A. Puzder, P. Hyldgaard, and
     *   D. C. Langreth, Phys. Rev. B 76, 125112 (2007).
     *
     *   G. Roman-Perez and J. M. Soler, Phys. Rev. Lett. 103, 096102 (2009).
     *
     *
     * If you are using vdW-DF2, please also cite:
     *
     *   K. Lee, E. D. Murray, L. Kong, B. I. Lundqvist, and
     *   D. C. Langreth, Phys. Rev. B 82, 081101(R) (2010).
     *
     *
     * If you are calculating the stress with vdW-DF, please also cite:
     *
     *   R. Sabatini, E. Kucukbenli, B. Kolb, T. Thonhauser, and
     *   S. de Gironcoli, J. Phys.: Condens. Matter 24, 424209 (2012).
     *

     Carrying out vdW-DF run using the following parameters:

     Nqs =      20    Nr_points =    1024   r_max =   100.000
     q_mesh =
               0.00001000     0.04494208     0.09755937     0.15916263
               0.23128650     0.31572767     0.41458969     0.53033537
               0.66584808     0.82450364     1.01025438     1.22772762
               1.48234092     1.78043706     2.12944203     2.53805004
               3.01644009     3.57652955     4.23227104     5.00000000

     Gradients computed in reciprocal space

     Adding external electric field

     Computed dipole along edir(3) :
        Dipole               -0.0110 Ry au,         -0.0279 Debye
        Dipole field         -0.0000 Ry au

        Potential amp.        0.0021 Ry
        Total length         46.5341 bohr

     Starting wfc are  160 randomized atomic wfcs

     Self-consistent Calculation

     iteration #  1     ecut=    36.75 Ry     beta=0.30
     Davidson diagonalization with overlap
     ethr =  1.00E-02,  avg # of iterations =  2.0

[...]

     total energy              =   -1167.65630076 Ry
     Harris-Foulkes estimate   =   -1170.87873147 Ry
     estimated scf accuracy    <       6.89125150 Ry

[...]

     End of self-consistent calculation

          k = 0.0000 0.0000 0.0000 ( 23031 PWs)   bands (ev):

   -50.1633 -50.1295 -50.1279 -50.0635 -50.0203 -50.0195 -50.0111 -49.6240
   -49.5824 -49.5816 -49.5688 -49.1844 -28.8849 -28.8418 -28.8403 -28.8313
   -28.7995 -28.7983 -28.7754 -28.7738 -28.7734 -28.7421 -28.6888 -28.6879
   -28.6779 -28.6320 -28.5329 -28.5316 -28.5190 -28.5144 -28.5140 -28.4371
   -28.4371 -28.3714 -28.3401 -28.3397 -28.1994 -28.1714 -28.1707 -28.1630
   -28.1086 -28.1080 -28.1023 -28.0267 -28.0266 -27.8648 -27.8647 -27.6563
   -15.7512  -4.8462  -3.7279  -2.4157  -1.8516  -1.7917  -1.7916  -1.5593
    -1.5484  -1.5483  -1.4479  -1.4479  -1.4182  -1.1812  -1.1810  -1.1222
    -0.6697  -0.6696  -0.6348  -0.4153  -0.2960  -0.2958  -0.0210   0.3846
     0.4891   0.5109   0.5109   0.6037   0.8485   0.9257   0.9258

[...]

          k =-0.0777 0.0448 0.0000 ( 23032 PWs)   bands (ev):

[...]

     the Fermi energy is    -0.1120 ev

!    total energy              =   -1170.23927084 Ry
     Harris-Foulkes estimate   =   -1170.23908884 Ry
     estimated scf accuracy    <       0.00000815 Ry

     The total energy is the sum of the following terms:

     one-electron contribution =   -7351.20432671 Ry
     hartree contribution      =    3658.57089807 Ry
     xc contribution           =    -173.90273174 Ry
     ewald contribution        =    2696.42364038 Ry
     electric field correction =       0.00090542 Ry
     smearing contrib. (-TS)   =      -0.12765627 Ry

     convergence has been achieved in  19 iterations

 BEEF-vdW xc energy contributions
           1 :   -147.389119206151
           2 :    129.555167279519
           3 :   -101.811617732036
           4 :    74.8776200245789
           5 :   -56.2051021038349
           6 :    47.0713307910674
           7 :   -43.9355315099519
           8 :    42.1499197066673
           9 :   -39.0925871190270
          10 :    34.9388024665897
          11 :   -31.2957189419551
          12 :    29.2627935534978
          13 :   -28.4899348646062
          14 :    27.7230120711074
          15 :   -26.0714340053732
          16 :    23.7577177022927
          17 :   -21.7555694513221
          18 :    20.7991117624150
          19 :   -20.7326172609007
          20 :    20.7260219569212
          21 :   -20.0588784497276
          22 :    18.7213451761414
          23 :   -17.3320867783247
          24 :    16.5203698061558
          25 :   -16.3703492303532
          26 :    16.4071673474947
          27 :   -16.0808416510387
          28 :    15.2634434995873
          29 :   -14.3135743488089
          30 :    13.6997747163760
          31 :   -17.3514276712894
          32 :   -12.3787062761409

     Forces acting on atoms (Ry/au):

     negative rho (up, down):  2.778E-04 0.000E+00
     atom    1 type  1   force =    -0.00034153   -0.00026792    0.00231713
     atom    2 type  1   force =     0.00033560   -0.00016895    0.00232437
     atom    3 type  1   force =     0.00008779    0.00041607    0.00231240
     atom    4 type  1   force =    -0.00008730    0.00002376    0.00292597
     atom    5 type  1   force =    -0.00001933    0.00875375   -0.00014952
     atom    6 type  1   force =     0.00002121    0.00005550    0.00808361
     atom    7 type  1   force =    -0.00752767   -0.00439142   -0.00019840
     atom    8 type  1   force =     0.00753211   -0.00442649   -0.00016820
     atom    9 type  1   force =     0.00003286   -0.00001520    0.11023138
     atom   10 type  1   force =    -0.00002798   -0.00143928    0.00558142
     atom   11 type  1   force =    -0.00123529    0.00071529    0.00544447
     atom   12 type  1   force =     0.00123115    0.00074404    0.00563849
     atom   13 type  2   force =    -0.00000162    0.00000086   -0.14434310

     Total force =     0.181892     Total SCF correction =     0.003888

     entering subroutine stress ...

     negative rho (up, down):  2.778E-04 0.000E+00
          total   stress  (Ry/bohr**3)                   (kbar)     P=   -2.70
   0.00002875   0.00000000   0.00000000          4.23      0.00      0.00
   0.00000000   0.00002874   0.00000000          0.00      4.23      0.00
   0.00000000   0.00000000  -0.00011246          0.00      0.00    -16.54

     BFGS Geometry Optimization

     number of scf cycles    =   1
     number of bfgs steps    =   0

     energy   new            =   -1170.2392708429 Ry

     new trust radius        =       0.1443431047 bohr
     new conv_thr            =       0.0000099958 Ry

ATOMIC_POSITIONS (crystal)
Sc1      0.166666667   0.166666667   0.395942884    0   0   0
Sc1      0.666666667   0.166666667   0.395942884    0   0   0
Sc1      0.166666667   0.666666667   0.395942884    0   0   0
Sc1      0.666666667   0.666666667   0.395942884    0   0   0
Sc1      0.833333333   0.333333333   0.500000000    0   0   0
Sc1      0.333333333   0.333333333   0.500000000    0   0   0
Sc1      0.833333333   0.833333333   0.500000000    0   0   0
Sc1      0.333333333   0.833333333   0.500000000    0   0   0
Sc1      0.000003422  -0.000001443   0.606366727
Sc1      0.500066008  -0.000136616   0.604174060
Sc1     -0.000135492   0.500067895   0.604171190
Sc1      0.500065892   0.500070624   0.604175256
O1      -0.000000174   0.000000082   0.680458924

     Writing output data file calc.save
     Check: negative starting charge=   -0.000417
     NEW-OLD atomic charge density approx. for the potential
     Check: negative starting charge=   -0.000417

[...]

     energy   old            =   -1170.2392708429 Ry
     energy   new            =   -1170.2661086265 Ry

     CASE: energy  _new < energy  _old

[...]

     iteration #  1     ecut=    36.75 Ry     beta=0.30
     Davidson diagonalization with overlap
     c_bands:  1 eigenvalues not converged
     ethr =  1.00E-06,  avg # of iterations = 14.1

[...]

     iteration # 10     ecut=    36.75 Ry     beta=0.30
     Davidson diagonalization with overlap
     c_bands:  1 eigenvalues not converged
     ethr =  4.55E-08,  avg # of iterations =  8.8

[...]

     WARNING: bfgs curvature condition failed, Theta= 0.905
     new trust radius        =       0.0295999539 bohr
     new conv_thr            =       0.0000001000 Ry

[...]

     number of scf cycles    =  11
     number of bfgs steps    =  10

     energy   old            =   -1170.2806160313 Ry
     energy   new            =   -1170.2806939830 Ry

     CASE: energy  _new < energy  _old

     new trust radius        =       0.0051427463 bohr
     new conv_thr            =       0.0000001000 Ry

ATOMIC_POSITIONS (crystal)
Sc1      0.166666667   0.166666667   0.395942884    0   0   0
Sc1      0.666666667   0.166666667   0.395942884    0   0   0
Sc1      0.166666667   0.666666667   0.395942884    0   0   0
Sc1      0.666666667   0.666666667   0.395942884    0   0   0
Sc1      0.833333333   0.333333333   0.500000000    0   0   0
Sc1      0.333333333   0.333333333   0.500000000    0   0   0
Sc1      0.833333333   0.833333333   0.500000000    0   0   0
Sc1      0.333333333   0.833333333   0.500000000    0   0   0
Sc1     -0.000007055  -0.000000189   0.598431689
Sc1      0.501692183  -0.003374927   0.605526053
Sc1     -0.003374866   0.501691883   0.605533557
Sc1      0.501685834   0.501685725   0.605527572
O1       0.000002086  -0.000002656   0.668915392

     Writing output data file calc.save
     Check: negative starting charge=   -0.000411
     NEW-OLD atomic charge density approx. for the potential
     Check: negative starting charge=   -0.000411

[...]

     Self-consistent Calculation

[...]

     Threshold (ethr) on eigenvalues was too large:
     Diagonalizing with lowered threshold

     Davidson diagonalization with overlap
     ethr =  1.53E-08,  avg # of iterations =  4.8

[...]

     total energy              =   -1170.28070659 Ry
     Harris-Foulkes estimate   =   -1170.28070661 Ry
     estimated scf accuracy    <       0.00000132 Ry

     iteration #  8     ecut=    36.75 Ry     beta=0.30
     Davidson diagonalization with overlap
     ethr =  9.57E-10,  avg # of iterations =  5.4

[...]

     negative rho (up, down):  2.875E-04 0.000E+00

     Adding external electric field

     Computed dipole along edir(3) :
        Dipole               -0.3232 Ry au,         -0.8216 Debye
        Dipole field         -0.0007 Ry au

        Potential amp.        0.0618 Ry
        Total length         46.5341 bohr

     End of self-consistent calculation

[...]

          k = 0.0518-0.0598 0.0000 ( 23012 PWs)   bands (ev):

[...]

          k =-0.0777-0.0448 0.0000 ( 23032 PWs)   bands (ev):

   -49.8350 -49.8230 -49.8118 -49.6976 -49.6943 -49.6746 -49.6699 -49.2809
   -49.2484 -49.2341 -49.2255 -48.4219 -28.5485 -28.5341 -28.5201 -28.4759
   -28.4208 -28.3838 -28.3815 -28.3706 -28.3681 -28.3668 -28.3653 -28.3412
   -28.3334 -28.3145 -28.2666 -28.2628 -28.2400 -28.2362 -28.2118 -28.1326
   -28.1318 -27.9615 -27.9502 -27.8757 -27.8680 -27.8514 -27.8420 -27.8306
   -27.8254 -27.8107 -27.8039 -27.7262 -27.7222 -27.2640 -27.1317 -27.1205
   -15.9926  -3.2286  -3.2053  -2.6435  -2.4420  -2.2345  -2.0163  -1.9665
    -1.2886  -1.2385  -0.8840  -0.8719  -0.7388  -0.7031  -0.0138  -0.0135
     0.0253   0.0311   0.1017   0.1287   0.2525   0.3081   0.3269   0.3796
     0.4027   0.5370   0.5561   0.6883   0.7201   0.7348   0.8339

     the Fermi energy is     0.2329 ev

!    total energy              =   -1170.28070669 Ry
     Harris-Foulkes estimate   =   -1170.28070678 Ry
     estimated scf accuracy    <       0.00000007 Ry

     The total energy is the sum of the following terms:

     one-electron contribution =   -7428.53993495 Ry
     hartree contribution      =    3698.74274858 Ry
     xc contribution           =    -174.09202351 Ry
     ewald contribution        =    2733.73692808 Ry
     electric field correction =       0.00021464 Ry
     smearing contrib. (-TS)   =      -0.12863952 Ry

     convergence has been achieved in   8 iterations

 BEEF-vdW xc energy contributions
           1 :   -147.576744582101
           2 :    129.781088722640
           3 :   -102.066329069824
           4 :    75.1106398595157
           5 :   -56.3634270173876
           6 :    47.1318452274519
           7 :   -43.9138471134044
           8 :    42.0837898836191
           9 :   -39.0159987013620
          10 :    34.8680663860530
          11 :   -31.2344153307029
          12 :    29.2144075783239
          13 :   -28.4627648104757
          14 :    27.7224043798985
          15 :   -26.0890125667955
          16 :    23.7726355986200
          17 :   -21.7488966532677
          18 :    20.7665500516006
          19 :   -20.6843035009079
          20 :    20.6758319119542
          21 :   -20.0141154917426
          22 :    18.6819038454444
          23 :   -17.2977562017944
          24 :    16.4963536070067
          25 :   -16.3644040926744
          26 :    16.4213595318888
          27 :   -16.1058409414013
          28 :    15.2825506258389
          29 :   -14.3147316392171
          30 :    13.6829767225954
          31 :   -17.3629851585058
          32 :   -12.3965002969077

     Forces acting on atoms (Ry/au):

     negative rho (up, down):  2.875E-04 0.000E+00
     atom    1 type  1   force =     0.00003869    0.00002342    0.00263049
     atom    2 type  1   force =    -0.00003902    0.00002299    0.00262914
     atom    3 type  1   force =    -0.00000047   -0.00004547    0.00262912
     atom    4 type  1   force =     0.00000049   -0.00000084    0.00415289
     atom    5 type  1   force =     0.00000080    0.01573315   -0.00665601
     atom    6 type  1   force =     0.00000009    0.00000036    0.01242794
     atom    7 type  1   force =    -0.01362451   -0.00786739   -0.00665799
     atom    8 type  1   force =     0.01362406   -0.00786638   -0.00666229
     atom    9 type  1   force =     0.00001310    0.00000329   -0.00118144
     atom   10 type  1   force =    -0.00001111    0.00056673   -0.00139475
     atom   11 type  1   force =     0.00048655   -0.00028986   -0.00140990
     atom   12 type  1   force =    -0.00048785   -0.00027786   -0.00139675
     atom   13 type  2   force =    -0.00000082   -0.00000214    0.00088954

     Total force =     0.003005     Total SCF correction =     0.000295

     entering subroutine stress ...

     negative rho (up, down):  2.875E-04 0.000E+00
          total   stress  (Ry/bohr**3)                   (kbar)     P=    2.01
   0.00002910  -0.00000000  -0.00000000          4.28     -0.00     -0.00
  -0.00000000   0.00002910  -0.00000000         -0.00      4.28     -0.00
  -0.00000000  -0.00000000  -0.00001720         -0.00     -0.00     -2.53

     bfgs converged in  12 scf cycles and  11 bfgs steps
     (criteria: energy <  1.0E+00, force <  1.9E-03)

     End of BFGS Geometry Optimization

     Final energy   =   -1170.2807066871 Ry
Begin final coordinates

ATOMIC_POSITIONS (crystal)
Sc1      0.166666667   0.166666667   0.395942884    0   0   0
Sc1      0.666666667   0.166666667   0.395942884    0   0   0
Sc1      0.166666667   0.666666667   0.395942884    0   0   0
Sc1      0.666666667   0.666666667   0.395942884    0   0   0
Sc1      0.833333333   0.333333333   0.500000000    0   0   0
Sc1      0.333333333   0.333333333   0.500000000    0   0   0
Sc1      0.833333333   0.833333333   0.500000000    0   0   0
Sc1      0.333333333   0.833333333   0.500000000    0   0   0
Sc1     -0.000007055  -0.000000189   0.598431689
Sc1      0.501692183  -0.003374927   0.605526053
Sc1     -0.003374866   0.501691883   0.605533557
Sc1      0.501685834   0.501685725   0.605527572
O1       0.000002086  -0.000002656   0.668915392
End final coordinates

     Writing output data file calc.save

     General routines

     Parallel routines

   This run was terminated on:  17:13:37   2May2018

   JOB DONE.
Job  /afs/slac/g/suncat/bin/suncat-tsmpirun -x LD_LIBRARY_PATH -wdir /scratch/qe777415_IRsAr pw.x -npool 4 -in pw.inp

TID   HOST_NAME   COMMAND_LINE            STATUS            TERMINATION_TIME
00000 suncat0091 pw.x -npool 4 -i  Done                     05/02/2018 17:13:37
00001 suncat0091 pw.x -npool 4 -i  Done                     05/02/2018 17:13:37
00002 suncat0091 pw.x -npool 4 -i  Done                     05/02/2018 17:13:37
00003 suncat0091 pw.x -npool 4 -i  Done                     05/02/2018 17:13:37
00004 suncat0091 pw.x -npool 4 -i  Done                     05/02/2018 17:13:37
00005 suncat0091 pw.x -npool 4 -i  Done                     05/02/2018 17:13:37
00006 suncat0091 pw.x -npool 4 -i  Done                     05/02/2018 17:13:37
00007 suncat0091 pw.x -npool 4 -i  Done                     05/02/2018 17:13:37
00008 suncat0090 pw.x -npool 4 -i  Done                     05/02/2018 17:13:37
00009 suncat0090 pw.x -npool 4 -i  Done                     05/02/2018 17:13:37
00010 suncat0090 pw.x -npool 4 -i  Done                     05/02/2018 17:13:37
00011 suncat0090 pw.x -npool 4 -i  Done                     05/02/2018 17:13:37
00012 suncat0090 pw.x -npool 4 -i  Done                     05/02/2018 17:13:37
00013 suncat0090 pw.x -npool 4 -i  Done                     05/02/2018 17:13:37
00014 suncat0090 pw.x -npool 4 -i  Done                     05/02/2018 17:13:37
00015 suncat0090 pw.x -npool 4 -i  Done                     05/02/2018 17:13:37
00016 suncat0048 pw.x -npool 4 -i  Done                     05/02/2018 17:13:37
00017 suncat0048 pw.x -npool 4 -i  Done                     05/02/2018 17:13:37
00018 suncat0048 pw.x -npool 4 -i  Done                     05/02/2018 17:13:37
00019 suncat0048 pw.x -npool 4 -i  Done                     05/02/2018 17:13:37
00020 suncat0048 pw.x -npool 4 -i  Done                     05/02/2018 17:13:37
00021 suncat0048 pw.x -npool 4 -i  Done                     05/02/2018 17:13:37
00022 suncat0048 pw.x -npool 4 -i  Done                     05/02/2018 17:13:37
00023 suncat0048 pw.x -npool 4 -i  Done                     05/02/2018 17:13:37
00024 suncat0047 pw.x -npool 4 -i  Done                     05/02/2018 17:13:37
00025 suncat0047 pw.x -npool 4 -i  Done                     05/02/2018 17:13:37
00026 suncat0047 pw.x -npool 4 -i  Done                     05/02/2018 17:13:37
00027 suncat0047 pw.x -npool 4 -i  Done                     05/02/2018 17:13:37
00028 suncat0047 pw.x -npool 4 -i  Done                     05/02/2018 17:13:37
00029 suncat0047 pw.x -npool 4 -i  Done                     05/02/2018 17:13:37
00030 suncat0047 pw.x -npool 4 -i  Done                     05/02/2018 17:13:37
00031 suncat0047 pw.x -npool 4 -i  Done                     05/02/2018 17:13:37