     Program PWSCF v.5.1rc2 (svn rev. 11289) starts on  2May2018 at 13:53:32

     Current dimensions of program PWSCF are:
     Max number of different atomic species (ntypx) = 10
     Max number of k-points (npk) =  40000
     Max angular momentum in pseudopotentials (lmaxx) =  3
     Presently stress not available with electric field

     IMPORTANT: XC functional enforced from input :
     Exchange-correlation      = BEEF-VDW ( 1  4 27 13 2)
     Any further DFT definition will be discarded
     Please, verify this is what you really want

     Subspace diagonalization in iterative solution of the eigenvalue problem:
     a serial algorithm will be used

     bravais-lattice index     =            0
     lattice parameter (alat)  =       1.8897  a.u.
     unit-cell volume          =    3724.3394 (a.u.)^3
     number of atoms/cell      =           13
     number of atomic types    =            2
     number of electrons       =       174.00
     number of Kohn-Sham states=           97
     kinetic-energy cutoff     =      36.7493  Ry
     charge density cutoff     =     367.4932  Ry
     convergence threshold     =      1.0E-05
     mixing beta               =       0.3000
     number of iterations used =           10  plain     mixing
     Exchange-correlation      = BEEF-VDW ( 1  4 27 13 2)
     nstep                     =           50

     celldm(1)=   1.889726  celldm(2)=   0.000000  celldm(3)=   0.000000
     celldm(4)=   0.000000  celldm(5)=   0.000000  celldm(6)=   0.000000

     crystal axes: (cart. coord. in units of alat)
               a(1) = (   5.132588   0.000000   0.000000 )
               a(2) = (   2.566294   4.444952   0.000000 )
               a(3) = (   0.000000   0.000000  24.190741 )

     reciprocal axes: (cart. coord. in units 2 pi/alat)
               b(1) = (  0.194833 -0.112487  0.000000 )
               b(2) = (  0.000000  0.224974  0.000000 )
               b(3) = (  0.000000  0.000000  0.041338 )

     PseudoPot. # 1 for Cr read from file:
     /u/if/mamunm/psp/gbrv1.5pbe/Cr.UPF
     MD5 check sum: 0d52af634a40206e4dee301ad30da4bf
     Pseudo is Ultrasoft + core correction, Zval = 14.0
     Generated by new atomic code, or converted to UPF format
     Using radial grid of  857 points,  6 beta functions with:
                l(1) =   0
                l(2) =   0
                l(3) =   1
                l(4) =   1
                l(5) =   2
                l(6) =   2
     Q(r) pseudized with  8 coefficients,  rinner =    0.950   0.950   0.950
                                                       0.950   0.950

     PseudoPot. # 2 for O  read from file:
     /u/if/mamunm/psp/gbrv1.5pbe/O.UPF
     MD5 check sum: 734c27235a0248c51dbae37a1fbe46ec
     Pseudo is Ultrasoft + core correction, Zval =  6.0
     Generated by new atomic code, or converted to UPF format
     Using radial grid of  737 points,  5 beta functions with:
                l(1) =   0
                l(2) =   0
                l(3) =   1
                l(4) =   1
                l(5) =   2
     Q(r) pseudized with  8 coefficients,  rinner =    0.900   0.900   0.900
                                                       0.900   0.900

     vdW kernel table read from file vdW_kernel_table
     MD5 check sum: 095c7af220d748ca6e76c0b4c6cfb241

     atomic species   valence    mass     pseudopotential
        Cr1           14.00    51.99610     Cr( 1.00)
        O1             6.00    15.99900     O ( 1.00)

     No symmetry found

   Cartesian axes

     site n.     atom                  positions (alat units)
         1           Cr1 tau(   1) = (   1.2831471   0.7408253  10.0000000  )
         2           Cr1 tau(   2) = (   3.8494412   0.7408253  10.0000000  )
         3           Cr1 tau(   3) = (   2.5662941   2.9633012  10.0000000  )
         4           Cr1 tau(   4) = (   5.1325882   2.9633012  10.0000000  )
         5           Cr1 tau(   5) = (   5.1325882   1.4816506  12.0953704  )
         6           Cr1 tau(   6) = (   2.5662941   1.4816506  12.0953704  )
         7           Cr1 tau(   7) = (   6.4157353   3.7041265  12.0953704  )
         8           Cr1 tau(   8) = (   3.8494412   3.7041265  12.0953704  )
         9           Cr1 tau(   9) = (   0.0000000   0.0000000  14.1907408  )
        10           Cr1 tau(  10) = (   2.5662941   0.0000000  14.1907408  )
        11           Cr1 tau(  11) = (   1.2831471   2.2224759  14.1907408  )
        12           Cr1 tau(  12) = (   3.8494412   2.2224759  14.1907408  )
        13           O1  tau(  13) = (   1.2831471   0.7408253  15.5232408  )

     number of k points=    20  Fermi-Dirac smearing, width (Ry)=  0.0110
                       cart. coord. in units 2pi/alat
        k(    1) = (   0.0000000   0.0000000   0.0000000), wk =   0.0555556
        k(    2) = (   0.0000000   0.0374957   0.0000000), wk =   0.1111111
        k(    3) = (   0.0000000   0.0749914   0.0000000), wk =   0.1111111
        k(    4) = (   0.0000000  -0.1124872   0.0000000), wk =   0.0555556
        k(    5) = (   0.0324722  -0.0187479   0.0000000), wk =   0.1111111
        k(    6) = (   0.0324722   0.0187479   0.0000000), wk =   0.1111111
        k(    7) = (   0.0324722   0.0562436   0.0000000), wk =   0.1111111
        k(    8) = (   0.0324722  -0.1312350   0.0000000), wk =   0.1111111
        k(    9) = (   0.0324722  -0.0937393   0.0000000), wk =   0.1111111
        k(   10) = (   0.0324722  -0.0562436   0.0000000), wk =   0.1111111
        k(   11) = (   0.0649445  -0.0374957   0.0000000), wk =   0.1111111
        k(   12) = (   0.0649445   0.0000000   0.0000000), wk =   0.1111111
        k(   13) = (   0.0649445   0.0374957   0.0000000), wk =   0.1111111
        k(   14) = (   0.0649445  -0.1499829   0.0000000), wk =   0.1111111
        k(   15) = (   0.0649445  -0.1124872   0.0000000), wk =   0.1111111
        k(   16) = (   0.0649445  -0.0749914   0.0000000), wk =   0.1111111
        k(   17) = (  -0.0974167   0.0562436   0.0000000), wk =   0.0555556
        k(   18) = (  -0.0974167   0.0937393   0.0000000), wk =   0.1111111
        k(   19) = (  -0.0974167   0.1312350   0.0000000), wk =   0.1111111
        k(   20) = (  -0.0974167  -0.0562436   0.0000000), wk =   0.0555556

     Largest allocated arrays     est. size (Mb)     dimensions
     Largest temporary arrays     est. size (Mb)     dimensions

     Check: negative/imaginary core charge=   -0.000004    0.000000

     Initial potential from superposition of free atoms
     Check: negative starting charge=   -0.015078

     starting charge  161.99981, renormalised to  174.00000

     negative rho (up, down):  1.619E-02 0.000E+00

     *
     * You are using vdW-DF for exchange-correlation in this calculation.
     * Please cite the following three references that made this development
     * possible:
     *
     *   M. Dion, H. Rydberg, E. Schroder, D. C. Langreth, and
     *   B. I. Lundqvist, Phys. Rev. Lett. 92, 246401 (2004).
     *
     *   T. Thonhauser, V. R. Cooper, S. Li, A. Puzder, P. Hyldgaard, and
     *   D. C. Langreth, Phys. Rev. B 76, 125112 (2007).
     *
     *   G. Roman-Perez and J. M. Soler, Phys. Rev. Lett. 103, 096102 (2009).
     *
     *
     * If you are using vdW-DF2, please also cite:
     *
     *   K. Lee, E. D. Murray, L. Kong, B. I. Lundqvist, and
     *   D. C. Langreth, Phys. Rev. B 82, 081101(R) (2010).
     *
     *
     * If you are calculating the stress with vdW-DF, please also cite:
     *
     *   R. Sabatini, E. Kucukbenli, B. Kolb, T. Thonhauser, and
     *   S. de Gironcoli, J. Phys.: Condens. Matter 24, 424209 (2012).
     *

     Carrying out vdW-DF run using the following parameters:

     Nqs =      20    Nr_points =    1024   r_max =   100.000
     q_mesh =
               0.00001000     0.04494208     0.09755937     0.15916263
               0.23128650     0.31572767     0.41458969     0.53033537
               0.66584808     0.82450364     1.01025438     1.22772762
               1.48234092     1.78043706     2.12944203     2.53805004
               3.01644009     3.57652955     4.23227104     5.00000000

     Gradients computed in reciprocal space

     Adding external electric field

     Computed dipole along edir(3) :
        Dipole               -2.8790 Ry au,         -7.3178 Debye
        Dipole field         -0.0097 Ry au

        Potential amp.        0.8659 Ry
        Total length         44.5710 bohr

     Starting wfc are  124 randomized atomic wfcs

     Self-consistent Calculation

     iteration #  1     ecut=    36.75 Ry     beta=0.30
     Davidson diagonalization with overlap
     ethr =  1.00E-02,  avg # of iterations =  7.5

[...]

     total energy              =   -1915.15568399 Ry
     Harris-Foulkes estimate   =   -2149.21878612 Ry
     estimated scf accuracy    <     486.81634860 Ry

     iteration #  2     ecut=    36.75 Ry     beta=0.30
     Davidson diagonalization with overlap
     c_bands:  2 eigenvalues not converged
     c_bands:  4 eigenvalues not converged
     ethr =  1.00E-02,  avg # of iterations = 18.9

[...]

     End of self-consistent calculation

          k = 0.0000 0.0000 0.0000 ( 14081 PWs)   bands (ev):

   -70.8053 -70.7000 -70.6959 -70.6947 -70.6044 -70.5883 -70.5869 -70.5674
   -70.5577 -70.4691 -70.4680 -70.4628 -42.4596 -42.3514 -42.3510 -42.3323
   -42.2852 -42.2813 -42.2810 -42.1485 -42.1438 -42.1435 -42.0399 -42.0391
   -42.0300 -41.9228 -41.8703 -41.8672 -41.8663 -41.8601 -41.8594 -41.8440
   -41.7804 -41.7796 -41.7549 -41.7546 -41.7479 -41.7469 -41.7003 -41.6715
   -41.6713 -41.6244 -41.6242 -41.6152 -41.6147 -41.6136 -41.4799 -41.4799
   -17.4372  -5.6822  -4.1660  -3.6831  -3.6831  -3.4860  -2.8416  -2.6679
    -2.5847  -2.5844  -2.2211  -2.2209  -2.2085  -1.9347  -1.9346  -1.8495
    -1.6447  -1.6445  -1.3224  -0.7803  -0.7800  -0.2664   0.0607   0.0783
     0.0784   0.0838   0.3298   0.5506   0.5506   0.7190   0.7192   0.8044
     0.8048   0.8204   0.8213   0.8861   0.8863   0.9654   0.9655   1.0267
     1.6970   1.6973   1.8714   1.9168   2.0315   2.0317   2.1666   2.1666
     2.3996

[...]

          k =-0.0974 0.0562 0.0000 ( 14010 PWs)   bands (ev):

[...]

     the Fermi energy is     1.0065 ev

!    total energy              =   -2147.59093791 Ry
     Harris-Foulkes estimate   =   -2147.59157612 Ry
     estimated scf accuracy    <       0.00000450 Ry

     The total energy is the sum of the following terms:

     one-electron contribution =  -20164.04508463 Ry
     hartree contribution      =   10074.61515798 Ry
     xc contribution           =    -286.66219147 Ry
     ewald contribution        =    8228.63377599 Ry
     electric field correction =       0.00005062 Ry
     smearing contrib. (-TS)   =      -0.13264641 Ry

     convergence has been achieved in  52 iterations

 BEEF-vdW xc energy contributions
           1 :   -248.090347713919
           2 :    223.216127094567
           3 :   -181.715437239667
           4 :    136.088514568880
           5 :   -97.6515123075755
           6 :    72.4429090613746
           7 :   -60.1286767044666
           8 :    55.8938492974877
           9 :   -53.8795215139643
          10 :    50.1993986336445
          11 :   -44.1604925387487
          12 :    37.4954002046734
          13 :   -32.4946820985114
          14 :    30.3200349292936
          15 :   -30.4023017777428
          16 :    31.0335432816475
          17 :   -30.5796446431402
          18 :    28.4782638205676
          19 :   -25.4368655875682
          20 :    22.8036948770462
          21 :   -21.6035858039101
          22 :    21.8872557091155
          23 :   -22.7795833013639
          24 :    23.1241416949261
          25 :   -22.2522949586941
          26 :    20.3685995886183
          27 :   -18.3387638882841
          28 :    17.0703175435237
          29 :   -16.9227493815243
          30 :    17.5202079889914
          31 :   -24.5890232201268
          32 :   -17.6393608662905

     Forces acting on atoms (Ry/au):

     negative rho (up, down):  1.474E-02 0.000E+00
     atom    1 type  1   force =    -0.00000443    0.00002077    0.00014747
     atom    2 type  1   force =    -0.00001606    0.00013385   -0.00158382
     atom    3 type  1   force =     0.00009136   -0.00007049   -0.00160610
     atom    4 type  1   force =    -0.00010576   -0.00006864   -0.00157525
     atom    5 type  1   force =     0.00133105   -0.00076258    0.00643361
     atom    6 type  1   force =    -0.00134375   -0.00074949    0.00641117
     atom    7 type  1   force =    -0.00001254   -0.00001054   -0.00495918
     atom    8 type  1   force =    -0.00001843    0.00153692    0.00642204
     atom    9 type  1   force =     0.00109273    0.00065057    0.04605613
     atom   10 type  1   force =    -0.00107930    0.00064180    0.04604439
     atom   11 type  1   force =    -0.00000017   -0.00127965    0.04600898
     atom   12 type  1   force =    -0.00001222   -0.00001072   -0.04297750
     atom   13 type  2   force =     0.00007753   -0.00003182   -0.10482194

     Total force =     0.138555     Total SCF correction =     0.003204

     entering subroutine stress ...

     negative rho (up, down):  1.474E-02 0.000E+00
          total   stress  (Ry/bohr**3)                   (kbar)     P=  -26.98
  -0.00023438  -0.00000004  -0.00000007        -34.48     -0.01     -0.01
  -0.00000004  -0.00023445   0.00000004         -0.01    -34.49      0.01
  -0.00000007   0.00000004  -0.00008131         -0.01      0.01    -11.96

     BFGS Geometry Optimization

     number of scf cycles    =   1
     number of bfgs steps    =   0

     energy   new            =   -2147.5909379143 Ry

     new trust radius        =       0.1048219704 bohr
     new conv_thr            =       0.0000099958 Ry

ATOMIC_POSITIONS (crystal)
Cr1      0.166666667   0.166666667   0.413381306    0   0   0
Cr1      0.666666667   0.166666667   0.413381306    0   0   0
Cr1      0.166666667   0.666666667   0.413381306    0   0   0
Cr1      0.666666667   0.666666667   0.413381306    0   0   0
Cr1      0.833333333   0.333333333   0.500000000    0   0   0
Cr1      0.333333333   0.333333333   0.500000000    0   0   0
Cr1      0.833333333   0.833333333   0.500000000    0   0   0
Cr1      0.333333333   0.833333333   0.500000000    0   0   0
Cr1      0.000073936   0.000077452   0.587626181
Cr1      0.499850519   0.000076407   0.587625924
Cr1      0.000076155   0.499847656   0.587625150
Cr1      0.499999378   0.499998724   0.585678553
O1       0.166676554   0.166662878   0.639408753

     Writing output data file calc.save
     Check: negative starting charge=   -0.015078
     NEW-OLD atomic charge density approx. for the potential

     Check: negative/imaginary core charge=   -0.000004    0.000000
     Check: negative starting charge=   -0.014713

[...]

     energy   old            =   -2147.5909379143 Ry
     energy   new            =   -2147.6077622104 Ry

     CASE: energy  _new < energy  _old

[...]

     Total force =     0.005602     Total SCF correction =     0.000454

[...]

     number of scf cycles    =  10
     number of bfgs steps    =   9

     energy   old            =   -2147.6429911371 Ry
     energy   new            =   -2147.6431895835 Ry

     CASE: energy  _new < energy  _old

     new trust radius        =       0.0067407822 bohr
     new conv_thr            =       0.0000001000 Ry

ATOMIC_POSITIONS (crystal)
Cr1      0.166666667   0.166666667   0.413381306    0   0   0
Cr1      0.666666667   0.166666667   0.413381306    0   0   0
Cr1      0.166666667   0.666666667   0.413381306    0   0   0
Cr1      0.666666667   0.666666667   0.413381306    0   0   0
Cr1      0.833333333   0.333333333   0.500000000    0   0   0
Cr1      0.333333333   0.333333333   0.500000000    0   0   0
Cr1      0.833333333   0.833333333   0.500000000    0   0   0
Cr1      0.333333333   0.833333333   0.500000000    0   0   0
Cr1     -0.004820440  -0.004829012   0.589702137
Cr1      0.509677948  -0.004837249   0.589700785
Cr1     -0.004822645   0.509658502   0.589700819
Cr1      0.500004134   0.499996870   0.569925731
O1       0.166682411   0.166665120   0.635311023

     Writing output data file calc.save
     Check: negative starting charge=   -0.014748
     NEW-OLD atomic charge density approx. for the potential

     Check: negative/imaginary core charge=   -0.000004    0.000000
     Check: negative starting charge=   -0.014725

[...]

     Self-consistent Calculation

[...]

     total energy              =   -2147.64321895 Ry
     Harris-Foulkes estimate   =   -2147.64321896 Ry
     estimated scf accuracy    <       0.00000018 Ry

     iteration # 20     ecut=    36.75 Ry     beta=0.30
     Davidson diagonalization with overlap
     ethr =  1.06E-10,  avg # of iterations =  5.0

[...]

     negative rho (up, down):  1.449E-02 0.000E+00

     Adding external electric field

     Computed dipole along edir(3) :
        Dipole               -0.0226 Ry au,         -0.0574 Debye
        Dipole field         -0.0001 Ry au

        Potential amp.        0.0068 Ry
        Total length         44.5710 bohr

     End of self-consistent calculation

[...]

          k = 0.0649-0.0750 0.0000 ( 13990 PWs)   bands (ev):

[...]

          k =-0.0974-0.0562 0.0000 ( 14010 PWs)   bands (ev):

   -70.6667 -70.6315 -70.5974 -70.5609 -70.5450 -70.4678 -70.4358 -70.3739
   -70.3660 -70.3327 -70.3162 -70.3124 -42.3024 -42.2855 -42.1590 -42.1564
   -42.1288 -42.0928 -42.0168 -41.9974 -41.9799 -41.9376 -41.9186 -41.8908
   -41.8868 -41.8681 -41.8445 -41.7947 -41.7700 -41.7592 -41.7393 -41.7323
   -41.7007 -41.6827 -41.6489 -41.6427 -41.6367 -41.6050 -41.6033 -41.5974
   -41.5924 -41.5687 -41.5482 -41.4487 -41.4240 -41.3931 -41.3856 -41.3375
   -18.2020  -4.7343  -4.3314  -4.1752  -3.6009  -3.4959  -2.3152  -2.0827
    -1.8463  -1.8345  -1.7261  -1.7195  -1.6775  -1.2769  -1.1774  -1.0772
    -0.9429  -0.9429  -0.7656  -0.6908  -0.5201  -0.4272  -0.3226  -0.2780
    -0.2332  -0.2097  -0.0598   0.0239   0.1336   0.3165   0.4149   0.4273
     0.5000   0.5938   0.6246   0.8054   0.8337   0.8365   0.9558   1.0472
     1.1275   1.4424   1.5717   1.6371   1.6560   1.7254   1.7863   1.8526
     2.0305

     the Fermi energy is     1.1746 ev

!    total energy              =   -2147.64321890 Ry
     Harris-Foulkes estimate   =   -2147.64321876 Ry
     estimated scf accuracy    <       0.00000007 Ry

     The total energy is the sum of the following terms:

     one-electron contribution =  -20326.44465982 Ry
     hartree contribution      =   10156.36106883 Ry
     xc contribution           =    -286.90324304 Ry
     ewald contribution        =    8309.46389034 Ry
     electric field correction =       0.00000172 Ry
     smearing contrib. (-TS)   =      -0.12027694 Ry

     convergence has been achieved in  20 iterations

 BEEF-vdW xc energy contributions
           1 :   -248.359232528955
           2 :    223.553464801091
           3 :   -182.113698493888
           4 :    136.455047592294
           5 :   -97.8609682241687
           6 :    72.4080971762764
           7 :   -59.8516562363623
           8 :    55.4718264857705
           9 :   -53.4620629347800
          10 :    49.9161031669897
          11 :   -44.0546641265633
          12 :    37.5020968313872
          13 :   -32.4813408505475
          14 :    30.1690955368924
          15 :   -30.0864232689505
          16 :    30.6342708577772
          17 :   -30.2344372630121
          18 :    28.2902417735748
          19 :   -25.4088358256606
          20 :    22.8396451013382
          21 :   -21.5732006736185
          22 :    21.7083668000782
          23 :   -22.4667331205117
          24 :    22.7771329703098
          25 :   -21.9947650882409
          26 :    20.2738604652580
          27 :   -18.3858544168336
          28 :    17.1555164628191
          29 :   -16.9211060943788
          30 :    17.3620020592035
          31 :   -24.6049237697599
          32 :   -17.6647703530786

     Forces acting on atoms (Ry/au):

     negative rho (up, down):  1.449E-02 0.000E+00
     atom    1 type  1   force =    -0.00000109    0.00000006    0.00750020
     atom    2 type  1   force =     0.00000071    0.00024806   -0.00307761
     atom    3 type  1   force =     0.00021514   -0.00012360   -0.00307700
     atom    4 type  1   force =    -0.00021579   -0.00012588   -0.00308107
     atom    5 type  1   force =     0.02108097   -0.01217007   -0.00478523
     atom    6 type  1   force =    -0.02107991   -0.01217190   -0.00478565
     atom    7 type  1   force =     0.00000106   -0.00000059    0.02016401
     atom    8 type  1   force =     0.00000135    0.02433855   -0.00478534
     atom    9 type  1   force =    -0.00011335   -0.00006794   -0.00078794
     atom   10 type  1   force =     0.00010683   -0.00006207   -0.00077709
     atom   11 type  1   force =     0.00000239    0.00013222   -0.00078127
     atom   12 type  1   force =     0.00000583   -0.00000220   -0.00006828
     atom   13 type  2   force =    -0.00000413    0.00000537   -0.00165774

     Total force =     0.002154     Total SCF correction =     0.000434
     SCF correction compared to forces is large: reduce conv_thr to get better values

     entering subroutine stress ...

     negative rho (up, down):  1.449E-02 0.000E+00
          total   stress  (Ry/bohr**3)                   (kbar)     P=  -15.73
  -0.00015356   0.00000001  -0.00000000        -22.59      0.00     -0.00
   0.00000001  -0.00015355  -0.00000001          0.00    -22.59     -0.00
  -0.00000000  -0.00000001  -0.00001364         -0.00     -0.00     -2.01

     bfgs converged in  11 scf cycles and  10 bfgs steps
     (criteria: energy <  1.0E+00, force <  1.9E-03)

     End of BFGS Geometry Optimization

     Final energy   =   -2147.6432189029 Ry
Begin final coordinates

ATOMIC_POSITIONS (crystal)
Cr1      0.166666667   0.166666667   0.413381306    0   0   0
Cr1      0.666666667   0.166666667   0.413381306    0   0   0
Cr1      0.166666667   0.666666667   0.413381306    0   0   0
Cr1      0.666666667   0.666666667   0.413381306    0   0   0
Cr1      0.833333333   0.333333333   0.500000000    0   0   0
Cr1      0.333333333   0.333333333   0.500000000    0   0   0
Cr1      0.833333333   0.833333333   0.500000000    0   0   0
Cr1      0.333333333   0.833333333   0.500000000    0   0   0
Cr1     -0.004820440  -0.004829012   0.589702137
Cr1      0.509677948  -0.004837249   0.589700785
Cr1     -0.004822645   0.509658502   0.589700819
Cr1      0.500004134   0.499996870   0.569925731
O1       0.166682411   0.166665120   0.635311023
End final coordinates

     Writing output data file calc.save

     General routines

     Parallel routines

   This run was terminated on:  15:40:17   2May2018

   JOB DONE.
Job  /afs/slac/g/suncat/bin/suncat-tsmpirun -x LD_LIBRARY_PATH -wdir /scratch/qe676941_eR51a pw.x -npool 4 -in pw.inp

TID   HOST_NAME   COMMAND_LINE            STATUS            TERMINATION_TIME
00000 suncat0142 pw.x -npool 4 -i  Done                     05/02/2018 15:40:17
00001 suncat0142 pw.x -npool 4 -i  Done                     05/02/2018 15:40:17
00002 suncat0142 pw.x -npool 4 -i  Done                     05/02/2018 15:40:17
00003 suncat0142 pw.x -npool 4 -i  Done                     05/02/2018 15:40:17
00004 suncat0142 pw.x -npool 4 -i  Done                     05/02/2018 15:40:17
00005 suncat0142 pw.x -npool 4 -i  Done                     05/02/2018 15:40:17
00006 suncat0142 pw.x -npool 4 -i  Done                     05/02/2018 15:40:17
00007 suncat0142 pw.x -npool 4 -i  Done                     05/02/2018 15:40:17
00008 suncat0126 pw.x -npool 4 -i  Done                     05/02/2018 15:40:17
00009 suncat0126 pw.x -npool 4 -i  Done                     05/02/2018 15:40:17
00010 suncat0126 pw.x -npool 4 -i  Done                     05/02/2018 15:40:17
00011 suncat0126 pw.x -npool 4 -i  Done                     05/02/2018 15:40:17
00012 suncat0126 pw.x -npool 4 -i  Done                     05/02/2018 15:40:17
00013 suncat0126 pw.x -npool 4 -i  Done                     05/02/2018 15:40:17
00014 suncat0126 pw.x -npool 4 -i  Done                     05/02/2018 15:40:17
00015 suncat0126 pw.x -npool 4 -i  Done                     05/02/2018 15:40:17
00016 suncat0114 pw.x -npool 4 -i  Done                     05/02/2018 15:40:17
00017 suncat0114 pw.x -npool 4 -i  Done                     05/02/2018 15:40:17
00018 suncat0114 pw.x -npool 4 -i  Done                     05/02/2018 15:40:17
00019 suncat0114 pw.x -npool 4 -i  Done                     05/02/2018 15:40:17
00020 suncat0114 pw.x -npool 4 -i  Done                     05/02/2018 15:40:17
00021 suncat0114 pw.x -npool 4 -i  Done                     05/02/2018 15:40:17
00022 suncat0114 pw.x -npool 4 -i  Done                     05/02/2018 15:40:17
00023 suncat0114 pw.x -npool 4 -i  Done                     05/02/2018 15:40:17
00024 suncat0110 pw.x -npool 4 -i  Done                     05/02/2018 15:40:17
00025 suncat0110 pw.x -npool 4 -i  Done                     05/02/2018 15:40:17
00026 suncat0110 pw.x -npool 4 -i  Done                     05/02/2018 15:40:17
00027 suncat0110 pw.x -npool 4 -i  Done                     05/02/2018 15:40:17
00028 suncat0110 pw.x -npool 4 -i  Done                     05/02/2018 15:40:17
00029 suncat0110 pw.x -npool 4 -i  Done                     05/02/2018 15:40:17
00030 suncat0110 pw.x -npool 4 -i  Done                     05/02/2018 15:40:17
00031 suncat0110 pw.x -npool 4 -i  Done                     05/02/2018 15:40:17