     Program PWSCF v.5.1rc2 (svn rev. 11289) starts on 14Jan2018 at 13:12:15

     Current dimensions of program PWSCF are:
     Max number of different atomic species (ntypx) = 10
     Max number of k-points (npk) =  40000
     Max angular momentum in pseudopotentials (lmaxx) =  3
     Presently stress not available with electric field

     IMPORTANT: XC functional enforced from input :
     Exchange-correlation      = BEEF-VDW ( 1  4 27 13 2)
     Any further DFT definition will be discarded
     Please, verify this is what you really want

     Subspace diagonalization in iterative solution of the eigenvalue problem:
     a serial algorithm will be used

     bravais-lattice index     =            0
     lattice parameter (alat)  =       1.8897  a.u.
     unit-cell volume          =    4299.0717 (a.u.)^3
     number of atoms/cell      =           13
     number of atomic types    =            2
     number of electrons       =       186.00
     number of Kohn-Sham states=          103
     kinetic-energy cutoff     =      36.7493  Ry
     charge density cutoff     =     367.4932  Ry
     convergence threshold     =      1.0E-05
     mixing beta               =       0.3000
     number of iterations used =           10  plain     mixing
     Exchange-correlation      = BEEF-VDW ( 1  4 27 13 2)
     nstep                     =           50

     celldm(1)=   1.889726  celldm(2)=   0.000000  celldm(3)=   0.000000
     celldm(4)=   0.000000  celldm(5)=   0.000000  celldm(6)=   0.000000

     crystal axes: (cart. coord. in units of alat)
               a(1) = (   5.482164   0.000000   0.000000 )
               a(2) = (   2.741082   4.747693   0.000000 )
               a(3) = (   0.000000   0.000000  24.476168 )

     reciprocal axes: (cart. coord. in units 2 pi/alat)
               b(1) = (  0.182410 -0.105314  0.000000 )
               b(2) = (  0.000000  0.210629  0.000000 )
               b(3) = (  0.000000  0.000000  0.040856 )

     PseudoPot. # 1 for Ir read from file:
     /afs/slac.stanford.edu/u/if/mamunm/psp/gbrv1.5pbe/Ir.UPF
     MD5 check sum: 8836f839c3459d2b385c504ce6d91f2c
     Pseudo is Ultrasoft + core correction, Zval = 15.0
     Generated by new atomic code, or converted to UPF format
     Using radial grid of  983 points,  7 beta functions with:
                l(1) =   0
                l(2) =   0
                l(3) =   1
                l(4) =   1
                l(5) =   1
                l(6) =   2
                l(7) =   2
     Q(r) pseudized with  8 coefficients,  rinner =    1.400   1.400   1.400
                                                       1.400   1.400

     PseudoPot. # 2 for O  read from file:
     /afs/slac.stanford.edu/u/if/mamunm/psp/gbrv1.5pbe/O.UPF
     MD5 check sum: 734c27235a0248c51dbae37a1fbe46ec
     Pseudo is Ultrasoft + core correction, Zval =  6.0
     Generated by new atomic code, or converted to UPF format
     Using radial grid of  737 points,  5 beta functions with:
                l(1) =   0
                l(2) =   0
                l(3) =   1
                l(4) =   1
                l(5) =   2
     Q(r) pseudized with  8 coefficients,  rinner =    0.900   0.900   0.900
                                                       0.900   0.900

     vdW kernel table read from file vdW_kernel_table
     MD5 check sum: 095c7af220d748ca6e76c0b4c6cfb241

     atomic species   valence    mass     pseudopotential
        Ir1           15.00   192.21700     Ir( 1.00)
        O1             6.00    15.99900     O ( 1.00)

     No symmetry found

   Cartesian axes

     site n.     atom                  positions (alat units)
         1           Ir1 tau(   1) = (   1.3705410   0.7912822  10.0000000  )
         2           Ir1 tau(   2) = (   4.1116229   0.7912822  10.0000000  )
         3           Ir1 tau(   3) = (   2.7410819   3.1651288  10.0000000  )
         4           Ir1 tau(   4) = (   5.4821639   3.1651288  10.0000000  )
         5           Ir1 tau(   5) = (   5.4821639   1.5825644  12.2380840  )
         6           Ir1 tau(   6) = (   2.7410819   1.5825644  12.2380840  )
         7           Ir1 tau(   7) = (   6.8527049   3.9564110  12.2380840  )
         8           Ir1 tau(   8) = (   4.1116229   3.9564110  12.2380840  )
         9           Ir1 tau(   9) = (   0.0000000   0.0000000  14.4761681  )
        10           Ir1 tau(  10) = (   2.7410819   0.0000000  14.4761681  )
        11           Ir1 tau(  11) = (   1.3705410   2.3738466  14.4761681  )
        12           Ir1 tau(  12) = (   4.1116229   2.3738466  14.4761681  )
        13           O1  tau(  13) = (   2.7410819   1.5825644  16.5461681  )

     number of k points=    20  Fermi-Dirac smearing, width (Ry)=  0.0110
                       cart. coord. in units 2pi/alat
        k(    1) = (   0.0000000   0.0000000   0.0000000), wk =   0.0555556
        k(    2) = (   0.0000000   0.0351048   0.0000000), wk =   0.1111111
        k(    3) = (   0.0000000   0.0702095   0.0000000), wk =   0.1111111
        k(    4) = (   0.0000000  -0.1053143   0.0000000), wk =   0.0555556
        k(    5) = (   0.0304016  -0.0175524   0.0000000), wk =   0.1111111
        k(    6) = (   0.0304016   0.0175524   0.0000000), wk =   0.1111111
        k(    7) = (   0.0304016   0.0526572   0.0000000), wk =   0.1111111
        k(    8) = (   0.0304016  -0.1228667   0.0000000), wk =   0.1111111
        k(    9) = (   0.0304016  -0.0877619   0.0000000), wk =   0.1111111
        k(   10) = (   0.0304016  -0.0526572   0.0000000), wk =   0.1111111
        k(   11) = (   0.0608032  -0.0351048   0.0000000), wk =   0.1111111
        k(   12) = (   0.0608032   0.0000000   0.0000000), wk =   0.1111111
        k(   13) = (   0.0608032   0.0351048   0.0000000), wk =   0.1111111
        k(   14) = (   0.0608032  -0.1404191   0.0000000), wk =   0.1111111
        k(   15) = (   0.0608032  -0.1053143   0.0000000), wk =   0.1111111
        k(   16) = (   0.0608032  -0.0702095   0.0000000), wk =   0.1111111
        k(   17) = (  -0.0912049   0.0526572   0.0000000), wk =   0.0555556
        k(   18) = (  -0.0912049   0.0877619   0.0000000), wk =   0.1111111
        k(   19) = (  -0.0912049   0.1228667   0.0000000), wk =   0.1111111
        k(   20) = (  -0.0912049  -0.0526572   0.0000000), wk =   0.0555556

     Largest allocated arrays     est. size (Mb)     dimensions
     Largest temporary arrays     est. size (Mb)     dimensions

     Initial potential from superposition of free atoms
     Check: negative starting charge=   -4.361939

     starting charge  179.99962, renormalised to  186.00000

     negative rho (up, down):  4.507E+00 0.000E+00

     *
     * You are using vdW-DF for exchange-correlation in this calculation.
     * Please cite the following three references that made this development
     * possible:
     *
     *   M. Dion, H. Rydberg, E. Schroder, D. C. Langreth, and
     *   B. I. Lundqvist, Phys. Rev. Lett. 92, 246401 (2004).
     *
     *   T. Thonhauser, V. R. Cooper, S. Li, A. Puzder, P. Hyldgaard, and
     *   D. C. Langreth, Phys. Rev. B 76, 125112 (2007).
     *
     *   G. Roman-Perez and J. M. Soler, Phys. Rev. Lett. 103, 096102 (2009).
     *
     *
     * If you are using vdW-DF2, please also cite:
     *
     *   K. Lee, E. D. Murray, L. Kong, B. I. Lundqvist, and
     *   D. C. Langreth, Phys. Rev. B 82, 081101(R) (2010).
     *
     *
     * If you are calculating the stress with vdW-DF, please also cite:
     *
     *   R. Sabatini, E. Kucukbenli, B. Kolb, T. Thonhauser, and
     *   S. de Gironcoli, J. Phys.: Condens. Matter 24, 424209 (2012).
     *

     Carrying out vdW-DF run using the following parameters:

     Nqs =      20    Nr_points =    1024   r_max =   100.000
     q_mesh =
               0.00001000     0.04494208     0.09755937     0.15916263
               0.23128650     0.31572767     0.41458969     0.53033537
               0.66584808     0.82450364     1.01025438     1.22772762
               1.48234092     1.78043706     2.12944203     2.53805004
               3.01644009     3.57652955     4.23227104     5.00000000

     Gradients computed in reciprocal space

     Adding external electric field

     Computed dipole along edir(3) :
        Dipole               -1.6283 Ry au,         -4.1387 Debye
        Dipole field         -0.0048 Ry au

        Potential amp.        0.4293 Ry
        Total length         45.0969 bohr

     Starting wfc are  148 randomized atomic wfcs

     Self-consistent Calculation

     iteration #  1     ecut=    36.75 Ry     beta=0.30
     Davidson diagonalization with overlap
     ethr =  1.00E-02,  avg # of iterations =  3.4

[...]

     total energy              =   -2194.53675634 Ry
     Harris-Foulkes estimate   =   -2234.77532791 Ry
     estimated scf accuracy    <      84.64707918 Ry

[...]

     End of self-consistent calculation

          k = 0.0000 0.0000 0.0000 ( 16073 PWs)   bands (ev):

   -48.3414 -48.3221 -48.3220 -48.2012 -48.1163 -48.1157 -48.1155 -47.9243
   -47.9242 -47.8998 -47.8911 -47.8383 -47.8378 -47.7821 -47.7820 -47.7328
   -47.7325 -47.7308 -47.5698 -47.5687 -47.5572 -47.5147 -47.4385 -47.4375
   -47.3873 -47.3736 -47.3733 -47.3599 -47.3315 -47.3144 -47.3141 -47.3092
   -47.3084 -47.3040 -47.2411 -47.2410 -14.2090  -7.7024  -5.7838  -5.4463
    -5.1399  -5.1380  -5.1379  -4.8497  -4.8341  -4.8341  -4.3405  -4.3402
    -4.3401  -4.0655  -4.0463  -4.0463  -2.6299  -2.5660  -2.5660  -2.0623
    -2.0222  -2.0222  -1.8316  -1.6841  -1.6840  -1.4768  -1.2308  -1.2308
    -1.1880  -1.1879  -1.1756  -0.9226  -0.9226  -0.7612  -0.7610  -0.5838
    -0.1228   0.3259   0.3259   0.6692   0.7359   0.7359   0.7666   0.7668
     0.8986   0.9752   0.9753   1.5121   1.5121   1.5285   2.1586   2.1958
     2.1958   2.2058   2.3824   2.3824   2.4592   2.4594   2.7303   2.7328
     2.7329   2.7466   3.0805   3.0806   3.1708   3.2170   3.2173

[...]

          k =-0.0912 0.0527 0.0000 ( 16164 PWs)   bands (ev):

[...]

     the Fermi energy is     1.7919 ev

!    total energy              =   -2232.13675006 Ry
     Harris-Foulkes estimate   =   -2232.13680997 Ry
     estimated scf accuracy    <       0.00000528 Ry

     The total energy is the sum of the following terms:

     one-electron contribution =  -18791.83585262 Ry
     hartree contribution      =    9425.24379654 Ry
     xc contribution           =    -630.78207838 Ry
     ewald contribution        =    7765.33449755 Ry
     electric field correction =       0.00072479 Ry
     smearing contrib. (-TS)   =      -0.09783794 Ry

     convergence has been achieved in  19 iterations

 BEEF-vdW xc energy contributions
           1 :   -558.475567653410
           2 :    519.140461592944
           3 :   -449.002616614560
           4 :    362.034814536604
           5 :   -273.394028389666
           6 :    195.554631856572
           7 :   -135.744322377307
           8 :    95.2090956239470
           9 :   -70.3146091535785
          10 :    54.8878015075253
          11 :   -42.8476609715493
          12 :    30.1868020675063
          13 :   -15.7704998536209
          14 :   0.932430764688547
          15 :    11.7551914475415
[...]

[...]

     Total force =     0.054334     Total SCF correction =     0.024442
     SCF correction compared to forces is large: reduce conv_thr to get better values

[...]

   This run was terminated on:  14:52:10  14Jan2018

[...]

     Program PWSCF v.5.1rc2 (svn rev. 11289) starts on 14Jan2018 at 14:52:15

     Current dimensions of program PWSCF are:
     Max number of different atomic species (ntypx) = 10
     Max number of k-points (npk) =  40000
     Max angular momentum in pseudopotentials (lmaxx) =  3
     Presently stress not available with electric field

     IMPORTANT: XC functional enforced from input :
     Exchange-correlation      = BEEF-VDW ( 1  4 27 13 2)
     Any further DFT definition will be discarded
     Please, verify this is what you really want

     Subspace diagonalization in iterative solution of the eigenvalue problem:
     a serial algorithm will be used

     bravais-lattice index     =            0
     lattice parameter (alat)  =       1.8897  a.u.
     unit-cell volume          =    4299.0717 (a.u.)^3
     number of atoms/cell      =           13
     number of atomic types    =            2
     number of electrons       =       186.00
     number of Kohn-Sham states=          103
     kinetic-energy cutoff     =      36.7493  Ry
     charge density cutoff     =     367.4932  Ry
     convergence threshold     =      1.0E-05
     mixing beta               =       0.3000
     number of iterations used =           10  plain     mixing
     Exchange-correlation      = BEEF-VDW ( 1  4 27 13 2)
     nstep                     =           50

     celldm(1)=   1.889726  celldm(2)=   0.000000  celldm(3)=   0.000000
     celldm(4)=   0.000000  celldm(5)=   0.000000  celldm(6)=   0.000000

     crystal axes: (cart. coord. in units of alat)
               a(1) = (   5.482164   0.000000   0.000000 )
               a(2) = (   2.741082   4.747693   0.000000 )
               a(3) = (   0.000000   0.000000  24.476168 )

     reciprocal axes: (cart. coord. in units 2 pi/alat)
               b(1) = (  0.182410 -0.105314  0.000000 )
               b(2) = (  0.000000  0.210629  0.000000 )
               b(3) = (  0.000000  0.000000  0.040856 )

     PseudoPot. # 1 for Ir read from file:
     /afs/slac.stanford.edu/u/if/mamunm/psp/gbrv1.5pbe/Ir.UPF
     MD5 check sum: 8836f839c3459d2b385c504ce6d91f2c
     Pseudo is Ultrasoft + core correction, Zval = 15.0
     Generated by new atomic code, or converted to UPF format
     Using radial grid of  983 points,  7 beta functions with:
                l(1) =   0
                l(2) =   0
                l(3) =   1
                l(4) =   1
                l(5) =   1
                l(6) =   2
                l(7) =   2
     Q(r) pseudized with  8 coefficients,  rinner =    1.400   1.400   1.400
                                                       1.400   1.400

     PseudoPot. # 2 for O  read from file:
     /afs/slac.stanford.edu/u/if/mamunm/psp/gbrv1.5pbe/O.UPF
     MD5 check sum: 734c27235a0248c51dbae37a1fbe46ec
     Pseudo is Ultrasoft + core correction, Zval =  6.0
     Generated by new atomic code, or converted to UPF format
     Using radial grid of  737 points,  5 beta functions with:
                l(1) =   0
                l(2) =   0
                l(3) =   1
                l(4) =   1
                l(5) =   2
     Q(r) pseudized with  8 coefficients,  rinner =    0.900   0.900   0.900
                                                       0.900   0.900

     vdW kernel table read from file vdW_kernel_table
     MD5 check sum: 095c7af220d748ca6e76c0b4c6cfb241

     atomic species   valence    mass     pseudopotential
        Ir1           15.00   192.21700     Ir( 1.00)
        O1             6.00    15.99900     O ( 1.00)

     No symmetry found

   Cartesian axes

     site n.     atom                  positions (alat units)
         1           Ir1 tau(   1) = (   1.3705410   0.7912822  10.0000000  )
         2           Ir1 tau(   2) = (   4.1116229   0.7912822  10.0000000  )
         3           Ir1 tau(   3) = (   2.7410819   3.1651288  10.0000000  )
         4           Ir1 tau(   4) = (   5.4821639   3.1651288  10.0000000  )
         5           Ir1 tau(   5) = (   5.4821639   1.5825644  12.2380840  )
         6           Ir1 tau(   6) = (   2.7410819   1.5825644  12.2380840  )
         7           Ir1 tau(   7) = (   6.8527049   3.9564110  12.2380840  )
         8           Ir1 tau(   8) = (   4.1116229   3.9564110  12.2380840  )
         9           Ir1 tau(   9) = (   8.2232216   4.7476577  14.3849515  )
        10           Ir1 tau(  10) = (   5.4821540   4.7068083  14.4873025  )
        11           Ir1 tau(  11) = (   6.8173209   2.3942903  14.4873478  )
        12           Ir1 tau(  12) = (   4.1469359   2.3942573  14.4873442  )
        13           O1  tau(  13) = (   2.7410141   1.5825635  15.7613832  )

     number of k points=    20  Fermi-Dirac smearing, width (Ry)=  0.0110
                       cart. coord. in units 2pi/alat
        k(    1) = (   0.0000000   0.0000000   0.0000000), wk =   0.0555556
        k(    2) = (   0.0000000   0.0351048   0.0000000), wk =   0.1111111
        k(    3) = (   0.0000000   0.0702095   0.0000000), wk =   0.1111111
        k(    4) = (   0.0000000  -0.1053143   0.0000000), wk =   0.0555556
        k(    5) = (   0.0304016  -0.0175524   0.0000000), wk =   0.1111111
        k(    6) = (   0.0304016   0.0175524   0.0000000), wk =   0.1111111
        k(    7) = (   0.0304016   0.0526572   0.0000000), wk =   0.1111111
        k(    8) = (   0.0304016  -0.1228667   0.0000000), wk =   0.1111111
        k(    9) = (   0.0304016  -0.0877619   0.0000000), wk =   0.1111111
        k(   10) = (   0.0304016  -0.0526572   0.0000000), wk =   0.1111111
        k(   11) = (   0.0608032  -0.0351048   0.0000000), wk =   0.1111111
        k(   12) = (   0.0608032   0.0000000   0.0000000), wk =   0.1111111
        k(   13) = (   0.0608032   0.0351048   0.0000000), wk =   0.1111111
        k(   14) = (   0.0608032  -0.1404191   0.0000000), wk =   0.1111111
        k(   15) = (   0.0608032  -0.1053143   0.0000000), wk =   0.1111111
        k(   16) = (   0.0608032  -0.0702095   0.0000000), wk =   0.1111111
        k(   17) = (  -0.0912049   0.0526572   0.0000000), wk =   0.0555556
        k(   18) = (  -0.0912049   0.0877619   0.0000000), wk =   0.1111111
        k(   19) = (  -0.0912049   0.1228667   0.0000000), wk =   0.1111111
        k(   20) = (  -0.0912049  -0.0526572   0.0000000), wk =   0.0555556

     Largest allocated arrays     est. size (Mb)     dimensions
     Largest temporary arrays     est. size (Mb)     dimensions

     Initial potential from superposition of free atoms
     Check: negative starting charge=   -4.367454

     starting charge  179.99962, renormalised to  186.00000

[...]

     *
     * You are using vdW-DF for exchange-correlation in this calculation.
     * Please cite the following three references that made this development
     * possible:
     *
     *   M. Dion, H. Rydberg, E. Schroder, D. C. Langreth, and
     *   B. I. Lundqvist, Phys. Rev. Lett. 92, 246401 (2004).
     *
     *   T. Thonhauser, V. R. Cooper, S. Li, A. Puzder, P. Hyldgaard, and
     *   D. C. Langreth, Phys. Rev. B 76, 125112 (2007).
     *
     *   G. Roman-Perez and J. M. Soler, Phys. Rev. Lett. 103, 096102 (2009).
     *
     *
     * If you are using vdW-DF2, please also cite:
     *
     *   K. Lee, E. D. Murray, L. Kong, B. I. Lundqvist, and
     *   D. C. Langreth, Phys. Rev. B 82, 081101(R) (2010).
     *
     *
     * If you are calculating the stress with vdW-DF, please also cite:
     *
     *   R. Sabatini, E. Kucukbenli, B. Kolb, T. Thonhauser, and
     *   S. de Gironcoli, J. Phys.: Condens. Matter 24, 424209 (2012).
     *

     Carrying out vdW-DF run using the following parameters:

     Nqs =      20    Nr_points =    1024   r_max =   100.000
     q_mesh =
               0.00001000     0.04494208     0.09755937     0.15916263
               0.23128650     0.31572767     0.41458969     0.53033537
               0.66584808     0.82450364     1.01025438     1.22772762
               1.48234092     1.78043706     2.12944203     2.53805004
               3.01644009     3.57652955     4.23227104     5.00000000

     Gradients computed in reciprocal space

[...]

     Starting wfc are  148 randomized atomic wfcs

     Self-consistent Calculation

[...]

     iteration #  2     ecut=    36.75 Ry     beta=0.30
     Davidson diagonalization with overlap
     c_bands:  1 eigenvalues not converged
     c_bands:  1 eigenvalues not converged
     c_bands:  1 eigenvalues not converged
     c_bands:  1 eigenvalues not converged
     ethr =  1.00E-02,  avg # of iterations = 17.9

[...]

     total energy              =   -2232.28293129 Ry
     Harris-Foulkes estimate   =   -2232.28293491 Ry
     estimated scf accuracy    <       0.00001455 Ry

     iteration # 20     ecut=    36.75 Ry     beta=0.30
     Davidson diagonalization with overlap
     ethr =  7.82E-09,  avg # of iterations =  1.1

[...]

     negative rho (up, down):  3.883E+00 0.000E+00

     Adding external electric field

     Computed dipole along edir(3) :
        Dipole               -0.0676 Ry au,         -0.1719 Debye
        Dipole field         -0.0002 Ry au

        Potential amp.        0.0178 Ry
        Total length         45.0969 bohr

     End of self-consistent calculation

[...]

          k = 0.0608-0.0702 0.0000 ( 16191 PWs)   bands (ev):

[...]

          k =-0.0912-0.0527 0.0000 ( 16164 PWs)   bands (ev):

   -47.7323 -47.6258 -47.5847 -47.5417 -47.5006 -47.4835 -47.4575 -47.4346
   -47.4229 -47.3953 -47.3399 -47.3200 -47.2820 -47.2718 -47.2575 -47.2071
   -47.1646 -47.1103 -47.0628 -47.0240 -47.0132 -47.0004 -46.9767 -46.8696
   -46.8636 -46.8461 -46.8351 -46.8293 -46.7762 -46.7422 -46.7088 -46.6983
   -46.6882 -46.6862 -46.6739 -46.6685 -17.1678  -5.4903  -5.2237  -4.4402
    -4.0044  -3.8452  -3.7990  -3.5400  -3.4783  -3.3986  -3.3910  -3.3213
    -3.0000  -2.8991  -2.7805  -2.7305  -2.5323  -2.4054  -2.3708  -2.0830
    -1.9303  -1.8858  -1.8438  -1.7588  -1.5973  -1.5560  -1.2701  -1.1239
    -0.9250  -0.8300  -0.8256  -0.7360  -0.5707  -0.4501  -0.3631  -0.3629
    -0.3558  -0.2884  -0.2346  -0.2248  -0.1549   0.0106   0.1995   0.5521
     0.6132   0.6643   0.8373   0.9963   1.0141   1.0809   1.1628   1.3594
     1.4050   1.5572   1.7578   1.9015   1.9799   2.1029   2.1234   2.4048
     2.5566   2.8742   2.9217   3.0886   3.1873   3.4581   3.6186

     the Fermi energy is     2.4379 ev

!    total energy              =   -2232.28293050 Ry
     Harris-Foulkes estimate   =   -2232.28292985 Ry
     estimated scf accuracy    <       0.00000078 Ry

     The total energy is the sum of the following terms:

     one-electron contribution =  -19119.66819463 Ry
     hartree contribution      =    9591.84111724 Ry
     xc contribution           =    -631.24182268 Ry
     ewald contribution        =    7926.88052607 Ry
     electric field correction =       0.00001337 Ry
     smearing contrib. (-TS)   =      -0.09456987 Ry

     convergence has been achieved in  20 iterations

 BEEF-vdW xc energy contributions
           1 :   -558.962498754128
           2 :    519.824873987698
           3 :   -449.895304495794
           4 :    362.951271945854
           5 :   -274.080675745102
           6 :    195.829639946770
           7 :   -135.583524358387
           8 :    94.7495209573503
           9 :   -69.7850626178267
          10 :    54.5052364267974
          11 :   -42.7295256449172
          12 :    30.3200342745033
          13 :   -16.0440561765868
          14 :    1.20478531826984
          15 :    11.5928953100715
          16 :   -19.9441512351930
          17 :    22.7949009459668
          18 :   -20.8527930357782
          19 :    16.2108491321715
          20 :   -11.4475592913988
          21 :    8.62309771103401
          22 :   -8.57928622651980
          23 :    10.7900446564288
          24 :   -13.7709478949264
          25 :    15.8262403416018
          26 :   -15.8021434578620
          27 :    13.5379271063806
          28 :   -9.85541046298977
          29 :    6.13233182783483
          30 :   -3.67217562732640
          31 :   -48.0208433216828
          32 :   -35.9738407876168

     Forces acting on atoms (Ry/au):

     negative rho (up, down):  3.883E+00 0.000E+00
     atom    1 type  1   force =     0.00068381    0.00039099    0.01824458
     atom    2 type  1   force =    -0.00068430    0.00040231    0.01826258
     atom    3 type  1   force =     0.00000837   -0.00079168    0.01826092
     atom    4 type  1   force =    -0.00001363   -0.00000740    0.01851968
     atom    5 type  1   force =    -0.00001182    0.00664396   -0.01359637
     atom    6 type  1   force =     0.00000095   -0.00000403   -0.03267381
     atom    7 type  1   force =    -0.00576766   -0.00332522   -0.01367155
     atom    8 type  1   force =     0.00575416   -0.00333345   -0.01362253
     atom    9 type  1   force =     0.00001527    0.00002341    0.00028986
     atom   10 type  1   force =    -0.00002189    0.00051379   -0.00030650
     atom   11 type  1   force =     0.00040187   -0.00027711   -0.00031607
     atom   12 type  1   force =    -0.00039188   -0.00024559   -0.00031401
     atom   13 type  2   force =     0.00002676    0.00001001    0.00092322

     Total force =     0.055716     Total SCF correction =     0.004979

     entering subroutine stress ...

     negative rho (up, down):  3.883E+00 0.000E+00
          total   stress  (Ry/bohr**3)                   (kbar)     P=  -25.58
  -0.00020147   0.00000001   0.00000001        -29.64      0.00      0.00
   0.00000001  -0.00020148  -0.00000001          0.00    -29.64     -0.00
   0.00000001  -0.00000001  -0.00011875          0.00     -0.00    -17.47

 !ASE

     Writing output data file calc.save

     General routines

     Parallel routines

   This run was terminated on:  15: 9:22  14Jan2018

   JOB DONE.
Job  /afs/slac/g/suncat/bin/suncat-tsmpirun -x LD_LIBRARY_PATH -wdir /scratch/qe842452_jhir7 pw.x -in pw.inp

TID   HOST_NAME   COMMAND_LINE            STATUS            TERMINATION_TIME
00000 suncat0253 pw.x -in pw.inp   Done                     01/14/2018 15:09:22
00001 suncat0253 pw.x -in pw.inp   Done                     01/14/2018 15:09:22
00002 suncat0253 pw.x -in pw.inp   Done                     01/14/2018 15:09:22
00003 suncat0253 pw.x -in pw.inp   Done                     01/14/2018 15:09:22
00004 suncat0253 pw.x -in pw.inp   Done                     01/14/2018 15:09:22
00005 suncat0253 pw.x -in pw.inp   Done                     01/14/2018 15:09:22
00006 suncat0253 pw.x -in pw.inp   Done                     01/14/2018 15:09:22
00007 suncat0253 pw.x -in pw.inp   Done                     01/14/2018 15:09:22
00008 suncat0249 pw.x -in pw.inp   Done                     01/14/2018 15:09:22
00009 suncat0249 pw.x -in pw.inp   Done                     01/14/2018 15:09:22
00010 suncat0249 pw.x -in pw.inp   Done                     01/14/2018 15:09:22
00011 suncat0249 pw.x -in pw.inp   Done                     01/14/2018 15:09:22
00012 suncat0249 pw.x -in pw.inp   Done                     01/14/2018 15:09:22
00013 suncat0249 pw.x -in pw.inp   Done                     01/14/2018 15:09:22
00014 suncat0249 pw.x -in pw.inp   Done                     01/14/2018 15:09:22
00015 suncat0249 pw.x -in pw.inp   Done                     01/14/2018 15:09:22
00016 suncat0248 pw.x -in pw.inp   Done                     01/14/2018 15:09:22
00017 suncat0248 pw.x -in pw.inp   Done                     01/14/2018 15:09:22
00018 suncat0248 pw.x -in pw.inp   Done                     01/14/2018 15:09:22
00019 suncat0248 pw.x -in pw.inp   Done                     01/14/2018 15:09:22
00020 suncat0248 pw.x -in pw.inp   Done                     01/14/2018 15:09:22
00021 suncat0248 pw.x -in pw.inp   Done                     01/14/2018 15:09:22
00022 suncat0248 pw.x -in pw.inp   Done                     01/14/2018 15:09:22
00023 suncat0248 pw.x -in pw.inp   Done                     01/14/2018 15:09:22
00024 suncat0247 pw.x -in pw.inp   Done                     01/14/2018 15:09:22
00025 suncat0247 pw.x -in pw.inp   Done                     01/14/2018 15:09:22
00026 suncat0247 pw.x -in pw.inp   Done                     01/14/2018 15:09:22
00027 suncat0247 pw.x -in pw.inp   Done                     01/14/2018 15:09:22
00028 suncat0247 pw.x -in pw.inp   Done                     01/14/2018 15:09:22
00029 suncat0247 pw.x -in pw.inp   Done                     01/14/2018 15:09:22
00030 suncat0247 pw.x -in pw.inp   Done                     01/14/2018 15:09:22
00031 suncat0247 pw.x -in pw.inp   Done                     01/14/2018 15:09:22