     Program PWSCF v.6.1 starts on 12Jan2019 at  0:53:24

     Current dimensions of program PWSCF are:
     Max number of different atomic species (ntypx) = 10
     Max number of k-points (npk) =  40000
     Max angular momentum in pseudopotentials (lmaxx) =  3

     IMPORTANT: XC functional enforced from input :
     Exchange-correlation      = BEEF-VDW ( 1  4 29 14 2 0)
     Any further DFT definition will be discarded
     Please, verify this is what you really want

     bravais-lattice index     =            0
     lattice parameter (alat)  =      12.6383  a.u.
     unit-cell volume          =    6655.4372 (a.u.)^3
     number of atoms/cell      =           13
     number of atomic types    =            2
     number of electrons       =       161.00
     number of Kohn-Sham states=           90
     kinetic-energy cutoff     =      36.7493  Ry
     charge density cutoff     =     367.4933  Ry
     convergence threshold     =      1.0E-04
     mixing beta               =       0.2000
     number of iterations used =            8  plain     mixing
     Exchange-correlation      = BEEF-VDW ( 1  4 29 14 2 0)
     nstep                     =           50

     celldm(1)=  12.638304  celldm(2)=   0.000000  celldm(3)=   0.000000
     celldm(4)=   0.000000  celldm(5)=   0.000000  celldm(6)=   0.000000

     crystal axes: (cart. coord. in units of alat)
               a(1) = (   1.000000   0.000000   0.000000 )
               a(2) = (   0.500000   0.866025   0.000000 )
               a(3) = (   0.000000   0.000000   3.806971 )

     reciprocal axes: (cart. coord. in units 2 pi/alat)
               b(1) = (  1.000000 -0.577350  0.000000 )
               b(2) = (  0.000000  1.154701  0.000000 )
               b(3) = (  0.000000  0.000000  0.262676 )

     PseudoPot. # 1 for Tl read from file:
     /home/users/mamunm/src/decaf-espresso/gbrv15pbe/Tl.UPF
     MD5 check sum: b76cf1f7e72655a2b2c53cf6385d7059
     Pseudo is Ultrasoft + core correction, Zval = 13.0
     Generated by new atomic code, or converted to UPF format
     Using radial grid of  899 points,  6 beta functions with:
                l(1) =   0
                l(2) =   0
                l(3) =   1
                l(4) =   1
                l(5) =   2
                l(6) =   2
     Q(r) pseudized with  6 coefficients,  rinner =    1.100   1.100   1.100
                                                       1.100   1.100

     PseudoPot. # 2 for N  read from file:
     /home/users/mamunm/src/decaf-espresso/gbrv15pbe/N.UPF
     MD5 check sum: 95339753478d7afb44899504a8723017
     Pseudo is Ultrasoft + core correction, Zval =  5.0
     Generated by new atomic code, or converted to UPF format
     Using radial grid of  729 points,  4 beta functions with:
                l(1) =   0
                l(2) =   0
                l(3) =   1
                l(4) =   1
     Q(r) pseudized with  8 coefficients,  rinner =    0.900   0.900   0.900

     vdW kernel table read from file vdW_kernel_table
     MD5 check sum: 095c7af220d748ca6e76c0b4c6cfb241

     atomic species   valence    mass     pseudopotential
        Tl            13.00   204.38000     Tl( 1.00)
        N              5.00    14.00700     N ( 1.00)

     No symmetry found

   Cartesian axes

     site n.     atom                  positions (alat units)
         1           Tl  tau(   1) = (   0.2500000   0.1443376   1.4952371  )
         2           Tl  tau(   2) = (   0.7500000   0.1443376   1.4952371  )
         3           Tl  tau(   3) = (   0.5000000   0.5773503   1.4952371  )
         4           Tl  tau(   4) = (   1.0000000   0.5773503   1.4952371  )
         5           Tl  tau(   5) = (   1.0000000   0.2886751   1.9034854  )
         6           Tl  tau(   6) = (   0.5000000   0.2886751   1.9034854  )
         7           Tl  tau(   7) = (   1.2500000   0.7216878   1.9034854  )
         8           Tl  tau(   8) = (   0.7500000   0.7216878   1.9034854  )
         9           Tl  tau(   9) = (  -0.0000056  -0.0000062   2.2775947  )
        10           Tl  tau(  10) = (   0.5000146   0.0007468   2.5278699  )
        11           Tl  tau(  11) = (   0.2506388   0.4326039   2.5278991  )
        12           Tl  tau(  12) = (   0.7493462   0.4326421   2.5278972  )
        13           N   tau(  13) = (   0.0000206   0.0000361   2.5881643  )

     number of k points=    20  Fermi-Dirac smearing, width (Ry)=  0.0110
                       cart. coord. in units 2pi/alat
        k(    1) = (   0.0000000   0.0000000   0.0000000), wk =   0.0555556
        k(    2) = (   0.0000000   0.1924501   0.0000000), wk =   0.1111111
        k(    3) = (   0.0000000   0.3849002   0.0000000), wk =   0.1111111
        k(    4) = (   0.0000000  -0.5773503   0.0000000), wk =   0.0555556
        k(    5) = (   0.1666667  -0.0962250   0.0000000), wk =   0.1111111
        k(    6) = (   0.1666667   0.0962250   0.0000000), wk =   0.1111111
        k(    7) = (   0.1666667   0.2886751   0.0000000), wk =   0.1111111
        k(    8) = (   0.1666667  -0.6735753   0.0000000), wk =   0.1111111
        k(    9) = (   0.1666667  -0.4811252   0.0000000), wk =   0.1111111
        k(   10) = (   0.1666667  -0.2886751   0.0000000), wk =   0.1111111
        k(   11) = (   0.3333333  -0.1924501   0.0000000), wk =   0.1111111
        k(   12) = (   0.3333333  -0.0000000   0.0000000), wk =   0.1111111
        k(   13) = (   0.3333333   0.1924501   0.0000000), wk =   0.1111111
        k(   14) = (   0.3333333  -0.7698004   0.0000000), wk =   0.1111111
        k(   15) = (   0.3333333  -0.5773503   0.0000000), wk =   0.1111111
        k(   16) = (   0.3333333  -0.3849002   0.0000000), wk =   0.1111111
        k(   17) = (  -0.5000000   0.2886751   0.0000000), wk =   0.0555556
        k(   18) = (  -0.5000000   0.4811252   0.0000000), wk =   0.1111111
        k(   19) = (  -0.5000000   0.6735753   0.0000000), wk =   0.1111111
        k(   20) = (  -0.5000000  -0.2886751   0.0000000), wk =   0.0555556

     Check: negative/imaginary core charge=   -0.000001    0.000000

     Initial potential from superposition of free atoms
     Check: negative starting charge=   -0.604545

     starting charge  160.94160, renormalised to  161.00000

     negative rho (up, down):  6.048E-01 0.000E+00

     %%%%%%%%%%%%%%%%%%%%%%%%%%%%%%%%%%%%%%%%%%%%%%%%%%%%%%%%%%%%%%%%%%%%%%%%
     %                                                                      %
     % You are using vdW-DF, which was implemented by the Thonhauser group. %
     % Please cite the following two papers that made this development      %
     % possible and the two reviews that describe the various versions:     %
     %                                                                      %
     %   T. Thonhauser et al., PRL 115, 136402 (2015).                      %
     %   T. Thonhauser et al., PRB 76, 125112 (2007).                       %
     %   K. Berland et al., Rep. Prog. Phys. 78, 066501 (2015).             %
     %   D.C. Langreth et al., J. Phys.: Condens. Matter 21, 084203 (2009). %
     %                                                                      %
     %                                                                      %
     % If you are calculating the stress with vdW-DF, please also cite:     %
     %                                                                      %
     %   R. Sabatini et al., J. Phys.: Condens. Matter 24, 424209 (2012).   %
     %                                                                      %
     %%%%%%%%%%%%%%%%%%%%%%%%%%%%%%%%%%%%%%%%%%%%%%%%%%%%%%%%%%%%%%%%%%%%%%%%

     Adding external electric field

     Computed dipole along edir(3) :
        Dipole               -0.0145 Ry au,         -0.0367 Debye
        Dipole field         -0.0000 Ry au,

        Potential amp.        0.0024 Ry
        Total length         43.3023 bohr

     Starting wfc are  112 randomized atomic wfcs

     Self-consistent Calculation

     iteration #  1     ecut=    36.75 Ry     beta=0.20
     Davidson diagonalization with overlap
     ethr =  1.00E-02,  avg # of iterations =  2.0

[...]

     total energy              =   -1781.03140594 Ry
     Harris-Foulkes estimate   =   -1781.90649565 Ry
     estimated scf accuracy    <       2.68392759 Ry

[...]

     End of self-consistent calculation

          k = 0.0000 0.0000 0.0000 ( 24957 PWs)   bands (ev):

   -12.4295 -11.2198 -11.2111 -11.2111 -11.1743 -11.0904 -11.0850 -11.0750
   -11.0750 -11.0588 -11.0588 -11.0474 -11.0356 -11.0356 -10.9541 -10.9423
   -10.8884 -10.8883 -10.8877 -10.8629 -10.8629 -10.8612 -10.8612 -10.8097
   -10.8097 -10.7798 -10.7750 -10.7750 -10.7470 -10.6470 -10.6470 -10.6455
   -10.6367 -10.6366 -10.6279 -10.6279 -10.5868 -10.5868 -10.5564 -10.5564
   -10.4984 -10.4582 -10.4582 -10.4409 -10.4335 -10.4334 -10.3922 -10.3922
   -10.3755 -10.3706 -10.3705 -10.3493 -10.3015 -10.3015 -10.2947 -10.2727
   -10.2726 -10.2689 -10.2091 -10.2091  -9.4507  -8.6413  -6.5982  -6.0641
    -4.1767  -4.0358  -4.0357  -3.9465  -3.2947  -3.2947  -3.1265  -3.1264
    -2.9824  -1.1134  -1.1134  -0.9058  -0.6116  -0.5180  -0.5180  -0.4146
    -0.2563   0.0320   0.0320   1.4108   1.7884   2.5342   2.5343   3.5938
     3.6461   3.6461

[...]

          k =-0.5000 0.2887 0.0000 ( 25090 PWs)   bands (ev):

[...]

     the Fermi energy is     1.2049 ev

!    total energy              =   -1781.61543182 Ry
     Harris-Foulkes estimate   =   -1781.61538661 Ry
     estimated scf accuracy    <       0.00008050 Ry

     The total energy is the sum of the following terms:

     one-electron contribution =   -7643.64945296 Ry
     hartree contribution      =    3907.03227146 Ry
     xc contribution           =    -773.50707048 Ry
     ewald contribution        =    2728.54993663 Ry
     electric field correction =       0.00013839 Ry
     smearing contrib. (-TS)   =      -0.04125485 Ry

     convergence has been achieved in  11 iterations

[...]

     Forces acting on atoms (cartesian axes, Ry/au):

     atom    1 type  1   force =    -0.00114634   -0.00067188   -0.02246083
     atom    2 type  1   force =     0.00116067   -0.00067173   -0.02244515
     atom    3 type  1   force =     0.00002538    0.00129192   -0.02249530
     atom    4 type  1   force =    -0.00005971    0.00005259   -0.02552018
     atom    5 type  1   force =     0.00003954    0.01501091    0.01588542
     atom    6 type  1   force =    -0.00001405   -0.00003017    0.02897071
     atom    7 type  1   force =    -0.01301161   -0.00746014    0.01592221
     atom    8 type  1   force =     0.01297911   -0.00749318    0.01592193
     atom    9 type  1   force =     0.00000883   -0.00001398   -0.00409867
     atom   10 type  1   force =    -0.00003711   -0.00088930    0.00452015
     atom   11 type  1   force =    -0.00067382    0.00043728    0.00451221
     atom   12 type  1   force =     0.00071338    0.00043658    0.00453695
     atom   13 type  2   force =     0.00001571    0.00000109    0.00675056

     Total force =     0.011220     Total SCF correction =     0.012301
     SCF correction compared to forces is large: reduce conv_thr to get better values

     BFGS Geometry Optimization

     number of scf cycles    =   1
     number of bfgs steps    =   0

     energy   new            =   -1781.6154318217 Ry

     new trust radius        =       0.0067505737 bohr
     new conv_thr            =       0.0001000000 Ry

ATOMIC_POSITIONS (angstrom)
Tl       1.671975640   0.965315586  10.000000000    0   0   0
Tl       5.015926920   0.965315586  10.000000000    0   0   0
Tl       3.343951280   3.861262344  10.000000000    0   0   0
Tl       6.687902560   3.861262344  10.000000000    0   0   0
Tl       6.687902560   1.930631172  12.730324787    0   0   0
Tl       3.343951280   1.930631172  12.730324787    0   0   0
Tl       8.359878201   4.826577930  12.730324787    0   0   0
Tl       5.015926920   4.826577930  12.730324787    0   0   0
Tl      -0.000032841  -0.000048744  15.230162642
Tl       3.344029508   0.004523694  16.908539676
Tl       1.675891077   2.893443851  16.908730710
Tl       5.011931568   2.893699360  16.908730738
N        0.000146136   0.000242094  17.312962773

     Writing output data file calc.save
     Check: negative starting charge=   -0.604545
     NEW-OLD atomic charge density approx. for the potential

     Check: negative/imaginary core charge=   -0.000001    0.000000
     Check: negative starting charge=   -0.604608

[...]

     energy   old            =   -1781.6154318217 Ry
     energy   new            =   -1781.6154779035 Ry

     CASE: energy  _new < energy  _old

[...]

     CASE: energy  _new > energy  _old

[...]

     Threshold (ethr) on eigenvalues was too large:
     Diagonalizing with lowered threshold

     Davidson diagonalization with overlap
     ethr =  7.04E-08,  avg # of iterations =  2.0

[...]

     number of scf cycles    =   6
     number of bfgs steps    =   4

     energy   old            =   -1781.6155175528 Ry
     energy   new            =   -1781.6155249707 Ry

     CASE: energy  _new < energy  _old

     new trust radius        =       0.0029962140 bohr
     new conv_thr            =       0.0000010000 Ry

ATOMIC_POSITIONS (angstrom)
Tl       1.671975640   0.965315586  10.000000000    0   0   0
Tl       5.015926920   0.965315586  10.000000000    0   0   0
Tl       3.343951280   3.861262344  10.000000000    0   0   0
Tl       6.687902560   3.861262344  10.000000000    0   0   0
Tl       6.687902560   1.930631172  12.730324787    0   0   0
Tl       3.343951280   1.930631172  12.730324787    0   0   0
Tl       8.359878201   4.826577930  12.730324787    0   0   0
Tl       5.015926920   4.826577930  12.730324787    0   0   0
Tl      -0.000045783  -0.000064971  15.231414761
Tl       3.344039049   0.003423254  16.909300131
Tl       1.674883578   2.893960446  16.909512431
Tl       5.012885691   2.894248261  16.909497971
N        0.000181214   0.000316606  17.313372569

     Writing output data file calc.save
     Check: negative starting charge=   -0.604621
     NEW-OLD atomic charge density approx. for the potential

     Check: negative/imaginary core charge=   -0.000001    0.000000
     Check: negative starting charge=   -0.604647

[...]

     Self-consistent Calculation

[...]

     Threshold (ethr) on eigenvalues was too large:
     Diagonalizing with lowered threshold

     Davidson diagonalization with overlap
     ethr =  1.27E-08,  avg # of iterations =  3.0

[...]

     total energy              =   -1781.61553100 Ry
     Harris-Foulkes estimate   =   -1781.61553102 Ry
     estimated scf accuracy    <       0.00000273 Ry

     iteration #  4     ecut=    36.75 Ry     beta=0.20
     Davidson diagonalization with overlap
     ethr =  1.70E-09,  avg # of iterations =  3.1

[...]

     Adding external electric field

     Computed dipole along edir(3) :
        Dipole               -0.1805 Ry au,         -0.4588 Debye
        Dipole field         -0.0003 Ry au,

        Potential amp.        0.0295 Ry
        Total length         43.3023 bohr

     End of self-consistent calculation

[...]

          k = 0.3333-0.3849 0.0000 ( 25036 PWs)   bands (ev):

[...]

          k =-0.5000-0.2887 0.0000 ( 25090 PWs)   bands (ev):

   -12.3748 -11.0991 -11.0757 -11.0646 -11.0096 -11.0063 -10.9707 -10.9607
   -10.9590 -10.9554 -10.9244 -10.9080 -10.8825 -10.8746 -10.8646 -10.8547
   -10.8411 -10.8234 -10.8210 -10.7933 -10.7822 -10.7817 -10.7797 -10.7764
   -10.7636 -10.7532 -10.7461 -10.7436 -10.7390 -10.7245 -10.7212 -10.7052
   -10.6961 -10.6933 -10.6721 -10.6539 -10.6399 -10.6379 -10.6172 -10.6017
   -10.5950 -10.5866 -10.5712 -10.5640 -10.5530 -10.5292 -10.5282 -10.5210
   -10.5012 -10.4845 -10.4760 -10.4383 -10.4295 -10.4189 -10.4022 -10.3776
   -10.3610 -10.3259 -10.2405 -10.2147  -9.4265  -7.4244  -7.2771  -5.9270
    -5.6509  -4.9663  -4.9355  -4.7861  -4.7526  -3.6714  -3.6521  -3.0224
    -2.8412   0.0741   0.2196   0.2270   0.6616   0.8897   0.9274   1.1113
     1.5131   1.5675   1.8008   1.9862   2.1961   2.5220   3.1771   3.3052
     3.6111   3.7708

     the Fermi energy is     1.2061 ev

!    total energy              =   -1781.61553102 Ry
     Harris-Foulkes estimate   =   -1781.61553117 Ry
     estimated scf accuracy    <       0.00000018 Ry

     The total energy is the sum of the following terms:

     one-electron contribution =   -7640.50799559 Ry
     hartree contribution      =    3905.48033530 Ry
     xc contribution           =    -773.50518792 Ry
     ewald contribution        =    2726.95852870 Ry
     electric field correction =       0.00006153 Ry
     smearing contrib. (-TS)   =      -0.04127305 Ry

     convergence has been achieved in   4 iterations

     negative rho (up, down):  6.307E-01 0.000E+00

     Forces acting on atoms (cartesian axes, Ry/au):

     atom    1 type  1   force =    -0.00113571   -0.00065545   -0.02029668
     atom    2 type  1   force =     0.00113469   -0.00065546   -0.02029527
     atom    3 type  1   force =    -0.00000018    0.00131002   -0.02029540
     atom    4 type  1   force =    -0.00000088   -0.00000075   -0.02358963
     atom    5 type  1   force =    -0.00000066    0.01426025    0.01705836
     atom    6 type  1   force =    -0.00000001   -0.00000127    0.03122537
     atom    7 type  1   force =    -0.01235045   -0.00712946    0.01705781
     atom    8 type  1   force =     0.01234927   -0.00713045    0.01705937
     atom    9 type  1   force =    -0.00000129   -0.00000427    0.00069756
     atom   10 type  1   force =    -0.00000245   -0.00021669    0.00038518
     atom   11 type  1   force =    -0.00019260    0.00008943    0.00038586
     atom   12 type  1   force =     0.00018419    0.00010333    0.00038654
     atom   13 type  2   force =     0.00001608    0.00003077    0.00022092

     Total force =     0.001058     Total SCF correction =     0.000571
     SCF correction compared to forces is large: reduce conv_thr to get better values

     bfgs converged in   7 scf cycles and   5 bfgs steps
     (criteria: energy <  1.0E+12 Ry, force <  1.9E-03 Ry/Bohr)

     End of BFGS Geometry Optimization

     Final energy   =   -1781.6155310207 Ry
Begin final coordinates

ATOMIC_POSITIONS (angstrom)
Tl       1.671975640   0.965315586  10.000000000    0   0   0
Tl       5.015926920   0.965315586  10.000000000    0   0   0
Tl       3.343951280   3.861262344  10.000000000    0   0   0
Tl       6.687902560   3.861262344  10.000000000    0   0   0
Tl       6.687902560   1.930631172  12.730324787    0   0   0
Tl       3.343951280   1.930631172  12.730324787    0   0   0
Tl       8.359878201   4.826577930  12.730324787    0   0   0
Tl       5.015926920   4.826577930  12.730324787    0   0   0
Tl      -0.000045783  -0.000064971  15.231414761
Tl       3.344039049   0.003423254  16.909300131
Tl       1.674883578   2.893960446  16.909512431
Tl       5.012885691   2.894248261  16.909497971
N        0.000181214   0.000316606  17.313372569
End final coordinates

     Writing output data file calc.save

     General routines

     Parallel routines

   This run was terminated on:   1: 5:23  12Jan2019

   JOB DONE.