     Program PWSCF v.5.1rc2 (svn rev. 11289) starts on 18Jan2018 at  3: 2: 5

     Current dimensions of program PWSCF are:
     Max number of different atomic species (ntypx) = 10
     Max number of k-points (npk) =  40000
     Max angular momentum in pseudopotentials (lmaxx) =  3
     Presently stress not available with electric field

     IMPORTANT: XC functional enforced from input :
     Exchange-correlation      = BEEF-VDW ( 1  4 27 13 2)
     Any further DFT definition will be discarded
     Please, verify this is what you really want

     Subspace diagonalization in iterative solution of the eigenvalue problem:
     a serial algorithm will be used

     bravais-lattice index     =            0
     lattice parameter (alat)  =       1.8897  a.u.
     unit-cell volume          =    4198.3539 (a.u.)^3
     number of atoms/cell      =           13
     number of atomic types    =            2
     number of electrons       =       197.00
     number of Kohn-Sham states=          108
     kinetic-energy cutoff     =      36.7493  Ry
     charge density cutoff     =     367.4932  Ry
     convergence threshold     =      1.0E-05
     mixing beta               =       0.3000
     number of iterations used =           10  plain     mixing
     Exchange-correlation      = BEEF-VDW ( 1  4 27 13 2)
     nstep                     =           50

     celldm(1)=   1.889726  celldm(2)=   0.000000  celldm(3)=   0.000000
     celldm(4)=   0.000000  celldm(5)=   0.000000  celldm(6)=   0.000000

     crystal axes: (cart. coord. in units of alat)
               a(1) = (   5.422927   0.000000   0.000000 )
               a(2) = (   2.711463   4.696392   0.000000 )
               a(3) = (   0.000000   0.000000  24.427801 )

     reciprocal axes: (cart. coord. in units 2 pi/alat)
               b(1) = (  0.184402 -0.106465  0.000000 )
               b(2) = (  0.000000  0.212929  0.000000 )
               b(3) = (  0.000000  0.000000  0.040937 )

     PseudoPot. # 1 for Ru read from file:
     /afs/slac.stanford.edu/u/if/mamunm/psp/gbrv1.5pbe/Ru.UPF
     MD5 check sum: 7158a806dd851261a58e6920c40ebe78
     Pseudo is Ultrasoft + core correction, Zval = 16.0
     Generated by new atomic code, or converted to UPF format
     Using radial grid of  967 points,  6 beta functions with:
                l(1) =   0
                l(2) =   0
                l(3) =   1
                l(4) =   1
                l(5) =   2
                l(6) =   2
     Q(r) pseudized with  8 coefficients,  rinner =    1.300   1.300   1.300
                                                       1.300   1.300

     PseudoPot. # 2 for N  read from file:
     /afs/slac.stanford.edu/u/if/mamunm/psp/gbrv1.5pbe/N.UPF
     MD5 check sum: 95339753478d7afb44899504a8723017
     Pseudo is Ultrasoft + core correction, Zval =  5.0
     Generated by new atomic code, or converted to UPF format
     Using radial grid of  729 points,  4 beta functions with:
                l(1) =   0
                l(2) =   0
                l(3) =   1
                l(4) =   1
     Q(r) pseudized with  8 coefficients,  rinner =    0.900   0.900   0.900

     vdW kernel table read from file vdW_kernel_table
     MD5 check sum: 095c7af220d748ca6e76c0b4c6cfb241

     atomic species   valence    mass     pseudopotential
        Ru1           16.00   101.07000     Ru( 1.00)
        N1             5.00    14.00700     N ( 1.00)

     No symmetry found

   Cartesian axes

     site n.     atom                  positions (alat units)
         1           Ru1 tau(   1) = (   1.3557316   0.7827320  10.0000000  )
         2           Ru1 tau(   2) = (   4.0671949   0.7827320  10.0000000  )
         3           Ru1 tau(   3) = (   2.7114633   3.1309281  10.0000000  )
         4           Ru1 tau(   4) = (   5.4229265   3.1309281  10.0000000  )
         5           Ru1 tau(   5) = (   5.4229265   1.5654640  12.2139005  )
         6           Ru1 tau(   6) = (   2.7114633   1.5654640  12.2139005  )
         7           Ru1 tau(   7) = (   6.7786581   3.9136601  12.2139005  )
         8           Ru1 tau(   8) = (   4.0671949   3.9136601  12.2139005  )
         9           Ru1 tau(   9) = (   0.0000000   0.0000000  14.4278010  )
        10           Ru1 tau(  10) = (   2.7114633   0.0000000  14.4278010  )
        11           Ru1 tau(  11) = (   1.3557316   2.3481961  14.4278010  )
        12           Ru1 tau(  12) = (   4.0671949   2.3481961  14.4278010  )
        13           N1  tau(  13) = (   2.7114633   1.5654640  16.5978010  )

     number of k points=    20  Fermi-Dirac smearing, width (Ry)=  0.0110
                       cart. coord. in units 2pi/alat
        k(    1) = (   0.0000000   0.0000000   0.0000000), wk =   0.0555556
        k(    2) = (   0.0000000   0.0354882   0.0000000), wk =   0.1111111
        k(    3) = (   0.0000000   0.0709765   0.0000000), wk =   0.1111111
        k(    4) = (   0.0000000  -0.1064647   0.0000000), wk =   0.0555556
        k(    5) = (   0.0307337  -0.0177441   0.0000000), wk =   0.1111111
        k(    6) = (   0.0307337   0.0177441   0.0000000), wk =   0.1111111
        k(    7) = (   0.0307337   0.0532324   0.0000000), wk =   0.1111111
        k(    8) = (   0.0307337  -0.1242088   0.0000000), wk =   0.1111111
        k(    9) = (   0.0307337  -0.0887206   0.0000000), wk =   0.1111111
        k(   10) = (   0.0307337  -0.0532324   0.0000000), wk =   0.1111111
        k(   11) = (   0.0614674  -0.0354882   0.0000000), wk =   0.1111111
        k(   12) = (   0.0614674   0.0000000   0.0000000), wk =   0.1111111
        k(   13) = (   0.0614674   0.0354882   0.0000000), wk =   0.1111111
        k(   14) = (   0.0614674  -0.1419529   0.0000000), wk =   0.1111111
        k(   15) = (   0.0614674  -0.1064647   0.0000000), wk =   0.1111111
        k(   16) = (   0.0614674  -0.0709765   0.0000000), wk =   0.1111111
        k(   17) = (  -0.0922011   0.0532324   0.0000000), wk =   0.0555556
        k(   18) = (  -0.0922011   0.0887206   0.0000000), wk =   0.1111111
        k(   19) = (  -0.0922011   0.1242088   0.0000000), wk =   0.1111111
        k(   20) = (  -0.0922011  -0.0532324   0.0000000), wk =   0.0555556

     Largest allocated arrays     est. size (Mb)     dimensions
     Largest temporary arrays     est. size (Mb)     dimensions

     Initial potential from superposition of free atoms
     Check: negative starting charge=   -0.873645

     starting charge  184.99980, renormalised to  197.00000

     negative rho (up, down):  9.303E-01 0.000E+00

     *
     * You are using vdW-DF for exchange-correlation in this calculation.
     * Please cite the following three references that made this development
     * possible:
     *
     *   M. Dion, H. Rydberg, E. Schroder, D. C. Langreth, and
     *   B. I. Lundqvist, Phys. Rev. Lett. 92, 246401 (2004).
     *
     *   T. Thonhauser, V. R. Cooper, S. Li, A. Puzder, P. Hyldgaard, and
     *   D. C. Langreth, Phys. Rev. B 76, 125112 (2007).
     *
     *   G. Roman-Perez and J. M. Soler, Phys. Rev. Lett. 103, 096102 (2009).
     *
     *
     * If you are using vdW-DF2, please also cite:
     *
     *   K. Lee, E. D. Murray, L. Kong, B. I. Lundqvist, and
     *   D. C. Langreth, Phys. Rev. B 82, 081101(R) (2010).
     *
     *
     * If you are calculating the stress with vdW-DF, please also cite:
     *
     *   R. Sabatini, E. Kucukbenli, B. Kolb, T. Thonhauser, and
     *   S. de Gironcoli, J. Phys.: Condens. Matter 24, 424209 (2012).
     *

     Carrying out vdW-DF run using the following parameters:

     Nqs =      20    Nr_points =    1024   r_max =   100.000
     q_mesh =
               0.00001000     0.04494208     0.09755937     0.15916263
               0.23128650     0.31572767     0.41458969     0.53033537
               0.66584808     0.82450364     1.01025438     1.22772762
               1.48234092     1.78043706     2.12944203     2.53805004
               3.01644009     3.57652955     4.23227104     5.00000000

     Gradients computed in reciprocal space

     Adding external electric field

     Computed dipole along edir(3) :
        Dipole               -2.6868 Ry au,         -6.8291 Debye
        Dipole field         -0.0080 Ry au

        Potential amp.        0.7239 Ry
        Total length         45.0078 bohr

     Starting wfc are  160 randomized atomic wfcs

     Self-consistent Calculation

     iteration #  1     ecut=    36.75 Ry     beta=0.30
     Davidson diagonalization with overlap
     ethr =  1.00E-02,  avg # of iterations =  5.4

[...]

     total energy              =   -2200.92931704 Ry
     Harris-Foulkes estimate   =   -2361.25471537 Ry
     estimated scf accuracy    <     335.72844609 Ry

[...]

     End of self-consistent calculation

          k = 0.0000 0.0000 0.0000 ( 15761 PWs)   bands (ev):

   -71.5447 -71.4527 -71.4152 -71.4149 -71.1699 -71.0871 -71.0868 -71.0574
   -70.9951 -70.9634 -70.9633 -70.9528 -41.8151 -41.8150 -41.7984 -41.6527
   -41.5908 -41.5455 -41.5454 -41.3954 -41.3531 -41.3531 -41.2586 -41.2585
   -41.2354 -41.2131 -41.1841 -41.1840 -41.0719 -41.0719 -41.0506 -40.9875
   -40.9872 -40.9229 -40.8781 -40.8780 -40.8765 -40.8607 -40.8580 -40.8579
   -40.8350 -40.7802 -40.7802 -40.7793 -40.6996 -40.6995 -40.6171 -40.6170
   -10.0272  -4.9764  -3.7681  -3.7662  -3.7661  -3.6615  -3.5124  -3.3957
    -3.3957  -3.3941  -3.1518  -3.1469  -3.1468  -2.8079  -2.7849  -2.7848
    -1.6780  -1.6295  -1.6294  -1.0704  -1.0330  -1.0330  -0.7920  -0.6451
    -0.6451  -0.4089  -0.2631  -0.2630  -0.2210  -0.2209  -0.1972   0.0013
     0.0013   0.3211   0.3212   0.5335   0.8396   1.2349   1.2349   1.4085
     1.4995   1.4995   1.5588   1.5589   1.6637   1.7538   1.7538   2.1485
     2.1485   2.3050   2.7590   2.7829   2.7830   2.8000   2.9564   2.9564
     3.0760   3.0760   3.3103   3.3104

[...]

          k =-0.0922 0.0532 0.0000 ( 15808 PWs)   bands (ev):

[...]

     the Fermi energy is     1.7424 ev

!    total energy              =   -2361.26362847 Ry
     Harris-Foulkes estimate   =   -2361.26362593 Ry
     estimated scf accuracy    <       0.00000183 Ry

     The total energy is the sum of the following terms:

     one-electron contribution =  -22131.24333072 Ry
     hartree contribution      =   11063.77549077 Ry
     xc contribution           =    -326.78119550 Ry
     ewald contribution        =    9033.08402507 Ry
     electric field correction =       0.00067481 Ry
     smearing contrib. (-TS)   =      -0.09929290 Ry

     convergence has been achieved in  27 iterations

 BEEF-vdW xc energy contributions
           1 :   -283.272369617553
           2 :    259.775636352170
           3 :   -219.210211669944
           4 :    171.719222575992
           5 :   -127.501769990424
           6 :    93.7483832787804
           7 :   -73.0404073288802
           8 :    63.5374228658105
           9 :   -60.6322628777478
          10 :    59.2446138526021
          11 :   -55.7966747866409
          12 :    49.1694784473272
          13 :   -40.4682695162561
          14 :    31.9449052301968
          15 :   -25.6885666014580
          16 :    22.6532957997662
          17 :   -22.3617500104401
          18 :    23.3023464380709
[...]
     c_bands:  1 eigenvalues not converged
     ethr =  4.89E-06,  avg # of iterations =  5.0

[...]

   This run was terminated on:   5: 0:38  18Jan2018

[...]

     Program PWSCF v.5.1rc2 (svn rev. 11289) starts on 18Jan2018 at  5: 0:44

[...]

     Program PWSCF v.5.1rc2 (svn rev. 11289) starts on 18Jan2018 at  5:21: 4

[...]

     Program PWSCF v.5.1rc2 (svn rev. 11289) starts on 18Jan2018 at  5:40: 0

[...]

     Total force =     0.080006     Total SCF correction =     0.013164
     SCF correction compared to forces is large: reduce conv_thr to get better values

[...]

   This run was terminated on:   6:19: 5  18Jan2018

[...]

     Program PWSCF v.5.1rc2 (svn rev. 11289) starts on 18Jan2018 at  6:19:11

     Current dimensions of program PWSCF are:
     Max number of different atomic species (ntypx) = 10
     Max number of k-points (npk) =  40000
     Max angular momentum in pseudopotentials (lmaxx) =  3
     Presently stress not available with electric field

     IMPORTANT: XC functional enforced from input :
     Exchange-correlation      = BEEF-VDW ( 1  4 27 13 2)
     Any further DFT definition will be discarded
     Please, verify this is what you really want

     Subspace diagonalization in iterative solution of the eigenvalue problem:
     a serial algorithm will be used

     bravais-lattice index     =            0
     lattice parameter (alat)  =       1.8897  a.u.
     unit-cell volume          =    4198.3539 (a.u.)^3
     number of atoms/cell      =           13
     number of atomic types    =            2
     number of electrons       =       197.00
     number of Kohn-Sham states=          108
     kinetic-energy cutoff     =      36.7493  Ry
     charge density cutoff     =     367.4932  Ry
     convergence threshold     =      1.0E-05
     mixing beta               =       0.3000
     number of iterations used =           10  plain     mixing
     Exchange-correlation      = BEEF-VDW ( 1  4 27 13 2)
     nstep                     =           50

     celldm(1)=   1.889726  celldm(2)=   0.000000  celldm(3)=   0.000000
     celldm(4)=   0.000000  celldm(5)=   0.000000  celldm(6)=   0.000000

     crystal axes: (cart. coord. in units of alat)
               a(1) = (   5.422927   0.000000   0.000000 )
               a(2) = (   2.711463   4.696392   0.000000 )
               a(3) = (   0.000000   0.000000  24.427801 )

     reciprocal axes: (cart. coord. in units 2 pi/alat)
               b(1) = (  0.184402 -0.106465  0.000000 )
               b(2) = (  0.000000  0.212929  0.000000 )
               b(3) = (  0.000000  0.000000  0.040937 )

     PseudoPot. # 1 for Ru read from file:
     /afs/slac.stanford.edu/u/if/mamunm/psp/gbrv1.5pbe/Ru.UPF
     MD5 check sum: 7158a806dd851261a58e6920c40ebe78
     Pseudo is Ultrasoft + core correction, Zval = 16.0
     Generated by new atomic code, or converted to UPF format
     Using radial grid of  967 points,  6 beta functions with:
                l(1) =   0
                l(2) =   0
                l(3) =   1
                l(4) =   1
                l(5) =   2
                l(6) =   2
     Q(r) pseudized with  8 coefficients,  rinner =    1.300   1.300   1.300
                                                       1.300   1.300

     PseudoPot. # 2 for N  read from file:
     /afs/slac.stanford.edu/u/if/mamunm/psp/gbrv1.5pbe/N.UPF
     MD5 check sum: 95339753478d7afb44899504a8723017
     Pseudo is Ultrasoft + core correction, Zval =  5.0
     Generated by new atomic code, or converted to UPF format
     Using radial grid of  729 points,  4 beta functions with:
                l(1) =   0
                l(2) =   0
                l(3) =   1
                l(4) =   1
     Q(r) pseudized with  8 coefficients,  rinner =    0.900   0.900   0.900

     vdW kernel table read from file vdW_kernel_table
     MD5 check sum: 095c7af220d748ca6e76c0b4c6cfb241

     atomic species   valence    mass     pseudopotential
        Ru1           16.00   101.07000     Ru( 1.00)
        N1             5.00    14.00700     N ( 1.00)

     No symmetry found

   Cartesian axes

     site n.     atom                  positions (alat units)
         1           Ru1 tau(   1) = (   1.3557316   0.7827320  10.0000000  )
         2           Ru1 tau(   2) = (   4.0671949   0.7827320  10.0000000  )
         3           Ru1 tau(   3) = (   2.7114633   3.1309281  10.0000000  )
         4           Ru1 tau(   4) = (   5.4229265   3.1309281  10.0000000  )
         5           Ru1 tau(   5) = (   5.4229265   1.5654640  12.2139005  )
         6           Ru1 tau(   6) = (   2.7114633   1.5654640  12.2139005  )
         7           Ru1 tau(   7) = (   6.7786581   3.9136601  12.2139005  )
         8           Ru1 tau(   8) = (   4.0671949   3.9136601  12.2139005  )
         9           Ru1 tau(   9) = (   8.1343427   4.6963668  14.2876932  )
        10           Ru1 tau(  10) = (   5.4230272   4.6331002  14.3729980  )
        11           Ru1 tau(  11) = (   6.7240031   2.3798951  14.3730720  )
        12           Ru1 tau(  12) = (   4.1219742   2.3798627  14.3730557  )
        13           N1  tau(  13) = (   2.7116332   1.5655361  15.4158192  )

     number of k points=    20  Fermi-Dirac smearing, width (Ry)=  0.0110
                       cart. coord. in units 2pi/alat
        k(    1) = (   0.0000000   0.0000000   0.0000000), wk =   0.0555556
        k(    2) = (   0.0000000   0.0354882   0.0000000), wk =   0.1111111
        k(    3) = (   0.0000000   0.0709765   0.0000000), wk =   0.1111111
        k(    4) = (   0.0000000  -0.1064647   0.0000000), wk =   0.0555556
        k(    5) = (   0.0307337  -0.0177441   0.0000000), wk =   0.1111111
        k(    6) = (   0.0307337   0.0177441   0.0000000), wk =   0.1111111
        k(    7) = (   0.0307337   0.0532324   0.0000000), wk =   0.1111111
        k(    8) = (   0.0307337  -0.1242088   0.0000000), wk =   0.1111111
        k(    9) = (   0.0307337  -0.0887206   0.0000000), wk =   0.1111111
        k(   10) = (   0.0307337  -0.0532324   0.0000000), wk =   0.1111111
        k(   11) = (   0.0614674  -0.0354882   0.0000000), wk =   0.1111111
        k(   12) = (   0.0614674   0.0000000   0.0000000), wk =   0.1111111
        k(   13) = (   0.0614674   0.0354882   0.0000000), wk =   0.1111111
        k(   14) = (   0.0614674  -0.1419529   0.0000000), wk =   0.1111111
        k(   15) = (   0.0614674  -0.1064647   0.0000000), wk =   0.1111111
        k(   16) = (   0.0614674  -0.0709765   0.0000000), wk =   0.1111111
        k(   17) = (  -0.0922011   0.0532324   0.0000000), wk =   0.0555556
        k(   18) = (  -0.0922011   0.0887206   0.0000000), wk =   0.1111111
        k(   19) = (  -0.0922011   0.1242088   0.0000000), wk =   0.1111111
        k(   20) = (  -0.0922011  -0.0532324   0.0000000), wk =   0.0555556

     Largest allocated arrays     est. size (Mb)     dimensions
     Largest temporary arrays     est. size (Mb)     dimensions

     Initial potential from superposition of free atoms
     Check: negative starting charge=   -0.881937

     starting charge  184.99980, renormalised to  197.00000

[...]

     *
     * You are using vdW-DF for exchange-correlation in this calculation.
     * Please cite the following three references that made this development
     * possible:
     *
     *   M. Dion, H. Rydberg, E. Schroder, D. C. Langreth, and
     *   B. I. Lundqvist, Phys. Rev. Lett. 92, 246401 (2004).
     *
     *   T. Thonhauser, V. R. Cooper, S. Li, A. Puzder, P. Hyldgaard, and
     *   D. C. Langreth, Phys. Rev. B 76, 125112 (2007).
     *
     *   G. Roman-Perez and J. M. Soler, Phys. Rev. Lett. 103, 096102 (2009).
     *
     *
     * If you are using vdW-DF2, please also cite:
     *
     *   K. Lee, E. D. Murray, L. Kong, B. I. Lundqvist, and
     *   D. C. Langreth, Phys. Rev. B 82, 081101(R) (2010).
     *
     *
     * If you are calculating the stress with vdW-DF, please also cite:
     *
     *   R. Sabatini, E. Kucukbenli, B. Kolb, T. Thonhauser, and
     *   S. de Gironcoli, J. Phys.: Condens. Matter 24, 424209 (2012).
     *

     Carrying out vdW-DF run using the following parameters:

     Nqs =      20    Nr_points =    1024   r_max =   100.000
     q_mesh =
               0.00001000     0.04494208     0.09755937     0.15916263
               0.23128650     0.31572767     0.41458969     0.53033537
               0.66584808     0.82450364     1.01025438     1.22772762
               1.48234092     1.78043706     2.12944203     2.53805004
               3.01644009     3.57652955     4.23227104     5.00000000

     Gradients computed in reciprocal space

[...]

     Starting wfc are  160 randomized atomic wfcs

     Self-consistent Calculation

[...]

     total energy              =   -2361.60709153 Ry
     Harris-Foulkes estimate   =   -2361.60709433 Ry
     estimated scf accuracy    <       0.00002998 Ry

     iteration # 25     ecut=    36.75 Ry     beta=0.30
     Davidson diagonalization with overlap
     ethr =  7.74E-09,  avg # of iterations =  1.1

[...]

     negative rho (up, down):  9.203E-01 0.000E+00

     Adding external electric field

     Computed dipole along edir(3) :
        Dipole               -0.0828 Ry au,         -0.2105 Debye
        Dipole field         -0.0002 Ry au

        Potential amp.        0.0223 Ry
        Total length         45.0078 bohr

     End of self-consistent calculation

[...]

          k = 0.0615-0.0710 0.0000 ( 15803 PWs)   bands (ev):

[...]

          k =-0.0922-0.0532 0.0000 ( 15808 PWs)   bands (ev):

   -70.9454 -70.9401 -70.8850 -70.8833 -70.8294 -70.7917 -70.7723 -70.3988
   -70.3958 -70.3832 -70.3489 -70.3154 -41.3175 -41.1670 -41.1501 -41.1299
   -41.0597 -41.0589 -40.9624 -40.9528 -40.9244 -40.9178 -40.8855 -40.8291
   -40.7773 -40.7104 -40.6879 -40.6209 -40.6142 -40.6006 -40.5810 -40.5448
   -40.5258 -40.5093 -40.4618 -40.3570 -40.3428 -40.3375 -40.3220 -40.2983
   -40.2763 -40.2625 -40.2557 -40.2361 -40.2103 -40.1980 -40.0879 -40.0662
   -12.5206  -3.8513  -2.9929  -2.8608  -2.8608  -2.8109  -2.4301  -2.3796
    -2.3459  -2.1116  -2.0134  -1.9031  -1.8261  -1.7920  -1.7693  -1.5313
    -1.4755  -1.4189  -1.3029  -1.0110  -0.8941  -0.7812  -0.7540  -0.5418
    -0.5095  -0.4550  -0.2523  -0.1409   0.0143   0.0313   0.3066   0.3880
     0.3887   0.4514   0.4627   0.5316   0.6000   0.6234   0.7147   0.7457
     0.7720   0.9174   1.2624   1.3010   1.4065   1.4618   1.6854   1.7798
     1.8282   1.8500   1.9173   2.1708   2.2784   2.2996   2.5153   2.5386
     2.6351   2.7448   3.0676   3.2535

     the Fermi energy is     2.3742 ev

!    total energy              =   -2361.60708861 Ry
     Harris-Foulkes estimate   =   -2361.60709514 Ry
     estimated scf accuracy    <       0.00000448 Ry

     The total energy is the sum of the following terms:

     one-electron contribution =  -22756.83497487 Ry
     hartree contribution      =   11379.30924096 Ry
     xc contribution           =    -327.58869098 Ry
     ewald contribution        =    9343.59342829 Ry
     electric field correction =       0.00002052 Ry
     smearing contrib. (-TS)   =      -0.08611253 Ry

     convergence has been achieved in  25 iterations

 BEEF-vdW xc energy contributions
           1 :   -284.111629701485
           2 :    260.929752677784
           3 :   -220.731959343395
           4 :    173.363977101313
           5 :   -128.876640990788
           6 :    94.5093483828507
           7 :   -73.0496160489088
           8 :    62.9222608142422
           9 :   -59.7263035888835
          10 :    58.4397465346149
          11 :   -55.3752730498816
          12 :    49.1992285531907
          13 :   -40.8085690835767
          14 :    32.3461348197000
          15 :   -25.9232058594733
          16 :    22.6195595280996
          17 :   -22.1180975030082
          18 :    23.0213712104230
          19 :   -23.6152644986270
          20 :    22.6810994371004
          21 :   -19.9820927763713
          22 :    16.2387757543981
          23 :   -12.6640057204869
          24 :    10.3218506319962
          25 :   -9.62858545463496
          26 :    10.2139094239335
          27 :   -11.1732080387272
          28 :    11.5532462537122
          29 :   -10.8143488622809
          30 :    9.04667409278971
          31 :   -29.5536829144016
          32 :   -22.4372082592444

     Forces acting on atoms (Ry/au):

     negative rho (up, down):  9.203E-01 0.000E+00
     atom    1 type  1   force =     0.00521876    0.00302458    0.02839755
     atom    2 type  1   force =    -0.00521391    0.00300648    0.02839834
     atom    3 type  1   force =    -0.00001290   -0.00602814    0.02838328
     atom    4 type  1   force =     0.00002109   -0.00000872    0.01389642
     atom    5 type  1   force =    -0.00002597   -0.00781209   -0.01731872
     atom    6 type  1   force =     0.00002191    0.00000780   -0.04709601
     atom    7 type  1   force =     0.00678048    0.00391846   -0.01735873
     atom    8 type  1   force =    -0.00677735    0.00388615   -0.01733755
     atom    9 type  1   force =     0.00003228    0.00002530    0.00022791
     atom   10 type  1   force =    -0.00002476    0.00006658   -0.00012997
     atom   11 type  1   force =    -0.00003298   -0.00004556   -0.00019074
     atom   12 type  1   force =     0.00004845   -0.00001835   -0.00018781
     atom   13 type  2   force =    -0.00003510   -0.00002249    0.00031601

     Total force =     0.077615     Total SCF correction =     0.006231

     entering subroutine stress ...

     negative rho (up, down):  9.203E-01 0.000E+00
          total   stress  (Ry/bohr**3)                   (kbar)     P=  -16.20
  -0.00011079  -0.00000002  -0.00000002        -16.30     -0.00     -0.00
  -0.00000002  -0.00011086  -0.00000006         -0.00    -16.31     -0.01
  -0.00000002  -0.00000006  -0.00010863         -0.00     -0.01    -15.98

 !ASE

     Writing output data file calc.save

     General routines

     Parallel routines

   This run was terminated on:   6:38:11  18Jan2018

   JOB DONE.
Job  /afs/slac/g/suncat/bin/suncat-tsmpirun -x LD_LIBRARY_PATH -wdir /scratch/qe842477_s7B5m pw.x -in pw.inp

TID   HOST_NAME   COMMAND_LINE            STATUS            TERMINATION_TIME
00000 suncat0153 pw.x -in pw.inp   Done                     01/18/2018 06:38:11
00001 suncat0153 pw.x -in pw.inp   Done                     01/18/2018 06:38:11
00002 suncat0153 pw.x -in pw.inp   Done                     01/18/2018 06:38:11
00003 suncat0153 pw.x -in pw.inp   Done                     01/18/2018 06:38:11
00004 suncat0153 pw.x -in pw.inp   Done                     01/18/2018 06:38:11
00005 suncat0153 pw.x -in pw.inp   Done                     01/18/2018 06:38:11
00006 suncat0153 pw.x -in pw.inp   Done                     01/18/2018 06:38:11
00007 suncat0153 pw.x -in pw.inp   Done                     01/18/2018 06:38:11
00008 suncat0146 pw.x -in pw.inp   Done                     01/18/2018 06:38:11
00009 suncat0146 pw.x -in pw.inp   Done                     01/18/2018 06:38:11
00010 suncat0146 pw.x -in pw.inp   Done                     01/18/2018 06:38:11
00011 suncat0146 pw.x -in pw.inp   Done                     01/18/2018 06:38:11
00012 suncat0146 pw.x -in pw.inp   Done                     01/18/2018 06:38:11
00013 suncat0146 pw.x -in pw.inp   Done                     01/18/2018 06:38:11
00014 suncat0146 pw.x -in pw.inp   Done                     01/18/2018 06:38:11
00015 suncat0146 pw.x -in pw.inp   Done                     01/18/2018 06:38:11
00016 suncat0115 pw.x -in pw.inp   Done                     01/18/2018 06:38:11
00017 suncat0115 pw.x -in pw.inp   Done                     01/18/2018 06:38:11
00018 suncat0115 pw.x -in pw.inp   Done                     01/18/2018 06:38:11
00019 suncat0115 pw.x -in pw.inp   Done                     01/18/2018 06:38:11
00020 suncat0115 pw.x -in pw.inp   Done                     01/18/2018 06:38:11
00021 suncat0115 pw.x -in pw.inp   Done                     01/18/2018 06:38:11
00022 suncat0115 pw.x -in pw.inp   Done                     01/18/2018 06:38:11
00023 suncat0115 pw.x -in pw.inp   Done                     01/18/2018 06:38:11
00024 suncat0114 pw.x -in pw.inp   Done                     01/18/2018 06:38:11
00025 suncat0114 pw.x -in pw.inp   Done                     01/18/2018 06:38:11
00026 suncat0114 pw.x -in pw.inp   Done                     01/18/2018 06:38:11
00027 suncat0114 pw.x -in pw.inp   Done                     01/18/2018 06:38:11
00028 suncat0114 pw.x -in pw.inp   Done                     01/18/2018 06:38:11
00029 suncat0114 pw.x -in pw.inp   Done                     01/18/2018 06:38:11
00030 suncat0114 pw.x -in pw.inp   Done                     01/18/2018 06:38:11
00031 suncat0114 pw.x -in pw.inp   Done                     01/18/2018 06:38:11