     Program PWSCF v.5.1rc2 (svn rev. 11289) starts on 11Jan2019 at 18:11: 0

     Current dimensions of program PWSCF are:
     Max number of different atomic species (ntypx) = 10
     Max number of k-points (npk) =  40000
     Max angular momentum in pseudopotentials (lmaxx) =  3

     IMPORTANT: XC functional enforced from input :
     Exchange-correlation      = BEEF-VDW ( 1  4 27 13 2)
     Any further DFT definition will be discarded
     Please, verify this is what you really want

     Subspace diagonalization in iterative solution of the eigenvalue problem:
     a serial algorithm will be used

     Generating pointlists ...
     new r_m :   0.1799 (alat units)  1.7042 (a.u.) for type    1
     new r_m :   0.1799 (alat units)  1.7042 (a.u.) for type    2

     bravais-lattice index     =            0
     lattice parameter (alat)  =       9.4723  a.u.
     unit-cell volume          =    3537.7769 (a.u.)^3
     number of atoms/cell      =           13
     number of atomic types    =            2
     number of electrons       =       210.00
     number of Kohn-Sham states=          115
     kinetic-energy cutoff     =      36.7493  Ry
     charge density cutoff     =     367.4933  Ry
     convergence threshold     =      1.0E-04
     mixing beta               =       0.1000
     number of iterations used =            8  plain     mixing
     Exchange-correlation      = BEEF-VDW ( 1  4 27 13 2)
     nstep                     =           50

     celldm(1)=   9.472344  celldm(2)=   0.000000  celldm(3)=   0.000000
     celldm(4)=   0.000000  celldm(5)=   0.000000  celldm(6)=   0.000000

     crystal axes: (cart. coord. in units of alat)
               a(1) = (   1.000000   0.000000   0.000000 )
               a(2) = (   0.500000   0.866025   0.000000 )
               a(3) = (   0.000000   0.000000   4.806483 )

     reciprocal axes: (cart. coord. in units 2 pi/alat)
               b(1) = (  1.000000 -0.577350  0.000000 )
               b(2) = (  0.000000  1.154701  0.000000 )
               b(3) = (  0.000000  0.000000  0.208052 )

     PseudoPot. # 1 for Co read from file:
     /u/if/jboes/code/decaf-espresso/gbrv15pbe/Co.UPF
     MD5 check sum: 5f91765df6ddd3222702df6e7b74a16d
     Pseudo is Ultrasoft + core correction, Zval = 17.0
     Generated by new atomic code, or converted to UPF format
     Using radial grid of  863 points,  6 beta functions with:
                l(1) =   0
                l(2) =   0
                l(3) =   1
                l(4) =   1
                l(5) =   2
                l(6) =   2
     Q(r) pseudized with  8 coefficients,  rinner =    1.200   1.200   1.200
                                                       1.200   1.200

     PseudoPot. # 2 for S  read from file:
     /u/if/jboes/code/decaf-espresso/gbrv15pbe/S.UPF
     MD5 check sum: 88d86576ff6df21479756cfb9bdac1df
     Pseudo is Ultrasoft + core correction, Zval =  6.0
     Generated by new atomic code, or converted to UPF format
     Using radial grid of  907 points,  6 beta functions with:
                l(1) =   0
                l(2) =   0
                l(3) =   1
                l(4) =   1
                l(5) =   2
                l(6) =   2
     Q(r) pseudized with  8 coefficients,  rinner =    1.300   1.300   1.300
                                                       1.300   1.300

     vdW kernel table read from file vdW_kernel_table
     MD5 check sum: 095c7af220d748ca6e76c0b4c6cfb241

     atomic species   valence    mass     pseudopotential
        Co            17.00    58.93319     Co( 1.00)
        S              6.00    32.06000     S ( 1.00)

     Starting magnetic structure
     atomic species   magnetization
        Co           0.118
        S            0.000

     No symmetry found

   Cartesian axes

     site n.     atom                  positions (alat units)
         1           Co  tau(   1) = (   0.2500000   0.1443376   1.9949931  )
         2           Co  tau(   2) = (   0.7500000   0.1443376   1.9949931  )
         3           Co  tau(   3) = (   0.5000000   0.5773503   1.9949931  )
         4           Co  tau(   4) = (   1.0000000   0.5773503   1.9949931  )
         5           Co  tau(   5) = (   1.0000000   0.2886751   2.4032414  )
         6           Co  tau(   6) = (   0.5000000   0.2886751   2.4032414  )
         7           Co  tau(   7) = (   1.2500000   0.7216878   2.4032414  )
         8           Co  tau(   8) = (   0.7500000   0.7216878   2.4032414  )
         9           Co  tau(   9) = (  -0.0056635  -0.0032701   2.8074432  )
        10           Co  tau(  10) = (   0.5056623  -0.0032701   2.8074370  )
        11           Co  tau(  11) = (   0.2499992   0.4395510   2.8074365  )
        12           Co  tau(  12) = (   0.7499976   0.4330132   2.8026589  )
        13           S   tau(  13) = (   0.2499982   0.1443355   3.1285059  )

     number of k points=    40  Fermi-Dirac smearing, width (Ry)=  0.0110
                       cart. coord. in units 2pi/alat
        k(    1) = (   0.0000000   0.0000000   0.0000000), wk =   0.0277778
        k(    2) = (   0.0000000   0.1924501   0.0000000), wk =   0.0555556
        k(    3) = (   0.0000000   0.3849002   0.0000000), wk =   0.0555556
        k(    4) = (   0.0000000  -0.5773503   0.0000000), wk =   0.0277778
        k(    5) = (   0.1666667  -0.0962250   0.0000000), wk =   0.0555556
        k(    6) = (   0.1666667   0.0962250   0.0000000), wk =   0.0555556
        k(    7) = (   0.1666667   0.2886751   0.0000000), wk =   0.0555556
        k(    8) = (   0.1666667  -0.6735753   0.0000000), wk =   0.0555556
        k(    9) = (   0.1666667  -0.4811252   0.0000000), wk =   0.0555556
        k(   10) = (   0.1666667  -0.2886751   0.0000000), wk =   0.0555556
        k(   11) = (   0.3333333  -0.1924501   0.0000000), wk =   0.0555556
        k(   12) = (   0.3333333  -0.0000000   0.0000000), wk =   0.0555556
        k(   13) = (   0.3333333   0.1924501   0.0000000), wk =   0.0555556
        k(   14) = (   0.3333333  -0.7698004   0.0000000), wk =   0.0555556
        k(   15) = (   0.3333333  -0.5773503   0.0000000), wk =   0.0555556
        k(   16) = (   0.3333333  -0.3849002   0.0000000), wk =   0.0555556
        k(   17) = (  -0.5000000   0.2886751   0.0000000), wk =   0.0277778
        k(   18) = (  -0.5000000   0.4811252   0.0000000), wk =   0.0555556
        k(   19) = (  -0.5000000   0.6735753   0.0000000), wk =   0.0555556
        k(   20) = (  -0.5000000  -0.2886751   0.0000000), wk =   0.0277778
        k(   21) = (   0.0000000   0.0000000   0.0000000), wk =   0.0277778
        k(   22) = (   0.0000000   0.1924501   0.0000000), wk =   0.0555556
        k(   23) = (   0.0000000   0.3849002   0.0000000), wk =   0.0555556
        k(   24) = (   0.0000000  -0.5773503   0.0000000), wk =   0.0277778
        k(   25) = (   0.1666667  -0.0962250   0.0000000), wk =   0.0555556
        k(   26) = (   0.1666667   0.0962250   0.0000000), wk =   0.0555556
        k(   27) = (   0.1666667   0.2886751   0.0000000), wk =   0.0555556
        k(   28) = (   0.1666667  -0.6735753   0.0000000), wk =   0.0555556
        k(   29) = (   0.1666667  -0.4811252   0.0000000), wk =   0.0555556
        k(   30) = (   0.1666667  -0.2886751   0.0000000), wk =   0.0555556
        k(   31) = (   0.3333333  -0.1924501   0.0000000), wk =   0.0555556
        k(   32) = (   0.3333333  -0.0000000   0.0000000), wk =   0.0555556
        k(   33) = (   0.3333333   0.1924501   0.0000000), wk =   0.0555556
        k(   34) = (   0.3333333  -0.7698004   0.0000000), wk =   0.0555556
        k(   35) = (   0.3333333  -0.5773503   0.0000000), wk =   0.0555556
        k(   36) = (   0.3333333  -0.3849002   0.0000000), wk =   0.0555556
        k(   37) = (  -0.5000000   0.2886751   0.0000000), wk =   0.0277778
        k(   38) = (  -0.5000000   0.4811252   0.0000000), wk =   0.0555556
        k(   39) = (  -0.5000000   0.6735753   0.0000000), wk =   0.0555556
        k(   40) = (  -0.5000000  -0.2886751   0.0000000), wk =   0.0277778

     Largest allocated arrays     est. size (Mb)     dimensions
     Largest temporary arrays     est. size (Mb)     dimensions

     Check: negative/imaginary core charge=   -0.000007    0.000000

     Initial potential from superposition of free atoms
     Check: negative starting charge=(component1):   -0.000182
     Check: negative starting charge=(component2):   -0.000142

     starting charge  197.99988, renormalised to  210.00000

     negative rho (up, down):  1.928E-04 1.510E-04

     *
     * You are using vdW-DF for exchange-correlation in this calculation.
     * Please cite the following three references that made this development
     * possible:
     *
     *   M. Dion, H. Rydberg, E. Schroder, D. C. Langreth, and
     *   B. I. Lundqvist, Phys. Rev. Lett. 92, 246401 (2004).
     *
     *   T. Thonhauser, V. R. Cooper, S. Li, A. Puzder, P. Hyldgaard, and
     *   D. C. Langreth, Phys. Rev. B 76, 125112 (2007).
     *
     *   G. Roman-Perez and J. M. Soler, Phys. Rev. Lett. 103, 096102 (2009).
     *
     *
     * If you are using vdW-DF2, please also cite:
     *
     *   K. Lee, E. D. Murray, L. Kong, B. I. Lundqvist, and
     *   D. C. Langreth, Phys. Rev. B 82, 081101(R) (2010).
     *
     *
     * If you are calculating the stress with vdW-DF, please also cite:
     *
     *   R. Sabatini, E. Kucukbenli, B. Kolb, T. Thonhauser, and
     *   S. de Gironcoli, J. Phys.: Condens. Matter 24, 424209 (2012).
     *

     Carrying out vdW-DF run using the following parameters:

     Nqs =      20    Nr_points =    1024   r_max =   100.000
     q_mesh =
               0.00001000     0.04494208     0.09755937     0.15916263
               0.23128650     0.31572767     0.41458969     0.53033537
               0.66584808     0.82450364     1.01025438     1.22772762
               1.48234092     1.78043706     2.12944203     2.53805004
               3.01644009     3.57652955     4.23227104     5.00000000

     Gradients computed in reciprocal space

     Adding external electric field

     Computed dipole along edir(3) :
        Dipole               -2.5039 Ry au,         -6.3644 Debye
        Dipole field         -0.0089 Ry au

        Potential amp.        0.7289 Ry
        Total length         40.9758 bohr

[...]

     Starting wfc are  160 randomized atomic wfcs

     Self-consistent Calculation

     iteration #  1     ecut=    36.75 Ry     beta=0.10
     Davidson diagonalization with overlap
     ethr =  1.00E-02,  avg # of iterations =  7.5

[...]

     Magnetic moment per site:
     atom:    1    charge:   15.3556    magn:    1.7325    constr:    0.0000
     atom:    2    charge:   15.3554    magn:    1.7323    constr:    0.0000
     atom:    3    charge:   15.3555    magn:    1.7322    constr:    0.0000
     atom:    4    charge:   15.3554    magn:    1.7324    constr:    0.0000
     atom:    5    charge:   15.2006    magn:    1.7423    constr:    0.0000
     atom:    6    charge:   15.2006    magn:    1.7422    constr:    0.0000
     atom:    7    charge:   15.2035    magn:    1.7403    constr:    0.0000
     atom:    8    charge:   15.2006    magn:    1.7423    constr:    0.0000
     atom:    9    charge:   14.9410    magn:    1.6792    constr:    0.0000
     atom:   10    charge:   14.9410    magn:    1.6792    constr:    0.0000
     atom:   11    charge:   14.9410    magn:    1.6792    constr:    0.0000
     atom:   12    charge:   14.8782    magn:    1.6772    constr:    0.0000
     atom:   13    charge:    3.5768    magn:    0.0111    constr:    0.0000

     total energy              =   -3458.84821997 Ry
     Harris-Foulkes estimate   =   -3644.02481836 Ry
     estimated scf accuracy    <    1019.29093580 Ry

     total magnetization       =    10.42 Bohr mag/cell
     absolute magnetization    =    11.04 Bohr mag/cell

[...]

     End of self-consistent calculation

 ------ SPIN UP ------------

          k = 0.0000 0.0000 0.0000 ( 13257 PWs)   bands (ev):

   -95.5189 -95.4915 -95.4911 -95.4464 -95.4228 -95.3245 -95.2963 -95.2833
   -95.2818 -95.2030 -95.1800 -95.1778 -58.8962 -58.8511 -58.8509 -58.8300
   -58.7807 -58.7804 -58.7557 -58.7367 -58.6979 -58.6893 -58.6891 -58.6791
   -58.6790 -58.6437 -58.6278 -58.6235 -58.6231 -58.6144 -58.6144 -58.6063
   -58.5978 -58.5966 -58.5871 -58.5211 -58.5194 -58.4682 -58.4678 -58.4632
   -58.4218 -58.4125 -58.4122 -58.4018 -58.4017 -58.3418 -58.3392 -58.3388
   -12.2364  -6.9979  -5.1123  -4.2938  -4.1002  -4.0999  -3.9453  -3.8938
    -3.8723  -3.8722  -3.6235  -3.4054  -3.4052  -3.3792  -3.3791  -3.2802
    -2.8301  -2.8300  -2.7100  -2.2793  -2.2791  -2.0801  -2.0180  -2.0178
    -1.9585  -1.8456  -1.8381  -1.8380  -1.6451  -1.6450  -1.6333  -1.5777
    -1.5641  -1.5639  -1.4888  -1.4887  -1.3049  -1.1728  -1.1723  -0.8602
    -0.8600  -0.7948  -0.7939  -0.7938  -0.5540  -0.5537  -0.4413  -0.4412
    -0.3794  -0.2196  -0.2194  -0.2157  -0.1931  -0.1426  -0.1425   0.0241
     0.0444   0.0445   0.2219   0.2227   0.2634   0.2647   0.2653   0.3295
     0.4954   0.4959   0.6055

[...]

          k =-0.5000 0.2887 0.0000 ( 13378 PWs)   bands (ev):

[...]

 ------ SPIN DOWN ----------

[...]

     the Fermi energy is     1.0168 ev

!    total energy              =   -3618.84787122 Ry
     Harris-Foulkes estimate   =   -3618.84786849 Ry
     estimated scf accuracy    <       0.00003772 Ry

     The total energy is the sum of the following terms:

     one-electron contribution =  -32018.82844197 Ry
     hartree contribution      =   16018.58719889 Ry
     xc contribution           =    -414.14325949 Ry
     ewald contribution        =   12795.61493864 Ry
     electric field correction =       0.00004460 Ry
     smearing contrib. (-TS)   =      -0.07835189 Ry

[...]

     convergence has been achieved in  31 iterations

     Forces acting on atoms (Ry/au):

     negative rho (up, down):  6.078E-04 3.089E-04
     atom    1 type  1   force =     0.00002197    0.00006240    0.00888133
     atom    2 type  1   force =    -0.00006748   -0.00194215    0.01107527
     atom    3 type  1   force =    -0.00173615    0.00090779    0.01108565
     atom    4 type  1   force =     0.00168979    0.00095591    0.01097817
     atom    5 type  1   force =    -0.00045239   -0.00058683   -0.00472598
     atom    6 type  1   force =     0.00039218    0.00024775   -0.00545796
     atom    7 type  1   force =     0.00069028    0.00039771   -0.02317412
     atom    8 type  1   force =    -0.00075120   -0.00008392   -0.00472567
     atom    9 type  1   force =    -0.00084030   -0.00047983   -0.00131505
     atom   10 type  1   force =     0.00099572   -0.00037752   -0.00140785
     atom   11 type  1   force =     0.00016833    0.00098988   -0.00141695
     atom   12 type  1   force =    -0.00014932   -0.00010187   -0.00396064
     atom   13 type  2   force =     0.00003858    0.00001068    0.00416379

     Total force =     0.006470     Total SCF correction =     0.013269
     SCF correction compared to forces is large: reduce conv_thr to get better values

     BFGS Geometry Optimization

     number of scf cycles    =   1
     number of bfgs steps    =   0

     energy   new            =   -3618.8478712152 Ry

     new trust radius        =       0.0041639851 bohr
     new conv_thr            =       0.0001000000 Ry

ATOMIC_POSITIONS (angstrom)
Co       1.253137179   0.723499087  10.000000000    0   0   0
Co       3.759411536   0.723499087  10.000000000    0   0   0
Co       2.506274357   2.893996350  10.000000000    0   0   0
Co       5.012548715   2.893996350  10.000000000    0   0   0
Co       5.012548715   1.446998175  12.046364444    0   0   0
Co       2.506274357   1.446998175  12.046364444    0   0   0
Co       6.265685894   3.617495438  12.046364444    0   0   0
Co       3.759411536   3.617495438  12.046364444    0   0   0
Co      -0.028833411  -0.016645564  14.071750055
Co       2.535183653  -0.016591393  14.071669892
Co       1.253222134   2.203794489  14.071662620
Co       3.759320688   2.170446089  14.046368625
S        1.253148701   0.723494441  15.683991607

     Writing output data file calc.save
     Check: negative starting charge=(component1):   -0.000324
     NEW-OLD atomic charge density approx. for the potential

     Check: negative/imaginary core charge=   -0.000007    0.000000
     Check: negative starting charge=(component1):   -0.000324

[...]

     energy   old            =   -3618.8478712152 Ry
     energy   new            =   -3618.8478678803 Ry

     CASE: energy  _new > energy  _old

     new trust radius        =       0.0019283526 bohr
     new conv_thr            =       0.0001000000 Ry

[...]

     CASE: energy  _new < energy  _old

     WARNING: bfgs curvature condition failed, Theta= 0.593
     new trust radius        =       0.0028925289 bohr
     new conv_thr            =       0.0000010000 Ry

[...]

     number of scf cycles    =   4
     number of bfgs steps    =   2

     energy   old            =   -3618.8479094699 Ry
     energy   new            =   -3618.8479189193 Ry

     CASE: energy  _new < energy  _old

     WARNING: info= 39 for Hessian
     new trust radius        =       0.0020950129 bohr
     new conv_thr            =       0.0000010000 Ry

ATOMIC_POSITIONS (angstrom)
Co       1.253137179   0.723499087  10.000000000    0   0   0
Co       3.759411536   0.723499087  10.000000000    0   0   0
Co       2.506274357   2.893996350  10.000000000    0   0   0
Co       5.012548715   2.893996350  10.000000000    0   0   0
Co       5.012548715   1.446998175  12.046364444    0   0   0
Co       2.506274357   1.446998175  12.046364444    0   0   0
Co       6.265685894   3.617495438  12.046364444    0   0   0
Co       3.759411536   3.617495438  12.046364444    0   0   0
Co      -0.028151808  -0.016270070  14.071958982
Co       2.534650885  -0.016352476  14.071862299
Co       1.253176032   2.203152980  14.071826494
Co       3.759405247   2.170505168  14.045714282
S        1.253161483   0.723502701  15.685107365

     Writing output data file calc.save
     Check: negative starting charge=(component1):   -0.000324
     NEW-OLD atomic charge density approx. for the potential

     Check: negative/imaginary core charge=   -0.000007    0.000000
     Check: negative starting charge=(component1):   -0.000324

[...]

     Self-consistent Calculation

[...]

     total energy              =   -3618.84792405 Ry
     Harris-Foulkes estimate   =   -3618.84792422 Ry
     estimated scf accuracy    <       0.00000272 Ry

[...]

     iteration #  6     ecut=    36.75 Ry     beta=0.10
     Davidson diagonalization with overlap
     ethr =  1.30E-09,  avg # of iterations =  1.1

     negative rho (up, down):  6.069E-04 3.078E-04

[...]

     Adding external electric field

     Computed dipole along edir(3) :
        Dipole               -0.0964 Ry au,         -0.2449 Debye
        Dipole field         -0.0003 Ry au

        Potential amp.        0.0280 Ry
        Total length         40.9758 bohr

     Magnetic moment per site:
     atom:    1    charge:   14.8660    magn:    1.7913    constr:    0.0000
     atom:    2    charge:   14.8678    magn:    1.7728    constr:    0.0000
     atom:    3    charge:   14.8678    magn:    1.7728    constr:    0.0000
     atom:    4    charge:   14.8679    magn:    1.7728    constr:    0.0000
     atom:    5    charge:   14.8981    magn:    1.7680    constr:    0.0000
     atom:    6    charge:   14.8983    magn:    1.7679    constr:    0.0000
     atom:    7    charge:   14.9045    magn:    1.6902    constr:    0.0000
     atom:    8    charge:   14.8982    magn:    1.7680    constr:    0.0000
     atom:    9    charge:   14.9167    magn:    1.5354    constr:    0.0000
     atom:   10    charge:   14.9168    magn:    1.5354    constr:    0.0000
     atom:   11    charge:   14.9168    magn:    1.5353    constr:    0.0000
     atom:   12    charge:   14.8736    magn:    1.8939    constr:    0.0000
     atom:   13    charge:    3.4776    magn:    0.0240    constr:    0.0000

     End of self-consistent calculation

 ------ SPIN UP ------------

[...]

 ------ SPIN DOWN ----------

[...]

          k = 0.3333-0.3849 0.0000 ( 13313 PWs)   bands (ev):

[...]

          k =-0.5000-0.2887 0.0000 ( 13378 PWs)   bands (ev):

   -93.1181 -93.1025 -93.0964 -93.0921 -93.0683 -93.0589 -93.0516 -92.8839
   -92.8834 -92.8706 -92.8669 -92.8664 -56.6623 -56.6054 -56.5861 -56.5127
   -56.4984 -56.4821 -56.4638 -56.4620 -56.4521 -56.4463 -56.4373 -56.4286
   -56.4256 -56.3969 -56.3949 -56.3608 -56.3598 -56.3457 -56.3350 -56.3265
   -56.3087 -56.3042 -56.2925 -56.2445 -56.2429 -56.2300 -56.2277 -56.2268
   -56.2162 -56.1931 -56.1908 -56.1878 -56.1854 -56.1847 -56.1557 -56.1531
   -12.0946  -5.3368  -5.2167  -3.8936  -3.7040  -3.0834  -2.8578  -2.6524
    -2.5043  -2.4953  -2.1046  -2.0904  -1.9075  -1.8241  -1.5422  -1.4696
    -1.3978  -1.3762  -1.1762  -1.1389  -0.9091  -0.8776  -0.8484  -0.8386
    -0.8143  -0.7050  -0.5336  -0.4101  -0.3555  -0.2880  -0.2571  -0.2451
    -0.1921  -0.0950  -0.0690   0.1448   0.1659   0.1682   0.1841   0.3061
     0.4270   0.4492   0.5535   0.7660   0.8295   0.8658   0.9113   0.9286
     1.0552   1.1014   1.1671   1.1716   1.2514   1.2797   1.3186   1.3473
     1.5087   1.5325   1.5798   1.6166   1.8429   1.9381   1.9618   2.0273
     2.1293   2.1980   2.2813

     the Fermi energy is     1.0109 ev

!    total energy              =   -3618.84792363 Ry
     Harris-Foulkes estimate   =   -3618.84792194 Ry
     estimated scf accuracy    <       0.00000082 Ry

     The total energy is the sum of the following terms:

     one-electron contribution =  -32021.47625341 Ry
     hartree contribution      =   16019.89980022 Ry
     xc contribution           =    -414.14828976 Ry
     ewald contribution        =   12796.95486143 Ry
     electric field correction =       0.00003298 Ry
     smearing contrib. (-TS)   =      -0.07807508 Ry

     total magnetization       =    19.66 Bohr mag/cell
     absolute magnetization    =    22.20 Bohr mag/cell

     convergence has been achieved in   6 iterations

     Forces acting on atoms (Ry/au):

     negative rho (up, down):  6.069E-04 3.078E-04
     atom    1 type  1   force =    -0.00002223   -0.00000497    0.00836485
     atom    2 type  1   force =     0.00001799   -0.00228634    0.01073409
     atom    3 type  1   force =    -0.00197754    0.00115942    0.01073352
     atom    4 type  1   force =     0.00197454    0.00113645    0.01075157
     atom    5 type  1   force =     0.00036600   -0.00026074   -0.00580054
     atom    6 type  1   force =    -0.00037397   -0.00022313   -0.00577118
     atom    7 type  1   force =     0.00004727    0.00003148   -0.02374151
     atom    8 type  1   force =    -0.00003577    0.00045760   -0.00579966
     atom    9 type  1   force =    -0.00097925   -0.00055377    0.00016990
     atom   10 type  1   force =     0.00094992   -0.00043533    0.00026806
     atom   11 type  1   force =     0.00008748    0.00103808    0.00026341
     atom   12 type  1   force =    -0.00007953   -0.00007040   -0.00098120
     atom   13 type  2   force =     0.00002510    0.00001165    0.00080868

     Total force =     0.002289     Total SCF correction =     0.004322
     SCF correction compared to forces is large: reduce conv_thr to get better values

     bfgs converged in   5 scf cycles and   3 bfgs steps
     (criteria: energy <  1.0E+12, force <  1.9E-03)

     End of BFGS Geometry Optimization

     Final energy   =   -3618.8479236321 Ry
Begin final coordinates

ATOMIC_POSITIONS (angstrom)
Co       1.253137179   0.723499087  10.000000000    0   0   0
Co       3.759411536   0.723499087  10.000000000    0   0   0
Co       2.506274357   2.893996350  10.000000000    0   0   0
Co       5.012548715   2.893996350  10.000000000    0   0   0
Co       5.012548715   1.446998175  12.046364444    0   0   0
Co       2.506274357   1.446998175  12.046364444    0   0   0
Co       6.265685894   3.617495438  12.046364444    0   0   0
Co       3.759411536   3.617495438  12.046364444    0   0   0
Co      -0.028151808  -0.016270070  14.071958982
Co       2.534650885  -0.016352476  14.071862299
Co       1.253176032   2.203152980  14.071826494
Co       3.759405247   2.170505168  14.045714282
S        1.253161483   0.723502701  15.685107365
End final coordinates

     Writing output data file calc.save

     General routines

     Parallel routines

   This run was terminated on:  18:33:10  11Jan2019

   JOB DONE.
Job  /afs/slac/g/suncat/bin/suncat-tsmpirun -x LD_LIBRARY_PATH -wdir /tmp/qe_673114zrw9zwz4_scratch pw.x -npool 2 -in pw.pwi

TID   HOST_NAME   COMMAND_LINE            STATUS            TERMINATION_TIME
00000 suncat2062 pw.x -npool 2 -i  Done                     01/11/2019 18:33:10
00001 suncat2062 pw.x -npool 2 -i  Done                     01/11/2019 18:33:10
00002 suncat2062 pw.x -npool 2 -i  Done                     01/11/2019 18:33:10
00003 suncat2062 pw.x -npool 2 -i  Done                     01/11/2019 18:33:10
00004 suncat2062 pw.x -npool 2 -i  Done                     01/11/2019 18:33:10
00005 suncat2062 pw.x -npool 2 -i  Done                     01/11/2019 18:33:10
00006 suncat2062 pw.x -npool 2 -i  Done                     01/11/2019 18:33:10
00007 suncat2062 pw.x -npool 2 -i  Done                     01/11/2019 18:33:10
00008 suncat2062 pw.x -npool 2 -i  Done                     01/11/2019 18:33:10
00009 suncat2062 pw.x -npool 2 -i  Done                     01/11/2019 18:33:10
00010 suncat2062 pw.x -npool 2 -i  Done                     01/11/2019 18:33:10
00011 suncat2062 pw.x -npool 2 -i  Done                     01/11/2019 18:33:10
00012 suncat2062 pw.x -npool 2 -i  Done                     01/11/2019 18:33:10
00013 suncat2062 pw.x -npool 2 -i  Done                     01/11/2019 18:33:10
00014 suncat2062 pw.x -npool 2 -i  Done                     01/11/2019 18:33:10
00015 suncat2062 pw.x -npool 2 -i  Done                     01/11/2019 18:33:10
00016 suncat2058 pw.x -npool 2 -i  Done                     01/11/2019 18:33:10
00017 suncat2058 pw.x -npool 2 -i  Done                     01/11/2019 18:33:10
00018 suncat2058 pw.x -npool 2 -i  Done                     01/11/2019 18:33:10
00019 suncat2058 pw.x -npool 2 -i  Done                     01/11/2019 18:33:10
00020 suncat2058 pw.x -npool 2 -i  Done                     01/11/2019 18:33:10
00021 suncat2058 pw.x -npool 2 -i  Done                     01/11/2019 18:33:10
00022 suncat2058 pw.x -npool 2 -i  Done                     01/11/2019 18:33:10
00023 suncat2058 pw.x -npool 2 -i  Done                     01/11/2019 18:33:10
00024 suncat2058 pw.x -npool 2 -i  Done                     01/11/2019 18:33:10
00025 suncat2058 pw.x -npool 2 -i  Done                     01/11/2019 18:33:10
00026 suncat2058 pw.x -npool 2 -i  Done                     01/11/2019 18:33:10
00027 suncat2058 pw.x -npool 2 -i  Done                     01/11/2019 18:33:10
00028 suncat2058 pw.x -npool 2 -i  Done                     01/11/2019 18:33:10
00029 suncat2058 pw.x -npool 2 -i  Done                     01/11/2019 18:33:10
00030 suncat2058 pw.x -npool 2 -i  Done                     01/11/2019 18:33:10
00031 suncat2058 pw.x -npool 2 -i  Done                     01/11/2019 18:33:10