     Program PWSCF v.5.1rc2 (svn rev. 11289) starts on 11Jan2019 at 21:17:32

     Current dimensions of program PWSCF are:
     Max number of different atomic species (ntypx) = 10
     Max number of k-points (npk) =  40000
     Max angular momentum in pseudopotentials (lmaxx) =  3

     IMPORTANT: XC functional enforced from input :
     Exchange-correlation      = BEEF-VDW ( 1  4 27 13 2)
     Any further DFT definition will be discarded
     Please, verify this is what you really want

     Subspace diagonalization in iterative solution of the eigenvalue problem:
     a serial algorithm will be used

     bravais-lattice index     =            0
     lattice parameter (alat)  =      11.8187  a.u.
     unit-cell volume          =    5739.2980 (a.u.)^3
     number of atoms/cell      =           13
     number of atomic types    =            2
     number of electrons       =       145.00
     number of Kohn-Sham states=           82
     kinetic-energy cutoff     =      36.7493  Ry
     charge density cutoff     =     367.4933  Ry
     convergence threshold     =      1.0E-04
     mixing beta               =       0.2000
     number of iterations used =            8  plain     mixing
     Exchange-correlation      = BEEF-VDW ( 1  4 27 13 2)
     nstep                     =           50

     celldm(1)=  11.818741  celldm(2)=   0.000000  celldm(3)=   0.000000
     celldm(4)=   0.000000  celldm(5)=   0.000000  celldm(6)=   0.000000

     crystal axes: (cart. coord. in units of alat)
               a(1) = (   1.000000   0.000000   0.000000 )
               a(2) = (   0.500000   0.866025   0.000000 )
               a(3) = (   0.000000   0.000000   4.014343 )

     reciprocal axes: (cart. coord. in units 2 pi/alat)
               b(1) = (  1.000000 -0.577350  0.000000 )
               b(2) = (  0.000000  1.154701  0.000000 )
               b(3) = (  0.000000  0.000000  0.249107 )

     PseudoPot. # 1 for Cd read from file:
     /u/if/jboes/code/decaf-espresso/gbrv15pbe/Cd.UPF
     MD5 check sum: 17164a7926edb8e0dc231208abae86a6
     Pseudo is Ultrasoft + core correction, Zval = 12.0
     Generated by new atomic code, or converted to UPF format
     Using radial grid of  889 points,  6 beta functions with:
                l(1) =   0
                l(2) =   0
                l(3) =   1
                l(4) =   1
                l(5) =   2
                l(6) =   2
     Q(r) pseudized with  6 coefficients,  rinner =    1.000   1.000   1.000
                                                       1.000   1.000

     PseudoPot. # 2 for H  read from file:
     /u/if/jboes/code/decaf-espresso/gbrv15pbe/H.UPF
     MD5 check sum: 761ae9a214b05c3daf00ab9f6b793d6f
     Pseudo is Ultrasoft, Zval =  1.0
     Generated by new atomic code, or converted to UPF format
     Using radial grid of  615 points,  2 beta functions with:
                l(1) =   0
                l(2) =   0
     Q(r) pseudized with  8 coefficients,  rinner =    0.700

     vdW kernel table read from file vdW_kernel_table
     MD5 check sum: 095c7af220d748ca6e76c0b4c6cfb241

     atomic species   valence    mass     pseudopotential
        Cd            12.00   112.41400     Cd( 1.00)
        H              1.00     1.00800     H ( 1.00)

     No symmetry found

   Cartesian axes

     site n.     atom                  positions (alat units)
         1           Cd  tau(   1) = (   0.2500000   0.1443376   1.5989234  )
         2           Cd  tau(   2) = (   0.7500000   0.1443376   1.5989234  )
         3           Cd  tau(   3) = (   0.5000000   0.5773503   1.5989234  )
         4           Cd  tau(   4) = (   1.0000000   0.5773503   1.5989234  )
         5           Cd  tau(   5) = (   1.0000000   0.2886751   2.0071717  )
         6           Cd  tau(   6) = (   0.5000000   0.2886751   2.0071717  )
         7           Cd  tau(   7) = (   1.2500000   0.7216878   2.0071717  )
         8           Cd  tau(   8) = (   0.7500000   0.7216878   2.0071717  )
         9           Cd  tau(   9) = (  -0.0068973  -0.0039810   2.4687447  )
        10           Cd  tau(  10) = (   0.5068911  -0.0039721   2.4687483  )
        11           Cd  tau(  11) = (   0.2500048   0.4409645   2.4687491  )
        12           Cd  tau(  12) = (   0.7499900   0.4330063   2.4468220  )
        13           H   tau(  13) = (   0.2499789   0.1443263   2.6162382  )

     number of k points=    20  Fermi-Dirac smearing, width (Ry)=  0.0110
                       cart. coord. in units 2pi/alat
        k(    1) = (   0.0000000   0.0000000   0.0000000), wk =   0.0555556
        k(    2) = (   0.0000000   0.1924501   0.0000000), wk =   0.1111111
        k(    3) = (   0.0000000   0.3849002   0.0000000), wk =   0.1111111
        k(    4) = (   0.0000000  -0.5773503   0.0000000), wk =   0.0555556
        k(    5) = (   0.1666667  -0.0962250   0.0000000), wk =   0.1111111
        k(    6) = (   0.1666667   0.0962250   0.0000000), wk =   0.1111111
        k(    7) = (   0.1666667   0.2886751   0.0000000), wk =   0.1111111
        k(    8) = (   0.1666667  -0.6735753   0.0000000), wk =   0.1111111
        k(    9) = (   0.1666667  -0.4811252   0.0000000), wk =   0.1111111
        k(   10) = (   0.1666667  -0.2886751   0.0000000), wk =   0.1111111
        k(   11) = (   0.3333333  -0.1924501   0.0000000), wk =   0.1111111
        k(   12) = (   0.3333333   0.0000000   0.0000000), wk =   0.1111111
        k(   13) = (   0.3333333   0.1924501   0.0000000), wk =   0.1111111
        k(   14) = (   0.3333333  -0.7698004   0.0000000), wk =   0.1111111
        k(   15) = (   0.3333333  -0.5773503   0.0000000), wk =   0.1111111
        k(   16) = (   0.3333333  -0.3849002   0.0000000), wk =   0.1111111
        k(   17) = (  -0.5000000   0.2886751   0.0000000), wk =   0.0555556
        k(   18) = (  -0.5000000   0.4811252   0.0000000), wk =   0.1111111
        k(   19) = (  -0.5000000   0.6735753   0.0000000), wk =   0.1111111
        k(   20) = (  -0.5000000  -0.2886751   0.0000000), wk =   0.0555556

     Largest allocated arrays     est. size (Mb)     dimensions
     Largest temporary arrays     est. size (Mb)     dimensions

     Initial potential from superposition of free atoms
     Check: negative starting charge=   -0.259473

     starting charge  138.99950, renormalised to  145.00000

     negative rho (up, down):  2.707E-01 0.000E+00

     *
     * You are using vdW-DF for exchange-correlation in this calculation.
     * Please cite the following three references that made this development
     * possible:
     *
     *   M. Dion, H. Rydberg, E. Schroder, D. C. Langreth, and
     *   B. I. Lundqvist, Phys. Rev. Lett. 92, 246401 (2004).
     *
     *   T. Thonhauser, V. R. Cooper, S. Li, A. Puzder, P. Hyldgaard, and
     *   D. C. Langreth, Phys. Rev. B 76, 125112 (2007).
     *
     *   G. Roman-Perez and J. M. Soler, Phys. Rev. Lett. 103, 096102 (2009).
     *
     *
     * If you are using vdW-DF2, please also cite:
     *
     *   K. Lee, E. D. Murray, L. Kong, B. I. Lundqvist, and
     *   D. C. Langreth, Phys. Rev. B 82, 081101(R) (2010).
     *
     *
     * If you are calculating the stress with vdW-DF, please also cite:
     *
     *   R. Sabatini, E. Kucukbenli, B. Kolb, T. Thonhauser, and
     *   S. de Gironcoli, J. Phys.: Condens. Matter 24, 424209 (2012).
     *

     Carrying out vdW-DF run using the following parameters:

     Nqs =      20    Nr_points =    1024   r_max =   100.000
     q_mesh =
               0.00001000     0.04494208     0.09755937     0.15916263
               0.23128650     0.31572767     0.41458969     0.53033537
               0.66584808     0.82450364     1.01025438     1.22772762
               1.48234092     1.78043706     2.12944203     2.53805004
               3.01644009     3.57652955     4.23227104     5.00000000

     Gradients computed in reciprocal space

     Adding external electric field

     Computed dipole along edir(3) :
        Dipole               -0.3025 Ry au,         -0.7690 Debye
        Dipole field         -0.0007 Ry au

        Potential amp.        0.0566 Ry
        Total length         42.7000 bohr

     Starting wfc are  109 randomized atomic wfcs

     Self-consistent Calculation

     iteration #  1     ecut=    36.75 Ry     beta=0.20
     Davidson diagonalization with overlap
     ethr =  1.00E-02,  avg # of iterations =  2.5

[...]

     total energy              =   -1394.10807864 Ry
     Harris-Foulkes estimate   =   -1394.57663005 Ry
     estimated scf accuracy    <       1.49734964 Ry

[...]

     End of self-consistent calculation

          k = 0.0000 0.0000 0.0000 ( 21643 PWs)   bands (ev):

    -9.2484  -9.1761  -9.1761  -9.1569  -9.0332  -9.0124  -9.0124  -9.0108
    -8.9726  -8.9632  -8.9632  -8.9307  -8.9307  -8.8060  -8.7456  -8.7077
    -8.6876  -8.6876  -8.6797  -8.6552  -8.6552  -8.5954  -8.5954  -8.5420
    -8.5420  -8.4963  -8.4963  -8.4938  -8.4832  -8.4832  -8.2323  -8.2323
    -8.1777  -8.1693  -8.1693  -8.1232  -8.1232  -8.1130  -8.0825  -8.0825
    -8.0799  -8.0486  -8.0486  -8.0195  -8.0066  -8.0066  -7.9598  -7.9598
    -7.9250  -7.9250  -7.9008  -7.8849  -7.8849  -7.8841  -7.7700  -7.7577
    -7.7577  -7.7575  -7.7303  -7.7303  -7.3801  -6.0375  -3.9581  -2.3700
    -1.3565  -1.3565  -1.3119  -1.1284  -1.1284  -1.0324  -0.5385  -0.2178
    -0.2177   0.1552   0.4447   0.4448   1.5387   1.8421   1.8421   2.1823
     2.2308   2.2308

[...]

          k =-0.5000 0.2887 0.0000 ( 21576 PWs)   bands (ev):

[...]

     the Fermi energy is     0.6361 ev

!    total energy              =   -1394.17642755 Ry
     Harris-Foulkes estimate   =   -1394.17644849 Ry
     estimated scf accuracy    <       0.00002487 Ry

     The total energy is the sum of the following terms:

     one-electron contribution =   -8425.56368334 Ry
     hartree contribution      =    4305.95422938 Ry
     xc contribution           =    -490.29720139 Ry
     ewald contribution        =    3215.75843458 Ry
     electric field correction =       0.00000052 Ry
     smearing contrib. (-TS)   =      -0.02820730 Ry

     convergence has been achieved in   9 iterations

     Forces acting on atoms (Ry/au):

     negative rho (up, down):  2.679E-01 0.000E+00
     atom    1 type  1   force =    -0.00000826   -0.00001202   -0.01205400
     atom    2 type  1   force =     0.00000555   -0.00025882   -0.01502090
     atom    3 type  1   force =    -0.00021016    0.00014554   -0.01504670
     atom    4 type  1   force =     0.00023322    0.00011968   -0.01503562
     atom    5 type  1   force =     0.00386844   -0.00223678    0.01836552
     atom    6 type  1   force =    -0.00388609   -0.00226079    0.01836169
     atom    7 type  1   force =    -0.00000033    0.00000011    0.00996101
     atom    8 type  1   force =    -0.00000890    0.00449010    0.01837401
     atom    9 type  1   force =    -0.00581148   -0.00334372   -0.00284245
     atom   10 type  1   force =     0.00581984   -0.00336704   -0.00283167
     atom   11 type  1   force =    -0.00002197    0.00671517   -0.00284569
     atom   12 type  1   force =     0.00002377    0.00000616   -0.00147330
     atom   13 type  2   force =    -0.00000363    0.00000241    0.00208811

     Total force =     0.012883     Total SCF correction =     0.017215
     SCF correction compared to forces is large: reduce conv_thr to get better values

     BFGS Geometry Optimization

     number of scf cycles    =   1
     number of bfgs steps    =   0

     energy   new            =   -1394.1764275464 Ry

     new trust radius        =       0.0072956017 bohr
     new conv_thr            =       0.0001000000 Ry

ATOMIC_POSITIONS (angstrom)
Cd       1.563552067   0.902717207  10.000000000    0   0   0
Cd       4.690656202   0.902717207  10.000000000    0   0   0
Cd       3.127104135   3.610868828  10.000000000    0   0   0
Cd       6.254208270   3.610868828  10.000000000    0   0   0
Cd       6.254208270   1.805434414  12.553269834    0   0   0
Cd       3.127104135   1.805434414  12.553269834    0   0   0
Cd       7.817760337   4.513586035  12.553269834    0   0   0
Cd       4.690656202   4.513586035  12.553269834    0   0   0
Cd      -0.046212714  -0.026667328  15.438539078
Cd       3.173282506  -0.026623943  15.438567279
Cd       1.563570429   2.761437106  15.438565007
Cd       4.690606507   2.708114865  15.302154506
H        1.563418314   0.902647797  16.363603310

     Writing output data file calc.save
     Check: negative starting charge=   -0.259473
     NEW-OLD atomic charge density approx. for the potential
     Check: negative starting charge=   -0.259425

[...]

     energy   old            =   -1394.1764275464 Ry
     energy   new            =   -1394.1764447074 Ry

     CASE: energy  _new < energy  _old

[...]

     number of scf cycles    =   3
     number of bfgs steps    =   2

     energy   old            =   -1394.1764447074 Ry
     energy   new            =   -1394.1764925365 Ry

     CASE: energy  _new < energy  _old

     new trust radius        =       0.0013612104 bohr
     new conv_thr            =       0.0000010000 Ry

ATOMIC_POSITIONS (angstrom)
Cd       1.563552067   0.902717207  10.000000000    0   0   0
Cd       4.690656202   0.902717207  10.000000000    0   0   0
Cd       3.127104135   3.610868828  10.000000000    0   0   0
Cd       6.254208270   3.610868828  10.000000000    0   0   0
Cd       6.254208270   1.805434414  12.553269834    0   0   0
Cd       3.127104135   1.805434414  12.553269834    0   0   0
Cd       7.817760337   4.513586035  12.553269834    0   0   0
Cd       4.690656202   4.513586035  12.553269834    0   0   0
Cd      -0.045789275  -0.026430781  15.438044737
Cd       3.172857433  -0.026390547  15.438059001
Cd       1.563569297   2.760956423  15.438063287
Cd       4.690601355   2.708119377  15.300194314
H        1.563421549   0.902647930  16.363055696

     Writing output data file calc.save
     Check: negative starting charge=   -0.259372
     NEW-OLD atomic charge density approx. for the potential
     Check: negative starting charge=   -0.259340

[...]

     Self-consistent Calculation

[...]

     Threshold (ethr) on eigenvalues was too large:
     Diagonalizing with lowered threshold

     Davidson diagonalization with overlap
     ethr =  1.23E-08,  avg # of iterations =  3.5

[...]

     total energy              =   -1394.17650039 Ry
     Harris-Foulkes estimate   =   -1394.17650985 Ry
     estimated scf accuracy    <       0.00010322 Ry

     iteration #  3     ecut=    36.75 Ry     beta=0.20
     Davidson diagonalization with overlap
     ethr =  6.84E-09,  avg # of iterations =  2.2

     negative rho (up, down):  2.678E-01 0.000E+00

     Adding external electric field

     Computed dipole along edir(3) :
        Dipole                0.0221 Ry au,          0.0562 Debye
        Dipole field          0.0000 Ry au

        Potential amp.       -0.0041 Ry
        Total length         42.7000 bohr

     End of self-consistent calculation

[...]

          k = 0.3333-0.3849 0.0000 ( 21571 PWs)   bands (ev):

[...]

          k =-0.5000-0.2887 0.0000 ( 21576 PWs)   bands (ev):

    -8.9981  -8.9828  -8.9305  -8.8936  -8.8876  -8.8384  -8.8362  -8.7997
    -8.7986  -8.7816  -8.7801  -8.7392  -8.6795  -8.6769  -8.6633  -8.6526
    -8.6448  -8.6397  -8.6238  -8.5449  -8.5296  -8.4923  -8.4898  -8.4682
    -8.4364  -8.4362  -8.4315  -8.4188  -8.4162  -8.4092  -8.3901  -8.3757
    -8.3088  -8.3054  -8.2962  -8.2861  -8.2619  -8.2605  -8.2436  -8.2433
    -8.2240  -8.1920  -8.1815  -8.1751  -8.1565  -8.1564  -8.1439  -8.1299
    -8.1299  -8.1093  -8.0805  -8.0686  -8.0573  -8.0436  -7.9828  -7.9490
    -7.9179  -7.8920  -7.8664  -7.8519  -5.9552  -5.8501  -4.9925  -4.3578
    -3.0579  -2.7057  -2.5779  -2.1689  -1.6305  -1.3423  -0.0218   0.6211
     0.8507   1.0544   2.5855   2.8603   2.8950   3.2252   3.3413   3.5905
     3.7318   3.7447

     the Fermi energy is     0.6346 ev

!    total energy              =   -1394.17650444 Ry
     Harris-Foulkes estimate   =   -1394.17650463 Ry
     estimated scf accuracy    <       0.00000050 Ry

     The total energy is the sum of the following terms:

     one-electron contribution =   -8428.28607773 Ry
     hartree contribution      =    4307.37306183 Ry
     xc contribution           =    -490.30027273 Ry
     ewald contribution        =    3217.06501002 Ry
     electric field correction =       0.00000107 Ry
     smearing contrib. (-TS)   =      -0.02822689 Ry

     convergence has been achieved in   3 iterations

     Forces acting on atoms (Ry/au):

     negative rho (up, down):  2.678E-01 0.000E+00
     atom    1 type  1   force =     0.00000116    0.00000218   -0.01662249
     atom    2 type  1   force =     0.00000118   -0.00017492   -0.01930522
     atom    3 type  1   force =    -0.00015059    0.00008760   -0.01930110
     atom    4 type  1   force =     0.00015014    0.00008959   -0.01930313
     atom    5 type  1   force =     0.00326658   -0.00188661    0.01917327
     atom    6 type  1   force =    -0.00326525   -0.00188513    0.01917269
     atom    7 type  1   force =    -0.00000046    0.00000045    0.01216747
     atom    8 type  1   force =     0.00000091    0.00376893    0.01917482
     atom    9 type  1   force =    -0.00096395   -0.00055477    0.00086275
     atom   10 type  1   force =     0.00096094   -0.00055882    0.00086300
     atom   11 type  1   force =    -0.00000494    0.00111229    0.00086013
     atom   12 type  1   force =     0.00000189   -0.00000111    0.00071778
     atom   13 type  2   force =     0.00000240    0.00000031    0.00154003

     Total force =     0.002971     Total SCF correction =     0.005450
     SCF correction compared to forces is large: reduce conv_thr to get better values

     bfgs converged in   4 scf cycles and   3 bfgs steps
     (criteria: energy <  1.0E+12, force <  1.9E-03)

     End of BFGS Geometry Optimization

     Final energy   =   -1394.1765044374 Ry
Begin final coordinates

ATOMIC_POSITIONS (angstrom)
Cd       1.563552067   0.902717207  10.000000000    0   0   0
Cd       4.690656202   0.902717207  10.000000000    0   0   0
Cd       3.127104135   3.610868828  10.000000000    0   0   0
Cd       6.254208270   3.610868828  10.000000000    0   0   0
Cd       6.254208270   1.805434414  12.553269834    0   0   0
Cd       3.127104135   1.805434414  12.553269834    0   0   0
Cd       7.817760337   4.513586035  12.553269834    0   0   0
Cd       4.690656202   4.513586035  12.553269834    0   0   0
Cd      -0.045789275  -0.026430781  15.438044737
Cd       3.172857433  -0.026390547  15.438059001
Cd       1.563569297   2.760956423  15.438063287
Cd       4.690601355   2.708119377  15.300194314
H        1.563421549   0.902647930  16.363055696
End final coordinates

     Writing output data file calc.save

     General routines

     Parallel routines

   This run was terminated on:  21:22: 6  11Jan2019

   JOB DONE.
Job  /afs/slac/g/suncat/bin/suncat-tsmpirun -x LD_LIBRARY_PATH -wdir /tmp/qe_673322r3je2pp2_scratch pw.x -npool 2 -in pw.pwi

TID   HOST_NAME   COMMAND_LINE            STATUS            TERMINATION_TIME
00000 suncat2060 pw.x -npool 2 -i  Done                     01/11/2019 21:22:06
00001 suncat2060 pw.x -npool 2 -i  Done                     01/11/2019 21:22:06
00002 suncat2060 pw.x -npool 2 -i  Done                     01/11/2019 21:22:06
00003 suncat2060 pw.x -npool 2 -i  Done                     01/11/2019 21:22:06
00004 suncat2060 pw.x -npool 2 -i  Done                     01/11/2019 21:22:06
00005 suncat2060 pw.x -npool 2 -i  Done                     01/11/2019 21:22:06
00006 suncat2060 pw.x -npool 2 -i  Done                     01/11/2019 21:22:06
00007 suncat2060 pw.x -npool 2 -i  Done                     01/11/2019 21:22:06
00008 suncat2060 pw.x -npool 2 -i  Done                     01/11/2019 21:22:06
00009 suncat2060 pw.x -npool 2 -i  Done                     01/11/2019 21:22:06
00010 suncat2060 pw.x -npool 2 -i  Done                     01/11/2019 21:22:06
00011 suncat2060 pw.x -npool 2 -i  Done                     01/11/2019 21:22:06
00012 suncat2060 pw.x -npool 2 -i  Done                     01/11/2019 21:22:06
00013 suncat2060 pw.x -npool 2 -i  Done                     01/11/2019 21:22:06
00014 suncat2060 pw.x -npool 2 -i  Done                     01/11/2019 21:22:06
00015 suncat2060 pw.x -npool 2 -i  Done                     01/11/2019 21:22:06
00016 suncat2055 pw.x -npool 2 -i  Done                     01/11/2019 21:22:06
00017 suncat2055 pw.x -npool 2 -i  Done                     01/11/2019 21:22:06
00018 suncat2055 pw.x -npool 2 -i  Done                     01/11/2019 21:22:06
00019 suncat2055 pw.x -npool 2 -i  Done                     01/11/2019 21:22:06
00020 suncat2055 pw.x -npool 2 -i  Done                     01/11/2019 21:22:06
00021 suncat2055 pw.x -npool 2 -i  Done                     01/11/2019 21:22:06
00022 suncat2055 pw.x -npool 2 -i  Done                     01/11/2019 21:22:06
00023 suncat2055 pw.x -npool 2 -i  Done                     01/11/2019 21:22:06
00024 suncat2055 pw.x -npool 2 -i  Done                     01/11/2019 21:22:06
00025 suncat2055 pw.x -npool 2 -i  Done                     01/11/2019 21:22:06
00026 suncat2055 pw.x -npool 2 -i  Done                     01/11/2019 21:22:06
00027 suncat2055 pw.x -npool 2 -i  Done                     01/11/2019 21:22:06
00028 suncat2055 pw.x -npool 2 -i  Done                     01/11/2019 21:22:06
00029 suncat2055 pw.x -npool 2 -i  Done                     01/11/2019 21:22:06
00030 suncat2055 pw.x -npool 2 -i  Done                     01/11/2019 21:22:06
00031 suncat2055 pw.x -npool 2 -i  Done                     01/11/2019 21:22:06