     Program PWSCF v.5.1rc2 (svn rev. 11289) starts on  4May2018 at  7:43:34

     Current dimensions of program PWSCF are:
     Max number of different atomic species (ntypx) = 10
     Max number of k-points (npk) =  40000
     Max angular momentum in pseudopotentials (lmaxx) =  3
     Presently stress not available with electric field

     IMPORTANT: XC functional enforced from input :
     Exchange-correlation      = BEEF-VDW ( 1  4 27 13 2)
     Any further DFT definition will be discarded
     Please, verify this is what you really want

     Subspace diagonalization in iterative solution of the eigenvalue problem:
     a serial algorithm will be used

     bravais-lattice index     =            0
     lattice parameter (alat)  =       1.8897  a.u.
     unit-cell volume          =    5144.9564 (a.u.)^3
     number of atoms/cell      =           13
     number of atomic types    =            2
     number of electrons       =       133.00
     number of Kohn-Sham states=           76
     kinetic-energy cutoff     =      36.7493  Ry
     charge density cutoff     =     367.4932  Ry
     convergence threshold     =      1.0E-05
     mixing beta               =       0.3000
     number of iterations used =           10  plain     mixing
     Exchange-correlation      = BEEF-VDW ( 1  4 27 13 2)
     nstep                     =           50

     celldm(1)=   1.889726  celldm(2)=   0.000000  celldm(3)=   0.000000
     celldm(4)=   0.000000  celldm(5)=   0.000000  celldm(6)=   0.000000

     crystal axes: (cart. coord. in units of alat)
               a(1) = (   5.950946   0.000000   0.000000 )
               a(2) = (   2.975473   5.153671   0.000000 )
               a(3) = (   0.000000   0.000000  24.858927 )

     reciprocal axes: (cart. coord. in units 2 pi/alat)
               b(1) = (  0.168040 -0.097018  0.000000 )
               b(2) = (  0.000000  0.194036  0.000000 )
               b(3) = (  0.000000  0.000000  0.040227 )

     PseudoPot. # 1 for Au read from file:
     /u/if/mamunm/psp/gbrv1.5pbe/Au.UPF
     MD5 check sum: 9d7f43293ad2c663164586bc4b293ffc
     Pseudo is Ultrasoft + core correction, Zval = 11.0
     Generated by new atomic code, or converted to UPF format
     Using radial grid of  985 points,  7 beta functions with:
                l(1) =   0
                l(2) =   0
                l(3) =   1
                l(4) =   1
                l(5) =   2
                l(6) =   2
                l(7) =   3
     Q(r) pseudized with  6 coefficients,  rinner =    1.900   1.900   1.900
                                                       1.900   1.900   1.900
                                                       1.900

     PseudoPot. # 2 for H  read from file:
     /u/if/mamunm/psp/gbrv1.5pbe/H.UPF
     MD5 check sum: 761ae9a214b05c3daf00ab9f6b793d6f
     Pseudo is Ultrasoft, Zval =  1.0
     Generated by new atomic code, or converted to UPF format
     Using radial grid of  615 points,  2 beta functions with:
                l(1) =   0
                l(2) =   0
     Q(r) pseudized with  8 coefficients,  rinner =    0.700

     vdW kernel table read from file vdW_kernel_table
     MD5 check sum: 095c7af220d748ca6e76c0b4c6cfb241

     atomic species   valence    mass     pseudopotential
        Au1           11.00   196.96657     Au( 1.00)
        H1             1.00     1.00800     H ( 1.00)

     No symmetry found

   Cartesian axes

     site n.     atom                  positions (alat units)
         1           Au1 tau(   1) = (   1.4877366   0.8589451  10.0000000  )
         2           Au1 tau(   2) = (   4.4632098   0.8589451  10.0000000  )
         3           Au1 tau(   3) = (   2.9754732   3.4357805  10.0000000  )
         4           Au1 tau(   4) = (   5.9509464   3.4357805  10.0000000  )
         5           Au1 tau(   5) = (   5.9509464   1.7178903  12.4294637  )
         6           Au1 tau(   6) = (   2.9754732   1.7178903  12.4294637  )
         7           Au1 tau(   7) = (   7.4386830   4.2947256  12.4294637  )
         8           Au1 tau(   8) = (   4.4632098   4.2947256  12.4294637  )
         9           Au1 tau(   9) = (   0.0000000   0.0000000  14.8589274  )
        10           Au1 tau(  10) = (   2.9754732   0.0000000  14.8589274  )
        11           Au1 tau(  11) = (   1.4877366   2.5768354  14.8589274  )
        12           Au1 tau(  12) = (   4.4632098   2.5768354  14.8589274  )
        13           H1  tau(  13) = (   0.0000000   0.0000000  16.2784274  )

     number of k points=    20  Fermi-Dirac smearing, width (Ry)=  0.0110
                       cart. coord. in units 2pi/alat
        k(    1) = (   0.0000000   0.0000000   0.0000000), wk =   0.0555556
        k(    2) = (   0.0000000   0.0323394   0.0000000), wk =   0.1111111
        k(    3) = (   0.0000000   0.0646788   0.0000000), wk =   0.1111111
        k(    4) = (   0.0000000  -0.0970182   0.0000000), wk =   0.0555556
        k(    5) = (   0.0280067  -0.0161697   0.0000000), wk =   0.1111111
        k(    6) = (   0.0280067   0.0161697   0.0000000), wk =   0.1111111
        k(    7) = (   0.0280067   0.0485091   0.0000000), wk =   0.1111111
        k(    8) = (   0.0280067  -0.1131879   0.0000000), wk =   0.1111111
        k(    9) = (   0.0280067  -0.0808485   0.0000000), wk =   0.1111111
        k(   10) = (   0.0280067  -0.0485091   0.0000000), wk =   0.1111111
        k(   11) = (   0.0560135  -0.0323394   0.0000000), wk =   0.1111111
        k(   12) = (   0.0560135   0.0000000   0.0000000), wk =   0.1111111
        k(   13) = (   0.0560135   0.0323394   0.0000000), wk =   0.1111111
        k(   14) = (   0.0560135  -0.1293576   0.0000000), wk =   0.1111111
        k(   15) = (   0.0560135  -0.0970182   0.0000000), wk =   0.1111111
        k(   16) = (   0.0560135  -0.0646788   0.0000000), wk =   0.1111111
        k(   17) = (  -0.0840202   0.0485091   0.0000000), wk =   0.0555556
        k(   18) = (  -0.0840202   0.0808485   0.0000000), wk =   0.1111111
        k(   19) = (  -0.0840202   0.1131879   0.0000000), wk =   0.1111111
        k(   20) = (  -0.0840202  -0.0485091   0.0000000), wk =   0.0555556

     Largest allocated arrays     est. size (Mb)     dimensions
     Largest temporary arrays     est. size (Mb)     dimensions

     Check: negative/imaginary core charge=   -0.000002    0.000000

     Initial potential from superposition of free atoms

     starting charge  132.99852, renormalised to  133.00000

     negative rho (up, down):  7.542E-05 0.000E+00

     *
     * You are using vdW-DF for exchange-correlation in this calculation.
     * Please cite the following three references that made this development
     * possible:
     *
     *   M. Dion, H. Rydberg, E. Schroder, D. C. Langreth, and
     *   B. I. Lundqvist, Phys. Rev. Lett. 92, 246401 (2004).
     *
     *   T. Thonhauser, V. R. Cooper, S. Li, A. Puzder, P. Hyldgaard, and
     *   D. C. Langreth, Phys. Rev. B 76, 125112 (2007).
     *
     *   G. Roman-Perez and J. M. Soler, Phys. Rev. Lett. 103, 096102 (2009).
     *
     *
     * If you are using vdW-DF2, please also cite:
     *
     *   K. Lee, E. D. Murray, L. Kong, B. I. Lundqvist, and
     *   D. C. Langreth, Phys. Rev. B 82, 081101(R) (2010).
     *
     *
     * If you are calculating the stress with vdW-DF, please also cite:
     *
     *   R. Sabatini, E. Kucukbenli, B. Kolb, T. Thonhauser, and
     *   S. de Gironcoli, J. Phys.: Condens. Matter 24, 424209 (2012).
     *

     Carrying out vdW-DF run using the following parameters:

     Nqs =      20    Nr_points =    1024   r_max =   100.000
     q_mesh =
               0.00001000     0.04494208     0.09755937     0.15916263
               0.23128650     0.31572767     0.41458969     0.53033537
               0.66584808     0.82450364     1.01025438     1.22772762
               1.48234092     1.78043706     2.12944203     2.53805004
               3.01644009     3.57652955     4.23227104     5.00000000

     Gradients computed in reciprocal space

     Adding external electric field

     Computed dipole along edir(3) :
        Dipole               -0.0000 Ry au,         -0.0000 Debye
        Dipole field         -0.0000 Ry au

        Potential amp.        0.0000 Ry
        Total length         45.8022 bohr

     Starting wfc are  109 randomized atomic wfcs

     Self-consistent Calculation

     iteration #  1     ecut=    36.75 Ry     beta=0.30
     Davidson diagonalization with overlap
     ethr =  1.00E-02,  avg # of iterations =  2.3

     Threshold (ethr) on eigenvalues was too large:
     Diagonalizing with lowered threshold

     Davidson diagonalization with overlap
     ethr =  2.76E-04,  avg # of iterations =  3.4

[...]

     total energy              =   -1401.55517645 Ry
     Harris-Foulkes estimate   =   -1401.69166436 Ry
     estimated scf accuracy    <       0.42714981 Ry

[...]

     End of self-consistent calculation

          k = 0.0000 0.0000 0.0000 ( 19315 PWs)   bands (ev):

    -8.0143  -7.1439  -6.4501  -6.0796  -5.8591  -5.8591  -5.7440  -5.6869
    -5.6869  -5.5818  -5.4420  -5.4420  -5.2542  -5.2400  -5.2400  -5.1768
    -4.5480  -4.5480  -4.1826  -4.1139  -4.1139  -4.0407  -3.9776  -3.9776
    -3.9370  -3.8030  -3.8030  -3.7141  -3.7141  -3.6394  -3.5771  -3.5771
    -3.3854  -3.0373  -3.0373  -2.9672  -2.9672  -2.7128  -2.7128  -2.6199
    -2.5456  -2.4686  -2.4686  -2.3109  -2.3109  -2.3059  -2.0291  -2.0291
    -1.9479  -1.8744  -1.8744  -1.8397  -1.8397  -1.7568  -1.7567  -1.7339
    -1.6370  -1.6370  -1.5174  -1.4387  -1.4320  -1.4320  -1.4028   0.2299
     0.7357   0.7357   0.7419   1.4302   1.4302   1.4789   1.7402   1.7935
     1.7935   1.9987   3.4054   3.4054

[...]

          k =-0.0840 0.0485 0.0000 ( 19380 PWs)   bands (ev):

[...]

     the Fermi energy is     0.2090 ev

!    total energy              =   -1401.61316256 Ry
     Harris-Foulkes estimate   =   -1401.61316329 Ry
     estimated scf accuracy    <       0.00000330 Ry

     The total energy is the sum of the following terms:

     one-electron contribution =   -8028.21977139 Ry
     hartree contribution      =    4110.39006761 Ry
     xc contribution           =    -768.88349788 Ry
     ewald contribution        =    3285.12364755 Ry
     electric field correction =       0.00000256 Ry
     smearing contrib. (-TS)   =      -0.02361101 Ry

     convergence has been achieved in   9 iterations

 BEEF-vdW xc energy contributions
           1 :   -687.376989612711
           2 :    639.024402624352
           3 :   -552.518562183789
           4 :    444.597760797972
           5 :   -333.374993393301
           6 :    233.652577081867
           7 :   -154.110677248158
           8 :    96.8447546802424
           9 :   -58.9569757658380
          10 :    35.1982387663955
          11 :   -20.4663371653824
          12 :    11.2410402696988
          13 :   -5.72606100556777
          14 :    3.08861220318181
          15 :   -2.52611771893771
          16 :    2.76331663670283
          17 :   -2.21359590732254
          18 :  -0.395373087236976
          19 :    5.36709288706174
          20 :   -11.7879274598424
          21 :    17.8677614311439
          22 :   -21.7308718557999
          23 :    22.2560798935992
          24 :   -19.5524702839430
          25 :    14.8517728267796
          26 :   -9.90418980609218
          27 :    6.19886773115775
          28 :   -4.40000273836984
          29 :    4.24165734385952
          30 :   -4.87793912894335
          31 :   -54.2583819681352
          32 :   -39.5322027794496

     Forces acting on atoms (Ry/au):

     negative rho (up, down):  1.816E-04 0.000E+00
     atom    1 type  1   force =    -0.00158405   -0.00091782   -0.00304062
     atom    2 type  1   force =     0.00159835   -0.00092130   -0.00303508
     atom    3 type  1   force =     0.00000030    0.00183167   -0.00305798
     atom    4 type  1   force =    -0.00000276    0.00000594   -0.00079436
     atom    5 type  1   force =    -0.00001065   -0.00391530   -0.00098959
     atom    6 type  1   force =     0.00000761   -0.00000220   -0.00066265
     atom    7 type  1   force =     0.00339100    0.00195062   -0.00094959
     atom    8 type  1   force =    -0.00337675    0.00194740   -0.00097029
     atom    9 type  1   force =    -0.00001843    0.00000843   -0.15263336
     atom   10 type  1   force =    -0.00000628    0.00084773    0.00066956
     atom   11 type  1   force =     0.00072961   -0.00042115    0.00066772
     atom   12 type  1   force =    -0.00073260   -0.00041617    0.00064581
     atom   13 type  2   force =     0.00000467    0.00000215    0.16415041

     Total force =     0.224156     Total SCF correction =     0.001413

     entering subroutine stress ...

     negative rho (up, down):  1.816E-04 0.000E+00
          total   stress  (Ry/bohr**3)                   (kbar)     P=   -3.91
  -0.00009485   0.00000000  -0.00000000        -13.95      0.00     -0.00
   0.00000000  -0.00009485   0.00000000          0.00    -13.95      0.00
  -0.00000000   0.00000000   0.00011006         -0.00      0.00     16.19

     BFGS Geometry Optimization

     number of scf cycles    =   1
     number of bfgs steps    =   0

     energy   new            =   -1401.6131625649 Ry

     new trust radius        =       0.1641504149 bohr
     new conv_thr            =       0.0000099958 Ry

ATOMIC_POSITIONS (crystal)
Au1      0.166666667   0.166666667   0.402269971    0   0   0
Au1      0.666666667   0.166666667   0.402269971    0   0   0
Au1      0.166666667   0.666666667   0.402269971    0   0   0
Au1      0.666666667   0.666666667   0.402269971    0   0   0
Au1      0.833333333   0.333333333   0.500000000    0   0   0
Au1      0.333333333   0.333333333   0.500000000    0   0   0
Au1      0.833333333   0.833333333   0.500000000    0   0   0
Au1      0.333333333   0.833333333   0.500000000    0   0   0
Au1     -0.000002072   0.000000866   0.594480891
Au1      0.499955919   0.000087045   0.597744282
Au1      0.000086500   0.499956757   0.597744243
Au1      0.499956221   0.499957268   0.597743777
H1       0.000000305   0.000000220   0.658326556

     Writing output data file calc.save
     NEW-OLD atomic charge density approx. for the potential

[...]

     Total force =     0.016970     Total SCF correction =     0.009101
     SCF correction compared to forces is large: reduce conv_thr to get better values

[...]

     energy   old            =   -1401.6131625649 Ry
     energy   new            =   -1401.6353140746 Ry

     CASE: energy  _new < energy  _old

[...]

     WARNING: bfgs curvature condition failed, Theta= 0.978
     new trust radius        =       0.0197932509 bohr
     new conv_thr            =       0.0000001000 Ry

[...]

     Total force =     0.007417     Total SCF correction =     0.000288

[...]

     number of scf cycles    =   8
     number of bfgs steps    =   7

     energy   old            =   -1401.6375234950 Ry
     energy   new            =   -1401.6379598079 Ry

     CASE: energy  _new < energy  _old

     new trust radius        =       0.0250666570 bohr
     new conv_thr            =       0.0000001000 Ry

ATOMIC_POSITIONS (crystal)
Au1      0.166666667   0.166666667   0.402269971    0   0   0
Au1      0.666666667   0.166666667   0.402269971    0   0   0
Au1      0.166666667   0.666666667   0.402269971    0   0   0
Au1      0.666666667   0.666666667   0.402269971    0   0   0
Au1      0.833333333   0.333333333   0.500000000    0   0   0
Au1      0.333333333   0.333333333   0.500000000    0   0   0
Au1      0.833333333   0.833333333   0.500000000    0   0   0
Au1      0.333333333   0.833333333   0.500000000    0   0   0
Au1     -0.000000729   0.000000595   0.600040912
Au1      0.499293232   0.001412117   0.597950258
Au1      0.001411396   0.499294423   0.597950161
Au1      0.499293031   0.499295015   0.597950372
H1       0.000000262   0.000000203   0.664591016

     Writing output data file calc.save
     NEW-OLD atomic charge density approx. for the potential

     Check: negative/imaginary core charge=   -0.000002    0.000000

[...]

     Self-consistent Calculation

[...]

     Threshold (ethr) on eigenvalues was too large:
     Diagonalizing with lowered threshold

     Davidson diagonalization with overlap
     ethr =  3.26E-08,  avg # of iterations =  1.5

[...]

     total energy              =   -1401.63799294 Ry
     Harris-Foulkes estimate   =   -1401.63799295 Ry
     estimated scf accuracy    <       0.00000019 Ry

     iteration #  7     ecut=    36.75 Ry     beta=0.30
     Davidson diagonalization with overlap
     ethr =  1.39E-10,  avg # of iterations =  3.0

[...]

     negative rho (up, down):  1.759E-04 0.000E+00

     Adding external electric field

     Computed dipole along edir(3) :
        Dipole               -0.0070 Ry au,         -0.0178 Debye
        Dipole field         -0.0000 Ry au

        Potential amp.        0.0016 Ry
        Total length         45.8022 bohr

     End of self-consistent calculation

[...]

          k = 0.0560-0.0647 0.0000 ( 19376 PWs)   bands (ev):

[...]

          k =-0.0840-0.0485 0.0000 ( 19380 PWs)   bands (ev):

    -6.6341  -6.4365  -5.9349  -5.4230  -5.3704  -5.2068  -5.1832  -5.1536
    -5.1369  -5.1302  -5.0000  -4.8172  -4.7710  -4.6526  -4.6095  -4.5261
    -4.4849  -4.3408  -4.3267  -4.3104  -4.2325  -4.1824  -4.0982  -3.9670
    -3.8576  -3.7820  -3.7572  -3.6775  -3.6737  -3.6072  -3.5608  -3.5072
    -3.4995  -3.4740  -3.4463  -3.3619  -3.3559  -3.3509  -3.3343  -3.3084
    -3.2516  -3.1242  -3.0981  -2.9954  -2.8642  -2.8372  -2.7991  -2.7853
    -2.7343  -2.6739  -2.6167  -2.5952  -2.5706  -2.4743  -2.3456  -2.3186
    -2.2371  -1.9550  -1.9545  -1.9273  -1.8908  -1.8629  -1.7388  -1.6795
    -0.5861   0.0959   0.1427   0.1956   0.9605   1.2041   1.9084   3.0815
     3.2354   3.4844   4.7879   5.4562

     the Fermi energy is     0.1585 ev

!    total energy              =   -1401.63799296 Ry
     Harris-Foulkes estimate   =   -1401.63799301 Ry
     estimated scf accuracy    <       0.00000004 Ry

     The total energy is the sum of the following terms:

     one-electron contribution =   -7996.92944139 Ry
     hartree contribution      =    4094.67527085 Ry
     xc contribution           =    -768.78558992 Ry
     ewald contribution        =    3269.42641760 Ry
     electric field correction =       0.00000012 Ry
     smearing contrib. (-TS)   =      -0.02465022 Ry

     convergence has been achieved in   7 iterations

 BEEF-vdW xc energy contributions
           1 :   -687.277221716422
           2 :    638.893201084282
           3 :   -552.349219042079
           4 :    444.415803406590
           5 :   -333.226373574162
           6 :    233.580500716847
           7 :   -154.132167160171
           8 :    96.9396882858008
           9 :   -59.0761500144536
          10 :    35.2868125500163
          11 :   -20.4897329515309
          12 :    11.1993757465275
          13 :   -5.64985129332354
          14 :    3.01948336261353
          15 :   -2.49379530765941
          16 :    2.77146610275645
          17 :   -2.24195295407981
          18 :  -0.374573300273255
          19 :    5.36937396736005
          20 :   -11.8062029192204
          21 :    17.8777992651084
          22 :   -21.7084458425206
          23 :    22.1952614819636
          24 :   -19.4740955121003
          25 :    14.7950007797021
          26 :   -9.90503543157297
          27 :    6.26833303316675
          28 :   -4.51427632271896
          29 :    4.35119068610754
          30 :   -4.93168544127866
          31 :   -54.2515638607556
          32 :   -39.5180266916392

     Forces acting on atoms (Ry/au):

     negative rho (up, down):  1.759E-04 0.000E+00
     atom    1 type  1   force =    -0.00167352   -0.00096622   -0.00363123
     atom    2 type  1   force =     0.00167353   -0.00096621   -0.00363120
     atom    3 type  1   force =     0.00000003    0.00193240   -0.00363121
     atom    4 type  1   force =     0.00000001   -0.00000002   -0.00092235
     atom    5 type  1   force =    -0.00000023   -0.00484024    0.00349498
     atom    6 type  1   force =     0.00000014    0.00000001    0.00116577
     atom    7 type  1   force =     0.00419176    0.00242028    0.00349491
     atom    8 type  1   force =    -0.00419179    0.00242008    0.00349479
     atom    9 type  1   force =    -0.00000033    0.00000014    0.00163471
     atom   10 type  1   force =     0.00000045   -0.00125363   -0.00008657
     atom   11 type  1   force =    -0.00108596    0.00062698   -0.00008631
     atom   12 type  1   force =     0.00108595    0.00062640   -0.00008686
     atom   13 type  2   force =    -0.00000005    0.00000001   -0.00120943

     Total force =     0.002979     Total SCF correction =     0.000933
     SCF correction compared to forces is large: reduce conv_thr to get better values

     entering subroutine stress ...

     negative rho (up, down):  1.759E-04 0.000E+00
          total   stress  (Ry/bohr**3)                   (kbar)     P=   -9.67
  -0.00010310   0.00000000   0.00000000        -15.17      0.00      0.00
   0.00000000  -0.00010310  -0.00000000          0.00    -15.17     -0.00
   0.00000000  -0.00000000   0.00000895          0.00     -0.00      1.32

     bfgs converged in   9 scf cycles and   8 bfgs steps
     (criteria: energy <  1.0E+00, force <  1.9E-03)

     End of BFGS Geometry Optimization

     Final energy   =   -1401.6379929567 Ry
Begin final coordinates

ATOMIC_POSITIONS (crystal)
Au1      0.166666667   0.166666667   0.402269971    0   0   0
Au1      0.666666667   0.166666667   0.402269971    0   0   0
Au1      0.166666667   0.666666667   0.402269971    0   0   0
Au1      0.666666667   0.666666667   0.402269971    0   0   0
Au1      0.833333333   0.333333333   0.500000000    0   0   0
Au1      0.333333333   0.333333333   0.500000000    0   0   0
Au1      0.833333333   0.833333333   0.500000000    0   0   0
Au1      0.333333333   0.833333333   0.500000000    0   0   0
Au1     -0.000000729   0.000000595   0.600040912
Au1      0.499293232   0.001412117   0.597950258
Au1      0.001411396   0.499294423   0.597950161
Au1      0.499293031   0.499295015   0.597950372
H1       0.000000262   0.000000203   0.664591016
End final coordinates

     Writing output data file calc.save

     General routines

     Parallel routines

   This run was terminated on:   8:40: 1   4May2018

   JOB DONE.
Job  /afs/slac/g/suncat/bin/suncat-tsmpirun -x LD_LIBRARY_PATH -wdir /scratch/qe919622_XgF2v pw.x -npool 4 -in pw.inp

TID   HOST_NAME   COMMAND_LINE            STATUS            TERMINATION_TIME
00000 suncat0180 pw.x -npool 4 -i  Done                     05/04/2018 08:40:01
00001 suncat0180 pw.x -npool 4 -i  Done                     05/04/2018 08:40:01
00002 suncat0180 pw.x -npool 4 -i  Done                     05/04/2018 08:40:01
00003 suncat0180 pw.x -npool 4 -i  Done                     05/04/2018 08:40:01
00004 suncat0180 pw.x -npool 4 -i  Done                     05/04/2018 08:40:01
00005 suncat0180 pw.x -npool 4 -i  Done                     05/04/2018 08:40:01
00006 suncat0180 pw.x -npool 4 -i  Done                     05/04/2018 08:40:01
00007 suncat0180 pw.x -npool 4 -i  Done                     05/04/2018 08:40:01
00008 suncat0166 pw.x -npool 4 -i  Done                     05/04/2018 08:40:01
00009 suncat0166 pw.x -npool 4 -i  Done                     05/04/2018 08:40:01
00010 suncat0166 pw.x -npool 4 -i  Done                     05/04/2018 08:40:01
00011 suncat0166 pw.x -npool 4 -i  Done                     05/04/2018 08:40:01
00012 suncat0166 pw.x -npool 4 -i  Done                     05/04/2018 08:40:01
00013 suncat0166 pw.x -npool 4 -i  Done                     05/04/2018 08:40:01
00014 suncat0166 pw.x -npool 4 -i  Done                     05/04/2018 08:40:01
00015 suncat0166 pw.x -npool 4 -i  Done                     05/04/2018 08:40:01
00016 suncat0152 pw.x -npool 4 -i  Done                     05/04/2018 08:40:01
00017 suncat0152 pw.x -npool 4 -i  Done                     05/04/2018 08:40:01
00018 suncat0152 pw.x -npool 4 -i  Done                     05/04/2018 08:40:01
00019 suncat0152 pw.x -npool 4 -i  Done                     05/04/2018 08:40:01
00020 suncat0152 pw.x -npool 4 -i  Done                     05/04/2018 08:40:01
00021 suncat0152 pw.x -npool 4 -i  Done                     05/04/2018 08:40:01
00022 suncat0152 pw.x -npool 4 -i  Done                     05/04/2018 08:40:01
00023 suncat0152 pw.x -npool 4 -i  Done                     05/04/2018 08:40:01
00024 suncat0139 pw.x -npool 4 -i  Done                     05/04/2018 08:40:01
00025 suncat0139 pw.x -npool 4 -i  Done                     05/04/2018 08:40:01
00026 suncat0139 pw.x -npool 4 -i  Done                     05/04/2018 08:40:01
00027 suncat0139 pw.x -npool 4 -i  Done                     05/04/2018 08:40:01
00028 suncat0139 pw.x -npool 4 -i  Done                     05/04/2018 08:40:01
00029 suncat0139 pw.x -npool 4 -i  Done                     05/04/2018 08:40:01
00030 suncat0139 pw.x -npool 4 -i  Done                     05/04/2018 08:40:01
00031 suncat0139 pw.x -npool 4 -i  Done                     05/04/2018 08:40:01