     Program PWSCF v.5.1rc2 (svn rev. ) starts on 17Apr2018 at 23:11:27

     Current dimensions of program PWSCF are:
     Max number of different atomic species (ntypx) = 10
     Max number of k-points (npk) =  40000
     Max angular momentum in pseudopotentials (lmaxx) =  3
     Presently stress not available with electric field

     IMPORTANT: XC functional enforced from input :
     Exchange-correlation      = BEEF-VDW ( 1  4 27 13 2)
     Any further DFT definition will be discarded
     Please, verify this is what you really want

     Subspace diagonalization in iterative solution of the eigenvalue problem:
     a serial algorithm will be used

     bravais-lattice index     =            0
     lattice parameter (alat)  =       1.8897  a.u.
     unit-cell volume          =    5409.9593 (a.u.)^3
     number of atoms/cell      =           14
     number of atomic types    =            3
     number of electrons       =       234.00
     number of Kohn-Sham states=          127
     kinetic-energy cutoff     =      36.7493  Ry
     charge density cutoff     =     367.4932  Ry
     convergence threshold     =      1.0E-05
     mixing beta               =       0.3000
     number of iterations used =           10  plain     mixing
     Exchange-correlation      = BEEF-VDW ( 1  4 27 13 2)
     nstep                     =           50

     celldm(1)=   1.889726  celldm(2)=   0.000000  celldm(3)=   0.000000
     celldm(4)=   0.000000  celldm(5)=   0.000000  celldm(6)=   0.000000

     crystal axes: (cart. coord. in units of alat)
               a(1) = (   6.088539   0.000000   0.000000 )
               a(2) = (   3.044269   5.272829   0.000000 )
               a(3) = (   0.000000   0.000000  24.971271 )

     reciprocal axes: (cart. coord. in units 2 pi/alat)
               b(1) = (  0.164243 -0.094826  0.000000 )
               b(2) = (  0.000000  0.189652  0.000000 )
               b(3) = (  0.000000  0.000000  0.040046 )

     PseudoPot. # 1 for Ga read from file:
     /home/mamunm/src/pseudo/gbrv1.5pbe/Ga.UPF
     MD5 check sum: ccd671392a58a050fbb373893b4fcd66
     Pseudo is Ultrasoft + core correction, Zval = 19.0
     Generated by new atomic code, or converted to UPF format
     Using radial grid of  871 points,  6 beta functions with:
                l(1) =   0
                l(2) =   0
                l(3) =   1
                l(4) =   1
                l(5) =   2
                l(6) =   2
     Q(r) pseudized with  8 coefficients,  rinner =    1.250   1.250   1.250
                                                       1.250   1.250

     PseudoPot. # 2 for N  read from file:
     /home/mamunm/src/pseudo/gbrv1.5pbe/N.UPF
     MD5 check sum: 95339753478d7afb44899504a8723017
     Pseudo is Ultrasoft + core correction, Zval =  5.0
     Generated by new atomic code, or converted to UPF format
     Using radial grid of  729 points,  4 beta functions with:
                l(1) =   0
                l(2) =   0
                l(3) =   1
                l(4) =   1
     Q(r) pseudized with  8 coefficients,  rinner =    0.900   0.900   0.900

     PseudoPot. # 3 for H  read from file:
     /home/mamunm/src/pseudo/gbrv1.5pbe/H.UPF
     MD5 check sum: 761ae9a214b05c3daf00ab9f6b793d6f
     Pseudo is Ultrasoft, Zval =  1.0
     Generated by new atomic code, or converted to UPF format
     Using radial grid of  615 points,  2 beta functions with:
                l(1) =   0
                l(2) =   0
     Q(r) pseudized with  8 coefficients,  rinner =    0.700

     vdW kernel table read from file vdW_kernel_table
     MD5 check sum: 095c7af220d748ca6e76c0b4c6cfb241

     atomic species   valence    mass     pseudopotential
        Ga1           19.00    69.72300     Ga( 1.00)
        N1             5.00    14.00700     N ( 1.00)
        H1             1.00     1.00800     H ( 1.00)

     No symmetry found

   Cartesian axes

     site n.     atom                  positions (alat units)
         1           Ga1 tau(   1) = (   1.5221346   0.8788048  10.0000000  )
         2           Ga1 tau(   2) = (   4.5664039   0.8788048  10.0000000  )
         3           Ga1 tau(   3) = (   3.0442693   3.5152194  10.0000000  )
         4           Ga1 tau(   4) = (   6.0885386   3.5152194  10.0000000  )
         5           Ga1 tau(   5) = (   6.0885386   1.7576097  12.4856355  )
         6           Ga1 tau(   6) = (   3.0442693   1.7576097  12.4856355  )
         7           Ga1 tau(   7) = (   7.6106732   4.3940242  12.4856355  )
         8           Ga1 tau(   8) = (   4.5664039   4.3940242  12.4856355  )
         9           Ga1 tau(   9) = (   0.0000000   0.0000000  14.9712709  )
        10           Ga1 tau(  10) = (   3.0442693   0.0000000  14.9712709  )
        11           Ga1 tau(  11) = (   1.5221346   2.6364145  14.9712709  )
        12           Ga1 tau(  12) = (   4.5664039   2.6364145  14.9712709  )
        13           N1  tau(  13) = (   0.0000000   0.0000000  16.6117709  )
        14           H1  tau(  14) = (   0.0000000   0.0000000  17.6617709  )

     number of k points=    20  Fermi-Dirac smearing, width (Ry)=  0.0110
                       cart. coord. in units 2pi/alat
        k(    1) = (   0.0000000   0.0000000   0.0000000), wk =   0.0555556
        k(    2) = (   0.0000000   0.0316086   0.0000000), wk =   0.1111111
        k(    3) = (   0.0000000   0.0632172   0.0000000), wk =   0.1111111
        k(    4) = (   0.0000000  -0.0948258   0.0000000), wk =   0.0555556
        k(    5) = (   0.0273738  -0.0158043   0.0000000), wk =   0.1111111
        k(    6) = (   0.0273738   0.0158043   0.0000000), wk =   0.1111111
        k(    7) = (   0.0273738   0.0474129   0.0000000), wk =   0.1111111
        k(    8) = (   0.0273738  -0.1106300   0.0000000), wk =   0.1111111
        k(    9) = (   0.0273738  -0.0790215   0.0000000), wk =   0.1111111
        k(   10) = (   0.0273738  -0.0474129   0.0000000), wk =   0.1111111
        k(   11) = (   0.0547477  -0.0316086   0.0000000), wk =   0.1111111
        k(   12) = (   0.0547477   0.0000000   0.0000000), wk =   0.1111111
        k(   13) = (   0.0547477   0.0316086   0.0000000), wk =   0.1111111
        k(   14) = (   0.0547477  -0.1264343   0.0000000), wk =   0.1111111
        k(   15) = (   0.0547477  -0.0948258   0.0000000), wk =   0.1111111
        k(   16) = (   0.0547477  -0.0632172   0.0000000), wk =   0.1111111
        k(   17) = (  -0.0821215   0.0474129   0.0000000), wk =   0.0555556
        k(   18) = (  -0.0821215   0.0790215   0.0000000), wk =   0.1111111
        k(   19) = (  -0.0821215   0.1106300   0.0000000), wk =   0.1111111
        k(   20) = (  -0.0821215  -0.0474129   0.0000000), wk =   0.0555556

     Largest allocated arrays     est. size (Mb)     dimensions
     Largest temporary arrays     est. size (Mb)     dimensions

     Initial potential from superposition of free atoms
     Check: negative starting charge=   -0.001087

     starting charge  221.99997, renormalised to  234.00000

     negative rho (up, down):  1.145E-03 0.000E+00

     *
     * You are using vdW-DF for exchange-correlation in this calculation.
     * Please cite the following three references that made this development
     * possible:
     *
     *   M. Dion, H. Rydberg, E. Schroder, D. C. Langreth, and
     *   B. I. Lundqvist, Phys. Rev. Lett. 92, 246401 (2004).
     *
     *   T. Thonhauser, V. R. Cooper, S. Li, A. Puzder, P. Hyldgaard, and
     *   D. C. Langreth, Phys. Rev. B 76, 125112 (2007).
     *
     *   G. Roman-Perez and J. M. Soler, Phys. Rev. Lett. 103, 096102 (2009).
     *
     *
     * If you are using vdW-DF2, please also cite:
     *
     *   K. Lee, E. D. Murray, L. Kong, B. I. Lundqvist, and
     *   D. C. Langreth, Phys. Rev. B 82, 081101(R) (2010).
     *
     *
     * If you are calculating the stress with vdW-DF, please also cite:
     *
     *   R. Sabatini, E. Kucukbenli, B. Kolb, T. Thonhauser, and
     *   S. de Gironcoli, J. Phys.: Condens. Matter 24, 424209 (2012).
     *

     Carrying out vdW-DF run using the following parameters:

     Nqs =      20    Nr_points =    1024   r_max =   100.000
     q_mesh =
               0.00001000     0.04494208     0.09755937     0.15916263
               0.23128650     0.31572767     0.41458969     0.53033537
               0.66584808     0.82450364     1.01025438     1.22772762
               1.48234092     1.78043706     2.12944203     2.53805004
               3.01644009     3.57652955     4.23227104     5.00000000

     Gradients computed in reciprocal space

     Adding external electric field

     Computed dipole along edir(3) :
        Dipole               -2.6359 Ry au,         -6.6999 Debye
        Dipole field         -0.0061 Ry au

        Potential amp.        0.5634 Ry
        Total length         46.0091 bohr

     Starting wfc are  149 randomized atomic wfcs

     Self-consistent Calculation

     iteration #  1     ecut=    36.75 Ry     beta=0.30
     Davidson diagonalization with overlap
     ethr =  1.00E-02,  avg # of iterations =  7.0

[...]

     total energy              =   -4743.56342994 Ry
     Harris-Foulkes estimate   =   -5032.36382156 Ry
     estimated scf accuracy    <     608.68076394 Ry

     iteration #  2     ecut=    36.75 Ry     beta=0.30
     Davidson diagonalization with overlap
     c_bands:  1 eigenvalues not converged
     c_bands:  3 eigenvalues not converged
     c_bands:  1 eigenvalues not converged
     c_bands:  3 eigenvalues not converged
     c_bands:  2 eigenvalues not converged
     c_bands:  1 eigenvalues not converged
     c_bands:  3 eigenvalues not converged
     c_bands:  1 eigenvalues not converged
     c_bands:  2 eigenvalues not converged
     c_bands:  2 eigenvalues not converged
     c_bands:  1 eigenvalues not converged
     c_bands:  1 eigenvalues not converged
     c_bands:  1 eigenvalues not converged
     c_bands:  1 eigenvalues not converged
     c_bands:  2 eigenvalues not converged
     c_bands:  1 eigenvalues not converged
     c_bands:  1 eigenvalues not converged
     c_bands:  2 eigenvalues not converged
     c_bands:  1 eigenvalues not converged
     ethr =  1.00E-02,  avg # of iterations = 20.1

[...]

     End of self-consistent calculation

          k = 0.0000 0.0000 0.0000 ( 20347 PWs)   bands (ev):

   -94.6898 -94.6897 -94.6897 -94.6859 -94.6857 -94.6857 -94.6826 -94.6826
   -94.6821 -94.6692 -94.6681 -94.6681 -94.6679 -94.6679 -94.6673 -94.6666
   -94.6651 -94.6651 -94.6638 -94.6638 -94.6633 -94.6631 -94.6616 -94.6616
   -94.6610 -94.6606 -94.6606 -94.6490 -94.6341 -94.6341 -94.6267 -94.6267
   -94.6227 -94.3461 -94.3461 -94.2451 -16.0655 -15.1638 -15.1638 -15.1616
   -15.1260 -15.1185 -15.1130 -15.1130 -15.1089 -15.1089 -15.1042 -15.1019
   -15.0870 -15.0870 -15.0792 -15.0614 -15.0614 -15.0582 -15.0557 -15.0470
   -15.0470 -15.0400 -15.0393 -15.0393 -15.0344 -15.0344 -15.0258 -15.0128
   -15.0128 -15.0054 -15.0054 -14.9793 -14.9593 -14.9593 -14.9570 -14.9570
   -14.9376 -14.9376 -14.9105 -14.9105 -14.9072 -14.9051 -14.9051 -14.9036
   -14.8832 -14.8832 -14.8798 -14.8798 -14.8771 -14.8691 -14.8674 -14.8611
   -14.8553 -14.8553 -14.8472 -14.8472 -14.6796 -14.6796 -14.6725 -14.6725
   -13.4571 -10.0281  -8.6055  -6.9643  -5.7829  -4.8580  -4.8580  -4.7582
    -4.4573  -4.4573  -4.0717  -3.2516  -3.2516  -2.8774  -2.8774  -2.7972
    -2.5017  -1.7781  -1.5643  -1.5643  -0.8430  -0.8430  -0.7408   0.3021
     0.3433   0.3433   1.3416   3.1153   3.1425   3.1549   3.1549

[...]

          k =-0.0821 0.0474 0.0000 ( 20384 PWs)   bands (ev):

[...]

     the Fermi energy is     0.0933 ev

!    total energy              =   -5020.42881134 Ry
     Harris-Foulkes estimate   =   -5020.42881448 Ry
     estimated scf accuracy    <       0.00000115 Ry

     The total energy is the sum of the following terms:

     one-electron contribution =  -27522.00052975 Ry
     hartree contribution      =   13767.07681346 Ry
     xc contribution           =    -602.83382053 Ry
     ewald contribution        =    9337.36569476 Ry
     electric field correction =       0.00001814 Ry
     smearing contrib. (-TS)   =      -0.03698742 Ry

     convergence has been achieved in  18 iterations

 BEEF-vdW xc energy contributions
           1 :   -538.738548504133
           2 :    488.965485121116
           3 :   -405.542590537804
           4 :    312.723233682935
           5 :   -231.953353217181
           6 :    173.858911224475
           7 :   -136.734242827897
           8 :    111.291722166307
           9 :   -88.0986892740952
          10 :    63.0987057593531
          11 :   -38.4354426370002
          12 :    19.0585903946628
          13 :   -8.14521591072139
          14 :    4.61309822821568
          15 :   -4.08397559726245
          16 :    2.10673341295637
          17 :    2.93917784801215
          18 :   -9.29208390458155
          19 :    13.7179027891300
          20 :   -14.2240829837347
          21 :    11.5268774518626
          22 :   -8.34354621676721
          23 :    7.24946374236310
          24 :   -8.82118526190516
          25 :    11.4200993946140
          26 :   -12.6475535636926
          27 :    11.2556675903572
          28 :   -8.05400356061523
          29 :    5.20285148594053
          30 :   -4.52582436046521
          31 :   -39.9427396060796
          32 :   -27.1194587553323

     Forces acting on atoms (Ry/au):

     negative rho (up, down):  1.184E-03 0.000E+00
     atom    1 type  1   force =     0.00072171    0.00041293    0.00256830
     atom    2 type  1   force =    -0.00072343    0.00041420    0.00258443
     atom    3 type  1   force =     0.00000367   -0.00083322    0.00258865
     atom    4 type  1   force =    -0.00001778   -0.00000329   -0.00133545
     atom    5 type  1   force =    -0.00001228    0.00025441    0.00321164
     atom    6 type  1   force =     0.00001192    0.00000489   -0.00380659
     atom    7 type  1   force =    -0.00021080   -0.00011826    0.00326432
     atom    8 type  1   force =     0.00022141   -0.00013385    0.00326875
     atom    9 type  1   force =     0.00000083    0.00000547   -0.16293203
     atom   10 type  1   force =     0.00000098   -0.00111127   -0.00154760
     atom   11 type  1   force =    -0.00096174    0.00055255   -0.00155248
     atom   12 type  1   force =     0.00096424    0.00055133   -0.00152679
     atom   13 type  2   force =     0.00000074    0.00000248    0.21738175
     atom   14 type  3   force =     0.00000052    0.00000163   -0.06216692

     Total force =     0.278706     Total SCF correction =     0.003031

     entering subroutine stress ...

     negative rho (up, down):  1.184E-03 0.000E+00
          total   stress  (Ry/bohr**3)                   (kbar)     P=   -3.52
  -0.00005319   0.00000000  -0.00000000         -7.83      0.00     -0.00
   0.00000000  -0.00005319  -0.00000000          0.00     -7.83     -0.00
  -0.00000000  -0.00000000   0.00003453         -0.00     -0.00      5.08

     BFGS Geometry Optimization

     number of scf cycles    =   1
     number of bfgs steps    =   0

     energy   new            =   -5020.4288113415 Ry

     new trust radius        =       0.2173817501 bohr
     new conv_thr            =       0.0000099958 Ry

ATOMIC_POSITIONS (crystal)
Ga1      0.166666667   0.166666667   0.400460194    0   0   0
Ga1      0.666666667   0.166666667   0.400460194    0   0   0
Ga1      0.166666667   0.666666667   0.400460194    0   0   0
Ga1      0.666666667   0.666666667   0.400460194    0   0   0
Ga1      0.833333333   0.333333333   0.500000000    0   0   0
Ga1      0.333333333   0.333333333   0.500000000    0   0   0
Ga1      0.833333333   0.833333333   0.500000000    0   0   0
Ga1      0.333333333   0.833333333   0.500000000    0   0   0
Ga1     -0.000000202   0.000000549   0.596087041
Ga1      0.500055848  -0.000111526   0.599507010
Ga1     -0.000111316   0.500055454   0.599506907
Ga1      0.500056140   0.500055331   0.599507451
N1      -0.000000060   0.000000249   0.669841933
H1      -0.000000036   0.000000164   0.705966215

     Writing output data file calc.save
     Check: negative starting charge=   -0.001087
     NEW-OLD atomic charge density approx. for the potential
     Check: negative starting charge=   -0.001097

[...]

     energy   old            =   -5020.4288113415 Ry
     energy   new            =   -5020.4161255545 Ry

     CASE: energy  _new > energy  _old

[...]

     Total force =     0.067615     Total SCF correction =     0.007445
     SCF correction compared to forces is large: reduce conv_thr to get better values

[...]

     CASE: energy  _new < energy  _old

[...]

     Threshold (ethr) on eigenvalues was too large:
     Diagonalizing with lowered threshold

     Davidson diagonalization with overlap
     ethr =  3.84E-08,  avg # of iterations =  2.8

[...]

     WARNING: bfgs curvature condition failed, Theta= 0.913
     new trust radius        =       0.1046072153 bohr
     new conv_thr            =       0.0000001000 Ry

[...]

     Threshold (ethr) on eigenvalues was too large:
     Diagonalizing with lowered threshold

     Davidson diagonalization with overlap
     ethr =  5.35E-08,  avg # of iterations =  1.7

[...]

     Total force =     0.018654     Total SCF correction =     0.001103

[...]

     number of scf cycles    =  20
     number of bfgs steps    =  18

     energy   old            =   -5020.4540151060 Ry
     energy   new            =   -5020.4542569343 Ry

     CASE: energy  _new < energy  _old

     new trust radius        =       0.0371543761 bohr
     new conv_thr            =       0.0000001000 Ry

ATOMIC_POSITIONS (crystal)
Ga1      0.166666667   0.166666667   0.400460194    0   0   0
Ga1      0.666666667   0.166666667   0.400460194    0   0   0
Ga1      0.166666667   0.666666667   0.400460194    0   0   0
Ga1      0.666666667   0.666666667   0.400460194    0   0   0
Ga1      0.833333333   0.333333333   0.500000000    0   0   0
Ga1      0.333333333   0.333333333   0.500000000    0   0   0
Ga1      0.833333333   0.833333333   0.500000000    0   0   0
Ga1      0.333333333   0.833333333   0.500000000    0   0   0
Ga1      0.000001007   0.000000739   0.581461369
Ga1      0.500290474  -0.000580225   0.606979478
Ga1     -0.000577924   0.500289506   0.606979302
Ga1      0.500289683   0.500290454   0.606979304
N1      -0.000001776  -0.000001648   0.652620975
H1       0.000000141   0.000000404   0.693290366

     Writing output data file calc.save
     Check: negative starting charge=   -0.001125
     NEW-OLD atomic charge density approx. for the potential
     Check: negative starting charge=   -0.001128

[...]

     Self-consistent Calculation

[...]

     total energy              =   -5020.45439256 Ry
     Harris-Foulkes estimate   =   -5020.45439242 Ry
     estimated scf accuracy    <       0.00000032 Ry

     iteration #  8     ecut=    36.75 Ry     beta=0.30
     Davidson diagonalization with overlap
     ethr =  1.36E-10,  avg # of iterations =  3.5

[...]

     negative rho (up, down):  1.168E-03 0.000E+00

     Adding external electric field

     Computed dipole along edir(3) :
        Dipole               -0.0171 Ry au,         -0.0436 Debye
        Dipole field         -0.0000 Ry au

        Potential amp.        0.0037 Ry
        Total length         46.0091 bohr

     End of self-consistent calculation

[...]

          k = 0.0547-0.0632 0.0000 ( 20377 PWs)   bands (ev):

[...]

          k =-0.0821-0.0474 0.0000 ( 20384 PWs)   bands (ev):

   -94.5641 -94.5639 -94.5637 -94.5626 -94.5625 -94.5625 -94.5381 -94.5376
   -94.5371 -94.5289 -94.5213 -94.5213 -94.5212 -94.5127 -94.5122 -94.5118
   -94.5087 -94.5085 -94.5083 -94.5076 -94.5076 -94.5020 -94.5017 -94.5016
   -94.4990 -94.4985 -94.4980 -94.4974 -94.4973 -94.4971 -94.4901 -94.4901
   -94.4518 -94.4518 -94.4482 -94.3782 -15.6729 -14.9966 -14.9818 -14.9781
   -14.9722 -14.9505 -14.9494 -14.9439 -14.9297 -14.9262 -14.9174 -14.9161
   -14.9114 -14.9095 -14.9055 -14.9037 -14.8995 -14.8992 -14.8915 -14.8903
   -14.8861 -14.8850 -14.8814 -14.8794 -14.8729 -14.8667 -14.8636 -14.8564
   -14.8564 -14.8536 -14.8478 -14.8454 -14.8437 -14.8375 -14.8372 -14.8243
   -14.8220 -14.8169 -14.8070 -14.8066 -14.7993 -14.7962 -14.7958 -14.7919
   -14.7890 -14.7862 -14.7827 -14.7770 -14.7734 -14.7623 -14.7556 -14.7524
   -14.7509 -14.7419 -14.7356 -14.7203 -14.7157 -14.7155 -14.6702 -14.6692
   -13.8212  -8.7688  -8.3900  -7.4978  -7.0145  -6.0638  -5.7925  -5.7542
    -5.0246  -4.7476  -4.4293  -3.4596  -2.6713  -1.8105  -1.3292  -1.1904
    -0.7195  -0.2124  -0.1502  -0.1155   0.4140   0.4278   1.1291   1.2502
     1.8014   1.8947   2.0509   2.3979   2.6561   2.6743   2.6952

     the Fermi energy is     0.2723 ev

!    total energy              =   -5020.45439265 Ry
     Harris-Foulkes estimate   =   -5020.45439261 Ry
     estimated scf accuracy    <       0.00000004 Ry

     The total energy is the sum of the following terms:

     one-electron contribution =  -27502.94810174 Ry
     hartree contribution      =   13758.52498374 Ry
     xc contribution           =    -602.79112558 Ry
     ewald contribution        =    9326.79566626 Ry
     electric field correction =       0.00000068 Ry
     smearing contrib. (-TS)   =      -0.03581602 Ry

     convergence has been achieved in   8 iterations

 BEEF-vdW xc energy contributions
           1 :   -538.693577561088
           2 :    488.904241952989
           3 :   -405.442841502776
           4 :    312.581938334160
           5 :   -231.801207052047
           6 :    173.738566112215
           7 :   -136.666358067233
           8 :    111.260762684289
           9 :   -88.0691296140290
          10 :    63.0452725371815
          11 :   -38.3620949845495
          12 :    18.9938726517780
          13 :   -8.11935022525017
          14 :    4.63486465954793
          15 :   -4.13408873510139
          16 :    2.14967467032602
          17 :    2.93497983738121
          18 :   -9.33732790000681
          19 :    13.7974212685456
          20 :   -14.3062737327737
          21 :    11.5814807222646
          22 :   -8.35671749859227
          23 :    7.22808925713139
          24 :   -8.78555366812714
          25 :    11.3895124866674
          26 :   -12.6274749808917
          27 :    11.2338949000095
          28 :   -8.00746317471135
          29 :    5.11262790990565
          30 :   -4.39476647574497
          31 :   -39.9404262991418
          32 :   -27.1119372458784

     Forces acting on atoms (Ry/au):

     negative rho (up, down):  1.168E-03 0.000E+00
     atom    1 type  1   force =    -0.00120722   -0.00069714    0.00404072
     atom    2 type  1   force =     0.00120724   -0.00069716    0.00404091
     atom    3 type  1   force =    -0.00000000    0.00139387    0.00404075
     atom    4 type  1   force =     0.00000007   -0.00000016    0.00078614
     atom    5 type  1   force =    -0.00000005    0.01436770   -0.00329598
     atom    6 type  1   force =     0.00000011   -0.00000013    0.00248620
     atom    7 type  1   force =    -0.01244249   -0.00718386   -0.00329533
     atom    8 type  1   force =     0.01244296   -0.00718421   -0.00329614
     atom    9 type  1   force =     0.00000070    0.00000071   -0.00102574
     atom   10 type  1   force =     0.00000062   -0.00052098   -0.00136474
     atom   11 type  1   force =    -0.00045302    0.00026177   -0.00136686
     atom   12 type  1   force =     0.00045299    0.00026102   -0.00136618
     atom   13 type  2   force =    -0.00000301   -0.00000191    0.00133733
     atom   14 type  3   force =     0.00000109    0.00000050   -0.00172108

     Total force =     0.003495     Total SCF correction =     0.001790
     SCF correction compared to forces is large: reduce conv_thr to get better values

     entering subroutine stress ...

     negative rho (up, down):  1.168E-03 0.000E+00
          total   stress  (Ry/bohr**3)                   (kbar)     P=   -3.60
  -0.00002561  -0.00000000  -0.00000000         -3.77     -0.00     -0.00
  -0.00000000  -0.00002561  -0.00000000         -0.00     -3.77     -0.00
  -0.00000000  -0.00000000  -0.00002217         -0.00     -0.00     -3.26

     bfgs converged in  21 scf cycles and  19 bfgs steps
     (criteria: energy <  1.0E+00, force <  1.9E-03)

     End of BFGS Geometry Optimization

     Final energy   =   -5020.4543926543 Ry
Begin final coordinates

ATOMIC_POSITIONS (crystal)
Ga1      0.166666667   0.166666667   0.400460194    0   0   0
Ga1      0.666666667   0.166666667   0.400460194    0   0   0
Ga1      0.166666667   0.666666667   0.400460194    0   0   0
Ga1      0.666666667   0.666666667   0.400460194    0   0   0
Ga1      0.833333333   0.333333333   0.500000000    0   0   0
Ga1      0.333333333   0.333333333   0.500000000    0   0   0
Ga1      0.833333333   0.833333333   0.500000000    0   0   0
Ga1      0.333333333   0.833333333   0.500000000    0   0   0
Ga1      0.000001007   0.000000739   0.581461369
Ga1      0.500290474  -0.000580225   0.606979478
Ga1     -0.000577924   0.500289506   0.606979302
Ga1      0.500289683   0.500290454   0.606979304
N1      -0.000001776  -0.000001648   0.652620975
H1       0.000000141   0.000000404   0.693290366
End final coordinates

     Writing output data file calc.save

     General routines

     Parallel routines

   This run was terminated on:   0:39:50  18Apr2018

   JOB DONE.