     Program PWSCF v.5.1rc2 (svn rev. ) starts on 17Apr2018 at  8:41:10

     Current dimensions of program PWSCF are:
     Max number of different atomic species (ntypx) = 10
     Max number of k-points (npk) =  40000
     Max angular momentum in pseudopotentials (lmaxx) =  3
     Presently stress not available with electric field

     IMPORTANT: XC functional enforced from input :
     Exchange-correlation      = BEEF-VDW ( 1  4 27 13 2)
     Any further DFT definition will be discarded
     Please, verify this is what you really want

     Subspace diagonalization in iterative solution of the eigenvalue problem:
     a serial algorithm will be used

     bravais-lattice index     =            0
     lattice parameter (alat)  =       1.8897  a.u.
     unit-cell volume          =    3807.2308 (a.u.)^3
     number of atoms/cell      =           15
     number of atomic types    =            3
     number of electrons       =       234.00
     number of Kohn-Sham states=          127
     kinetic-energy cutoff     =      36.7493  Ry
     charge density cutoff     =     367.4932  Ry
     convergence threshold     =      1.0E-05
     mixing beta               =       0.3000
     number of iterations used =           10  plain     mixing
     Exchange-correlation      = BEEF-VDW ( 1  4 27 13 2)
     nstep                     =           50

     celldm(1)=   1.889726  celldm(2)=   0.000000  celldm(3)=   0.000000
     celldm(4)=   0.000000  celldm(5)=   0.000000  celldm(6)=   0.000000

     crystal axes: (cart. coord. in units of alat)
               a(1) = (   5.184823   0.000000   0.000000 )
               a(2) = (   2.592411   4.490188   0.000000 )
               a(3) = (   0.000000   0.000000  24.233390 )

     reciprocal axes: (cart. coord. in units 2 pi/alat)
               b(1) = (  0.192871 -0.111354  0.000000 )
               b(2) = (  0.000000  0.222708  0.000000 )
               b(3) = (  0.000000  0.000000  0.041265 )

     PseudoPot. # 1 for Cu read from file:
     /home/mamunm/src/pseudo/gbrv1.5pbe/Cu.UPF
     MD5 check sum: 6e991ff952a84172a2a52a1c1e996048
     Pseudo is Ultrasoft + core correction, Zval = 19.0
     Generated by new atomic code, or converted to UPF format
     Using radial grid of  867 points,  6 beta functions with:
                l(1) =   0
                l(2) =   0
                l(3) =   1
                l(4) =   1
                l(5) =   2
                l(6) =   2
     Q(r) pseudized with  8 coefficients,  rinner =    1.150   1.150   1.150
                                                       1.150   1.150

     PseudoPot. # 2 for C  read from file:
     /home/mamunm/src/pseudo/gbrv1.5pbe/C.UPF
     MD5 check sum: d1aef80898a10debaa0f26306b886e00
     Pseudo is Ultrasoft + core correction, Zval =  4.0
     Generated by new atomic code, or converted to UPF format
     Using radial grid of  721 points,  4 beta functions with:
                l(1) =   0
                l(2) =   0
                l(3) =   1
                l(4) =   1
     Q(r) pseudized with  8 coefficients,  rinner =    1.100   1.100   1.100

     PseudoPot. # 3 for H  read from file:
     /home/mamunm/src/pseudo/gbrv1.5pbe/H.UPF
     MD5 check sum: 761ae9a214b05c3daf00ab9f6b793d6f
     Pseudo is Ultrasoft, Zval =  1.0
     Generated by new atomic code, or converted to UPF format
     Using radial grid of  615 points,  2 beta functions with:
                l(1) =   0
                l(2) =   0
     Q(r) pseudized with  8 coefficients,  rinner =    0.700

     vdW kernel table read from file vdW_kernel_table
     MD5 check sum: 095c7af220d748ca6e76c0b4c6cfb241

     atomic species   valence    mass     pseudopotential
        Cu1           19.00    63.54600     Cu( 1.00)
        C1             4.00    12.01100     C ( 1.00)
        H1             1.00     1.00800     H ( 1.00)

     No symmetry found

   Cartesian axes

     site n.     atom                  positions (alat units)
         1           Cu1 tau(   1) = (   1.2962057   0.7483647  10.0000000  )
         2           Cu1 tau(   2) = (   3.8886170   0.7483647  10.0000000  )
         3           Cu1 tau(   3) = (   2.5924113   2.9934587  10.0000000  )
         4           Cu1 tau(   4) = (   5.1848226   2.9934587  10.0000000  )
         5           Cu1 tau(   5) = (   5.1848226   1.4967294  12.1166950  )
         6           Cu1 tau(   6) = (   2.5924113   1.4967294  12.1166950  )
         7           Cu1 tau(   7) = (   6.4810283   3.7418234  12.1166950  )
         8           Cu1 tau(   8) = (   3.8886170   3.7418234  12.1166950  )
         9           Cu1 tau(   9) = (   0.0000000   0.0000000  14.2333899  )
        10           Cu1 tau(  10) = (   2.5924113   0.0000000  14.2333899  )
        11           Cu1 tau(  11) = (   1.2962057   2.2450940  14.2333899  )
        12           Cu1 tau(  12) = (   3.8886170   2.2450940  14.2333899  )
        13           C1  tau(  13) = (   2.5924113   1.4967294  15.5853899  )
        14           H1  tau(  14) = (   3.2224113   2.1267294  16.2153899  )
        15           H1  tau(  15) = (   1.9624113   0.8667294  16.2153899  )

     number of k points=    20  Fermi-Dirac smearing, width (Ry)=  0.0110
                       cart. coord. in units 2pi/alat
        k(    1) = (   0.0000000   0.0000000   0.0000000), wk =   0.0555556
        k(    2) = (   0.0000000   0.0371180   0.0000000), wk =   0.1111111
        k(    3) = (   0.0000000   0.0742359   0.0000000), wk =   0.1111111
        k(    4) = (   0.0000000  -0.1113539   0.0000000), wk =   0.0555556
        k(    5) = (   0.0321451  -0.0185590   0.0000000), wk =   0.1111111
        k(    6) = (   0.0321451   0.0185590   0.0000000), wk =   0.1111111
        k(    7) = (   0.0321451   0.0556770   0.0000000), wk =   0.1111111
        k(    8) = (   0.0321451  -0.1299129   0.0000000), wk =   0.1111111
        k(    9) = (   0.0321451  -0.0927949   0.0000000), wk =   0.1111111
        k(   10) = (   0.0321451  -0.0556770   0.0000000), wk =   0.1111111
        k(   11) = (   0.0642902  -0.0371180   0.0000000), wk =   0.1111111
        k(   12) = (   0.0642902  -0.0000000   0.0000000), wk =   0.1111111
        k(   13) = (   0.0642902   0.0371180   0.0000000), wk =   0.1111111
        k(   14) = (   0.0642902  -0.1484719   0.0000000), wk =   0.1111111
        k(   15) = (   0.0642902  -0.1113539   0.0000000), wk =   0.1111111
        k(   16) = (   0.0642902  -0.0742359   0.0000000), wk =   0.1111111
        k(   17) = (  -0.0964353   0.0556770   0.0000000), wk =   0.0555556
        k(   18) = (  -0.0964353   0.0927949   0.0000000), wk =   0.1111111
        k(   19) = (  -0.0964353   0.1299129   0.0000000), wk =   0.1111111
        k(   20) = (  -0.0964353  -0.0556770   0.0000000), wk =   0.0555556

     Largest allocated arrays     est. size (Mb)     dimensions
     Largest temporary arrays     est. size (Mb)     dimensions

     Initial potential from superposition of free atoms
     Check: negative starting charge=   -0.000138

     starting charge  221.99992, renormalised to  234.00000

     negative rho (up, down):  1.456E-04 0.000E+00

     *
     * You are using vdW-DF for exchange-correlation in this calculation.
     * Please cite the following three references that made this development
     * possible:
     *
     *   M. Dion, H. Rydberg, E. Schroder, D. C. Langreth, and
     *   B. I. Lundqvist, Phys. Rev. Lett. 92, 246401 (2004).
     *
     *   T. Thonhauser, V. R. Cooper, S. Li, A. Puzder, P. Hyldgaard, and
     *   D. C. Langreth, Phys. Rev. B 76, 125112 (2007).
     *
     *   G. Roman-Perez and J. M. Soler, Phys. Rev. Lett. 103, 096102 (2009).
     *
     *
     * If you are using vdW-DF2, please also cite:
     *
     *   K. Lee, E. D. Murray, L. Kong, B. I. Lundqvist, and
     *   D. C. Langreth, Phys. Rev. B 82, 081101(R) (2010).
     *
     *
     * If you are calculating the stress with vdW-DF, please also cite:
     *
     *   R. Sabatini, E. Kucukbenli, B. Kolb, T. Thonhauser, and
     *   S. de Gironcoli, J. Phys.: Condens. Matter 24, 424209 (2012).
     *

     Carrying out vdW-DF run using the following parameters:

     Nqs =      20    Nr_points =    1024   r_max =   100.000
     q_mesh =
               0.00001000     0.04494208     0.09755937     0.15916263
               0.23128650     0.31572767     0.41458969     0.53033537
               0.66584808     0.82450364     1.01025438     1.22772762
               1.48234092     1.78043706     2.12944203     2.53805004
               3.01644009     3.57652955     4.23227104     5.00000000

     Gradients computed in reciprocal space

     Adding external electric field

     Computed dipole along edir(3) :
        Dipole               -2.2542 Ry au,         -5.7296 Debye
        Dipole field         -0.0074 Ry au

        Potential amp.        0.6644 Ry
        Total length         44.6496 bohr

     Starting wfc are  162 randomized atomic wfcs

     Self-consistent Calculation

     iteration #  1     ecut=    36.75 Ry     beta=0.30
     Davidson diagonalization with overlap
     ethr =  1.00E-02,  avg # of iterations =  8.3

[...]

     total energy              =   -4557.91846359 Ry
     Harris-Foulkes estimate   =   -4872.28193102 Ry
     estimated scf accuracy    <     661.61274533 Ry

     iteration #  2     ecut=    36.75 Ry     beta=0.30
     Davidson diagonalization with overlap
     c_bands:  1 eigenvalues not converged
     ethr =  1.00E-02,  avg # of iterations = 18.9

[...]

     End of self-consistent calculation

          k = 0.0000 0.0000 0.0000 ( 14321 PWs)   bands (ev):

  -111.9887-111.9816-111.9781-111.8941-111.8503-111.7999-111.7589-111.5819
  -111.5761-111.5681-111.5550-111.4749 -69.4729 -69.4393 -69.4242 -69.3787
   -69.3647 -69.3461 -69.3409 -69.3158 -69.3072 -69.2990 -69.2964 -69.2863
   -69.2655 -69.2433 -69.2324 -69.2125 -69.1928 -69.1768 -69.1577 -69.1517
   -69.1469 -69.0321 -69.0281 -69.0240 -68.9810 -68.9775 -68.9725 -68.9567
   -68.9540 -68.9369 -68.9280 -68.9227 -68.9100 -68.8963 -68.8916 -68.8537
   -12.0007  -7.5151  -6.1897  -5.8245  -4.6645  -4.0590  -3.9211  -3.8215
    -3.7637  -3.6938  -3.5908  -3.4371  -3.4055  -3.3064  -3.2741  -3.2311
    -3.2053  -2.9471  -2.8221  -2.6349  -2.4792  -2.4126  -2.2991  -2.2816
    -2.2743  -2.1629  -2.1284  -2.1270  -2.1130  -2.0827  -2.0580  -1.9815
    -1.9632  -1.8883  -1.8876  -1.8015  -1.7540  -1.7006  -1.6431  -1.5145
    -1.4956  -1.4567  -1.3811  -1.3527  -1.3485  -1.2033  -1.1874  -1.0966
    -1.0143  -0.9982  -0.9851  -0.9743  -0.9725  -0.9216  -0.9211  -0.9151
    -0.8773  -0.8717  -0.8651  -0.8392  -0.7955  -0.7818  -0.6405  -0.6353
    -0.6323  -0.2365   0.2594   0.8372   0.9363   1.0146   1.3921   1.9252
     2.0587   2.2067   2.3297   2.3646   3.6350   4.6271   4.8930

[...]

          k =-0.0964 0.0557 0.0000 ( 14294 PWs)   bands (ev):

[...]

     the Fermi energy is     0.7664 ev

!    total energy              =   -4873.15490446 Ry
     Harris-Foulkes estimate   =   -4873.15490155 Ry
     estimated scf accuracy    <       0.00000505 Ry

     The total energy is the sum of the following terms:

     one-electron contribution =  -37876.63852478 Ry
     hartree contribution      =   18956.49619860 Ry
     xc contribution           =    -485.32663098 Ry
     ewald contribution        =   14532.34001199 Ry
     electric field correction =       0.00005317 Ry
     smearing contrib. (-TS)   =      -0.02601246 Ry

     convergence has been achieved in  35 iterations

 BEEF-vdW xc energy contributions
           1 :   -429.964744006274
           2 :    389.798867907778
           3 :   -321.755319675169
           4 :    244.536108568515
           5 :   -175.170126457792
           6 :    122.935524581306
           7 :   -87.8917745465043
           8 :    63.9876086883091
           9 :   -44.3354133842646
          10 :    25.4036760047695
          11 :   -8.01884267216923
          12 :   -4.71986284868228
          13 :    10.6502932348991
          14 :   -10.5538999186367
          15 :    7.78093898658108
          16 :   -6.06787737276557
          17 :    7.25408754756853
          18 :   -10.4703748431583
          19 :    13.1992338850400
          20 :   -13.3065340626422
          21 :    10.5749219561696
          22 :   -6.74548254805359
          23 :    4.17720658081475
          24 :   -4.17254501904404
          25 :    6.15533170987896
          26 :   -8.20873529108746
          27 :    8.50581982791084
          28 :   -6.58419511234933
          29 :    3.59025850408034
          30 :   -1.38521315115031
          31 :   -34.4575372483184
          32 :   -23.5715067801341

     Forces acting on atoms (Ry/au):

     negative rho (up, down):  1.037E-03 0.000E+00
     atom    1 type  1   force =     0.00063816    0.00099871    0.00380550
     atom    2 type  1   force =    -0.00051750   -0.00056458    0.00310773
     atom    3 type  1   force =    -0.00120409   -0.00050602    0.00312351
     atom    4 type  1   force =     0.00105273    0.00012921    0.00102531
     atom    5 type  1   force =     0.00053889    0.00158141    0.00245132
     atom    6 type  1   force =    -0.00123931    0.00000255   -0.01247407
     atom    7 type  1   force =    -0.00123448   -0.00102182   -0.00280161
     atom    8 type  1   force =     0.00165445   -0.00081235    0.00695865
     atom    9 type  1   force =    -0.00951410    0.00014947   -0.01389523
     atom   10 type  1   force =     0.01318494   -0.00726062   -0.00502927
     atom   11 type  1   force =    -0.00417027    0.01008561    0.00314145
     atom   12 type  1   force =     0.00789762   -0.00313778   -0.01255871
     atom   13 type  2   force =    -0.01526950   -0.00027355   -0.00731614
     atom   14 type  3   force =     0.00463935    0.00067726    0.01554051
     atom   15 type  3   force =     0.00354310   -0.00004750    0.01492104

     Total force =     0.040986     Total SCF correction =     0.003673

     entering subroutine stress ...

     negative rho (up, down):  1.037E-03 0.000E+00
          total   stress  (Ry/bohr**3)                   (kbar)     P=  -18.27
  -0.00014831  -0.00000124  -0.00000201        -21.82     -0.18     -0.30
  -0.00000124  -0.00014817   0.00000039         -0.18    -21.80      0.06
  -0.00000201   0.00000039  -0.00007608         -0.30      0.06    -11.19

     BFGS Geometry Optimization

     number of scf cycles    =   1
     number of bfgs steps    =   0

     energy   new            =   -4873.1549044556 Ry

     new trust radius        =       0.0169339383 bohr
     new conv_thr            =       0.0000099958 Ry

ATOMIC_POSITIONS (crystal)
Cu1      0.166666667   0.166666667   0.412653782    0   0   0
Cu1      0.666666667   0.166666667   0.412653782    0   0   0
Cu1      0.166666667   0.666666667   0.412653782    0   0   0
Cu1      0.666666667   0.666666667   0.412653782    0   0   0
Cu1      0.833333333   0.333333333   0.500000000    0   0   0
Cu1      0.333333333   0.333333333   0.500000000    0   0   0
Cu1      0.833333333   0.833333333   0.500000000    0   0   0
Cu1      0.333333333   0.833333333   0.500000000    0   0   0
Cu1     -0.000979843   0.000017616   0.587042792
Cu1      0.501773530  -0.000855678   0.587236396
Cu1     -0.001019934   0.501188609   0.587414817
Cu1      0.500990950   0.499630207   0.587071977
C1       0.331791006   0.333301095   0.642977249
H1       0.385122463   0.473719076   0.669473551
H1       0.282342217   0.193021809   0.669460024

     Writing output data file calc.save
     Check: negative starting charge=   -0.000138
     NEW-OLD atomic charge density approx. for the potential
     Check: negative starting charge=   -0.000138

[...]

     Total force =     0.024872     Total SCF correction =     0.008535
     SCF correction compared to forces is large: reduce conv_thr to get better values

[...]

     energy   old            =   -4873.1549044556 Ry
     energy   new            =   -4873.1562195360 Ry

     CASE: energy  _new < energy  _old

[...]

     Total force =     0.009355     Total SCF correction =     0.000786

[...]

     number of scf cycles    =  14
     number of bfgs steps    =  13

     energy   old            =   -4873.1603125451 Ry
     energy   new            =   -4873.1603452615 Ry

     CASE: energy  _new < energy  _old

     new trust radius        =       0.0123233569 bohr
     new conv_thr            =       0.0000001000 Ry

ATOMIC_POSITIONS (crystal)
Cu1      0.166666667   0.166666667   0.412653782    0   0   0
Cu1      0.666666667   0.166666667   0.412653782    0   0   0
Cu1      0.166666667   0.666666667   0.412653782    0   0   0
Cu1      0.666666667   0.666666667   0.412653782    0   0   0
Cu1      0.833333333   0.333333333   0.500000000    0   0   0
Cu1      0.333333333   0.333333333   0.500000000    0   0   0
Cu1      0.833333333   0.833333333   0.500000000    0   0   0
Cu1      0.333333333   0.833333333   0.500000000    0   0   0
Cu1     -0.000352287   0.001540557   0.583884070
Cu1      0.508591203   0.000593316   0.588215681
Cu1     -0.007714339   0.509562627   0.589961331
Cu1      0.502888874   0.495889433   0.586686242
C1       0.320145955   0.334037900   0.645443307
H1       0.385763453   0.468295043   0.670788289
H1       0.288412311   0.191194756   0.674780016

     Writing output data file calc.save
     Check: negative starting charge=   -0.000142
     NEW-OLD atomic charge density approx. for the potential
     Check: negative starting charge=   -0.000142

[...]

     Self-consistent Calculation

[...]

     total energy              =   -4873.16038011 Ry
     Harris-Foulkes estimate   =   -4873.16038010 Ry
     estimated scf accuracy    <       0.00000017 Ry

     iteration #  9     ecut=    36.75 Ry     beta=0.30
     Davidson diagonalization with overlap
     ethr =  7.16E-11,  avg # of iterations =  2.0

[...]

     negative rho (up, down):  1.068E-03 0.000E+00

     Adding external electric field

     Computed dipole along edir(3) :
        Dipole                0.1066 Ry au,          0.2710 Debye
        Dipole field          0.0004 Ry au

        Potential amp.       -0.0314 Ry
        Total length         44.6496 bohr

     End of self-consistent calculation

[...]

          k = 0.0643-0.0742 0.0000 ( 14299 PWs)   bands (ev):

[...]

          k =-0.0964-0.0557 0.0000 ( 14294 PWs)   bands (ev):

  -112.0055-111.9737-111.9348-111.9173-111.8938-111.8623-111.7849-111.6195
  -111.6176-111.6078-111.6023-111.5451 -69.4884 -69.4293 -69.3683 -69.3537
   -69.3497 -69.3399 -69.3335 -69.3323 -69.3283 -69.3173 -69.3073 -69.2956
   -69.2896 -69.2779 -69.2763 -69.2716 -69.2564 -69.2495 -69.1883 -69.1833
   -69.1741 -69.0575 -69.0566 -69.0389 -69.0377 -69.0282 -69.0220 -69.0097
   -69.0068 -68.9748 -68.9699 -68.9622 -68.9615 -68.9600 -68.9573 -68.9282
   -11.7228  -6.2250  -5.8895  -5.5290  -4.8865  -4.0833  -3.7478  -3.6036
    -3.5522  -3.3327  -3.3159  -3.2876  -3.1586  -3.0689  -3.0083  -2.9281
    -2.8460  -2.7870  -2.7464  -2.7061  -2.5892  -2.5803  -2.5470  -2.5265
    -2.4924  -2.4007  -2.3356  -2.2878  -2.2312  -2.1923  -2.1804  -2.0987
    -2.0567  -2.0188  -1.9699  -1.9642  -1.9511  -1.9471  -1.9152  -1.8748
    -1.8580  -1.8223  -1.7845  -1.6630  -1.6385  -1.5960  -1.5692  -1.5530
    -1.5415  -1.4655  -1.4375  -1.3738  -1.3581  -1.3133  -1.2826  -1.2526
    -1.2344  -1.1805  -1.0954  -1.0656  -0.9698  -0.9635  -0.9332  -0.8795
    -0.8174  -0.7874   0.0416   0.1931   0.7461   0.8254   1.3819   1.4697
     2.3515   2.9233   3.8053   4.0503   4.9885   5.1279   5.6999

     the Fermi energy is     0.7238 ev

!    total energy              =   -4873.16038011 Ry
     Harris-Foulkes estimate   =   -4873.16038080 Ry
     estimated scf accuracy    <       0.00000004 Ry

     The total energy is the sum of the following terms:

     one-electron contribution =  -37857.79955583 Ry
     hartree contribution      =   18946.87953399 Ry
     xc contribution           =    -485.29457214 Ry
     ewald contribution        =   14523.08077852 Ry
     electric field correction =       0.00003751 Ry
     smearing contrib. (-TS)   =      -0.02660216 Ry

     convergence has been achieved in   9 iterations

 BEEF-vdW xc energy contributions
           1 :   -429.931779700078
           2 :    389.751886997216
           3 :   -321.693125148402
           4 :    244.468618578230
           5 :   -175.109846387911
           6 :    122.891376628521
           7 :   -87.8665377449549
           8 :    63.9788061050826
           9 :   -44.3384160055469
          10 :    25.4149314136131
          11 :   -8.03680961592897
          12 :   -4.69664696683884
          13 :    10.6253789441345
          14 :   -10.5326120189786
          15 :    7.76772555491573
          16 :   -6.06369844007031
          17 :    7.25626816612873
          18 :   -10.4753999926679
          19 :    13.2061490390745
          20 :   -13.3178365329352
          21 :    10.5935043123607
          22 :   -6.77006767060629
          23 :    4.20079456258873
          24 :   -4.18580336049001
          25 :    6.15285924370744
          26 :   -8.19364727719278
          27 :    8.48852005404154
          28 :   -6.57528360081255
          29 :    3.59252654323814
          30 :   -1.39110542164849
          31 :   -34.4553260707373
          32 :   -23.5656266517200

     Forces acting on atoms (Ry/au):

     negative rho (up, down):  1.068E-03 0.000E+00
     atom    1 type  1   force =     0.00084691    0.00095602    0.00377338
     atom    2 type  1   force =    -0.00071164   -0.00057286    0.00328966
     atom    3 type  1   force =    -0.00126489   -0.00065998    0.00305993
     atom    4 type  1   force =     0.00104761    0.00024646    0.00064557
     atom    5 type  1   force =     0.00218532    0.00571501   -0.00130307
     atom    6 type  1   force =    -0.00325153    0.00043876   -0.01013991
     atom    7 type  1   force =    -0.00373545   -0.00379202   -0.00471806
     atom    8 type  1   force =     0.00513117   -0.00206235    0.00375520
     atom    9 type  1   force =    -0.00032995    0.00020577    0.00063086
     atom   10 type  1   force =    -0.00073680    0.00161898    0.00050794
     atom   11 type  1   force =     0.00126836   -0.00174827    0.00016523
     atom   12 type  1   force =    -0.00047575   -0.00018518   -0.00019796
     atom   13 type  2   force =    -0.00019835   -0.00045708   -0.00040895
     atom   14 type  3   force =     0.00045724    0.00054983    0.00025729
     atom   15 type  3   force =    -0.00023225   -0.00025307    0.00068289

     Total force =     0.003247     Total SCF correction =     0.001021
     SCF correction compared to forces is large: reduce conv_thr to get better values

     entering subroutine stress ...

     negative rho (up, down):  1.068E-03 0.000E+00
          total   stress  (Ry/bohr**3)                   (kbar)     P=  -20.54
  -0.00015744  -0.00000387  -0.00000014        -23.16     -0.57     -0.02
  -0.00000387  -0.00015828  -0.00000037         -0.57    -23.28     -0.05
  -0.00000014  -0.00000037  -0.00010318         -0.02     -0.05    -15.18

     bfgs converged in  15 scf cycles and  14 bfgs steps
     (criteria: energy <  1.0E+00, force <  1.9E-03)

     End of BFGS Geometry Optimization

     Final energy   =   -4873.1603801057 Ry
Begin final coordinates

ATOMIC_POSITIONS (crystal)
Cu1      0.166666667   0.166666667   0.412653782    0   0   0
Cu1      0.666666667   0.166666667   0.412653782    0   0   0
Cu1      0.166666667   0.666666667   0.412653782    0   0   0
Cu1      0.666666667   0.666666667   0.412653782    0   0   0
Cu1      0.833333333   0.333333333   0.500000000    0   0   0
Cu1      0.333333333   0.333333333   0.500000000    0   0   0
Cu1      0.833333333   0.833333333   0.500000000    0   0   0
Cu1      0.333333333   0.833333333   0.500000000    0   0   0
Cu1     -0.000352287   0.001540557   0.583884070
Cu1      0.508591203   0.000593316   0.588215681
Cu1     -0.007714339   0.509562627   0.589961331
Cu1      0.502888874   0.495889433   0.586686242
C1       0.320145955   0.334037900   0.645443307
H1       0.385763453   0.468295043   0.670788289
H1       0.288412311   0.191194756   0.674780016
End final coordinates

     Writing output data file calc.save

     General routines

     Parallel routines

   This run was terminated on:   9:27:41  17Apr2018

   JOB DONE.