     Program PWSCF v.5.1rc2 (svn rev. 11289) starts on  3May2018 at 11:44:12

     Current dimensions of program PWSCF are:
     Max number of different atomic species (ntypx) = 10
     Max number of k-points (npk) =  40000
     Max angular momentum in pseudopotentials (lmaxx) =  3
     Presently stress not available with electric field

     IMPORTANT: XC functional enforced from input :
     Exchange-correlation      = BEEF-VDW ( 1  4 27 13 2)
     Any further DFT definition will be discarded
     Please, verify this is what you really want

     Subspace diagonalization in iterative solution of the eigenvalue problem:
     a serial algorithm will be used

     bravais-lattice index     =            0
     lattice parameter (alat)  =       1.8897  a.u.
     unit-cell volume          =    8507.0471 (a.u.)^3
     number of atoms/cell      =           13
     number of atomic types    =            2
     number of electrons       =       138.00
     number of Kohn-Sham states=           79
     kinetic-energy cutoff     =      36.7493  Ry
     charge density cutoff     =     367.4932  Ry
     convergence threshold     =      1.0E-05
     mixing beta               =       0.3000
     number of iterations used =           10  plain     mixing
     Exchange-correlation      = BEEF-VDW ( 1  4 27 13 2)
     nstep                     =           50

     celldm(1)=   1.889726  celldm(2)=   0.000000  celldm(3)=   0.000000
     celldm(4)=   0.000000  celldm(5)=   0.000000  celldm(6)=   0.000000

     crystal axes: (cart. coord. in units of alat)
               a(1) = (   7.468327   0.000000   0.000000 )
               a(2) = (   3.734164   6.467761   0.000000 )
               a(3) = (   0.000000   0.000000  26.097863 )

     reciprocal axes: (cart. coord. in units 2 pi/alat)
               b(1) = (  0.133899 -0.077307  0.000000 )
               b(2) = (  0.000000  0.154613  0.000000 )
               b(3) = (  0.000000  0.000000  0.038317 )

     PseudoPot. # 1 for La read from file:
     /u/if/mamunm/psp/gbrv1.5pbe/La.UPF
     MD5 check sum: 5937b0c7494ba0601a847275249473aa
     Pseudo is Ultrasoft + core correction, Zval = 11.0
     Generated by new atomic code, or converted to UPF format
     Using radial grid of  995 points,  8 beta functions with:
                l(1) =   0
                l(2) =   0
                l(3) =   1
                l(4) =   1
                l(5) =   2
                l(6) =   2
                l(7) =   3
                l(8) =   3
     Q(r) pseudized with  8 coefficients,  rinner =    1.700   1.700   1.700
                                                       1.700   1.700   1.700
                                                       1.700

     PseudoPot. # 2 for O  read from file:
     /u/if/mamunm/psp/gbrv1.5pbe/O.UPF
     MD5 check sum: 734c27235a0248c51dbae37a1fbe46ec
     Pseudo is Ultrasoft + core correction, Zval =  6.0
     Generated by new atomic code, or converted to UPF format
     Using radial grid of  737 points,  5 beta functions with:
                l(1) =   0
                l(2) =   0
                l(3) =   1
                l(4) =   1
                l(5) =   2
     Q(r) pseudized with  8 coefficients,  rinner =    0.900   0.900   0.900
                                                       0.900   0.900

     vdW kernel table read from file vdW_kernel_table
     MD5 check sum: 095c7af220d748ca6e76c0b4c6cfb241

     atomic species   valence    mass     pseudopotential
        La1           11.00   138.90547     La( 1.00)
        O1             6.00    15.99900     O ( 1.00)

     No symmetry found

   Cartesian axes

     site n.     atom                  positions (alat units)
         1           La1 tau(   1) = (   1.8670818   1.0779602  10.0000000  )
         2           La1 tau(   2) = (   5.6012453   1.0779602  10.0000000  )
         3           La1 tau(   3) = (   3.7341635   4.3118406  10.0000000  )
         4           La1 tau(   4) = (   7.4683270   4.3118406  10.0000000  )
         5           La1 tau(   5) = (   7.4683270   2.1559203  13.0489317  )
         6           La1 tau(   6) = (   3.7341635   2.1559203  13.0489317  )
         7           La1 tau(   7) = (   9.3354088   5.3898008  13.0489317  )
         8           La1 tau(   8) = (   5.6012453   5.3898008  13.0489317  )
         9           La1 tau(   9) = (   0.0000000   0.0000000  16.0978635  )
        10           La1 tau(  10) = (   3.7341635   0.0000000  16.0978635  )
        11           La1 tau(  11) = (   1.8670818   3.2338805  16.0978635  )
        12           La1 tau(  12) = (   5.6012453   3.2338805  16.0978635  )
        13           O1  tau(  13) = (   3.7341635   2.1559203  17.8723635  )

     number of k points=    20  Fermi-Dirac smearing, width (Ry)=  0.0110
                       cart. coord. in units 2pi/alat
        k(    1) = (   0.0000000   0.0000000   0.0000000), wk =   0.0555556
        k(    2) = (   0.0000000   0.0257688   0.0000000), wk =   0.1111111
        k(    3) = (   0.0000000   0.0515377   0.0000000), wk =   0.1111111
        k(    4) = (   0.0000000  -0.0773065   0.0000000), wk =   0.0555556
        k(    5) = (   0.0223165  -0.0128844   0.0000000), wk =   0.1111111
        k(    6) = (   0.0223165   0.0128844   0.0000000), wk =   0.1111111
        k(    7) = (   0.0223165   0.0386533   0.0000000), wk =   0.1111111
        k(    8) = (   0.0223165  -0.0901909   0.0000000), wk =   0.1111111
        k(    9) = (   0.0223165  -0.0644221   0.0000000), wk =   0.1111111
        k(   10) = (   0.0223165  -0.0386533   0.0000000), wk =   0.1111111
        k(   11) = (   0.0446329  -0.0257688   0.0000000), wk =   0.1111111
        k(   12) = (   0.0446329   0.0000000   0.0000000), wk =   0.1111111
        k(   13) = (   0.0446329   0.0257688   0.0000000), wk =   0.1111111
        k(   14) = (   0.0446329  -0.1030753   0.0000000), wk =   0.1111111
        k(   15) = (   0.0446329  -0.0773065   0.0000000), wk =   0.1111111
        k(   16) = (   0.0446329  -0.0515377   0.0000000), wk =   0.1111111
        k(   17) = (  -0.0669494   0.0386533   0.0000000), wk =   0.0555556
        k(   18) = (  -0.0669494   0.0644221   0.0000000), wk =   0.1111111
        k(   19) = (  -0.0669494   0.0901909   0.0000000), wk =   0.1111111
        k(   20) = (  -0.0669494  -0.0386533   0.0000000), wk =   0.0555556

     Largest allocated arrays     est. size (Mb)     dimensions
     Largest temporary arrays     est. size (Mb)     dimensions

     Initial potential from superposition of free atoms
     Check: negative starting charge=   -0.831345

     starting charge  137.61518, renormalised to  138.00000

     negative rho (up, down):  8.337E-01 0.000E+00

     *
     * You are using vdW-DF for exchange-correlation in this calculation.
     * Please cite the following three references that made this development
     * possible:
     *
     *   M. Dion, H. Rydberg, E. Schroder, D. C. Langreth, and
     *   B. I. Lundqvist, Phys. Rev. Lett. 92, 246401 (2004).
     *
     *   T. Thonhauser, V. R. Cooper, S. Li, A. Puzder, P. Hyldgaard, and
     *   D. C. Langreth, Phys. Rev. B 76, 125112 (2007).
     *
     *   G. Roman-Perez and J. M. Soler, Phys. Rev. Lett. 103, 096102 (2009).
     *
     *
     * If you are using vdW-DF2, please also cite:
     *
     *   K. Lee, E. D. Murray, L. Kong, B. I. Lundqvist, and
     *   D. C. Langreth, Phys. Rev. B 82, 081101(R) (2010).
     *
     *
     * If you are calculating the stress with vdW-DF, please also cite:
     *
     *   R. Sabatini, E. Kucukbenli, B. Kolb, T. Thonhauser, and
     *   S. de Gironcoli, J. Phys.: Condens. Matter 24, 424209 (2012).
     *

     Carrying out vdW-DF run using the following parameters:

     Nqs =      20    Nr_points =    1024   r_max =   100.000
     q_mesh =
               0.00001000     0.04494208     0.09755937     0.15916263
               0.23128650     0.31572767     0.41458969     0.53033537
               0.66584808     0.82450364     1.01025438     1.22772762
               1.48234092     1.78043706     2.12944203     2.53805004
               3.01644009     3.57652955     4.23227104     5.00000000

     Gradients computed in reciprocal space

     Adding external electric field

     Computed dipole along edir(3) :
        Dipole               -0.1529 Ry au,         -0.3887 Debye
        Dipole field         -0.0002 Ry au

        Potential amp.        0.0217 Ry
        Total length         48.0849 bohr

     Starting wfc are  244 randomized atomic wfcs

     Self-consistent Calculation

     iteration #  1     ecut=    36.75 Ry     beta=0.30
     Davidson diagonalization with overlap
     ethr =  1.00E-02,  avg # of iterations =  2.0

[...]

     total energy              =   -1278.18864991 Ry
     Harris-Foulkes estimate   =   -1281.70808424 Ry
     estimated scf accuracy    <       7.43068227 Ry

[...]

     iteration # 13     ecut=    36.75 Ry     beta=0.30
     Davidson diagonalization with overlap
     c_bands:  1 eigenvalues not converged
     c_bands:  1 eigenvalues not converged
     ethr =  2.32E-05,  avg # of iterations = 13.0

[...]

     End of self-consistent calculation

          k = 0.0000 0.0000 0.0000 ( 31997 PWs)   bands (ev):

   -31.8255 -31.7911 -31.6604 -31.6589 -31.6587 -31.6487 -31.5697 -31.5694
   -31.3167 -31.1980 -31.1938 -31.1936 -15.9359 -15.9012 -15.9011 -15.8497
   -15.8325 -15.8325 -15.7545 -15.6513 -15.6178 -15.6177 -15.4796 -15.3460
   -15.2417 -15.2417 -15.1375 -15.0720 -15.0719 -15.0503 -15.0503 -15.0503
   -15.0158 -15.0158 -14.9939 -14.7958 -14.7958 -14.7348 -14.7347 -14.7210
   -14.6931 -14.6924 -14.6923 -14.5958 -14.5919 -14.5918 -14.3665 -14.3665
   -13.8824  -1.2224  -0.6274  -0.3906  -0.3722  -0.3722  -0.1189  -0.0860
    -0.0860   0.1212   0.2310   0.3142   0.3142   0.5235   0.5235   0.5478
     0.5725   0.5726   0.9140   1.4260   1.4261   1.5112   1.7678   2.1325
     2.1325   2.3075   2.4211   2.5212   2.6816   2.7790   2.7790

[...]

          k =-0.0669 0.0387 0.0000 ( 31970 PWs)   bands (ev):

[...]

     the Fermi energy is     1.5704 ev

!    total energy              =   -1280.83036754 Ry
     Harris-Foulkes estimate   =   -1280.83038274 Ry
     estimated scf accuracy    <       0.00000410 Ry

     The total energy is the sum of the following terms:

     one-electron contribution =   -4829.79853819 Ry
     hartree contribution      =    2428.50404612 Ry
     xc contribution           =    -616.03074392 Ry
     ewald contribution        =    1736.61902570 Ry
     electric field correction =       0.00038030 Ry
     smearing contrib. (-TS)   =      -0.12453755 Ry

     convergence has been achieved in  20 iterations

 BEEF-vdW xc energy contributions
           1 :   -545.661433136435
           2 :    501.710760674751
           3 :   -424.075119705262
           4 :    329.413821937535
           5 :   -235.327042708295
           6 :    155.670698474852
           7 :   -97.9842747980198
           8 :    63.2259586128241
           9 :   -47.2807905378102
          10 :    43.3648841646303
          11 :   -44.4331605378933
          12 :    44.9042880645908
          13 :   -41.4479504109079
          14 :    33.0027786454966
          15 :   -20.3894339910211
          16 :    5.76524558129222
          17 :    8.03007649168410
          18 :   -18.2493196280059
          19 :    23.0321096652381
          20 :   -22.0028700860565
          21 :    16.4334519990333
          22 :   -8.84529170929147
          23 :    2.13330468280071
          24 :    1.47096387821045
          25 :   -1.16748710743502
          26 :   -2.24815092968799
          27 :    6.87947918925499
          28 :   -10.6310883326192
          29 :    12.0913226564481
          30 :   -11.0175043659998
          31 :   -46.4735380568030
          32 :   -33.3036287089458

     Forces acting on atoms (Ry/au):

     negative rho (up, down):  5.849E-01 0.000E+00
     atom    1 type  1   force =    -0.00070390   -0.00041432    0.00397991
     atom    2 type  1   force =     0.00070722   -0.00039986    0.00396156
     atom    3 type  1   force =     0.00000691    0.00081598    0.00401209
     atom    4 type  1   force =    -0.00000061    0.00000460    0.00542607
     atom    5 type  1   force =     0.00004441    0.00029678   -0.00519273
     atom    6 type  1   force =    -0.00004071    0.00007191   -0.01058003
     atom    7 type  1   force =    -0.00019453   -0.00020290   -0.00522683
     atom    8 type  1   force =     0.00019814   -0.00016366   -0.00527789
     atom    9 type  1   force =    -0.00000679    0.00001644   -0.00351625
     atom   10 type  1   force =     0.00001157    0.05701744    0.04732641
     atom   11 type  1   force =     0.04935638   -0.02850879    0.04723880
     atom   12 type  1   force =    -0.04938738   -0.02853274    0.04727998
     atom   13 type  2   force =     0.00000928   -0.00000086   -0.12943107

     Total force =     0.182276     Total SCF correction =     0.003160

     entering subroutine stress ...

     negative rho (up, down):  5.849E-01 0.000E+00
          total   stress  (Ry/bohr**3)                   (kbar)     P=   -5.26
  -0.00002465   0.00000000  -0.00000000         -3.63      0.00     -0.00
   0.00000000  -0.00002465  -0.00000000          0.00     -3.63     -0.00
  -0.00000000  -0.00000000  -0.00005794         -0.00     -0.00     -8.52

     BFGS Geometry Optimization

     number of scf cycles    =   1
     number of bfgs steps    =   0

     energy   new            =   -1280.8303675428 Ry

     new trust radius        =       0.1294310743 bohr
     new conv_thr            =       0.0000099958 Ry

ATOMIC_POSITIONS (crystal)
La1      0.166666667   0.166666667   0.383173129    0   0   0
La1      0.666666667   0.166666667   0.383173129    0   0   0
La1      0.166666667   0.666666667   0.383173129    0   0   0
La1      0.666666667   0.666666667   0.383173129    0   0   0
La1      0.833333333   0.333333333   0.500000000    0   0   0
La1      0.333333333   0.333333333   0.500000000    0   0   0
La1      0.833333333   0.833333333   0.500000000    0   0   0
La1      0.333333333   0.833333333   0.500000000    0   0   0
La1     -0.000001154   0.000001345   0.616755573
La1      0.497668302   0.004665035   0.617786492
La1      0.004663467   0.497667477   0.617784716
La1      0.497667840   0.497665517   0.617785551
O1       0.333334026   0.333333263   0.682196514

     Writing output data file calc.save
     Check: negative starting charge=   -0.831345
     NEW-OLD atomic charge density approx. for the potential
     Check: negative starting charge=   -0.832738

[...]

     energy   old            =   -1280.8303675428 Ry
     energy   new            =   -1280.8628639075 Ry

     CASE: energy  _new < energy  _old

     WARNING: bfgs curvature condition failed, Theta= 0.839
     new trust radius        =       0.1941466114 bohr
     new conv_thr            =       0.0000001000 Ry

[...]

     WARNING: bfgs curvature condition failed, Theta= 0.856
     new trust radius        =       0.0334124247 bohr
     new conv_thr            =       0.0000001000 Ry

[...]

     Threshold (ethr) on eigenvalues was too large:
     Diagonalizing with lowered threshold

     Davidson diagonalization with overlap
     ethr =  5.12E-08,  avg # of iterations =  7.0

[...]

     iteration # 13     ecut=    36.75 Ry     beta=0.30
     Davidson diagonalization with overlap
     c_bands:  1 eigenvalues not converged
     ethr =  1.04E-10,  avg # of iterations = 14.6

[...]

     Threshold (ethr) on eigenvalues was too large:
     Diagonalizing with lowered threshold

     Davidson diagonalization with overlap
     ethr =  2.89E-08,  avg # of iterations =  7.2

[...]

     Total force =     0.003473     Total SCF correction =     0.000493
     SCF correction compared to forces is large: reduce conv_thr to get better values

[...]

     Total force =     0.003174     Total SCF correction =     0.000668
     SCF correction compared to forces is large: reduce conv_thr to get better values

[...]

     number of scf cycles    =  25
     number of bfgs steps    =  24

     energy   old            =   -1280.9845579770 Ry
     energy   new            =   -1280.9846226430 Ry

     CASE: energy  _new < energy  _old

     new trust radius        =       0.0380533492 bohr
     new conv_thr            =       0.0000001000 Ry

ATOMIC_POSITIONS (crystal)
La1      0.166666667   0.166666667   0.383173129    0   0   0
La1      0.666666667   0.166666667   0.383173129    0   0   0
La1      0.166666667   0.666666667   0.383173129    0   0   0
La1      0.666666667   0.666666667   0.383173129    0   0   0
La1      0.833333333   0.333333333   0.500000000    0   0   0
La1      0.333333333   0.333333333   0.500000000    0   0   0
La1      0.833333333   0.833333333   0.500000000    0   0   0
La1      0.333333333   0.833333333   0.500000000    0   0   0
La1     -0.000001881  -0.000000252   0.610330062
La1      0.501272353  -0.002548734   0.624120622
La1     -0.002509019   0.501254239   0.624122671
La1      0.501272220   0.501275596   0.624121151
O1       0.333298566   0.333349942   0.648927871

     Writing output data file calc.save
     Check: negative starting charge=   -0.833078
     NEW-OLD atomic charge density approx. for the potential
     Check: negative starting charge=   -0.832601

[...]

     Self-consistent Calculation

[...]

     total energy              =   -1280.98467343 Ry
     Harris-Foulkes estimate   =   -1280.98467343 Ry
     estimated scf accuracy    <       0.00000015 Ry

     iteration # 12     ecut=    36.75 Ry     beta=0.30
     Davidson diagonalization with overlap
     ethr =  1.12E-10,  avg # of iterations =  2.2

[...]

     negative rho (up, down):  5.837E-01 0.000E+00

     Adding external electric field

     Computed dipole along edir(3) :
        Dipole               -0.0354 Ry au,         -0.0901 Debye
        Dipole field         -0.0001 Ry au

        Potential amp.        0.0050 Ry
        Total length         48.0849 bohr

     End of self-consistent calculation

[...]

          k = 0.0446-0.0515 0.0000 ( 31991 PWs)   bands (ev):

[...]

          k =-0.0669-0.0387 0.0000 ( 31970 PWs)   bands (ev):

   -31.3671 -31.3640 -31.3551 -31.3168 -31.2998 -31.2964 -31.2657 -31.2032
   -31.0309 -30.9219 -30.8852 -30.8625 -18.4555 -15.3324 -15.3316 -15.3117
   -15.2341 -15.2298 -15.2186 -15.1396 -15.1388 -15.0751 -15.0598 -15.0194
   -15.0130 -14.9999 -14.9803 -14.9681 -14.9482 -14.8914 -14.8877 -14.8319
   -14.7215 -14.6581 -14.6453 -14.6004 -14.5693 -14.5630 -14.5435 -14.5294
   -14.4985 -14.4500 -14.4374 -14.3259 -14.3244 -14.2780 -14.2063 -14.1458
   -13.1514  -2.9149  -2.6450  -2.6379   0.3200   0.3765   0.7601   0.8865
     1.0683   1.1280   1.1516   1.2063   1.2069   1.4109   1.5468   1.6302
     1.7236   1.7443   1.7469   1.9208   1.9795   2.0520   2.0949   2.1179
     2.1433   2.2461   2.2638   2.4141   2.4307   2.4701   2.5001

     the Fermi energy is     1.9191 ev

!    total energy              =   -1280.98467341 Ry
     Harris-Foulkes estimate   =   -1280.98467354 Ry
     estimated scf accuracy    <       0.00000004 Ry

     The total energy is the sum of the following terms:

     one-electron contribution =   -4887.59443431 Ry
     hartree contribution      =    2458.30117578 Ry
     xc contribution           =    -616.29125457 Ry
     ewald contribution        =    1764.72679155 Ry
     electric field correction =       0.00000186 Ry
     smearing contrib. (-TS)   =      -0.12695372 Ry

     convergence has been achieved in  12 iterations

 BEEF-vdW xc energy contributions
           1 :   -545.938569191260
           2 :    502.079956759980
           3 :   -424.502356112181
           4 :    329.778644386942
           5 :   -235.535702715769
           6 :    155.700487112521
           7 :   -97.8534065961405
           8 :    62.9592660542847
           9 :   -46.9150422058570
          10 :    42.9730697722825
          11 :   -44.1202509627381
          12 :    44.7604388479720
          13 :   -41.4932894706724
          14 :    33.1678364490172
          15 :   -20.5464571472327
          16 :    5.79219336693882
          17 :    8.18537271001549
          18 :   -18.5402950473373
          19 :    23.3427709650118
          20 :   -22.2206308406186
          21 :    16.5156140468605
          22 :   -8.83404886288963
          23 :    2.11462364074225
          24 :    1.43061408705580
          25 :   -1.06256215406825
          26 :   -2.36754355473602
          27 :    6.95118500284389
          28 :   -10.6296689053130
          29 :    12.0476380750999
          30 :   -10.9953863345047
          31 :   -46.4867437848727
          32 :   -33.3328201881950

     Forces acting on atoms (Ry/au):

     negative rho (up, down):  5.837E-01 0.000E+00
     atom    1 type  1   force =     0.00067208    0.00038859    0.00507791
     atom    2 type  1   force =    -0.00067259    0.00038818    0.00507813
     atom    3 type  1   force =    -0.00000047   -0.00077633    0.00507812
     atom    4 type  1   force =     0.00000002   -0.00000002    0.00337280
     atom    5 type  1   force =    -0.00000086    0.00279131   -0.00401453
     atom    6 type  1   force =     0.00000387   -0.00000197   -0.00630431
     atom    7 type  1   force =    -0.00241742   -0.00139501   -0.00401519
     atom    8 type  1   force =     0.00241658   -0.00139561   -0.00401344
     atom    9 type  1   force =     0.00000507   -0.00000228    0.00041465
     atom   10 type  1   force =     0.00000519    0.00132811    0.00040673
     atom   11 type  1   force =     0.00105762   -0.00061074    0.00039572
     atom   12 type  1   force =    -0.00114777   -0.00066927    0.00040656
     atom   13 type  2   force =     0.00007868   -0.00004497   -0.00188315

     Total force =     0.003039     Total SCF correction =     0.000221

     entering subroutine stress ...

     negative rho (up, down):  5.837E-01 0.000E+00
          total   stress  (Ry/bohr**3)                   (kbar)     P=    0.57
   0.00001311  -0.00000002   0.00000001          1.93     -0.00      0.00
  -0.00000002   0.00001309  -0.00000001         -0.00      1.93     -0.00
   0.00000001  -0.00000001  -0.00001463          0.00     -0.00     -2.15

     bfgs converged in  26 scf cycles and  25 bfgs steps
     (criteria: energy <  1.0E+00, force <  1.9E-03)

     End of BFGS Geometry Optimization

     Final energy   =   -1280.9846734064 Ry
Begin final coordinates

ATOMIC_POSITIONS (crystal)
La1      0.166666667   0.166666667   0.383173129    0   0   0
La1      0.666666667   0.166666667   0.383173129    0   0   0
La1      0.166666667   0.666666667   0.383173129    0   0   0
La1      0.666666667   0.666666667   0.383173129    0   0   0
La1      0.833333333   0.333333333   0.500000000    0   0   0
La1      0.333333333   0.333333333   0.500000000    0   0   0
La1      0.833333333   0.833333333   0.500000000    0   0   0
La1      0.333333333   0.833333333   0.500000000    0   0   0
La1     -0.000001881  -0.000000252   0.610330062
La1      0.501272353  -0.002548734   0.624120622
La1     -0.002509019   0.501254239   0.624122671
La1      0.501272220   0.501275596   0.624121151
O1       0.333298566   0.333349942   0.648927871
End final coordinates

     Writing output data file calc.save

     General routines

     Parallel routines

   This run was terminated on:  21:36:56   3May2018

   JOB DONE.
Job  /afs/slac/g/suncat/bin/suncat-tsmpirun -x LD_LIBRARY_PATH -wdir /scratch/qe749788_Mqs9D pw.x -npool 4 -in pw.inp

TID   HOST_NAME   COMMAND_LINE            STATUS            TERMINATION_TIME
00000 suncat0077 pw.x -npool 4 -i  Done                     05/03/2018 21:36:56
00001 suncat0077 pw.x -npool 4 -i  Done                     05/03/2018 21:36:56
00002 suncat0077 pw.x -npool 4 -i  Done                     05/03/2018 21:36:56
00003 suncat0077 pw.x -npool 4 -i  Done                     05/03/2018 21:36:56
00004 suncat0077 pw.x -npool 4 -i  Done                     05/03/2018 21:36:56
00005 suncat0077 pw.x -npool 4 -i  Done                     05/03/2018 21:36:56
00006 suncat0077 pw.x -npool 4 -i  Done                     05/03/2018 21:36:56
00007 suncat0077 pw.x -npool 4 -i  Done                     05/03/2018 21:36:56
00008 suncat0074 pw.x -npool 4 -i  Done                     05/03/2018 21:36:56
00009 suncat0074 pw.x -npool 4 -i  Done                     05/03/2018 21:36:56
00010 suncat0074 pw.x -npool 4 -i  Done                     05/03/2018 21:36:56
00011 suncat0074 pw.x -npool 4 -i  Done                     05/03/2018 21:36:56
00012 suncat0074 pw.x -npool 4 -i  Done                     05/03/2018 21:36:56
00013 suncat0074 pw.x -npool 4 -i  Done                     05/03/2018 21:36:56
00014 suncat0074 pw.x -npool 4 -i  Done                     05/03/2018 21:36:56
00015 suncat0074 pw.x -npool 4 -i  Done                     05/03/2018 21:36:56
00016 suncat0251 pw.x -npool 4 -i  Done                     05/03/2018 21:36:56
00017 suncat0251 pw.x -npool 4 -i  Done                     05/03/2018 21:36:56
00018 suncat0251 pw.x -npool 4 -i  Done                     05/03/2018 21:36:56
00019 suncat0251 pw.x -npool 4 -i  Done                     05/03/2018 21:36:56
00020 suncat0251 pw.x -npool 4 -i  Done                     05/03/2018 21:36:56
00021 suncat0251 pw.x -npool 4 -i  Done                     05/03/2018 21:36:56
00022 suncat0251 pw.x -npool 4 -i  Done                     05/03/2018 21:36:56
00023 suncat0251 pw.x -npool 4 -i  Done                     05/03/2018 21:36:56
00024 suncat0249 pw.x -npool 4 -i  Done                     05/03/2018 21:36:56
00025 suncat0249 pw.x -npool 4 -i  Done                     05/03/2018 21:36:56
00026 suncat0249 pw.x -npool 4 -i  Done                     05/03/2018 21:36:56
00027 suncat0249 pw.x -npool 4 -i  Done                     05/03/2018 21:36:56
00028 suncat0249 pw.x -npool 4 -i  Done                     05/03/2018 21:36:56
00029 suncat0249 pw.x -npool 4 -i  Done                     05/03/2018 21:36:56
00030 suncat0249 pw.x -npool 4 -i  Done                     05/03/2018 21:36:56
00031 suncat0249 pw.x -npool 4 -i  Done                     05/03/2018 21:36:56