     Program PWSCF v.5.1rc2 (svn rev. 11289) starts on 21Apr2018 at 19:36:37

     Current dimensions of program PWSCF are:
     Max number of different atomic species (ntypx) = 10
     Max number of k-points (npk) =  40000
     Max angular momentum in pseudopotentials (lmaxx) =  3
     Presently stress not available with electric field

     IMPORTANT: XC functional enforced from input :
     Exchange-correlation      = BEEF-VDW ( 1  4 27 13 2)
     Any further DFT definition will be discarded
     Please, verify this is what you really want

     Subspace diagonalization in iterative solution of the eigenvalue problem:
     a serial algorithm will be used

     bravais-lattice index     =            0
     lattice parameter (alat)  =       1.8897  a.u.
     unit-cell volume          =    4569.9960 (a.u.)^3
     number of atoms/cell      =           14
     number of atomic types    =            3
     number of electrons       =       197.00
     number of Kohn-Sham states=          108
     kinetic-energy cutoff     =      36.7493  Ry
     charge density cutoff     =     367.4932  Ry
     convergence threshold     =      1.0E-05
     mixing beta               =       0.3000
     number of iterations used =           10  plain     mixing
     Exchange-correlation      = BEEF-VDW ( 1  4 27 13 2)
     nstep                     =           50

     celldm(1)=   1.889726  celldm(2)=   0.000000  celldm(3)=   0.000000
     celldm(4)=   0.000000  celldm(5)=   0.000000  celldm(6)=   0.000000

     crystal axes: (cart. coord. in units of alat)
               a(1) = (   5.637663   0.000000   0.000000 )
               a(2) = (   2.818831   4.882359   0.000000 )
               a(3) = (   0.000000   0.000000  24.603132 )

     reciprocal axes: (cart. coord. in units 2 pi/alat)
               b(1) = (  0.177378 -0.102410  0.000000 )
               b(2) = (  0.000000  0.204819  0.000000 )
               b(3) = (  0.000000  0.000000  0.040645 )

     PseudoPot. # 1 for Pd read from file:
     /u/if/mamunm/psp/gbrv1.5pbe/Pd.UPF
     MD5 check sum: 2d733d2bc2cbfd217af676df1668a4bc
     Pseudo is Ultrasoft + core correction, Zval = 16.0
     Generated by new atomic code, or converted to UPF format
     Using radial grid of  887 points,  6 beta functions with:
                l(1) =   0
                l(2) =   0
                l(3) =   1
                l(4) =   1
                l(5) =   2
                l(6) =   2
     Q(r) pseudized with  8 coefficients,  rinner =    1.130   1.130   1.130
                                                       1.130   1.130

     PseudoPot. # 2 for C  read from file:
     /u/if/mamunm/psp/gbrv1.5pbe/C.UPF
     MD5 check sum: d1aef80898a10debaa0f26306b886e00
     Pseudo is Ultrasoft + core correction, Zval =  4.0
     Generated by new atomic code, or converted to UPF format
     Using radial grid of  721 points,  4 beta functions with:
                l(1) =   0
                l(2) =   0
                l(3) =   1
                l(4) =   1
     Q(r) pseudized with  8 coefficients,  rinner =    1.100   1.100   1.100

     PseudoPot. # 3 for H  read from file:
     /u/if/mamunm/psp/gbrv1.5pbe/H.UPF
     MD5 check sum: 761ae9a214b05c3daf00ab9f6b793d6f
     Pseudo is Ultrasoft, Zval =  1.0
     Generated by new atomic code, or converted to UPF format
     Using radial grid of  615 points,  2 beta functions with:
                l(1) =   0
                l(2) =   0
     Q(r) pseudized with  8 coefficients,  rinner =    0.700

     vdW kernel table read from file vdW_kernel_table
     MD5 check sum: 095c7af220d748ca6e76c0b4c6cfb241

     atomic species   valence    mass     pseudopotential
        Pd1           16.00   106.42000     Pd( 1.00)
        C1             4.00    12.01100     C ( 1.00)
        H1             1.00     1.00800     H ( 1.00)

     No symmetry found

   Cartesian axes

     site n.     atom                  positions (alat units)
         1           Pd1 tau(   1) = (   1.4094157   0.8137265  10.0000000  )
         2           Pd1 tau(   2) = (   4.2282471   0.8137265  10.0000000  )
         3           Pd1 tau(   3) = (   2.8188314   3.2549061  10.0000000  )
         4           Pd1 tau(   4) = (   5.6376627   3.2549061  10.0000000  )
         5           Pd1 tau(   5) = (   5.6376627   1.6274531  12.3015662  )
         6           Pd1 tau(   6) = (   2.8188314   1.6274531  12.3015662  )
         7           Pd1 tau(   7) = (   7.0470784   4.0686326  12.3015662  )
         8           Pd1 tau(   8) = (   4.2282471   4.0686326  12.3015662  )
         9           Pd1 tau(   9) = (   0.0000000   0.0000000  14.6031324  )
        10           Pd1 tau(  10) = (   2.8188314   0.0000000  14.6031324  )
        11           Pd1 tau(  11) = (   1.4094157   2.4411796  14.6031324  )
        12           Pd1 tau(  12) = (   4.2282471   2.4411796  14.6031324  )
        13           C1  tau(  13) = (   0.0000000   0.0000000  16.4306324  )
        14           H1  tau(  14) = (   0.0000000   0.0000000  17.5306324  )

     number of k points=    20  Fermi-Dirac smearing, width (Ry)=  0.0110
                       cart. coord. in units 2pi/alat
        k(    1) = (   0.0000000   0.0000000   0.0000000), wk =   0.0555556
        k(    2) = (   0.0000000   0.0341365   0.0000000), wk =   0.1111111
        k(    3) = (   0.0000000   0.0682730   0.0000000), wk =   0.1111111
        k(    4) = (   0.0000000  -0.1024095   0.0000000), wk =   0.0555556
        k(    5) = (   0.0295631  -0.0170683   0.0000000), wk =   0.1111111
        k(    6) = (   0.0295631   0.0170683   0.0000000), wk =   0.1111111
        k(    7) = (   0.0295631   0.0512048   0.0000000), wk =   0.1111111
        k(    8) = (   0.0295631  -0.1194778   0.0000000), wk =   0.1111111
        k(    9) = (   0.0295631  -0.0853413   0.0000000), wk =   0.1111111
        k(   10) = (   0.0295631  -0.0512048   0.0000000), wk =   0.1111111
        k(   11) = (   0.0591262  -0.0341365   0.0000000), wk =   0.1111111
        k(   12) = (   0.0591262  -0.0000000   0.0000000), wk =   0.1111111
        k(   13) = (   0.0591262   0.0341365   0.0000000), wk =   0.1111111
        k(   14) = (   0.0591262  -0.1365460   0.0000000), wk =   0.1111111
        k(   15) = (   0.0591262  -0.1024095   0.0000000), wk =   0.1111111
        k(   16) = (   0.0591262  -0.0682730   0.0000000), wk =   0.1111111
        k(   17) = (  -0.0886892   0.0512048   0.0000000), wk =   0.0555556
        k(   18) = (  -0.0886892   0.0853413   0.0000000), wk =   0.1111111
        k(   19) = (  -0.0886892   0.1194778   0.0000000), wk =   0.1111111
        k(   20) = (  -0.0886892  -0.0512048   0.0000000), wk =   0.0555556

     Largest allocated arrays     est. size (Mb)     dimensions
     Largest temporary arrays     est. size (Mb)     dimensions

     Initial potential from superposition of free atoms
     Check: negative starting charge=   -0.903935

     starting charge  190.99987, renormalised to  197.00000

     negative rho (up, down):  9.323E-01 0.000E+00

     *
     * You are using vdW-DF for exchange-correlation in this calculation.
     * Please cite the following three references that made this development
     * possible:
     *
     *   M. Dion, H. Rydberg, E. Schroder, D. C. Langreth, and
     *   B. I. Lundqvist, Phys. Rev. Lett. 92, 246401 (2004).
     *
     *   T. Thonhauser, V. R. Cooper, S. Li, A. Puzder, P. Hyldgaard, and
     *   D. C. Langreth, Phys. Rev. B 76, 125112 (2007).
     *
     *   G. Roman-Perez and J. M. Soler, Phys. Rev. Lett. 103, 096102 (2009).
     *
     *
     * If you are using vdW-DF2, please also cite:
     *
     *   K. Lee, E. D. Murray, L. Kong, B. I. Lundqvist, and
     *   D. C. Langreth, Phys. Rev. B 82, 081101(R) (2010).
     *
     *
     * If you are calculating the stress with vdW-DF, please also cite:
     *
     *   R. Sabatini, E. Kucukbenli, B. Kolb, T. Thonhauser, and
     *   S. de Gironcoli, J. Phys.: Condens. Matter 24, 424209 (2012).
     *

     Carrying out vdW-DF run using the following parameters:

     Nqs =      20    Nr_points =    1024   r_max =   100.000
     q_mesh =
               0.00001000     0.04494208     0.09755937     0.15916263
               0.23128650     0.31572767     0.41458969     0.53033537
               0.66584808     0.82450364     1.01025438     1.22772762
               1.48234092     1.78043706     2.12944203     2.53805004
               3.01644009     3.57652955     4.23227104     5.00000000

     Gradients computed in reciprocal space

     Adding external electric field

     Computed dipole along edir(3) :
        Dipole               -1.2905 Ry au,         -3.2801 Debye
        Dipole field         -0.0035 Ry au

        Potential amp.        0.3217 Ry
        Total length         45.3309 bohr

     Starting wfc are  149 randomized atomic wfcs

     Self-consistent Calculation

     iteration #  1     ecut=    36.75 Ry     beta=0.30
     Davidson diagonalization with overlap
     ethr =  1.00E-02,  avg # of iterations =  3.6

[...]

     total energy              =   -2377.84521748 Ry
     Harris-Foulkes estimate   =   -2413.58350714 Ry
     estimated scf accuracy    <      75.62229513 Ry

[...]

     End of self-consistent calculation

          k = 0.0000 0.0000 0.0000 ( 17231 PWs)   bands (ev):

   -50.2962 -49.5812 -49.5812 -48.5529 -48.5105 -48.5104 -48.4519 -48.4280
   -48.4280 -48.3632 -48.3505 -48.3504 -48.3428 -48.2718 -48.2696 -48.2696
   -48.2445 -48.2445 -48.2355 -48.1556 -48.1556 -48.0976 -48.0708 -48.0708
   -48.0465 -48.0464 -48.0464 -48.0119 -48.0119 -47.9579 -47.9349 -47.9348
   -47.9340 -47.9244 -47.9243 -47.8507 -10.1797  -5.3206  -4.2977  -3.3183
    -3.3183  -3.3036  -3.0724  -3.0724  -3.0242  -2.9980  -2.8364  -2.8363
    -2.7838  -2.6174  -2.5611  -2.5611  -2.4655  -2.2344  -2.2344  -1.5076
    -1.3103  -1.3103  -1.2208  -1.0674  -1.0674  -1.0666  -1.0086  -1.0086
    -0.8321  -0.8321  -0.7283  -0.7283  -0.7161  -0.4654  -0.3150  -0.3150
    -0.0449  -0.0449   0.2566   0.2990   0.2990   0.3386   0.3525   0.3525
     0.5582   0.6691   0.6691   1.0199   1.0200   1.1076   1.1076   1.1111
     1.1650   1.1944   1.1944   1.2600   1.2600   1.3676   1.4046   1.4046
     1.5804   1.5859   1.5859   1.6187   1.6288   1.6288   2.3540   3.5384
     3.7994   3.9495   3.9496   4.9303

[...]

          k =-0.0887 0.0512 0.0000 ( 17240 PWs)   bands (ev):

[...]

     the Fermi energy is     1.3870 ev

!    total energy              =   -2409.97192065 Ry
     Harris-Foulkes estimate   =   -2409.97190943 Ry
     estimated scf accuracy    <       0.00000466 Ry

     The total energy is the sum of the following terms:

     one-electron contribution =  -20447.36370972 Ry
     hartree contribution      =   10276.53212435 Ry
     xc contribution           =    -394.29558237 Ry
     ewald contribution        =    8155.27646388 Ry
     electric field correction =       0.00022914 Ry
     smearing contrib. (-TS)   =      -0.12144593 Ry

     convergence has been achieved in  22 iterations

 BEEF-vdW xc energy contributions
           1 :   -343.166316375001
           2 :    313.459062969011
           3 :   -262.842486365921
           4 :    204.974526730976
           5 :   -153.014601876339
           6 :    115.311886337436
           7 :   -93.6243658081611
           8 :    84.1533473432204
           9 :   -80.5134001657976
          10 :    77.0409492597498
          11 :   -70.9533278616915
          12 :    62.6315922568102
          13 :   -54.3262484898103
          14 :    48.2826008893887
          15 :   -45.3704204359688
          16 :    44.8079519124241
          17 :   -44.8792432821788
          18 :    44.0407539052285
          19 :   -41.7273140946105
          20 :    38.4549105969475
          21 :   -35.2914135040178
          22 :    33.1099377753122
          23 :   -32.0937963729918
          24 :    31.7359118207109
          25 :   -31.2537743373323
          26 :    30.1076149348053
          27 :   -28.2971874226665
          28 :    26.2860819832415
          29 :   -24.6465887891752
          30 :    23.6763175781236
          31 :   -33.5565164197973
          32 :   -24.7747091217933

     Forces acting on atoms (Ry/au):

     negative rho (up, down):  9.424E-01 0.000E+00
     atom    1 type  1   force =     0.00033621    0.00019212   -0.00023960
     atom    2 type  1   force =    -0.00033613    0.00018957   -0.00024242
     atom    3 type  1   force =    -0.00000086   -0.00038444   -0.00022429
     atom    4 type  1   force =     0.00000107    0.00000792   -0.00620980
     atom    5 type  1   force =     0.00000191   -0.00201545    0.00302189
     atom    6 type  1   force =    -0.00000126   -0.00000603   -0.00127231
     atom    7 type  1   force =     0.00174589    0.00100935    0.00303099
     atom    8 type  1   force =    -0.00174603    0.00101263    0.00302742
     atom    9 type  1   force =    -0.00000007   -0.00000617    0.02927648
     atom   10 type  1   force =     0.00000087   -0.00130813    0.00530658
     atom   11 type  1   force =    -0.00113308    0.00065585    0.00530690
     atom   12 type  1   force =     0.00113090    0.00065406    0.00531067
     atom   13 type  2   force =     0.00000053   -0.00000024   -0.03905448
     atom   14 type  3   force =     0.00000005   -0.00000105   -0.00703804

     Total force =     0.050215     Total SCF correction =     0.007761
     SCF correction compared to forces is large: reduce conv_thr to get better values

     entering subroutine stress ...

     negative rho (up, down):  9.424E-01 0.000E+00
          total   stress  (Ry/bohr**3)                   (kbar)     P=   -9.68
  -0.00007624   0.00000000  -0.00000000        -11.22      0.00     -0.00
   0.00000000  -0.00007625   0.00000000          0.00    -11.22      0.00
  -0.00000000   0.00000000  -0.00004485         -0.00      0.00     -6.60

     BFGS Geometry Optimization

     number of scf cycles    =   1
     number of bfgs steps    =   0

     energy   new            =   -2409.9719206452 Ry

     new trust radius        =       0.0390544766 bohr
     new conv_thr            =       0.0000099958 Ry

ATOMIC_POSITIONS (crystal)
Pd1      0.166666667   0.166666667   0.406452311    0   0   0
Pd1      0.666666667   0.166666667   0.406452311    0   0   0
Pd1      0.166666667   0.666666667   0.406452311    0   0   0
Pd1      0.666666667   0.666666667   0.406452311    0   0   0
Pd1      0.833333333   0.333333333   0.500000000    0   0   0
Pd1      0.333333333   0.333333333   0.500000000    0   0   0
Pd1      0.833333333   0.833333333   0.500000000    0   0   0
Pd1      0.333333333   0.833333333   0.500000000    0   0   0
Pd1      0.000000328  -0.000000668   0.594177383
Pd1      0.500070973  -0.000141783   0.593661826
Pd1     -0.000141899   0.500071085   0.593661833
Pd1      0.500070706   0.500070891   0.593661914
C1       0.000000062  -0.000000026   0.666986845
H1       0.000000061  -0.000000114   0.712385225

     Writing output data file calc.save
     Check: negative starting charge=   -0.903935
     NEW-OLD atomic charge density approx. for the potential
     Check: negative starting charge=   -0.903683

[...]

     energy   old            =   -2409.9719206452 Ry
     energy   new            =   -2409.9731072246 Ry

     CASE: energy  _new < energy  _old

[...]

     Total force =     0.015193     Total SCF correction =     0.000279

[...]

     Total force =     0.004405     Total SCF correction =     0.000284

[...]

     number of scf cycles    =  13
     number of bfgs steps    =  12

     energy   old            =   -2409.9767056586 Ry
     energy   new            =   -2409.9767499406 Ry

     CASE: energy  _new < energy  _old

     new trust radius        =       0.0122957300 bohr
     new conv_thr            =       0.0000001000 Ry

ATOMIC_POSITIONS (crystal)
Pd1      0.166666667   0.166666667   0.406452311    0   0   0
Pd1      0.666666667   0.166666667   0.406452311    0   0   0
Pd1      0.166666667   0.666666667   0.406452311    0   0   0
Pd1      0.666666667   0.666666667   0.406452311    0   0   0
Pd1      0.833333333   0.333333333   0.500000000    0   0   0
Pd1      0.333333333   0.333333333   0.500000000    0   0   0
Pd1      0.833333333   0.833333333   0.500000000    0   0   0
Pd1      0.333333333   0.833333333   0.500000000    0   0   0
Pd1      0.000002436  -0.000001951   0.589216394
Pd1      0.500007684  -0.000015536   0.595875683
Pd1     -0.000014339   0.500006902   0.595875103
Pd1      0.500007225   0.500007328   0.595875467
C1      -0.000003208   0.000000813   0.661575205
H1       0.000000623  -0.000000788   0.706018873

     Writing output data file calc.save
     Check: negative starting charge=   -0.910374
     NEW-OLD atomic charge density approx. for the potential
     Check: negative starting charge=   -0.911855

[...]

     Self-consistent Calculation

[...]

     total energy              =   -2409.97677159 Ry
     Harris-Foulkes estimate   =   -2409.97677188 Ry
     estimated scf accuracy    <       0.00000015 Ry

     iteration # 10     ecut=    36.75 Ry     beta=0.30
     Davidson diagonalization with overlap
     ethr =  7.53E-11,  avg # of iterations =  2.0

[...]

     negative rho (up, down):  9.513E-01 0.000E+00

     Adding external electric field

     Computed dipole along edir(3) :
        Dipole                0.2830 Ry au,          0.7194 Debye
        Dipole field          0.0008 Ry au

        Potential amp.       -0.0706 Ry
        Total length         45.3309 bohr

     End of self-consistent calculation

[...]

          k = 0.0591-0.0683 0.0000 ( 17183 PWs)   bands (ev):

[...]

          k =-0.0887-0.0512 0.0000 ( 17240 PWs)   bands (ev):

   -50.5419 -49.7252 -49.7220 -48.5052 -48.4495 -48.4313 -48.4250 -48.4175
   -48.3899 -48.3883 -48.3742 -48.3169 -48.3083 -48.2918 -48.2524 -48.2010
   -48.1873 -48.1701 -48.1384 -48.1255 -48.1232 -48.1030 -48.0765 -48.0735
   -48.0706 -48.0571 -48.0467 -48.0204 -48.0069 -47.9265 -47.9216 -47.9161
   -47.8856 -47.8802 -47.8746 -47.8437 -10.3159  -5.5974  -3.3415  -3.3169
    -3.0559  -2.8388  -2.6813  -2.4565  -2.3772  -2.3088  -2.1749  -2.1227
    -2.0917  -2.0649  -1.9707  -1.8815  -1.8765  -1.7797  -1.7167  -1.6554
    -1.4421  -1.3253  -1.3002  -1.2927  -1.2255  -1.2039  -1.0604  -1.0321
    -0.9728  -0.7748  -0.6709  -0.6600  -0.5700  -0.5537  -0.5290  -0.4768
    -0.4109  -0.3992  -0.3667  -0.3615  -0.3220  -0.2191  -0.1579  -0.0210
     0.0195   0.0556   0.0954   0.1240   0.2233   0.2851   0.3223   0.3709
     0.4196   0.4290   0.5470   0.6498   0.7456   0.7806   0.9119   1.1114
     1.1372   1.1476   1.2437   1.3965   1.4112   1.9022   2.2854   2.3620
     3.7350   4.0288   4.0318   4.3185

     the Fermi energy is     1.3971 ev

!    total energy              =   -2409.97677156 Ry
     Harris-Foulkes estimate   =   -2409.97677276 Ry
     estimated scf accuracy    <       0.00000007 Ry

     The total energy is the sum of the following terms:

     one-electron contribution =  -20445.26065831 Ry
     hartree contribution      =   10275.47882648 Ry
     xc contribution           =    -394.33523316 Ry
     ewald contribution        =    8154.25754549 Ry
     electric field correction =       0.00022030 Ry
     smearing contrib. (-TS)   =      -0.11747234 Ry

     convergence has been achieved in  10 iterations

 BEEF-vdW xc energy contributions
           1 :   -343.205124262969
           2 :    313.506843287742
           3 :   -262.898771238123
           4 :    205.033064037514
           5 :   -153.070062795011
           6 :    115.359824867092
           7 :   -93.6576949704518
           8 :    84.1621813313049
           9 :   -80.4905834310334
          10 :    76.9903735074483
          11 :   -70.8930844578242
          12 :    62.5876982827241
          13 :   -54.3194264768636
          14 :    48.3154512780276
          15 :   -45.4235604719939
          16 :    44.8493107931398
          17 :   -44.8823331046021
          18 :    44.0006215820471
          19 :   -41.6641329738843
          20 :    38.4024310454002
          21 :   -35.2771168284173
          22 :    33.1389418797839
          23 :   -32.1459660283807
          24 :    31.7784550092417
          25 :   -31.2607548828917
          26 :    30.0742390789889
          27 :   -28.2403895832314
          28 :    26.2315596932888
          29 :   -24.6117836447143
          30 :    23.6604762434100
          31 :   -33.5589752955177
          32 :   -24.7795255794859

     Forces acting on atoms (Ry/au):

     negative rho (up, down):  9.513E-01 0.000E+00
     atom    1 type  1   force =     0.00044318    0.00025695   -0.00088151
     atom    2 type  1   force =    -0.00044443    0.00025664   -0.00087891
     atom    3 type  1   force =    -0.00000088   -0.00051221   -0.00088164
     atom    4 type  1   force =     0.00000085   -0.00000054   -0.00627108
     atom    5 type  1   force =     0.00000099    0.00510405    0.00112398
     atom    6 type  1   force =    -0.00000136    0.00000038    0.00672625
     atom    7 type  1   force =    -0.00442027   -0.00255296    0.00112375
     atom    8 type  1   force =     0.00442188   -0.00255271    0.00112233
     atom    9 type  1   force =    -0.00000203    0.00000247   -0.00010050
     atom   10 type  1   force =     0.00000282   -0.00147673   -0.00023411
     atom   11 type  1   force =    -0.00128002    0.00073832   -0.00023333
     atom   12 type  1   force =     0.00128109    0.00073540   -0.00023317
     atom   13 type  2   force =    -0.00000210    0.00000112   -0.00001925
     atom   14 type  3   force =     0.00000027   -0.00000015   -0.00036281

     Total force =     0.002618     Total SCF correction =     0.000440
     SCF correction compared to forces is large: reduce conv_thr to get better values

     entering subroutine stress ...

     negative rho (up, down):  9.513E-01 0.000E+00
          total   stress  (Ry/bohr**3)                   (kbar)     P=   -8.85
  -0.00008540  -0.00000000  -0.00000000        -12.56     -0.00     -0.00
  -0.00000000  -0.00008540   0.00000000         -0.00    -12.56      0.00
  -0.00000000   0.00000000  -0.00000977         -0.00      0.00     -1.44

     bfgs converged in  14 scf cycles and  13 bfgs steps
     (criteria: energy <  1.0E+00, force <  1.9E-03)

     End of BFGS Geometry Optimization

     Final energy   =   -2409.9767715552 Ry
Begin final coordinates

ATOMIC_POSITIONS (crystal)
Pd1      0.166666667   0.166666667   0.406452311    0   0   0
Pd1      0.666666667   0.166666667   0.406452311    0   0   0
Pd1      0.166666667   0.666666667   0.406452311    0   0   0
Pd1      0.666666667   0.666666667   0.406452311    0   0   0
Pd1      0.833333333   0.333333333   0.500000000    0   0   0
Pd1      0.333333333   0.333333333   0.500000000    0   0   0
Pd1      0.833333333   0.833333333   0.500000000    0   0   0
Pd1      0.333333333   0.833333333   0.500000000    0   0   0
Pd1      0.000002436  -0.000001951   0.589216394
Pd1      0.500007684  -0.000015536   0.595875683
Pd1     -0.000014339   0.500006902   0.595875103
Pd1      0.500007225   0.500007328   0.595875467
C1      -0.000003208   0.000000813   0.661575205
H1       0.000000623  -0.000000788   0.706018873
End final coordinates

     Writing output data file calc.save

     General routines

     Parallel routines

   This run was terminated on:  21: 8:10  21Apr2018

   JOB DONE.
Job  /afs/slac/g/suncat/bin/suncat-tsmpirun -x LD_LIBRARY_PATH -wdir /scratch/qe392439_iJQFD pw.x -npool 4 -in pw.inp

TID   HOST_NAME   COMMAND_LINE            STATUS            TERMINATION_TIME
00000 suncat0100 pw.x -npool 4 -i  Done                     04/21/2018 21:08:10
00001 suncat0100 pw.x -npool 4 -i  Done                     04/21/2018 21:08:10
00002 suncat0100 pw.x -npool 4 -i  Done                     04/21/2018 21:08:10
00003 suncat0100 pw.x -npool 4 -i  Done                     04/21/2018 21:08:10
00004 suncat0100 pw.x -npool 4 -i  Done                     04/21/2018 21:08:10
00005 suncat0100 pw.x -npool 4 -i  Done                     04/21/2018 21:08:10
00006 suncat0100 pw.x -npool 4 -i  Done                     04/21/2018 21:08:10
00007 suncat0100 pw.x -npool 4 -i  Done                     04/21/2018 21:08:10
00008 suncat0277 pw.x -npool 4 -i  Done                     04/21/2018 21:08:10
00009 suncat0277 pw.x -npool 4 -i  Done                     04/21/2018 21:08:10
00010 suncat0277 pw.x -npool 4 -i  Done                     04/21/2018 21:08:10
00011 suncat0277 pw.x -npool 4 -i  Done                     04/21/2018 21:08:10
00012 suncat0277 pw.x -npool 4 -i  Done                     04/21/2018 21:08:10
00013 suncat0277 pw.x -npool 4 -i  Done                     04/21/2018 21:08:10
00014 suncat0277 pw.x -npool 4 -i  Done                     04/21/2018 21:08:10
00015 suncat0277 pw.x -npool 4 -i  Done                     04/21/2018 21:08:10
00016 suncat0264 pw.x -npool 4 -i  Done                     04/21/2018 21:08:10
00017 suncat0264 pw.x -npool 4 -i  Done                     04/21/2018 21:08:10
00018 suncat0264 pw.x -npool 4 -i  Done                     04/21/2018 21:08:10
00019 suncat0264 pw.x -npool 4 -i  Done                     04/21/2018 21:08:10
00020 suncat0264 pw.x -npool 4 -i  Done                     04/21/2018 21:08:10
00021 suncat0264 pw.x -npool 4 -i  Done                     04/21/2018 21:08:10
00022 suncat0264 pw.x -npool 4 -i  Done                     04/21/2018 21:08:10
00023 suncat0264 pw.x -npool 4 -i  Done                     04/21/2018 21:08:10
00024 suncat0233 pw.x -npool 4 -i  Done                     04/21/2018 21:08:10
00025 suncat0233 pw.x -npool 4 -i  Done                     04/21/2018 21:08:10
00026 suncat0233 pw.x -npool 4 -i  Done                     04/21/2018 21:08:10
00027 suncat0233 pw.x -npool 4 -i  Done                     04/21/2018 21:08:10
00028 suncat0233 pw.x -npool 4 -i  Done                     04/21/2018 21:08:10
00029 suncat0233 pw.x -npool 4 -i  Done                     04/21/2018 21:08:10
00030 suncat0233 pw.x -npool 4 -i  Done                     04/21/2018 21:08:10
00031 suncat0233 pw.x -npool 4 -i  Done                     04/21/2018 21:08:10