     Program PWSCF v.5.1rc2 (svn rev. 11289) starts on 23Apr2018 at  9: 0:23

     Current dimensions of program PWSCF are:
     Max number of different atomic species (ntypx) = 10
     Max number of k-points (npk) =  40000
     Max angular momentum in pseudopotentials (lmaxx) =  3
     Presently stress not available with electric field

     IMPORTANT: XC functional enforced from input :
     Exchange-correlation      = BEEF-VDW ( 1  4 27 13 2)
     Any further DFT definition will be discarded
     Please, verify this is what you really want

     Subspace diagonalization in iterative solution of the eigenvalue problem:
     a serial algorithm will be used

     bravais-lattice index     =            0
     lattice parameter (alat)  =       1.8897  a.u.
     unit-cell volume          =    5185.0501 (a.u.)^3
     number of atoms/cell      =           14
     number of atomic types    =            3
     number of electrons       =       163.00
     number of Kohn-Sham states=           91
     kinetic-energy cutoff     =      36.7493  Ry
     charge density cutoff     =     367.4932  Ry
     convergence threshold     =      1.0E-05
     mixing beta               =       0.3000
     number of iterations used =           10  plain     mixing
     Exchange-correlation      = BEEF-VDW ( 1  4 27 13 2)
     nstep                     =           50

     celldm(1)=   1.889726  celldm(2)=   0.000000  celldm(3)=   0.000000
     celldm(4)=   0.000000  celldm(5)=   0.000000  celldm(6)=   0.000000

     crystal axes: (cart. coord. in units of alat)
               a(1) = (   5.972022   0.000000   0.000000 )
               a(2) = (   2.986011   5.171923   0.000000 )
               a(3) = (   0.000000   0.000000  24.876136 )

     reciprocal axes: (cart. coord. in units 2 pi/alat)
               b(1) = (  0.167447 -0.096676  0.000000 )
               b(2) = (  0.000000  0.193352  0.000000 )
               b(3) = (  0.000000  0.000000  0.040199 )

     PseudoPot. # 1 for Ta read from file:
     /u/if/mamunm/psp/gbrv1.5pbe/Ta.UPF
     MD5 check sum: f8bbe9446314a3b8ea5d9f3e3836c939
     Pseudo is Ultrasoft + core correction, Zval = 13.0
     Generated by new atomic code, or converted to UPF format
     Using radial grid of  921 points,  7 beta functions with:
                l(1) =   0
                l(2) =   0
                l(3) =   1
                l(4) =   1
                l(5) =   2
                l(6) =   2
                l(7) =   3
     Q(r) pseudized with  6 coefficients,  rinner =    1.300   1.300   1.300
                                                       1.300   1.300   1.300
                                                       1.300

     PseudoPot. # 2 for S  read from file:
     /u/if/mamunm/psp/gbrv1.5pbe/S.UPF
     MD5 check sum: 88d86576ff6df21479756cfb9bdac1df
     Pseudo is Ultrasoft + core correction, Zval =  6.0
     Generated by new atomic code, or converted to UPF format
     Using radial grid of  907 points,  6 beta functions with:
                l(1) =   0
                l(2) =   0
                l(3) =   1
                l(4) =   1
                l(5) =   2
                l(6) =   2
     Q(r) pseudized with  8 coefficients,  rinner =    1.300   1.300   1.300
                                                       1.300   1.300

     PseudoPot. # 3 for H  read from file:
     /u/if/mamunm/psp/gbrv1.5pbe/H.UPF
     MD5 check sum: 761ae9a214b05c3daf00ab9f6b793d6f
     Pseudo is Ultrasoft, Zval =  1.0
     Generated by new atomic code, or converted to UPF format
     Using radial grid of  615 points,  2 beta functions with:
                l(1) =   0
                l(2) =   0
     Q(r) pseudized with  8 coefficients,  rinner =    0.700

     vdW kernel table read from file vdW_kernel_table
     MD5 check sum: 095c7af220d748ca6e76c0b4c6cfb241

     atomic species   valence    mass     pseudopotential
        Ta1           13.00   180.94788     Ta( 1.00)
        S1             6.00    32.06000     S ( 1.00)
        H1             1.00     1.00800     H ( 1.00)

     No symmetry found

   Cartesian axes

     site n.     atom                  positions (alat units)
         1           Ta1 tau(   1) = (   1.4930055   0.8619871  10.0000000  )
         2           Ta1 tau(   2) = (   4.4790165   0.8619871  10.0000000  )
         3           Ta1 tau(   3) = (   2.9860110   3.4479485  10.0000000  )
         4           Ta1 tau(   4) = (   5.9720221   3.4479485  10.0000000  )
         5           Ta1 tau(   5) = (   5.9720221   1.7239743  12.4380678  )
         6           Ta1 tau(   6) = (   2.9860110   1.7239743  12.4380678  )
         7           Ta1 tau(   7) = (   7.4650276   4.3099357  12.4380678  )
         8           Ta1 tau(   8) = (   4.4790165   4.3099357  12.4380678  )
         9           Ta1 tau(   9) = (   0.0000000   0.0000000  14.8761356  )
        10           Ta1 tau(  10) = (   2.9860110   0.0000000  14.8761356  )
        11           Ta1 tau(  11) = (   1.4930055   2.5859614  14.8761356  )
        12           Ta1 tau(  12) = (   4.4790165   2.5859614  14.8761356  )
        13           S1  tau(  13) = (   1.4930055   0.8619871  16.6636356  )
        14           H1  tau(  14) = (   1.4930055   0.8619871  17.9136356  )

     number of k points=    20  Fermi-Dirac smearing, width (Ry)=  0.0110
                       cart. coord. in units 2pi/alat
        k(    1) = (   0.0000000   0.0000000   0.0000000), wk =   0.0555556
        k(    2) = (   0.0000000   0.0322253   0.0000000), wk =   0.1111111
        k(    3) = (   0.0000000   0.0644506   0.0000000), wk =   0.1111111
        k(    4) = (   0.0000000  -0.0966758   0.0000000), wk =   0.0555556
        k(    5) = (   0.0279079  -0.0161126   0.0000000), wk =   0.1111111
        k(    6) = (   0.0279079   0.0161126   0.0000000), wk =   0.1111111
        k(    7) = (   0.0279079   0.0483379   0.0000000), wk =   0.1111111
        k(    8) = (   0.0279079  -0.1127885   0.0000000), wk =   0.1111111
        k(    9) = (   0.0279079  -0.0805632   0.0000000), wk =   0.1111111
        k(   10) = (   0.0279079  -0.0483379   0.0000000), wk =   0.1111111
        k(   11) = (   0.0558158  -0.0322253   0.0000000), wk =   0.1111111
        k(   12) = (   0.0558158   0.0000000   0.0000000), wk =   0.1111111
        k(   13) = (   0.0558158   0.0322253   0.0000000), wk =   0.1111111
        k(   14) = (   0.0558158  -0.1289011   0.0000000), wk =   0.1111111
        k(   15) = (   0.0558158  -0.0966758   0.0000000), wk =   0.1111111
        k(   16) = (   0.0558158  -0.0644506   0.0000000), wk =   0.1111111
        k(   17) = (  -0.0837237   0.0483379   0.0000000), wk =   0.0555556
        k(   18) = (  -0.0837237   0.0805632   0.0000000), wk =   0.1111111
        k(   19) = (  -0.0837237   0.1127885   0.0000000), wk =   0.1111111
        k(   20) = (  -0.0837237  -0.0483379   0.0000000), wk =   0.0555556

     Largest allocated arrays     est. size (Mb)     dimensions
     Largest temporary arrays     est. size (Mb)     dimensions

     Initial potential from superposition of free atoms
     Check: negative starting charge=   -1.121399

     starting charge  162.98661, renormalised to  163.00000

     negative rho (up, down):  1.121E+00 0.000E+00

     *
     * You are using vdW-DF for exchange-correlation in this calculation.
     * Please cite the following three references that made this development
     * possible:
     *
     *   M. Dion, H. Rydberg, E. Schroder, D. C. Langreth, and
     *   B. I. Lundqvist, Phys. Rev. Lett. 92, 246401 (2004).
     *
     *   T. Thonhauser, V. R. Cooper, S. Li, A. Puzder, P. Hyldgaard, and
     *   D. C. Langreth, Phys. Rev. B 76, 125112 (2007).
     *
     *   G. Roman-Perez and J. M. Soler, Phys. Rev. Lett. 103, 096102 (2009).
     *
     *
     * If you are using vdW-DF2, please also cite:
     *
     *   K. Lee, E. D. Murray, L. Kong, B. I. Lundqvist, and
     *   D. C. Langreth, Phys. Rev. B 82, 081101(R) (2010).
     *
     *
     * If you are calculating the stress with vdW-DF, please also cite:
     *
     *   R. Sabatini, E. Kucukbenli, B. Kolb, T. Thonhauser, and
     *   S. de Gironcoli, J. Phys.: Condens. Matter 24, 424209 (2012).
     *

     Carrying out vdW-DF run using the following parameters:

     Nqs =      20    Nr_points =    1024   r_max =   100.000
     q_mesh =
               0.00001000     0.04494208     0.09755937     0.15916263
               0.23128650     0.31572767     0.41458969     0.53033537
               0.66584808     0.82450364     1.01025438     1.22772762
               1.48234092     1.78043706     2.12944203     2.53805004
               3.01644009     3.57652955     4.23227104     5.00000000

     Gradients computed in reciprocal space

     Adding external electric field

     Computed dipole along edir(3) :
        Dipole               -0.0044 Ry au,         -0.0112 Debye
        Dipole field         -0.0000 Ry au

        Potential amp.        0.0010 Ry
        Total length         45.8339 bohr

     Starting wfc are  161 randomized atomic wfcs

     Self-consistent Calculation

     iteration #  1     ecut=    36.75 Ry     beta=0.30
     Davidson diagonalization with overlap
     ethr =  1.00E-02,  avg # of iterations =  2.0

[...]

     total energy              =   -1741.99377988 Ry
     Harris-Foulkes estimate   =   -1744.41017397 Ry
     estimated scf accuracy    <       5.17057523 Ry

[...]

     End of self-consistent calculation

          k = 0.0000 0.0000 0.0000 ( 19447 PWs)   bands (ev):

   -65.7379 -65.6677 -65.6115 -65.6112 -65.6046 -65.5958 -65.5536 -65.5536
   -65.5501 -65.5097 -65.5096 -65.4713 -32.4048 -32.3957 -32.3957 -32.3585
   -32.3551 -32.3226 -32.3225 -32.3050 -32.3050 -32.2931 -32.1218 -32.0182
   -31.9817 -31.9816 -31.9307 -31.9188 -31.9187 -31.8049 -31.8049 -31.7860
   -31.7541 -31.7540 -31.7232 -31.7101 -31.7100 -31.7071 -31.6561 -31.6343
   -31.6343 -31.6244 -31.5878 -31.5878 -31.5620 -31.5620 -31.4835 -31.4835
   -12.6399  -6.0126  -4.5946  -2.9319  -2.3426  -2.3426  -2.0344  -1.4168
    -1.4168  -1.3422  -1.1860  -0.9960  -0.9960  -0.4999  -0.3818  -0.3818
    -0.1928  -0.1511  -0.1510   1.0189   1.0189   1.1094   1.9229   2.1287
     2.1287   2.2342   2.4760   2.5350   2.6751   2.6752   2.7724   3.0193
     3.0193   3.1285   3.2979   3.2979   3.3855   3.3855   3.3917   3.4574
     3.4574   3.6917   3.6917

[...]

          k =-0.0837 0.0483 0.0000 ( 19532 PWs)   bands (ev):

[...]

     the Fermi energy is     2.6523 ev

!    total energy              =   -1744.01277962 Ry
     Harris-Foulkes estimate   =   -1744.01276033 Ry
     estimated scf accuracy    <       0.00000845 Ry

     The total energy is the sum of the following terms:

     one-electron contribution =  -11737.76529709 Ry
     hartree contribution      =    5856.43940083 Ry
     xc contribution           =    -532.51919670 Ry
     ewald contribution        =    4669.93882028 Ry
     electric field correction =       0.00034032 Ry
     smearing contrib. (-TS)   =      -0.10684726 Ry

     convergence has been achieved in  14 iterations

 BEEF-vdW xc energy contributions
           1 :   -468.568515175674
           2 :    432.273205137693
           3 :   -368.928466692665
           4 :    293.192379974136
           5 :   -219.774215829291
           6 :    158.947478836630
           7 :   -114.475351382399
           8 :    84.3738669557482
           9 :   -63.6568336129929
          10 :    47.4578709036277
          11 :   -33.0534676726806
          12 :    20.1461870202411
          13 :   -9.77800032199406
          14 :    2.85199029976445
          15 :   0.803999244386432
          16 :   -2.42818601779271
          17 :    3.58781344607934
          18 :   -5.30224406852790
          19 :    7.58900514257715
          20 :   -9.65867176783405
          21 :    10.5715037695399
          22 :   -9.91635855982025
          23 :    8.10242265120183
          24 :   -6.12186479530777
          25 :    4.96857506968871
          26 :   -5.08690954344314
          27 :    6.17426636130131
          28 :   -7.42384073686543
          29 :    8.02817722850097
          30 :   -7.62864103032979
          31 :   -42.0860694774914
          32 :   -31.2065345540940

     Forces acting on atoms (Ry/au):

     negative rho (up, down):  1.177E+00 0.000E+00
     atom    1 type  1   force =     0.00000255    0.00000930    0.00113132
     atom    2 type  1   force =    -0.00000629    0.00171254    0.00228839
     atom    3 type  1   force =     0.00148030   -0.00085855    0.00229671
     atom    4 type  1   force =    -0.00148310   -0.00086240    0.00228912
     atom    5 type  1   force =     0.00161888   -0.00094614   -0.00408320
     atom    6 type  1   force =    -0.00162221   -0.00095564   -0.00407443
     atom    7 type  1   force =    -0.00000635    0.00001766   -0.00953522
     atom    8 type  1   force =     0.00001129    0.00188717   -0.00406424
     atom    9 type  1   force =    -0.03783409   -0.02184024    0.01858289
     atom   10 type  1   force =     0.03783721   -0.02183933    0.01858176
     atom   11 type  1   force =     0.00000129    0.04368037    0.01857809
     atom   12 type  1   force =    -0.00000008   -0.00000465   -0.03709450
     atom   13 type  2   force =     0.00000010    0.00000041   -0.14404759
     atom   14 type  3   force =     0.00000050   -0.00000050    0.13915090

     Total force =     0.219658     Total SCF correction =     0.003599

     entering subroutine stress ...

     negative rho (up, down):  1.177E+00 0.000E+00
          total   stress  (Ry/bohr**3)                   (kbar)     P=  -22.99
  -0.00024109  -0.00000000   0.00000000        -35.47     -0.00      0.00
  -0.00000000  -0.00024109   0.00000000         -0.00    -35.46      0.00
   0.00000000   0.00000000   0.00001325          0.00      0.00      1.95

     BFGS Geometry Optimization

     number of scf cycles    =   1
     number of bfgs steps    =   0

     energy   new            =   -1744.0127796196 Ry

     new trust radius        =       0.1440475893 bohr
     new conv_thr            =       0.0000099958 Ry

ATOMIC_POSITIONS (crystal)
Ta1      0.166666667   0.166666667   0.401991699    0   0   0
Ta1      0.666666667   0.166666667   0.401991699    0   0   0
Ta1      0.166666667   0.666666667   0.401991699    0   0   0
Ta1      0.666666667   0.666666667   0.401991699    0   0   0
Ta1      0.833333333   0.333333333   0.500000000    0   0   0
Ta1      0.333333333   0.333333333   0.500000000    0   0   0
Ta1      0.833333333   0.833333333   0.500000000    0   0   0
Ta1      0.333333333   0.833333333   0.500000000    0   0   0
Ta1     -0.002235139  -0.002234635   0.598403606
Ta1      0.504470002  -0.002234541   0.598403582
Ta1     -0.002234515   0.504469258   0.598403503
Ta1      0.500000230   0.499999524   0.597219209
S1       0.166666655   0.166666709   0.666800067
H1       0.166666736   0.166666615   0.723073365

     Writing output data file calc.save
     Check: negative starting charge=   -1.121399
     NEW-OLD atomic charge density approx. for the potential
     Check: negative starting charge=   -1.123578

[...]

     energy   old            =   -1744.0127796196 Ry
     energy   new            =   -1744.0345992110 Ry

     CASE: energy  _new < energy  _old

[...]

     CASE: energy  _new > energy  _old

[...]

     Threshold (ethr) on eigenvalues was too large:
     Diagonalizing with lowered threshold

     Davidson diagonalization with overlap
     ethr =  4.64E-08,  avg # of iterations =  2.6

[...]

     number of scf cycles    =  14
     number of bfgs steps    =  12

     energy   old            =   -1744.0555577326 Ry
     energy   new            =   -1744.0556181842 Ry

     CASE: energy  _new < energy  _old

     new trust radius        =       0.0148076007 bohr
     new conv_thr            =       0.0000001000 Ry

ATOMIC_POSITIONS (crystal)
Ta1      0.166666667   0.166666667   0.401991699    0   0   0
Ta1      0.666666667   0.166666667   0.401991699    0   0   0
Ta1      0.166666667   0.666666667   0.401991699    0   0   0
Ta1      0.666666667   0.666666667   0.401991699    0   0   0
Ta1      0.833333333   0.333333333   0.500000000    0   0   0
Ta1      0.333333333   0.333333333   0.500000000    0   0   0
Ta1      0.833333333   0.833333333   0.500000000    0   0   0
Ta1      0.333333333   0.833333333   0.500000000    0   0   0
Ta1     -0.008895301  -0.008895919   0.601085671
Ta1      0.517792077  -0.008896014   0.601085693
Ta1     -0.008895202   0.517791069   0.601085666
Ta1      0.500000491   0.499999694   0.587961797
S1       0.166667137   0.166666371   0.669090661
H1       0.166666929   0.166666431   0.724357641

     Writing output data file calc.save
     Check: negative starting charge=   -1.124147
     NEW-OLD atomic charge density approx. for the potential
     Check: negative starting charge=   -1.124171

[...]

     Self-consistent Calculation

[...]

     Threshold (ethr) on eigenvalues was too large:
     Diagonalizing with lowered threshold

     Davidson diagonalization with overlap
     ethr =  4.01E-08,  avg # of iterations =  2.6

[...]

     total energy              =   -1744.05565281 Ry
     Harris-Foulkes estimate   =   -1744.05565225 Ry
     estimated scf accuracy    <       0.00000029 Ry

     iteration #  8     ecut=    36.75 Ry     beta=0.30
     Davidson diagonalization with overlap
     ethr =  1.81E-10,  avg # of iterations =  3.1

[...]

     negative rho (up, down):  1.180E+00 0.000E+00

     Adding external electric field

     Computed dipole along edir(3) :
        Dipole                0.3164 Ry au,          0.8042 Debye
        Dipole field          0.0008 Ry au

        Potential amp.       -0.0703 Ry
        Total length         45.8339 bohr

     End of self-consistent calculation

[...]

          k = 0.0558-0.0645 0.0000 ( 19521 PWs)   bands (ev):

[...]

          k =-0.0837-0.0483 0.0000 ( 19532 PWs)   bands (ev):

   -65.7008 -65.6973 -65.6715 -65.6673 -65.6412 -65.6087 -65.5951 -65.5926
   -65.5762 -65.5560 -65.5444 -65.4941 -32.3529 -32.3402 -32.2897 -32.2853
   -32.2837 -32.2615 -32.2311 -32.1834 -32.1797 -32.1450 -32.1257 -32.0907
   -32.0617 -32.0132 -32.0061 -31.9735 -31.9663 -31.9439 -31.9367 -31.9142
   -31.9011 -31.8654 -31.8589 -31.8366 -31.8241 -31.7598 -31.7532 -31.7376
   -31.7322 -31.7315 -31.6709 -31.6517 -31.6512 -31.5979 -31.5647 -31.5548
   -12.2348  -5.3014  -3.2398  -2.9288  -2.3313  -2.1242  -1.4220  -1.1605
    -0.7113  -0.6841  -0.4405  -0.3985  -0.3670  -0.1414   0.3787   0.5705
     0.6602   0.7188   0.7773   0.9245   1.0960   1.2358   1.3174   1.3427
     1.4610   1.5157   1.6725   1.8296   1.8783   1.9400   2.0274   2.0598
     2.1413   2.1819   2.3968   2.6701   2.7959   2.8391   2.8626   3.2868
     3.3741   3.5467   3.7103

     the Fermi energy is     2.5895 ev

!    total energy              =   -1744.05565281 Ry
     Harris-Foulkes estimate   =   -1744.05565268 Ry
     estimated scf accuracy    <       0.00000006 Ry

     The total energy is the sum of the following terms:

     one-electron contribution =  -11741.58795374 Ry
     hartree contribution      =    5858.27870234 Ry
     xc contribution           =    -532.51314269 Ry
     ewald contribution        =    4671.86637984 Ry
     electric field correction =       0.00024263 Ry
     smearing contrib. (-TS)   =      -0.09988118 Ry

     convergence has been achieved in   8 iterations

 BEEF-vdW xc energy contributions
           1 :   -468.570791675018
           2 :    432.283789420021
           3 :   -368.939572594081
           4 :    293.176470242315
           5 :   -219.697440338677
           6 :    158.790584153347
           7 :   -114.248242356017
           8 :    84.1143633539721
           9 :   -63.4137026928311
          10 :    47.2679862201908
          11 :   -32.9252591254790
          12 :    20.0574511295724
          13 :   -9.68840342407310
          14 :    2.72370648386755
          15 :   0.987198048756625
          16 :   -2.65241441760116
          17 :    3.81625066637093
          18 :   -5.49559970342665
          19 :    7.72845222703012
          20 :   -9.75774851143939
          21 :    10.6689973946542
          22 :   -10.0530092797961
          23 :    8.29466279369495
          24 :   -6.34891696159997
          25 :    5.18207522646975
          26 :   -5.23800944731784
          27 :    6.24167858905378
          28 :   -7.42566795336865
          29 :    8.01063200796108
          30 :   -7.63916674504236
          31 :   -42.0860965331328
          32 :   -31.2040901532635

     Forces acting on atoms (Ry/au):

     negative rho (up, down):  1.180E+00 0.000E+00
     atom    1 type  1   force =    -0.00000002    0.00000002    0.00251069
     atom    2 type  1   force =    -0.00000003    0.00042743    0.00337249
     atom    3 type  1   force =     0.00037010   -0.00021369    0.00337257
     atom    4 type  1   force =    -0.00037013   -0.00021367    0.00337253
     atom    5 type  1   force =     0.02451165   -0.01415175   -0.00962891
     atom    6 type  1   force =    -0.02451165   -0.01415173   -0.00962874
     atom    7 type  1   force =    -0.00000011    0.00000000    0.00887794
     atom    8 type  1   force =    -0.00000002    0.02830355   -0.00962866
     atom    9 type  1   force =    -0.00022576   -0.00013069    0.00148807
     atom   10 type  1   force =     0.00022585   -0.00013061    0.00148804
     atom   11 type  1   force =     0.00000012    0.00026103    0.00148809
     atom   12 type  1   force =    -0.00000003    0.00000014    0.00158827
     atom   13 type  2   force =     0.00000001   -0.00000004    0.00138046
     atom   14 type  3   force =     0.00000002    0.00000001   -0.00005283

     Total force =     0.003358     Total SCF correction =     0.000233

     entering subroutine stress ...

     negative rho (up, down):  1.180E+00 0.000E+00
          total   stress  (Ry/bohr**3)                   (kbar)     P=  -24.69
  -0.00022575  -0.00000000   0.00000000        -33.21     -0.00      0.00
  -0.00000000  -0.00022576  -0.00000000         -0.00    -33.21     -0.00
   0.00000000  -0.00000000  -0.00005200          0.00     -0.00     -7.65

     bfgs converged in  15 scf cycles and  13 bfgs steps
     (criteria: energy <  1.0E+00, force <  1.9E-03)

     End of BFGS Geometry Optimization

     Final energy   =   -1744.0556528059 Ry
Begin final coordinates

ATOMIC_POSITIONS (crystal)
Ta1      0.166666667   0.166666667   0.401991699    0   0   0
Ta1      0.666666667   0.166666667   0.401991699    0   0   0
Ta1      0.166666667   0.666666667   0.401991699    0   0   0
Ta1      0.666666667   0.666666667   0.401991699    0   0   0
Ta1      0.833333333   0.333333333   0.500000000    0   0   0
Ta1      0.333333333   0.333333333   0.500000000    0   0   0
Ta1      0.833333333   0.833333333   0.500000000    0   0   0
Ta1      0.333333333   0.833333333   0.500000000    0   0   0
Ta1     -0.008895301  -0.008895919   0.601085671
Ta1      0.517792077  -0.008896014   0.601085693
Ta1     -0.008895202   0.517791069   0.601085666
Ta1      0.500000491   0.499999694   0.587961797
S1       0.166667137   0.166666371   0.669090661
H1       0.166666929   0.166666431   0.724357641
End final coordinates

     Writing output data file calc.save

     General routines

     Parallel routines

   This run was terminated on:  10: 8:36  23Apr2018

   JOB DONE.
Job  /afs/slac/g/suncat/bin/suncat-tsmpirun -x LD_LIBRARY_PATH -wdir /scratch/qe137_BpuQb pw.x -npool 3 -in pw.inp

TID   HOST_NAME   COMMAND_LINE            STATUS            TERMINATION_TIME
00000 suncat2062 pw.x -npool 3 -i  Done                     04/23/2018 10:08:36
00001 suncat2062 pw.x -npool 3 -i  Done                     04/23/2018 10:08:36
00002 suncat2062 pw.x -npool 3 -i  Done                     04/23/2018 10:08:36
00003 suncat2062 pw.x -npool 3 -i  Done                     04/23/2018 10:08:36
00004 suncat2051 pw.x -npool 3 -i  Done                     04/23/2018 10:08:36
00005 suncat2051 pw.x -npool 3 -i  Done                     04/23/2018 10:08:36
00006 suncat2051 pw.x -npool 3 -i  Done                     04/23/2018 10:08:36
00007 suncat2051 pw.x -npool 3 -i  Done                     04/23/2018 10:08:36
00008 suncat2051 pw.x -npool 3 -i  Done                     04/23/2018 10:08:36
00009 suncat2051 pw.x -npool 3 -i  Done                     04/23/2018 10:08:36
00010 suncat2051 pw.x -npool 3 -i  Done                     04/23/2018 10:08:36
00011 suncat2051 pw.x -npool 3 -i  Done                     04/23/2018 10:08:36
00012 suncat2051 pw.x -npool 3 -i  Done                     04/23/2018 10:08:36
00013 suncat2051 pw.x -npool 3 -i  Done                     04/23/2018 10:08:36
00014 suncat2051 pw.x -npool 3 -i  Done                     04/23/2018 10:08:36
00015 suncat2051 pw.x -npool 3 -i  Done                     04/23/2018 10:08:36
00016 suncat2051 pw.x -npool 3 -i  Done                     04/23/2018 10:08:36
00017 suncat2051 pw.x -npool 3 -i  Done                     04/23/2018 10:08:36
00018 suncat2051 pw.x -npool 3 -i  Done                     04/23/2018 10:08:36
00019 suncat2051 pw.x -npool 3 -i  Done                     04/23/2018 10:08:36
00020 suncat2001 pw.x -npool 3 -i  Done                     04/23/2018 10:08:36
00021 suncat2001 pw.x -npool 3 -i  Done                     04/23/2018 10:08:36
00022 suncat2001 pw.x -npool 3 -i  Done                     04/23/2018 10:08:36
00023 suncat2001 pw.x -npool 3 -i  Done                     04/23/2018 10:08:36
00024 suncat2001 pw.x -npool 3 -i  Done                     04/23/2018 10:08:36
00025 suncat2001 pw.x -npool 3 -i  Done                     04/23/2018 10:08:36
00026 suncat2001 pw.x -npool 3 -i  Done                     04/23/2018 10:08:36
00027 suncat2001 pw.x -npool 3 -i  Done                     04/23/2018 10:08:36
00028 suncat2001 pw.x -npool 3 -i  Done                     04/23/2018 10:08:36
00029 suncat2001 pw.x -npool 3 -i  Done                     04/23/2018 10:08:36
00030 suncat2001 pw.x -npool 3 -i  Done                     04/23/2018 10:08:36
00031 suncat2001 pw.x -npool 3 -i  Done                     04/23/2018 10:08:36
00032 suncat2001 pw.x -npool 3 -i  Done                     04/23/2018 10:08:36
00033 suncat2001 pw.x -npool 3 -i  Done                     04/23/2018 10:08:36
00034 suncat2001 pw.x -npool 3 -i  Done                     04/23/2018 10:08:36
00035 suncat2001 pw.x -npool 3 -i  Done                     04/23/2018 10:08:36