     Program PWSCF v.5.1rc2 (svn rev. 11289) starts on 15Jan2018 at 13:48:31

     Current dimensions of program PWSCF are:
     Max number of different atomic species (ntypx) = 10
     Max number of k-points (npk) =  40000
     Max angular momentum in pseudopotentials (lmaxx) =  3
     Presently stress not available with electric field

     IMPORTANT: XC functional enforced from input :
     Exchange-correlation      = BEEF-VDW ( 1  4 27 13 2)
     Any further DFT definition will be discarded
     Please, verify this is what you really want

     Subspace diagonalization in iterative solution of the eigenvalue problem:
     a serial algorithm will be used

     bravais-lattice index     =            0
     lattice parameter (alat)  =       1.8897  a.u.
     unit-cell volume          =    4306.9643 (a.u.)^3
     number of atoms/cell      =           13
     number of atomic types    =            2
     number of electrons       =       185.00
     number of Kohn-Sham states=          102
     kinetic-energy cutoff     =      36.7493  Ry
     charge density cutoff     =     367.4932  Ry
     convergence threshold     =      1.0E-05
     mixing beta               =       0.3000
     number of iterations used =           10  plain     mixing
     Exchange-correlation      = BEEF-VDW ( 1  4 27 13 2)
     nstep                     =           50

     celldm(1)=   1.889726  celldm(2)=   0.000000  celldm(3)=   0.000000
     celldm(4)=   0.000000  celldm(5)=   0.000000  celldm(6)=   0.000000

     crystal axes: (cart. coord. in units of alat)
               a(1) = (   5.486772   0.000000   0.000000 )
               a(2) = (   2.743386   4.751684   0.000000 )
               a(3) = (   0.000000   0.000000  24.479931 )

     reciprocal axes: (cart. coord. in units 2 pi/alat)
               b(1) = (  0.182257 -0.105226  0.000000 )
               b(2) = (  0.000000  0.210452  0.000000 )
               b(3) = (  0.000000  0.000000  0.040850 )

     PseudoPot. # 1 for Re read from file:
     /afs/slac.stanford.edu/u/if/mamunm/psp/gbrv1.5pbe/Re.UPF
     MD5 check sum: 85f993410f3e006da9d71c142b4ad953
     Pseudo is Ultrasoft + core correction, Zval = 15.0
     Generated by new atomic code, or converted to UPF format
     Using radial grid of  981 points,  8 beta functions with:
                l(1) =   0
                l(2) =   0
                l(3) =   1
                l(4) =   1
                l(5) =   2
                l(6) =   2
                l(7) =   3
                l(8) =   3
     Q(r) pseudized with  8 coefficients,  rinner =    1.150   1.150   1.150
                                                       1.150   1.150   1.150
                                                       1.150

     PseudoPot. # 2 for N  read from file:
     /afs/slac.stanford.edu/u/if/mamunm/psp/gbrv1.5pbe/N.UPF
     MD5 check sum: 95339753478d7afb44899504a8723017
     Pseudo is Ultrasoft + core correction, Zval =  5.0
     Generated by new atomic code, or converted to UPF format
     Using radial grid of  729 points,  4 beta functions with:
                l(1) =   0
                l(2) =   0
                l(3) =   1
                l(4) =   1
     Q(r) pseudized with  8 coefficients,  rinner =    0.900   0.900   0.900

     vdW kernel table read from file vdW_kernel_table
     MD5 check sum: 095c7af220d748ca6e76c0b4c6cfb241

     atomic species   valence    mass     pseudopotential
        Re1           15.00   186.20700     Re( 1.00)
        N1             5.00    14.00700     N ( 1.00)

     No symmetry found

   Cartesian axes

     site n.     atom                  positions (alat units)
         1           Re1 tau(   1) = (   1.3716930   0.7919474  10.0000000  )
         2           Re1 tau(   2) = (   4.1150791   0.7919474  10.0000000  )
         3           Re1 tau(   3) = (   2.7433861   3.1677894  10.0000000  )
         4           Re1 tau(   4) = (   5.4867722   3.1677894  10.0000000  )
         5           Re1 tau(   5) = (   5.4867722   1.5838947  12.2399654  )
         6           Re1 tau(   6) = (   2.7433861   1.5838947  12.2399654  )
         7           Re1 tau(   7) = (   6.8584652   3.9597368  12.2399654  )
         8           Re1 tau(   8) = (   4.1150791   3.9597368  12.2399654  )
         9           Re1 tau(   9) = (   0.0000000   0.0000000  14.4799307  )
        10           Re1 tau(  10) = (   2.7433861   0.0000000  14.4799307  )
        11           Re1 tau(  11) = (   1.3716930   2.3758421  14.4799307  )
        12           Re1 tau(  12) = (   4.1150791   2.3758421  14.4799307  )
        13           N1  tau(  13) = (   1.3716930   0.0000000  16.6999307  )

     number of k points=    20  Fermi-Dirac smearing, width (Ry)=  0.0110
                       cart. coord. in units 2pi/alat
        k(    1) = (   0.0000000   0.0000000   0.0000000), wk =   0.0555556
        k(    2) = (   0.0000000   0.0350753   0.0000000), wk =   0.1111111
        k(    3) = (   0.0000000   0.0701506   0.0000000), wk =   0.1111111
        k(    4) = (   0.0000000  -0.1052259   0.0000000), wk =   0.0555556
        k(    5) = (   0.0303761  -0.0175376   0.0000000), wk =   0.1111111
        k(    6) = (   0.0303761   0.0175376   0.0000000), wk =   0.1111111
        k(    7) = (   0.0303761   0.0526129   0.0000000), wk =   0.1111111
        k(    8) = (   0.0303761  -0.1227635   0.0000000), wk =   0.1111111
        k(    9) = (   0.0303761  -0.0876882   0.0000000), wk =   0.1111111
        k(   10) = (   0.0303761  -0.0526129   0.0000000), wk =   0.1111111
        k(   11) = (   0.0607522  -0.0350753   0.0000000), wk =   0.1111111
        k(   12) = (   0.0607522   0.0000000   0.0000000), wk =   0.1111111
        k(   13) = (   0.0607522   0.0350753   0.0000000), wk =   0.1111111
        k(   14) = (   0.0607522  -0.1403011   0.0000000), wk =   0.1111111
        k(   15) = (   0.0607522  -0.1052259   0.0000000), wk =   0.1111111
        k(   16) = (   0.0607522  -0.0701506   0.0000000), wk =   0.1111111
        k(   17) = (  -0.0911283   0.0526129   0.0000000), wk =   0.0555556
        k(   18) = (  -0.0911283   0.0876882   0.0000000), wk =   0.1111111
        k(   19) = (  -0.0911283   0.1227635   0.0000000), wk =   0.1111111
        k(   20) = (  -0.0911283  -0.0526129   0.0000000), wk =   0.0555556

     Largest allocated arrays     est. size (Mb)     dimensions
     Largest temporary arrays     est. size (Mb)     dimensions

     Initial potential from superposition of free atoms
     Check: negative starting charge=   -1.539607

     starting charge  178.99945, renormalised to  185.00000

     negative rho (up, down):  1.591E+00 0.000E+00

     *
     * You are using vdW-DF for exchange-correlation in this calculation.
     * Please cite the following three references that made this development
     * possible:
     *
     *   M. Dion, H. Rydberg, E. Schroder, D. C. Langreth, and
     *   B. I. Lundqvist, Phys. Rev. Lett. 92, 246401 (2004).
     *
     *   T. Thonhauser, V. R. Cooper, S. Li, A. Puzder, P. Hyldgaard, and
     *   D. C. Langreth, Phys. Rev. B 76, 125112 (2007).
     *
     *   G. Roman-Perez and J. M. Soler, Phys. Rev. Lett. 103, 096102 (2009).
     *
     *
     * If you are using vdW-DF2, please also cite:
     *
     *   K. Lee, E. D. Murray, L. Kong, B. I. Lundqvist, and
     *   D. C. Langreth, Phys. Rev. B 82, 081101(R) (2010).
     *
     *
     * If you are calculating the stress with vdW-DF, please also cite:
     *
     *   R. Sabatini, E. Kucukbenli, B. Kolb, T. Thonhauser, and
     *   S. de Gironcoli, J. Phys.: Condens. Matter 24, 424209 (2012).
     *

     Carrying out vdW-DF run using the following parameters:

     Nqs =      20    Nr_points =    1024   r_max =   100.000
     q_mesh =
               0.00001000     0.04494208     0.09755937     0.15916263
               0.23128650     0.31572767     0.41458969     0.53033537
               0.66584808     0.82450364     1.01025438     1.22772762
               1.48234092     1.78043706     2.12944203     2.53805004
               3.01644009     3.57652955     4.23227104     5.00000000

     Gradients computed in reciprocal space

     Adding external electric field

     Computed dipole along edir(3) :
        Dipole               -1.4126 Ry au,         -3.5904 Debye
        Dipole field         -0.0041 Ry au

        Potential amp.        0.3718 Ry
        Total length         45.1039 bohr

     Starting wfc are  160 randomized atomic wfcs

     Self-consistent Calculation

     iteration #  1     ecut=    36.75 Ry     beta=0.30
     Davidson diagonalization with overlap
     ethr =  1.00E-02,  avg # of iterations =  2.0

[...]

     total energy              =   -2298.23221309 Ry
     Harris-Foulkes estimate   =   -2326.20779101 Ry
     estimated scf accuracy    <      57.99167920 Ry

[...]

     iteration # 12     ecut=    36.75 Ry     beta=0.30
     Davidson diagonalization with overlap
     c_bands:  1 eigenvalues not converged
     c_bands:  1 eigenvalues not converged
     ethr =  1.53E-05,  avg # of iterations =  7.3

[...]

     End of self-consistent calculation

          k = 0.0000 0.0000 0.0000 ( 16091 PWs)   bands (ev):

   -78.2038 -78.1428 -78.1184 -78.1061 -78.0949 -78.0894 -78.0638 -78.0511
   -78.0284 -77.9992 -77.9954 -77.9878 -40.4580 -40.4478 -40.4377 -40.3482
   -40.2956 -40.2884 -40.2698 -40.1628 -40.1557 -40.1465 -39.9263 -39.8149
   -39.8088 -39.7992 -39.7818 -39.7802 -39.7734 -39.6981 -39.6918 -39.6880
   -39.5800 -39.5790 -39.5675 -39.5068 -39.4946 -39.4911 -39.4852 -39.4455
   -39.4425 -39.4140 -39.4099 -39.4063 -39.2911 -39.2749 -39.2124 -39.2082
    -9.4485  -6.7651  -4.8053  -4.2666  -3.8748  -3.8726  -3.8674  -3.5817
    -3.5681  -3.5648  -2.9005  -2.8870  -2.8820  -2.7200  -2.7030  -2.7007
    -1.1795  -1.1773  -1.1386  -0.1379  -0.0929  -0.0861   0.0780   0.2365
     0.5824   0.5831   0.8178   0.9406   1.0153   1.0291   1.0729   1.0735
     1.0805   1.1151   1.2971   1.3211   1.4384   1.8160   2.0919   2.1105
     2.7028   2.8735   3.0429   3.0833   3.0863   3.1258   3.6442   3.6575
     3.6818   4.2052   4.2070   4.2285   4.3338   4.4843

[...]

          k =-0.0911 0.0526 0.0000 ( 16164 PWs)   bands (ev):

[...]

     the Fermi energy is     2.4325 ev

!    total energy              =   -2325.89938878 Ry
     Harris-Foulkes estimate   =   -2325.89942149 Ry
     estimated scf accuracy    <       0.00000630 Ry

     The total energy is the sum of the following terms:

     one-electron contribution =  -18699.54069993 Ry
     hartree contribution      =    9334.05491584 Ry
     xc contribution           =    -654.40575045 Ry
     ewald contribution        =    7694.06110448 Ry
     electric field correction =       0.00053514 Ry
     smearing contrib. (-TS)   =      -0.06949387 Ry

     convergence has been achieved in  20 iterations

 BEEF-vdW xc energy contributions
           1 :   -581.695835495479
           2 :    540.611763375604
           3 :   -466.958783166423
           4 :    374.804424671140
           5 :   -279.570673817047
           6 :    194.139194057454
           7 :   -126.274968040699
           8 :    77.9316340312942
           9 :   -46.3749355159889
[...]

   This run was terminated on:  18: 4: 9  15Jan2018

[...]

     Total force =     0.248852     Total SCF correction =     0.015385

[...]

   This run was terminated on:  19: 6: 0  15Jan2018

[...]

     Program PWSCF v.5.1rc2 (svn rev. 11289) starts on 15Jan2018 at 19: 6: 6

[...]

   This run was terminated on:  20: 6:24  15Jan2018

[...]

     Program PWSCF v.5.1rc2 (svn rev. 11289) starts on 15Jan2018 at 20: 6:30

[...]

   This run was terminated on:  20:21:23  15Jan2018

[...]

     Program PWSCF v.5.1rc2 (svn rev. 11289) starts on 15Jan2018 at 20:21:29

     Current dimensions of program PWSCF are:
     Max number of different atomic species (ntypx) = 10
     Max number of k-points (npk) =  40000
     Max angular momentum in pseudopotentials (lmaxx) =  3
     Presently stress not available with electric field

     IMPORTANT: XC functional enforced from input :
     Exchange-correlation      = BEEF-VDW ( 1  4 27 13 2)
     Any further DFT definition will be discarded
     Please, verify this is what you really want

     Subspace diagonalization in iterative solution of the eigenvalue problem:
     a serial algorithm will be used

     bravais-lattice index     =            0
     lattice parameter (alat)  =       1.8897  a.u.
     unit-cell volume          =    4306.9643 (a.u.)^3
     number of atoms/cell      =           13
     number of atomic types    =            2
     number of electrons       =       185.00
     number of Kohn-Sham states=          102
     kinetic-energy cutoff     =      36.7493  Ry
     charge density cutoff     =     367.4932  Ry
     convergence threshold     =      1.0E-05
     mixing beta               =       0.3000
     number of iterations used =           10  plain     mixing
     Exchange-correlation      = BEEF-VDW ( 1  4 27 13 2)
     nstep                     =           50

     celldm(1)=   1.889726  celldm(2)=   0.000000  celldm(3)=   0.000000
     celldm(4)=   0.000000  celldm(5)=   0.000000  celldm(6)=   0.000000

     crystal axes: (cart. coord. in units of alat)
               a(1) = (   5.486772   0.000000   0.000000 )
               a(2) = (   2.743386   4.751684   0.000000 )
               a(3) = (   0.000000   0.000000  24.479931 )

     reciprocal axes: (cart. coord. in units 2 pi/alat)
               b(1) = (  0.182257 -0.105226  0.000000 )
               b(2) = (  0.000000  0.210452  0.000000 )
               b(3) = (  0.000000  0.000000  0.040850 )

     PseudoPot. # 1 for Re read from file:
     /afs/slac.stanford.edu/u/if/mamunm/psp/gbrv1.5pbe/Re.UPF
     MD5 check sum: 85f993410f3e006da9d71c142b4ad953
     Pseudo is Ultrasoft + core correction, Zval = 15.0
     Generated by new atomic code, or converted to UPF format
     Using radial grid of  981 points,  8 beta functions with:
                l(1) =   0
                l(2) =   0
                l(3) =   1
                l(4) =   1
                l(5) =   2
                l(6) =   2
                l(7) =   3
                l(8) =   3
     Q(r) pseudized with  8 coefficients,  rinner =    1.150   1.150   1.150
                                                       1.150   1.150   1.150
                                                       1.150

     PseudoPot. # 2 for N  read from file:
     /afs/slac.stanford.edu/u/if/mamunm/psp/gbrv1.5pbe/N.UPF
     MD5 check sum: 95339753478d7afb44899504a8723017
     Pseudo is Ultrasoft + core correction, Zval =  5.0
     Generated by new atomic code, or converted to UPF format
     Using radial grid of  729 points,  4 beta functions with:
                l(1) =   0
                l(2) =   0
                l(3) =   1
                l(4) =   1
     Q(r) pseudized with  8 coefficients,  rinner =    0.900   0.900   0.900

     vdW kernel table read from file vdW_kernel_table
     MD5 check sum: 095c7af220d748ca6e76c0b4c6cfb241

     atomic species   valence    mass     pseudopotential
        Re1           15.00   186.20700     Re( 1.00)
        N1             5.00    14.00700     N ( 1.00)

     No symmetry found

   Cartesian axes

     site n.     atom                  positions (alat units)
         1           Re1 tau(   1) = (   1.3716930   0.7919474  10.0000000  )
         2           Re1 tau(   2) = (   4.1150791   0.7919474  10.0000000  )
         3           Re1 tau(   3) = (   2.7433861   3.1677894  10.0000000  )
         4           Re1 tau(   4) = (   5.4867722   3.1677894  10.0000000  )
         5           Re1 tau(   5) = (   5.4867722   1.5838947  12.2399654  )
         6           Re1 tau(   6) = (   2.7433861   1.5838947  12.2399654  )
         7           Re1 tau(   7) = (   6.8584652   3.9597368  12.2399654  )
         8           Re1 tau(   8) = (   4.1150791   3.9597368  12.2399654  )
         9           Re1 tau(   9) = (   5.4637443   0.0120056  14.4706688  )
        10           Re1 tau(  10) = (   2.7666700   0.0132526  14.4703889  )
        11           Re1 tau(  11) = (   1.3724088   2.3749733  14.3768710  )
        12           Re1 tau(  12) = (   4.1141007   2.3483545  14.4707241  )
        13           N1  tau(  13) = (   4.1149247   3.9582805  15.6105198  )

     number of k points=    20  Fermi-Dirac smearing, width (Ry)=  0.0110
                       cart. coord. in units 2pi/alat
        k(    1) = (   0.0000000   0.0000000   0.0000000), wk =   0.0555556
        k(    2) = (   0.0000000   0.0350753   0.0000000), wk =   0.1111111
        k(    3) = (   0.0000000   0.0701506   0.0000000), wk =   0.1111111
        k(    4) = (   0.0000000  -0.1052259   0.0000000), wk =   0.0555556
        k(    5) = (   0.0303761  -0.0175376   0.0000000), wk =   0.1111111
        k(    6) = (   0.0303761   0.0175376   0.0000000), wk =   0.1111111
        k(    7) = (   0.0303761   0.0526129   0.0000000), wk =   0.1111111
        k(    8) = (   0.0303761  -0.1227635   0.0000000), wk =   0.1111111
        k(    9) = (   0.0303761  -0.0876882   0.0000000), wk =   0.1111111
        k(   10) = (   0.0303761  -0.0526129   0.0000000), wk =   0.1111111
        k(   11) = (   0.0607522  -0.0350753   0.0000000), wk =   0.1111111
        k(   12) = (   0.0607522   0.0000000   0.0000000), wk =   0.1111111
        k(   13) = (   0.0607522   0.0350753   0.0000000), wk =   0.1111111
        k(   14) = (   0.0607522  -0.1403011   0.0000000), wk =   0.1111111
        k(   15) = (   0.0607522  -0.1052259   0.0000000), wk =   0.1111111
        k(   16) = (   0.0607522  -0.0701506   0.0000000), wk =   0.1111111
        k(   17) = (  -0.0911283   0.0526129   0.0000000), wk =   0.0555556
        k(   18) = (  -0.0911283   0.0876882   0.0000000), wk =   0.1111111
        k(   19) = (  -0.0911283   0.1227635   0.0000000), wk =   0.1111111
        k(   20) = (  -0.0911283  -0.0526129   0.0000000), wk =   0.0555556

     Largest allocated arrays     est. size (Mb)     dimensions
     Largest temporary arrays     est. size (Mb)     dimensions

     Initial potential from superposition of free atoms
     Check: negative starting charge=   -1.541196

     starting charge  178.99945, renormalised to  185.00000

[...]

     *
     * You are using vdW-DF for exchange-correlation in this calculation.
     * Please cite the following three references that made this development
     * possible:
     *
     *   M. Dion, H. Rydberg, E. Schroder, D. C. Langreth, and
     *   B. I. Lundqvist, Phys. Rev. Lett. 92, 246401 (2004).
     *
     *   T. Thonhauser, V. R. Cooper, S. Li, A. Puzder, P. Hyldgaard, and
     *   D. C. Langreth, Phys. Rev. B 76, 125112 (2007).
     *
     *   G. Roman-Perez and J. M. Soler, Phys. Rev. Lett. 103, 096102 (2009).
     *
     *
     * If you are using vdW-DF2, please also cite:
     *
     *   K. Lee, E. D. Murray, L. Kong, B. I. Lundqvist, and
     *   D. C. Langreth, Phys. Rev. B 82, 081101(R) (2010).
     *
     *
     * If you are calculating the stress with vdW-DF, please also cite:
     *
     *   R. Sabatini, E. Kucukbenli, B. Kolb, T. Thonhauser, and
     *   S. de Gironcoli, J. Phys.: Condens. Matter 24, 424209 (2012).
     *

     Carrying out vdW-DF run using the following parameters:

     Nqs =      20    Nr_points =    1024   r_max =   100.000
     q_mesh =
               0.00001000     0.04494208     0.09755937     0.15916263
               0.23128650     0.31572767     0.41458969     0.53033537
               0.66584808     0.82450364     1.01025438     1.22772762
               1.48234092     1.78043706     2.12944203     2.53805004
               3.01644009     3.57652955     4.23227104     5.00000000

     Gradients computed in reciprocal space

[...]

     Starting wfc are  160 randomized atomic wfcs

     Self-consistent Calculation

[...]

     total energy              =   -2326.25954782 Ry
     Harris-Foulkes estimate   =   -2326.25954922 Ry
     estimated scf accuracy    <       0.00001098 Ry

     iteration # 20     ecut=    36.75 Ry     beta=0.30
     Davidson diagonalization with overlap
     ethr =  5.94E-09,  avg # of iterations =  2.0

[...]

     negative rho (up, down):  1.625E+00 0.000E+00

     Adding external electric field

     Computed dipole along edir(3) :
        Dipole               -0.0256 Ry au,         -0.0651 Debye
        Dipole field         -0.0001 Ry au

        Potential amp.        0.0067 Ry
        Total length         45.1039 bohr

     End of self-consistent calculation

[...]

          k = 0.0608-0.0702 0.0000 ( 16218 PWs)   bands (ev):

[...]

          k =-0.0911-0.0526 0.0000 ( 16164 PWs)   bands (ev):

   -77.6295 -77.6093 -77.5794 -77.5790 -77.5575 -77.5326 -77.5166 -77.4787
   -77.4692 -77.4415 -77.4342 -77.3946 -39.7810 -39.7341 -39.7277 -39.6869
   -39.6651 -39.6203 -39.5262 -39.5042 -39.4907 -39.4614 -39.4282 -39.4244
   -39.3981 -39.2952 -39.2410 -39.2073 -39.1983 -39.1911 -39.1622 -39.1463
   -39.1378 -39.1357 -39.1068 -39.0838 -39.0762 -39.0575 -39.0436 -39.0132
   -38.9520 -38.9518 -38.9205 -38.8926 -38.8659 -38.8017 -38.7579 -38.7520
   -12.1251  -4.4271  -4.1955  -3.2211  -2.6506  -2.5189  -2.4218  -2.2339
    -2.1432  -2.0527  -2.0283  -2.0104  -1.4558  -1.3609  -1.2114  -1.1813
    -0.9237  -0.8465  -0.8381  -0.4510  -0.3289  -0.1914  -0.1859  -0.0141
     0.1606   0.3684   0.5534   0.7066   0.8866   0.9196   0.9885   1.0391
     1.0955   1.1850   1.2404   1.4059   1.5042   1.5424   1.6421   1.8851
     2.0095   2.2558   2.3523   2.8265   2.9841   3.0203   3.1072   3.2690
     3.4071   3.4955   3.7390   3.8116   4.0010   4.1197

     the Fermi energy is     2.9860 ev

!    total energy              =   -2326.25954772 Ry
     Harris-Foulkes estimate   =   -2326.25954913 Ry
     estimated scf accuracy    <       0.00000106 Ry

     The total energy is the sum of the following terms:

     one-electron contribution =  -19118.60394763 Ry
     hartree contribution      =    9546.39132376 Ry
     xc contribution           =    -655.20531640 Ry
     ewald contribution        =    7901.22091399 Ry
     electric field correction =       0.00000192 Ry
     smearing contrib. (-TS)   =      -0.06252335 Ry

     convergence has been achieved in  20 iterations

 BEEF-vdW xc energy contributions
           1 :   -582.504479776976
           2 :    541.666380910353
           3 :   -468.297568473817
           4 :    376.241311659770
           5 :   -280.817259276727
           6 :    194.944781728985
           7 :   -126.528617083338
           8 :    77.6973728384728
           9 :   -45.8544884067503
          10 :    25.8790430827992
          11 :   -12.5163616253851
          12 :    2.09748605129971
          13 :    6.84804132380577
          14 :   -14.0202485147031
          15 :    18.3751135390239
          16 :   -19.1966437090859
          17 :    16.7665229471199
          18 :   -12.4204782048735
          19 :    8.05197161729234
          20 :   -5.35223705274802
          21 :    5.15508479303230
          22 :   -7.17406423779721
          23 :    10.2210288585458
          24 :   -12.7824655744785
          25 :    13.6833223346280
          26 :   -12.5509448629982
          27 :    9.89343863644035
          28 :   -6.78982473602730
          29 :    4.36352660728289
          30 :   -3.29481815080089
          31 :   -48.5419174205554
          32 :   -36.0586982894526

     Forces acting on atoms (Ry/au):

     negative rho (up, down):  1.625E+00 0.000E+00
     atom    1 type  1   force =    -0.00005072    0.00253637    0.01796712
     atom    2 type  1   force =     0.00005273   -0.00003142    0.02304330
     atom    3 type  1   force =    -0.00219807   -0.00127792    0.01795253
     atom    4 type  1   force =     0.00221338   -0.00133921    0.01800161
     atom    5 type  1   force =     0.00236442    0.00139566   -0.02822680
     atom    6 type  1   force =    -0.00245356    0.00144304   -0.02851713
     atom    7 type  1   force =    -0.00001205   -0.00290418   -0.02840115
     atom    8 type  1   force =    -0.00008163   -0.00016446    0.00819695
     atom    9 type  1   force =    -0.00004687    0.00070890   -0.00020202
     atom   10 type  1   force =    -0.00027589   -0.00068312    0.00017063
     atom   11 type  1   force =    -0.00075653    0.00012005    0.00087884
     atom   12 type  1   force =     0.00104617   -0.00008195   -0.00029421
     atom   13 type  2   force =     0.00019861    0.00027826   -0.00056966

     Total force =     0.063496     Total SCF correction =     0.006708
     SCF correction compared to forces is large: reduce conv_thr to get better values

     entering subroutine stress ...

     negative rho (up, down):  1.625E+00 0.000E+00
          total   stress  (Ry/bohr**3)                   (kbar)     P=  -11.64
  -0.00006326   0.00000004   0.00000021         -9.31      0.01      0.03
   0.00000004  -0.00006310   0.00000055          0.01     -9.28      0.08
   0.00000021   0.00000055  -0.00011105          0.03      0.08    -16.34

 !ASE

     Writing output data file calc.save

     General routines

     Parallel routines

   This run was terminated on:  20:37: 0  15Jan2018

   JOB DONE.
Job  /afs/slac/g/suncat/bin/suncat-tsmpirun -x LD_LIBRARY_PATH -wdir /scratch/qe842473_9Wyuw pw.x -in pw.inp

TID   HOST_NAME   COMMAND_LINE            STATUS            TERMINATION_TIME
00000 suncat0050 pw.x -in pw.inp   Done                     01/15/2018 20:37:00
00001 suncat0050 pw.x -in pw.inp   Done                     01/15/2018 20:37:00
00002 suncat0050 pw.x -in pw.inp   Done                     01/15/2018 20:37:00
00003 suncat0050 pw.x -in pw.inp   Done                     01/15/2018 20:37:00
00004 suncat0050 pw.x -in pw.inp   Done                     01/15/2018 20:37:00
00005 suncat0050 pw.x -in pw.inp   Done                     01/15/2018 20:37:00
00006 suncat0050 pw.x -in pw.inp   Done                     01/15/2018 20:37:00
00007 suncat0050 pw.x -in pw.inp   Done                     01/15/2018 20:37:00
00008 suncat0242 pw.x -in pw.inp   Done                     01/15/2018 20:37:00
00009 suncat0242 pw.x -in pw.inp   Done                     01/15/2018 20:37:00
00010 suncat0242 pw.x -in pw.inp   Done                     01/15/2018 20:37:00
00011 suncat0242 pw.x -in pw.inp   Done                     01/15/2018 20:37:00
00012 suncat0242 pw.x -in pw.inp   Done                     01/15/2018 20:37:00
00013 suncat0242 pw.x -in pw.inp   Done                     01/15/2018 20:37:00
00014 suncat0242 pw.x -in pw.inp   Done                     01/15/2018 20:37:00
00015 suncat0242 pw.x -in pw.inp   Done                     01/15/2018 20:37:00
00016 suncat0241 pw.x -in pw.inp   Done                     01/15/2018 20:37:00
00017 suncat0241 pw.x -in pw.inp   Done                     01/15/2018 20:37:00
00018 suncat0241 pw.x -in pw.inp   Done                     01/15/2018 20:37:00
00019 suncat0241 pw.x -in pw.inp   Done                     01/15/2018 20:37:00
00020 suncat0241 pw.x -in pw.inp   Done                     01/15/2018 20:37:00
00021 suncat0241 pw.x -in pw.inp   Done                     01/15/2018 20:37:00
00022 suncat0241 pw.x -in pw.inp   Done                     01/15/2018 20:37:00
00023 suncat0241 pw.x -in pw.inp   Done                     01/15/2018 20:37:00
00024 suncat0240 pw.x -in pw.inp   Done                     01/15/2018 20:37:00
00025 suncat0240 pw.x -in pw.inp   Done                     01/15/2018 20:37:00
00026 suncat0240 pw.x -in pw.inp   Done                     01/15/2018 20:37:00
00027 suncat0240 pw.x -in pw.inp   Done                     01/15/2018 20:37:00
00028 suncat0240 pw.x -in pw.inp   Done                     01/15/2018 20:37:00
00029 suncat0240 pw.x -in pw.inp   Done                     01/15/2018 20:37:00
00030 suncat0240 pw.x -in pw.inp   Done                     01/15/2018 20:37:00
00031 suncat0240 pw.x -in pw.inp   Done                     01/15/2018 20:37:00