     Program PWSCF v.5.1rc2 (svn rev. 11289) starts on  2May2018 at 20: 7: 8

     Current dimensions of program PWSCF are:
     Max number of different atomic species (ntypx) = 10
     Max number of k-points (npk) =  40000
     Max angular momentum in pseudopotentials (lmaxx) =  3
     Presently stress not available with electric field

     IMPORTANT: XC functional enforced from input :
     Exchange-correlation      = BEEF-VDW ( 1  4 27 13 2)
     Any further DFT definition will be discarded
     Please, verify this is what you really want

     Subspace diagonalization in iterative solution of the eigenvalue problem:
     a serial algorithm will be used

     bravais-lattice index     =            0
     lattice parameter (alat)  =       1.8897  a.u.
     unit-cell volume          =    6082.7792 (a.u.)^3
     number of atoms/cell      =           13
     number of atomic types    =            2
     number of electrons       =       150.00
     number of Kohn-Sham states=           85
     kinetic-energy cutoff     =      36.7493  Ry
     charge density cutoff     =     367.4932  Ry
     convergence threshold     =      1.0E-05
     mixing beta               =       0.3000
     number of iterations used =           10  plain     mixing
     Exchange-correlation      = BEEF-VDW ( 1  4 27 13 2)
     nstep                     =           50

     celldm(1)=   1.889726  celldm(2)=   0.000000  celldm(3)=   0.000000
     celldm(4)=   0.000000  celldm(5)=   0.000000  celldm(6)=   0.000000

     crystal axes: (cart. coord. in units of alat)
               a(1) = (   6.421223   0.000000   0.000000 )
               a(2) = (   3.210611   5.560942   0.000000 )
               a(3) = (   0.000000   0.000000  25.242906 )

     reciprocal axes: (cart. coord. in units 2 pi/alat)
               b(1) = (  0.155734 -0.089913  0.000000 )
               b(2) = (  0.000000  0.179826  0.000000 )
               b(3) = (  0.000000  0.000000  0.039615 )

     PseudoPot. # 1 for Zr read from file:
     /u/if/mamunm/psp/gbrv1.5pbe/Zr.UPF
     MD5 check sum: 5db81b1e868ab7776c4564c113de050b
     Pseudo is Ultrasoft + core correction, Zval = 12.0
     Generated by new atomic code, or converted to UPF format
     Using radial grid of  887 points,  6 beta functions with:
                l(1) =   0
                l(2) =   0
                l(3) =   1
                l(4) =   1
                l(5) =   2
                l(6) =   2
     Q(r) pseudized with  6 coefficients,  rinner =    1.200   1.200   1.200
                                                       1.200   1.200

     PseudoPot. # 2 for O  read from file:
     /u/if/mamunm/psp/gbrv1.5pbe/O.UPF
     MD5 check sum: 734c27235a0248c51dbae37a1fbe46ec
     Pseudo is Ultrasoft + core correction, Zval =  6.0
     Generated by new atomic code, or converted to UPF format
     Using radial grid of  737 points,  5 beta functions with:
                l(1) =   0
                l(2) =   0
                l(3) =   1
                l(4) =   1
                l(5) =   2
     Q(r) pseudized with  8 coefficients,  rinner =    0.900   0.900   0.900
                                                       0.900   0.900

     vdW kernel table read from file vdW_kernel_table
     MD5 check sum: 095c7af220d748ca6e76c0b4c6cfb241

     atomic species   valence    mass     pseudopotential
        Zr1           12.00    91.22400     Zr( 1.00)
        O1             6.00    15.99900     O ( 1.00)

     No symmetry found

   Cartesian axes

     site n.     atom                  positions (alat units)
         1           Zr1 tau(   1) = (   1.6053057   0.9268237  10.0000000  )
         2           Zr1 tau(   2) = (   4.8159170   0.9268237  10.0000000  )
         3           Zr1 tau(   3) = (   3.2106113   3.7072946  10.0000000  )
         4           Zr1 tau(   4) = (   6.4212227   3.7072946  10.0000000  )
         5           Zr1 tau(   5) = (   6.4212227   1.8536473  12.6214532  )
         6           Zr1 tau(   6) = (   3.2106113   1.8536473  12.6214532  )
         7           Zr1 tau(   7) = (   8.0265283   4.6341183  12.6214532  )
         8           Zr1 tau(   8) = (   4.8159170   4.6341183  12.6214532  )
         9           Zr1 tau(   9) = (   0.0000000   0.0000000  15.2429064  )
        10           Zr1 tau(  10) = (   3.2106113   0.0000000  15.2429064  )
        11           Zr1 tau(  11) = (   1.6053057   2.7804710  15.2429064  )
        12           Zr1 tau(  12) = (   4.8159170   2.7804710  15.2429064  )
        13           O1  tau(  13) = (   1.6053057   0.9268237  16.8094064  )

     number of k points=    20  Fermi-Dirac smearing, width (Ry)=  0.0110
                       cart. coord. in units 2pi/alat
        k(    1) = (   0.0000000   0.0000000   0.0000000), wk =   0.0555556
        k(    2) = (   0.0000000   0.0299709   0.0000000), wk =   0.1111111
        k(    3) = (   0.0000000   0.0599419   0.0000000), wk =   0.1111111
        k(    4) = (   0.0000000  -0.0899128   0.0000000), wk =   0.0555556
        k(    5) = (   0.0259556  -0.0149855   0.0000000), wk =   0.1111111
        k(    6) = (   0.0259556   0.0149855   0.0000000), wk =   0.1111111
        k(    7) = (   0.0259556   0.0449564   0.0000000), wk =   0.1111111
        k(    8) = (   0.0259556  -0.1048983   0.0000000), wk =   0.1111111
        k(    9) = (   0.0259556  -0.0749274   0.0000000), wk =   0.1111111
        k(   10) = (   0.0259556  -0.0449564   0.0000000), wk =   0.1111111
        k(   11) = (   0.0519112  -0.0299709   0.0000000), wk =   0.1111111
        k(   12) = (   0.0519112   0.0000000   0.0000000), wk =   0.1111111
        k(   13) = (   0.0519112   0.0299709   0.0000000), wk =   0.1111111
        k(   14) = (   0.0519112  -0.1198838   0.0000000), wk =   0.1111111
        k(   15) = (   0.0519112  -0.0899128   0.0000000), wk =   0.1111111
        k(   16) = (   0.0519112  -0.0599419   0.0000000), wk =   0.1111111
        k(   17) = (  -0.0778668   0.0449564   0.0000000), wk =   0.0555556
        k(   18) = (  -0.0778668   0.0749274   0.0000000), wk =   0.1111111
        k(   19) = (  -0.0778668   0.1048983   0.0000000), wk =   0.1111111
        k(   20) = (  -0.0778668  -0.0449564   0.0000000), wk =   0.0555556

     Largest allocated arrays     est. size (Mb)     dimensions
     Largest temporary arrays     est. size (Mb)     dimensions

     Initial potential from superposition of free atoms
     Check: negative starting charge=   -0.729319

     starting charge  149.97421, renormalised to  150.00000

     negative rho (up, down):  7.294E-01 0.000E+00

     *
     * You are using vdW-DF for exchange-correlation in this calculation.
     * Please cite the following three references that made this development
     * possible:
     *
     *   M. Dion, H. Rydberg, E. Schroder, D. C. Langreth, and
     *   B. I. Lundqvist, Phys. Rev. Lett. 92, 246401 (2004).
     *
     *   T. Thonhauser, V. R. Cooper, S. Li, A. Puzder, P. Hyldgaard, and
     *   D. C. Langreth, Phys. Rev. B 76, 125112 (2007).
     *
     *   G. Roman-Perez and J. M. Soler, Phys. Rev. Lett. 103, 096102 (2009).
     *
     *
     * If you are using vdW-DF2, please also cite:
     *
     *   K. Lee, E. D. Murray, L. Kong, B. I. Lundqvist, and
     *   D. C. Langreth, Phys. Rev. B 82, 081101(R) (2010).
     *
     *
     * If you are calculating the stress with vdW-DF, please also cite:
     *
     *   R. Sabatini, E. Kucukbenli, B. Kolb, T. Thonhauser, and
     *   S. de Gironcoli, J. Phys.: Condens. Matter 24, 424209 (2012).
     *

     Carrying out vdW-DF run using the following parameters:

     Nqs =      20    Nr_points =    1024   r_max =   100.000
     q_mesh =
               0.00001000     0.04494208     0.09755937     0.15916263
               0.23128650     0.31572767     0.41458969     0.53033537
               0.66584808     0.82450364     1.01025438     1.22772762
               1.48234092     1.78043706     2.12944203     2.53805004
               3.01644009     3.57652955     4.23227104     5.00000000

     Gradients computed in reciprocal space

     Adding external electric field

     Computed dipole along edir(3) :
        Dipole               -0.0082 Ry au,         -0.0207 Debye
        Dipole field         -0.0000 Ry au

        Potential amp.        0.0016 Ry
        Total length         46.5096 bohr

     Starting wfc are  160 randomized atomic wfcs

     Self-consistent Calculation

     iteration #  1     ecut=    36.75 Ry     beta=0.30
     Davidson diagonalization with overlap
     ethr =  1.00E-02,  avg # of iterations =  2.0

[...]

     total energy              =   -1226.71779758 Ry
     Harris-Foulkes estimate   =   -1230.24395052 Ry
     estimated scf accuracy    <       7.47531470 Ry

[...]

     End of self-consistent calculation

          k = 0.0000 0.0000 0.0000 ( 22923 PWs)   bands (ev):

   -48.0836 -48.0037 -48.0018 -47.9892 -47.9890 -47.9160 -47.9159 -47.9095
   -47.6771 -47.6053 -47.6052 -47.5390 -26.3564 -26.3563 -26.3343 -26.2693
   -26.2692 -26.2677 -26.2446 -26.1548 -26.1295 -26.1294 -26.0565 -25.9689
   -25.9499 -25.9498 -25.8162 -25.7957 -25.7956 -25.7922 -25.7785 -25.7784
   -25.7396 -25.7349 -25.7348 -25.6324 -25.6323 -25.5726 -25.5726 -25.5245
   -25.5245 -25.5160 -25.4394 -25.4215 -25.4043 -25.4043 -25.2538 -25.2538
   -15.6453  -3.6617  -2.6068  -1.9792  -1.9657  -1.9657  -1.6328  -1.2675
    -1.2193  -1.2193  -1.0696  -1.0696  -1.0048  -0.6294  -0.6294  -0.6007
    -0.4546  -0.4545  -0.0825   0.4209   0.4209   0.8938   1.2192   1.4896
     1.5216   1.5216   1.6623   1.8822   1.9762   1.9798   1.9798   2.1887
     2.1888   2.3569   2.4267   2.4267   2.4494

[...]

          k =-0.0779 0.0450 0.0000 ( 22880 PWs)   bands (ev):

[...]

     the Fermi energy is     1.2742 ev

!    total energy              =   -1229.59376575 Ry
     Harris-Foulkes estimate   =   -1229.59378491 Ry
     estimated scf accuracy    <       0.00000330 Ry

     The total energy is the sum of the following terms:

     one-electron contribution =   -8520.06966574 Ry
     hartree contribution      =    4252.93137921 Ry
     xc contribution           =    -227.98666519 Ry
     ewald contribution        =    3265.64637170 Ry
     electric field correction =       0.00009706 Ry
     smearing contrib. (-TS)   =      -0.11528280 Ry

     convergence has been achieved in  16 iterations

 BEEF-vdW xc energy contributions
           1 :   -195.238594638885
           2 :    176.464729246663
           3 :   -144.909058367036
           4 :    109.540716910722
           5 :   -78.3690317453131
           6 :    55.6662181086175
           7 :   -41.3727674588009
           8 :    32.5001817221885
           9 :   -25.4463810732923
          10 :    17.9272903615040
          11 :   -9.70558782671003
          12 :    2.05626506314982
          13 :    3.45737647994196
          14 :   -6.09111123496726
          15 :    6.31897967156669
          16 :   -5.43424600373896
          17 :    4.72513019256809
          18 :   -4.78114995486425
          19 :    5.32825686010599
          20 :   -5.61988603488211
          21 :    5.06024333973551
          22 :   -3.63283596720146
          23 :    1.88735433103292
          24 :  -0.553005325518939
          25 :   7.368647990080035E-002
          26 :  -0.370586409051697
          27 :   0.952951544742120
          28 :   -1.26962907161982
          29 :    1.05816190829262
          30 :  -0.471989910140223
          31 :   -22.5922527216298
          32 :   -16.7730241043529

     Forces acting on atoms (Ry/au):

     negative rho (up, down):  7.500E-01 0.000E+00
     atom    1 type  1   force =     0.00000663   -0.00001422    0.01454287
     atom    2 type  1   force =    -0.00000485    0.00123849    0.01468915
     atom    3 type  1   force =     0.00108215   -0.00061573    0.01467432
     atom    4 type  1   force =    -0.00108234   -0.00060868    0.01468276
     atom    5 type  1   force =    -0.00105307    0.00058835   -0.00011228
     atom    6 type  1   force =     0.00105466    0.00057251   -0.00010711
     atom    7 type  1   force =    -0.00001284    0.00003141   -0.00547921
     atom    8 type  1   force =     0.00001468   -0.00119210   -0.00009836
     atom    9 type  1   force =     0.03490080    0.02014900    0.04548613
     atom   10 type  1   force =    -0.03490446    0.02015057    0.04548839
     atom   11 type  1   force =    -0.00000133   -0.04029788    0.04549921
     atom   12 type  1   force =     0.00000125   -0.00000105   -0.02915957
     atom   13 type  2   force =    -0.00000128   -0.00000066   -0.16010629

     Total force =     0.193817     Total SCF correction =     0.003249

     entering subroutine stress ...

     negative rho (up, down):  7.500E-01 0.000E+00
          total   stress  (Ry/bohr**3)                   (kbar)     P=  -16.84
  -0.00008642  -0.00000000  -0.00000000        -12.71     -0.00     -0.00
  -0.00000000  -0.00008642  -0.00000000         -0.00    -12.71     -0.00
  -0.00000000  -0.00000000  -0.00017055         -0.00     -0.00    -25.09

     BFGS Geometry Optimization

     number of scf cycles    =   1
     number of bfgs steps    =   0

     energy   new            =   -1229.5937657536 Ry

     new trust radius        =       0.1601062948 bohr
     new conv_thr            =       0.0000099958 Ry

ATOMIC_POSITIONS (crystal)
Zr1      0.166666667   0.166666667   0.396150897    0   0   0
Zr1      0.666666667   0.166666667   0.396150897    0   0   0
Zr1      0.166666667   0.666666667   0.396150897    0   0   0
Zr1      0.666666667   0.666666667   0.396150897    0   0   0
Zr1      0.833333333   0.333333333   0.500000000    0   0   0
Zr1      0.333333333   0.333333333   0.500000000    0   0   0
Zr1      0.833333333   0.833333333   0.500000000    0   0   0
Zr1      0.333333333   0.833333333   0.500000000    0   0   0
Zr1      0.001917513   0.001917371   0.604802647
Zr1      0.496164740   0.001917521   0.604802694
Zr1      0.001917256   0.496165269   0.604802921
Zr1      0.500000152   0.499999900   0.603237819
O1       0.166666593   0.166666604   0.662549768

     Writing output data file calc.save
     Check: negative starting charge=   -0.729319
     NEW-OLD atomic charge density approx. for the potential
     Check: negative starting charge=   -0.728323

[...]

     energy   old            =   -1229.5937657536 Ry
     energy   new            =   -1229.6291734389 Ry

     CASE: energy  _new < energy  _old

     WARNING: bfgs curvature condition failed, Theta= 0.913
     new trust radius        =       0.2401594422 bohr
     new conv_thr            =       0.0000001000 Ry

[...]

     iteration #  1     ecut=    36.75 Ry     beta=0.30
     Davidson diagonalization with overlap
     c_bands:  1 eigenvalues not converged
     ethr =  1.00E-06,  avg # of iterations = 13.9

[...]

     Threshold (ethr) on eigenvalues was too large:
     Diagonalizing with lowered threshold

     Davidson diagonalization with overlap
     ethr =  4.85E-08,  avg # of iterations =  4.2

[...]

     Total force =     0.005785     Total SCF correction =     0.000243

[...]

     Total force =     0.003658     Total SCF correction =     0.000504
     SCF correction compared to forces is large: reduce conv_thr to get better values

[...]

     number of scf cycles    =  16
     number of bfgs steps    =  15

     energy   old            =   -1229.7097762500 Ry
     energy   new            =   -1229.7098727539 Ry

     CASE: energy  _new < energy  _old

     new trust radius        =       0.0172872969 bohr
     new conv_thr            =       0.0000001000 Ry

ATOMIC_POSITIONS (crystal)
Zr1      0.166666667   0.166666667   0.396150897    0   0   0
Zr1      0.666666667   0.166666667   0.396150897    0   0   0
Zr1      0.166666667   0.666666667   0.396150897    0   0   0
Zr1      0.666666667   0.666666667   0.396150897    0   0   0
Zr1      0.833333333   0.333333333   0.500000000    0   0   0
Zr1      0.333333333   0.333333333   0.500000000    0   0   0
Zr1      0.833333333   0.833333333   0.500000000    0   0   0
Zr1      0.333333333   0.833333333   0.500000000    0   0   0
Zr1      0.001333898   0.001333517   0.602935833
Zr1      0.497328887   0.001333786   0.602936090
Zr1      0.001333893   0.497329024   0.602935985
Zr1      0.499999016   0.499999409   0.595073406
O1       0.166664985   0.166665754   0.641754967

     Writing output data file calc.save
     Check: negative starting charge=   -0.729398
     NEW-OLD atomic charge density approx. for the potential
     Check: negative starting charge=   -0.729346

[...]

     Self-consistent Calculation

[...]

     Threshold (ethr) on eigenvalues was too large:
     Diagonalizing with lowered threshold

     Davidson diagonalization with overlap
     ethr =  8.26E-08,  avg # of iterations =  2.1

[...]

     total energy              =   -1229.70991231 Ry
     Harris-Foulkes estimate   =   -1229.70991231 Ry
     estimated scf accuracy    <       0.00000031 Ry

     iteration # 10     ecut=    36.75 Ry     beta=0.30
     Davidson diagonalization with overlap
     ethr =  2.06E-10,  avg # of iterations =  1.4

[...]

     negative rho (up, down):  7.511E-01 0.000E+00

     Adding external electric field

     Computed dipole along edir(3) :
        Dipole                0.0464 Ry au,          0.1180 Debye
        Dipole field          0.0001 Ry au

        Potential amp.       -0.0089 Ry
        Total length         46.5096 bohr

     End of self-consistent calculation

[...]

          k = 0.0519-0.0599 0.0000 ( 22856 PWs)   bands (ev):

[...]

          k =-0.0779-0.0450 0.0000 ( 22880 PWs)   bands (ev):

   -47.7449 -47.7191 -47.6975 -47.6932 -47.6928 -47.6527 -47.6466 -47.5304
   -47.3149 -47.3051 -47.2761 -47.2527 -26.2177 -25.9067 -25.8989 -25.8782
   -25.8622 -25.8523 -25.8355 -25.7955 -25.7788 -25.7660 -25.7352 -25.7199
   -25.7000 -25.6848 -25.6650 -25.6596 -25.6570 -25.6141 -25.6012 -25.5474
   -25.4578 -25.4052 -25.3940 -25.3895 -25.3693 -25.3666 -25.2632 -25.2477
   -25.2230 -25.2179 -25.1730 -25.1607 -25.1380 -25.1195 -25.0205 -25.0137
   -17.2081  -3.9630  -3.7477  -3.4038  -1.9559  -1.8526  -0.9913  -0.7938
    -0.3416  -0.3114  -0.2286  -0.2178  -0.1789  -0.0018   0.4260   0.5195
     0.5339   0.5819   0.6259   0.6850   0.9591   0.9980   1.0526   1.0791
     1.1003   1.2111   1.2963   1.3993   1.4701   1.5552   1.5947   1.6685
     1.7891   1.8518   1.9197   2.2436   2.2699

     the Fermi energy is     1.5351 ev

!    total energy              =   -1229.70991225 Ry
     Harris-Foulkes estimate   =   -1229.70991228 Ry
     estimated scf accuracy    <       0.00000009 Ry

     The total energy is the sum of the following terms:

     one-electron contribution =   -8729.64457350 Ry
     hartree contribution      =    4358.79349175 Ry
     xc contribution           =    -228.36423551 Ry
     ewald contribution        =    3369.61654734 Ry
     electric field correction =       0.00000446 Ry
     smearing contrib. (-TS)   =      -0.11114680 Ry

     convergence has been achieved in  10 iterations

 BEEF-vdW xc energy contributions
           1 :   -195.629910159753
           2 :    176.992842040421
           3 :   -145.561480099173
           4 :    110.159590908457
           5 :   -78.7703001608706
           6 :    55.7583202107215
           7 :   -41.2026597751995
           8 :    32.2147531975295
           9 :   -25.2086140708203
          10 :    17.8410407375418
          11 :   -9.78186453571772
          12 :    2.22707937568367
          13 :    3.29090892467997
          14 :   -6.00345412439424
          15 :    6.32721618833190
          16 :   -5.50175832334781
          17 :    4.79482880525003
          18 :   -4.81645759705694
          19 :    5.33531572940325
          20 :   -5.63632986310108
          21 :    5.12069938057374
          22 :   -3.73888566070627
          23 :    2.00423674710379
          24 :  -0.633275206284196
          25 :   8.845232641812117E-002
          26 :  -0.326831842894535
          27 :   0.888590688666142
          28 :   -1.23103431924716
          29 :    1.07305910213773
          30 :  -0.534491536049018
          31 :   -22.6171478786326
          32 :   -16.8247724827204

     Forces acting on atoms (Ry/au):

     negative rho (up, down):  7.511E-01 0.000E+00
     atom    1 type  1   force =     0.00000061    0.00000038    0.01152004
     atom    2 type  1   force =     0.00000015    0.00197581    0.01397883
     atom    3 type  1   force =     0.00171114   -0.00098779    0.01397887
     atom    4 type  1   force =    -0.00171121   -0.00098800    0.01397796
     atom    5 type  1   force =     0.00630459   -0.00363972   -0.01356179
     atom    6 type  1   force =    -0.00630528   -0.00364041   -0.01356117
     atom    7 type  1   force =    -0.00000052   -0.00000022   -0.01198453
     atom    8 type  1   force =     0.00000026    0.00727985   -0.01356188
     atom    9 type  1   force =    -0.00049792   -0.00028693    0.00011364
     atom   10 type  1   force =     0.00049799   -0.00028743    0.00011314
     atom   11 type  1   force =    -0.00000039    0.00057505    0.00011337
     atom   12 type  1   force =    -0.00000031   -0.00000050   -0.00033178
     atom   13 type  2   force =     0.00000090   -0.00000011   -0.00079471

     Total force =     0.001331     Total SCF correction =     0.000858
     SCF correction compared to forces is large: reduce conv_thr to get better values

     entering subroutine stress ...

     negative rho (up, down):  7.511E-01 0.000E+00
          total   stress  (Ry/bohr**3)                   (kbar)     P=   -4.32
  -0.00002162   0.00000000   0.00000000         -3.18      0.00      0.00
   0.00000000  -0.00002162   0.00000000          0.00     -3.18      0.00
   0.00000000   0.00000000  -0.00004496          0.00      0.00     -6.61

     bfgs converged in  17 scf cycles and  16 bfgs steps
     (criteria: energy <  1.0E+00, force <  1.9E-03)

     End of BFGS Geometry Optimization

     Final energy   =   -1229.7099122532 Ry
Begin final coordinates

ATOMIC_POSITIONS (crystal)
Zr1      0.166666667   0.166666667   0.396150897    0   0   0
Zr1      0.666666667   0.166666667   0.396150897    0   0   0
Zr1      0.166666667   0.666666667   0.396150897    0   0   0
Zr1      0.666666667   0.666666667   0.396150897    0   0   0
Zr1      0.833333333   0.333333333   0.500000000    0   0   0
Zr1      0.333333333   0.333333333   0.500000000    0   0   0
Zr1      0.833333333   0.833333333   0.500000000    0   0   0
Zr1      0.333333333   0.833333333   0.500000000    0   0   0
Zr1      0.001333898   0.001333517   0.602935833
Zr1      0.497328887   0.001333786   0.602936090
Zr1      0.001333893   0.497329024   0.602935985
Zr1      0.499999016   0.499999409   0.595073406
O1       0.166664985   0.166665754   0.641754967
End final coordinates

     Writing output data file calc.save

     General routines

     Parallel routines

   This run was terminated on:  22:20:25   2May2018

   JOB DONE.
Job  /afs/slac/g/suncat/bin/suncat-tsmpirun -x LD_LIBRARY_PATH -wdir /scratch/qe929079_Ou4Tu pw.x -npool 4 -in pw.inp

TID   HOST_NAME   COMMAND_LINE            STATUS            TERMINATION_TIME
00000 suncat0071 pw.x -npool 4 -i  Done                     05/02/2018 22:20:25
00001 suncat0071 pw.x -npool 4 -i  Done                     05/02/2018 22:20:25
00002 suncat0071 pw.x -npool 4 -i  Done                     05/02/2018 22:20:25
00003 suncat0071 pw.x -npool 4 -i  Done                     05/02/2018 22:20:25
00004 suncat0071 pw.x -npool 4 -i  Done                     05/02/2018 22:20:25
00005 suncat0071 pw.x -npool 4 -i  Done                     05/02/2018 22:20:25
00006 suncat0071 pw.x -npool 4 -i  Done                     05/02/2018 22:20:25
00007 suncat0071 pw.x -npool 4 -i  Done                     05/02/2018 22:20:25
00008 suncat0068 pw.x -npool 4 -i  Done                     05/02/2018 22:20:25
00009 suncat0068 pw.x -npool 4 -i  Done                     05/02/2018 22:20:25
00010 suncat0068 pw.x -npool 4 -i  Done                     05/02/2018 22:20:25
00011 suncat0068 pw.x -npool 4 -i  Done                     05/02/2018 22:20:25
00012 suncat0068 pw.x -npool 4 -i  Done                     05/02/2018 22:20:25
00013 suncat0068 pw.x -npool 4 -i  Done                     05/02/2018 22:20:25
00014 suncat0068 pw.x -npool 4 -i  Done                     05/02/2018 22:20:25
00015 suncat0068 pw.x -npool 4 -i  Done                     05/02/2018 22:20:25
00016 suncat0062 pw.x -npool 4 -i  Done                     05/02/2018 22:20:25
00017 suncat0062 pw.x -npool 4 -i  Done                     05/02/2018 22:20:25
00018 suncat0062 pw.x -npool 4 -i  Done                     05/02/2018 22:20:25
00019 suncat0062 pw.x -npool 4 -i  Done                     05/02/2018 22:20:25
00020 suncat0062 pw.x -npool 4 -i  Done                     05/02/2018 22:20:25
00021 suncat0062 pw.x -npool 4 -i  Done                     05/02/2018 22:20:25
00022 suncat0062 pw.x -npool 4 -i  Done                     05/02/2018 22:20:25
00023 suncat0062 pw.x -npool 4 -i  Done                     05/02/2018 22:20:25
00024 suncat0055 pw.x -npool 4 -i  Done                     05/02/2018 22:20:25
00025 suncat0055 pw.x -npool 4 -i  Done                     05/02/2018 22:20:25
00026 suncat0055 pw.x -npool 4 -i  Done                     05/02/2018 22:20:25
00027 suncat0055 pw.x -npool 4 -i  Done                     05/02/2018 22:20:25
00028 suncat0055 pw.x -npool 4 -i  Done                     05/02/2018 22:20:25
00029 suncat0055 pw.x -npool 4 -i  Done                     05/02/2018 22:20:25
00030 suncat0055 pw.x -npool 4 -i  Done                     05/02/2018 22:20:25
00031 suncat0055 pw.x -npool 4 -i  Done                     05/02/2018 22:20:25