     Program PWSCF v.6.1 starts on 11Jan2019 at 16:17:23

     Current dimensions of program PWSCF are:
     Max number of different atomic species (ntypx) = 10
     Max number of k-points (npk) =  40000
     Max angular momentum in pseudopotentials (lmaxx) =  3

     IMPORTANT: XC functional enforced from input :
     Exchange-correlation      = BEEF-VDW ( 1  4 29 14 2 0)
     Any further DFT definition will be discarded
     Please, verify this is what you really want

     bravais-lattice index     =            0
     lattice parameter (alat)  =       9.4723  a.u.
     unit-cell volume          =    3537.7769 (a.u.)^3
     number of atoms/cell      =           13
     number of atomic types    =            2
     number of electrons       =       205.00
     number of Kohn-Sham states=          112
     kinetic-energy cutoff     =      36.7493  Ry
     charge density cutoff     =     367.4933  Ry
     convergence threshold     =      1.0E-04
     mixing beta               =       0.1000
     number of iterations used =            8  plain     mixing
     Exchange-correlation      = BEEF-VDW ( 1  4 29 14 2 0)
     nstep                     =           50

     celldm(1)=   9.472344  celldm(2)=   0.000000  celldm(3)=   0.000000
     celldm(4)=   0.000000  celldm(5)=   0.000000  celldm(6)=   0.000000

     crystal axes: (cart. coord. in units of alat)
               a(1) = (   1.000000   0.000000   0.000000 )
               a(2) = (   0.500000   0.866025   0.000000 )
               a(3) = (   0.000000   0.000000   4.806483 )

     reciprocal axes: (cart. coord. in units 2 pi/alat)
               b(1) = (  1.000000 -0.577350  0.000000 )
               b(2) = (  0.000000  1.154701  0.000000 )
               b(3) = (  0.000000  0.000000  0.208052 )

     PseudoPot. # 1 for Co read from file:
     /home/users/mamunm/src/decaf-espresso/gbrv15pbe/Co.UPF
     MD5 check sum: 5f91765df6ddd3222702df6e7b74a16d
     Pseudo is Ultrasoft + core correction, Zval = 17.0
     Generated by new atomic code, or converted to UPF format
     Using radial grid of  863 points,  6 beta functions with:
                l(1) =   0
                l(2) =   0
                l(3) =   1
                l(4) =   1
                l(5) =   2
                l(6) =   2
     Q(r) pseudized with  8 coefficients,  rinner =    1.200   1.200   1.200
                                                       1.200   1.200

     PseudoPot. # 2 for H  read from file:
     /home/users/mamunm/src/decaf-espresso/gbrv15pbe/H.UPF
     MD5 check sum: 761ae9a214b05c3daf00ab9f6b793d6f
     Pseudo is Ultrasoft, Zval =  1.0
     Generated by new atomic code, or converted to UPF format
     Using radial grid of  615 points,  2 beta functions with:
                l(1) =   0
                l(2) =   0
     Q(r) pseudized with  8 coefficients,  rinner =    0.700

     vdW kernel table read from file vdW_kernel_table
     MD5 check sum: 095c7af220d748ca6e76c0b4c6cfb241

     atomic species   valence    mass     pseudopotential
        Co            17.00    58.93319     Co( 1.00)
        H              1.00     1.00800     H ( 1.00)

     Starting magnetic structure
     atomic species   magnetization
        Co           0.118
        H            0.000

     No symmetry found

   Cartesian axes

     site n.     atom                  positions (alat units)
         1           Co  tau(   1) = (   0.2500000   0.1443376   1.9949931  )
         2           Co  tau(   2) = (   0.7500000   0.1443376   1.9949931  )
         3           Co  tau(   3) = (   0.5000000   0.5773503   1.9949931  )
         4           Co  tau(   4) = (   1.0000000   0.5773503   1.9949931  )
         5           Co  tau(   5) = (   1.0000000   0.2886751   2.4032414  )
         6           Co  tau(   6) = (   0.5000000   0.2886751   2.4032414  )
         7           Co  tau(   7) = (   1.2500000   0.7216878   2.4032414  )
         8           Co  tau(   8) = (   0.7500000   0.7216878   2.4032414  )
         9           Co  tau(   9) = (  -0.0022258  -0.0012796   2.8058318  )
        10           Co  tau(  10) = (   0.5022194  -0.0012817   2.8058237  )
        11           Co  tau(  11) = (   0.2499952   0.4355743   2.8058312  )
        12           Co  tau(  12) = (   0.7500044   0.4330101   2.7980514  )
        13           H   tau(  13) = (   0.2500000   0.1443348   2.9943072  )

     number of k points=    20  Fermi-Dirac smearing, width (Ry)=  0.0110
                       cart. coord. in units 2pi/alat
        k(    1) = (   0.0000000   0.0000000   0.0000000), wk =   0.0277778
        k(    2) = (   0.0000000   0.1924501   0.0000000), wk =   0.0555556
        k(    3) = (   0.0000000   0.3849002   0.0000000), wk =   0.0555556
        k(    4) = (   0.0000000  -0.5773503   0.0000000), wk =   0.0277778
        k(    5) = (   0.1666667  -0.0962250   0.0000000), wk =   0.0555556
        k(    6) = (   0.1666667   0.0962250   0.0000000), wk =   0.0555556
        k(    7) = (   0.1666667   0.2886751   0.0000000), wk =   0.0555556
        k(    8) = (   0.1666667  -0.6735753   0.0000000), wk =   0.0555556
        k(    9) = (   0.1666667  -0.4811252   0.0000000), wk =   0.0555556
        k(   10) = (   0.1666667  -0.2886751   0.0000000), wk =   0.0555556
        k(   11) = (   0.3333333  -0.1924501   0.0000000), wk =   0.0555556
        k(   12) = (   0.3333333  -0.0000000   0.0000000), wk =   0.0555556
        k(   13) = (   0.3333333   0.1924501   0.0000000), wk =   0.0555556
        k(   14) = (   0.3333333  -0.7698004   0.0000000), wk =   0.0555556
        k(   15) = (   0.3333333  -0.5773503   0.0000000), wk =   0.0555556
        k(   16) = (   0.3333333  -0.3849002   0.0000000), wk =   0.0555556
        k(   17) = (  -0.5000000   0.2886751   0.0000000), wk =   0.0277778
        k(   18) = (  -0.5000000   0.4811252   0.0000000), wk =   0.0555556
        k(   19) = (  -0.5000000   0.6735753   0.0000000), wk =   0.0555556
        k(   20) = (  -0.5000000  -0.2886751   0.0000000), wk =   0.0277778

     Check: negative/imaginary core charge=   -0.000007    0.000000

     Initial potential from superposition of free atoms
     Check: negative starting charge=(component1):   -0.000205
     Check: negative starting charge=(component2):   -0.000161

     starting charge  192.99991, renormalised to  205.00000

     negative rho (up, down):  2.178E-04 1.709E-04

     %%%%%%%%%%%%%%%%%%%%%%%%%%%%%%%%%%%%%%%%%%%%%%%%%%%%%%%%%%%%%%%%%%%%%%%%
     %                                                                      %
     % You are using vdW-DF, which was implemented by the Thonhauser group. %
     % Please cite the following two papers that made this development      %
     % possible and the two reviews that describe the various versions:     %
     %                                                                      %
     %   T. Thonhauser et al., PRL 115, 136402 (2015).                      %
     %   T. Thonhauser et al., PRB 76, 125112 (2007).                       %
     %   K. Berland et al., Rep. Prog. Phys. 78, 066501 (2015).             %
     %   D.C. Langreth et al., J. Phys.: Condens. Matter 21, 084203 (2009). %
     %                                                                      %
     %                                                                      %
     % If you are calculating the stress with vdW-DF, please also cite:     %
     %                                                                      %
     %   R. Sabatini et al., J. Phys.: Condens. Matter 24, 424209 (2012).   %
     %                                                                      %
     %%%%%%%%%%%%%%%%%%%%%%%%%%%%%%%%%%%%%%%%%%%%%%%%%%%%%%%%%%%%%%%%%%%%%%%%

     Adding external electric field

     Computed dipole along edir(3) :
        Dipole               -0.3496 Ry au,         -0.8885 Debye
        Dipole field         -0.0012 Ry au,

        Potential amp.        0.1018 Ry
        Total length         40.9758 bohr

[...]

     Starting wfc are  157 randomized atomic wfcs

     Self-consistent Calculation

     iteration #  1     ecut=    36.75 Ry     beta=0.10
     Davidson diagonalization with overlap
     ethr =  1.00E-02,  avg # of iterations =  8.1

[...]

     total energy              =   -3531.11359535 Ry
     Harris-Foulkes estimate   =   -3621.33469128 Ry
     estimated scf accuracy    <     507.78704457 Ry

     total magnetization       =     9.36 Bohr mag/cell
     absolute magnetization    =    11.14 Bohr mag/cell

[...]

     total energy              =   -3595.51540282 Ry
     Harris-Foulkes estimate   =   -3595.51540014 Ry
     estimated scf accuracy    <       0.00016702 Ry

[...]

     iteration # 36     ecut=    36.75 Ry     beta=0.10
     Davidson diagonalization with overlap
     ethr =  8.15E-08,  avg # of iterations =  1.6

[...]

     Adding external electric field

     Computed dipole along edir(3) :
        Dipole               -0.0038 Ry au,         -0.0097 Debye
        Dipole field         -0.0000 Ry au,

        Potential amp.        0.0011 Ry
        Total length         40.9758 bohr

     Magnetic moment per site:
     atom:    1    charge:   13.6295    magn:    1.6022    constr:    0.0000
     atom:    2    charge:   13.6264    magn:    1.6105    constr:    0.0000
     atom:    3    charge:   13.6295    magn:    1.6078    constr:    0.0000
     atom:    4    charge:   13.6265    magn:    1.6103    constr:    0.0000
     atom:    5    charge:   13.6250    magn:    1.6303    constr:    0.0000
     atom:    6    charge:   13.6245    magn:    1.6306    constr:    0.0000
     atom:    7    charge:   13.6231    magn:    1.5534    constr:    0.0000
     atom:    8    charge:   13.6253    magn:    1.6301    constr:    0.0000
     atom:    9    charge:   13.6333    magn:    1.4657    constr:    0.0000
     atom:   10    charge:   13.6308    magn:    1.4676    constr:    0.0000
     atom:   11    charge:   13.6308    magn:    1.4677    constr:    0.0000
     atom:   12    charge:   13.6312    magn:    1.6370    constr:    0.0000
     atom:   13    charge:    0.9642    magn:   -0.0284    constr:    0.0000

     End of self-consistent calculation

 ------ SPIN UP ------------

          k = 0.0000 0.0000 0.0000 ( 13257 PWs)   bands (ev):

   -95.6620 -95.6347 -95.6342 -95.5855 -95.4664 -95.4259 -95.3978 -95.3950
   -95.3905 -95.3503 -95.3290 -95.3270 -59.0217 -59.0021 -59.0017 -58.9644
   -58.9183 -58.9178 -58.8875 -58.8468 -58.8297 -58.8293 -58.7704 -58.7702
   -58.7655 -58.7537 -58.7449 -58.7446 -58.7267 -58.7253 -58.7252 -58.7196
   -58.7149 -58.7133 -58.7037 -58.6256 -58.6238 -58.5977 -58.5755 -58.5753
   -58.5738 -58.5658 -58.5647 -58.5223 -58.5222 -58.4950 -58.4937 -58.4926
    -7.4056  -6.0276  -4.6483  -4.0948  -4.0844  -4.0843  -4.0394  -3.8870
    -3.8869  -3.7893  -3.5126  -3.5124  -3.4115  -3.3526  -3.3522  -2.9142
    -2.6676  -2.6672  -2.2125  -2.1744  -2.1743  -2.1284  -2.0228  -1.9828
    -1.9828  -1.8122  -1.8121  -1.8091  -1.7867  -1.7650  -1.7650  -1.5962
    -1.5962  -1.4664  -1.4656  -1.4338  -0.9712  -0.9706  -0.9191  -0.9188
    -0.9142  -0.8463  -0.8460  -0.6630  -0.6119  -0.6118  -0.3530  -0.3396
    -0.3394  -0.3296  -0.3090  -0.3084  -0.2418  -0.2418  -0.1142  -0.0999
    -0.0997   0.1247   0.1254   0.1459   0.1601   0.1610   0.1909   0.5348

[...]

          k =-0.5000 0.2887 0.0000 ( 13378 PWs)   bands (ev):

[...]

 ------ SPIN DOWN ----------

[...]

          k = 0.3333-0.3849 0.0000 ( 13313 PWs)   bands (ev):

[...]

          k =-0.5000-0.2887 0.0000 ( 13378 PWs)   bands (ev):

   -93.2551 -93.2034 -93.1920 -93.1844 -93.1449 -93.1391 -93.1281 -93.0196
   -93.0109 -93.0101 -92.9934 -92.9928 -56.6883 -56.6738 -56.6476 -56.6297
   -56.6012 -56.5934 -56.5838 -56.5753 -56.5716 -56.5555 -56.5527 -56.5524
   -56.5289 -56.5001 -56.4884 -56.4821 -56.4687 -56.4407 -56.4396 -56.4253
   -56.4004 -56.3911 -56.3790 -56.3741 -56.3716 -56.3673 -56.3589 -56.3544
   -56.3382 -56.3304 -56.3077 -56.3054 -56.3015 -56.3006 -56.2855 -56.2853
    -5.9337  -5.4025  -4.8194  -3.6225  -3.0847  -2.7783  -2.7722  -2.2751
    -2.2576  -2.2439  -2.0097  -1.6854  -1.6850  -1.5341  -1.5284  -1.3080
    -1.2452  -1.0396  -1.0296  -0.9835  -0.9829  -0.9472  -0.9436  -0.6149
    -0.5433  -0.5195  -0.4313  -0.4181  -0.4137  -0.3434  -0.2635  -0.1989
    -0.1112  -0.0410   0.0348   0.0453   0.0620   0.1177   0.2802   0.3078
     0.6438   0.6999   0.7000   0.7144   0.8393   0.8428   0.9904   1.0250
     1.0417   1.0723   1.1572   1.1638   1.1771   1.3276   1.3729   1.3888
     1.4353   1.4575   1.7264   1.7897   1.8725   1.9171   2.0001   2.0177

     the Fermi energy is     0.9051 ev

!    total energy              =   -3595.51543407 Ry
     Harris-Foulkes estimate   =   -3595.51540861 Ry
     estimated scf accuracy    <       0.00004851 Ry

     The total energy is the sum of the following terms:

     one-electron contribution =  -31435.34722831 Ry
     hartree contribution      =   15724.04302521 Ry
     xc contribution           =    -406.02920989 Ry
     ewald contribution        =   12521.89225347 Ry
     electric field correction =       0.00000005 Ry
     smearing contrib. (-TS)   =      -0.07427460 Ry

     total magnetization       =    18.93 Bohr mag/cell
     absolute magnetization    =    21.95 Bohr mag/cell

     convergence has been achieved in  36 iterations

     negative rho (up, down):  6.684E-04 3.193E-04

     Forces acting on atoms (cartesian axes, Ry/au):

     atom    1 type  1   force =     0.00008400    0.00011952    0.00938219
     atom    2 type  1   force =    -0.00006281   -0.00069975    0.01029391
     atom    3 type  1   force =    -0.00070973    0.00025623    0.01028721
     atom    4 type  1   force =     0.00073248    0.00034545    0.01016523
     atom    5 type  1   force =    -0.00024419    0.00058334   -0.01106265
     atom    6 type  1   force =     0.00026285   -0.00041940   -0.01019736
     atom    7 type  1   force =    -0.00087226    0.00007593   -0.00638684
     atom    8 type  1   force =     0.00087346   -0.00021621   -0.01053255
     atom    9 type  1   force =    -0.00009248    0.00002689   -0.00112058
     atom   10 type  1   force =     0.00004290    0.00005414   -0.00110721
     atom   11 type  1   force =    -0.00000623   -0.00003139   -0.00110393
     atom   12 type  1   force =    -0.00000780   -0.00009500    0.00123322
     atom   13 type  2   force =    -0.00000020    0.00000024    0.00014935

     Total force =     0.002295     Total SCF correction =     0.002816
     SCF correction compared to forces is large: reduce conv_thr to get better values

     BFGS Geometry Optimization

     bfgs converged in   1 scf cycles and   0 bfgs steps
     (criteria: energy <  1.0E+12 Ry, force <  1.9E-03 Ry/Bohr)

     End of BFGS Geometry Optimization

     Final energy   =   -3595.5154340740 Ry
Begin final coordinates

ATOMIC_POSITIONS (angstrom)
Co       1.253137179   0.723499088  10.000000000    0   0   0
Co       3.759411536   0.723499088  10.000000000    0   0   0
Co       2.506274358   2.893996350  10.000000000    0   0   0
Co       5.012548715   2.893996350  10.000000000    0   0   0
Co       5.012548715   1.446998175  12.046364444    0   0   0
Co       2.506274357   1.446998175  12.046364444    0   0   0
Co       6.265685894   3.617495438  12.046364444    0   0   0
Co       3.759411536   3.617495438  12.046364444    0   0   0
Co      -0.011157044  -0.006413971  14.064368572
Co       2.517399196  -0.006424641  14.064328000
Co       1.253113236   2.183337494  14.064365730
Co       3.759433504   2.170484235  14.025369046
H        1.253137073   0.723485245  15.009110462
End final coordinates

     Writing output data file calc.save

     General routines

     Parallel routines

   This run was terminated on:  16:30:21  11Jan2019

   JOB DONE.