     Program PWSCF v.5.1rc2 (svn rev. 11289) starts on  3May2018 at  0:50:28

     Current dimensions of program PWSCF are:
     Max number of different atomic species (ntypx) = 10
     Max number of k-points (npk) =  40000
     Max angular momentum in pseudopotentials (lmaxx) =  3
     Presently stress not available with electric field

     IMPORTANT: XC functional enforced from input :
     Exchange-correlation      = BEEF-VDW ( 1  4 27 13 2)
     Any further DFT definition will be discarded
     Please, verify this is what you really want

     Subspace diagonalization in iterative solution of the eigenvalue problem:
     a serial algorithm will be used

     bravais-lattice index     =            0
     lattice parameter (alat)  =       1.8897  a.u.
     unit-cell volume          =    7725.1200 (a.u.)^3
     number of atoms/cell      =           13
     number of atomic types    =            2
     number of electrons       =       137.00
     number of Kohn-Sham states=           78
     kinetic-energy cutoff     =      36.7493  Ry
     charge density cutoff     =     367.4932  Ry
     convergence threshold     =      1.0E-05
     mixing beta               =       0.3000
     number of iterations used =           10  plain     mixing
     Exchange-correlation      = BEEF-VDW ( 1  4 27 13 2)
     nstep                     =           50

     celldm(1)=   1.889726  celldm(2)=   0.000000  celldm(3)=   0.000000
     celldm(4)=   0.000000  celldm(5)=   0.000000  celldm(6)=   0.000000

     crystal axes: (cart. coord. in units of alat)
               a(1) = (   7.152277   0.000000   0.000000 )
               a(2) = (   3.576139   6.194054   0.000000 )
               a(3) = (   0.000000   0.000000  25.839810 )

     reciprocal axes: (cart. coord. in units 2 pi/alat)
               b(1) = (  0.139816 -0.080723  0.000000 )
               b(2) = (  0.000000  0.161445  0.000000 )
               b(3) = (  0.000000  0.000000  0.038700 )

     PseudoPot. # 1 for Y  read from file:
     /u/if/mamunm/psp/gbrv1.5pbe/Y.UPF
     MD5 check sum: d034151ed7554c50b6e82763ed42c788
     Pseudo is Ultrasoft + core correction, Zval = 11.0
     Generated by new atomic code, or converted to UPF format
     Using radial grid of  885 points,  6 beta functions with:
                l(1) =   0
                l(2) =   0
                l(3) =   1
                l(4) =   1
                l(5) =   2
                l(6) =   2
     Q(r) pseudized with  8 coefficients,  rinner =    1.200   1.200   1.200
                                                       1.200   1.200

     PseudoPot. # 2 for N  read from file:
     /u/if/mamunm/psp/gbrv1.5pbe/N.UPF
     MD5 check sum: 95339753478d7afb44899504a8723017
     Pseudo is Ultrasoft + core correction, Zval =  5.0
     Generated by new atomic code, or converted to UPF format
     Using radial grid of  729 points,  4 beta functions with:
                l(1) =   0
                l(2) =   0
                l(3) =   1
                l(4) =   1
     Q(r) pseudized with  8 coefficients,  rinner =    0.900   0.900   0.900

     vdW kernel table read from file vdW_kernel_table
     MD5 check sum: 095c7af220d748ca6e76c0b4c6cfb241

     atomic species   valence    mass     pseudopotential
        Y1            11.00    88.90584     Y ( 1.00)
        N1             5.00    14.00700     N ( 1.00)

     No symmetry found

   Cartesian axes

     site n.     atom                  positions (alat units)
         1           Y1  tau(   1) = (   1.7880693   1.0323423  10.0000000  )
         2           Y1  tau(   2) = (   5.3642080   1.0323423  10.0000000  )
         3           Y1  tau(   3) = (   3.5761386   4.1293692  10.0000000  )
         4           Y1  tau(   4) = (   7.1522773   4.1293692  10.0000000  )
         5           Y1  tau(   5) = (   7.1522773   2.0646846  12.9199050  )
         6           Y1  tau(   6) = (   3.5761386   2.0646846  12.9199050  )
         7           Y1  tau(   7) = (   8.9403466   5.1617115  12.9199050  )
         8           Y1  tau(   8) = (   5.3642080   5.1617115  12.9199050  )
         9           Y1  tau(   9) = (   0.0000000   0.0000000  15.8398100  )
        10           Y1  tau(  10) = (   3.5761386   0.0000000  15.8398100  )
        11           Y1  tau(  11) = (   1.7880693   3.0970269  15.8398100  )
        12           Y1  tau(  12) = (   5.3642080   3.0970269  15.8398100  )
        13           N1  tau(  13) = (   1.7880693   1.0323423  17.5363100  )

     number of k points=    20  Fermi-Dirac smearing, width (Ry)=  0.0110
                       cart. coord. in units 2pi/alat
        k(    1) = (   0.0000000   0.0000000   0.0000000), wk =   0.0555556
        k(    2) = (   0.0000000   0.0269075   0.0000000), wk =   0.1111111
        k(    3) = (   0.0000000   0.0538151   0.0000000), wk =   0.1111111
        k(    4) = (   0.0000000  -0.0807226   0.0000000), wk =   0.0555556
        k(    5) = (   0.0233026  -0.0134538   0.0000000), wk =   0.1111111
        k(    6) = (   0.0233026   0.0134538   0.0000000), wk =   0.1111111
        k(    7) = (   0.0233026   0.0403613   0.0000000), wk =   0.1111111
        k(    8) = (   0.0233026  -0.0941763   0.0000000), wk =   0.1111111
        k(    9) = (   0.0233026  -0.0672688   0.0000000), wk =   0.1111111
        k(   10) = (   0.0233026  -0.0403613   0.0000000), wk =   0.1111111
        k(   11) = (   0.0466052  -0.0269075   0.0000000), wk =   0.1111111
        k(   12) = (   0.0466052   0.0000000   0.0000000), wk =   0.1111111
        k(   13) = (   0.0466052   0.0269075   0.0000000), wk =   0.1111111
        k(   14) = (   0.0466052  -0.1076301   0.0000000), wk =   0.1111111
        k(   15) = (   0.0466052  -0.0807226   0.0000000), wk =   0.1111111
        k(   16) = (   0.0466052  -0.0538151   0.0000000), wk =   0.1111111
        k(   17) = (  -0.0699078   0.0403613   0.0000000), wk =   0.0555556
        k(   18) = (  -0.0699078   0.0672688   0.0000000), wk =   0.1111111
        k(   19) = (  -0.0699078   0.0941763   0.0000000), wk =   0.1111111
        k(   20) = (  -0.0699078  -0.0403613   0.0000000), wk =   0.0555556

     Largest allocated arrays     est. size (Mb)     dimensions
     Largest temporary arrays     est. size (Mb)     dimensions

     Initial potential from superposition of free atoms
     Check: negative starting charge=   -0.000590

     starting charge  136.94636, renormalised to  137.00000

     negative rho (up, down):  5.899E-04 0.000E+00

     *
     * You are using vdW-DF for exchange-correlation in this calculation.
     * Please cite the following three references that made this development
     * possible:
     *
     *   M. Dion, H. Rydberg, E. Schroder, D. C. Langreth, and
     *   B. I. Lundqvist, Phys. Rev. Lett. 92, 246401 (2004).
     *
     *   T. Thonhauser, V. R. Cooper, S. Li, A. Puzder, P. Hyldgaard, and
     *   D. C. Langreth, Phys. Rev. B 76, 125112 (2007).
     *
     *   G. Roman-Perez and J. M. Soler, Phys. Rev. Lett. 103, 096102 (2009).
     *
     *
     * If you are using vdW-DF2, please also cite:
     *
     *   K. Lee, E. D. Murray, L. Kong, B. I. Lundqvist, and
     *   D. C. Langreth, Phys. Rev. B 82, 081101(R) (2010).
     *
     *
     * If you are calculating the stress with vdW-DF, please also cite:
     *
     *   R. Sabatini, E. Kucukbenli, B. Kolb, T. Thonhauser, and
     *   S. de Gironcoli, J. Phys.: Condens. Matter 24, 424209 (2012).
     *

     Carrying out vdW-DF run using the following parameters:

     Nqs =      20    Nr_points =    1024   r_max =   100.000
     q_mesh =
               0.00001000     0.04494208     0.09755937     0.15916263
               0.23128650     0.31572767     0.41458969     0.53033537
               0.66584808     0.82450364     1.01025438     1.22772762
               1.48234092     1.78043706     2.12944203     2.53805004
               3.01644009     3.57652955     4.23227104     5.00000000

     Gradients computed in reciprocal space

     Adding external electric field

     Computed dipole along edir(3) :
        Dipole               -0.0170 Ry au,         -0.0432 Debye
        Dipole field         -0.0000 Ry au

        Potential amp.        0.0026 Ry
        Total length         47.6094 bohr

     Starting wfc are  160 randomized atomic wfcs

     Self-consistent Calculation

     iteration #  1     ecut=    36.75 Ry     beta=0.30
     Davidson diagonalization with overlap
     ethr =  1.00E-02,  avg # of iterations =  2.0

[...]

     total energy              =   -1142.07488483 Ry
     Harris-Foulkes estimate   =   -1145.11374824 Ry
     estimated scf accuracy    <       6.59875417 Ry

[...]

     End of self-consistent calculation

          k = 0.0000 0.0000 0.0000 ( 28997 PWs)   bands (ev):

   -42.8841 -42.7850 -42.7436 -42.7416 -42.7415 -42.5321 -42.5008 -42.5007
   -42.2511 -42.2022 -42.1786 -42.1785 -22.9369 -22.8914 -22.8914 -22.8906
   -22.8651 -22.8651 -22.8183 -22.7462 -22.7461 -22.7460 -22.6672 -22.5665
   -22.5664 -22.5642 -22.5279 -22.5279 -22.4990 -22.4666 -22.4666 -22.4503
   -22.4503 -22.3749 -22.3387 -22.3387 -22.3384 -22.1956 -22.1955 -22.1563
   -22.1197 -22.1003 -22.1003 -22.0579 -22.0579 -22.0415 -21.9531 -21.9530
   -10.7364  -3.6855  -2.7017  -1.6905  -1.1038  -1.1038  -1.0680  -0.9785
    -0.9785  -0.9231  -0.7534  -0.7533  -0.7288  -0.1875  -0.1201  -0.1201
     0.0366   0.0366   0.1995   0.4460   0.4461   0.7256   0.7509   1.1793
     1.2790   1.2848   1.2849   1.4737   1.6210   1.6210

[...]

          k =-0.0699 0.0404 0.0000 ( 29048 PWs)   bands (ev):

[...]

     the Fermi energy is     0.5614 ev

!    total energy              =   -1144.54243863 Ry
     Harris-Foulkes estimate   =   -1144.54236808 Ry
     estimated scf accuracy    <       0.00000793 Ry

     The total energy is the sum of the following terms:

     one-electron contribution =   -5539.93600530 Ry
     hartree contribution      =    2762.58146516 Ry
     xc contribution           =    -344.14556560 Ry
     ewald contribution        =    1977.08377126 Ry
     electric field correction =       0.00071638 Ry
     smearing contrib. (-TS)   =      -0.12682053 Ry

     convergence has been achieved in  16 iterations

 BEEF-vdW xc energy contributions
           1 :   -300.077478496072
           2 :    269.375909004674
           3 :   -216.554749594906
           4 :    154.632313802114
           5 :   -95.6885807390852
           6 :    47.2829720103948
           7 :   -11.9503423176218
           8 :   -11.0161466435397
           9 :    23.3117144784201
          10 :   -26.3811252098711
          11 :    21.5405836239851
          12 :   -10.7994107695148
          13 :   -2.63573249042668
          14 :    14.8044367387808
          15 :   -22.2452731707119
          16 :    23.2762391017433
          17 :   -18.4770550452530
          18 :    10.1024300697297
          19 :  -0.880972859460428
          20 :   -7.03221969254156
          21 :    12.4525766043218
          22 :   -14.9760816956799
          23 :    14.6241772111348
          24 :   -11.6929710203417
          25 :    6.84614986027213
          26 :   -1.20946543308884
          27 :   -3.79794452986920
          28 :    6.92343293895550
          29 :   -7.58568814692825
          30 :    6.09228926907036
          31 :   -28.8051682101715
          32 :   -19.6863747890374

     Forces acting on atoms (Ry/au):

     negative rho (up, down):  4.856E-04 0.000E+00
     atom    1 type  1   force =    -0.00003357   -0.00006548    0.00393071
     atom    2 type  1   force =     0.00004689   -0.00109720    0.00496141
     atom    3 type  1   force =    -0.00088529    0.00061892    0.00500871
     atom    4 type  1   force =     0.00088020    0.00056537    0.00504776
     atom    5 type  1   force =    -0.00365446    0.00221079   -0.00167808
     atom    6 type  1   force =     0.00366493    0.00217243   -0.00172730
     atom    7 type  1   force =    -0.00002573   -0.00009578   -0.01289771
     atom    8 type  1   force =     0.00003601   -0.00428469   -0.00169373
     atom    9 type  1   force =     0.06260343    0.03612201    0.05208348
     atom   10 type  1   force =    -0.06261955    0.03610019    0.05208996
     atom   11 type  1   force =    -0.00002041   -0.07225571    0.05206391
     atom   12 type  1   force =     0.00001468    0.00001423   -0.00245679
     atom   13 type  2   force =    -0.00000713   -0.00000508   -0.15473231

     Total force =     0.218527     Total SCF correction =     0.008437

     entering subroutine stress ...

     negative rho (up, down):  4.856E-04 0.000E+00
          total   stress  (Ry/bohr**3)                   (kbar)     P=   -8.27
  -0.00004333   0.00000001  -0.00000001         -6.37      0.00     -0.00
   0.00000001  -0.00004334  -0.00000000          0.00     -6.38     -0.00
  -0.00000001  -0.00000000  -0.00008203         -0.00     -0.00    -12.07

     BFGS Geometry Optimization

     number of scf cycles    =   1
     number of bfgs steps    =   0

     energy   new            =   -1144.5424386348 Ry

     new trust radius        =       0.1547323151 bohr
     new conv_thr            =       0.0000099958 Ry

ATOMIC_POSITIONS (crystal)
Y1       0.166666667   0.166666667   0.386999750    0   0   0
Y1       0.666666667   0.166666667   0.386999750    0   0   0
Y1       0.166666667   0.666666667   0.386999750    0   0   0
Y1       0.666666667   0.666666667   0.386999750    0   0   0
Y1       0.833333333   0.333333333   0.500000000    0   0   0
Y1       0.333333333   0.333333333   0.500000000    0   0   0
Y1       0.833333333   0.833333333   0.500000000    0   0   0
Y1       0.333333333   0.833333333   0.500000000    0   0   0
Y1       0.003088847   0.003086016   0.614066875
Y1       0.493824878   0.003084151   0.614067008
Y1       0.003085005   0.493826971   0.614066474
Y1       0.500000478   0.500001216   0.612949937
N1       0.166666356   0.166666233   0.675485972

     Writing output data file calc.save
     Check: negative starting charge=   -0.000590
     NEW-OLD atomic charge density approx. for the potential
     Check: negative starting charge=   -0.000593

[...]

     energy   old            =   -1144.5424386348 Ry
     energy   new            =   -1144.5895063711 Ry

     CASE: energy  _new < energy  _old

     WARNING: bfgs curvature condition failed, Theta= 0.826
     new trust radius        =       0.1702055466 bohr
     new conv_thr            =       0.0000001000 Ry

[...]

     iteration #  1     ecut=    36.75 Ry     beta=0.30
     Davidson diagonalization with overlap
     c_bands:  2 eigenvalues not converged
     ethr =  1.00E-06,  avg # of iterations = 17.1

[...]

     iteration #  4     ecut=    36.75 Ry     beta=0.30
     Davidson diagonalization with overlap
     c_bands:  1 eigenvalues not converged
     ethr =  3.52E-06,  avg # of iterations =  8.6

[...]

     number of scf cycles    =  16
     number of bfgs steps    =  15

     energy   old            =   -1144.7482850958 Ry
     energy   new            =   -1144.7484788638 Ry

     CASE: energy  _new < energy  _old

     new trust radius        =       0.0106368085 bohr
     new conv_thr            =       0.0000001000 Ry

ATOMIC_POSITIONS (crystal)
Y1       0.166666667   0.166666667   0.386999750    0   0   0
Y1       0.666666667   0.166666667   0.386999750    0   0   0
Y1       0.166666667   0.666666667   0.386999750    0   0   0
Y1       0.666666667   0.666666667   0.386999750    0   0   0
Y1       0.833333333   0.333333333   0.500000000    0   0   0
Y1       0.333333333   0.333333333   0.500000000    0   0   0
Y1       0.833333333   0.833333333   0.500000000    0   0   0
Y1       0.333333333   0.833333333   0.500000000    0   0   0
Y1       0.006942826   0.006938577   0.619861354
Y1       0.486114604   0.006941239   0.619861525
Y1       0.006941758   0.486116152   0.619861022
Y1       0.499996196   0.499999639   0.605414083
N1       0.166665898   0.166663142   0.649219382

     Writing output data file calc.save
     Check: negative starting charge=   -0.000596
     NEW-OLD atomic charge density approx. for the potential
     Check: negative starting charge=   -0.000596

[...]

     Self-consistent Calculation

[...]

     Threshold (ethr) on eigenvalues was too large:
     Diagonalizing with lowered threshold

     Davidson diagonalization with overlap
     ethr =  6.90E-08,  avg # of iterations =  3.5

[...]

     total energy              =   -1144.74851042 Ry
     Harris-Foulkes estimate   =   -1144.74851045 Ry
     estimated scf accuracy    <       0.00000015 Ry

     iteration # 10     ecut=    36.75 Ry     beta=0.30
     Davidson diagonalization with overlap
     ethr =  1.08E-10,  avg # of iterations =  7.8

[...]

     negative rho (up, down):  4.647E-04 0.000E+00

     Adding external electric field

     Computed dipole along edir(3) :
        Dipole               -0.1239 Ry au,         -0.3149 Debye
        Dipole field         -0.0002 Ry au

        Potential amp.        0.0192 Ry
        Total length         47.6094 bohr

     End of self-consistent calculation

[...]

          k = 0.0466-0.0538 0.0000 ( 29098 PWs)   bands (ev):

[...]

          k =-0.0699-0.0404 0.0000 ( 29048 PWs)   bands (ev):

   -42.3880 -42.3621 -42.3483 -42.3406 -42.2277 -41.9793 -41.8989 -41.8718
   -41.8638 -41.8229 -41.8119 -41.8021 -22.4267 -22.4130 -22.4049 -22.3811
   -22.3515 -22.3409 -22.3217 -22.2967 -22.2843 -22.2600 -22.2514 -22.2198
   -22.2116 -22.1551 -22.1303 -22.1164 -22.0042 -21.9883 -21.9816 -21.9601
   -21.9118 -21.9032 -21.8918 -21.8704 -21.8617 -21.8063 -21.7719 -21.7541
   -21.7429 -21.7354 -21.7196 -21.7157 -21.7077 -21.6769 -21.6404 -21.6130
   -11.3774  -2.3558  -2.0961  -1.8049  -1.6716  -1.5252  -1.1480  -0.8533
    -0.3771  -0.3504  -0.1840   0.0089   0.0725   0.1342   0.6574   0.7000
     0.7650   0.7906   0.8581   0.8951   0.9715   1.0029   1.0932   1.1372
     1.1744   1.2520   1.3210   1.3312   1.5237   1.5707

     the Fermi energy is     0.9478 ev

!    total energy              =   -1144.74851041 Ry
     Harris-Foulkes estimate   =   -1144.74851068 Ry
     estimated scf accuracy    <       0.00000003 Ry

     The total energy is the sum of the following terms:

     one-electron contribution =   -5580.19463460 Ry
     hartree contribution      =    2784.58343630 Ry
     xc contribution           =    -344.60509725 Ry
     ewald contribution        =    1995.59635085 Ry
     electric field correction =       0.00002496 Ry
     smearing contrib. (-TS)   =      -0.12859068 Ry

     convergence has been achieved in  10 iterations

 BEEF-vdW xc energy contributions
           1 :   -300.539961362443
           2 :    269.934577003654
           3 :   -217.193833170970
           4 :    155.230083925379
           5 :   -96.0933704459427
           6 :    47.3762556557434
           7 :   -11.6871415934679
           8 :   -11.5772434813546
           9 :    24.0071878365051
          10 :   -27.0021030996477
          11 :    21.9417736116106
          12 :   -10.9836534499962
          13 :   -2.53284326410966
          14 :    14.6260440173760
          15 :   -21.9310529769687
          16 :    22.8911379416629
          17 :   -18.1356379017109
          18 :    9.86221577879087
          19 :  -0.696189967638645
          20 :   -7.26489797551415
          21 :    12.8024517985870
          22 :   -15.4205029682355
          23 :    15.0718740170664
          24 :   -12.0664593885023
          25 :    7.14964942484721
          26 :   -1.52204641208323
          27 :   -3.39603466920903
          28 :    6.42341050719477
          29 :   -7.05732768326146
          30 :    5.62184481023257
          31 :   -28.8331834396575
          32 :   -19.7310382088664

     Forces acting on atoms (Ry/au):

     negative rho (up, down):  4.647E-04 0.000E+00
     atom    1 type  1   force =    -0.00000038   -0.00000026    0.00673328
     atom    2 type  1   force =     0.00000042   -0.00220903    0.00647211
     atom    3 type  1   force =    -0.00191300    0.00110512    0.00647225
     atom    4 type  1   force =     0.00191277    0.00110462    0.00647288
     atom    5 type  1   force =    -0.00327052    0.00188919   -0.00736874
     atom    6 type  1   force =     0.00326929    0.00188877   -0.00736906
     atom    7 type  1   force =     0.00000003   -0.00000084   -0.00311386
     atom    8 type  1   force =    -0.00000009   -0.00377677   -0.00736923
     atom    9 type  1   force =    -0.00083808   -0.00048121   -0.00091887
     atom   10 type  1   force =     0.00083668   -0.00048409   -0.00091852
     atom   11 type  1   force =    -0.00000228    0.00095529   -0.00091557
     atom   12 type  1   force =     0.00000392   -0.00000016    0.00182871
     atom   13 type  2   force =     0.00000124    0.00000936   -0.00000538

     Total force =     0.002941     Total SCF correction =     0.000224

     entering subroutine stress ...

     negative rho (up, down):  4.647E-04 0.000E+00
          total   stress  (Ry/bohr**3)                   (kbar)     P=    0.02
   0.00001083   0.00000000   0.00000000          1.59      0.00      0.00
   0.00000000   0.00001082   0.00000000          0.00      1.59      0.00
   0.00000000   0.00000000  -0.00002129          0.00      0.00     -3.13

     bfgs converged in  17 scf cycles and  16 bfgs steps
     (criteria: energy <  1.0E+00, force <  1.9E-03)

     End of BFGS Geometry Optimization

     Final energy   =   -1144.7485104119 Ry
Begin final coordinates

ATOMIC_POSITIONS (crystal)
Y1       0.166666667   0.166666667   0.386999750    0   0   0
Y1       0.666666667   0.166666667   0.386999750    0   0   0
Y1       0.166666667   0.666666667   0.386999750    0   0   0
Y1       0.666666667   0.666666667   0.386999750    0   0   0
Y1       0.833333333   0.333333333   0.500000000    0   0   0
Y1       0.333333333   0.333333333   0.500000000    0   0   0
Y1       0.833333333   0.833333333   0.500000000    0   0   0
Y1       0.333333333   0.833333333   0.500000000    0   0   0
Y1       0.006942826   0.006938577   0.619861354
Y1       0.486114604   0.006941239   0.619861525
Y1       0.006941758   0.486116152   0.619861022
Y1       0.499996196   0.499999639   0.605414083
N1       0.166665898   0.166663142   0.649219382
End final coordinates

     Writing output data file calc.save

     General routines

     Parallel routines

   This run was terminated on:   4: 5:18   3May2018

   JOB DONE.
Job  /afs/slac/g/suncat/bin/suncat-tsmpirun -x LD_LIBRARY_PATH -wdir /scratch/qe564948_aQP5H pw.x -npool 4 -in pw.inp

TID   HOST_NAME   COMMAND_LINE            STATUS            TERMINATION_TIME
00000 suncat0069 pw.x -npool 4 -i  Done                     05/03/2018 04:05:18
00001 suncat0069 pw.x -npool 4 -i  Done                     05/03/2018 04:05:18
00002 suncat0069 pw.x -npool 4 -i  Done                     05/03/2018 04:05:18
00003 suncat0069 pw.x -npool 4 -i  Done                     05/03/2018 04:05:18
00004 suncat0069 pw.x -npool 4 -i  Done                     05/03/2018 04:05:18
00005 suncat0069 pw.x -npool 4 -i  Done                     05/03/2018 04:05:18
00006 suncat0069 pw.x -npool 4 -i  Done                     05/03/2018 04:05:18
00007 suncat0069 pw.x -npool 4 -i  Done                     05/03/2018 04:05:18
00008 suncat0053 pw.x -npool 4 -i  Done                     05/03/2018 04:05:18
00009 suncat0053 pw.x -npool 4 -i  Done                     05/03/2018 04:05:18
00010 suncat0053 pw.x -npool 4 -i  Done                     05/03/2018 04:05:18
00011 suncat0053 pw.x -npool 4 -i  Done                     05/03/2018 04:05:18
00012 suncat0053 pw.x -npool 4 -i  Done                     05/03/2018 04:05:18
00013 suncat0053 pw.x -npool 4 -i  Done                     05/03/2018 04:05:18
00014 suncat0053 pw.x -npool 4 -i  Done                     05/03/2018 04:05:18
00015 suncat0053 pw.x -npool 4 -i  Done                     05/03/2018 04:05:18
00016 suncat0159 pw.x -npool 4 -i  Done                     05/03/2018 04:05:18
00017 suncat0159 pw.x -npool 4 -i  Done                     05/03/2018 04:05:18
00018 suncat0159 pw.x -npool 4 -i  Done                     05/03/2018 04:05:18
00019 suncat0159 pw.x -npool 4 -i  Done                     05/03/2018 04:05:18
00020 suncat0159 pw.x -npool 4 -i  Done                     05/03/2018 04:05:18
00021 suncat0159 pw.x -npool 4 -i  Done                     05/03/2018 04:05:18
00022 suncat0159 pw.x -npool 4 -i  Done                     05/03/2018 04:05:18
00023 suncat0159 pw.x -npool 4 -i  Done                     05/03/2018 04:05:18
00024 suncat0151 pw.x -npool 4 -i  Done                     05/03/2018 04:05:18
00025 suncat0151 pw.x -npool 4 -i  Done                     05/03/2018 04:05:18
00026 suncat0151 pw.x -npool 4 -i  Done                     05/03/2018 04:05:18
00027 suncat0151 pw.x -npool 4 -i  Done                     05/03/2018 04:05:18
00028 suncat0151 pw.x -npool 4 -i  Done                     05/03/2018 04:05:18
00029 suncat0151 pw.x -npool 4 -i  Done                     05/03/2018 04:05:18
00030 suncat0151 pw.x -npool 4 -i  Done                     05/03/2018 04:05:18
00031 suncat0151 pw.x -npool 4 -i  Done                     05/03/2018 04:05:18