     Program PWSCF v.5.1rc2 (svn rev. ) starts on 17Apr2018 at 20: 1:21

     Current dimensions of program PWSCF are:
     Max number of different atomic species (ntypx) = 10
     Max number of k-points (npk) =  40000
     Max angular momentum in pseudopotentials (lmaxx) =  3
     Presently stress not available with electric field

     IMPORTANT: XC functional enforced from input :
     Exchange-correlation      = BEEF-VDW ( 1  4 27 13 2)
     Any further DFT definition will be discarded
     Please, verify this is what you really want

     Subspace diagonalization in iterative solution of the eigenvalue problem:
     a serial algorithm will be used

     bravais-lattice index     =            0
     lattice parameter (alat)  =       1.8897  a.u.
     unit-cell volume          =    5409.9593 (a.u.)^3
     number of atoms/cell      =           14
     number of atomic types    =            3
     number of electrons       =       233.00
     number of Kohn-Sham states=          126
     kinetic-energy cutoff     =      36.7493  Ry
     charge density cutoff     =     367.4932  Ry
     convergence threshold     =      1.0E-05
     mixing beta               =       0.3000
     number of iterations used =           10  plain     mixing
     Exchange-correlation      = BEEF-VDW ( 1  4 27 13 2)
     nstep                     =           50

     celldm(1)=   1.889726  celldm(2)=   0.000000  celldm(3)=   0.000000
     celldm(4)=   0.000000  celldm(5)=   0.000000  celldm(6)=   0.000000

     crystal axes: (cart. coord. in units of alat)
               a(1) = (   6.088539   0.000000   0.000000 )
               a(2) = (   3.044269   5.272829   0.000000 )
               a(3) = (   0.000000   0.000000  24.971271 )

     reciprocal axes: (cart. coord. in units 2 pi/alat)
               b(1) = (  0.164243 -0.094826  0.000000 )
               b(2) = (  0.000000  0.189652  0.000000 )
               b(3) = (  0.000000  0.000000  0.040046 )

     PseudoPot. # 1 for Ga read from file:
     /home/mamunm/src/pseudo/gbrv1.5pbe/Ga.UPF
     MD5 check sum: ccd671392a58a050fbb373893b4fcd66
     Pseudo is Ultrasoft + core correction, Zval = 19.0
     Generated by new atomic code, or converted to UPF format
     Using radial grid of  871 points,  6 beta functions with:
                l(1) =   0
                l(2) =   0
                l(3) =   1
                l(4) =   1
                l(5) =   2
                l(6) =   2
     Q(r) pseudized with  8 coefficients,  rinner =    1.250   1.250   1.250
                                                       1.250   1.250

     PseudoPot. # 2 for C  read from file:
     /home/mamunm/src/pseudo/gbrv1.5pbe/C.UPF
     MD5 check sum: d1aef80898a10debaa0f26306b886e00
     Pseudo is Ultrasoft + core correction, Zval =  4.0
     Generated by new atomic code, or converted to UPF format
     Using radial grid of  721 points,  4 beta functions with:
                l(1) =   0
                l(2) =   0
                l(3) =   1
                l(4) =   1
     Q(r) pseudized with  8 coefficients,  rinner =    1.100   1.100   1.100

     PseudoPot. # 3 for H  read from file:
     /home/mamunm/src/pseudo/gbrv1.5pbe/H.UPF
     MD5 check sum: 761ae9a214b05c3daf00ab9f6b793d6f
     Pseudo is Ultrasoft, Zval =  1.0
     Generated by new atomic code, or converted to UPF format
     Using radial grid of  615 points,  2 beta functions with:
                l(1) =   0
                l(2) =   0
     Q(r) pseudized with  8 coefficients,  rinner =    0.700

     vdW kernel table read from file vdW_kernel_table
     MD5 check sum: 095c7af220d748ca6e76c0b4c6cfb241

     atomic species   valence    mass     pseudopotential
        Ga1           19.00    69.72300     Ga( 1.00)
        C1             4.00    12.01100     C ( 1.00)
        H1             1.00     1.00800     H ( 1.00)

     No symmetry found

   Cartesian axes

     site n.     atom                  positions (alat units)
         1           Ga1 tau(   1) = (   1.5221346   0.8788048  10.0000000  )
         2           Ga1 tau(   2) = (   4.5664039   0.8788048  10.0000000  )
         3           Ga1 tau(   3) = (   3.0442693   3.5152194  10.0000000  )
         4           Ga1 tau(   4) = (   6.0885386   3.5152194  10.0000000  )
         5           Ga1 tau(   5) = (   6.0885386   1.7576097  12.4856355  )
         6           Ga1 tau(   6) = (   3.0442693   1.7576097  12.4856355  )
         7           Ga1 tau(   7) = (   7.6106732   4.3940242  12.4856355  )
         8           Ga1 tau(   8) = (   4.5664039   4.3940242  12.4856355  )
         9           Ga1 tau(   9) = (   0.0000000   0.0000000  14.9712709  )
        10           Ga1 tau(  10) = (   3.0442693   0.0000000  14.9712709  )
        11           Ga1 tau(  11) = (   1.5221346   2.6364145  14.9712709  )
        12           Ga1 tau(  12) = (   4.5664039   2.6364145  14.9712709  )
        13           C1  tau(  13) = (   1.5221346   0.8788048  16.2582709  )
        14           H1  tau(  14) = (   1.5221346   0.8788048  17.3582709  )

     number of k points=    20  Fermi-Dirac smearing, width (Ry)=  0.0110
                       cart. coord. in units 2pi/alat
        k(    1) = (   0.0000000   0.0000000   0.0000000), wk =   0.0555556
        k(    2) = (   0.0000000   0.0316086   0.0000000), wk =   0.1111111
        k(    3) = (   0.0000000   0.0632172   0.0000000), wk =   0.1111111
        k(    4) = (   0.0000000  -0.0948258   0.0000000), wk =   0.0555556
        k(    5) = (   0.0273738  -0.0158043   0.0000000), wk =   0.1111111
        k(    6) = (   0.0273738   0.0158043   0.0000000), wk =   0.1111111
        k(    7) = (   0.0273738   0.0474129   0.0000000), wk =   0.1111111
        k(    8) = (   0.0273738  -0.1106300   0.0000000), wk =   0.1111111
        k(    9) = (   0.0273738  -0.0790215   0.0000000), wk =   0.1111111
        k(   10) = (   0.0273738  -0.0474129   0.0000000), wk =   0.1111111
        k(   11) = (   0.0547477  -0.0316086   0.0000000), wk =   0.1111111
        k(   12) = (   0.0547477   0.0000000   0.0000000), wk =   0.1111111
        k(   13) = (   0.0547477   0.0316086   0.0000000), wk =   0.1111111
        k(   14) = (   0.0547477  -0.1264343   0.0000000), wk =   0.1111111
        k(   15) = (   0.0547477  -0.0948258   0.0000000), wk =   0.1111111
        k(   16) = (   0.0547477  -0.0632172   0.0000000), wk =   0.1111111
        k(   17) = (  -0.0821215   0.0474129   0.0000000), wk =   0.0555556
        k(   18) = (  -0.0821215   0.0790215   0.0000000), wk =   0.1111111
        k(   19) = (  -0.0821215   0.1106300   0.0000000), wk =   0.1111111
        k(   20) = (  -0.0821215  -0.0474129   0.0000000), wk =   0.0555556

     Largest allocated arrays     est. size (Mb)     dimensions
     Largest temporary arrays     est. size (Mb)     dimensions

     Initial potential from superposition of free atoms
     Check: negative starting charge=   -0.001125

     starting charge  220.99994, renormalised to  233.00000

     negative rho (up, down):  1.186E-03 0.000E+00

     *
     * You are using vdW-DF for exchange-correlation in this calculation.
     * Please cite the following three references that made this development
     * possible:
     *
     *   M. Dion, H. Rydberg, E. Schroder, D. C. Langreth, and
     *   B. I. Lundqvist, Phys. Rev. Lett. 92, 246401 (2004).
     *
     *   T. Thonhauser, V. R. Cooper, S. Li, A. Puzder, P. Hyldgaard, and
     *   D. C. Langreth, Phys. Rev. B 76, 125112 (2007).
     *
     *   G. Roman-Perez and J. M. Soler, Phys. Rev. Lett. 103, 096102 (2009).
     *
     *
     * If you are using vdW-DF2, please also cite:
     *
     *   K. Lee, E. D. Murray, L. Kong, B. I. Lundqvist, and
     *   D. C. Langreth, Phys. Rev. B 82, 081101(R) (2010).
     *
     *
     * If you are calculating the stress with vdW-DF, please also cite:
     *
     *   R. Sabatini, E. Kucukbenli, B. Kolb, T. Thonhauser, and
     *   S. de Gironcoli, J. Phys.: Condens. Matter 24, 424209 (2012).
     *

     Carrying out vdW-DF run using the following parameters:

     Nqs =      20    Nr_points =    1024   r_max =   100.000
     q_mesh =
               0.00001000     0.04494208     0.09755937     0.15916263
               0.23128650     0.31572767     0.41458969     0.53033537
               0.66584808     0.82450364     1.01025438     1.22772762
               1.48234092     1.78043706     2.12944203     2.53805004
               3.01644009     3.57652955     4.23227104     5.00000000

     Gradients computed in reciprocal space

     Adding external electric field

     Computed dipole along edir(3) :
        Dipole               -2.0480 Ry au,         -5.2056 Debye
        Dipole field         -0.0048 Ry au

        Potential amp.        0.4378 Ry
        Total length         46.0091 bohr

     Starting wfc are  149 randomized atomic wfcs

     Self-consistent Calculation

     iteration #  1     ecut=    36.75 Ry     beta=0.30
     Davidson diagonalization with overlap
     ethr =  1.00E-02,  avg # of iterations =  6.8

[...]

     total energy              =   -4818.66928750 Ry
     Harris-Foulkes estimate   =   -5028.10624110 Ry
     estimated scf accuracy    <     440.84000508 Ry

     iteration #  2     ecut=    36.75 Ry     beta=0.30
     Davidson diagonalization with overlap
     c_bands:  3 eigenvalues not converged
     c_bands:  2 eigenvalues not converged
     c_bands:  1 eigenvalues not converged
     c_bands:  1 eigenvalues not converged
     c_bands:  1 eigenvalues not converged
     c_bands:  5 eigenvalues not converged
     c_bands:  2 eigenvalues not converged
     c_bands:  1 eigenvalues not converged
     c_bands:  5 eigenvalues not converged
     c_bands:  4 eigenvalues not converged
     c_bands:  1 eigenvalues not converged
     c_bands:  3 eigenvalues not converged
     c_bands:  2 eigenvalues not converged
     c_bands:  1 eigenvalues not converged
     ethr =  1.00E-02,  avg # of iterations = 20.2

[...]

     End of self-consistent calculation

          k = 0.0000 0.0000 0.0000 ( 20347 PWs)   bands (ev):

   -94.6283 -94.6182 -94.6182 -94.5915 -94.5914 -94.5914 -94.5749 -94.5736
   -94.5736 -94.5711 -94.5711 -94.5707 -94.5264 -94.5246 -94.5187 -94.5187
   -94.5181 -94.5155 -94.5141 -94.5141 -94.5087 -94.5086 -94.5078 -94.5070
   -94.5070 -94.5001 -94.5001 -94.4989 -94.4987 -94.4987 -94.4905 -94.4905
   -94.4900 -94.4083 -94.4075 -94.4075 -15.0715 -15.0588 -15.0588 -15.0226
   -15.0196 -15.0196 -15.0054 -15.0054 -14.9972 -14.9916 -14.9804 -14.9687
   -14.9680 -14.9680 -14.9435 -14.9435 -14.9428 -14.9307 -14.9307 -14.9233
   -14.9233 -14.9127 -14.9098 -14.9098 -14.9059 -14.8932 -14.8932 -14.8818
   -14.8708 -14.8708 -14.8447 -14.8447 -14.8304 -14.8304 -14.8249 -14.8160
   -14.8160 -14.7963 -14.7954 -14.7901 -14.7901 -14.7726 -14.7587 -14.7587
   -14.7510 -14.7510 -14.7446 -14.7432 -14.7432 -14.7396 -14.7355 -14.7355
   -14.7305 -14.7305 -14.7197 -14.7066 -14.7066 -14.6771 -14.6771 -14.6656
   -11.2300  -9.7782  -8.2302  -6.2599  -4.8819  -4.8819  -4.8746  -4.6977
    -4.4719  -4.4719  -4.0165  -3.3713  -3.3713  -2.7713  -2.7467  -2.7467
    -2.2592  -1.5887  -1.4053  -1.4052  -0.7295  -0.7295  -0.6869   0.9531
     1.1368   1.1368   1.9650   3.1718   3.1965   3.1965

[...]

          k =-0.0821 0.0474 0.0000 ( 20384 PWs)   bands (ev):

[...]

     the Fermi energy is     0.2006 ev

!    total energy              =   -5011.71344988 Ry
     Harris-Foulkes estimate   =   -5011.71345685 Ry
     estimated scf accuracy    <       0.00000333 Ry

     The total energy is the sum of the following terms:

     one-electron contribution =  -27514.70428031 Ry
     hartree contribution      =   13763.48909378 Ry
     xc contribution           =    -600.85949180 Ry
     ewald contribution        =    9340.39601585 Ry
     electric field correction =       0.00000463 Ry
     smearing contrib. (-TS)   =      -0.03479204 Ry

     convergence has been achieved in  18 iterations

 BEEF-vdW xc energy contributions
           1 :   -537.046793677223
           2 :    487.551770871785
           3 :   -404.573739456437
           4 :    312.219855505824
           5 :   -231.818402052765
           6 :    173.928764167937
           7 :   -136.834091245097
           8 :    111.296981120273
           9 :   -87.9857113196367
          10 :    62.9522230429271
          11 :   -38.3955074942432
          12 :    19.2311591599864
          13 :   -8.53043701448985
          14 :    5.10120710131230
          15 :   -4.52697622470987
          16 :    2.41648615940790
          17 :    2.74125120077395
          18 :   -9.10843148777394
          19 :    13.4609391517992
          20 :   -13.8882579424311
          21 :    11.1944669461225
          22 :   -8.12177097204722
          23 :    7.18798612762794
          24 :   -8.87418820708240
          25 :    11.4819563658978
          26 :   -12.6332467191630
          27 :    11.1639813553351
          28 :   -7.96424221421921
          29 :    5.20661407102739
          30 :   -4.64911276167459
          31 :   -39.7822333972492
          32 :   -27.0440287646770

     Forces acting on atoms (Ry/au):

     negative rho (up, down):  1.005E-03 0.000E+00
     atom    1 type  1   force =    -0.00000852   -0.00000408    0.00632843
     atom    2 type  1   force =     0.00001249    0.00064731    0.00356891
     atom    3 type  1   force =     0.00056174   -0.00031399    0.00343344
     atom    4 type  1   force =    -0.00056138   -0.00033114    0.00348075
     atom    5 type  1   force =     0.00162302   -0.00094651    0.00671219
     atom    6 type  1   force =    -0.00162059   -0.00094654    0.00671629
     atom    7 type  1   force =     0.00000147    0.00000610    0.00246456
     atom    8 type  1   force =    -0.00000346    0.00188773    0.00664059
     atom    9 type  1   force =     0.00554929    0.00319625    0.02369579
     atom   10 type  1   force =    -0.00555680    0.00320831    0.02365968
     atom   11 type  1   force =     0.00000567   -0.00640731    0.02365752
     atom   12 type  1   force =    -0.00000357    0.00000309   -0.00886722
     atom   13 type  2   force =     0.00000053    0.00000043   -0.09021916
     atom   14 type  3   force =     0.00000011    0.00000035   -0.01127176

     Total force =     0.100744     Total SCF correction =     0.005133

     entering subroutine stress ...

     negative rho (up, down):  1.005E-03 0.000E+00
          total   stress  (Ry/bohr**3)                   (kbar)     P=  -14.18
  -0.00008828   0.00000000  -0.00000000        -12.99      0.00     -0.00
   0.00000000  -0.00008828  -0.00000000          0.00    -12.99     -0.00
  -0.00000000  -0.00000000  -0.00011271         -0.00     -0.00    -16.58

     BFGS Geometry Optimization

     number of scf cycles    =   1
     number of bfgs steps    =   0

     energy   new            =   -5011.7134498838 Ry

     new trust radius        =       0.0902191631 bohr
     new conv_thr            =       0.0000099958 Ry

ATOMIC_POSITIONS (crystal)
Ga1      0.166666667   0.166666667   0.400460194    0   0   0
Ga1      0.666666667   0.166666667   0.400460194    0   0   0
Ga1      0.166666667   0.666666667   0.400460194    0   0   0
Ga1      0.666666667   0.666666667   0.400460194    0   0   0
Ga1      0.833333333   0.333333333   0.500000000    0   0   0
Ga1      0.333333333   0.333333333   0.500000000    0   0   0
Ga1      0.833333333   0.833333333   0.500000000    0   0   0
Ga1      0.333333333   0.833333333   0.500000000    0   0   0
Ga1      0.000321923   0.000320773   0.600041954
Ga1      0.499356046   0.000321984   0.600041189
Ga1      0.000322010   0.499356967   0.600041143
Ga1      0.499999534   0.500000311   0.599351897
C1       0.166666691   0.166666710   0.649167159
H1       0.166666659   0.166666702   0.694890789

     Writing output data file calc.save
     Check: negative starting charge=   -0.001125
     NEW-OLD atomic charge density approx. for the potential
     Check: negative starting charge=   -0.001114

[...]

     energy   old            =   -5011.7134498838 Ry
     energy   new            =   -5011.7206219277 Ry

     CASE: energy  _new < energy  _old

[...]

     Total force =     0.017635     Total SCF correction =     0.001278

[...]

     Total force =     0.005509     Total SCF correction =     0.001275
     SCF correction compared to forces is large: reduce conv_thr to get better values

[...]

     number of scf cycles    =  22
     number of bfgs steps    =  21

     energy   old            =   -5011.7554720763 Ry
     energy   new            =   -5011.7555373153 Ry

     CASE: energy  _new < energy  _old

     new trust radius        =       0.0206087962 bohr
     new conv_thr            =       0.0000001000 Ry

ATOMIC_POSITIONS (crystal)
Ga1      0.166666667   0.166666667   0.400460194    0   0   0
Ga1      0.666666667   0.166666667   0.400460194    0   0   0
Ga1      0.166666667   0.666666667   0.400460194    0   0   0
Ga1      0.666666667   0.666666667   0.400460194    0   0   0
Ga1      0.833333333   0.333333333   0.500000000    0   0   0
Ga1      0.333333333   0.333333333   0.500000000    0   0   0
Ga1      0.833333333   0.833333333   0.500000000    0   0   0
Ga1      0.333333333   0.833333333   0.500000000    0   0   0
Ga1     -0.009638712  -0.009645541   0.597669949
Ga1      0.519277043  -0.009639360   0.597669523
Ga1     -0.009635260   0.519270223   0.597667156
Ga1      0.499996100   0.500002517   0.593031028
C1       0.166662356   0.166671750   0.631434199
H1       0.166666765   0.166668624   0.675384356

     Writing output data file calc.save
     Check: negative starting charge=   -0.001157
     NEW-OLD atomic charge density approx. for the potential
     Check: negative starting charge=   -0.001160

[...]

     Self-consistent Calculation

[...]

     total energy              =   -5011.75557823 Ry
     Harris-Foulkes estimate   =   -5011.75557820 Ry
     estimated scf accuracy    <       0.00000037 Ry

     iteration #  7     ecut=    36.75 Ry     beta=0.30
     Davidson diagonalization with overlap
     ethr =  1.60E-10,  avg # of iterations =  3.4

[...]

     negative rho (up, down):  1.036E-03 0.000E+00

     Adding external electric field

     Computed dipole along edir(3) :
        Dipole                0.0486 Ry au,          0.1234 Debye
        Dipole field          0.0001 Ry au

        Potential amp.       -0.0104 Ry
        Total length         46.0091 bohr

     End of self-consistent calculation

[...]

          k = 0.0547-0.0632 0.0000 ( 20377 PWs)   bands (ev):

[...]

          k =-0.0821-0.0474 0.0000 ( 20384 PWs)   bands (ev):

   -94.5207 -94.5199 -94.5199 -94.4941 -94.4938 -94.4936 -94.4933 -94.4933
   -94.4932 -94.4793 -94.4788 -94.4783 -94.4777 -94.4775 -94.4770 -94.4765
   -94.4764 -94.4761 -94.4549 -94.4546 -94.4545 -94.4518 -94.4513 -94.4508
   -94.4363 -94.4362 -94.4361 -94.4334 -94.4236 -94.4211 -94.4211 -94.4092
   -94.4092 -94.3893 -94.3883 -94.3879 -15.0471 -14.9537 -14.9340 -14.9292
   -14.9208 -14.9115 -14.9006 -14.8999 -14.8962 -14.8945 -14.8924 -14.8770
   -14.8680 -14.8664 -14.8612 -14.8604 -14.8570 -14.8472 -14.8431 -14.8376
   -14.8363 -14.8318 -14.8286 -14.8227 -14.8211 -14.8178 -14.8127 -14.8081
   -14.8038 -14.8019 -14.7965 -14.7926 -14.7826 -14.7808 -14.7721 -14.7714
   -14.7661 -14.7605 -14.7598 -14.7516 -14.7497 -14.7405 -14.7378 -14.7295
   -14.7289 -14.7264 -14.7202 -14.7159 -14.7135 -14.7132 -14.7057 -14.7022
   -14.7001 -14.6992 -14.6868 -14.6739 -14.6668 -14.6552 -14.6520 -14.6457
   -11.5235  -8.6955  -8.3893  -7.2689  -6.8559  -6.0205  -5.9666  -5.1057
    -4.9960  -4.8600  -4.5364  -2.9704  -2.8286  -2.3216  -1.0303  -0.7160
    -0.6435  -0.1686  -0.0929  -0.0624   0.3850   0.6818   1.2164   1.6688
     1.7397   2.1601   2.3653   2.5895   2.6756   2.9111

     the Fermi energy is     0.2568 ev

!    total energy              =   -5011.75557832 Ry
     Harris-Foulkes estimate   =   -5011.75557828 Ry
     estimated scf accuracy    <       0.00000005 Ry

     The total energy is the sum of the following terms:

     one-electron contribution =  -27905.54951953 Ry
     hartree contribution      =   13959.38351276 Ry
     xc contribution           =    -601.06552199 Ry
     ewald contribution        =    9535.50913552 Ry
     electric field correction =       0.00000548 Ry
     smearing contrib. (-TS)   =      -0.03319056 Ry

     convergence has been achieved in   7 iterations

 BEEF-vdW xc energy contributions
           1 :   -537.257263366194
           2 :    487.841032811056
           3 :   -404.944905466740
           4 :    312.599094567425
           5 :   -232.109840560766
           6 :    174.074854593198
           7 :   -136.847600437243
           8 :    111.248239686080
           9 :   -87.9551569165268
          10 :    62.9801199525274
          11 :   -38.4618669359457
          12 :    19.2774202601698
          13 :   -8.50494386797652
          14 :    4.99655455814957
          15 :   -4.38433794771208
          16 :    2.29504111587187
          17 :    2.80404558985526
          18 :   -9.11471107581758
          19 :    13.4394790328930
          20 :   -13.8657200151426
          21 :    11.1750022084159
          22 :   -8.08996275163656
          23 :    7.13067826015003
          24 :   -8.79992387142465
          25 :    11.4185731329165
          26 :   -12.6037968480518
          27 :    11.1601918592897
          28 :   -7.94097853542780
          29 :    5.10621799669900
          30 :   -4.44124120440085
          31 :   -39.7986890036340
          32 :   -27.0782428241487

     Forces acting on atoms (Ry/au):

     negative rho (up, down):  1.036E-03 0.000E+00
     atom    1 type  1   force =     0.00000018   -0.00000020    0.00284391
     atom    2 type  1   force =    -0.00000023   -0.00086303    0.00112364
     atom    3 type  1   force =    -0.00074778    0.00043159    0.00112246
     atom    4 type  1   force =     0.00074761    0.00043176    0.00112324
     atom    5 type  1   force =     0.00483154   -0.00279083   -0.00146927
     atom    6 type  1   force =    -0.00483224   -0.00279120   -0.00146996
     atom    7 type  1   force =    -0.00000013    0.00000103   -0.00049863
     atom    8 type  1   force =     0.00000001    0.00558139   -0.00146922
     atom    9 type  1   force =     0.00035267    0.00020387   -0.00027261
     atom   10 type  1   force =    -0.00034869    0.00020027   -0.00027456
     atom   11 type  1   force =    -0.00000112   -0.00039118   -0.00027589
     atom   12 type  1   force =     0.00000123   -0.00000055   -0.00005546
     atom   13 type  2   force =    -0.00000185   -0.00001534   -0.00018019
     atom   14 type  3   force =    -0.00000121    0.00000242   -0.00024745

     Total force =     0.000896     Total SCF correction =     0.001335
     SCF correction compared to forces is large: reduce conv_thr to get better values

     entering subroutine stress ...

     negative rho (up, down):  1.036E-03 0.000E+00
          total   stress  (Ry/bohr**3)                   (kbar)     P=   -6.16
  -0.00005632  -0.00000000  -0.00000000         -8.29     -0.00     -0.00
  -0.00000000  -0.00005632  -0.00000000         -0.00     -8.28     -0.00
  -0.00000000  -0.00000000  -0.00001308         -0.00     -0.00     -1.92

     bfgs converged in  23 scf cycles and  22 bfgs steps
     (criteria: energy <  1.0E+00, force <  1.9E-03)

     End of BFGS Geometry Optimization

     Final energy   =   -5011.7555783195 Ry
Begin final coordinates

ATOMIC_POSITIONS (crystal)
Ga1      0.166666667   0.166666667   0.400460194    0   0   0
Ga1      0.666666667   0.166666667   0.400460194    0   0   0
Ga1      0.166666667   0.666666667   0.400460194    0   0   0
Ga1      0.666666667   0.666666667   0.400460194    0   0   0
Ga1      0.833333333   0.333333333   0.500000000    0   0   0
Ga1      0.333333333   0.333333333   0.500000000    0   0   0
Ga1      0.833333333   0.833333333   0.500000000    0   0   0
Ga1      0.333333333   0.833333333   0.500000000    0   0   0
Ga1     -0.009638712  -0.009645541   0.597669949
Ga1      0.519277043  -0.009639360   0.597669523
Ga1     -0.009635260   0.519270223   0.597667156
Ga1      0.499996100   0.500002517   0.593031028
C1       0.166662356   0.166671750   0.631434199
H1       0.166666765   0.166668624   0.675384356
End final coordinates

     Writing output data file calc.save

     General routines

     Parallel routines

   This run was terminated on:  21:32:30  17Apr2018

   JOB DONE.