     Program PWSCF v.5.1rc2 (svn rev. 11289) starts on 16Jan2018 at 15:11:19

     Current dimensions of program PWSCF are:
     Max number of different atomic species (ntypx) = 10
     Max number of k-points (npk) =  40000
     Max angular momentum in pseudopotentials (lmaxx) =  3
     Presently stress not available with electric field

     IMPORTANT: XC functional enforced from input :
     Exchange-correlation      = BEEF-VDW ( 1  4 27 13 2)
     Any further DFT definition will be discarded
     Please, verify this is what you really want

     Subspace diagonalization in iterative solution of the eigenvalue problem:
     a serial algorithm will be used

     bravais-lattice index     =            0
     lattice parameter (alat)  =       1.8897  a.u.
     unit-cell volume          =    4198.3539 (a.u.)^3
     number of atoms/cell      =           13
     number of atomic types    =            2
     number of electrons       =       193.00
     number of Kohn-Sham states=          106
     kinetic-energy cutoff     =      36.7493  Ry
     charge density cutoff     =     367.4932  Ry
     convergence threshold     =      1.0E-05
     mixing beta               =       0.3000
     number of iterations used =           10  plain     mixing
     Exchange-correlation      = BEEF-VDW ( 1  4 27 13 2)
     nstep                     =           50

     celldm(1)=   1.889726  celldm(2)=   0.000000  celldm(3)=   0.000000
     celldm(4)=   0.000000  celldm(5)=   0.000000  celldm(6)=   0.000000

     crystal axes: (cart. coord. in units of alat)
               a(1) = (   5.422927   0.000000   0.000000 )
               a(2) = (   2.711463   4.696392   0.000000 )
               a(3) = (   0.000000   0.000000  24.427801 )

     reciprocal axes: (cart. coord. in units 2 pi/alat)
               b(1) = (  0.184402 -0.106465  0.000000 )
               b(2) = (  0.000000  0.212929  0.000000 )
               b(3) = (  0.000000  0.000000  0.040937 )

     PseudoPot. # 1 for Ru read from file:
     /afs/slac.stanford.edu/u/if/mamunm/psp/gbrv1.5pbe/Ru.UPF
     MD5 check sum: 7158a806dd851261a58e6920c40ebe78
     Pseudo is Ultrasoft + core correction, Zval = 16.0
     Generated by new atomic code, or converted to UPF format
     Using radial grid of  967 points,  6 beta functions with:
                l(1) =   0
                l(2) =   0
                l(3) =   1
                l(4) =   1
                l(5) =   2
                l(6) =   2
     Q(r) pseudized with  8 coefficients,  rinner =    1.300   1.300   1.300
                                                       1.300   1.300

     PseudoPot. # 2 for H  read from file:
     /afs/slac.stanford.edu/u/if/mamunm/psp/gbrv1.5pbe/H.UPF
     MD5 check sum: 761ae9a214b05c3daf00ab9f6b793d6f
     Pseudo is Ultrasoft, Zval =  1.0
     Generated by new atomic code, or converted to UPF format
     Using radial grid of  615 points,  2 beta functions with:
                l(1) =   0
                l(2) =   0
     Q(r) pseudized with  8 coefficients,  rinner =    0.700

     vdW kernel table read from file vdW_kernel_table
     MD5 check sum: 095c7af220d748ca6e76c0b4c6cfb241

     atomic species   valence    mass     pseudopotential
        Ru1           16.00   101.07000     Ru( 1.00)
        H1             1.00     1.00800     H ( 1.00)

     No symmetry found

   Cartesian axes

     site n.     atom                  positions (alat units)
         1           Ru1 tau(   1) = (   1.3557316   0.7827320  10.0000000  )
         2           Ru1 tau(   2) = (   4.0671949   0.7827320  10.0000000  )
         3           Ru1 tau(   3) = (   2.7114633   3.1309281  10.0000000  )
         4           Ru1 tau(   4) = (   5.4229265   3.1309281  10.0000000  )
         5           Ru1 tau(   5) = (   5.4229265   1.5654640  12.2139005  )
         6           Ru1 tau(   6) = (   2.7114633   1.5654640  12.2139005  )
         7           Ru1 tau(   7) = (   6.7786581   3.9136601  12.2139005  )
         8           Ru1 tau(   8) = (   4.0671949   3.9136601  12.2139005  )
         9           Ru1 tau(   9) = (   0.0000000   0.0000000  14.4278010  )
        10           Ru1 tau(  10) = (   2.7114633   0.0000000  14.4278010  )
        11           Ru1 tau(  11) = (   1.3557316   2.3481961  14.4278010  )
        12           Ru1 tau(  12) = (   4.0671949   2.3481961  14.4278010  )
        13           H1  tau(  13) = (   1.3557316   0.7827320  16.1978010  )

     number of k points=    20  Fermi-Dirac smearing, width (Ry)=  0.0110
                       cart. coord. in units 2pi/alat
        k(    1) = (   0.0000000   0.0000000   0.0000000), wk =   0.0555556
        k(    2) = (   0.0000000   0.0354882   0.0000000), wk =   0.1111111
        k(    3) = (   0.0000000   0.0709765   0.0000000), wk =   0.1111111
        k(    4) = (   0.0000000  -0.1064647   0.0000000), wk =   0.0555556
        k(    5) = (   0.0307337  -0.0177441   0.0000000), wk =   0.1111111
        k(    6) = (   0.0307337   0.0177441   0.0000000), wk =   0.1111111
        k(    7) = (   0.0307337   0.0532324   0.0000000), wk =   0.1111111
        k(    8) = (   0.0307337  -0.1242088   0.0000000), wk =   0.1111111
        k(    9) = (   0.0307337  -0.0887206   0.0000000), wk =   0.1111111
        k(   10) = (   0.0307337  -0.0532324   0.0000000), wk =   0.1111111
        k(   11) = (   0.0614674  -0.0354882   0.0000000), wk =   0.1111111
        k(   12) = (   0.0614674   0.0000000   0.0000000), wk =   0.1111111
        k(   13) = (   0.0614674   0.0354882   0.0000000), wk =   0.1111111
        k(   14) = (   0.0614674  -0.1419529   0.0000000), wk =   0.1111111
        k(   15) = (   0.0614674  -0.1064647   0.0000000), wk =   0.1111111
        k(   16) = (   0.0614674  -0.0709765   0.0000000), wk =   0.1111111
        k(   17) = (  -0.0922011   0.0532324   0.0000000), wk =   0.0555556
        k(   18) = (  -0.0922011   0.0887206   0.0000000), wk =   0.1111111
        k(   19) = (  -0.0922011   0.1242088   0.0000000), wk =   0.1111111
        k(   20) = (  -0.0922011  -0.0532324   0.0000000), wk =   0.0555556

     Largest allocated arrays     est. size (Mb)     dimensions
     Largest temporary arrays     est. size (Mb)     dimensions

     Initial potential from superposition of free atoms
     Check: negative starting charge=   -0.873644

     starting charge  180.99980, renormalised to  193.00000

     negative rho (up, down):  9.316E-01 0.000E+00

     *
     * You are using vdW-DF for exchange-correlation in this calculation.
     * Please cite the following three references that made this development
     * possible:
     *
     *   M. Dion, H. Rydberg, E. Schroder, D. C. Langreth, and
     *   B. I. Lundqvist, Phys. Rev. Lett. 92, 246401 (2004).
     *
     *   T. Thonhauser, V. R. Cooper, S. Li, A. Puzder, P. Hyldgaard, and
     *   D. C. Langreth, Phys. Rev. B 76, 125112 (2007).
     *
     *   G. Roman-Perez and J. M. Soler, Phys. Rev. Lett. 103, 096102 (2009).
     *
     *
     * If you are using vdW-DF2, please also cite:
     *
     *   K. Lee, E. D. Murray, L. Kong, B. I. Lundqvist, and
     *   D. C. Langreth, Phys. Rev. B 82, 081101(R) (2010).
     *
     *
     * If you are calculating the stress with vdW-DF, please also cite:
     *
     *   R. Sabatini, E. Kucukbenli, B. Kolb, T. Thonhauser, and
     *   S. de Gironcoli, J. Phys.: Condens. Matter 24, 424209 (2012).
     *

     Carrying out vdW-DF run using the following parameters:

     Nqs =      20    Nr_points =    1024   r_max =   100.000
     q_mesh =
               0.00001000     0.04494208     0.09755937     0.15916263
               0.23128650     0.31572767     0.41458969     0.53033537
               0.66584808     0.82450364     1.01025438     1.22772762
               1.48234092     1.78043706     2.12944203     2.53805004
               3.01644009     3.57652955     4.23227104     5.00000000

     Gradients computed in reciprocal space

     Adding external electric field

     Computed dipole along edir(3) :
        Dipole               -0.4991 Ry au,         -1.2685 Debye
        Dipole field         -0.0015 Ry au

        Potential amp.        0.1345 Ry
        Total length         45.0078 bohr

     Starting wfc are  157 randomized atomic wfcs

     Self-consistent Calculation

     iteration #  1     ecut=    36.75 Ry     beta=0.30
     Davidson diagonalization with overlap
     ethr =  1.00E-02,  avg # of iterations =  2.2

[...]

     total energy              =   -2334.78952169 Ry
     Harris-Foulkes estimate   =   -2347.65601170 Ry
     estimated scf accuracy    <      28.83629004 Ry

[...]

     End of self-consistent calculation

          k = 0.0000 0.0000 0.0000 ( 15761 PWs)   bands (ev):

   -71.0774 -70.9864 -70.9855 -70.9004 -70.6388 -70.5803 -70.5538 -70.5522
   -70.4912 -70.4866 -70.4852 -70.4769 -41.3538 -41.3349 -41.3343 -41.1784
   -41.0833 -41.0825 -41.0515 -40.8836 -40.8539 -40.8533 -40.8054 -40.7719
   -40.7715 -40.7161 -40.7155 -40.6906 -40.6029 -40.6027 -40.5500 -40.4718
   -40.4705 -40.4283 -40.3851 -40.3840 -40.3714 -40.3604 -40.3527 -40.3517
   -40.3503 -40.3026 -40.3019 -40.2986 -40.1822 -40.1819 -40.1382 -40.1381
    -4.5447  -3.3079  -3.2865  -3.2864  -3.2524  -3.1133  -2.9255  -2.9151
    -2.9147  -2.7530  -2.6565  -2.6561  -2.3319  -2.2951  -2.2948  -1.4611
    -1.1478  -1.1473  -0.6431  -0.5504  -0.5503  -0.4012  -0.2670  -0.1730
    -0.1730   0.2329   0.2329   0.2630   0.2786   0.2787   0.4975   0.4975
     0.5456   0.9839   0.9848   1.0919   1.8821   1.8826   1.8914   2.0128
     2.0132   2.0241   2.0373   2.0373   2.6249   2.6250   2.7499   3.1690
     3.1697   3.2078   3.2604   3.2720   3.2721   3.4367   3.4367   3.7653
     3.7903   3.7905

[...]

          k =-0.0922 0.0532 0.0000 ( 15808 PWs)   bands (ev):

[...]

     the Fermi energy is     2.2247 ev

!    total energy              =   -2342.38021652 Ry
     Harris-Foulkes estimate   =   -2342.38022460 Ry
     estimated scf accuracy    <       0.00000532 Ry

     The total energy is the sum of the following terms:

     one-electron contribution =  -21880.87653886 Ry
     hartree contribution      =   10939.35428041 Ry
     xc contribution           =    -322.36359645 Ry
     ewald contribution        =    8921.59175830 Ry
     electric field correction =       0.00001239 Ry
     smearing contrib. (-TS)   =      -0.08613231 Ry

     convergence has been achieved in  19 iterations

 BEEF-vdW xc energy contributions
           1 :   -279.584015955466
           2 :    256.649446742568
           3 :   -216.931216318244
           4 :    170.270443046719
           5 :   -126.699292762643
           6 :    93.3691839727921
           7 :   -72.8937798956431
           8 :    63.4968353967868
           9 :   -60.6388109151487
          10 :    59.2896078697767
          11 :   -55.8875705755720
          12 :    49.3000897814194
          13 :   -40.6144033928350
          14 :    32.0802067732653
          15 :   -25.7992300181047
          16 :    22.7429051697235
          17 :   -22.4460476926143
          18 :    23.3968551316343
          19 :   -23.8515950325998
          20 :    22.6552430073202
          21 :   -19.6936383674957
[...]
00031 suncat0114 pw.x -in pw.inp   Done                     01/16/2018 15:25:00

     Program PWSCF v.5.1rc2 (svn rev. 11289) starts on 16Jan2018 at 15:25: 6

[...]

     Total force =     0.089278     Total SCF correction =     0.020743
     SCF correction compared to forces is large: reduce conv_thr to get better values

[...]

   This run was terminated on:  15:38:25  16Jan2018

[...]

   This run was terminated on:  16: 6:41  16Jan2018

[...]

     Program PWSCF v.5.1rc2 (svn rev. 11289) starts on 16Jan2018 at 16: 6:46

[...]

     Total force =     0.083337     Total SCF correction =     0.018178
     SCF correction compared to forces is large: reduce conv_thr to get better values

[...]

     Program PWSCF v.5.1rc2 (svn rev. 11289) starts on 16Jan2018 at 16:33:22

     Current dimensions of program PWSCF are:
     Max number of different atomic species (ntypx) = 10
     Max number of k-points (npk) =  40000
     Max angular momentum in pseudopotentials (lmaxx) =  3
     Presently stress not available with electric field

     IMPORTANT: XC functional enforced from input :
     Exchange-correlation      = BEEF-VDW ( 1  4 27 13 2)
     Any further DFT definition will be discarded
     Please, verify this is what you really want

     Subspace diagonalization in iterative solution of the eigenvalue problem:
     a serial algorithm will be used

     bravais-lattice index     =            0
     lattice parameter (alat)  =       1.8897  a.u.
     unit-cell volume          =    4198.3539 (a.u.)^3
     number of atoms/cell      =           13
     number of atomic types    =            2
     number of electrons       =       193.00
     number of Kohn-Sham states=          106
     kinetic-energy cutoff     =      36.7493  Ry
     charge density cutoff     =     367.4932  Ry
     convergence threshold     =      1.0E-05
     mixing beta               =       0.3000
     number of iterations used =           10  plain     mixing
     Exchange-correlation      = BEEF-VDW ( 1  4 27 13 2)
     nstep                     =           50

     celldm(1)=   1.889726  celldm(2)=   0.000000  celldm(3)=   0.000000
     celldm(4)=   0.000000  celldm(5)=   0.000000  celldm(6)=   0.000000

     crystal axes: (cart. coord. in units of alat)
               a(1) = (   5.422927   0.000000   0.000000 )
               a(2) = (   2.711463   4.696392   0.000000 )
               a(3) = (   0.000000   0.000000  24.427801 )

     reciprocal axes: (cart. coord. in units 2 pi/alat)
               b(1) = (  0.184402 -0.106465  0.000000 )
               b(2) = (  0.000000  0.212929  0.000000 )
               b(3) = (  0.000000  0.000000  0.040937 )

     PseudoPot. # 1 for Ru read from file:
     /afs/slac.stanford.edu/u/if/mamunm/psp/gbrv1.5pbe/Ru.UPF
     MD5 check sum: 7158a806dd851261a58e6920c40ebe78
     Pseudo is Ultrasoft + core correction, Zval = 16.0
     Generated by new atomic code, or converted to UPF format
     Using radial grid of  967 points,  6 beta functions with:
                l(1) =   0
                l(2) =   0
                l(3) =   1
                l(4) =   1
                l(5) =   2
                l(6) =   2
     Q(r) pseudized with  8 coefficients,  rinner =    1.300   1.300   1.300
                                                       1.300   1.300

     PseudoPot. # 2 for H  read from file:
     /afs/slac.stanford.edu/u/if/mamunm/psp/gbrv1.5pbe/H.UPF
     MD5 check sum: 761ae9a214b05c3daf00ab9f6b793d6f
     Pseudo is Ultrasoft, Zval =  1.0
     Generated by new atomic code, or converted to UPF format
     Using radial grid of  615 points,  2 beta functions with:
                l(1) =   0
                l(2) =   0
     Q(r) pseudized with  8 coefficients,  rinner =    0.700

     vdW kernel table read from file vdW_kernel_table
     MD5 check sum: 095c7af220d748ca6e76c0b4c6cfb241

     atomic species   valence    mass     pseudopotential
        Ru1           16.00   101.07000     Ru( 1.00)
        H1             1.00     1.00800     H ( 1.00)

     No symmetry found

   Cartesian axes

     site n.     atom                  positions (alat units)
         1           Ru1 tau(   1) = (   1.3557316   0.7827320  10.0000000  )
         2           Ru1 tau(   2) = (   4.0671949   0.7827320  10.0000000  )
         3           Ru1 tau(   3) = (   2.7114633   3.1309281  10.0000000  )
         4           Ru1 tau(   4) = (   5.4229265   3.1309281  10.0000000  )
         5           Ru1 tau(   5) = (   5.4229265   1.5654640  12.2139005  )
         6           Ru1 tau(   6) = (   2.7114633   1.5654640  12.2139005  )
         7           Ru1 tau(   7) = (   6.7786581   3.9136601  12.2139005  )
         8           Ru1 tau(   8) = (   4.0671949   3.9136601  12.2139005  )
         9           Ru1 tau(   9) = (   8.1167110   4.6859804  14.3356114  )
        10           Ru1 tau(  10) = (   5.4406265   4.6861683  14.3354925  )
        11           Ru1 tau(  11) = (   6.7788485   2.3687609  14.3357065  )
        12           Ru1 tau(  12) = (   4.0670117   2.3483313  14.3174720  )
        13           H1  tau(  13) = (   1.3557689   0.7827148  15.3790741  )

     number of k points=    20  Fermi-Dirac smearing, width (Ry)=  0.0110
                       cart. coord. in units 2pi/alat
        k(    1) = (   0.0000000   0.0000000   0.0000000), wk =   0.0555556
        k(    2) = (   0.0000000   0.0354882   0.0000000), wk =   0.1111111
        k(    3) = (   0.0000000   0.0709765   0.0000000), wk =   0.1111111
        k(    4) = (   0.0000000  -0.1064647   0.0000000), wk =   0.0555556
        k(    5) = (   0.0307337  -0.0177441   0.0000000), wk =   0.1111111
        k(    6) = (   0.0307337   0.0177441   0.0000000), wk =   0.1111111
        k(    7) = (   0.0307337   0.0532324   0.0000000), wk =   0.1111111
        k(    8) = (   0.0307337  -0.1242088   0.0000000), wk =   0.1111111
        k(    9) = (   0.0307337  -0.0887206   0.0000000), wk =   0.1111111
        k(   10) = (   0.0307337  -0.0532324   0.0000000), wk =   0.1111111
        k(   11) = (   0.0614674  -0.0354882   0.0000000), wk =   0.1111111
        k(   12) = (   0.0614674   0.0000000   0.0000000), wk =   0.1111111
        k(   13) = (   0.0614674   0.0354882   0.0000000), wk =   0.1111111
        k(   14) = (   0.0614674  -0.1419529   0.0000000), wk =   0.1111111
        k(   15) = (   0.0614674  -0.1064647   0.0000000), wk =   0.1111111
        k(   16) = (   0.0614674  -0.0709765   0.0000000), wk =   0.1111111
        k(   17) = (  -0.0922011   0.0532324   0.0000000), wk =   0.0555556
        k(   18) = (  -0.0922011   0.0887206   0.0000000), wk =   0.1111111
        k(   19) = (  -0.0922011   0.1242088   0.0000000), wk =   0.1111111
        k(   20) = (  -0.0922011  -0.0532324   0.0000000), wk =   0.0555556

     Largest allocated arrays     est. size (Mb)     dimensions
     Largest temporary arrays     est. size (Mb)     dimensions

     Initial potential from superposition of free atoms
     Check: negative starting charge=   -0.874972

     starting charge  180.99980, renormalised to  193.00000

[...]

     *
     * You are using vdW-DF for exchange-correlation in this calculation.
     * Please cite the following three references that made this development
     * possible:
     *
     *   M. Dion, H. Rydberg, E. Schroder, D. C. Langreth, and
     *   B. I. Lundqvist, Phys. Rev. Lett. 92, 246401 (2004).
     *
     *   T. Thonhauser, V. R. Cooper, S. Li, A. Puzder, P. Hyldgaard, and
     *   D. C. Langreth, Phys. Rev. B 76, 125112 (2007).
     *
     *   G. Roman-Perez and J. M. Soler, Phys. Rev. Lett. 103, 096102 (2009).
     *
     *
     * If you are using vdW-DF2, please also cite:
     *
     *   K. Lee, E. D. Murray, L. Kong, B. I. Lundqvist, and
     *   D. C. Langreth, Phys. Rev. B 82, 081101(R) (2010).
     *
     *
     * If you are calculating the stress with vdW-DF, please also cite:
     *
     *   R. Sabatini, E. Kucukbenli, B. Kolb, T. Thonhauser, and
     *   S. de Gironcoli, J. Phys.: Condens. Matter 24, 424209 (2012).
     *

     Carrying out vdW-DF run using the following parameters:

     Nqs =      20    Nr_points =    1024   r_max =   100.000
     q_mesh =
               0.00001000     0.04494208     0.09755937     0.15916263
               0.23128650     0.31572767     0.41458969     0.53033537
               0.66584808     0.82450364     1.01025438     1.22772762
               1.48234092     1.78043706     2.12944203     2.53805004
               3.01644009     3.57652955     4.23227104     5.00000000

     Gradients computed in reciprocal space

[...]

     Starting wfc are  157 randomized atomic wfcs

     Self-consistent Calculation

[...]

     total energy              =   -2342.45657873 Ry
     Harris-Foulkes estimate   =   -2342.45657977 Ry
     estimated scf accuracy    <       0.00002272 Ry

     iteration # 20     ecut=    36.75 Ry     beta=0.30
     Davidson diagonalization with overlap
     ethr =  5.63E-09,  avg # of iterations =  1.1

[...]

     negative rho (up, down):  9.119E-01 0.000E+00

     Adding external electric field

     Computed dipole along edir(3) :
        Dipole                0.0139 Ry au,          0.0354 Debye
        Dipole field          0.0000 Ry au

        Potential amp.       -0.0038 Ry
        Total length         45.0078 bohr

     End of self-consistent calculation

[...]

          k = 0.0615-0.0710 0.0000 ( 15803 PWs)   bands (ev):

[...]

          k =-0.0922-0.0532 0.0000 ( 15808 PWs)   bands (ev):

   -70.9659 -70.9494 -70.9117 -70.8661 -70.5446 -70.5261 -70.4952 -70.4521
   -70.3934 -70.3896 -70.3445 -70.3400 -41.1685 -41.1472 -41.0749 -41.0647
   -41.0082 -41.0028 -40.9497 -40.9372 -40.8977 -40.8747 -40.6873 -40.6466
   -40.6314 -40.6228 -40.5414 -40.5181 -40.5174 -40.4816 -40.4521 -40.4070
   -40.3963 -40.3835 -40.3653 -40.3529 -40.3335 -40.3314 -40.2889 -40.2856
   -40.2493 -40.2455 -40.2431 -40.2393 -40.2346 -40.1865 -40.0864 -40.0782
    -3.9005  -2.9819  -2.8925  -2.3866  -2.3828  -2.3535  -2.2667  -2.0547
    -2.0483  -1.8938  -1.8132  -1.8016  -1.7510  -1.4040  -1.3629  -1.3534
    -1.2710  -0.9618  -0.9542  -0.8139  -0.7816  -0.5612  -0.4968  -0.1344
    -0.0656   0.1539   0.1787   0.2278   0.3049   0.4352   0.4513   0.5192
     0.5560   0.5908   0.6175   0.6373   0.7256   0.7416   0.7692   0.7982
     1.3078   1.3159   1.5045   1.5745   1.6595   1.6716   1.9447   1.9817
     2.0651   2.1480   2.2803   2.2910   2.3374   2.6267   2.6876   2.7405
     2.7674   2.7699

     the Fermi energy is     2.3446 ev

!    total energy              =   -2342.45657912 Ry
     Harris-Foulkes estimate   =   -2342.45657893 Ry
     estimated scf accuracy    <       0.00000127 Ry

     The total energy is the sum of the following terms:

     one-electron contribution =  -22235.56957354 Ry
     hartree contribution      =   11117.17549845 Ry
     xc contribution           =    -322.73007132 Ry
     ewald contribution        =    9098.74861468 Ry
     electric field correction =       0.00000058 Ry
     smearing contrib. (-TS)   =      -0.08104797 Ry

     convergence has been achieved in  20 iterations

 BEEF-vdW xc energy contributions
           1 :   -279.962803221767
           2 :    257.168851275608
           3 :   -217.624196399557
           4 :    171.032763741523
           5 :   -127.341963818844
           6 :    93.7172905322296
           7 :   -72.8815477438540
           8 :    63.2076879244676
           9 :   -60.2683590005396
          10 :    59.0511608922479
          11 :   -55.9103081085747
          12 :    49.5723127097775
          13 :   -40.9985995664224
          14 :    32.3886164856003
          15 :   -25.8890091869170
          16 :    22.5841102292269
          17 :   -22.1317624948537
          18 :    23.0930599430070
          19 :   -23.7138177638186
          20 :    22.7539896048156
          21 :   -19.9834242322957
          22 :    16.1537655376875
          23 :   -12.5178941983064
          24 :    10.1687760117040
          25 :   -9.52501233032638
          26 :    10.1905677128681
          27 :   -11.2193716829512
          28 :    11.6205630325763
          29 :   -10.8384670160212
          30 :    8.97725080482417
          31 :   -29.0411735858320
          32 :   -22.0538371272249

     Forces acting on atoms (Ry/au):

     negative rho (up, down):  9.119E-01 0.000E+00
     atom    1 type  1   force =     0.00000100    0.00000935    0.02714380
     atom    2 type  1   force =     0.00000241    0.00132154    0.02697248
     atom    3 type  1   force =     0.00113245   -0.00066421    0.02689500
     atom    4 type  1   force =    -0.00112872   -0.00067842    0.02694578
     atom    5 type  1   force =    -0.00005935    0.00003608   -0.02181371
     atom    6 type  1   force =     0.00005637    0.00005426   -0.02185057
     atom    7 type  1   force =     0.00000997   -0.00000095   -0.04036992
     atom    8 type  1   force =    -0.00001560   -0.00007114   -0.02184248
     atom    9 type  1   force =    -0.00023419   -0.00007407   -0.00035757
     atom   10 type  1   force =     0.00021947   -0.00011501   -0.00028893
     atom   11 type  1   force =    -0.00004643    0.00023071   -0.00038787
     atom   12 type  1   force =     0.00006294   -0.00005150   -0.00079284
     atom   13 type  2   force =    -0.00000032    0.00000336   -0.00025318

     Total force =     0.077332     Total SCF correction =     0.006639

     entering subroutine stress ...

     negative rho (up, down):  9.119E-01 0.000E+00
          total   stress  (Ry/bohr**3)                   (kbar)     P=  -21.95
  -0.00016804   0.00000001   0.00000000        -24.72      0.00      0.00
   0.00000001  -0.00016799  -0.00000002          0.00    -24.71     -0.00
   0.00000000  -0.00000002  -0.00011167          0.00     -0.00    -16.43

 !ASE

     Writing output data file calc.save

     General routines

     Parallel routines

   This run was terminated on:  16:46:57  16Jan2018

   JOB DONE.
Job  /afs/slac/g/suncat/bin/suncat-tsmpirun -x LD_LIBRARY_PATH -wdir /scratch/qe842477_xLRhk pw.x -in pw.inp

TID   HOST_NAME   COMMAND_LINE            STATUS            TERMINATION_TIME
00000 suncat0153 pw.x -in pw.inp   Done                     01/16/2018 16:46:57
00001 suncat0153 pw.x -in pw.inp   Done                     01/16/2018 16:46:57
00002 suncat0153 pw.x -in pw.inp   Done                     01/16/2018 16:46:57
00003 suncat0153 pw.x -in pw.inp   Done                     01/16/2018 16:46:57
00004 suncat0153 pw.x -in pw.inp   Done                     01/16/2018 16:46:57
00005 suncat0153 pw.x -in pw.inp   Done                     01/16/2018 16:46:57
00006 suncat0153 pw.x -in pw.inp   Done                     01/16/2018 16:46:57
00007 suncat0153 pw.x -in pw.inp   Done                     01/16/2018 16:46:57
00008 suncat0146 pw.x -in pw.inp   Done                     01/16/2018 16:46:57
00009 suncat0146 pw.x -in pw.inp   Done                     01/16/2018 16:46:57
00010 suncat0146 pw.x -in pw.inp   Done                     01/16/2018 16:46:57
00011 suncat0146 pw.x -in pw.inp   Done                     01/16/2018 16:46:57
00012 suncat0146 pw.x -in pw.inp   Done                     01/16/2018 16:46:57
00013 suncat0146 pw.x -in pw.inp   Done                     01/16/2018 16:46:57
00014 suncat0146 pw.x -in pw.inp   Done                     01/16/2018 16:46:57
00015 suncat0146 pw.x -in pw.inp   Done                     01/16/2018 16:46:57
00016 suncat0115 pw.x -in pw.inp   Done                     01/16/2018 16:46:57
00017 suncat0115 pw.x -in pw.inp   Done                     01/16/2018 16:46:57
00018 suncat0115 pw.x -in pw.inp   Done                     01/16/2018 16:46:57
00019 suncat0115 pw.x -in pw.inp   Done                     01/16/2018 16:46:57
00020 suncat0115 pw.x -in pw.inp   Done                     01/16/2018 16:46:57
00021 suncat0115 pw.x -in pw.inp   Done                     01/16/2018 16:46:57
00022 suncat0115 pw.x -in pw.inp   Done                     01/16/2018 16:46:57
00023 suncat0115 pw.x -in pw.inp   Done                     01/16/2018 16:46:57
00024 suncat0114 pw.x -in pw.inp   Done                     01/16/2018 16:46:57
00025 suncat0114 pw.x -in pw.inp   Done                     01/16/2018 16:46:57
00026 suncat0114 pw.x -in pw.inp   Done                     01/16/2018 16:46:57
00027 suncat0114 pw.x -in pw.inp   Done                     01/16/2018 16:46:57
00028 suncat0114 pw.x -in pw.inp   Done                     01/16/2018 16:46:57
00029 suncat0114 pw.x -in pw.inp   Done                     01/16/2018 16:46:57
00030 suncat0114 pw.x -in pw.inp   Done                     01/16/2018 16:46:57
00031 suncat0114 pw.x -in pw.inp   Done                     01/16/2018 16:46:57