     Program PWSCF v.5.1rc2 (svn rev. 11289) starts on 19Jan2018 at 12:48:36

     Current dimensions of program PWSCF are:
     Max number of different atomic species (ntypx) = 10
     Max number of k-points (npk) =  40000
     Max angular momentum in pseudopotentials (lmaxx) =  3
     Presently stress not available with electric field

     IMPORTANT: XC functional enforced from input :
     Exchange-correlation      = BEEF-VDW ( 1  4 27 13 2)
     Any further DFT definition will be discarded
     Please, verify this is what you really want

     Subspace diagonalization in iterative solution of the eigenvalue problem:
     a serial algorithm will be used

     bravais-lattice index     =            0
     lattice parameter (alat)  =       1.8897  a.u.
     unit-cell volume          =    4228.3700 (a.u.)^3
     number of atoms/cell      =           13
     number of atomic types    =            2
     number of electrons       =       198.00
     number of Kohn-Sham states=          109
     kinetic-energy cutoff     =      36.7493  Ry
     charge density cutoff     =     367.4932  Ry
     convergence threshold     =      1.0E-05
     mixing beta               =       0.3000
     number of iterations used =           10  plain     mixing
     Exchange-correlation      = BEEF-VDW ( 1  4 27 13 2)
     nstep                     =           50

     celldm(1)=   1.889726  celldm(2)=   0.000000  celldm(3)=   0.000000
     celldm(4)=   0.000000  celldm(5)=   0.000000  celldm(6)=   0.000000

     crystal axes: (cart. coord. in units of alat)
               a(1) = (   5.440665   0.000000   0.000000 )
               a(2) = (   2.720332   4.711754   0.000000 )
               a(3) = (   0.000000   0.000000  24.442284 )

     reciprocal axes: (cart. coord. in units 2 pi/alat)
               b(1) = (  0.183801 -0.106118  0.000000 )
               b(2) = (  0.000000  0.212235  0.000000 )
               b(3) = (  0.000000  0.000000  0.040913 )

     PseudoPot. # 1 for Os read from file:
     /afs/slac.stanford.edu/u/if/mamunm/psp/gbrv1.5pbe/Os.UPF
     MD5 check sum: a3fb40a04f0c37c25c34bbc47164c9a8
     Pseudo is Ultrasoft + core correction, Zval = 16.0
     Generated by new atomic code, or converted to UPF format
     Using radial grid of  983 points,  8 beta functions with:
                l(1) =   0
                l(2) =   0
                l(3) =   1
                l(4) =   1
                l(5) =   2
                l(6) =   2
                l(7) =   3
                l(8) =   3
     Q(r) pseudized with  8 coefficients,  rinner =    1.150   1.150   1.150
                                                       1.150   1.150   1.150
                                                       1.150

     PseudoPot. # 2 for S  read from file:
     /afs/slac.stanford.edu/u/if/mamunm/psp/gbrv1.5pbe/S.UPF
     MD5 check sum: 88d86576ff6df21479756cfb9bdac1df
     Pseudo is Ultrasoft + core correction, Zval =  6.0
     Generated by new atomic code, or converted to UPF format
     Using radial grid of  907 points,  6 beta functions with:
                l(1) =   0
                l(2) =   0
                l(3) =   1
                l(4) =   1
                l(5) =   2
                l(6) =   2
     Q(r) pseudized with  8 coefficients,  rinner =    1.300   1.300   1.300
                                                       1.300   1.300

     vdW kernel table read from file vdW_kernel_table
     MD5 check sum: 095c7af220d748ca6e76c0b4c6cfb241

     atomic species   valence    mass     pseudopotential
        Os1           16.00   190.23000     Os( 1.00)
        S1             6.00    32.06000     S ( 1.00)

     No symmetry found

   Cartesian axes

     site n.     atom                  positions (alat units)
         1           Os1 tau(   1) = (   1.3601662   0.7852923  10.0000000  )
         2           Os1 tau(   2) = (   4.0804987   0.7852923  10.0000000  )
         3           Os1 tau(   3) = (   2.7203325   3.1411694  10.0000000  )
         4           Os1 tau(   4) = (   5.4406649   3.1411694  10.0000000  )
         5           Os1 tau(   5) = (   5.4406649   1.5705847  12.2211422  )
         6           Os1 tau(   6) = (   2.7203325   1.5705847  12.2211422  )
         7           Os1 tau(   7) = (   6.8008312   3.9264617  12.2211422  )
         8           Os1 tau(   8) = (   4.0804987   3.9264617  12.2211422  )
         9           Os1 tau(   9) = (   0.0246263   0.0143796  14.4506338  )
        10           Os1 tau(  10) = (   2.6956936   0.0142358  14.4508934  )
        11           Os1 tau(  11) = (   1.3600024   2.3273626  14.4506640  )
        12           Os1 tau(  12) = (   4.0806544   2.3558407  14.3061143  )
        13           S1  tau(  13) = (   1.3601344   0.7853327  16.2021533  )

     number of k points=    20  Fermi-Dirac smearing, width (Ry)=  0.0110
                       cart. coord. in units 2pi/alat
        k(    1) = (   0.0000000   0.0000000   0.0000000), wk =   0.0555556
        k(    2) = (   0.0000000   0.0353725   0.0000000), wk =   0.1111111
        k(    3) = (   0.0000000   0.0707451   0.0000000), wk =   0.1111111
        k(    4) = (   0.0000000  -0.1061176   0.0000000), wk =   0.0555556
        k(    5) = (   0.0306335  -0.0176863   0.0000000), wk =   0.1111111
        k(    6) = (   0.0306335   0.0176863   0.0000000), wk =   0.1111111
        k(    7) = (   0.0306335   0.0530588   0.0000000), wk =   0.1111111
        k(    8) = (   0.0306335  -0.1238039   0.0000000), wk =   0.1111111
        k(    9) = (   0.0306335  -0.0884313   0.0000000), wk =   0.1111111
        k(   10) = (   0.0306335  -0.0530588   0.0000000), wk =   0.1111111
        k(   11) = (   0.0612670  -0.0353725   0.0000000), wk =   0.1111111
        k(   12) = (   0.0612670   0.0000000   0.0000000), wk =   0.1111111
        k(   13) = (   0.0612670   0.0353725   0.0000000), wk =   0.1111111
        k(   14) = (   0.0612670  -0.1414901   0.0000000), wk =   0.1111111
        k(   15) = (   0.0612670  -0.1061176   0.0000000), wk =   0.1111111
        k(   16) = (   0.0612670  -0.0707451   0.0000000), wk =   0.1111111
        k(   17) = (  -0.0919005   0.0530588   0.0000000), wk =   0.0555556
        k(   18) = (  -0.0919005   0.0884313   0.0000000), wk =   0.1111111
        k(   19) = (  -0.0919005   0.1238039   0.0000000), wk =   0.1111111
        k(   20) = (  -0.0919005  -0.0530588   0.0000000), wk =   0.0555556

     Largest allocated arrays     est. size (Mb)     dimensions
     Largest temporary arrays     est. size (Mb)     dimensions

     Initial potential from superposition of free atoms
     Check: negative starting charge=   -1.488617

     starting charge  191.99953, renormalised to  198.00000

     negative rho (up, down):  1.535E+00 0.000E+00

     *
     * You are using vdW-DF for exchange-correlation in this calculation.
     * Please cite the following three references that made this development
     * possible:
     *
     *   M. Dion, H. Rydberg, E. Schroder, D. C. Langreth, and
     *   B. I. Lundqvist, Phys. Rev. Lett. 92, 246401 (2004).
     *
     *   T. Thonhauser, V. R. Cooper, S. Li, A. Puzder, P. Hyldgaard, and
     *   D. C. Langreth, Phys. Rev. B 76, 125112 (2007).
     *
     *   G. Roman-Perez and J. M. Soler, Phys. Rev. Lett. 103, 096102 (2009).
     *
     *
     * If you are using vdW-DF2, please also cite:
     *
     *   K. Lee, E. D. Murray, L. Kong, B. I. Lundqvist, and
     *   D. C. Langreth, Phys. Rev. B 82, 081101(R) (2010).
     *
     *
     * If you are calculating the stress with vdW-DF, please also cite:
     *
     *   R. Sabatini, E. Kucukbenli, B. Kolb, T. Thonhauser, and
     *   S. de Gironcoli, J. Phys.: Condens. Matter 24, 424209 (2012).
     *

     Carrying out vdW-DF run using the following parameters:

     Nqs =      20    Nr_points =    1024   r_max =   100.000
     q_mesh =
               0.00001000     0.04494208     0.09755937     0.15916263
               0.23128650     0.31572767     0.41458969     0.53033537
               0.66584808     0.82450364     1.01025438     1.22772762
               1.48234092     1.78043706     2.12944203     2.53805004
               3.01644009     3.57652955     4.23227104     5.00000000

     Gradients computed in reciprocal space

     Adding external electric field

     Computed dipole along edir(3) :
        Dipole               -1.4137 Ry au,         -3.5932 Debye
        Dipole field         -0.0042 Ry au

        Potential amp.        0.3784 Ry
        Total length         45.0345 bohr

     Starting wfc are  160 randomized atomic wfcs

     Self-consistent Calculation

     iteration #  1     ecut=    36.75 Ry     beta=0.30
     Davidson diagonalization with overlap
     ethr =  1.00E-02,  avg # of iterations =  2.0

[...]

     total energy              =   -2390.65224982 Ry
     Harris-Foulkes estimate   =   -2422.15972015 Ry
     estimated scf accuracy    <      65.02953459 Ry

[...]

     End of self-consistent calculation

          k = 0.0000 0.0000 0.0000 ( 15845 PWs)   bands (ev):

   -83.7472 -83.6977 -83.6976 -83.4565 -83.3821 -83.3342 -83.3340 -83.2311
   -83.1781 -83.1774 -83.1759 -83.1555 -43.4634 -43.3506 -43.3506 -43.2585
   -43.1881 -43.1601 -43.1599 -42.9186 -42.8960 -42.8958 -42.8055 -42.7864
   -42.7863 -42.7301 -42.7299 -42.6614 -42.6199 -42.5954 -42.5954 -42.5312
   -42.5312 -42.4708 -42.4114 -42.4111 -42.4039 -42.3959 -42.3956 -42.3795
   -42.3428 -42.2632 -42.2629 -42.2625 -42.1962 -42.1961 -42.0869 -42.0868
   -10.5078  -6.2805  -4.3163  -3.9660  -3.6250  -3.6126  -3.6126  -3.4604
    -3.4603  -3.4268  -3.0040  -2.7156  -2.7154  -2.5064  -2.5063  -2.4615
    -1.2982  -1.2978  -1.2216  -0.2854  -0.2853  -0.0225   0.0508   0.0513
     0.2637   0.4156   0.4477   0.4478   0.8275   0.8316   0.8318   0.9732
     1.0194   1.0197   1.2696   1.2697   1.4312   1.6891   1.6893   2.6192
     2.8811   2.8811   2.9909   3.2527   3.2530   3.3015   3.3019   3.5932
     3.9298   3.9300   4.1362   4.6016   4.6017   4.6760   4.9103   4.9194
     4.9195   5.1706   5.1708   5.6740   5.6987

[...]

          k =-0.0919 0.0531 0.0000 ( 15968 PWs)   bands (ev):

[...]

     the Fermi energy is     3.3582 ev

!    total energy              =   -2421.85857609 Ry
     Harris-Foulkes estimate   =   -2421.85858839 Ry
     estimated scf accuracy    <       0.00000977 Ry

     The total energy is the sum of the following terms:

     one-electron contribution =  -22082.13963894 Ry
     hartree contribution      =   11027.44481764 Ry
     xc contribution           =    -473.39219556 Ry
     ewald contribution        =    9106.29649939 Ry
     electric field correction =       0.00000245 Ry
     smearing contrib. (-TS)   =      -0.06806107 Ry

     convergence has been achieved in  21 iterations

 BEEF-vdW xc energy contributions
           1 :   -414.574778240288
           2 :    384.069936943211
           3 :   -330.184089906048
           4 :    264.591302652468
           5 :   -199.891912133574
           6 :    146.214109814825
           7 :   -108.951179551705
           8 :    88.1650221096473
           9 :   -79.6845036887900
          10 :    77.3257835899115
[...]

[...]

   This run was terminated on:  13:23: 1  19Jan2018

[...]

     Program PWSCF v.5.1rc2 (svn rev. 11289) starts on 19Jan2018 at 13:23: 9

[...]

   This run was terminated on:  13:39:39  19Jan2018

[...]

     Total force =     0.077400     Total SCF correction =     0.012689
     SCF correction compared to forces is large: reduce conv_thr to get better values

[...]

     Program PWSCF v.5.1rc2 (svn rev. 11289) starts on 19Jan2018 at 13:56:17

     Current dimensions of program PWSCF are:
     Max number of different atomic species (ntypx) = 10
     Max number of k-points (npk) =  40000
     Max angular momentum in pseudopotentials (lmaxx) =  3
     Presently stress not available with electric field

     IMPORTANT: XC functional enforced from input :
     Exchange-correlation      = BEEF-VDW ( 1  4 27 13 2)
     Any further DFT definition will be discarded
     Please, verify this is what you really want

     Subspace diagonalization in iterative solution of the eigenvalue problem:
     a serial algorithm will be used

     bravais-lattice index     =            0
     lattice parameter (alat)  =       1.8897  a.u.
     unit-cell volume          =    4228.3700 (a.u.)^3
     number of atoms/cell      =           13
     number of atomic types    =            2
     number of electrons       =       198.00
     number of Kohn-Sham states=          109
     kinetic-energy cutoff     =      36.7493  Ry
     charge density cutoff     =     367.4932  Ry
     convergence threshold     =      1.0E-05
     mixing beta               =       0.3000
     number of iterations used =           10  plain     mixing
     Exchange-correlation      = BEEF-VDW ( 1  4 27 13 2)
     nstep                     =           50

     celldm(1)=   1.889726  celldm(2)=   0.000000  celldm(3)=   0.000000
     celldm(4)=   0.000000  celldm(5)=   0.000000  celldm(6)=   0.000000

     crystal axes: (cart. coord. in units of alat)
               a(1) = (   5.440665   0.000000   0.000000 )
               a(2) = (   2.720332   4.711754   0.000000 )
               a(3) = (   0.000000   0.000000  24.442284 )

     reciprocal axes: (cart. coord. in units 2 pi/alat)
               b(1) = (  0.183801 -0.106118  0.000000 )
               b(2) = (  0.000000  0.212235  0.000000 )
               b(3) = (  0.000000  0.000000  0.040913 )

     PseudoPot. # 1 for Os read from file:
     /afs/slac.stanford.edu/u/if/mamunm/psp/gbrv1.5pbe/Os.UPF
     MD5 check sum: a3fb40a04f0c37c25c34bbc47164c9a8
     Pseudo is Ultrasoft + core correction, Zval = 16.0
     Generated by new atomic code, or converted to UPF format
     Using radial grid of  983 points,  8 beta functions with:
                l(1) =   0
                l(2) =   0
                l(3) =   1
                l(4) =   1
                l(5) =   2
                l(6) =   2
                l(7) =   3
                l(8) =   3
     Q(r) pseudized with  8 coefficients,  rinner =    1.150   1.150   1.150
                                                       1.150   1.150   1.150
                                                       1.150

     PseudoPot. # 2 for S  read from file:
     /afs/slac.stanford.edu/u/if/mamunm/psp/gbrv1.5pbe/S.UPF
     MD5 check sum: 88d86576ff6df21479756cfb9bdac1df
     Pseudo is Ultrasoft + core correction, Zval =  6.0
     Generated by new atomic code, or converted to UPF format
     Using radial grid of  907 points,  6 beta functions with:
                l(1) =   0
                l(2) =   0
                l(3) =   1
                l(4) =   1
                l(5) =   2
                l(6) =   2
     Q(r) pseudized with  8 coefficients,  rinner =    1.300   1.300   1.300
                                                       1.300   1.300

     vdW kernel table read from file vdW_kernel_table
     MD5 check sum: 095c7af220d748ca6e76c0b4c6cfb241

     atomic species   valence    mass     pseudopotential
        Os1           16.00   190.23000     Os( 1.00)
        S1             6.00    32.06000     S ( 1.00)

     No symmetry found

   Cartesian axes

     site n.     atom                  positions (alat units)
         1           Os1 tau(   1) = (   1.3601662   0.7852923  10.0000000  )
         2           Os1 tau(   2) = (   4.0804987   0.7852923  10.0000000  )
         3           Os1 tau(   3) = (   2.7203325   3.1411694  10.0000000  )
         4           Os1 tau(   4) = (   5.4406649   3.1411694  10.0000000  )
         5           Os1 tau(   5) = (   5.4406649   1.5705847  12.2211422  )
         6           Os1 tau(   6) = (   2.7203325   1.5705847  12.2211422  )
         7           Os1 tau(   7) = (   6.8008312   3.9264617  12.2211422  )
         8           Os1 tau(   8) = (   4.0804987   3.9264617  12.2211422  )
         9           Os1 tau(   9) = (   0.0077032   0.0045110  14.3932409  )
        10           Os1 tau(  10) = (   2.7126650   0.0044174  14.3932098  )
        11           Os1 tau(  11) = (   1.3600924   2.3469988  14.3931933  )
        12           Os1 tau(  12) = (   4.0804562   2.3559285  14.3353407  )
        13           S1  tau(  13) = (   1.3601180   0.7853346  16.1940271  )

     number of k points=    20  Fermi-Dirac smearing, width (Ry)=  0.0110
                       cart. coord. in units 2pi/alat
        k(    1) = (   0.0000000   0.0000000   0.0000000), wk =   0.0555556
        k(    2) = (   0.0000000   0.0353725   0.0000000), wk =   0.1111111
        k(    3) = (   0.0000000   0.0707451   0.0000000), wk =   0.1111111
        k(    4) = (   0.0000000  -0.1061176   0.0000000), wk =   0.0555556
        k(    5) = (   0.0306335  -0.0176863   0.0000000), wk =   0.1111111
        k(    6) = (   0.0306335   0.0176863   0.0000000), wk =   0.1111111
        k(    7) = (   0.0306335   0.0530588   0.0000000), wk =   0.1111111
        k(    8) = (   0.0306335  -0.1238039   0.0000000), wk =   0.1111111
        k(    9) = (   0.0306335  -0.0884313   0.0000000), wk =   0.1111111
        k(   10) = (   0.0306335  -0.0530588   0.0000000), wk =   0.1111111
        k(   11) = (   0.0612670  -0.0353725   0.0000000), wk =   0.1111111
        k(   12) = (   0.0612670   0.0000000   0.0000000), wk =   0.1111111
        k(   13) = (   0.0612670   0.0353725   0.0000000), wk =   0.1111111
        k(   14) = (   0.0612670  -0.1414901   0.0000000), wk =   0.1111111
        k(   15) = (   0.0612670  -0.1061176   0.0000000), wk =   0.1111111
        k(   16) = (   0.0612670  -0.0707451   0.0000000), wk =   0.1111111
        k(   17) = (  -0.0919005   0.0530588   0.0000000), wk =   0.0555556
        k(   18) = (  -0.0919005   0.0884313   0.0000000), wk =   0.1111111
        k(   19) = (  -0.0919005   0.1238039   0.0000000), wk =   0.1111111
        k(   20) = (  -0.0919005  -0.0530588   0.0000000), wk =   0.0555556

     Largest allocated arrays     est. size (Mb)     dimensions
     Largest temporary arrays     est. size (Mb)     dimensions

     Initial potential from superposition of free atoms
     Check: negative starting charge=   -1.491693

     starting charge  191.99953, renormalised to  198.00000

[...]

     *
     * You are using vdW-DF for exchange-correlation in this calculation.
     * Please cite the following three references that made this development
     * possible:
     *
     *   M. Dion, H. Rydberg, E. Schroder, D. C. Langreth, and
     *   B. I. Lundqvist, Phys. Rev. Lett. 92, 246401 (2004).
     *
     *   T. Thonhauser, V. R. Cooper, S. Li, A. Puzder, P. Hyldgaard, and
     *   D. C. Langreth, Phys. Rev. B 76, 125112 (2007).
     *
     *   G. Roman-Perez and J. M. Soler, Phys. Rev. Lett. 103, 096102 (2009).
     *
     *
     * If you are using vdW-DF2, please also cite:
     *
     *   K. Lee, E. D. Murray, L. Kong, B. I. Lundqvist, and
     *   D. C. Langreth, Phys. Rev. B 82, 081101(R) (2010).
     *
     *
     * If you are calculating the stress with vdW-DF, please also cite:
     *
     *   R. Sabatini, E. Kucukbenli, B. Kolb, T. Thonhauser, and
     *   S. de Gironcoli, J. Phys.: Condens. Matter 24, 424209 (2012).
     *

     Carrying out vdW-DF run using the following parameters:

     Nqs =      20    Nr_points =    1024   r_max =   100.000
     q_mesh =
               0.00001000     0.04494208     0.09755937     0.15916263
               0.23128650     0.31572767     0.41458969     0.53033537
               0.66584808     0.82450364     1.01025438     1.22772762
               1.48234092     1.78043706     2.12944203     2.53805004
               3.01644009     3.57652955     4.23227104     5.00000000

     Gradients computed in reciprocal space

[...]

     Starting wfc are  160 randomized atomic wfcs

     Self-consistent Calculation

[...]

     total energy              =   -2421.86586340 Ry
     Harris-Foulkes estimate   =   -2421.86586398 Ry
     estimated scf accuracy    <       0.00001141 Ry

     iteration # 21     ecut=    36.75 Ry     beta=0.30
     Davidson diagonalization with overlap
     ethr =  5.76E-09,  avg # of iterations =  3.8

[...]

     negative rho (up, down):  1.513E+00 0.000E+00

     Adding external electric field

     Computed dipole along edir(3) :
        Dipole                0.0221 Ry au,          0.0562 Debye
        Dipole field          0.0001 Ry au

        Potential amp.       -0.0059 Ry
        Total length         45.0345 bohr

     End of self-consistent calculation

[...]

          k = 0.0613-0.0707 0.0000 ( 15922 PWs)   bands (ev):

[...]

          k =-0.0919-0.0531 0.0000 ( 15968 PWs)   bands (ev):

   -83.7656 -83.7509 -83.7341 -83.5223 -83.4105 -83.3970 -83.3814 -83.2180
   -83.2125 -83.1887 -83.1806 -83.1805 -43.3414 -43.2449 -43.2317 -43.2006
   -43.1540 -43.1191 -43.0905 -43.0822 -43.0345 -42.9514 -42.8346 -42.7845
   -42.7701 -42.7361 -42.7037 -42.6653 -42.6533 -42.6365 -42.6321 -42.5792
   -42.5588 -42.5484 -42.4782 -42.4737 -42.4678 -42.4511 -42.4250 -42.4190
   -42.4103 -42.4020 -42.3827 -42.3740 -42.3657 -42.2666 -42.1970 -42.1889
   -10.1583  -4.4943  -4.4372  -3.1036  -2.9273  -2.6192  -2.5530  -2.4853
    -2.4328  -2.3982  -2.3306  -1.9400  -1.8239  -1.7757  -1.3644  -1.3018
    -1.2948  -1.1609  -1.1111  -0.9921  -0.7978  -0.6856  -0.5586  -0.5357
    -0.2749  -0.1619   0.2050   0.3267   0.5672   0.6043   0.6067   0.7229
     0.8291   0.8427   0.9686   1.0897   1.1244   1.1890   1.2082   1.2656
     1.2790   1.5889   1.7663   2.1581   2.1701   2.2561   2.4885   2.5433
     2.7436   2.9253   2.9739   3.1689   3.2327   3.2436   3.4182   3.4491
     3.7008   3.9810   4.0703   4.1208   4.3199

     the Fermi energy is     3.3255 ev

!    total energy              =   -2421.86586170 Ry
     Harris-Foulkes estimate   =   -2421.86586497 Ry
     estimated scf accuracy    <       0.00000323 Ry

     The total energy is the sum of the following terms:

     one-electron contribution =  -22189.26126791 Ry
     hartree contribution      =   11080.92922997 Ry
     xc contribution           =    -473.43635552 Ry
     ewald contribution        =    9159.96965891 Ry
     electric field correction =       0.00000145 Ry
     smearing contrib. (-TS)   =      -0.06712860 Ry

     convergence has been achieved in  21 iterations

 BEEF-vdW xc energy contributions
           1 :   -414.619269844964
           2 :    384.131857467169
           3 :   -330.271806951172
           4 :    264.697493741057
           5 :   -199.993589184708
           6 :    146.281747674304
           7 :   -108.963059195240
           8 :    88.1197665496381
           9 :   -79.6045781168223
          10 :    77.2491982786393
          11 :   -75.2981556978550
          12 :    70.1878896816029
          13 :   -61.1789668699708
          14 :    49.8470835802010
          15 :   -38.8503728106438
          16 :    30.5569134389359
          17 :   -26.0742040686176
          18 :    24.9766956569845
          19 :   -25.7147256547930
          20 :    26.4184295504148
          21 :   -25.7049165409126
          22 :    23.1530271839711
          23 :   -19.3038876143943
          24 :    15.2576078934591
          25 :   -12.0969378640562
          26 :    10.4060131707880
          27 :   -10.0797986412269
          28 :    10.4645118623540
          29 :   -10.7252022450825
          30 :    10.2481426773434
          31 :   -39.4787901763637
          32 :   -30.1365092530326

     Forces acting on atoms (Ry/au):

     negative rho (up, down):  1.513E+00 0.000E+00
     atom    1 type  1   force =     0.00001195   -0.00002351    0.02158416
     atom    2 type  1   force =    -0.00000250    0.00245541    0.02636682
     atom    3 type  1   force =     0.00214025   -0.00121456    0.02639616
     atom    4 type  1   force =    -0.00213689   -0.00120862    0.02633170
     atom    5 type  1   force =    -0.00120318    0.00063385   -0.01552041
     atom    6 type  1   force =     0.00119338    0.00077733   -0.01564363
     atom    7 type  1   force =     0.00013799    0.00001467   -0.05561617
     atom    8 type  1   force =    -0.00012822   -0.00137893   -0.01559281
     atom    9 type  1   force =     0.00045252    0.00021442    0.00006426
     atom   10 type  1   force =    -0.00051661    0.00028328    0.00015497
     atom   11 type  1   force =     0.00004159   -0.00055338    0.00014951
     atom   12 type  1   force =    -0.00001043    0.00000784    0.00156968
     atom   13 type  2   force =     0.00002014   -0.00000779   -0.00024425

     Total force =     0.080003     Total SCF correction =     0.006469

     entering subroutine stress ...

     negative rho (up, down):  1.513E+00 0.000E+00
          total   stress  (Ry/bohr**3)                   (kbar)     P=  -19.13
  -0.00013762  -0.00000001   0.00000002        -20.24     -0.00      0.00
  -0.00000001  -0.00013754  -0.00000005         -0.00    -20.23     -0.01
   0.00000002  -0.00000005  -0.00011488          0.00     -0.01    -16.90

 !ASE

     Writing output data file calc.save

     General routines

     Parallel routines

   This run was terminated on:  14:13:36  19Jan2018

   JOB DONE.
Job  /afs/slac/g/suncat/bin/suncat-tsmpirun -x LD_LIBRARY_PATH -wdir /scratch/qe505179_e42Oq pw.x -in pw.inp

TID   HOST_NAME   COMMAND_LINE            STATUS            TERMINATION_TIME
00000 suncat0041 pw.x -in pw.inp   Done                     01/19/2018 14:13:36
00001 suncat0041 pw.x -in pw.inp   Done                     01/19/2018 14:13:36
00002 suncat0041 pw.x -in pw.inp   Done                     01/19/2018 14:13:36
00003 suncat0041 pw.x -in pw.inp   Done                     01/19/2018 14:13:36
00004 suncat0041 pw.x -in pw.inp   Done                     01/19/2018 14:13:36
00005 suncat0041 pw.x -in pw.inp   Done                     01/19/2018 14:13:36
00006 suncat0041 pw.x -in pw.inp   Done                     01/19/2018 14:13:36
00007 suncat0041 pw.x -in pw.inp   Done                     01/19/2018 14:13:36
00008 suncat0034 pw.x -in pw.inp   Done                     01/19/2018 14:13:36
00009 suncat0034 pw.x -in pw.inp   Done                     01/19/2018 14:13:36
00010 suncat0034 pw.x -in pw.inp   Done                     01/19/2018 14:13:36
00011 suncat0034 pw.x -in pw.inp   Done                     01/19/2018 14:13:36
00012 suncat0034 pw.x -in pw.inp   Done                     01/19/2018 14:13:36
00013 suncat0034 pw.x -in pw.inp   Done                     01/19/2018 14:13:36
00014 suncat0034 pw.x -in pw.inp   Done                     01/19/2018 14:13:36
00015 suncat0034 pw.x -in pw.inp   Done                     01/19/2018 14:13:36
00016 suncat0028 pw.x -in pw.inp   Done                     01/19/2018 14:13:36
00017 suncat0028 pw.x -in pw.inp   Done                     01/19/2018 14:13:36
00018 suncat0028 pw.x -in pw.inp   Done                     01/19/2018 14:13:36
00019 suncat0028 pw.x -in pw.inp   Done                     01/19/2018 14:13:36
00020 suncat0028 pw.x -in pw.inp   Done                     01/19/2018 14:13:36
00021 suncat0028 pw.x -in pw.inp   Done                     01/19/2018 14:13:36
00022 suncat0028 pw.x -in pw.inp   Done                     01/19/2018 14:13:36
00023 suncat0028 pw.x -in pw.inp   Done                     01/19/2018 14:13:36
00024 suncat0017 pw.x -in pw.inp   Done                     01/19/2018 14:13:36
00025 suncat0017 pw.x -in pw.inp   Done                     01/19/2018 14:13:36
00026 suncat0017 pw.x -in pw.inp   Done                     01/19/2018 14:13:36
00027 suncat0017 pw.x -in pw.inp   Done                     01/19/2018 14:13:36
00028 suncat0017 pw.x -in pw.inp   Done                     01/19/2018 14:13:36
00029 suncat0017 pw.x -in pw.inp   Done                     01/19/2018 14:13:36
00030 suncat0017 pw.x -in pw.inp   Done                     01/19/2018 14:13:36
00031 suncat0017 pw.x -in pw.inp   Done                     01/19/2018 14:13:36