     Program PWSCF v.5.1rc2 (svn rev. 11289) starts on 24Apr2018 at 19:34:10

     Current dimensions of program PWSCF are:
     Max number of different atomic species (ntypx) = 10
     Max number of k-points (npk) =  40000
     Max angular momentum in pseudopotentials (lmaxx) =  3
     Presently stress not available with electric field

     IMPORTANT: XC functional enforced from input :
     Exchange-correlation      = BEEF-VDW ( 1  4 27 13 2)
     Any further DFT definition will be discarded
     Please, verify this is what you really want

     Subspace diagonalization in iterative solution of the eigenvalue problem:
     a serial algorithm will be used

     bravais-lattice index     =            0
     lattice parameter (alat)  =       1.8897  a.u.
     unit-cell volume          =    7725.1200 (a.u.)^3
     number of atoms/cell      =           14
     number of atomic types    =            3
     number of electrons       =       139.00
     number of Kohn-Sham states=           79
     kinetic-energy cutoff     =      36.7493  Ry
     charge density cutoff     =     367.4932  Ry
     convergence threshold     =      1.0E-05
     mixing beta               =       0.3000
     number of iterations used =           10  plain     mixing
     Exchange-correlation      = BEEF-VDW ( 1  4 27 13 2)
     nstep                     =           50

     celldm(1)=   1.889726  celldm(2)=   0.000000  celldm(3)=   0.000000
     celldm(4)=   0.000000  celldm(5)=   0.000000  celldm(6)=   0.000000

     crystal axes: (cart. coord. in units of alat)
               a(1) = (   7.152277   0.000000   0.000000 )
               a(2) = (   3.576139   6.194054   0.000000 )
               a(3) = (   0.000000   0.000000  25.839810 )

     reciprocal axes: (cart. coord. in units 2 pi/alat)
               b(1) = (  0.139816 -0.080723  0.000000 )
               b(2) = (  0.000000  0.161445  0.000000 )
               b(3) = (  0.000000  0.000000  0.038700 )

     PseudoPot. # 1 for Y  read from file:
     /u/if/mamunm/psp/gbrv1.5pbe/Y.UPF
     MD5 check sum: d034151ed7554c50b6e82763ed42c788
     Pseudo is Ultrasoft + core correction, Zval = 11.0
     Generated by new atomic code, or converted to UPF format
     Using radial grid of  885 points,  6 beta functions with:
                l(1) =   0
                l(2) =   0
                l(3) =   1
                l(4) =   1
                l(5) =   2
                l(6) =   2
     Q(r) pseudized with  8 coefficients,  rinner =    1.200   1.200   1.200
                                                       1.200   1.200

     PseudoPot. # 2 for O  read from file:
     /u/if/mamunm/psp/gbrv1.5pbe/O.UPF
     MD5 check sum: 734c27235a0248c51dbae37a1fbe46ec
     Pseudo is Ultrasoft + core correction, Zval =  6.0
     Generated by new atomic code, or converted to UPF format
     Using radial grid of  737 points,  5 beta functions with:
                l(1) =   0
                l(2) =   0
                l(3) =   1
                l(4) =   1
                l(5) =   2
     Q(r) pseudized with  8 coefficients,  rinner =    0.900   0.900   0.900
                                                       0.900   0.900

     PseudoPot. # 3 for H  read from file:
     /u/if/mamunm/psp/gbrv1.5pbe/H.UPF
     MD5 check sum: 761ae9a214b05c3daf00ab9f6b793d6f
     Pseudo is Ultrasoft, Zval =  1.0
     Generated by new atomic code, or converted to UPF format
     Using radial grid of  615 points,  2 beta functions with:
                l(1) =   0
                l(2) =   0
     Q(r) pseudized with  8 coefficients,  rinner =    0.700

     vdW kernel table read from file vdW_kernel_table
     MD5 check sum: 095c7af220d748ca6e76c0b4c6cfb241

     atomic species   valence    mass     pseudopotential
        Y1            11.00    88.90584     Y ( 1.00)
        O1             6.00    15.99900     O ( 1.00)
        H1             1.00     1.00800     H ( 1.00)

     No symmetry found

   Cartesian axes

     site n.     atom                  positions (alat units)
         1           Y1  tau(   1) = (   1.7880693   1.0323423  10.0000000  )
         2           Y1  tau(   2) = (   5.3642080   1.0323423  10.0000000  )
         3           Y1  tau(   3) = (   3.5761386   4.1293692  10.0000000  )
         4           Y1  tau(   4) = (   7.1522773   4.1293692  10.0000000  )
         5           Y1  tau(   5) = (   7.1522773   2.0646846  12.9199050  )
         6           Y1  tau(   6) = (   3.5761386   2.0646846  12.9199050  )
         7           Y1  tau(   7) = (   8.9403466   5.1617115  12.9199050  )
         8           Y1  tau(   8) = (   5.3642080   5.1617115  12.9199050  )
         9           Y1  tau(   9) = (   0.0000000   0.0000000  15.8398100  )
        10           Y1  tau(  10) = (   3.5761386   0.0000000  15.8398100  )
        11           Y1  tau(  11) = (   1.7880693   3.0970269  15.8398100  )
        12           Y1  tau(  12) = (   5.3642080   3.0970269  15.8398100  )
        13           O1  tau(  13) = (   3.5761386   2.0646846  17.5038100  )
        14           H1  tau(  14) = (   3.5761386   2.0646846  18.4538100  )

     number of k points=    20  Fermi-Dirac smearing, width (Ry)=  0.0110
                       cart. coord. in units 2pi/alat
        k(    1) = (   0.0000000   0.0000000   0.0000000), wk =   0.0555556
        k(    2) = (   0.0000000   0.0269075   0.0000000), wk =   0.1111111
        k(    3) = (   0.0000000   0.0538151   0.0000000), wk =   0.1111111
        k(    4) = (   0.0000000  -0.0807226   0.0000000), wk =   0.0555556
        k(    5) = (   0.0233026  -0.0134538   0.0000000), wk =   0.1111111
        k(    6) = (   0.0233026   0.0134538   0.0000000), wk =   0.1111111
        k(    7) = (   0.0233026   0.0403613   0.0000000), wk =   0.1111111
        k(    8) = (   0.0233026  -0.0941763   0.0000000), wk =   0.1111111
        k(    9) = (   0.0233026  -0.0672688   0.0000000), wk =   0.1111111
        k(   10) = (   0.0233026  -0.0403613   0.0000000), wk =   0.1111111
        k(   11) = (   0.0466052  -0.0269075   0.0000000), wk =   0.1111111
        k(   12) = (   0.0466052   0.0000000   0.0000000), wk =   0.1111111
        k(   13) = (   0.0466052   0.0269075   0.0000000), wk =   0.1111111
        k(   14) = (   0.0466052  -0.1076301   0.0000000), wk =   0.1111111
        k(   15) = (   0.0466052  -0.0807226   0.0000000), wk =   0.1111111
        k(   16) = (   0.0466052  -0.0538151   0.0000000), wk =   0.1111111
        k(   17) = (  -0.0699078   0.0403613   0.0000000), wk =   0.0555556
        k(   18) = (  -0.0699078   0.0672688   0.0000000), wk =   0.1111111
        k(   19) = (  -0.0699078   0.0941763   0.0000000), wk =   0.1111111
        k(   20) = (  -0.0699078  -0.0403613   0.0000000), wk =   0.0555556

     Largest allocated arrays     est. size (Mb)     dimensions
     Largest temporary arrays     est. size (Mb)     dimensions

     Initial potential from superposition of free atoms
     Check: negative starting charge=   -0.000621

     starting charge  138.94636, renormalised to  139.00000

     negative rho (up, down):  6.215E-04 0.000E+00

     *
     * You are using vdW-DF for exchange-correlation in this calculation.
     * Please cite the following three references that made this development
     * possible:
     *
     *   M. Dion, H. Rydberg, E. Schroder, D. C. Langreth, and
     *   B. I. Lundqvist, Phys. Rev. Lett. 92, 246401 (2004).
     *
     *   T. Thonhauser, V. R. Cooper, S. Li, A. Puzder, P. Hyldgaard, and
     *   D. C. Langreth, Phys. Rev. B 76, 125112 (2007).
     *
     *   G. Roman-Perez and J. M. Soler, Phys. Rev. Lett. 103, 096102 (2009).
     *
     *
     * If you are using vdW-DF2, please also cite:
     *
     *   K. Lee, E. D. Murray, L. Kong, B. I. Lundqvist, and
     *   D. C. Langreth, Phys. Rev. B 82, 081101(R) (2010).
     *
     *
     * If you are calculating the stress with vdW-DF, please also cite:
     *
     *   R. Sabatini, E. Kucukbenli, B. Kolb, T. Thonhauser, and
     *   S. de Gironcoli, J. Phys.: Condens. Matter 24, 424209 (2012).
     *

     Carrying out vdW-DF run using the following parameters:

     Nqs =      20    Nr_points =    1024   r_max =   100.000
     q_mesh =
               0.00001000     0.04494208     0.09755937     0.15916263
               0.23128650     0.31572767     0.41458969     0.53033537
               0.66584808     0.82450364     1.01025438     1.22772762
               1.48234092     1.78043706     2.12944203     2.53805004
               3.01644009     3.57652955     4.23227104     5.00000000

     Gradients computed in reciprocal space

     Adding external electric field

     Computed dipole along edir(3) :
        Dipole               -0.0240 Ry au,         -0.0610 Debye
        Dipole field         -0.0000 Ry au

        Potential amp.        0.0037 Ry
        Total length         47.6094 bohr

     Starting wfc are  161 randomized atomic wfcs

     Self-consistent Calculation

     iteration #  1     ecut=    36.75 Ry     beta=0.30
     Davidson diagonalization with overlap
     ethr =  1.00E-02,  avg # of iterations =  2.0

[...]

     total energy              =   -1156.30843418 Ry
     Harris-Foulkes estimate   =   -1158.79218881 Ry
     estimated scf accuracy    <       5.34829803 Ry

[...]

     End of self-consistent calculation

          k = 0.0000 0.0000 0.0000 ( 28997 PWs)   bands (ev):

   -42.1307 -42.0890 -42.0887 -42.0858 -42.0760 -42.0335 -42.0333 -42.0330
   -41.5207 -41.4835 -41.4833 -41.4532 -22.2728 -22.2282 -22.2281 -22.1810
   -22.1793 -22.1791 -22.1784 -22.1149 -22.0982 -22.0791 -22.0788 -22.0348
   -22.0297 -22.0294 -21.9088 -21.9036 -21.9034 -21.8566 -21.8565 -21.8564
   -21.8059 -21.8059 -21.7575 -21.7575 -21.6404 -21.6348 -21.6347 -21.4355
   -21.4105 -21.4103 -21.3729 -21.3469 -21.3310 -21.3309 -21.2380 -21.2380
   -19.1183  -6.8232  -3.0740  -3.0740  -2.9800  -2.0333  -1.0238  -0.3492
    -0.2945  -0.2945  -0.2349  -0.2348  -0.1566   0.0978   0.0978   0.2162
     0.5752   0.5937   0.5937   1.0391   1.0392   1.0571   1.4369   1.5381
     1.8544   1.9374   1.9375   1.9781   2.1064   2.1064   2.4398

[...]

          k =-0.0699 0.0404 0.0000 ( 29048 PWs)   bands (ev):

[...]

     the Fermi energy is     1.2693 ev

!    total energy              =   -1158.21181303 Ry
     Harris-Foulkes estimate   =   -1158.21179252 Ry
     estimated scf accuracy    <       0.00000976 Ry

     The total energy is the sum of the following terms:

     one-electron contribution =   -5621.80405444 Ry
     hartree contribution      =    2806.83797297 Ry
     xc contribution           =    -347.24789842 Ry
     ewald contribution        =    2004.12994406 Ry
     electric field correction =       0.00012031 Ry
     smearing contrib. (-TS)   =      -0.12789753 Ry

     convergence has been achieved in  16 iterations

 BEEF-vdW xc energy contributions
           1 :   -302.720394238554
           2 :    271.629923296605
           3 :   -218.219182752264
           4 :    155.743008900727
           5 :   -96.4285843068752
           6 :    47.8491443694425
           7 :   -12.4540620517873
           8 :   -10.5713610033325
           9 :    22.9777753598996
          10 :   -26.1936947474865
          11 :    21.4838773062758
          12 :   -10.8175698285791
          13 :   -2.60803576689369
          14 :    14.8155794915981
          15 :   -22.3100060290978
          16 :    23.3713855513948
          17 :   -18.5546111828301
          18 :    10.1164630138948
          19 :  -0.815335911225588
          20 :   -7.15163837495390
          21 :    12.5703815199835
          22 :   -15.0386242749858
          23 :    14.6108595366741
          24 :   -11.6289566365857
          25 :    6.78698090841692
          26 :   -1.20490794842283
          27 :   -3.73588272072033
          28 :    6.82347853407310
          29 :   -7.49158748758816
          30 :    6.03227481379798
          31 :   -29.0694355900480
          32 :   -19.8476637389784

     Forces acting on atoms (Ry/au):

     negative rho (up, down):  2.843E-04 0.000E+00
     atom    1 type  1   force =    -0.00001753   -0.00000681    0.00531469
     atom    2 type  1   force =     0.00000494    0.00001434    0.00529922
     atom    3 type  1   force =     0.00000364   -0.00000443    0.00527236
     atom    4 type  1   force =    -0.00000248   -0.00002296    0.00485992
     atom    5 type  1   force =     0.00000594   -0.00049530    0.00011025
     atom    6 type  1   force =    -0.00000602   -0.00000984   -0.00408116
     atom    7 type  1   force =     0.00042825    0.00025272    0.00012497
     atom    8 type  1   force =    -0.00042265    0.00025975    0.00011380
     atom    9 type  1   force =     0.00000365    0.00002609   -0.01796518
     atom   10 type  1   force =    -0.00000460    0.02063995    0.02118604
     atom   11 type  1   force =     0.01785689   -0.01032882    0.02118840
     atom   12 type  1   force =    -0.01785806   -0.01033476    0.02119305
     atom   13 type  2   force =     0.00000854    0.00000876   -0.11088199
     atom   14 type  3   force =    -0.00000050    0.00000133    0.04826563

     Total force =     0.132557     Total SCF correction =     0.009028

     entering subroutine stress ...

     negative rho (up, down):  2.843E-04 0.000E+00
          total   stress  (Ry/bohr**3)                   (kbar)     P=   -4.65
  -0.00002587   0.00000000  -0.00000000         -3.80      0.00     -0.00
   0.00000000  -0.00002586   0.00000000          0.00     -3.80      0.00
  -0.00000000   0.00000000  -0.00004300         -0.00      0.00     -6.33

     BFGS Geometry Optimization

     number of scf cycles    =   1
     number of bfgs steps    =   0

     energy   new            =   -1158.2118130342 Ry

     new trust radius        =       0.1108819923 bohr
     new conv_thr            =       0.0000099958 Ry

ATOMIC_POSITIONS (crystal)
Y1       0.166666667   0.166666667   0.386999750    0   0   0
Y1       0.666666667   0.166666667   0.386999750    0   0   0
Y1       0.166666667   0.666666667   0.386999750    0   0   0
Y1       0.666666667   0.666666667   0.386999750    0   0   0
Y1       0.833333333   0.333333333   0.500000000    0   0   0
Y1       0.333333333   0.333333333   0.500000000    0   0   0
Y1       0.833333333   0.833333333   0.500000000    0   0   0
Y1       0.333333333   0.833333333   0.500000000    0   0   0
Y1      -0.000000844   0.000002229   0.612632338
Y1       0.499117992   0.001763335   0.613434122
Y1       0.001762394   0.499117576   0.613434170
Y1       0.499120197   0.499117069   0.613434265
O1       0.333333591   0.333334081   0.675126240
H1       0.333333239   0.333333447   0.715150423

     Writing output data file calc.save
     Check: negative starting charge=   -0.000621
     NEW-OLD atomic charge density approx. for the potential
     Check: negative starting charge=   -0.000629

[...]

     iteration #  1     ecut=    36.75 Ry     beta=0.30
     Davidson diagonalization with overlap
     c_bands:  1 eigenvalues not converged
     ethr =  1.00E-06,  avg # of iterations = 15.3

[...]

     energy   old            =   -1158.2118130342 Ry
     energy   new            =   -1158.2160920900 Ry

     CASE: energy  _new < energy  _old

[...]

     WARNING: bfgs curvature condition failed, Theta= 0.985
     new trust radius        =       0.0257370251 bohr
     new conv_thr            =       0.0000001000 Ry

[...]

     iteration #  1     ecut=    36.75 Ry     beta=0.30
     Davidson diagonalization with overlap
     c_bands:  1 eigenvalues not converged
     ethr =  1.00E-06,  avg # of iterations = 10.4

[...]

     Total force =     0.006553     Total SCF correction =     0.000598

[...]

     number of scf cycles    =  18
     number of bfgs steps    =  17

     energy   old            =   -1158.2477138629 Ry
     energy   new            =   -1158.2478207145 Ry

     CASE: energy  _new < energy  _old

     new trust radius        =       0.0090313439 bohr
     new conv_thr            =       0.0000001000 Ry

ATOMIC_POSITIONS (crystal)
Y1       0.166666667   0.166666667   0.386999750    0   0   0
Y1       0.666666667   0.166666667   0.386999750    0   0   0
Y1       0.166666667   0.666666667   0.386999750    0   0   0
Y1       0.666666667   0.666666667   0.386999750    0   0   0
Y1       0.833333333   0.333333333   0.500000000    0   0   0
Y1       0.333333333   0.333333333   0.500000000    0   0   0
Y1       0.833333333   0.833333333   0.500000000    0   0   0
Y1       0.333333333   0.833333333   0.500000000    0   0   0
Y1      -0.000000026   0.000001521   0.604979167
Y1       0.498674644   0.002650379   0.613967810
Y1       0.002648405   0.498674927   0.613967919
Y1       0.498675841   0.498675396   0.613967697
O1       0.333333390   0.333332999   0.661596135
H1       0.333332696   0.333334681   0.699438661

     Writing output data file calc.save
     Check: negative starting charge=   -0.000640
     NEW-OLD atomic charge density approx. for the potential
     Check: negative starting charge=   -0.000639

[...]

     Self-consistent Calculation

[...]

     Threshold (ethr) on eigenvalues was too large:
     Diagonalizing with lowered threshold

     Davidson diagonalization with overlap
     ethr =  4.19E-08,  avg # of iterations =  5.7

[...]

     total energy              =   -1158.24783981 Ry
     Harris-Foulkes estimate   =   -1158.24783985 Ry
     estimated scf accuracy    <       0.00000023 Ry

     iteration # 10     ecut=    36.75 Ry     beta=0.30
     Davidson diagonalization with overlap
     ethr =  1.64E-10,  avg # of iterations =  4.0

[...]

     negative rho (up, down):  2.653E-04 0.000E+00

     Adding external electric field

     Computed dipole along edir(3) :
        Dipole                0.2625 Ry au,          0.6671 Debye
        Dipole field          0.0004 Ry au

        Potential amp.       -0.0407 Ry
        Total length         47.6094 bohr

     End of self-consistent calculation

[...]

          k = 0.0466-0.0538 0.0000 ( 29098 PWs)   bands (ev):

[...]

          k =-0.0699-0.0404 0.0000 ( 29048 PWs)   bands (ev):

   -42.0673 -42.0550 -42.0436 -42.0322 -42.0235 -42.0069 -42.0021 -41.8394
   -41.4456 -41.4363 -41.4200 -41.4153 -22.4712 -22.0980 -22.0782 -22.0741
   -22.0696 -22.0461 -22.0454 -22.0433 -22.0340 -22.0232 -22.0077 -22.0016
   -21.9726 -21.9545 -21.9509 -21.9427 -21.9189 -21.9096 -21.9052 -21.8322
   -21.7820 -21.7757 -21.7707 -21.6898 -21.5187 -21.4944 -21.3962 -21.3885
   -21.3618 -21.3612 -21.3544 -21.3488 -21.3408 -21.3401 -21.2404 -21.2235
   -19.9110  -7.9217  -4.4859  -4.4362  -1.7643  -1.7177  -0.9128  -0.7958
    -0.0880  -0.0757   0.0675   0.1690   0.3428   0.3499   0.9873   0.9974
     1.0537   1.0756   1.1178   1.1851   1.2818   1.2851   1.3611   1.4229
     1.4266   1.5271   1.5906   1.6636   1.7506   1.8047   1.8245

     the Fermi energy is     1.3020 ev

!    total energy              =   -1158.24783984 Ry
     Harris-Foulkes estimate   =   -1158.24783973 Ry
     estimated scf accuracy    <          4.2E-09 Ry

     The total energy is the sum of the following terms:

     one-electron contribution =   -5714.37270527 Ry
     hartree contribution      =    2853.03914899 Ry
     xc contribution           =    -347.35242279 Ry
     ewald contribution        =    2050.56614328 Ry
     electric field correction =       0.00011206 Ry
     smearing contrib. (-TS)   =      -0.12811611 Ry

     convergence has been achieved in  10 iterations

 BEEF-vdW xc energy contributions
           1 :   -302.838618409343
           2 :    271.818938337920
           3 :   -218.455598655130
           4 :    155.929804818494
           5 :   -96.4839580681475
           6 :    47.7708409978064
           7 :   -12.3163826135404
           8 :   -10.6782181191331
           9 :    23.0103087223843
          10 :   -26.1695755641430
          11 :    21.4512260432084
          12 :   -10.8144331089424
          13 :   -2.57528543953902
          14 :    14.7694508399841
          15 :   -22.2840820911931
          16 :    23.3884374503662
          17 :   -18.6122660698593
          18 :    10.1908464683062
          19 :  -0.878520402999925
          20 :   -7.11510588837768
          21 :    12.5578163562158
          22 :   -15.0356764395161
          23 :    14.6034138899063
          24 :   -11.6100555002461
          25 :    6.75604860698263
          26 :   -1.16557187449769
          27 :   -3.77638353563759
          28 :    6.85673534538074
          29 :   -7.51181616846617
          30 :    6.03708587433283
          31 :   -29.0775849911515
          32 :   -19.8688226280779

     Forces acting on atoms (Ry/au):

     negative rho (up, down):  2.653E-04 0.000E+00
     atom    1 type  1   force =     0.00085739    0.00049498    0.00477466
     atom    2 type  1   force =    -0.00085717    0.00049493    0.00477484
     atom    3 type  1   force =    -0.00000003   -0.00099001    0.00477503
     atom    4 type  1   force =    -0.00000001   -0.00000006    0.00582125
     atom    5 type  1   force =    -0.00000034    0.00192923   -0.00475810
     atom    6 type  1   force =    -0.00000010    0.00000011   -0.00700600
     atom    7 type  1   force =    -0.00167066   -0.00096431   -0.00475757
     atom    8 type  1   force =     0.00167091   -0.00096453   -0.00475800
     atom    9 type  1   force =    -0.00000076   -0.00000141    0.00087202
     atom   10 type  1   force =     0.00000024   -0.00021185    0.00020738
     atom   11 type  1   force =    -0.00018111    0.00010637    0.00020760
     atom   12 type  1   force =     0.00018145    0.00010572    0.00020804
     atom   13 type  2   force =     0.00000014    0.00000129   -0.00060730
     atom   14 type  3   force =     0.00000005   -0.00000045    0.00024614

     Total force =     0.001205     Total SCF correction =     0.000123
     SCF correction compared to forces is large: reduce conv_thr to get better values

     entering subroutine stress ...

     negative rho (up, down):  2.653E-04 0.000E+00
          total   stress  (Ry/bohr**3)                   (kbar)     P=   -1.83
  -0.00001077  -0.00000000   0.00000000         -1.58     -0.00      0.00
  -0.00000000  -0.00001077   0.00000000         -0.00     -1.58      0.00
   0.00000000   0.00000000  -0.00001586          0.00      0.00     -2.33

     bfgs converged in  19 scf cycles and  18 bfgs steps
     (criteria: energy <  1.0E+00, force <  1.9E-03)

     End of BFGS Geometry Optimization

     Final energy   =   -1158.2478398424 Ry
Begin final coordinates

ATOMIC_POSITIONS (crystal)
Y1       0.166666667   0.166666667   0.386999750    0   0   0
Y1       0.666666667   0.166666667   0.386999750    0   0   0
Y1       0.166666667   0.666666667   0.386999750    0   0   0
Y1       0.666666667   0.666666667   0.386999750    0   0   0
Y1       0.833333333   0.333333333   0.500000000    0   0   0
Y1       0.333333333   0.333333333   0.500000000    0   0   0
Y1       0.833333333   0.833333333   0.500000000    0   0   0
Y1       0.333333333   0.833333333   0.500000000    0   0   0
Y1      -0.000000026   0.000001521   0.604979167
Y1       0.498674644   0.002650379   0.613967810
Y1       0.002648405   0.498674927   0.613967919
Y1       0.498675841   0.498675396   0.613967697
O1       0.333333390   0.333332999   0.661596135
H1       0.333332696   0.333334681   0.699438661
End final coordinates

     Writing output data file calc.save

     General routines

     Parallel routines

   This run was terminated on:  23:34:12  24Apr2018

   JOB DONE.
Job  /afs/slac/g/suncat/bin/suncat-tsmpirun -x LD_LIBRARY_PATH -wdir /scratch/qe211668_6CNYV pw.x -npool 4 -in pw.inp

TID   HOST_NAME   COMMAND_LINE            STATUS            TERMINATION_TIME
00000 suncat0051 pw.x -npool 4 -i  Done                     04/24/2018 23:34:12
00001 suncat0051 pw.x -npool 4 -i  Done                     04/24/2018 23:34:12
00002 suncat0051 pw.x -npool 4 -i  Done                     04/24/2018 23:34:12
00003 suncat0051 pw.x -npool 4 -i  Done                     04/24/2018 23:34:12
00004 suncat0051 pw.x -npool 4 -i  Done                     04/24/2018 23:34:12
00005 suncat0051 pw.x -npool 4 -i  Done                     04/24/2018 23:34:12
00006 suncat0051 pw.x -npool 4 -i  Done                     04/24/2018 23:34:12
00007 suncat0051 pw.x -npool 4 -i  Done                     04/24/2018 23:34:12
00008 suncat0044 pw.x -npool 4 -i  Done                     04/24/2018 23:34:12
00009 suncat0044 pw.x -npool 4 -i  Done                     04/24/2018 23:34:12
00010 suncat0044 pw.x -npool 4 -i  Done                     04/24/2018 23:34:12
00011 suncat0044 pw.x -npool 4 -i  Done                     04/24/2018 23:34:12
00012 suncat0044 pw.x -npool 4 -i  Done                     04/24/2018 23:34:12
00013 suncat0044 pw.x -npool 4 -i  Done                     04/24/2018 23:34:12
00014 suncat0044 pw.x -npool 4 -i  Done                     04/24/2018 23:34:12
00015 suncat0044 pw.x -npool 4 -i  Done                     04/24/2018 23:34:12
00016 suncat0032 pw.x -npool 4 -i  Done                     04/24/2018 23:34:12
00017 suncat0032 pw.x -npool 4 -i  Done                     04/24/2018 23:34:12
00018 suncat0032 pw.x -npool 4 -i  Done                     04/24/2018 23:34:12
00019 suncat0032 pw.x -npool 4 -i  Done                     04/24/2018 23:34:12
00020 suncat0032 pw.x -npool 4 -i  Done                     04/24/2018 23:34:12
00021 suncat0032 pw.x -npool 4 -i  Done                     04/24/2018 23:34:12
00022 suncat0032 pw.x -npool 4 -i  Done                     04/24/2018 23:34:12
00023 suncat0032 pw.x -npool 4 -i  Done                     04/24/2018 23:34:12
00024 suncat0023 pw.x -npool 4 -i  Done                     04/24/2018 23:34:12
00025 suncat0023 pw.x -npool 4 -i  Done                     04/24/2018 23:34:12
00026 suncat0023 pw.x -npool 4 -i  Done                     04/24/2018 23:34:12
00027 suncat0023 pw.x -npool 4 -i  Done                     04/24/2018 23:34:12
00028 suncat0023 pw.x -npool 4 -i  Done                     04/24/2018 23:34:12
00029 suncat0023 pw.x -npool 4 -i  Done                     04/24/2018 23:34:12
00030 suncat0023 pw.x -npool 4 -i  Done                     04/24/2018 23:34:12
00031 suncat0023 pw.x -npool 4 -i  Done                     04/24/2018 23:34:12