     Program PWSCF v.5.1rc2 (svn rev. 11289) starts on 23Apr2018 at 12:31:44

     Current dimensions of program PWSCF are:
     Max number of different atomic species (ntypx) = 10
     Max number of k-points (npk) =  40000
     Max angular momentum in pseudopotentials (lmaxx) =  3
     Presently stress not available with electric field

     IMPORTANT: XC functional enforced from input :
     Exchange-correlation      = BEEF-VDW ( 1  4 27 13 2)
     Any further DFT definition will be discarded
     Please, verify this is what you really want

     Subspace diagonalization in iterative solution of the eigenvalue problem:
     a serial algorithm will be used

     bravais-lattice index     =            0
     lattice parameter (alat)  =       1.8897  a.u.
     unit-cell volume          =    4301.6107 (a.u.)^3
     number of atoms/cell      =           14
     number of atomic types    =            3
     number of electrons       =       185.00
     number of Kohn-Sham states=          102
     kinetic-energy cutoff     =      36.7493  Ry
     charge density cutoff     =     367.4932  Ry
     convergence threshold     =      1.0E-05
     mixing beta               =       0.3000
     number of iterations used =           10  plain     mixing
     Exchange-correlation      = BEEF-VDW ( 1  4 27 13 2)
     nstep                     =           50

     celldm(1)=   1.889726  celldm(2)=   0.000000  celldm(3)=   0.000000
     celldm(4)=   0.000000  celldm(5)=   0.000000  celldm(6)=   0.000000

     crystal axes: (cart. coord. in units of alat)
               a(1) = (   5.483647   0.000000   0.000000 )
               a(2) = (   2.741823   4.748977   0.000000 )
               a(3) = (   0.000000   0.000000  24.477379 )

     reciprocal axes: (cart. coord. in units 2 pi/alat)
               b(1) = (  0.182360 -0.105286  0.000000 )
               b(2) = (  0.000000  0.210572  0.000000 )
               b(3) = (  0.000000  0.000000  0.040854 )

     PseudoPot. # 1 for Tc read from file:
     /u/if/mamunm/psp/gbrv1.5pbe/Tc.UPF
     MD5 check sum: 9eb49e5b028550b2339a02317eb7b844
     Pseudo is Ultrasoft + core correction, Zval = 15.0
     Generated by new atomic code, or converted to UPF format
     Using radial grid of  965 points,  6 beta functions with:
                l(1) =   0
                l(2) =   0
                l(3) =   1
                l(4) =   1
                l(5) =   2
                l(6) =   2
     Q(r) pseudized with  8 coefficients,  rinner =    1.300   1.300   1.300
                                                       1.300   1.300

     PseudoPot. # 2 for C  read from file:
     /u/if/mamunm/psp/gbrv1.5pbe/C.UPF
     MD5 check sum: d1aef80898a10debaa0f26306b886e00
     Pseudo is Ultrasoft + core correction, Zval =  4.0
     Generated by new atomic code, or converted to UPF format
     Using radial grid of  721 points,  4 beta functions with:
                l(1) =   0
                l(2) =   0
                l(3) =   1
                l(4) =   1
     Q(r) pseudized with  8 coefficients,  rinner =    1.100   1.100   1.100

     PseudoPot. # 3 for H  read from file:
     /u/if/mamunm/psp/gbrv1.5pbe/H.UPF
     MD5 check sum: 761ae9a214b05c3daf00ab9f6b793d6f
     Pseudo is Ultrasoft, Zval =  1.0
     Generated by new atomic code, or converted to UPF format
     Using radial grid of  615 points,  2 beta functions with:
                l(1) =   0
                l(2) =   0
     Q(r) pseudized with  8 coefficients,  rinner =    0.700

     vdW kernel table read from file vdW_kernel_table
     MD5 check sum: 095c7af220d748ca6e76c0b4c6cfb241

     atomic species   valence    mass     pseudopotential
        Tc1           15.00    97.90721     Tc( 1.00)
        C1             4.00    12.01100     C ( 1.00)
        H1             1.00     1.00800     H ( 1.00)

     No symmetry found

   Cartesian axes

     site n.     atom                  positions (alat units)
         1           Tc1 tau(   1) = (   1.3709117   0.7914962  10.0000000  )
         2           Tc1 tau(   2) = (   4.1127351   0.7914962  10.0000000  )
         3           Tc1 tau(   3) = (   2.7418234   3.1659850  10.0000000  )
         4           Tc1 tau(   4) = (   5.4836469   3.1659850  10.0000000  )
         5           Tc1 tau(   5) = (   5.4836469   1.5829925  12.2386895  )
         6           Tc1 tau(   6) = (   2.7418234   1.5829925  12.2386895  )
         7           Tc1 tau(   7) = (   6.8545586   3.9574812  12.2386895  )
         8           Tc1 tau(   8) = (   4.1127351   3.9574812  12.2386895  )
         9           Tc1 tau(   9) = (   0.0000000   0.0000000  14.4773789  )
        10           Tc1 tau(  10) = (   2.7418234   0.0000000  14.4773789  )
        11           Tc1 tau(  11) = (   1.3709117   2.3744887  14.4773789  )
        12           Tc1 tau(  12) = (   4.1127351   2.3744887  14.4773789  )
        13           C1  tau(  13) = (   2.7418234   1.5829925  15.9268789  )
        14           H1  tau(  14) = (   2.7418234   1.5829925  17.0268789  )

     number of k points=    20  Fermi-Dirac smearing, width (Ry)=  0.0110
                       cart. coord. in units 2pi/alat
        k(    1) = (   0.0000000   0.0000000   0.0000000), wk =   0.0555556
        k(    2) = (   0.0000000   0.0350953   0.0000000), wk =   0.1111111
        k(    3) = (   0.0000000   0.0701905   0.0000000), wk =   0.1111111
        k(    4) = (   0.0000000  -0.1052858   0.0000000), wk =   0.0555556
        k(    5) = (   0.0303934  -0.0175476   0.0000000), wk =   0.1111111
        k(    6) = (   0.0303934   0.0175476   0.0000000), wk =   0.1111111
        k(    7) = (   0.0303934   0.0526429   0.0000000), wk =   0.1111111
        k(    8) = (   0.0303934  -0.1228335   0.0000000), wk =   0.1111111
        k(    9) = (   0.0303934  -0.0877382   0.0000000), wk =   0.1111111
        k(   10) = (   0.0303934  -0.0526429   0.0000000), wk =   0.1111111
        k(   11) = (   0.0607868  -0.0350953   0.0000000), wk =   0.1111111
        k(   12) = (   0.0607868   0.0000000   0.0000000), wk =   0.1111111
        k(   13) = (   0.0607868   0.0350953   0.0000000), wk =   0.1111111
        k(   14) = (   0.0607868  -0.1403811   0.0000000), wk =   0.1111111
        k(   15) = (   0.0607868  -0.1052858   0.0000000), wk =   0.1111111
        k(   16) = (   0.0607868  -0.0701905   0.0000000), wk =   0.1111111
        k(   17) = (  -0.0911802   0.0526429   0.0000000), wk =   0.0555556
        k(   18) = (  -0.0911802   0.0877382   0.0000000), wk =   0.1111111
        k(   19) = (  -0.0911802   0.1228335   0.0000000), wk =   0.1111111
        k(   20) = (  -0.0911802  -0.0526429   0.0000000), wk =   0.0555556

     Largest allocated arrays     est. size (Mb)     dimensions
     Largest temporary arrays     est. size (Mb)     dimensions

     Check: negative/imaginary core charge=   -0.000022    0.000000

     Initial potential from superposition of free atoms
     Check: negative starting charge=   -1.504726

     starting charge  172.99962, renormalised to  185.00000

     negative rho (up, down):  1.609E+00 0.000E+00

     *
     * You are using vdW-DF for exchange-correlation in this calculation.
     * Please cite the following three references that made this development
     * possible:
     *
     *   M. Dion, H. Rydberg, E. Schroder, D. C. Langreth, and
     *   B. I. Lundqvist, Phys. Rev. Lett. 92, 246401 (2004).
     *
     *   T. Thonhauser, V. R. Cooper, S. Li, A. Puzder, P. Hyldgaard, and
     *   D. C. Langreth, Phys. Rev. B 76, 125112 (2007).
     *
     *   G. Roman-Perez and J. M. Soler, Phys. Rev. Lett. 103, 096102 (2009).
     *
     *
     * If you are using vdW-DF2, please also cite:
     *
     *   K. Lee, E. D. Murray, L. Kong, B. I. Lundqvist, and
     *   D. C. Langreth, Phys. Rev. B 82, 081101(R) (2010).
     *
     *
     * If you are calculating the stress with vdW-DF, please also cite:
     *
     *   R. Sabatini, E. Kucukbenli, B. Kolb, T. Thonhauser, and
     *   S. de Gironcoli, J. Phys.: Condens. Matter 24, 424209 (2012).
     *

     Carrying out vdW-DF run using the following parameters:

     Nqs =      20    Nr_points =    1024   r_max =   100.000
     q_mesh =
               0.00001000     0.04494208     0.09755937     0.15916263
               0.23128650     0.31572767     0.41458969     0.53033537
               0.66584808     0.82450364     1.01025438     1.22772762
               1.48234092     1.78043706     2.12944203     2.53805004
               3.01644009     3.57652955     4.23227104     5.00000000

     Gradients computed in reciprocal space

     Adding external electric field

     Computed dipole along edir(3) :
        Dipole               -2.5611 Ry au,         -6.5097 Debye
        Dipole field         -0.0075 Ry au

        Potential amp.        0.6748 Ry
        Total length         45.0992 bohr

     Starting wfc are  161 randomized atomic wfcs

     Self-consistent Calculation

     iteration #  1     ecut=    36.75 Ry     beta=0.30
     Davidson diagonalization with overlap
     ethr =  1.00E-02,  avg # of iterations =  4.5

[...]

     total energy              =   -1995.24219367 Ry
     Harris-Foulkes estimate   =   -2117.99276208 Ry
     estimated scf accuracy    <     256.39905265 Ry

[...]

     End of self-consistent calculation

          k = 0.0000 0.0000 0.0000 ( 16073 PWs)   bands (ev):

   -64.5840 -64.4276 -64.4238 -64.4235 -64.4228 -64.3537 -64.3141 -64.3137
   -64.2634 -64.2391 -64.2386 -64.2208 -37.0203 -37.0200 -37.0193 -36.9280
   -36.9005 -36.8731 -36.8729 -36.7615 -36.7430 -36.7428 -36.4325 -36.3789
   -36.3717 -36.3714 -36.3102 -36.3100 -36.3010 -36.2898 -36.2896 -36.2826
   -36.1536 -36.1535 -36.1376 -36.1074 -36.1072 -36.1062 -36.0712 -36.0561
   -36.0561 -36.0255 -36.0120 -36.0118 -35.9015 -35.9014 -35.8221 -35.8221
    -8.3890  -3.9638  -3.4713  -2.5274  -2.5273  -2.4953  -2.4153  -2.1952
    -2.1951  -2.1617  -1.9659  -1.9659  -1.9160  -1.8543  -1.6119  -1.6118
    -0.9873  -0.5855  -0.5854   0.0742   0.2692   0.2693   0.7086   0.7086
     0.7131   0.8228   1.0508   1.0508   1.3123   1.3123   1.3941   1.4787
     1.4788   1.5185   1.6136   1.6136   1.9441   2.4557   2.4557   2.7393
     3.0216   3.0426   3.0428   3.3238   3.3240   3.5878   3.5920   3.5921
     3.9068   3.9069   4.2604   4.5497   4.6440   4.6440

[...]

          k =-0.0912 0.0526 0.0000 ( 16164 PWs)   bands (ev):

[...]

     the Fermi energy is     2.6748 ev

!    total energy              =   -2116.15418520 Ry
     Harris-Foulkes estimate   =   -2116.15418767 Ry
     estimated scf accuracy    <       0.00000256 Ry

     The total energy is the sum of the following terms:

     one-electron contribution =  -19020.24387568 Ry
     hartree contribution      =    9512.05490198 Ry
     xc contribution           =    -401.36509318 Ry
     ewald contribution        =    7793.48707682 Ry
     electric field correction =       0.00002815 Ry
     smearing contrib. (-TS)   =      -0.08722329 Ry

     convergence has been achieved in  27 iterations

 BEEF-vdW xc energy contributions
           1 :   -351.572153061173
           2 :    323.241341489011
           3 :   -272.876117537557
           4 :    210.588000114268
           5 :   -147.146286041740
           6 :    91.0305969607357
           7 :   -46.7810569522161
           8 :    14.8703565053903
           9 :    7.04904003700165
          10 :   -22.2928491475295
          11 :    33.4577440370749
          12 :   -41.5521410623564
          13 :    46.0677539034980
          14 :   -45.7978104135697
          15 :    39.8936963774434
          16 :   -28.6813496069323
          17 :    13.8907712239666
          18 :    1.73856390262017
          19 :   -15.2801725914861
          20 :    24.4907312266021
          21 :   -28.3841701135442
          22 :    27.3012040463152
          23 :   -22.5198445013240
          24 :    15.6275032630924
          25 :   -7.96299158255704
          26 :   0.344493610379800
          27 :    6.86000245320736
          28 :   -13.4437641642477
          29 :    19.0617641425000
          30 :   -23.1081064205305
          31 :   -33.5713207161202
          32 :   -24.6554655459986

     Forces acting on atoms (Ry/au):

     negative rho (up, down):  1.591E+00 0.000E+00
     atom    1 type  1   force =    -0.00467752   -0.00268866    0.03366953
     atom    2 type  1   force =     0.00467813   -0.00266311    0.03364310
     atom    3 type  1   force =     0.00002337    0.00537788    0.03362402
     atom    4 type  1   force =    -0.00001422   -0.00001305    0.03297764
     atom    5 type  1   force =    -0.00002246   -0.00876485   -0.02589250
     atom    6 type  1   force =     0.00002428   -0.00003940    0.00939723
     atom    7 type  1   force =     0.00754583    0.00441045   -0.02585130
     atom    8 type  1   force =    -0.00756169    0.00438579   -0.02582536
     atom    9 type  1   force =     0.00002220    0.00002625   -0.03340247
     atom   10 type  1   force =    -0.00002278   -0.01501581    0.02373735
     atom   11 type  1   force =    -0.01300991    0.00747475    0.02373719
     atom   12 type  1   force =     0.01301657    0.00750797    0.02369784
     atom   13 type  2   force =    -0.00000168    0.00000193   -0.09301726
     atom   14 type  3   force =    -0.00000012   -0.00000016   -0.01049503

     Total force =     0.110648     Total SCF correction =     0.006718

     entering subroutine stress ...

     negative rho (up, down):  1.591E+00 0.000E+00
          total   stress  (Ry/bohr**3)                   (kbar)     P=  -34.43
  -0.00021335  -0.00000001   0.00000001        -31.39     -0.00      0.00
  -0.00000001  -0.00021333  -0.00000001         -0.00    -31.38     -0.00
   0.00000001  -0.00000001  -0.00027541          0.00     -0.00    -40.51

     BFGS Geometry Optimization

     number of scf cycles    =   1
     number of bfgs steps    =   0

     energy   new            =   -2116.1541852020 Ry

     new trust radius        =       0.0930172592 bohr
     new conv_thr            =       0.0000099958 Ry

ATOMIC_POSITIONS (crystal)
Tc1      0.166666667   0.166666667   0.408540475    0   0   0
Tc1      0.666666667   0.166666667   0.408540475    0   0   0
Tc1      0.166666667   0.666666667   0.408540475    0   0   0
Tc1      0.666666667   0.666666667   0.408540475    0   0   0
Tc1      0.833333333   0.333333333   0.500000000    0   0   0
Tc1      0.333333333   0.333333333   0.500000000    0   0   0
Tc1      0.833333333   0.833333333   0.500000000    0   0   0
Tc1      0.333333333   0.833333333   0.500000000    0   0   0
Tc1      0.000000680   0.000002925   0.590737396
Tc1      0.500834406  -0.001673207   0.591972704
Tc1     -0.001671924   0.500832909   0.591972700
Tc1      0.500837806   0.500836611   0.591971850
C1       0.333333064   0.333333549   0.648666524
H1       0.333333330   0.333333315   0.695390027

     Writing output data file calc.save
     Check: negative starting charge=   -1.504726
     NEW-OLD atomic charge density approx. for the potential

     Check: negative/imaginary core charge=   -0.000022    0.000000
     Check: negative starting charge=   -1.507809

[...]

     energy   old            =   -2116.1541852020 Ry
     energy   new            =   -2116.1627498631 Ry

     CASE: energy  _new < energy  _old

[...]

     Total force =     0.019533     Total SCF correction =     0.001598

[...]

     Total force =     0.009980     Total SCF correction =     0.001012
     SCF correction compared to forces is large: reduce conv_thr to get better values

[...]

     number of scf cycles    =  12
     number of bfgs steps    =  11

     energy   old            =   -2116.1829992101 Ry
     energy   new            =   -2116.1830242603 Ry

     CASE: energy  _new < energy  _old

     new trust radius        =       0.0068618989 bohr
     new conv_thr            =       0.0000001000 Ry

ATOMIC_POSITIONS (crystal)
Tc1      0.166666667   0.166666667   0.408540475    0   0   0
Tc1      0.666666667   0.166666667   0.408540475    0   0   0
Tc1      0.166666667   0.666666667   0.408540475    0   0   0
Tc1      0.666666667   0.666666667   0.408540475    0   0   0
Tc1      0.833333333   0.333333333   0.500000000    0   0   0
Tc1      0.333333333   0.333333333   0.500000000    0   0   0
Tc1      0.833333333   0.833333333   0.500000000    0   0   0
Tc1      0.333333333   0.833333333   0.500000000    0   0   0
Tc1     -0.000000456  -0.000000296   0.586757353
Tc1      0.504894064  -0.009792994   0.589859373
Tc1     -0.009792572   0.504894051   0.589859798
Tc1      0.504896226   0.504896944   0.589859116
C1       0.333331757   0.333332173   0.640337865
H1       0.333338269   0.333331727   0.685169023

     Writing output data file calc.save
     Check: negative starting charge=   -1.498790
     NEW-OLD atomic charge density approx. for the potential

     Check: negative/imaginary core charge=   -0.000022    0.000000
     Check: negative starting charge=   -1.498643

[...]

     Self-consistent Calculation

[...]

     total energy              =   -2116.18303215 Ry
     Harris-Foulkes estimate   =   -2116.18303218 Ry
     estimated scf accuracy    <       0.00000011 Ry

     iteration # 11     ecut=    36.75 Ry     beta=0.30
     Davidson diagonalization with overlap
     ethr =  5.84E-11,  avg # of iterations =  4.4

[...]

     negative rho (up, down):  1.585E+00 0.000E+00

     Adding external electric field

     Computed dipole along edir(3) :
        Dipole                0.1274 Ry au,          0.3239 Debye
        Dipole field          0.0004 Ry au

        Potential amp.       -0.0336 Ry
        Total length         45.0992 bohr

     End of self-consistent calculation

[...]

          k = 0.0608-0.0702 0.0000 ( 16203 PWs)   bands (ev):

[...]

          k =-0.0912-0.0526 0.0000 ( 16164 PWs)   bands (ev):

   -64.4859 -64.4780 -64.4036 -64.3934 -64.3053 -64.2817 -64.2717 -64.2638
   -64.2316 -64.2140 -64.2132 -64.1969 -36.8509 -36.8354 -36.8072 -36.7818
   -36.7513 -36.7446 -36.6090 -36.6043 -36.5811 -36.5403 -36.5312 -36.5307
   -36.3923 -36.3059 -36.2828 -36.2718 -36.2667 -36.2596 -36.2545 -36.2353
   -36.2111 -36.2023 -36.1953 -36.1779 -36.1707 -36.1633 -36.1555 -36.1475
   -36.0663 -36.0469 -36.0072 -35.9840 -35.9618 -35.9195 -35.8982 -35.8851
    -8.5739  -3.3687  -2.3723  -2.2105  -1.7924  -1.6246  -1.5298  -1.5188
    -1.3350  -1.2876  -1.1132  -1.0007  -0.9860  -0.8651  -0.6926  -0.6518
    -0.6386  -0.5471  -0.4759  -0.1005  -0.0097   0.1324   0.1946   0.2149
     0.5399   0.5455   0.6887   0.8012   0.9907   1.0167   1.2575   1.3111
     1.3580   1.3588   1.3683   1.4280   1.4442   1.5529   1.6354   1.6807
     1.7584   2.0665   2.2860   2.5367   2.5368   2.5993   2.6515   2.8706
     2.9796   3.1072   3.1541   3.2737   3.3483   3.3934

     the Fermi energy is     2.7005 ev

!    total energy              =   -2116.18303210 Ry
     Harris-Foulkes estimate   =   -2116.18303223 Ry
     estimated scf accuracy    <       0.00000008 Ry

     The total energy is the sum of the following terms:

     one-electron contribution =  -19244.03233025 Ry
     hartree contribution      =    9624.07911411 Ry
     xc contribution           =    -401.65828387 Ry
     ewald contribution        =    7905.51538306 Ry
     electric field correction =       0.00004743 Ry
     smearing contrib. (-TS)   =      -0.08696258 Ry

     convergence has been achieved in  11 iterations

 BEEF-vdW xc energy contributions
           1 :   -351.867375921154
           2 :    323.623117882077
           3 :   -273.367590744102
           4 :    211.131349459789
           5 :   -147.630048085228
           6 :    91.3406799630533
           7 :   -46.8536524861055
           8 :    14.7239149920099
           9 :    7.31686071514787
          10 :   -22.5445265734701
          11 :    33.5768203915881
          12 :   -41.4948024926556
          13 :    45.8816783275131
          14 :   -45.5962667883022
          15 :    39.7979344508279
          16 :   -28.7605648784642
          17 :    14.1270651112908
          18 :    1.44199443601713
          19 :   -15.0520343327285
          20 :    24.4296777027386
          21 :   -28.5132706647177
          22 :    27.5595326510992
          23 :   -22.7939064920421
          24 :    15.8053241807046
          25 :   -7.98457040981077
          26 :   0.226057964093570
          27 :    7.03869853150286
          28 :   -13.5801570818548
          29 :    19.0776836010459
          30 :   -22.9837982656451
          31 :   -33.5904822081449
          32 :   -24.6936525754293

     Forces acting on atoms (Ry/au):

     negative rho (up, down):  1.585E+00 0.000E+00
     atom    1 type  1   force =    -0.00290717   -0.00167740    0.02601141
     atom    2 type  1   force =     0.00290718   -0.00167645    0.02601047
     atom    3 type  1   force =     0.00000076    0.00335516    0.02601014
     atom    4 type  1   force =    -0.00000117   -0.00000144    0.02837727
     atom    5 type  1   force =    -0.00000244   -0.00290676   -0.03424889
     atom    6 type  1   force =     0.00000170   -0.00000667   -0.00357663
     atom    7 type  1   force =     0.00251048    0.00145692   -0.03424278
     atom    8 type  1   force =    -0.00251149    0.00145442   -0.03424172
     atom    9 type  1   force =    -0.00000100    0.00000063   -0.00023746
     atom   10 type  1   force =     0.00000438    0.00010659    0.00004449
     atom   11 type  1   force =     0.00009093   -0.00004886    0.00003945
     atom   12 type  1   force =    -0.00009538   -0.00005660    0.00004421
     atom   13 type  2   force =     0.00000421    0.00000042    0.00066753
     atom   14 type  3   force =    -0.00000098    0.00000004   -0.00065748

     Total force =     0.000987     Total SCF correction =     0.001170
     SCF correction compared to forces is large: reduce conv_thr to get better values

     entering subroutine stress ...

     negative rho (up, down):  1.585E+00 0.000E+00
          total   stress  (Ry/bohr**3)                   (kbar)     P=  -20.38
  -0.00014783  -0.00000000   0.00000000        -21.75     -0.00      0.00
  -0.00000000  -0.00014783   0.00000000         -0.00    -21.75      0.00
   0.00000000   0.00000000  -0.00011992          0.00      0.00    -17.64

     bfgs converged in  13 scf cycles and  12 bfgs steps
     (criteria: energy <  1.0E+00, force <  1.9E-03)

     End of BFGS Geometry Optimization

     Final energy   =   -2116.1830320993 Ry
Begin final coordinates

ATOMIC_POSITIONS (crystal)
Tc1      0.166666667   0.166666667   0.408540475    0   0   0
Tc1      0.666666667   0.166666667   0.408540475    0   0   0
Tc1      0.166666667   0.666666667   0.408540475    0   0   0
Tc1      0.666666667   0.666666667   0.408540475    0   0   0
Tc1      0.833333333   0.333333333   0.500000000    0   0   0
Tc1      0.333333333   0.333333333   0.500000000    0   0   0
Tc1      0.833333333   0.833333333   0.500000000    0   0   0
Tc1      0.333333333   0.833333333   0.500000000    0   0   0
Tc1     -0.000000456  -0.000000296   0.586757353
Tc1      0.504894064  -0.009792994   0.589859373
Tc1     -0.009792572   0.504894051   0.589859798
Tc1      0.504896226   0.504896944   0.589859116
C1       0.333331757   0.333332173   0.640337865
H1       0.333338269   0.333331727   0.685169023
End final coordinates

     Writing output data file calc.save

     General routines

     Parallel routines

   This run was terminated on:  14: 1:52  23Apr2018

   JOB DONE.
Job  /afs/slac/g/suncat/bin/suncat-tsmpirun -x LD_LIBRARY_PATH -wdir /scratch/qe498576_7an47 pw.x -npool 4 -in pw.inp

TID   HOST_NAME   COMMAND_LINE            STATUS            TERMINATION_TIME
00000 suncat0170 pw.x -npool 4 -i  Done                     04/23/2018 14:01:52
00001 suncat0170 pw.x -npool 4 -i  Done                     04/23/2018 14:01:52
00002 suncat0170 pw.x -npool 4 -i  Done                     04/23/2018 14:01:52
00003 suncat0170 pw.x -npool 4 -i  Done                     04/23/2018 14:01:52
00004 suncat0170 pw.x -npool 4 -i  Done                     04/23/2018 14:01:52
00005 suncat0170 pw.x -npool 4 -i  Done                     04/23/2018 14:01:52
00006 suncat0170 pw.x -npool 4 -i  Done                     04/23/2018 14:01:52
00007 suncat0170 pw.x -npool 4 -i  Done                     04/23/2018 14:01:52
00008 suncat0146 pw.x -npool 4 -i  Done                     04/23/2018 14:01:52
00009 suncat0146 pw.x -npool 4 -i  Done                     04/23/2018 14:01:52
00010 suncat0146 pw.x -npool 4 -i  Done                     04/23/2018 14:01:52
00011 suncat0146 pw.x -npool 4 -i  Done                     04/23/2018 14:01:52
00012 suncat0146 pw.x -npool 4 -i  Done                     04/23/2018 14:01:52
00013 suncat0146 pw.x -npool 4 -i  Done                     04/23/2018 14:01:52
00014 suncat0146 pw.x -npool 4 -i  Done                     04/23/2018 14:01:52
00015 suncat0146 pw.x -npool 4 -i  Done                     04/23/2018 14:01:52
00016 suncat0248 pw.x -npool 4 -i  Done                     04/23/2018 14:01:52
00017 suncat0248 pw.x -npool 4 -i  Done                     04/23/2018 14:01:52
00018 suncat0248 pw.x -npool 4 -i  Done                     04/23/2018 14:01:52
00019 suncat0248 pw.x -npool 4 -i  Done                     04/23/2018 14:01:52
00020 suncat0248 pw.x -npool 4 -i  Done                     04/23/2018 14:01:52
00021 suncat0248 pw.x -npool 4 -i  Done                     04/23/2018 14:01:52
00022 suncat0248 pw.x -npool 4 -i  Done                     04/23/2018 14:01:52
00023 suncat0248 pw.x -npool 4 -i  Done                     04/23/2018 14:01:52
00024 suncat0241 pw.x -npool 4 -i  Done                     04/23/2018 14:01:52
00025 suncat0241 pw.x -npool 4 -i  Done                     04/23/2018 14:01:52
00026 suncat0241 pw.x -npool 4 -i  Done                     04/23/2018 14:01:52
00027 suncat0241 pw.x -npool 4 -i  Done                     04/23/2018 14:01:52
00028 suncat0241 pw.x -npool 4 -i  Done                     04/23/2018 14:01:52
00029 suncat0241 pw.x -npool 4 -i  Done                     04/23/2018 14:01:52
00030 suncat0241 pw.x -npool 4 -i  Done                     04/23/2018 14:01:52
00031 suncat0241 pw.x -npool 4 -i  Done                     04/23/2018 14:01:52