     Program PWSCF v.5.1rc2 (svn rev. 11289) starts on 23Apr2018 at 11:33:25

     Current dimensions of program PWSCF are:
     Max number of different atomic species (ntypx) = 10
     Max number of k-points (npk) =  40000
     Max angular momentum in pseudopotentials (lmaxx) =  3
     Presently stress not available with electric field

     IMPORTANT: XC functional enforced from input :
     Exchange-correlation      = BEEF-VDW ( 1  4 27 13 2)
     Any further DFT definition will be discarded
     Please, verify this is what you really want

     Subspace diagonalization in iterative solution of the eigenvalue problem:
     a serial algorithm will be used

     bravais-lattice index     =            0
     lattice parameter (alat)  =       1.8897  a.u.
     unit-cell volume          =    4301.6107 (a.u.)^3
     number of atoms/cell      =           14
     number of atomic types    =            3
     number of electrons       =       185.00
     number of Kohn-Sham states=          102
     kinetic-energy cutoff     =      36.7493  Ry
     charge density cutoff     =     367.4932  Ry
     convergence threshold     =      1.0E-05
     mixing beta               =       0.3000
     number of iterations used =           10  plain     mixing
     Exchange-correlation      = BEEF-VDW ( 1  4 27 13 2)
     nstep                     =           50

     celldm(1)=   1.889726  celldm(2)=   0.000000  celldm(3)=   0.000000
     celldm(4)=   0.000000  celldm(5)=   0.000000  celldm(6)=   0.000000

     crystal axes: (cart. coord. in units of alat)
               a(1) = (   5.483647   0.000000   0.000000 )
               a(2) = (   2.741823   4.748977   0.000000 )
               a(3) = (   0.000000   0.000000  24.477379 )

     reciprocal axes: (cart. coord. in units 2 pi/alat)
               b(1) = (  0.182360 -0.105286  0.000000 )
               b(2) = (  0.000000  0.210572  0.000000 )
               b(3) = (  0.000000  0.000000  0.040854 )

     PseudoPot. # 1 for Tc read from file:
     /u/if/mamunm/psp/gbrv1.5pbe/Tc.UPF
     MD5 check sum: 9eb49e5b028550b2339a02317eb7b844
     Pseudo is Ultrasoft + core correction, Zval = 15.0
     Generated by new atomic code, or converted to UPF format
     Using radial grid of  965 points,  6 beta functions with:
                l(1) =   0
                l(2) =   0
                l(3) =   1
                l(4) =   1
                l(5) =   2
                l(6) =   2
     Q(r) pseudized with  8 coefficients,  rinner =    1.300   1.300   1.300
                                                       1.300   1.300

     PseudoPot. # 2 for C  read from file:
     /u/if/mamunm/psp/gbrv1.5pbe/C.UPF
     MD5 check sum: d1aef80898a10debaa0f26306b886e00
     Pseudo is Ultrasoft + core correction, Zval =  4.0
     Generated by new atomic code, or converted to UPF format
     Using radial grid of  721 points,  4 beta functions with:
                l(1) =   0
                l(2) =   0
                l(3) =   1
                l(4) =   1
     Q(r) pseudized with  8 coefficients,  rinner =    1.100   1.100   1.100

     PseudoPot. # 3 for H  read from file:
     /u/if/mamunm/psp/gbrv1.5pbe/H.UPF
     MD5 check sum: 761ae9a214b05c3daf00ab9f6b793d6f
     Pseudo is Ultrasoft, Zval =  1.0
     Generated by new atomic code, or converted to UPF format
     Using radial grid of  615 points,  2 beta functions with:
                l(1) =   0
                l(2) =   0
     Q(r) pseudized with  8 coefficients,  rinner =    0.700

     vdW kernel table read from file vdW_kernel_table
     MD5 check sum: 095c7af220d748ca6e76c0b4c6cfb241

     atomic species   valence    mass     pseudopotential
        Tc1           15.00    97.90721     Tc( 1.00)
        C1             4.00    12.01100     C ( 1.00)
        H1             1.00     1.00800     H ( 1.00)

     No symmetry found

   Cartesian axes

     site n.     atom                  positions (alat units)
         1           Tc1 tau(   1) = (   1.3709117   0.7914962  10.0000000  )
         2           Tc1 tau(   2) = (   4.1127351   0.7914962  10.0000000  )
         3           Tc1 tau(   3) = (   2.7418234   3.1659850  10.0000000  )
         4           Tc1 tau(   4) = (   5.4836469   3.1659850  10.0000000  )
         5           Tc1 tau(   5) = (   5.4836469   1.5829925  12.2386895  )
         6           Tc1 tau(   6) = (   2.7418234   1.5829925  12.2386895  )
         7           Tc1 tau(   7) = (   6.8545586   3.9574812  12.2386895  )
         8           Tc1 tau(   8) = (   4.1127351   3.9574812  12.2386895  )
         9           Tc1 tau(   9) = (   0.0000000   0.0000000  14.4773789  )
        10           Tc1 tau(  10) = (   2.7418234   0.0000000  14.4773789  )
        11           Tc1 tau(  11) = (   1.3709117   2.3744887  14.4773789  )
        12           Tc1 tau(  12) = (   4.1127351   2.3744887  14.4773789  )
        13           C1  tau(  13) = (   0.0000000   0.0000000  16.3728789  )
        14           H1  tau(  14) = (   0.0000000   0.0000000  17.4728789  )

     number of k points=    20  Fermi-Dirac smearing, width (Ry)=  0.0110
                       cart. coord. in units 2pi/alat
        k(    1) = (   0.0000000   0.0000000   0.0000000), wk =   0.0555556
        k(    2) = (   0.0000000   0.0350953   0.0000000), wk =   0.1111111
        k(    3) = (   0.0000000   0.0701905   0.0000000), wk =   0.1111111
        k(    4) = (   0.0000000  -0.1052858   0.0000000), wk =   0.0555556
        k(    5) = (   0.0303934  -0.0175476   0.0000000), wk =   0.1111111
        k(    6) = (   0.0303934   0.0175476   0.0000000), wk =   0.1111111
        k(    7) = (   0.0303934   0.0526429   0.0000000), wk =   0.1111111
        k(    8) = (   0.0303934  -0.1228335   0.0000000), wk =   0.1111111
        k(    9) = (   0.0303934  -0.0877382   0.0000000), wk =   0.1111111
        k(   10) = (   0.0303934  -0.0526429   0.0000000), wk =   0.1111111
        k(   11) = (   0.0607868  -0.0350953   0.0000000), wk =   0.1111111
        k(   12) = (   0.0607868   0.0000000   0.0000000), wk =   0.1111111
        k(   13) = (   0.0607868   0.0350953   0.0000000), wk =   0.1111111
        k(   14) = (   0.0607868  -0.1403811   0.0000000), wk =   0.1111111
        k(   15) = (   0.0607868  -0.1052858   0.0000000), wk =   0.1111111
        k(   16) = (   0.0607868  -0.0701905   0.0000000), wk =   0.1111111
        k(   17) = (  -0.0911802   0.0526429   0.0000000), wk =   0.0555556
        k(   18) = (  -0.0911802   0.0877382   0.0000000), wk =   0.1111111
        k(   19) = (  -0.0911802   0.1228335   0.0000000), wk =   0.1111111
        k(   20) = (  -0.0911802  -0.0526429   0.0000000), wk =   0.0555556

     Largest allocated arrays     est. size (Mb)     dimensions
     Largest temporary arrays     est. size (Mb)     dimensions

     Check: negative/imaginary core charge=   -0.000022    0.000000

     Initial potential from superposition of free atoms
     Check: negative starting charge=   -1.504770

     starting charge  172.99962, renormalised to  185.00000

     negative rho (up, down):  1.609E+00 0.000E+00

     *
     * You are using vdW-DF for exchange-correlation in this calculation.
     * Please cite the following three references that made this development
     * possible:
     *
     *   M. Dion, H. Rydberg, E. Schroder, D. C. Langreth, and
     *   B. I. Lundqvist, Phys. Rev. Lett. 92, 246401 (2004).
     *
     *   T. Thonhauser, V. R. Cooper, S. Li, A. Puzder, P. Hyldgaard, and
     *   D. C. Langreth, Phys. Rev. B 76, 125112 (2007).
     *
     *   G. Roman-Perez and J. M. Soler, Phys. Rev. Lett. 103, 096102 (2009).
     *
     *
     * If you are using vdW-DF2, please also cite:
     *
     *   K. Lee, E. D. Murray, L. Kong, B. I. Lundqvist, and
     *   D. C. Langreth, Phys. Rev. B 82, 081101(R) (2010).
     *
     *
     * If you are calculating the stress with vdW-DF, please also cite:
     *
     *   R. Sabatini, E. Kucukbenli, B. Kolb, T. Thonhauser, and
     *   S. de Gironcoli, J. Phys.: Condens. Matter 24, 424209 (2012).
     *

     Carrying out vdW-DF run using the following parameters:

     Nqs =      20    Nr_points =    1024   r_max =   100.000
     q_mesh =
               0.00001000     0.04494208     0.09755937     0.15916263
               0.23128650     0.31572767     0.41458969     0.53033537
               0.66584808     0.82450364     1.01025438     1.22772762
               1.48234092     1.78043706     2.12944203     2.53805004
               3.01644009     3.57652955     4.23227104     5.00000000

     Gradients computed in reciprocal space

     Adding external electric field

     Computed dipole along edir(3) :
        Dipole               -2.8534 Ry au,         -7.2526 Debye
        Dipole field         -0.0083 Ry au

        Potential amp.        0.7519 Ry
        Total length         45.0992 bohr

     Starting wfc are  161 randomized atomic wfcs

     Self-consistent Calculation

     iteration #  1     ecut=    36.75 Ry     beta=0.30
     Davidson diagonalization with overlap
     ethr =  1.00E-02,  avg # of iterations =  6.0

[...]

     total energy              =   -1975.58660757 Ry
     Harris-Foulkes estimate   =   -2116.72367439 Ry
     estimated scf accuracy    <     295.37525165 Ry

[...]

     End of self-consistent calculation

          k = 0.0000 0.0000 0.0000 ( 16073 PWs)   bands (ev):

   -64.4100 -64.3535 -64.2507 -64.2002 -64.2001 -64.1492 -64.1240 -64.0452
   -64.0450 -64.0352 -64.0188 -64.0185 -36.8381 -36.8295 -36.8294 -36.7397
   -36.6982 -36.6981 -36.6725 -36.5525 -36.5524 -36.5213 -36.4347 -36.1916
   -36.1606 -36.1606 -36.1433 -36.0952 -36.0952 -36.0789 -36.0638 -36.0637
   -35.9844 -35.9370 -35.9370 -35.9139 -35.9138 -35.8707 -35.8625 -35.8507
   -35.8507 -35.8113 -35.8112 -35.8044 -35.6875 -35.6874 -35.6163 -35.6163
    -8.1814  -3.6962  -2.7165  -2.3592  -2.3592  -2.3106  -2.2608  -2.1813
    -1.8790  -1.8790  -1.7609  -1.7609  -1.7310  -1.5024  -1.3803  -1.3802
    -1.3634  -0.5184  -0.5183  -0.1684   0.5372   0.5372   0.6647   0.9339
     1.2023   1.2023   1.2988   1.4718   1.4718   1.5165   1.5165   1.6204
     1.7430   1.7430   2.0151   2.0152   2.2595   2.2595   2.3396   3.1720
     3.2152   3.2152   3.2412   3.3998   3.5857   3.5857   3.9371   3.9372
     4.0390   4.2483   4.2484   4.6254   4.6255   4.9433

[...]

          k =-0.0912 0.0526 0.0000 ( 16164 PWs)   bands (ev):

[...]

     the Fermi energy is     2.8755 ev

!    total energy              =   -2116.03348939 Ry
     Harris-Foulkes estimate   =   -2116.03351570 Ry
     estimated scf accuracy    <       0.00000543 Ry

     The total energy is the sum of the following terms:

     one-electron contribution =  -18891.22483004 Ry
     hartree contribution      =    9448.55529830 Ry
     xc contribution           =    -401.23518290 Ry
     ewald contribution        =    7727.96214882 Ry
     electric field correction =       0.00012913 Ry
     smearing contrib. (-TS)   =      -0.09105269 Ry

     convergence has been achieved in  27 iterations

 BEEF-vdW xc energy contributions
           1 :   -351.433572357451
           2 :    323.016986455415
           3 :   -272.551028899030
           4 :    210.217296237658
           5 :   -146.803698220629
           6 :    90.7591605594019
           7 :   -46.5784820870671
           8 :    14.7079567446105
           9 :    7.19381297440873
          10 :   -22.4164025426575
          11 :    33.5358699826588
          12 :   -41.5628088879891
          13 :    46.0133115186545
          14 :   -45.7094703293077
          15 :    39.8164941473447
          16 :   -28.6523681383801
          17 :    13.9266210183304
          18 :    1.63924720356016
          19 :   -15.1288593510916
          20 :    24.3039321886578
          21 :   -28.1848159236674
          22 :    27.1198040370064
          23 :   -22.3880916864210
          24 :    15.5640858248669
          25 :   -7.96111465243951
          26 :   0.372217637859023
          27 :    6.84360397949553
          28 :   -13.4671919656851
          29 :    19.1282488358827
          30 :   -23.1969323227727
          31 :   -33.5591946977995
          32 :   -24.6211455371237

     Forces acting on atoms (Ry/au):

     negative rho (up, down):  1.590E+00 0.000E+00
     atom    1 type  1   force =     0.00036482    0.00020976    0.02844855
     atom    2 type  1   force =    -0.00037698    0.00022012    0.02837628
     atom    3 type  1   force =    -0.00000339   -0.00041203    0.02841234
     atom    4 type  1   force =    -0.00000392   -0.00000808    0.03821167
     atom    5 type  1   force =     0.00002461    0.02146673   -0.01342141
     atom    6 type  1   force =    -0.00001921   -0.00001137   -0.00329501
     atom    7 type  1   force =    -0.01860895   -0.01074110   -0.01340721
     atom    8 type  1   force =     0.01861837   -0.01070649   -0.01343566
     atom    9 type  1   force =    -0.00000981   -0.00000803    0.12405105
     atom   10 type  1   force =     0.00000170   -0.00226558   -0.03197201
     atom   11 type  1   force =    -0.00194485    0.00112310   -0.03198051
     atom   12 type  1   force =     0.00196254    0.00113295   -0.03205729
     atom   13 type  2   force =    -0.00000268    0.00000059   -0.09692196
     atom   14 type  3   force =    -0.00000226   -0.00000058   -0.01100885

     Total force =     0.167307     Total SCF correction =     0.004082

     entering subroutine stress ...

     negative rho (up, down):  1.590E+00 0.000E+00
          total   stress  (Ry/bohr**3)                   (kbar)     P=  -34.99
  -0.00020351  -0.00000001   0.00000001        -29.94     -0.00      0.00
  -0.00000001  -0.00020343   0.00000002         -0.00    -29.93      0.00
   0.00000001   0.00000002  -0.00030662          0.00      0.00    -45.11

     BFGS Geometry Optimization

     number of scf cycles    =   1
     number of bfgs steps    =   0

     energy   new            =   -2116.0334893852 Ry

     new trust radius        =       0.1240510513 bohr
     new conv_thr            =       0.0000099958 Ry

ATOMIC_POSITIONS (crystal)
Tc1      0.166666667   0.166666667   0.408540475    0   0   0
Tc1      0.666666667   0.166666667   0.408540475    0   0   0
Tc1      0.166666667   0.666666667   0.408540475    0   0   0
Tc1      0.666666667   0.666666667   0.408540475    0   0   0
Tc1      0.833333333   0.333333333   0.500000000    0   0   0
Tc1      0.333333333   0.333333333   0.500000000    0   0   0
Tc1      0.833333333   0.833333333   0.500000000    0   0   0
Tc1      0.333333333   0.833333333   0.500000000    0   0   0
Tc1     -0.000000499  -0.000000894   0.594141389
Tc1      0.500126391  -0.000252453   0.590768321
Tc1     -0.000250253   0.500125146   0.590768138
Tc1      0.500126265   0.500126244   0.590766478
C1      -0.000000292   0.000000066   0.666803013
H1      -0.000000185  -0.000000065   0.713599824

     Writing output data file calc.save
     Check: negative starting charge=   -1.504770
     NEW-OLD atomic charge density approx. for the potential

     Check: negative/imaginary core charge=   -0.000022    0.000000
     Check: negative starting charge=   -1.510950

[...]

     energy   old            =   -2116.0334893852 Ry
     energy   new            =   -2116.0501488788 Ry

     CASE: energy  _new < energy  _old

[...]

     iteration #  1     ecut=    36.75 Ry     beta=0.30
     Davidson diagonalization with overlap
     c_bands:  1 eigenvalues not converged
     ethr =  1.00E-06,  avg # of iterations =  9.8

[...]

     WARNING: bfgs curvature condition failed, Theta= 0.991
     new trust radius        =       0.0141825804 bohr
     new conv_thr            =       0.0000001000 Ry

[...]

     Total force =     0.009852     Total SCF correction =     0.000332

[...]

     Total force =     0.005294     Total SCF correction =     0.000725
     SCF correction compared to forces is large: reduce conv_thr to get better values

[...]

     number of scf cycles    =  13
     number of bfgs steps    =  12

     energy   old            =   -2116.0721054032 Ry
     energy   new            =   -2116.0724196134 Ry

     CASE: energy  _new < energy  _old

     new trust radius        =       0.0052652549 bohr
     new conv_thr            =       0.0000001000 Ry

ATOMIC_POSITIONS (crystal)
Tc1      0.166666667   0.166666667   0.408540475    0   0   0
Tc1      0.666666667   0.166666667   0.408540475    0   0   0
Tc1      0.166666667   0.666666667   0.408540475    0   0   0
Tc1      0.666666667   0.666666667   0.408540475    0   0   0
Tc1      0.833333333   0.333333333   0.500000000    0   0   0
Tc1      0.333333333   0.333333333   0.500000000    0   0   0
Tc1      0.833333333   0.833333333   0.500000000    0   0   0
Tc1      0.333333333   0.833333333   0.500000000    0   0   0
Tc1      0.000000830   0.000005660   0.603643152
Tc1      0.500680270  -0.001365027   0.586457326
Tc1     -0.001369420   0.500679259   0.586457531
Tc1      0.500686881   0.500681159   0.586458485
C1      -0.000000310   0.000000145   0.674921732
H1      -0.000000779   0.000000932   0.719493929

     Writing output data file calc.save
     Check: negative starting charge=   -1.510540
     NEW-OLD atomic charge density approx. for the potential

     Check: negative/imaginary core charge=   -0.000022    0.000000
     Check: negative starting charge=   -1.510829

[...]

     Self-consistent Calculation

[...]

     total energy              =   -2116.07243677 Ry
     Harris-Foulkes estimate   =   -2116.07243669 Ry
     estimated scf accuracy    <       0.00000018 Ry

     iteration # 11     ecut=    36.75 Ry     beta=0.30
     Davidson diagonalization with overlap
     ethr =  9.51E-11,  avg # of iterations =  4.2

[...]

     negative rho (up, down):  1.596E+00 0.000E+00

     Adding external electric field

     Computed dipole along edir(3) :
        Dipole                0.2089 Ry au,          0.5309 Debye
        Dipole field          0.0006 Ry au

        Potential amp.       -0.0550 Ry
        Total length         45.0992 bohr

     End of self-consistent calculation

[...]

          k = 0.0608-0.0702 0.0000 ( 16203 PWs)   bands (ev):

[...]

          k =-0.0912-0.0526 0.0000 ( 16164 PWs)   bands (ev):

   -64.3919 -64.3476 -64.2875 -64.2685 -64.2081 -64.1382 -64.1256 -64.1063
   -64.0758 -64.0750 -64.0528 -64.0480 -36.7637 -36.7323 -36.6995 -36.6622
   -36.6132 -36.5562 -36.5178 -36.5003 -36.4620 -36.4266 -36.3891 -36.3700
   -36.3131 -36.1636 -36.1510 -36.1347 -36.1282 -36.1178 -36.1115 -36.0937
   -36.0927 -36.0712 -36.0632 -36.0434 -36.0175 -36.0148 -36.0029 -36.0008
   -35.9342 -35.8882 -35.8560 -35.8317 -35.7983 -35.7759 -35.7512 -35.7366
    -7.9907  -2.8509  -2.1128  -1.9741  -1.5391  -1.4204  -1.3783  -1.3017
    -1.1597  -1.1548  -0.9228  -0.9196  -0.8034  -0.6167  -0.5708  -0.4801
    -0.3985  -0.2509  -0.1440   0.0786   0.1231   0.3217   0.3311   0.3947
     0.6161   0.6823   0.8150   1.0149   1.0915   1.0920   1.3439   1.3709
     1.4647   1.4704   1.5740   1.5885   1.6159   1.6403   1.7721   1.8108
     1.8590   1.9171   2.5194   2.6387   2.6429   2.8639   2.8703   3.0492
     3.1193   3.3097   3.3172   3.4269   3.5224   3.5407

     the Fermi energy is     2.8247 ev

!    total energy              =   -2116.07243677 Ry
     Harris-Foulkes estimate   =   -2116.07243740 Ry
     estimated scf accuracy    <       0.00000004 Ry

     The total energy is the sum of the following terms:

     one-electron contribution =  -18886.13921494 Ry
     hartree contribution      =    9445.86600475 Ry
     xc contribution           =    -401.44508360 Ry
     ewald contribution        =    7725.73338967 Ry
     electric field correction =       0.00012744 Ry
     smearing contrib. (-TS)   =      -0.08766009 Ry

     convergence has been achieved in  11 iterations

 BEEF-vdW xc energy contributions
           1 :   -351.635939182667
           2 :    323.226635404980
           3 :   -272.781846739591
           4 :    210.465423054246
           5 :   -147.027835698642
           6 :    90.8966281357706
           7 :   -46.5803240071932
           8 :    14.5704134658623
           9 :    7.42012263433037
          10 :   -22.6489938428653
          11 :    33.6992480088197
          12 :   -41.6201230993498
          13 :    45.9785646304477
          14 :   -45.6386320523126
          15 :    39.7817249727917
          16 :   -28.7137239049198
          17 :    14.1086880746138
          18 :    1.36045845914140
          19 :   -14.8231861294245
          20 :    24.0646688456117
          21 :   -28.0876236931837
          22 :    27.1831074252405
          23 :   -22.5585831009985
          24 :    15.7400570699828
          25 :   -8.04255734299153
          26 :   0.311347055689282
          27 :    7.01898080052518
          28 :   -13.6700805697713
          29 :    19.2566126269440
          30 :   -23.1840954115025
          31 :   -33.5707273778767
          32 :   -24.6321237670399

     Forces acting on atoms (Ry/au):

     negative rho (up, down):  1.596E+00 0.000E+00
     atom    1 type  1   force =    -0.00015819   -0.00009220    0.02383195
     atom    2 type  1   force =     0.00015786   -0.00009260    0.02383396
     atom    3 type  1   force =    -0.00000034    0.00018296    0.02383096
     atom    4 type  1   force =     0.00000009    0.00000083    0.03541116
     atom    5 type  1   force =     0.00000350    0.01952282   -0.02641373
     atom    6 type  1   force =    -0.00000339    0.00000332   -0.02704246
     atom    7 type  1   force =    -0.01690603   -0.00976474   -0.02641335
     atom    8 type  1   force =     0.01690604   -0.00976058   -0.02641700
     atom    9 type  1   force =    -0.00000954   -0.00001716   -0.00010501
     atom   10 type  1   force =     0.00000753   -0.00180218   -0.00021812
     atom   11 type  1   force =    -0.00154565    0.00091299   -0.00021941
     atom   12 type  1   force =     0.00154741    0.00090539   -0.00022656
     atom   13 type  2   force =     0.00000131    0.00000208    0.00101406
     atom   14 type  3   force =    -0.00000060   -0.00000094   -0.00086646

     Total force =     0.003409     Total SCF correction =     0.000383
     SCF correction compared to forces is large: reduce conv_thr to get better values

     entering subroutine stress ...

     negative rho (up, down):  1.596E+00 0.000E+00
          total   stress  (Ry/bohr**3)                   (kbar)     P=  -25.10
  -0.00019456   0.00000000   0.00000000        -28.62      0.00      0.00
   0.00000000  -0.00019455  -0.00000000          0.00    -28.62     -0.00
   0.00000000  -0.00000000  -0.00012280          0.00     -0.00    -18.06

     bfgs converged in  14 scf cycles and  13 bfgs steps
     (criteria: energy <  1.0E+00, force <  1.9E-03)

     End of BFGS Geometry Optimization

     Final energy   =   -2116.0724367658 Ry
Begin final coordinates

ATOMIC_POSITIONS (crystal)
Tc1      0.166666667   0.166666667   0.408540475    0   0   0
Tc1      0.666666667   0.166666667   0.408540475    0   0   0
Tc1      0.166666667   0.666666667   0.408540475    0   0   0
Tc1      0.666666667   0.666666667   0.408540475    0   0   0
Tc1      0.833333333   0.333333333   0.500000000    0   0   0
Tc1      0.333333333   0.333333333   0.500000000    0   0   0
Tc1      0.833333333   0.833333333   0.500000000    0   0   0
Tc1      0.333333333   0.833333333   0.500000000    0   0   0
Tc1      0.000000830   0.000005660   0.603643152
Tc1      0.500680270  -0.001365027   0.586457326
Tc1     -0.001369420   0.500679259   0.586457531
Tc1      0.500686881   0.500681159   0.586458485
C1      -0.000000310   0.000000145   0.674921732
H1      -0.000000779   0.000000932   0.719493929
End final coordinates

     Writing output data file calc.save

     General routines

     Parallel routines

   This run was terminated on:  12:58:14  23Apr2018

   JOB DONE.
Job  /afs/slac/g/suncat/bin/suncat-tsmpirun -x LD_LIBRARY_PATH -wdir /scratch/qe134045_p72WN pw.x -npool 3 -in pw.inp

TID   HOST_NAME   COMMAND_LINE            STATUS            TERMINATION_TIME
00000 suncat1050 pw.x -npool 3 -i  Done                     04/23/2018 12:58:14
00001 suncat1050 pw.x -npool 3 -i  Done                     04/23/2018 12:58:14
00002 suncat1050 pw.x -npool 3 -i  Done                     04/23/2018 12:58:14
00003 suncat1050 pw.x -npool 3 -i  Done                     04/23/2018 12:58:14
00004 suncat1050 pw.x -npool 3 -i  Done                     04/23/2018 12:58:14
00005 suncat1050 pw.x -npool 3 -i  Done                     04/23/2018 12:58:14
00006 suncat1050 pw.x -npool 3 -i  Done                     04/23/2018 12:58:14
00007 suncat1050 pw.x -npool 3 -i  Done                     04/23/2018 12:58:14
00008 suncat1050 pw.x -npool 3 -i  Done                     04/23/2018 12:58:14
00009 suncat1050 pw.x -npool 3 -i  Done                     04/23/2018 12:58:14
00010 suncat1050 pw.x -npool 3 -i  Done                     04/23/2018 12:58:14
00011 suncat1050 pw.x -npool 3 -i  Done                     04/23/2018 12:58:14
00012 suncat1017 pw.x -npool 3 -i  Done                     04/23/2018 12:58:14
00013 suncat1017 pw.x -npool 3 -i  Done                     04/23/2018 12:58:14
00014 suncat1017 pw.x -npool 3 -i  Done                     04/23/2018 12:58:14
00015 suncat1017 pw.x -npool 3 -i  Done                     04/23/2018 12:58:14
00016 suncat1017 pw.x -npool 3 -i  Done                     04/23/2018 12:58:14
00017 suncat1017 pw.x -npool 3 -i  Done                     04/23/2018 12:58:14
00018 suncat1017 pw.x -npool 3 -i  Done                     04/23/2018 12:58:14
00019 suncat1017 pw.x -npool 3 -i  Done                     04/23/2018 12:58:14
00020 suncat1017 pw.x -npool 3 -i  Done                     04/23/2018 12:58:14
00021 suncat1017 pw.x -npool 3 -i  Done                     04/23/2018 12:58:14
00022 suncat1017 pw.x -npool 3 -i  Done                     04/23/2018 12:58:14
00023 suncat1017 pw.x -npool 3 -i  Done                     04/23/2018 12:58:14
00024 suncat1016 pw.x -npool 3 -i  Done                     04/23/2018 12:58:14
00025 suncat1016 pw.x -npool 3 -i  Done                     04/23/2018 12:58:14
00026 suncat1016 pw.x -npool 3 -i  Done                     04/23/2018 12:58:14
00027 suncat1016 pw.x -npool 3 -i  Done                     04/23/2018 12:58:14
00028 suncat1016 pw.x -npool 3 -i  Done                     04/23/2018 12:58:14
00029 suncat1016 pw.x -npool 3 -i  Done                     04/23/2018 12:58:14
00030 suncat1016 pw.x -npool 3 -i  Done                     04/23/2018 12:58:14
00031 suncat1016 pw.x -npool 3 -i  Done                     04/23/2018 12:58:14
00032 suncat1016 pw.x -npool 3 -i  Done                     04/23/2018 12:58:14
00033 suncat1016 pw.x -npool 3 -i  Done                     04/23/2018 12:58:14
00034 suncat1016 pw.x -npool 3 -i  Done                     04/23/2018 12:58:14
00035 suncat1016 pw.x -npool 3 -i  Done                     04/23/2018 12:58:14