     Program PWSCF v.5.1rc2 (svn rev. 11289) starts on  3May2018 at  7:29:41

     Current dimensions of program PWSCF are:
     Max number of different atomic species (ntypx) = 10
     Max number of k-points (npk) =  40000
     Max angular momentum in pseudopotentials (lmaxx) =  3
     Presently stress not available with electric field

     IMPORTANT: XC functional enforced from input :
     Exchange-correlation      = BEEF-VDW ( 1  4 27 13 2)
     Any further DFT definition will be discarded
     Please, verify this is what you really want

     Subspace diagonalization in iterative solution of the eigenvalue problem:
     a serial algorithm will be used

     bravais-lattice index     =            0
     lattice parameter (alat)  =       1.8897  a.u.
     unit-cell volume          =    5185.0501 (a.u.)^3
     number of atoms/cell      =           13
     number of atomic types    =            2
     number of electrons       =       162.00
     number of Kohn-Sham states=           91
     kinetic-energy cutoff     =      36.7493  Ry
     charge density cutoff     =     367.4932  Ry
     convergence threshold     =      1.0E-05
     mixing beta               =       0.3000
     number of iterations used =           10  plain     mixing
     Exchange-correlation      = BEEF-VDW ( 1  4 27 13 2)
     nstep                     =           50

     celldm(1)=   1.889726  celldm(2)=   0.000000  celldm(3)=   0.000000
     celldm(4)=   0.000000  celldm(5)=   0.000000  celldm(6)=   0.000000

     crystal axes: (cart. coord. in units of alat)
               a(1) = (   5.972022   0.000000   0.000000 )
               a(2) = (   2.986011   5.171923   0.000000 )
               a(3) = (   0.000000   0.000000  24.876136 )

     reciprocal axes: (cart. coord. in units 2 pi/alat)
               b(1) = (  0.167447 -0.096676  0.000000 )
               b(2) = (  0.000000  0.193352  0.000000 )
               b(3) = (  0.000000  0.000000  0.040199 )

     PseudoPot. # 1 for Ta read from file:
     /u/if/mamunm/psp/gbrv1.5pbe/Ta.UPF
     MD5 check sum: f8bbe9446314a3b8ea5d9f3e3836c939
     Pseudo is Ultrasoft + core correction, Zval = 13.0
     Generated by new atomic code, or converted to UPF format
     Using radial grid of  921 points,  7 beta functions with:
                l(1) =   0
                l(2) =   0
                l(3) =   1
                l(4) =   1
                l(5) =   2
                l(6) =   2
                l(7) =   3
     Q(r) pseudized with  6 coefficients,  rinner =    1.300   1.300   1.300
                                                       1.300   1.300   1.300
                                                       1.300

     PseudoPot. # 2 for S  read from file:
     /u/if/mamunm/psp/gbrv1.5pbe/S.UPF
     MD5 check sum: 88d86576ff6df21479756cfb9bdac1df
     Pseudo is Ultrasoft + core correction, Zval =  6.0
     Generated by new atomic code, or converted to UPF format
     Using radial grid of  907 points,  6 beta functions with:
                l(1) =   0
                l(2) =   0
                l(3) =   1
                l(4) =   1
                l(5) =   2
                l(6) =   2
     Q(r) pseudized with  8 coefficients,  rinner =    1.300   1.300   1.300
                                                       1.300   1.300

     vdW kernel table read from file vdW_kernel_table
     MD5 check sum: 095c7af220d748ca6e76c0b4c6cfb241

     atomic species   valence    mass     pseudopotential
        Ta1           13.00   180.94788     Ta( 1.00)
        S1             6.00    32.06000     S ( 1.00)

     No symmetry found

   Cartesian axes

     site n.     atom                  positions (alat units)
         1           Ta1 tau(   1) = (   1.4930055   0.8619871  10.0000000  )
         2           Ta1 tau(   2) = (   4.4790165   0.8619871  10.0000000  )
         3           Ta1 tau(   3) = (   2.9860110   3.4479485  10.0000000  )
         4           Ta1 tau(   4) = (   5.9720221   3.4479485  10.0000000  )
         5           Ta1 tau(   5) = (   5.9720221   1.7239743  12.4380678  )
         6           Ta1 tau(   6) = (   2.9860110   1.7239743  12.4380678  )
         7           Ta1 tau(   7) = (   7.4650276   4.3099357  12.4380678  )
         8           Ta1 tau(   8) = (   4.4790165   4.3099357  12.4380678  )
         9           Ta1 tau(   9) = (   0.0000000   0.0000000  14.8761356  )
        10           Ta1 tau(  10) = (   2.9860110   0.0000000  14.8761356  )
        11           Ta1 tau(  11) = (   1.4930055   2.5859614  14.8761356  )
        12           Ta1 tau(  12) = (   4.4790165   2.5859614  14.8761356  )
        13           S1  tau(  13) = (   2.9860110   1.7239743  16.6636356  )

     number of k points=    20  Fermi-Dirac smearing, width (Ry)=  0.0110
                       cart. coord. in units 2pi/alat
        k(    1) = (   0.0000000   0.0000000   0.0000000), wk =   0.0555556
        k(    2) = (   0.0000000   0.0322253   0.0000000), wk =   0.1111111
        k(    3) = (   0.0000000   0.0644506   0.0000000), wk =   0.1111111
        k(    4) = (   0.0000000  -0.0966758   0.0000000), wk =   0.0555556
        k(    5) = (   0.0279079  -0.0161126   0.0000000), wk =   0.1111111
        k(    6) = (   0.0279079   0.0161126   0.0000000), wk =   0.1111111
        k(    7) = (   0.0279079   0.0483379   0.0000000), wk =   0.1111111
        k(    8) = (   0.0279079  -0.1127885   0.0000000), wk =   0.1111111
        k(    9) = (   0.0279079  -0.0805632   0.0000000), wk =   0.1111111
        k(   10) = (   0.0279079  -0.0483379   0.0000000), wk =   0.1111111
        k(   11) = (   0.0558158  -0.0322253   0.0000000), wk =   0.1111111
        k(   12) = (   0.0558158   0.0000000   0.0000000), wk =   0.1111111
        k(   13) = (   0.0558158   0.0322253   0.0000000), wk =   0.1111111
        k(   14) = (   0.0558158  -0.1289011   0.0000000), wk =   0.1111111
        k(   15) = (   0.0558158  -0.0966758   0.0000000), wk =   0.1111111
        k(   16) = (   0.0558158  -0.0644506   0.0000000), wk =   0.1111111
        k(   17) = (  -0.0837237   0.0483379   0.0000000), wk =   0.0555556
        k(   18) = (  -0.0837237   0.0805632   0.0000000), wk =   0.1111111
        k(   19) = (  -0.0837237   0.1127885   0.0000000), wk =   0.1111111
        k(   20) = (  -0.0837237  -0.0483379   0.0000000), wk =   0.0555556

     Largest allocated arrays     est. size (Mb)     dimensions
     Largest temporary arrays     est. size (Mb)     dimensions

     Initial potential from superposition of free atoms
     Check: negative starting charge=   -1.121420

     starting charge  161.98662, renormalised to  162.00000

     negative rho (up, down):  1.122E+00 0.000E+00

     *
     * You are using vdW-DF for exchange-correlation in this calculation.
     * Please cite the following three references that made this development
     * possible:
     *
     *   M. Dion, H. Rydberg, E. Schroder, D. C. Langreth, and
     *   B. I. Lundqvist, Phys. Rev. Lett. 92, 246401 (2004).
     *
     *   T. Thonhauser, V. R. Cooper, S. Li, A. Puzder, P. Hyldgaard, and
     *   D. C. Langreth, Phys. Rev. B 76, 125112 (2007).
     *
     *   G. Roman-Perez and J. M. Soler, Phys. Rev. Lett. 103, 096102 (2009).
     *
     *
     * If you are using vdW-DF2, please also cite:
     *
     *   K. Lee, E. D. Murray, L. Kong, B. I. Lundqvist, and
     *   D. C. Langreth, Phys. Rev. B 82, 081101(R) (2010).
     *
     *
     * If you are calculating the stress with vdW-DF, please also cite:
     *
     *   R. Sabatini, E. Kucukbenli, B. Kolb, T. Thonhauser, and
     *   S. de Gironcoli, J. Phys.: Condens. Matter 24, 424209 (2012).
     *

     Carrying out vdW-DF run using the following parameters:

     Nqs =      20    Nr_points =    1024   r_max =   100.000
     q_mesh =
               0.00001000     0.04494208     0.09755937     0.15916263
               0.23128650     0.31572767     0.41458969     0.53033537
               0.66584808     0.82450364     1.01025438     1.22772762
               1.48234092     1.78043706     2.12944203     2.53805004
               3.01644009     3.57652955     4.23227104     5.00000000

     Gradients computed in reciprocal space

     Adding external electric field

     Computed dipole along edir(3) :
        Dipole               -0.0037 Ry au,         -0.0093 Debye
        Dipole field         -0.0000 Ry au

        Potential amp.        0.0008 Ry
        Total length         45.8339 bohr

     Starting wfc are  160 randomized atomic wfcs

     Self-consistent Calculation

     iteration #  1     ecut=    36.75 Ry     beta=0.30
     Davidson diagonalization with overlap
     ethr =  1.00E-02,  avg # of iterations =  2.0

[...]

     total energy              =   -1741.01243092 Ry
     Harris-Foulkes estimate   =   -1743.25084628 Ry
     estimated scf accuracy    <       4.80993797 Ry

[...]

     End of self-consistent calculation

          k = 0.0000 0.0000 0.0000 ( 19447 PWs)   bands (ev):

   -66.1909 -66.1747 -66.1295 -66.1185 -66.1184 -66.1124 -66.0974 -66.0973
   -66.0683 -66.0245 -66.0183 -66.0183 -32.9176 -32.9051 -32.9051 -32.8747
   -32.8524 -32.8524 -32.8518 -32.8130 -32.8088 -32.8088 -32.6199 -32.5270
   -32.5018 -32.5017 -32.4500 -32.4345 -32.4344 -32.3185 -32.3185 -32.3107
   -32.2563 -32.2563 -32.2466 -32.2284 -32.2155 -32.2155 -32.1730 -32.1550
   -32.1550 -32.1546 -32.1122 -32.1122 -32.0792 -32.0791 -32.0122 -32.0122
   -10.9271  -5.2739  -3.7105  -2.7736  -2.4162  -2.4162  -2.2206  -1.9480
    -1.8460  -1.8460  -1.4283  -1.4283  -1.3919  -0.8549  -0.8549  -0.8125
    -0.5521  -0.5521  -0.2877   0.5184   0.5184   0.7653   1.4831   1.7178
     1.7178   1.9343   2.0757   2.1384   2.3643   2.3643   2.3975   2.5255
     2.5255   2.7751   2.7751   2.8436   2.8718   2.8817   2.8817   2.9618
     2.9618   3.2091   3.2092

[...]

          k =-0.0837 0.0483 0.0000 ( 19532 PWs)   bands (ev):

[...]

     the Fermi energy is     2.1446 ev

!    total energy              =   -1742.90219222 Ry
     Harris-Foulkes estimate   =   -1742.90218937 Ry
     estimated scf accuracy    <       0.00000228 Ry

     The total energy is the sum of the following terms:

     one-electron contribution =  -11718.23622288 Ry
     hartree contribution      =    5844.19554265 Ry
     xc contribution           =    -531.67798355 Ry
     ewald contribution        =    4662.92273557 Ry
     electric field correction =       0.00000997 Ry
     smearing contrib. (-TS)   =      -0.10627397 Ry

     convergence has been achieved in  13 iterations

 BEEF-vdW xc energy contributions
           1 :   -467.881505134702
           2 :    431.688658000431
           3 :   -368.499271611014
           4 :    292.918458108500
           5 :   -219.622516690724
           6 :    158.866839913055
           7 :   -114.415453611135
           8 :    84.3078513844175
           9 :   -63.5893108243354
          10 :    47.4092131528411
          11 :   -33.0322668174107
          12 :    20.1347886204552
          13 :   -9.74443470352281
          14 :    2.77875624946768
          15 :   0.898098108363797
          16 :   -2.49390877407558
          17 :    3.57790571674042
          18 :   -5.20553690612803
          19 :    7.43957673427923
          20 :   -9.51314103575129
          21 :    10.4711506241732
          22 :   -9.86164767661961
          23 :    8.05770988170775
          24 :   -6.04584750977273
          25 :    4.84794610178034
          26 :   -4.94855386196383
          27 :    6.06680498401357
          28 :   -7.38254402462502
          29 :    8.04985937162064
          30 :   -7.67463107365671
          31 :   -41.9823258953934
          32 :   -31.1332183701794

     Forces acting on atoms (Ry/au):

     negative rho (up, down):  1.177E+00 0.000E+00
     atom    1 type  1   force =    -0.00016861   -0.00009820    0.00372986
     atom    2 type  1   force =     0.00017244   -0.00009586    0.00372679
     atom    3 type  1   force =     0.00000472    0.00019435    0.00372528
     atom    4 type  1   force =    -0.00000488    0.00000344    0.00149655
     atom    5 type  1   force =    -0.00001367    0.00037501   -0.00389344
     atom    6 type  1   force =     0.00000796    0.00000740    0.00275651
     atom    7 type  1   force =    -0.00031680   -0.00018846   -0.00390762
     atom    8 type  1   force =     0.00031574   -0.00019589   -0.00389330
     atom    9 type  1   force =     0.00000030   -0.00000371   -0.04020339
     atom   10 type  1   force =     0.00000018   -0.03098382    0.01457837
     atom   11 type  1   force =    -0.02682790    0.01549068    0.01457476
     atom   12 type  1   force =     0.02682831    0.01549065    0.01457238
     atom   13 type  2   force =     0.00000219    0.00000440   -0.00726275

     Total force =     0.072012     Total SCF correction =     0.000832

     entering subroutine stress ...

     negative rho (up, down):  1.177E+00 0.000E+00
          total   stress  (Ry/bohr**3)                   (kbar)     P=  -27.88
  -0.00025073  -0.00000001   0.00000000        -36.88     -0.00      0.00
  -0.00000001  -0.00025072   0.00000000         -0.00    -36.88      0.00
   0.00000000   0.00000000  -0.00006714          0.00      0.00     -9.88

     BFGS Geometry Optimization

     number of scf cycles    =   1
     number of bfgs steps    =   0

     energy   new            =   -1742.9021922167 Ry

     new trust radius        =       0.0402033892 bohr
     new conv_thr            =       0.0000099958 Ry

ATOMIC_POSITIONS (crystal)
Ta1      0.166666667   0.166666667   0.401991699    0   0   0
Ta1      0.666666667   0.166666667   0.401991699    0   0   0
Ta1      0.166666667   0.666666667   0.401991699    0   0   0
Ta1      0.666666667   0.666666667   0.401991699    0   0   0
Ta1      0.833333333   0.333333333   0.500000000    0   0   0
Ta1      0.333333333   0.333333333   0.500000000    0   0   0
Ta1      0.833333333   0.833333333   0.500000000    0   0   0
Ta1      0.333333333   0.833333333   0.500000000    0   0   0
Ta1      0.000000217  -0.000000379   0.597153075
Ta1      0.501585107  -0.003170182   0.598318420
Ta1     -0.003169686   0.501584965   0.598318343
Ta1      0.501584759   0.501584962   0.598318292
S1       0.333333303   0.333333783   0.669709821

     Writing output data file calc.save
     Check: negative starting charge=   -1.121420
     NEW-OLD atomic charge density approx. for the potential
     Check: negative starting charge=   -1.123060

[...]

     energy   old            =   -1742.9021922167 Ry
     energy   new            =   -1742.9068779031 Ry

     CASE: energy  _new < energy  _old

     WARNING: bfgs curvature condition failed, Theta= 0.995
     new trust radius        =       0.0442237281 bohr
     new conv_thr            =       0.0000001000 Ry

[...]

     Total force =     0.003372     Total SCF correction =     0.000754
     SCF correction compared to forces is large: reduce conv_thr to get better values

[...]

     number of scf cycles    =  10
     number of bfgs steps    =   9

     energy   old            =   -1742.9265716615 Ry
     energy   new            =   -1742.9268200608 Ry

     CASE: energy  _new < energy  _old

     new trust radius        =       0.0027544283 bohr
     new conv_thr            =       0.0000001000 Ry

ATOMIC_POSITIONS (crystal)
Ta1      0.166666667   0.166666667   0.401991699    0   0   0
Ta1      0.666666667   0.166666667   0.401991699    0   0   0
Ta1      0.166666667   0.666666667   0.401991699    0   0   0
Ta1      0.666666667   0.666666667   0.401991699    0   0   0
Ta1      0.833333333   0.333333333   0.500000000    0   0   0
Ta1      0.333333333   0.333333333   0.500000000    0   0   0
Ta1      0.833333333   0.833333333   0.500000000    0   0   0
Ta1      0.333333333   0.833333333   0.500000000    0   0   0
Ta1      0.000000529  -0.000000770   0.585579897
Ta1      0.505034027  -0.010068237   0.601136944
Ta1     -0.010067733   0.505033640   0.601136824
Ta1      0.505034106   0.505033790   0.601136706
S1       0.333333698   0.333333823   0.670271595

     Writing output data file calc.save
     Check: negative starting charge=   -1.124066
     NEW-OLD atomic charge density approx. for the potential
     Check: negative starting charge=   -1.124081

[...]

     Self-consistent Calculation

[...]

     Threshold (ethr) on eigenvalues was too large:
     Diagonalizing with lowered threshold

     Davidson diagonalization with overlap
     ethr =  1.02E-08,  avg # of iterations =  2.9

[...]

     total energy              =   -1742.92682856 Ry
     Harris-Foulkes estimate   =   -1742.92682861 Ry
     estimated scf accuracy    <       0.00000035 Ry

     iteration #  6     ecut=    36.75 Ry     beta=0.30
     Davidson diagonalization with overlap
     ethr =  2.15E-10,  avg # of iterations =  3.1

[...]

     negative rho (up, down):  1.180E+00 0.000E+00

     Adding external electric field

     Computed dipole along edir(3) :
        Dipole               -0.0773 Ry au,         -0.1966 Debye
        Dipole field         -0.0002 Ry au

        Potential amp.        0.0172 Ry
        Total length         45.8339 bohr

     End of self-consistent calculation

[...]

          k = 0.0558-0.0645 0.0000 ( 19521 PWs)   bands (ev):

[...]

          k =-0.0837-0.0483 0.0000 ( 19532 PWs)   bands (ev):

   -66.1878 -66.1730 -66.1663 -66.1647 -66.1537 -66.1403 -66.1356 -66.1294
   -66.0156 -65.9961 -65.9818 -65.8742 -32.8231 -32.7934 -32.7744 -32.7706
   -32.7670 -32.7591 -32.7118 -32.6657 -32.6624 -32.6599 -32.6191 -32.5948
   -32.5600 -32.4999 -32.4899 -32.4722 -32.4513 -32.4355 -32.4209 -32.4140
   -32.4020 -32.3927 -32.3265 -32.3117 -32.3072 -32.2827 -32.2380 -32.2352
   -32.2215 -32.1989 -32.1850 -32.1225 -32.1019 -32.0391 -31.9661 -31.9436
   -10.9164  -3.6431  -3.4917  -2.5478  -2.2815  -1.9223  -1.6687  -1.4675
    -1.1822  -1.1323  -0.9449  -0.7624  -0.7105  -0.5433  -0.0638   0.0203
     0.2111   0.2248   0.3783   0.4673   0.6370   0.7780   0.8644   0.8843
     1.0152   1.0794   1.3000   1.3920   1.4617   1.5053   1.5528   1.6283
     1.6780   1.7704   2.0001   2.1107   2.3722   2.3899   2.5461   2.7240
     2.8514   3.1381   3.4859

     the Fermi energy is     2.1153 ev

!    total energy              =   -1742.92682856 Ry
     Harris-Foulkes estimate   =   -1742.92682857 Ry
     estimated scf accuracy    <       0.00000004 Ry

     The total energy is the sum of the following terms:

     one-electron contribution =  -11739.34607228 Ry
     hartree contribution      =    5854.73816902 Ry
     xc contribution           =    -531.76793123 Ry
     ewald contribution        =    4673.54795505 Ry
     electric field correction =       0.00001450 Ry
     smearing contrib. (-TS)   =      -0.09896361 Ry

     convergence has been achieved in   6 iterations

 BEEF-vdW xc energy contributions
           1 :   -467.971072177516
           2 :    431.785640930659
           3 :   -368.598346514357
           4 :    292.996477205536
           5 :   -219.645823105585
           6 :    158.807495300767
           7 :   -114.266890063840
           8 :    84.0917875929541
           9 :   -63.3507461028961
          10 :    47.2000465947944
          11 :   -32.8879904052060
          12 :    20.0544516156506
          13 :   -9.68697451484502
          14 :    2.68301055689801
          15 :    1.07712175189045
          16 :   -2.75438108864148
          17 :    3.86816326057397
          18 :   -5.45356153624988
          19 :    7.59757583120313
          20 :   -9.58805283144500
          21 :    10.5201658696203
          22 :   -9.95554257319122
          23 :    8.23595530605235
          24 :   -6.29164608625058
          25 :    5.09764662882583
          26 :   -5.12853639581505
          27 :    6.13562858063801
          28 :   -7.35443154406562
          29 :    7.98683895125964
          30 :   -7.65228871773320
          31 :   -41.9877587603216
          32 :   -31.1370123531727

     Forces acting on atoms (Ry/au):

     negative rho (up, down):  1.180E+00 0.000E+00
     atom    1 type  1   force =     0.00227500    0.00131347    0.00404999
     atom    2 type  1   force =    -0.00227501    0.00131347    0.00404996
     atom    3 type  1   force =    -0.00000000   -0.00262691    0.00404994
     atom    4 type  1   force =     0.00000004    0.00000004    0.00138618
     atom    5 type  1   force =     0.00000006    0.02460317   -0.01717843
     atom    6 type  1   force =    -0.00000005   -0.00000012    0.03579679
     atom    7 type  1   force =    -0.02130750   -0.01230162   -0.01717837
     atom    8 type  1   force =     0.02130750   -0.01230155   -0.01717886
     atom    9 type  1   force =    -0.00000018    0.00000057    0.00024199
     atom   10 type  1   force =     0.00000024   -0.00076148    0.00007630
     atom   11 type  1   force =    -0.00065970    0.00038079    0.00007686
     atom   12 type  1   force =     0.00065999    0.00038069    0.00007746
     atom   13 type  2   force =    -0.00000037   -0.00000052    0.00173020

     Total force =     0.002193     Total SCF correction =     0.000156

     entering subroutine stress ...

     negative rho (up, down):  1.180E+00 0.000E+00
          total   stress  (Ry/bohr**3)                   (kbar)     P=  -24.96
  -0.00022619   0.00000000  -0.00000000        -33.27      0.00     -0.00
   0.00000000  -0.00022620  -0.00000000          0.00    -33.27     -0.00
  -0.00000000  -0.00000000  -0.00005669         -0.00     -0.00     -8.34

     bfgs converged in  11 scf cycles and  10 bfgs steps
     (criteria: energy <  1.0E+00, force <  1.9E-03)

     End of BFGS Geometry Optimization

     Final energy   =   -1742.9268285592 Ry
Begin final coordinates

ATOMIC_POSITIONS (crystal)
Ta1      0.166666667   0.166666667   0.401991699    0   0   0
Ta1      0.666666667   0.166666667   0.401991699    0   0   0
Ta1      0.166666667   0.666666667   0.401991699    0   0   0
Ta1      0.666666667   0.666666667   0.401991699    0   0   0
Ta1      0.833333333   0.333333333   0.500000000    0   0   0
Ta1      0.333333333   0.333333333   0.500000000    0   0   0
Ta1      0.833333333   0.833333333   0.500000000    0   0   0
Ta1      0.333333333   0.833333333   0.500000000    0   0   0
Ta1      0.000000529  -0.000000770   0.585579897
Ta1      0.505034027  -0.010068237   0.601136944
Ta1     -0.010067733   0.505033640   0.601136824
Ta1      0.505034106   0.505033790   0.601136706
S1       0.333333698   0.333333823   0.670271595
End final coordinates

     Writing output data file calc.save

     General routines

     Parallel routines

   This run was terminated on:   9:12: 7   3May2018

   JOB DONE.
Job  /afs/slac/g/suncat/bin/suncat-tsmpirun -x LD_LIBRARY_PATH -wdir /scratch/qe667658_MFfhq pw.x -npool 4 -in pw.inp

TID   HOST_NAME   COMMAND_LINE            STATUS            TERMINATION_TIME
00000 suncat0159 pw.x -npool 4 -i  Done                     05/03/2018 09:12:07
00001 suncat0159 pw.x -npool 4 -i  Done                     05/03/2018 09:12:07
00002 suncat0159 pw.x -npool 4 -i  Done                     05/03/2018 09:12:07
00003 suncat0159 pw.x -npool 4 -i  Done                     05/03/2018 09:12:07
00004 suncat0159 pw.x -npool 4 -i  Done                     05/03/2018 09:12:07
00005 suncat0159 pw.x -npool 4 -i  Done                     05/03/2018 09:12:07
00006 suncat0159 pw.x -npool 4 -i  Done                     05/03/2018 09:12:07
00007 suncat0159 pw.x -npool 4 -i  Done                     05/03/2018 09:12:07
00008 suncat0151 pw.x -npool 4 -i  Done                     05/03/2018 09:12:07
00009 suncat0151 pw.x -npool 4 -i  Done                     05/03/2018 09:12:07
00010 suncat0151 pw.x -npool 4 -i  Done                     05/03/2018 09:12:07
00011 suncat0151 pw.x -npool 4 -i  Done                     05/03/2018 09:12:07
00012 suncat0151 pw.x -npool 4 -i  Done                     05/03/2018 09:12:07
00013 suncat0151 pw.x -npool 4 -i  Done                     05/03/2018 09:12:07
00014 suncat0151 pw.x -npool 4 -i  Done                     05/03/2018 09:12:07
00015 suncat0151 pw.x -npool 4 -i  Done                     05/03/2018 09:12:07
00016 suncat0105 pw.x -npool 4 -i  Done                     05/03/2018 09:12:07
00017 suncat0105 pw.x -npool 4 -i  Done                     05/03/2018 09:12:07
00018 suncat0105 pw.x -npool 4 -i  Done                     05/03/2018 09:12:07
00019 suncat0105 pw.x -npool 4 -i  Done                     05/03/2018 09:12:07
00020 suncat0105 pw.x -npool 4 -i  Done                     05/03/2018 09:12:07
00021 suncat0105 pw.x -npool 4 -i  Done                     05/03/2018 09:12:07
00022 suncat0105 pw.x -npool 4 -i  Done                     05/03/2018 09:12:07
00023 suncat0105 pw.x -npool 4 -i  Done                     05/03/2018 09:12:07
00024 suncat0100 pw.x -npool 4 -i  Done                     05/03/2018 09:12:07
00025 suncat0100 pw.x -npool 4 -i  Done                     05/03/2018 09:12:07
00026 suncat0100 pw.x -npool 4 -i  Done                     05/03/2018 09:12:07
00027 suncat0100 pw.x -npool 4 -i  Done                     05/03/2018 09:12:07
00028 suncat0100 pw.x -npool 4 -i  Done                     05/03/2018 09:12:07
00029 suncat0100 pw.x -npool 4 -i  Done                     05/03/2018 09:12:07
00030 suncat0100 pw.x -npool 4 -i  Done                     05/03/2018 09:12:07
00031 suncat0100 pw.x -npool 4 -i  Done                     05/03/2018 09:12:07