     Program PWSCF v.5.1rc2 (svn rev. 11289) starts on  2May2018 at  1:28:11

     Current dimensions of program PWSCF are:
     Max number of different atomic species (ntypx) = 10
     Max number of k-points (npk) =  40000
     Max angular momentum in pseudopotentials (lmaxx) =  3
     Presently stress not available with electric field

     IMPORTANT: XC functional enforced from input :
     Exchange-correlation      = BEEF-VDW ( 1  4 27 13 2)
     Any further DFT definition will be discarded
     Please, verify this is what you really want

     Subspace diagonalization in iterative solution of the eigenvalue problem:
     a serial algorithm will be used

     bravais-lattice index     =            0
     lattice parameter (alat)  =       1.8897  a.u.
     unit-cell volume          =    3807.2308 (a.u.)^3
     number of atoms/cell      =           13
     number of atomic types    =            2
     number of electrons       =       229.00
     number of Kohn-Sham states=          124
     kinetic-energy cutoff     =      36.7493  Ry
     charge density cutoff     =     367.4932  Ry
     convergence threshold     =      1.0E-05
     mixing beta               =       0.3000
     number of iterations used =           10  plain     mixing
     Exchange-correlation      = BEEF-VDW ( 1  4 27 13 2)
     nstep                     =           50

     celldm(1)=   1.889726  celldm(2)=   0.000000  celldm(3)=   0.000000
     celldm(4)=   0.000000  celldm(5)=   0.000000  celldm(6)=   0.000000

     crystal axes: (cart. coord. in units of alat)
               a(1) = (   5.184823   0.000000   0.000000 )
               a(2) = (   2.592411   4.490188   0.000000 )
               a(3) = (   0.000000   0.000000  24.233390 )

     reciprocal axes: (cart. coord. in units 2 pi/alat)
               b(1) = (  0.192871 -0.111354  0.000000 )
               b(2) = (  0.000000  0.222708  0.000000 )
               b(3) = (  0.000000  0.000000  0.041265 )

     PseudoPot. # 1 for Cu read from file:
     /u/if/mamunm/psp/gbrv1.5pbe/Cu.UPF
     MD5 check sum: 6e991ff952a84172a2a52a1c1e996048
     Pseudo is Ultrasoft + core correction, Zval = 19.0
     Generated by new atomic code, or converted to UPF format
     Using radial grid of  867 points,  6 beta functions with:
                l(1) =   0
                l(2) =   0
                l(3) =   1
                l(4) =   1
                l(5) =   2
                l(6) =   2
     Q(r) pseudized with  8 coefficients,  rinner =    1.150   1.150   1.150
                                                       1.150   1.150

     PseudoPot. # 2 for H  read from file:
     /u/if/mamunm/psp/gbrv1.5pbe/H.UPF
     MD5 check sum: 761ae9a214b05c3daf00ab9f6b793d6f
     Pseudo is Ultrasoft, Zval =  1.0
     Generated by new atomic code, or converted to UPF format
     Using radial grid of  615 points,  2 beta functions with:
                l(1) =   0
                l(2) =   0
     Q(r) pseudized with  8 coefficients,  rinner =    0.700

     vdW kernel table read from file vdW_kernel_table
     MD5 check sum: 095c7af220d748ca6e76c0b4c6cfb241

     atomic species   valence    mass     pseudopotential
        Cu1           19.00    63.54600     Cu( 1.00)
        H1             1.00     1.00800     H ( 1.00)

     No symmetry found

   Cartesian axes

     site n.     atom                  positions (alat units)
         1           Cu1 tau(   1) = (   1.2962057   0.7483647  10.0000000  )
         2           Cu1 tau(   2) = (   3.8886170   0.7483647  10.0000000  )
         3           Cu1 tau(   3) = (   2.5924113   2.9934587  10.0000000  )
         4           Cu1 tau(   4) = (   5.1848226   2.9934587  10.0000000  )
         5           Cu1 tau(   5) = (   5.1848226   1.4967294  12.1166950  )
         6           Cu1 tau(   6) = (   2.5924113   1.4967294  12.1166950  )
         7           Cu1 tau(   7) = (   6.4810283   3.7418234  12.1166950  )
         8           Cu1 tau(   8) = (   3.8886170   3.7418234  12.1166950  )
         9           Cu1 tau(   9) = (   0.0000000   0.0000000  14.2333899  )
        10           Cu1 tau(  10) = (   2.5924113   0.0000000  14.2333899  )
        11           Cu1 tau(  11) = (   1.2962057   2.2450940  14.2333899  )
        12           Cu1 tau(  12) = (   3.8886170   2.2450940  14.2333899  )
        13           H1  tau(  13) = (   0.0000000   0.0000000  15.6188899  )

     number of k points=    20  Fermi-Dirac smearing, width (Ry)=  0.0110
                       cart. coord. in units 2pi/alat
        k(    1) = (   0.0000000   0.0000000   0.0000000), wk =   0.0555556
        k(    2) = (   0.0000000   0.0371180   0.0000000), wk =   0.1111111
        k(    3) = (   0.0000000   0.0742359   0.0000000), wk =   0.1111111
        k(    4) = (   0.0000000  -0.1113539   0.0000000), wk =   0.0555556
        k(    5) = (   0.0321451  -0.0185590   0.0000000), wk =   0.1111111
        k(    6) = (   0.0321451   0.0185590   0.0000000), wk =   0.1111111
        k(    7) = (   0.0321451   0.0556770   0.0000000), wk =   0.1111111
        k(    8) = (   0.0321451  -0.1299129   0.0000000), wk =   0.1111111
        k(    9) = (   0.0321451  -0.0927949   0.0000000), wk =   0.1111111
        k(   10) = (   0.0321451  -0.0556770   0.0000000), wk =   0.1111111
        k(   11) = (   0.0642902  -0.0371180   0.0000000), wk =   0.1111111
        k(   12) = (   0.0642902  -0.0000000   0.0000000), wk =   0.1111111
        k(   13) = (   0.0642902   0.0371180   0.0000000), wk =   0.1111111
        k(   14) = (   0.0642902  -0.1484719   0.0000000), wk =   0.1111111
        k(   15) = (   0.0642902  -0.1113539   0.0000000), wk =   0.1111111
        k(   16) = (   0.0642902  -0.0742359   0.0000000), wk =   0.1111111
        k(   17) = (  -0.0964353   0.0556770   0.0000000), wk =   0.0555556
        k(   18) = (  -0.0964353   0.0927949   0.0000000), wk =   0.1111111
        k(   19) = (  -0.0964353   0.1299129   0.0000000), wk =   0.1111111
        k(   20) = (  -0.0964353  -0.0556770   0.0000000), wk =   0.0555556

     Largest allocated arrays     est. size (Mb)     dimensions
     Largest temporary arrays     est. size (Mb)     dimensions

     Initial potential from superposition of free atoms
     Check: negative starting charge=   -0.000120

     starting charge  216.99997, renormalised to  229.00000

     negative rho (up, down):  1.265E-04 0.000E+00

     *
     * You are using vdW-DF for exchange-correlation in this calculation.
     * Please cite the following three references that made this development
     * possible:
     *
     *   M. Dion, H. Rydberg, E. Schroder, D. C. Langreth, and
     *   B. I. Lundqvist, Phys. Rev. Lett. 92, 246401 (2004).
     *
     *   T. Thonhauser, V. R. Cooper, S. Li, A. Puzder, P. Hyldgaard, and
     *   D. C. Langreth, Phys. Rev. B 76, 125112 (2007).
     *
     *   G. Roman-Perez and J. M. Soler, Phys. Rev. Lett. 103, 096102 (2009).
     *
     *
     * If you are using vdW-DF2, please also cite:
     *
     *   K. Lee, E. D. Murray, L. Kong, B. I. Lundqvist, and
     *   D. C. Langreth, Phys. Rev. B 82, 081101(R) (2010).
     *
     *
     * If you are calculating the stress with vdW-DF, please also cite:
     *
     *   R. Sabatini, E. Kucukbenli, B. Kolb, T. Thonhauser, and
     *   S. de Gironcoli, J. Phys.: Condens. Matter 24, 424209 (2012).
     *

     Carrying out vdW-DF run using the following parameters:

     Nqs =      20    Nr_points =    1024   r_max =   100.000
     q_mesh =
               0.00001000     0.04494208     0.09755937     0.15916263
               0.23128650     0.31572767     0.41458969     0.53033537
               0.66584808     0.82450364     1.01025438     1.22772762
               1.48234092     1.78043706     2.12944203     2.53805004
               3.01644009     3.57652955     4.23227104     5.00000000

     Gradients computed in reciprocal space

     Adding external electric field

     Computed dipole along edir(3) :
        Dipole               -0.3659 Ry au,         -0.9301 Debye
        Dipole field         -0.0012 Ry au

        Potential amp.        0.1079 Ry
        Total length         44.6496 bohr

     Starting wfc are  157 randomized atomic wfcs

     Self-consistent Calculation

     iteration #  1     ecut=    36.75 Ry     beta=0.30
     Davidson diagonalization with overlap
     ethr =  1.00E-02,  avg # of iterations =  5.1

[...]

     total energy              =   -4813.10869694 Ry
     Harris-Foulkes estimate   =   -4872.31271320 Ry
     estimated scf accuracy    <     124.54313441 Ry

[...]

     End of self-consistent calculation

          k = 0.0000 0.0000 0.0000 ( 14321 PWs)   bands (ev):

  -112.8532-112.3770-112.3619-112.3570-112.3570-112.1298-112.0807-112.0753
  -112.0753-112.0350-112.0294-112.0294 -70.4260 -70.1378 -70.1378 -69.8002
   -69.8002 -69.7995 -69.7768 -69.7570 -69.7570 -69.7522 -69.7428 -69.7427
   -69.7404 -69.7252 -69.7252 -69.5594 -69.5594 -69.5253 -69.5135 -69.4997
   -69.4973 -69.4972 -69.4857 -69.4684 -69.4684 -69.4640 -69.4640 -69.4393
   -69.4340 -69.4340 -69.4315 -69.4315 -69.4199 -69.3906 -69.3852 -69.3852
    -8.0757  -6.2815  -4.8628  -4.6929  -4.3234  -4.3234  -4.2219  -4.1447
    -4.1447  -3.9997  -3.8115  -3.8115  -3.7343  -3.7343  -3.7329  -3.6497
    -3.2437  -3.2437  -3.0339  -2.8168  -2.8168  -2.7539  -2.6997  -2.6729
    -2.6729  -2.5427  -2.5427  -2.4998  -2.4998  -2.4742  -2.4551  -2.3834
    -2.3834  -2.2174  -2.2173  -2.0621  -2.0621  -1.9974  -1.8888  -1.8887
    -1.8300  -1.8299  -1.8206  -1.7917  -1.6252  -1.6252  -1.5078  -1.5078
    -1.4547  -1.4137  -1.4136  -1.4047  -1.4014  -1.4014  -1.3797  -1.3797
    -1.3642  -1.2769  -1.2768  -1.1548  -1.1548  -1.1394  -1.1103  -0.2713
     0.3602   0.3671   0.3671   1.4019   1.4019   1.4270   1.8282   1.8502
     1.8502   2.2634   4.0641   4.4977

[...]

          k =-0.0964 0.0557 0.0000 ( 14294 PWs)   bands (ev):

[...]

     the Fermi energy is     0.2132 ev

!    total energy              =   -4860.37036330 Ry
     Harris-Foulkes estimate   =   -4860.37036089 Ry
     estimated scf accuracy    <       0.00000287 Ry

     The total energy is the sum of the following terms:

     one-electron contribution =  -37163.52864097 Ry
     hartree contribution      =   18594.83175106 Ry
     xc contribution           =    -480.76883150 Ry
     ewald contribution        =   14189.12214098 Ry
     electric field correction =       0.00001872 Ry
     smearing contrib. (-TS)   =      -0.02680160 Ry

     convergence has been achieved in  18 iterations

 BEEF-vdW xc energy contributions
           1 :   -426.159507984011
           2 :    386.383765311723
           3 :   -318.976009560370
           4 :    242.476308092095
           5 :   -173.794547824301
           6 :    122.118721943364
           7 :   -87.4584058545328
           8 :    63.7784537767205
           9 :   -44.2626200961546
          10 :    25.4523047713006
          11 :   -8.19317791880849
          12 :   -4.45782468210479
          13 :    10.3965608431546
          14 :   -10.4189620021823
          15 :    7.82185116800190
          16 :   -6.25221358106597
          17 :    7.48550744597134
          18 :   -10.6548233215606
          19 :    13.3016875312088
          20 :   -13.3600794801508
          21 :    10.6410441584619
          22 :   -6.85916087601260
          23 :    4.31889692774223
          24 :   -4.28533097144941
          25 :    6.18919884034676
          26 :   -8.15605297812363
          27 :    8.40402033215281
          28 :   -6.48943919523867
          29 :    3.54438365272057
          30 :   -1.39620092791904
          31 :   -33.9007231103592
          32 :   -23.1446893449885

     Forces acting on atoms (Ry/au):

     negative rho (up, down):  1.123E-03 0.000E+00
     atom    1 type  1   force =    -0.00171085   -0.00098794    0.00125968
     atom    2 type  1   force =     0.00171188   -0.00098790    0.00126428
     atom    3 type  1   force =    -0.00000131    0.00197623    0.00126244
     atom    4 type  1   force =     0.00000407    0.00000016    0.00080973
     atom    5 type  1   force =    -0.00000436   -0.00073519   -0.00152062
     atom    6 type  1   force =     0.00000644    0.00000271    0.00166605
     atom    7 type  1   force =     0.00063623    0.00036640   -0.00152853
     atom    8 type  1   force =    -0.00064367    0.00036613   -0.00152228
     atom    9 type  1   force =    -0.00000537   -0.00000071   -0.07811833
     atom   10 type  1   force =     0.00000473    0.00022918   -0.00203367
     atom   11 type  1   force =     0.00020120   -0.00011145   -0.00204048
     atom   12 type  1   force =    -0.00020084   -0.00011757   -0.00201101
     atom   13 type  2   force =     0.00000186   -0.00000004    0.08251273

     Total force =     0.113681     Total SCF correction =     0.001291

     entering subroutine stress ...

     negative rho (up, down):  1.123E-03 0.000E+00
          total   stress  (Ry/bohr**3)                   (kbar)     P=   -9.00
  -0.00009920   0.00000000   0.00000000        -14.59      0.00      0.00
   0.00000000  -0.00009920   0.00000000          0.00    -14.59      0.00
   0.00000000   0.00000000   0.00001482          0.00      0.00      2.18

     BFGS Geometry Optimization

     number of scf cycles    =   1
     number of bfgs steps    =   0

     energy   new            =   -4860.3703633049 Ry

     new trust radius        =       0.0825127271 bohr
     new conv_thr            =       0.0000099958 Ry

ATOMIC_POSITIONS (crystal)
Cu1      0.166666667   0.166666667   0.412653782    0   0   0
Cu1      0.666666667   0.166666667   0.412653782    0   0   0
Cu1      0.166666667   0.666666667   0.412653782    0   0   0
Cu1      0.666666667   0.666666667   0.412653782    0   0   0
Cu1      0.833333333   0.333333333   0.500000000    0   0   0
Cu1      0.333333333   0.333333333   0.500000000    0   0   0
Cu1      0.833333333   0.833333333   0.500000000    0   0   0
Cu1      0.333333333   0.833333333   0.500000000    0   0   0
Cu1     -0.000000507  -0.000000083   0.585640372
Cu1      0.499986979   0.000027009   0.587301809
Cu1      0.000027103   0.499986866   0.587301661
Cu1      0.499986430   0.499986144   0.587302304
H1       0.000000192  -0.000000005   0.646321205

     Writing output data file calc.save
     Check: negative starting charge=   -0.000120
     NEW-OLD atomic charge density approx. for the potential
     Check: negative starting charge=   -0.000118

[...]

     energy   old            =   -4860.3703633049 Ry
     energy   new            =   -4860.3783380399 Ry

     CASE: energy  _new < energy  _old

[...]

     Total force =     0.005230     Total SCF correction =     0.001387
     SCF correction compared to forces is large: reduce conv_thr to get better values

[...]

     number of scf cycles    =   8
     number of bfgs steps    =   7

     energy   old            =   -4860.3797599165 Ry
     energy   new            =   -4860.3798702420 Ry

     CASE: energy  _new < energy  _old

     new trust radius        =       0.0158437608 bohr
     new conv_thr            =       0.0000001000 Ry

ATOMIC_POSITIONS (crystal)
Cu1      0.166666667   0.166666667   0.412653782    0   0   0
Cu1      0.666666667   0.166666667   0.412653782    0   0   0
Cu1      0.166666667   0.666666667   0.412653782    0   0   0
Cu1      0.666666667   0.666666667   0.412653782    0   0   0
Cu1      0.833333333   0.333333333   0.500000000    0   0   0
Cu1      0.333333333   0.333333333   0.500000000    0   0   0
Cu1      0.833333333   0.833333333   0.500000000    0   0   0
Cu1      0.333333333   0.833333333   0.500000000    0   0   0
Cu1      0.000000045   0.000000030   0.586334553
Cu1      0.499833377   0.000331632   0.585823094
Cu1      0.000331342   0.499833781   0.585823056
Cu1      0.499833900   0.499834363   0.585822994
H1      -0.000000085  -0.000000034   0.649198584

     Writing output data file calc.save
     Check: negative starting charge=   -0.000114
     NEW-OLD atomic charge density approx. for the potential
     Check: negative starting charge=   -0.000114

[...]

     Self-consistent Calculation

[...]

     total energy              =   -4860.37988290 Ry
     Harris-Foulkes estimate   =   -4860.37988274 Ry
     estimated scf accuracy    <       0.00000041 Ry

     iteration #  8     ecut=    36.75 Ry     beta=0.30
     Davidson diagonalization with overlap
     ethr =  1.80E-10,  avg # of iterations =  2.1

[...]

     negative rho (up, down):  1.094E-03 0.000E+00

     Adding external electric field

     Computed dipole along edir(3) :
        Dipole               -0.0968 Ry au,         -0.2461 Debye
        Dipole field         -0.0003 Ry au

        Potential amp.        0.0285 Ry
        Total length         44.6496 bohr

     End of self-consistent calculation

[...]

          k = 0.0643-0.0742 0.0000 ( 14299 PWs)   bands (ev):

[...]

          k =-0.0964-0.0557 0.0000 ( 14294 PWs)   bands (ev):

  -112.7176-112.4380-112.4163-112.4143-112.4126-112.1752-112.1257-112.1237
  -112.1220-112.0907-112.0888-112.0869 -70.2175 -70.0376 -70.0367 -69.8482
   -69.8405 -69.8393 -69.8329 -69.8203 -69.8161 -69.8141 -69.8063 -69.8050
   -69.8015 -69.7955 -69.7860 -69.5981 -69.5875 -69.5631 -69.5533 -69.5454
   -69.5445 -69.5427 -69.5359 -69.5353 -69.5336 -69.5179 -69.5138 -69.4963
   -69.4895 -69.4847 -69.4829 -69.4812 -69.4804 -69.4495 -69.4477 -69.4460
    -6.3851  -6.3222  -4.9118  -4.6888  -4.2220  -4.1079  -3.9619  -3.8424
    -3.8300  -3.8010  -3.7358  -3.5273  -3.4464  -3.3790  -3.3398  -3.2887
    -3.2117  -3.1278  -3.1076  -3.0988  -3.0409  -2.9739  -2.9482  -2.8081
    -2.7612  -2.7243  -2.6747  -2.6159  -2.6060  -2.5770  -2.5495  -2.5144
    -2.4654  -2.4520  -2.4202  -2.4130  -2.4028  -2.3978  -2.3951  -2.3697
    -2.3033  -2.1902  -2.1706  -2.0778  -1.9951  -1.9755  -1.9593  -1.9493
    -1.8968  -1.8546  -1.8525  -1.8189  -1.8013  -1.7431  -1.6873  -1.6657
    -1.6624  -1.4885  -1.4810  -1.4704  -1.4288  -1.4117  -1.3786  -1.3339
    -0.4949   0.1201   0.1561   0.4855   1.1490   1.3292   1.9061   3.0673
     3.5572   3.7561   5.0202   5.7600

     the Fermi energy is     0.1665 ev

!    total energy              =   -4860.37988295 Ry
     Harris-Foulkes estimate   =   -4860.37988279 Ry
     estimated scf accuracy    <       0.00000006 Ry

     The total energy is the sum of the following terms:

     one-electron contribution =  -37314.55314081 Ry
     hartree contribution      =   18669.95533512 Ry
     xc contribution           =    -480.75361518 Ry
     ewald contribution        =   14264.99849973 Ry
     electric field correction =       0.00003094 Ry
     smearing contrib. (-TS)   =      -0.02699275 Ry

     convergence has been achieved in   8 iterations

 BEEF-vdW xc energy contributions
           1 :   -426.146354481770
           2 :    386.380613275205
           3 :   -318.987830550764
           4 :    242.500017188219
           5 :   -173.822382773281
           6 :    122.145938874473
           7 :   -87.4874604907885
           8 :    63.8155121648877
           9 :   -44.3085767207392
          10 :    25.4966164405188
          11 :   -8.21782460472576
          12 :   -4.46516516809123
          13 :    10.4301283682377
          14 :   -10.4546867315449
          15 :    7.83194220476855
          16 :   -6.22521187201454
          17 :    7.43734483943655
          18 :   -10.6208046181202
          19 :    13.3124302832561
          20 :   -13.4174811201174
          21 :    10.7130788714622
          22 :   -6.90005877921374
          23 :    4.30180549941775
          24 :   -4.22335222907753
          25 :    6.12809275796604
          26 :   -8.14270392762285
          27 :    8.45322359026443
          28 :   -6.57245413339018
          29 :    3.60726863853046
          30 :   -1.39633346640733
          31 :   -33.9001305329936
          32 :   -23.1468535085645

     Forces acting on atoms (Ry/au):

     negative rho (up, down):  1.094E-03 0.000E+00
     atom    1 type  1   force =    -0.00178184   -0.00102869    0.00334136
     atom    2 type  1   force =     0.00178180   -0.00102873    0.00334143
     atom    3 type  1   force =    -0.00000009    0.00205747    0.00334130
     atom    4 type  1   force =     0.00000007   -0.00000002    0.00290801
     atom    5 type  1   force =     0.00000004   -0.00169619   -0.00490676
     atom    6 type  1   force =    -0.00000014   -0.00000005   -0.00281061
     atom    7 type  1   force =     0.00146884    0.00084811   -0.00490641
     atom    8 type  1   force =    -0.00146898    0.00084811   -0.00490676
     atom    9 type  1   force =    -0.00000076   -0.00000018    0.00167528
     atom   10 type  1   force =     0.00000081   -0.00020223    0.00125560
     atom   11 type  1   force =    -0.00017477    0.00010170    0.00125570
     atom   12 type  1   force =     0.00017495    0.00010071    0.00125597
     atom   13 type  2   force =     0.00000005    0.00000001   -0.00084409

     Total force =     0.002893     Total SCF correction =     0.000287

     entering subroutine stress ...

     negative rho (up, down):  1.094E-03 0.000E+00
          total   stress  (Ry/bohr**3)                   (kbar)     P=  -20.54
  -0.00016190   0.00000000   0.00000000        -23.82      0.00      0.00
   0.00000000  -0.00016190   0.00000000          0.00    -23.82      0.00
   0.00000000   0.00000000  -0.00009516          0.00      0.00    -14.00

     bfgs converged in   9 scf cycles and   8 bfgs steps
     (criteria: energy <  1.0E+00, force <  1.9E-03)

     End of BFGS Geometry Optimization

     Final energy   =   -4860.3798829471 Ry
Begin final coordinates

ATOMIC_POSITIONS (crystal)
Cu1      0.166666667   0.166666667   0.412653782    0   0   0
Cu1      0.666666667   0.166666667   0.412653782    0   0   0
Cu1      0.166666667   0.666666667   0.412653782    0   0   0
Cu1      0.666666667   0.666666667   0.412653782    0   0   0
Cu1      0.833333333   0.333333333   0.500000000    0   0   0
Cu1      0.333333333   0.333333333   0.500000000    0   0   0
Cu1      0.833333333   0.833333333   0.500000000    0   0   0
Cu1      0.333333333   0.833333333   0.500000000    0   0   0
Cu1      0.000000045   0.000000030   0.586334553
Cu1      0.499833377   0.000331632   0.585823094
Cu1      0.000331342   0.499833781   0.585823056
Cu1      0.499833900   0.499834363   0.585822994
H1      -0.000000085  -0.000000034   0.649198584
End final coordinates

     Writing output data file calc.save

     General routines

     Parallel routines

   This run was terminated on:   2: 8:37   2May2018

   JOB DONE.
Job  /afs/slac/g/suncat/bin/suncat-tsmpirun -x LD_LIBRARY_PATH -wdir /scratch/qe575109_QkYF4 pw.x -npool 4 -in pw.inp

TID   HOST_NAME   COMMAND_LINE            STATUS            TERMINATION_TIME
00000 suncat0142 pw.x -npool 4 -i  Done                     05/02/2018 02:08:37
00001 suncat0142 pw.x -npool 4 -i  Done                     05/02/2018 02:08:37
00002 suncat0142 pw.x -npool 4 -i  Done                     05/02/2018 02:08:37
00003 suncat0142 pw.x -npool 4 -i  Done                     05/02/2018 02:08:37
00004 suncat0142 pw.x -npool 4 -i  Done                     05/02/2018 02:08:37
00005 suncat0142 pw.x -npool 4 -i  Done                     05/02/2018 02:08:37
00006 suncat0142 pw.x -npool 4 -i  Done                     05/02/2018 02:08:37
00007 suncat0142 pw.x -npool 4 -i  Done                     05/02/2018 02:08:37
00008 suncat0126 pw.x -npool 4 -i  Done                     05/02/2018 02:08:37
00009 suncat0126 pw.x -npool 4 -i  Done                     05/02/2018 02:08:37
00010 suncat0126 pw.x -npool 4 -i  Done                     05/02/2018 02:08:37
00011 suncat0126 pw.x -npool 4 -i  Done                     05/02/2018 02:08:37
00012 suncat0126 pw.x -npool 4 -i  Done                     05/02/2018 02:08:37
00013 suncat0126 pw.x -npool 4 -i  Done                     05/02/2018 02:08:37
00014 suncat0126 pw.x -npool 4 -i  Done                     05/02/2018 02:08:37
00015 suncat0126 pw.x -npool 4 -i  Done                     05/02/2018 02:08:37
00016 suncat0121 pw.x -npool 4 -i  Done                     05/02/2018 02:08:37
00017 suncat0121 pw.x -npool 4 -i  Done                     05/02/2018 02:08:37
00018 suncat0121 pw.x -npool 4 -i  Done                     05/02/2018 02:08:37
00019 suncat0121 pw.x -npool 4 -i  Done                     05/02/2018 02:08:37
00020 suncat0121 pw.x -npool 4 -i  Done                     05/02/2018 02:08:37
00021 suncat0121 pw.x -npool 4 -i  Done                     05/02/2018 02:08:37
00022 suncat0121 pw.x -npool 4 -i  Done                     05/02/2018 02:08:37
00023 suncat0121 pw.x -npool 4 -i  Done                     05/02/2018 02:08:37
00024 suncat0114 pw.x -npool 4 -i  Done                     05/02/2018 02:08:37
00025 suncat0114 pw.x -npool 4 -i  Done                     05/02/2018 02:08:37
00026 suncat0114 pw.x -npool 4 -i  Done                     05/02/2018 02:08:37
00027 suncat0114 pw.x -npool 4 -i  Done                     05/02/2018 02:08:37
00028 suncat0114 pw.x -npool 4 -i  Done                     05/02/2018 02:08:37
00029 suncat0114 pw.x -npool 4 -i  Done                     05/02/2018 02:08:37
00030 suncat0114 pw.x -npool 4 -i  Done                     05/02/2018 02:08:37
00031 suncat0114 pw.x -npool 4 -i  Done                     05/02/2018 02:08:37