     Program PWSCF v.5.1rc2 (svn rev. 11289) starts on 23Apr2018 at 12:58:26

     Current dimensions of program PWSCF are:
     Max number of different atomic species (ntypx) = 10
     Max number of k-points (npk) =  40000
     Max angular momentum in pseudopotentials (lmaxx) =  3
     Presently stress not available with electric field

     IMPORTANT: XC functional enforced from input :
     Exchange-correlation      = BEEF-VDW ( 1  4 27 13 2)
     Any further DFT definition will be discarded
     Please, verify this is what you really want

     Subspace diagonalization in iterative solution of the eigenvalue problem:
     a serial algorithm will be used

     bravais-lattice index     =            0
     lattice parameter (alat)  =       1.8897  a.u.
     unit-cell volume          =    4301.6107 (a.u.)^3
     number of atoms/cell      =           14
     number of atomic types    =            3
     number of electrons       =       187.00
     number of Kohn-Sham states=          103
     kinetic-energy cutoff     =      36.7493  Ry
     charge density cutoff     =     367.4932  Ry
     convergence threshold     =      1.0E-05
     mixing beta               =       0.3000
     number of iterations used =           10  plain     mixing
     Exchange-correlation      = BEEF-VDW ( 1  4 27 13 2)
     nstep                     =           50

     celldm(1)=   1.889726  celldm(2)=   0.000000  celldm(3)=   0.000000
     celldm(4)=   0.000000  celldm(5)=   0.000000  celldm(6)=   0.000000

     crystal axes: (cart. coord. in units of alat)
               a(1) = (   5.483647   0.000000   0.000000 )
               a(2) = (   2.741823   4.748977   0.000000 )
               a(3) = (   0.000000   0.000000  24.477379 )

     reciprocal axes: (cart. coord. in units 2 pi/alat)
               b(1) = (  0.182360 -0.105286  0.000000 )
               b(2) = (  0.000000  0.210572  0.000000 )
               b(3) = (  0.000000  0.000000  0.040854 )

     PseudoPot. # 1 for Tc read from file:
     /u/if/mamunm/psp/gbrv1.5pbe/Tc.UPF
     MD5 check sum: 9eb49e5b028550b2339a02317eb7b844
     Pseudo is Ultrasoft + core correction, Zval = 15.0
     Generated by new atomic code, or converted to UPF format
     Using radial grid of  965 points,  6 beta functions with:
                l(1) =   0
                l(2) =   0
                l(3) =   1
                l(4) =   1
                l(5) =   2
                l(6) =   2
     Q(r) pseudized with  8 coefficients,  rinner =    1.300   1.300   1.300
                                                       1.300   1.300

     PseudoPot. # 2 for O  read from file:
     /u/if/mamunm/psp/gbrv1.5pbe/O.UPF
     MD5 check sum: 734c27235a0248c51dbae37a1fbe46ec
     Pseudo is Ultrasoft + core correction, Zval =  6.0
     Generated by new atomic code, or converted to UPF format
     Using radial grid of  737 points,  5 beta functions with:
                l(1) =   0
                l(2) =   0
                l(3) =   1
                l(4) =   1
                l(5) =   2
     Q(r) pseudized with  8 coefficients,  rinner =    0.900   0.900   0.900
                                                       0.900   0.900

     PseudoPot. # 3 for H  read from file:
     /u/if/mamunm/psp/gbrv1.5pbe/H.UPF
     MD5 check sum: 761ae9a214b05c3daf00ab9f6b793d6f
     Pseudo is Ultrasoft, Zval =  1.0
     Generated by new atomic code, or converted to UPF format
     Using radial grid of  615 points,  2 beta functions with:
                l(1) =   0
                l(2) =   0
     Q(r) pseudized with  8 coefficients,  rinner =    0.700

     vdW kernel table read from file vdW_kernel_table
     MD5 check sum: 095c7af220d748ca6e76c0b4c6cfb241

     atomic species   valence    mass     pseudopotential
        Tc1           15.00    97.90721     Tc( 1.00)
        O1             6.00    15.99900     O ( 1.00)
        H1             1.00     1.00800     H ( 1.00)

     No symmetry found

   Cartesian axes

     site n.     atom                  positions (alat units)
         1           Tc1 tau(   1) = (   1.3709117   0.7914962  10.0000000  )
         2           Tc1 tau(   2) = (   4.1127351   0.7914962  10.0000000  )
         3           Tc1 tau(   3) = (   2.7418234   3.1659850  10.0000000  )
         4           Tc1 tau(   4) = (   5.4836469   3.1659850  10.0000000  )
         5           Tc1 tau(   5) = (   5.4836469   1.5829925  12.2386895  )
         6           Tc1 tau(   6) = (   2.7418234   1.5829925  12.2386895  )
         7           Tc1 tau(   7) = (   6.8545586   3.9574812  12.2386895  )
         8           Tc1 tau(   8) = (   4.1127351   3.9574812  12.2386895  )
         9           Tc1 tau(   9) = (   0.0000000   0.0000000  14.4773789  )
        10           Tc1 tau(  10) = (   2.7418234   0.0000000  14.4773789  )
        11           Tc1 tau(  11) = (   1.3709117   2.3744887  14.4773789  )
        12           Tc1 tau(  12) = (   4.1127351   2.3744887  14.4773789  )
        13           O1  tau(  13) = (   2.7418234   1.5829925  15.8618789  )
        14           H1  tau(  14) = (   2.7418234   1.5829925  16.8118789  )

     number of k points=    20  Fermi-Dirac smearing, width (Ry)=  0.0110
                       cart. coord. in units 2pi/alat
        k(    1) = (   0.0000000   0.0000000   0.0000000), wk =   0.0555556
        k(    2) = (   0.0000000   0.0350953   0.0000000), wk =   0.1111111
        k(    3) = (   0.0000000   0.0701905   0.0000000), wk =   0.1111111
        k(    4) = (   0.0000000  -0.1052858   0.0000000), wk =   0.0555556
        k(    5) = (   0.0303934  -0.0175476   0.0000000), wk =   0.1111111
        k(    6) = (   0.0303934   0.0175476   0.0000000), wk =   0.1111111
        k(    7) = (   0.0303934   0.0526429   0.0000000), wk =   0.1111111
        k(    8) = (   0.0303934  -0.1228335   0.0000000), wk =   0.1111111
        k(    9) = (   0.0303934  -0.0877382   0.0000000), wk =   0.1111111
        k(   10) = (   0.0303934  -0.0526429   0.0000000), wk =   0.1111111
        k(   11) = (   0.0607868  -0.0350953   0.0000000), wk =   0.1111111
        k(   12) = (   0.0607868   0.0000000   0.0000000), wk =   0.1111111
        k(   13) = (   0.0607868   0.0350953   0.0000000), wk =   0.1111111
        k(   14) = (   0.0607868  -0.1403811   0.0000000), wk =   0.1111111
        k(   15) = (   0.0607868  -0.1052858   0.0000000), wk =   0.1111111
        k(   16) = (   0.0607868  -0.0701905   0.0000000), wk =   0.1111111
        k(   17) = (  -0.0911802   0.0526429   0.0000000), wk =   0.0555556
        k(   18) = (  -0.0911802   0.0877382   0.0000000), wk =   0.1111111
        k(   19) = (  -0.0911802   0.1228335   0.0000000), wk =   0.1111111
        k(   20) = (  -0.0911802  -0.0526429   0.0000000), wk =   0.0555556

     Largest allocated arrays     est. size (Mb)     dimensions
     Largest temporary arrays     est. size (Mb)     dimensions

     Check: negative/imaginary core charge=   -0.000022    0.000000

     Initial potential from superposition of free atoms
     Check: negative starting charge=   -1.505008

     starting charge  174.99966, renormalised to  187.00000

     negative rho (up, down):  1.608E+00 0.000E+00

     *
     * You are using vdW-DF for exchange-correlation in this calculation.
     * Please cite the following three references that made this development
     * possible:
     *
     *   M. Dion, H. Rydberg, E. Schroder, D. C. Langreth, and
     *   B. I. Lundqvist, Phys. Rev. Lett. 92, 246401 (2004).
     *
     *   T. Thonhauser, V. R. Cooper, S. Li, A. Puzder, P. Hyldgaard, and
     *   D. C. Langreth, Phys. Rev. B 76, 125112 (2007).
     *
     *   G. Roman-Perez and J. M. Soler, Phys. Rev. Lett. 103, 096102 (2009).
     *
     *
     * If you are using vdW-DF2, please also cite:
     *
     *   K. Lee, E. D. Murray, L. Kong, B. I. Lundqvist, and
     *   D. C. Langreth, Phys. Rev. B 82, 081101(R) (2010).
     *
     *
     * If you are calculating the stress with vdW-DF, please also cite:
     *
     *   R. Sabatini, E. Kucukbenli, B. Kolb, T. Thonhauser, and
     *   S. de Gironcoli, J. Phys.: Condens. Matter 24, 424209 (2012).
     *

     Carrying out vdW-DF run using the following parameters:

     Nqs =      20    Nr_points =    1024   r_max =   100.000
     q_mesh =
               0.00001000     0.04494208     0.09755937     0.15916263
               0.23128650     0.31572767     0.41458969     0.53033537
               0.66584808     0.82450364     1.01025438     1.22772762
               1.48234092     1.78043706     2.12944203     2.53805004
               3.01644009     3.57652955     4.23227104     5.00000000

     Gradients computed in reciprocal space

     Adding external electric field

     Computed dipole along edir(3) :
        Dipole               -3.4096 Ry au,         -8.6663 Debye
        Dipole field         -0.0100 Ry au

        Potential amp.        0.8984 Ry
        Total length         45.0992 bohr

     Starting wfc are  161 randomized atomic wfcs

     Self-consistent Calculation

     iteration #  1     ecut=    36.75 Ry     beta=0.30
     Davidson diagonalization with overlap
     ethr =  1.00E-02,  avg # of iterations =  8.0

[...]

     total energy              =   -1861.13835134 Ry
     Harris-Foulkes estimate   =   -2132.35992443 Ry
     estimated scf accuracy    <     570.10472572 Ry

[...]

     End of self-consistent calculation

          k = 0.0000 0.0000 0.0000 ( 16073 PWs)   bands (ev):

   -64.0918 -63.9995 -63.9400 -63.9387 -63.9141 -63.8873 -63.8860 -63.8015
   -63.6802 -63.6800 -63.6792 -63.6753 -36.6432 -36.5031 -36.5024 -36.4562
   -36.4048 -36.3893 -36.3888 -36.2357 -36.2076 -36.2073 -35.9787 -35.9723
   -35.9713 -35.8536 -35.8374 -35.8367 -35.7801 -35.7709 -35.7706 -35.7305
   -35.6737 -35.6732 -35.6369 -35.6190 -35.6189 -35.6085 -35.5429 -35.5269
   -35.5269 -35.4690 -35.4686 -35.4666 -35.3914 -35.3911 -35.2700 -35.2700
   -18.8505  -7.2486  -3.3791  -3.3791  -3.2306  -1.9988  -1.9986  -1.9984
    -1.8743  -1.7219  -1.5002  -1.4999  -1.4706  -1.4300  -1.2540  -1.2537
    -0.9895  -0.9894  -0.8411   0.2344   0.2346   0.4248   0.9933   0.9933
     1.1383   1.2376   1.5303   1.5430   1.5430   1.7818   1.7819   1.9036
     1.9627   1.9630   2.0671   2.0672   2.4617   2.6283   2.6286   3.0214
     3.4944   3.5359   3.5362   3.7172   3.7173   3.9452   3.9454   3.9656
     4.2460   4.3619   4.3619   4.9629   5.0723   5.0726   5.2233

[...]

          k =-0.0912 0.0526 0.0000 ( 16164 PWs)   bands (ev):

[...]

     the Fermi energy is     3.2308 ev

!    total energy              =   -2137.18048884 Ry
     Harris-Foulkes estimate   =   -2137.18046706 Ry
     estimated scf accuracy    <       0.00000994 Ry

     The total energy is the sum of the following terms:

     one-electron contribution =  -19307.25329119 Ry
     hartree contribution      =    9659.37378063 Ry
     xc contribution           =    -405.45398218 Ry
     ewald contribution        =    7916.24199405 Ry
     electric field correction =       0.00065776 Ry
     smearing contrib. (-TS)   =      -0.08964791 Ry

     convergence has been achieved in  28 iterations

 BEEF-vdW xc energy contributions
           1 :   -355.097472688243
           2 :    326.244046464933
           3 :   -275.019006178924
           4 :    211.806486157272
           5 :   -147.612621494159
           6 :    91.0378079490450
           7 :   -46.6235020487397
           8 :    14.7540439422427
           9 :    7.04067305779688
          10 :   -22.1817748790224
          11 :    33.3171238075544
          12 :   -41.4499774153247
          13 :    46.0382277166523
          14 :   -45.8481863531497
          15 :    40.0239433789021
          16 :   -28.8959089855951
          17 :    14.1933438995540
          18 :    1.35801647543451
          19 :   -14.8568050723026
          20 :    24.0812747564677
          21 :   -28.0500585029438
          22 :    27.0855930520887
          23 :   -22.4322549893606
          24 :    15.6428888807421
          25 :   -8.03455159908322
          26 :   0.422020957430504
          27 :    6.81233430995047
          28 :   -13.4383977173568
          29 :    19.0899733651099
          30 :   -23.1507087446899
          31 :   -33.8884519496096
          32 :   -24.8250234292803

     Forces acting on atoms (Ry/au):

     negative rho (up, down):  1.590E+00 0.000E+00
     atom    1 type  1   force =     0.00058873    0.00035194    0.02706993
     atom    2 type  1   force =    -0.00058545    0.00041483    0.02704099
     atom    3 type  1   force =     0.00005182   -0.00071125    0.02697679
     atom    4 type  1   force =    -0.00004209   -0.00003661    0.02669155
     atom    5 type  1   force =     0.00003210   -0.00790918   -0.00379463
     atom    6 type  1   force =    -0.00005819    0.00002384   -0.00385632
     atom    7 type  1   force =     0.00686682    0.00392564   -0.00392915
     atom    8 type  1   force =    -0.00688898    0.00399858   -0.00390084
     atom    9 type  1   force =     0.00004117    0.00004525   -0.04644885
     atom   10 type  1   force =    -0.00006470   -0.06127790   -0.02507587
     atom   11 type  1   force =    -0.05309555    0.03059398   -0.02507762
     atom   12 type  1   force =     0.05309434    0.03064947   -0.02516931
     atom   13 type  2   force =     0.00006153   -0.00007118   -0.02275423
     atom   14 type  3   force =    -0.00000156    0.00000259    0.05222754

     Total force =     0.136245     Total SCF correction =     0.002140

     entering subroutine stress ...

     negative rho (up, down):  1.590E+00 0.000E+00
          total   stress  (Ry/bohr**3)                   (kbar)     P=  -28.29
  -0.00019549   0.00000003  -0.00000004        -28.76      0.00     -0.01
   0.00000003  -0.00019536   0.00000006          0.00    -28.74      0.01
  -0.00000004   0.00000006  -0.00018608         -0.01      0.01    -27.37

     BFGS Geometry Optimization

     number of scf cycles    =   1
     number of bfgs steps    =   0

     energy   new            =   -2137.1804888389 Ry

     new trust radius        =       0.0662713563 bohr
     new conv_thr            =       0.0000099958 Ry

ATOMIC_POSITIONS (crystal)
Tc1      0.166666667   0.166666667   0.408540475    0   0   0
Tc1      0.666666667   0.166666667   0.408540475    0   0   0
Tc1      0.166666667   0.666666667   0.408540475    0   0   0
Tc1      0.666666667   0.666666667   0.408540475    0   0   0
Tc1      0.833333333   0.333333333   0.500000000    0   0   0
Tc1      0.333333333   0.333333333   0.500000000    0   0   0
Tc1      0.833333333   0.833333333   0.500000000    0   0   0
Tc1      0.333333333   0.833333333   0.500000000    0   0   0
Tc1      0.000001452   0.000005042   0.590455346
Tc1      0.503407846  -0.006828179   0.590917409
Tc1     -0.006828311   0.503409079   0.590917371
Tc1      0.503416024   0.503415262   0.590915389
O1       0.333343236   0.333325402   0.647530030
H1       0.333333039   0.333333622   0.687962408

     Writing output data file calc.save
     Check: negative starting charge=   -1.505008
     NEW-OLD atomic charge density approx. for the potential

     Check: negative/imaginary core charge=   -0.000022    0.000000
     Check: negative starting charge=   -1.502273

[...]

     energy   old            =   -2137.1804888389 Ry
     energy   new            =   -2137.1938209232 Ry

     CASE: energy  _new < energy  _old

[...]

     iteration #  1     ecut=    36.75 Ry     beta=0.30
     Davidson diagonalization with overlap
     c_bands:  1 eigenvalues not converged
     ethr =  1.00E-06,  avg # of iterations =  6.7

[...]

     iteration #  1     ecut=    36.75 Ry     beta=0.30
     Davidson diagonalization with overlap
     c_bands:  1 eigenvalues not converged
     ethr =  1.00E-06,  avg # of iterations =  5.8

[...]

     Total force =     0.003701     Total SCF correction =     0.000165

[...]

     number of scf cycles    =  12
     number of bfgs steps    =  11

     energy   old            =   -2137.2097596427 Ry
     energy   new            =   -2137.2097791107 Ry

     CASE: energy  _new < energy  _old

     new trust radius        =       0.0043583980 bohr
     new conv_thr            =       0.0000001000 Ry

ATOMIC_POSITIONS (crystal)
Tc1      0.166666667   0.166666667   0.408540475    0   0   0
Tc1      0.666666667   0.166666667   0.408540475    0   0   0
Tc1      0.166666667   0.666666667   0.408540475    0   0   0
Tc1      0.666666667   0.666666667   0.408540475    0   0   0
Tc1      0.833333333   0.333333333   0.500000000    0   0   0
Tc1      0.333333333   0.333333333   0.500000000    0   0   0
Tc1      0.833333333   0.833333333   0.500000000    0   0   0
Tc1      0.333333333   0.833333333   0.500000000    0   0   0
Tc1      0.000001669  -0.000001697   0.585246568
Tc1      0.510874734  -0.021746578   0.589273026
Tc1     -0.021741427   0.510869537   0.589272805
Tc1      0.510874218   0.510870687   0.589272929
O1       0.333334844   0.333332151   0.644393117
H1       0.333337320   0.333329618   0.684128789

     Writing output data file calc.save
     Check: negative starting charge=   -1.501346
     NEW-OLD atomic charge density approx. for the potential

     Check: negative/imaginary core charge=   -0.000022    0.000000
     Check: negative starting charge=   -1.501578

[...]

     Self-consistent Calculation

[...]

     Threshold (ethr) on eigenvalues was too large:
     Diagonalizing with lowered threshold

     Davidson diagonalization with overlap
     ethr =  2.89E-08,  avg # of iterations =  3.8

[...]

     total energy              =   -2137.20978818 Ry
     Harris-Foulkes estimate   =   -2137.20978823 Ry
     estimated scf accuracy    <       0.00000013 Ry

     iteration # 10     ecut=    36.75 Ry     beta=0.30
     Davidson diagonalization with overlap
     ethr =  7.20E-11,  avg # of iterations =  1.5

[...]

     negative rho (up, down):  1.585E+00 0.000E+00

     Adding external electric field

     Computed dipole along edir(3) :
        Dipole                0.4833 Ry au,          1.2286 Debye
        Dipole field          0.0014 Ry au

        Potential amp.       -0.1274 Ry
        Total length         45.0992 bohr

     End of self-consistent calculation

[...]

          k = 0.0608-0.0702 0.0000 ( 16203 PWs)   bands (ev):

[...]

          k =-0.0912-0.0526 0.0000 ( 16164 PWs)   bands (ev):

   -64.0337 -63.9933 -63.9409 -63.9141 -63.9016 -63.8925 -63.8664 -63.7416
   -63.7373 -63.6793 -63.6752 -63.5852 -36.5532 -36.3645 -36.3595 -36.3556
   -36.3058 -36.2849 -36.1610 -36.1256 -36.1119 -36.0794 -36.0423 -36.0296
   -36.0216 -35.8688 -35.8453 -35.8097 -35.8057 -35.7769 -35.7358 -35.7315
   -35.7099 -35.7005 -35.6810 -35.6685 -35.6591 -35.6455 -35.6395 -35.6293
   -35.5869 -35.5371 -35.5210 -35.4749 -35.4419 -35.3784 -35.3653 -35.3358
   -18.4238  -6.6039  -3.2101  -2.8958  -1.7359  -1.6598  -1.1953  -1.1406
    -1.0159  -0.8736  -0.8438  -0.7890  -0.5446  -0.4760  -0.4218  -0.3325
    -0.1934  -0.1132  -0.0879   0.0951   0.4060   0.4739   0.5694   0.6746
     0.6928   0.7794   1.1576   1.2717   1.3536   1.3997   1.6042   1.7421
     1.8037   1.8251   1.8684   1.8893   1.9598   2.0202   2.0424   2.1353
     2.2394   2.3064   2.4713   2.9118   2.9541   3.0831   3.1145   3.3519
     3.3525   3.4550   3.6146   3.6823   3.8754   3.9234   4.0724

     the Fermi energy is     3.2430 ev

!    total energy              =   -2137.20978818 Ry
     Harris-Foulkes estimate   =   -2137.20978780 Ry
     estimated scf accuracy    <       0.00000001 Ry

     The total energy is the sum of the following terms:

     one-electron contribution =  -19536.01218188 Ry
     hartree contribution      =    9773.97651155 Ry
     xc contribution           =    -405.65001792 Ry
     ewald contribution        =    8030.56259617 Ry
     electric field correction =       0.00068250 Ry
     smearing contrib. (-TS)   =      -0.08737860 Ry

     convergence has been achieved in  10 iterations

 BEEF-vdW xc energy contributions
           1 :   -355.295488700570
           2 :    326.498635301639
           3 :   -275.348990750199
           4 :    212.175779015284
           5 :   -147.939384445524
           6 :    91.2272870629781
           7 :   -46.6101490130862
           8 :    14.5379934886963
           9 :    7.38085540349260
          10 :   -22.5128219142676
          11 :    33.5080370282063
          12 :   -41.4334537787994
          13 :    45.8450905587479
          14 :   -45.5959706700004
          15 :    39.8625960350615
          16 :   -28.9344724075517
          17 :    14.4426630215392
          18 :   0.996555665191920
          19 :   -14.5464717591515
          20 :    23.9714626447434
          21 :   -28.2022848401364
          22 :    27.4397040909038
          23 :   -22.8303294719552
          24 :    15.9004836886128
          25 :   -8.02538661019423
          26 :   0.138058053248869
          27 :    7.25618140412655
          28 :   -13.8567771972406
          29 :    19.3105330191273
          30 :   -23.0892156115172
          31 :   -33.9015779888775
          32 :   -24.8491801949133

     Forces acting on atoms (Ry/au):

     negative rho (up, down):  1.585E+00 0.000E+00
     atom    1 type  1   force =     0.00420613    0.00242838    0.01914214
     atom    2 type  1   force =    -0.00420537    0.00242517    0.01914660
     atom    3 type  1   force =    -0.00000240   -0.00485532    0.01914682
     atom    4 type  1   force =     0.00000317    0.00000099    0.02241351
     atom    5 type  1   force =    -0.00000104    0.00236933   -0.01647504
     atom    6 type  1   force =     0.00000257   -0.00000052   -0.02845402
     atom    7 type  1   force =    -0.00205100   -0.00118337   -0.01647651
     atom    8 type  1   force =     0.00205303   -0.00118587   -0.01647215
     atom    9 type  1   force =    -0.00000270   -0.00000069   -0.00060515
     atom   10 type  1   force =     0.00000236    0.00024147   -0.00059357
     atom   11 type  1   force =     0.00020859   -0.00011591   -0.00059170
     atom   12 type  1   force =    -0.00021243   -0.00012170   -0.00058735
     atom   13 type  2   force =    -0.00000075   -0.00000260    0.00076662
     atom   14 type  3   force =    -0.00000016    0.00000063   -0.00036020

     Total force =     0.001519     Total SCF correction =     0.000405
     SCF correction compared to forces is large: reduce conv_thr to get better values

     entering subroutine stress ...

     negative rho (up, down):  1.585E+00 0.000E+00
          total   stress  (Ry/bohr**3)                   (kbar)     P=  -18.37
  -0.00013897  -0.00000000  -0.00000000        -20.44     -0.00     -0.00
  -0.00000000  -0.00013897   0.00000000         -0.00    -20.44      0.00
  -0.00000000   0.00000000  -0.00009669         -0.00      0.00    -14.22

     bfgs converged in  13 scf cycles and  12 bfgs steps
     (criteria: energy <  1.0E+00, force <  1.9E-03)

     End of BFGS Geometry Optimization

     Final energy   =   -2137.2097881759 Ry
Begin final coordinates

ATOMIC_POSITIONS (crystal)
Tc1      0.166666667   0.166666667   0.408540475    0   0   0
Tc1      0.666666667   0.166666667   0.408540475    0   0   0
Tc1      0.166666667   0.666666667   0.408540475    0   0   0
Tc1      0.666666667   0.666666667   0.408540475    0   0   0
Tc1      0.833333333   0.333333333   0.500000000    0   0   0
Tc1      0.333333333   0.333333333   0.500000000    0   0   0
Tc1      0.833333333   0.833333333   0.500000000    0   0   0
Tc1      0.333333333   0.833333333   0.500000000    0   0   0
Tc1      0.000001669  -0.000001697   0.585246568
Tc1      0.510874734  -0.021746578   0.589273026
Tc1     -0.021741427   0.510869537   0.589272805
Tc1      0.510874218   0.510870687   0.589272929
O1       0.333334844   0.333332151   0.644393117
H1       0.333337320   0.333329618   0.684128789
End final coordinates

     Writing output data file calc.save

     General routines

     Parallel routines

   This run was terminated on:  14:14:38  23Apr2018

   JOB DONE.
Job  /afs/slac/g/suncat/bin/suncat-tsmpirun -x LD_LIBRARY_PATH -wdir /scratch/qe374742_SKpVL pw.x -npool 3 -in pw.inp

TID   HOST_NAME   COMMAND_LINE            STATUS            TERMINATION_TIME
00000 suncat1050 pw.x -npool 3 -i  Done                     04/23/2018 14:14:38
00001 suncat1050 pw.x -npool 3 -i  Done                     04/23/2018 14:14:38
00002 suncat1050 pw.x -npool 3 -i  Done                     04/23/2018 14:14:38
00003 suncat1050 pw.x -npool 3 -i  Done                     04/23/2018 14:14:38
00004 suncat1050 pw.x -npool 3 -i  Done                     04/23/2018 14:14:38
00005 suncat1050 pw.x -npool 3 -i  Done                     04/23/2018 14:14:38
00006 suncat1050 pw.x -npool 3 -i  Done                     04/23/2018 14:14:38
00007 suncat1050 pw.x -npool 3 -i  Done                     04/23/2018 14:14:38
00008 suncat1050 pw.x -npool 3 -i  Done                     04/23/2018 14:14:38
00009 suncat1050 pw.x -npool 3 -i  Done                     04/23/2018 14:14:38
00010 suncat1050 pw.x -npool 3 -i  Done                     04/23/2018 14:14:38
00011 suncat1050 pw.x -npool 3 -i  Done                     04/23/2018 14:14:38
00012 suncat1017 pw.x -npool 3 -i  Done                     04/23/2018 14:14:38
00013 suncat1017 pw.x -npool 3 -i  Done                     04/23/2018 14:14:38
00014 suncat1017 pw.x -npool 3 -i  Done                     04/23/2018 14:14:38
00015 suncat1017 pw.x -npool 3 -i  Done                     04/23/2018 14:14:38
00016 suncat1017 pw.x -npool 3 -i  Done                     04/23/2018 14:14:38
00017 suncat1017 pw.x -npool 3 -i  Done                     04/23/2018 14:14:38
00018 suncat1017 pw.x -npool 3 -i  Done                     04/23/2018 14:14:38
00019 suncat1017 pw.x -npool 3 -i  Done                     04/23/2018 14:14:38
00020 suncat1017 pw.x -npool 3 -i  Done                     04/23/2018 14:14:38
00021 suncat1017 pw.x -npool 3 -i  Done                     04/23/2018 14:14:38
00022 suncat1017 pw.x -npool 3 -i  Done                     04/23/2018 14:14:38
00023 suncat1017 pw.x -npool 3 -i  Done                     04/23/2018 14:14:38
00024 suncat1016 pw.x -npool 3 -i  Done                     04/23/2018 14:14:38
00025 suncat1016 pw.x -npool 3 -i  Done                     04/23/2018 14:14:38
00026 suncat1016 pw.x -npool 3 -i  Done                     04/23/2018 14:14:38
00027 suncat1016 pw.x -npool 3 -i  Done                     04/23/2018 14:14:38
00028 suncat1016 pw.x -npool 3 -i  Done                     04/23/2018 14:14:38
00029 suncat1016 pw.x -npool 3 -i  Done                     04/23/2018 14:14:38
00030 suncat1016 pw.x -npool 3 -i  Done                     04/23/2018 14:14:38
00031 suncat1016 pw.x -npool 3 -i  Done                     04/23/2018 14:14:38
00032 suncat1016 pw.x -npool 3 -i  Done                     04/23/2018 14:14:38
00033 suncat1016 pw.x -npool 3 -i  Done                     04/23/2018 14:14:38
00034 suncat1016 pw.x -npool 3 -i  Done                     04/23/2018 14:14:38
00035 suncat1016 pw.x -npool 3 -i  Done                     04/23/2018 14:14:38