     Program PWSCF v.5.1rc2 starts on  9May2018 at  8: 1: 3

     Current dimensions of program PWSCF are:
     Max number of different atomic species (ntypx) = 10
     Max number of k-points (npk) =  40000
     Max angular momentum in pseudopotentials (lmaxx) =  3
     Presently stress not available with electric field

     IMPORTANT: XC functional enforced from input :
     Exchange-correlation      = BEEF-VDW ( 1  4 27 13 2)
     Any further DFT definition will be discarded
     Please, verify this is what you really want

     Generating pointlists ...
     new r_m :   0.4125 (alat units)  0.7795 (a.u.) for type    1
     new r_m :   0.4125 (alat units)  0.7795 (a.u.) for type    2
     new r_m :   0.4125 (alat units)  0.7795 (a.u.) for type    3

     bravais-lattice index     =            0
     lattice parameter (alat)  =       1.8897  a.u.
     unit-cell volume          =    3747.1846 (a.u.)^3
     number of atoms/cell      =           15
     number of atomic types    =            3
     number of electrons       =       186.00
     number of Kohn-Sham states=          103
     kinetic-energy cutoff     =      36.7493  Ry
     charge density cutoff     =     367.4932  Ry
     convergence threshold     =      1.0E-05
     mixing beta               =       0.3000
     number of iterations used =           10  plain     mixing
     Exchange-correlation      = BEEF-VDW ( 1  4 27 13 2)
     nstep                     =           50

     celldm(1)=   1.889726  celldm(2)=   0.000000  celldm(3)=   0.000000
     celldm(4)=   0.000000  celldm(5)=   0.000000  celldm(6)=   0.000000

     crystal axes: (cart. coord. in units of alat)
               a(1) = (   5.147050   0.000000   0.000000 )
               a(2) = (   2.573525   4.457476   0.000000 )
               a(3) = (   0.000000   0.000000  24.202549 )

     reciprocal axes: (cart. coord. in units 2 pi/alat)
               b(1) = (  0.194286 -0.112171 -0.000000 )
               b(2) = (  0.000000  0.224342  0.000000 )
               b(3) = (  0.000000  0.000000  0.041318 )

     PseudoPot. # 1 for Mn read from file:
     /home/users/winther/src/pseudo/Mn.UPF
     MD5 check sum: 82ef2b46521d7a7d9e736dc3972e4928
     Pseudo is Ultrasoft + core correction, Zval = 15.0
     Generated by new atomic code, or converted to UPF format
     Using radial grid of  859 points,  6 beta functions with:
                l(1) =   0
                l(2) =   0
                l(3) =   1
                l(4) =   1
                l(5) =   2
                l(6) =   2
     Q(r) pseudized with  8 coefficients,  rinner =    0.950   0.950   0.950
                                                       0.950   0.950

     PseudoPot. # 2 for C  read from file:
     /home/users/winther/src/pseudo/C.UPF
     MD5 check sum: d1aef80898a10debaa0f26306b886e00
     Pseudo is Ultrasoft + core correction, Zval =  4.0
     Generated by new atomic code, or converted to UPF format
     Using radial grid of  721 points,  4 beta functions with:
                l(1) =   0
                l(2) =   0
                l(3) =   1
                l(4) =   1
     Q(r) pseudized with  8 coefficients,  rinner =    1.100   1.100   1.100

     PseudoPot. # 3 for H  read from file:
     /home/users/winther/src/pseudo/H.UPF
     MD5 check sum: 761ae9a214b05c3daf00ab9f6b793d6f
     Pseudo is Ultrasoft, Zval =  1.0
     Generated by new atomic code, or converted to UPF format
     Using radial grid of  615 points,  2 beta functions with:
                l(1) =   0
                l(2) =   0
     Q(r) pseudized with  8 coefficients,  rinner =    0.700

     vdW kernel table read from file vdW_kernel_table
     MD5 check sum: 095c7af220d748ca6e76c0b4c6cfb241

     atomic species   valence    mass     pseudopotential
        Mn1           15.00    54.93804     Mn( 1.00)
        C1             4.00    12.01100     C ( 1.00)
        H1             1.00     1.00800     H ( 1.00)

     Starting magnetic structure
     atomic species   magnetization
        Mn1          0.193
        C1           0.000
        H1           0.000

     No symmetry found

   Cartesian axes

     site n.     atom                  positions (alat units)
         1           Mn1 tau(   1) = (   0.0000000   0.0000000  10.0000000  )
         2           Mn1 tau(   2) = (   1.2867625   2.2287380  10.0000000  )
         3           Mn1 tau(   3) = (   2.5735249   0.0000000  10.0000000  )
         4           Mn1 tau(   4) = (   3.8602874   2.2287380  10.0000000  )
         5           Mn1 tau(   5) = (   5.1470499   2.9716506  12.1012743  )
         6           Mn1 tau(   6) = (   3.8602874   0.7429127  12.1012743  )
         7           Mn1 tau(   7) = (   2.5735249   2.9716506  12.1012743  )
         8           Mn1 tau(   8) = (   1.2867625   0.7429127  12.1012743  )
         9           Mn1 tau(   9) = (   2.5729805   1.4859362  14.2013976  )
        10           Mn1 tau(  10) = (   3.8606631   3.7139626  14.2022569  )
        11           Mn1 tau(  11) = (   5.1464482   1.4876776  14.2025351  )
        12           Mn1 tau(  12) = (   6.4327546   3.7153858  14.2013278  )
        13           C1  tau(  13) = (   3.8604963   2.2267783  15.6026944  )
        14           H1  tau(  14) = (   3.8604843   2.2294764  16.6741940  )
        15           H1  tau(  15) = (   5.1469342   2.9713495  14.8339588  )

     number of k points=    40  Fermi-Dirac smearing, width (Ry)=  0.0110
                       cart. coord. in units 2pi/alat
        k(    1) = (   0.0000000   0.0000000   0.0000000), wk =   0.0277778
        k(    2) = (   0.0000000   0.0373904   0.0000000), wk =   0.0555556
        k(    3) = (   0.0000000   0.0747807   0.0000000), wk =   0.0555556
        k(    4) = (   0.0000000  -0.1121711   0.0000000), wk =   0.0277778
        k(    5) = (   0.0323810  -0.0186952  -0.0000000), wk =   0.0555556
        k(    6) = (   0.0323810   0.0186952  -0.0000000), wk =   0.0555556
        k(    7) = (   0.0323810   0.0560856  -0.0000000), wk =   0.0555556
        k(    8) = (   0.0323810  -0.1308663  -0.0000000), wk =   0.0555556
        k(    9) = (   0.0323810  -0.0934759  -0.0000000), wk =   0.0555556
        k(   10) = (   0.0323810  -0.0560856  -0.0000000), wk =   0.0555556
        k(   11) = (   0.0647620  -0.0373904  -0.0000000), wk =   0.0555556
        k(   12) = (   0.0647620  -0.0000000  -0.0000000), wk =   0.0555556
        k(   13) = (   0.0647620   0.0373904  -0.0000000), wk =   0.0555556
        k(   14) = (   0.0647620  -0.1495615  -0.0000000), wk =   0.0555556
        k(   15) = (   0.0647620  -0.1121711  -0.0000000), wk =   0.0555556
        k(   16) = (   0.0647620  -0.0747807  -0.0000000), wk =   0.0555556
        k(   17) = (  -0.0971430   0.0560856   0.0000000), wk =   0.0277778
        k(   18) = (  -0.0971430   0.0934759   0.0000000), wk =   0.0555556
        k(   19) = (  -0.0971430   0.1308663   0.0000000), wk =   0.0555556
        k(   20) = (  -0.0971430  -0.0560856   0.0000000), wk =   0.0277778
        k(   21) = (   0.0000000   0.0000000   0.0000000), wk =   0.0277778
        k(   22) = (   0.0000000   0.0373904   0.0000000), wk =   0.0555556
        k(   23) = (   0.0000000   0.0747807   0.0000000), wk =   0.0555556
        k(   24) = (   0.0000000  -0.1121711   0.0000000), wk =   0.0277778
        k(   25) = (   0.0323810  -0.0186952  -0.0000000), wk =   0.0555556
        k(   26) = (   0.0323810   0.0186952  -0.0000000), wk =   0.0555556
        k(   27) = (   0.0323810   0.0560856  -0.0000000), wk =   0.0555556
        k(   28) = (   0.0323810  -0.1308663  -0.0000000), wk =   0.0555556
        k(   29) = (   0.0323810  -0.0934759  -0.0000000), wk =   0.0555556
        k(   30) = (   0.0323810  -0.0560856  -0.0000000), wk =   0.0555556
        k(   31) = (   0.0647620  -0.0373904  -0.0000000), wk =   0.0555556
        k(   32) = (   0.0647620  -0.0000000  -0.0000000), wk =   0.0555556
        k(   33) = (   0.0647620   0.0373904  -0.0000000), wk =   0.0555556
        k(   34) = (   0.0647620  -0.1495615  -0.0000000), wk =   0.0555556
        k(   35) = (   0.0647620  -0.1121711  -0.0000000), wk =   0.0555556
        k(   36) = (   0.0647620  -0.0747807  -0.0000000), wk =   0.0555556
        k(   37) = (  -0.0971430   0.0560856   0.0000000), wk =   0.0277778
        k(   38) = (  -0.0971430   0.0934759   0.0000000), wk =   0.0555556
        k(   39) = (  -0.0971430   0.1308663   0.0000000), wk =   0.0555556
        k(   40) = (  -0.0971430  -0.0560856   0.0000000), wk =   0.0277778

     Largest allocated arrays     est. size (Mb)     dimensions
     Largest temporary arrays     est. size (Mb)     dimensions

     Check: negative/imaginary core charge=   -0.000010    0.000000

     Initial potential from superposition of free atoms
     Check: negative starting charge=(component1):   -0.001541
     Check: negative starting charge=(component2):   -0.001024

     starting charge  179.99892, renormalised to  186.00000

     negative rho (up, down):  1.593E-03 1.059E-03

     *
     * You are using vdW-DF for exchange-correlation in this calculation.
     * Please cite the following three references that made this development
     * possible:
     *
     *   M. Dion, H. Rydberg, E. Schroder, D. C. Langreth, and
     *   B. I. Lundqvist, Phys. Rev. Lett. 92, 246401 (2004).
     *
     *   T. Thonhauser, V. R. Cooper, S. Li, A. Puzder, P. Hyldgaard, and
     *   D. C. Langreth, Phys. Rev. B 76, 125112 (2007).
     *
     *   G. Roman-Perez and J. M. Soler, Phys. Rev. Lett. 103, 096102 (2009).
     *
     *
     * If you are using vdW-DF2, please also cite:
     *
     *   K. Lee, E. D. Murray, L. Kong, B. I. Lundqvist, and
     *   D. C. Langreth, Phys. Rev. B 82, 081101(R) (2010).
     *
     *
     * If you are calculating the stress with vdW-DF, please also cite:
     *
     *   R. Sabatini, E. Kucukbenli, B. Kolb, T. Thonhauser, and
     *   S. de Gironcoli, J. Phys.: Condens. Matter 24, 424209 (2012).
     *

     Carrying out vdW-DF run using the following parameters:

     Nqs =      20    Nr_points =    1024   r_max =   100.000
     q_mesh =
               0.00001000     0.04494208     0.09755937     0.15916263
               0.23128650     0.31572767     0.41458969     0.53033537
               0.66584808     0.82450364     1.01025438     1.22772762
               1.48234092     1.78043706     2.12944203     2.53805004
               3.01644009     3.57652955     4.23227104     5.00000000

     Gradients computed in reciprocal space

     Adding external electric field

     Computed dipole along edir(3) :
        Dipole               -1.3423 Ry au,         -3.4119 Debye
        Dipole field         -0.0045 Ry au

        Potential amp.        0.4015 Ry
        Total length         44.5928 bohr

[...]

     Starting wfc are  162 randomized atomic wfcs

     Self-consistent Calculation

     iteration #  1     ecut=    36.75 Ry     beta=0.30
     Davidson diagonalization with overlap
     ethr =  1.00E-02,  avg # of iterations =  2.0

[...]

     Magnetic moment per site:
     atom:    1    charge:    6.1450    magn:    1.0752    constr:    0.0000
[...]
     atom:   14    charge:    0.3473    magn:    0.0002    constr:    0.0000
     atom:   15    charge:    0.3533    magn:    0.0043    constr:    0.0000

     total energy              =   -2498.89915814 Ry
     Harris-Foulkes estimate   =   -2561.26564041 Ry
     estimated scf accuracy    <     130.01869996 Ry

     total magnetization       =    18.47 Bohr mag/cell
     absolute magnetization    =    18.99 Bohr mag/cell

[...]

     iteration # 66     ecut=    36.75 Ry     beta=0.30
     Davidson diagonalization with overlap
     c_bands:  1 eigenvalues not converged
     ethr =  5.83E-06,  avg # of iterations =  4.1

[...]

     End of self-consistent calculation

 ------ SPIN UP ------------

          k = 0.0000 0.0000 0.0000 ( 14177 PWs)   bands (ev):

   -79.3164 -79.1391 -79.0537 -78.9837 -78.9517 -78.9498 -78.8321 -78.7973
   -76.6526 -76.6089 -76.5766 -76.3275 -48.2120 -48.0238 -47.9531 -47.9320
   -47.9291 -47.9268 -47.8665 -47.8472 -47.8436 -47.8309 -47.7700 -47.7679
   -47.6998 -47.6861 -47.6033 -47.5507 -47.5486 -47.5433 -47.5374 -47.4509
   -47.4486 -47.4466 -47.4330 -47.3603 -45.6123 -45.4901 -45.4631 -45.3811
   -45.3468 -45.3025 -45.2947 -45.2327 -45.2282 -45.1551 -45.0790 -44.9929
   -10.2870  -6.6192  -5.5486  -4.2738  -3.7320  -2.8697  -2.7475  -2.6486
    -2.5513  -2.5311  -2.5112  -2.3709  -2.3651  -1.9886  -1.9862  -1.9129
    -1.7120  -1.6857  -1.6247  -1.0586  -0.8487  -0.7682  -0.7123  -0.5978
    -0.5208  -0.3362  -0.2467  -0.2245  -0.1944  -0.1044  -0.0270   0.1082
     0.1174   0.1795   0.2691   0.2729   0.3900   0.4548   0.5344   0.5601
     0.7123   0.8394   1.0397   1.1350   1.2896   1.3552   1.4278   1.6240
     1.7218   1.8621   1.9153   1.9429   1.9477   1.9490   2.0855

[...]

          k =-0.0971 0.0561 0.0000 ( 14098 PWs)   bands (ev):

[...]

 ------ SPIN DOWN ----------

[...]

     the Fermi energy is     1.4224 ev

!    total energy              =   -2559.22587453 Ry
     Harris-Foulkes estimate   =   -2559.22587338 Ry
     estimated scf accuracy    <       0.00000752 Ry

     The total energy is the sum of the following terms:

     one-electron contribution =  -23110.46916370 Ry
     hartree contribution      =   11554.85440470 Ry
     xc contribution           =    -336.01696671 Ry
     ewald contribution        =    9332.50714941 Ry
     electric field correction =       0.00000129 Ry
     smearing contrib. (-TS)   =      -0.10129951 Ry

[...]

     convergence has been achieved in 177 iterations

 BEEF-vdW xc energy contributions
           1 :   -292.970587146461
           2 :    264.743448390525
           3 :   -217.553094597845
           4 :    165.258812337508
           5 :   -120.143569808143
           6 :    88.5707104280986
           7 :   -70.1618348824806
           8 :    60.0968064562347
           9 :   -52.7136867186200
          10 :    44.3766359219192
          11 :   -34.4400612947291
          12 :    24.3737337577213
          13 :   -16.0677192100293
          14 :    10.4967552582172
          15 :   -7.37707387156155
          16 :    5.66663375426180
          17 :   -4.31813891847395
          18 :    2.76189025155008
          19 :  -0.965383026902543
          20 :  -0.787335957235200
          21 :    2.16029029824642
          22 :   -2.93583279961854
          23 :    3.08212547956037
          24 :   -2.76744404170125
          25 :    2.32519046355566
          26 :   -2.13753923549353
          27 :    2.44362615965298
          28 :   -3.17941206709679
          29 :    3.98394559545545
          30 :   -4.41114067191108
          31 :   -27.0311883470204
          32 :   -19.2428044067956

     Forces acting on atoms (Ry/au):

     negative rho (up, down):  1.952E-03 1.775E-03
     atom    1 type  1   force =    -0.00510606   -0.00297464    0.00207286
     atom    2 type  1   force =     0.00107336    0.00302127   -0.00102166
     atom    3 type  1   force =     0.00312190   -0.00059972   -0.00095951
     atom    4 type  1   force =     0.00081711    0.00050689    0.01370201
     atom    5 type  1   force =    -0.00037623   -0.00014345   -0.00312648
     atom    6 type  1   force =     0.00697768    0.00200534   -0.01455383
     atom    7 type  1   force =     0.00529028    0.00501716   -0.01442927
     atom    8 type  1   force =     0.00229631    0.00134624    0.00880187
     atom    9 type  1   force =    -0.00348179   -0.00181686    0.04268164
     atom   10 type  1   force =    -0.02756991    0.00163344    0.01161855
     atom   11 type  1   force =    -0.01202736   -0.02521479    0.01174122
     atom   12 type  1   force =     0.04393397    0.02524265   -0.03562175
     atom   13 type  2   force =    -0.04035226   -0.02319254   -0.10307821
     atom   14 type  3   force =     0.01065010    0.00619359    0.02614770
     atom   15 type  3   force =     0.01475291    0.00897541    0.05602487

     Total force =     0.156695     Total SCF correction =     0.004770

     entering subroutine stress ...

     negative rho (up, down):  1.952E-03 1.775E-03
          total   stress  (Ry/bohr**3)                   (kbar)     P=   -5.45
  -0.00002187   0.00002497  -0.00002545         -3.22      3.67     -3.74
   0.00002497  -0.00005043  -0.00001444          3.67     -7.42     -2.12
  -0.00002545  -0.00001444  -0.00003881         -3.74     -2.12     -5.71

     BFGS Geometry Optimization

     number of scf cycles    =   1
     number of bfgs steps    =   0

     energy   new            =   -2559.2258745255 Ry

     new trust radius        =       0.1130987035 bohr
     new conv_thr            =       0.0000099958 Ry

ATOMIC_POSITIONS (crystal)
Mn1     -0.000000000   0.000000000   0.413179627    0   0   0
Mn1     -0.000000000   0.500000000   0.413179627    0   0   0
Mn1      0.500000000   0.000000000   0.413179627    0   0   0
Mn1      0.500000000   0.500000000   0.413179627    0   0   0
Mn1      0.666666667   0.666666667   0.500000000    0   0   0
Mn1      0.666666667   0.166666667   0.500000000    0   0   0
Mn1      0.166666667   0.666666667   0.500000000    0   0   0
Mn1      0.166666667   0.166666667   0.500000000    0   0   0
Mn1      0.332965002   0.333142526   0.587706030
Mn1      0.330542231   0.833392501   0.587062355
Mn1      0.833268813   0.330755459   0.587076532
Mn1      0.836054134   0.836514591   0.585991078
C1       0.497488383   0.496807019   0.642417790
H1       0.500682727   0.500900953   0.689515432
H1       0.667661979   0.667664648   0.614133914

     Writing output data file calc.save
     Check: negative starting charge=(component1):   -0.002564
     NEW-OLD atomic charge density approx. for the potential

     Check: negative/imaginary core charge=   -0.000010    0.000000
     Check: negative starting charge=(component1):   -0.002572

[...]

     energy   old            =   -2559.2258745255 Ry
     energy   new            =   -2559.2412499225 Ry

     CASE: energy  _new < energy  _old

[...]

     iteration # 47     ecut=    36.75 Ry     beta=0.30
     Davidson diagonalization with overlap
     c_bands:  1 eigenvalues not converged
     ethr =  6.39E-07,  avg # of iterations =  3.2

[...]

     Total force =     0.004420     Total SCF correction =     0.000100

[...]

     number of scf cycles    =  17
     number of bfgs steps    =  16

     energy   old            =   -2559.2764137494 Ry
     energy   new            =   -2559.2764618006 Ry

     CASE: energy  _new < energy  _old

     new trust radius        =       0.0103587992 bohr
     new conv_thr            =       0.0000001000 Ry

ATOMIC_POSITIONS (crystal)
Mn1     -0.000000000   0.000000000   0.413179627    0   0   0
Mn1     -0.000000000   0.500000000   0.413179627    0   0   0
Mn1      0.500000000   0.000000000   0.413179627    0   0   0
Mn1      0.500000000   0.500000000   0.413179627    0   0   0
Mn1      0.666666667   0.666666667   0.500000000    0   0   0
Mn1      0.666666667   0.166666667   0.500000000    0   0   0
Mn1      0.166666667   0.666666667   0.500000000    0   0   0
Mn1      0.166666667   0.166666667   0.500000000    0   0   0
Mn1      0.314957945   0.315130396   0.589246855
Mn1      0.338879842   0.820040347   0.589293943
Mn1      0.819942806   0.339071473   0.589271068
Mn1      0.837197270   0.837407935   0.582408528
C1       0.474058337   0.473731402   0.640446082
H1       0.488133745   0.487813281   0.685423264
H1       0.689184531   0.689273404   0.626608717

     Writing output data file calc.save
     Check: negative starting charge=(component1):   -0.002633
     NEW-OLD atomic charge density approx. for the potential

     Check: negative/imaginary core charge=   -0.000010    0.000000
     Check: negative starting charge=(component1):   -0.002633

[...]

     Self-consistent Calculation

[...]

     total energy              =   -2559.27649442 Ry
     Harris-Foulkes estimate   =   -2559.27649441 Ry
     estimated scf accuracy    <       0.00000012 Ry

[...]

     iteration # 18     ecut=    36.75 Ry     beta=0.30
     Davidson diagonalization with overlap
     ethr =  6.31E-11,  avg # of iterations =  1.6

[...]

     negative rho (up, down):  1.993E-03 1.827E-03

[...]

     Adding external electric field

     Computed dipole along edir(3) :
        Dipole                0.0123 Ry au,          0.0312 Debye
        Dipole field          0.0000 Ry au

        Potential amp.       -0.0037 Ry
        Total length         44.5928 bohr

     Magnetic moment per site:
     atom:    1    charge:    6.0019    magn:    1.0163    constr:    0.0000
     atom:    2    charge:    6.0018    magn:    1.0085    constr:    0.0000
     atom:    3    charge:    6.0018    magn:    1.0086    constr:    0.0000
     atom:    4    charge:    6.0017    magn:    1.0265    constr:    0.0000
     atom:    5    charge:    5.9917    magn:   -0.9207    constr:    0.0000
     atom:    6    charge:    5.9915    magn:   -0.8780    constr:    0.0000
     atom:    7    charge:    5.9915    magn:   -0.8783    constr:    0.0000
     atom:    8    charge:    5.9957    magn:    1.0144    constr:    0.0000
     atom:    9    charge:    5.2727    magn:   -0.9552    constr:    0.0000
     atom:   10    charge:    5.8084    magn:    0.8073    constr:    0.0000
     atom:   11    charge:    5.8119    magn:    0.8063    constr:    0.0000
     atom:   12    charge:    5.6863    magn:    0.9745    constr:    0.0000
     atom:   13    charge:    0.5717    magn:   -0.0006    constr:    0.0000
     atom:   14    charge:    0.3478    magn:    0.0011    constr:    0.0000
     atom:   15    charge:    0.2843    magn:   -0.0121    constr:    0.0000

     End of self-consistent calculation

 ------ SPIN UP ------------

[...]

 ------ SPIN DOWN ----------

[...]

          k = 0.0648-0.0748-0.0000 ( 14076 PWs)   bands (ev):

[...]

          k =-0.0971-0.0561 0.0000 ( 14098 PWs)   bands (ev):

   -79.3565 -79.1820 -79.1098 -79.0789 -76.5804 -76.5416 -76.3794 -76.3679
   -76.1795 -76.1506 -76.1193 -76.1172 -48.1344 -48.1144 -48.0051 -47.9556
   -47.9413 -47.8845 -47.8752 -47.8460 -47.7941 -47.7831 -47.7550 -47.5544
   -45.6119 -45.4088 -45.3956 -45.2783 -45.2356 -45.2052 -45.1755 -45.1483
   -45.1438 -45.1287 -45.1252 -45.1009 -45.0902 -45.0748 -45.0016 -44.9856
   -44.9600 -44.9369 -44.8653 -44.8366 -44.8191 -44.7956 -44.7748 -44.7745
    -9.9072  -5.1005  -4.4760  -3.8079  -3.6576  -2.3278  -2.3013  -2.1164
    -2.0531  -1.9545  -1.8890  -1.7722  -1.7310  -1.6693  -1.3029  -1.2038
    -1.1650  -1.0678  -0.9233  -0.8267  -0.8126  -0.6819  -0.6486  -0.5089
    -0.4446  -0.1444   0.1504   0.2135   0.3413   0.4008   0.5265   0.5794
     0.7667   0.8040   0.8724   0.9719   1.0488   1.1355   1.2216   1.2633
     1.3628   1.3957   1.4867   1.6001   1.8801   1.9421   2.0771   2.1269
     2.2254   2.2282   2.4363   2.6175   2.6479   2.6939   2.7294

     the Fermi energy is     1.4236 ev

!    total energy              =   -2559.27649442 Ry
     Harris-Foulkes estimate   =   -2559.27649451 Ry
     estimated scf accuracy    <       0.00000004 Ry

     The total energy is the sum of the following terms:

     one-electron contribution =  -23066.75288992 Ry
     hartree contribution      =   11532.89976007 Ry
     xc contribution           =    -335.95996704 Ry
     ewald contribution        =    9310.63741504 Ry
     electric field correction =       0.00000050 Ry
     smearing contrib. (-TS)   =      -0.10081307 Ry

     total magnetization       =    10.24 Bohr mag/cell
     absolute magnetization    =    29.51 Bohr mag/cell

     convergence has been achieved in  18 iterations

 BEEF-vdW xc energy contributions
           1 :   -292.912368555825
           2 :    264.679327882172
           3 :   -217.480231806939
           4 :    165.184274934272
           5 :   -120.084625947904
           6 :    88.5427845027719
           7 :   -70.1647915107177
           8 :    60.1135177471229
           9 :   -52.7233881445271
          10 :    44.3702483090856
          11 :   -34.4249733821205
          12 :    24.3660648459503
          13 :   -16.0782503000257
          14 :    10.5199302629729
          15 :   -7.39140759390284
          16 :    5.64897861292178
          17 :   -4.26376676086977
          18 :    2.69299298477188
          19 :  -0.918291129165937
          20 :  -0.786714735220130
          21 :    2.11395674476233
          22 :   -2.87305644103537
          23 :    3.04285788036975
          24 :   -2.78040623753969
          25 :    2.39296048848922
          26 :   -2.23721701150225
          27 :    2.54226573700578
          28 :   -3.25282226977208
          29 :    4.02521253794907
          30 :   -4.42516134991894
          31 :   -27.0314757265870
          32 :   -19.2410257513183

     Forces acting on atoms (Ry/au):

     negative rho (up, down):  1.993E-03 1.827E-03
     atom    1 type  1   force =    -0.00543541   -0.00313565    0.00152177
     atom    2 type  1   force =     0.00076516    0.00331583   -0.00107781
     atom    3 type  1   force =     0.00325583   -0.00099114   -0.00110012
     atom    4 type  1   force =     0.00133283    0.00077002    0.01261437
     atom    5 type  1   force =    -0.00299637   -0.00171895   -0.00187790
     atom    6 type  1   force =     0.00355780    0.00763003   -0.01168048
     atom    7 type  1   force =     0.00834922   -0.00071107   -0.01166375
     atom    8 type  1   force =    -0.00381934   -0.00223390    0.01757504
     atom    9 type  1   force =    -0.00049528   -0.00025332   -0.00011417
     atom   10 type  1   force =    -0.00154463   -0.00057997   -0.00121101
     atom   11 type  1   force =    -0.00127747   -0.00108555   -0.00117573
     atom   12 type  1   force =    -0.00030958   -0.00016726   -0.00111997
     atom   13 type  2   force =     0.00013390    0.00004050    0.00026568
     atom   14 type  3   force =    -0.00067523   -0.00038399   -0.00135034
     atom   15 type  3   force =    -0.00084142   -0.00049556    0.00039441

     Total force =     0.003702     Total SCF correction =     0.000785
     SCF correction compared to forces is large: reduce conv_thr to get better values

     entering subroutine stress ...

     negative rho (up, down):  1.993E-03 1.827E-03
          total   stress  (Ry/bohr**3)                   (kbar)     P=   -8.08
  -0.00004713   0.00002937  -0.00000642         -6.93      4.32     -0.94
   0.00002937  -0.00008117  -0.00000377          4.32    -11.94     -0.55
  -0.00000642  -0.00000377  -0.00003644         -0.94     -0.55     -5.36

     bfgs converged in  18 scf cycles and  17 bfgs steps
     (criteria: energy <  1.0E+00, force <  1.9E-03)

     End of BFGS Geometry Optimization

     Final energy   =   -2559.2764944183 Ry
Begin final coordinates

ATOMIC_POSITIONS (crystal)
Mn1     -0.000000000   0.000000000   0.413179627    0   0   0
Mn1     -0.000000000   0.500000000   0.413179627    0   0   0
Mn1      0.500000000   0.000000000   0.413179627    0   0   0
Mn1      0.500000000   0.500000000   0.413179627    0   0   0
Mn1      0.666666667   0.666666667   0.500000000    0   0   0
Mn1      0.666666667   0.166666667   0.500000000    0   0   0
Mn1      0.166666667   0.666666667   0.500000000    0   0   0
Mn1      0.166666667   0.166666667   0.500000000    0   0   0
Mn1      0.314957945   0.315130396   0.589246855
Mn1      0.338879842   0.820040347   0.589293943
Mn1      0.819942806   0.339071473   0.589271068
Mn1      0.837197270   0.837407935   0.582408528
C1       0.474058337   0.473731402   0.640446082
H1       0.488133745   0.487813281   0.685423264
H1       0.689184531   0.689273404   0.626608717
End final coordinates

     Writing output data file calc.save

     General routines

     Parallel routines

   This run was terminated on:  11: 3:43   9May2018

   JOB DONE.