     Program PWSCF v.5.1rc2 (svn rev. 11289) starts on 21Apr2018 at 23:23:25

     Current dimensions of program PWSCF are:
     Max number of different atomic species (ntypx) = 10
     Max number of k-points (npk) =  40000
     Max angular momentum in pseudopotentials (lmaxx) =  3
     Presently stress not available with electric field

     IMPORTANT: XC functional enforced from input :
     Exchange-correlation      = BEEF-VDW ( 1  4 27 13 2)
     Any further DFT definition will be discarded
     Please, verify this is what you really want

     Subspace diagonalization in iterative solution of the eigenvalue problem:
     a serial algorithm will be used

     bravais-lattice index     =            0
     lattice parameter (alat)  =       1.8897  a.u.
     unit-cell volume          =    4569.9960 (a.u.)^3
     number of atoms/cell      =           15
     number of atomic types    =            3
     number of electrons       =       198.00
     number of Kohn-Sham states=          109
     kinetic-energy cutoff     =      36.7493  Ry
     charge density cutoff     =     367.4932  Ry
     convergence threshold     =      1.0E-05
     mixing beta               =       0.3000
     number of iterations used =           10  plain     mixing
     Exchange-correlation      = BEEF-VDW ( 1  4 27 13 2)
     nstep                     =           50

     celldm(1)=   1.889726  celldm(2)=   0.000000  celldm(3)=   0.000000
     celldm(4)=   0.000000  celldm(5)=   0.000000  celldm(6)=   0.000000

     crystal axes: (cart. coord. in units of alat)
               a(1) = (   5.637663   0.000000   0.000000 )
               a(2) = (   2.818831   4.882359   0.000000 )
               a(3) = (   0.000000   0.000000  24.603132 )

     reciprocal axes: (cart. coord. in units 2 pi/alat)
               b(1) = (  0.177378 -0.102410  0.000000 )
               b(2) = (  0.000000  0.204819  0.000000 )
               b(3) = (  0.000000  0.000000  0.040645 )

     PseudoPot. # 1 for Pd read from file:
     /u/if/mamunm/psp/gbrv1.5pbe/Pd.UPF
     MD5 check sum: 2d733d2bc2cbfd217af676df1668a4bc
     Pseudo is Ultrasoft + core correction, Zval = 16.0
     Generated by new atomic code, or converted to UPF format
     Using radial grid of  887 points,  6 beta functions with:
                l(1) =   0
                l(2) =   0
                l(3) =   1
                l(4) =   1
                l(5) =   2
                l(6) =   2
     Q(r) pseudized with  8 coefficients,  rinner =    1.130   1.130   1.130
                                                       1.130   1.130

     PseudoPot. # 2 for C  read from file:
     /u/if/mamunm/psp/gbrv1.5pbe/C.UPF
     MD5 check sum: d1aef80898a10debaa0f26306b886e00
     Pseudo is Ultrasoft + core correction, Zval =  4.0
     Generated by new atomic code, or converted to UPF format
     Using radial grid of  721 points,  4 beta functions with:
                l(1) =   0
                l(2) =   0
                l(3) =   1
                l(4) =   1
     Q(r) pseudized with  8 coefficients,  rinner =    1.100   1.100   1.100

     PseudoPot. # 3 for H  read from file:
     /u/if/mamunm/psp/gbrv1.5pbe/H.UPF
     MD5 check sum: 761ae9a214b05c3daf00ab9f6b793d6f
     Pseudo is Ultrasoft, Zval =  1.0
     Generated by new atomic code, or converted to UPF format
     Using radial grid of  615 points,  2 beta functions with:
                l(1) =   0
                l(2) =   0
     Q(r) pseudized with  8 coefficients,  rinner =    0.700

     vdW kernel table read from file vdW_kernel_table
     MD5 check sum: 095c7af220d748ca6e76c0b4c6cfb241

     atomic species   valence    mass     pseudopotential
        Pd1           16.00   106.42000     Pd( 1.00)
        C1             4.00    12.01100     C ( 1.00)
        H1             1.00     1.00800     H ( 1.00)

     No symmetry found

   Cartesian axes

     site n.     atom                  positions (alat units)
         1           Pd1 tau(   1) = (   1.4094157   0.8137265  10.0000000  )
         2           Pd1 tau(   2) = (   4.2282471   0.8137265  10.0000000  )
         3           Pd1 tau(   3) = (   2.8188314   3.2549061  10.0000000  )
         4           Pd1 tau(   4) = (   5.6376627   3.2549061  10.0000000  )
         5           Pd1 tau(   5) = (   5.6376627   1.6274531  12.3015662  )
         6           Pd1 tau(   6) = (   2.8188314   1.6274531  12.3015662  )
         7           Pd1 tau(   7) = (   7.0470784   4.0686326  12.3015662  )
         8           Pd1 tau(   8) = (   4.2282471   4.0686326  12.3015662  )
         9           Pd1 tau(   9) = (   0.0000000   0.0000000  14.6031324  )
        10           Pd1 tau(  10) = (   2.8188314   0.0000000  14.6031324  )
        11           Pd1 tau(  11) = (   1.4094157   2.4411796  14.6031324  )
        12           Pd1 tau(  12) = (   4.2282471   2.4411796  14.6031324  )
        13           C1  tau(  13) = (   2.8188314   1.6274531  16.0006324  )
        14           H1  tau(  14) = (   3.4488314   2.2574531  16.6306324  )
        15           H1  tau(  15) = (   2.1888314   0.9974531  16.6306324  )

     number of k points=    20  Fermi-Dirac smearing, width (Ry)=  0.0110
                       cart. coord. in units 2pi/alat
        k(    1) = (   0.0000000   0.0000000   0.0000000), wk =   0.0555556
        k(    2) = (   0.0000000   0.0341365   0.0000000), wk =   0.1111111
        k(    3) = (   0.0000000   0.0682730   0.0000000), wk =   0.1111111
        k(    4) = (   0.0000000  -0.1024095   0.0000000), wk =   0.0555556
        k(    5) = (   0.0295631  -0.0170683   0.0000000), wk =   0.1111111
        k(    6) = (   0.0295631   0.0170683   0.0000000), wk =   0.1111111
        k(    7) = (   0.0295631   0.0512048   0.0000000), wk =   0.1111111
        k(    8) = (   0.0295631  -0.1194778   0.0000000), wk =   0.1111111
        k(    9) = (   0.0295631  -0.0853413   0.0000000), wk =   0.1111111
        k(   10) = (   0.0295631  -0.0512048   0.0000000), wk =   0.1111111
        k(   11) = (   0.0591262  -0.0341365   0.0000000), wk =   0.1111111
        k(   12) = (   0.0591262  -0.0000000   0.0000000), wk =   0.1111111
        k(   13) = (   0.0591262   0.0341365   0.0000000), wk =   0.1111111
        k(   14) = (   0.0591262  -0.1365460   0.0000000), wk =   0.1111111
        k(   15) = (   0.0591262  -0.1024095   0.0000000), wk =   0.1111111
        k(   16) = (   0.0591262  -0.0682730   0.0000000), wk =   0.1111111
        k(   17) = (  -0.0886892   0.0512048   0.0000000), wk =   0.0555556
        k(   18) = (  -0.0886892   0.0853413   0.0000000), wk =   0.1111111
        k(   19) = (  -0.0886892   0.1194778   0.0000000), wk =   0.1111111
        k(   20) = (  -0.0886892  -0.0512048   0.0000000), wk =   0.0555556

     Largest allocated arrays     est. size (Mb)     dimensions
     Largest temporary arrays     est. size (Mb)     dimensions

     Initial potential from superposition of free atoms
     Check: negative starting charge=   -0.903953

     starting charge  191.99986, renormalised to  198.00000

     negative rho (up, down):  9.322E-01 0.000E+00

     *
     * You are using vdW-DF for exchange-correlation in this calculation.
     * Please cite the following three references that made this development
     * possible:
     *
     *   M. Dion, H. Rydberg, E. Schroder, D. C. Langreth, and
     *   B. I. Lundqvist, Phys. Rev. Lett. 92, 246401 (2004).
     *
     *   T. Thonhauser, V. R. Cooper, S. Li, A. Puzder, P. Hyldgaard, and
     *   D. C. Langreth, Phys. Rev. B 76, 125112 (2007).
     *
     *   G. Roman-Perez and J. M. Soler, Phys. Rev. Lett. 103, 096102 (2009).
     *
     *
     * If you are using vdW-DF2, please also cite:
     *
     *   K. Lee, E. D. Murray, L. Kong, B. I. Lundqvist, and
     *   D. C. Langreth, Phys. Rev. B 82, 081101(R) (2010).
     *
     *
     * If you are calculating the stress with vdW-DF, please also cite:
     *
     *   R. Sabatini, E. Kucukbenli, B. Kolb, T. Thonhauser, and
     *   S. de Gironcoli, J. Phys.: Condens. Matter 24, 424209 (2012).
     *

     Carrying out vdW-DF run using the following parameters:

     Nqs =      20    Nr_points =    1024   r_max =   100.000
     q_mesh =
               0.00001000     0.04494208     0.09755937     0.15916263
               0.23128650     0.31572767     0.41458969     0.53033537
               0.66584808     0.82450364     1.01025438     1.22772762
               1.48234092     1.78043706     2.12944203     2.53805004
               3.01644009     3.57652955     4.23227104     5.00000000

     Gradients computed in reciprocal space

     Adding external electric field

     Computed dipole along edir(3) :
        Dipole               -1.3847 Ry au,         -3.5195 Debye
        Dipole field         -0.0038 Ry au

        Potential amp.        0.3452 Ry
        Total length         45.3309 bohr

     Starting wfc are  150 randomized atomic wfcs

     Self-consistent Calculation

     iteration #  1     ecut=    36.75 Ry     beta=0.30
     Davidson diagonalization with overlap
     ethr =  1.00E-02,  avg # of iterations =  4.8

[...]

     total energy              =   -2364.83502749 Ry
     Harris-Foulkes estimate   =   -2414.29310829 Ry
     estimated scf accuracy    <     104.65379831 Ry

[...]

     End of self-consistent calculation

          k = 0.0000 0.0000 0.0000 ( 17231 PWs)   bands (ev):

   -48.9360 -48.8169 -48.7604 -48.6246 -48.6069 -48.5517 -48.5365 -48.5350
   -48.5251 -48.5084 -48.4401 -48.4140 -48.4067 -48.3997 -48.3837 -48.3743
   -48.3592 -48.3582 -48.3404 -48.3011 -48.2946 -48.2871 -48.2860 -48.2813
   -48.1319 -48.1313 -48.1172 -48.1117 -48.1109 -48.0660 -48.0653 -48.0102
   -47.9607 -47.9551 -47.9460 -47.9405 -11.3536  -5.6356  -4.7593  -4.1803
    -3.2180  -3.2014  -3.0813  -3.0787  -3.0774  -2.9585  -2.8408  -2.8104
    -2.7875  -2.7567  -2.6863  -2.5644  -2.5508  -2.1184  -2.0575  -1.6240
    -1.4752  -1.3948  -1.3019  -1.2765  -1.2003  -1.1243  -1.0277  -1.0222
    -0.9705  -0.8534  -0.8069  -0.7753  -0.7753  -0.7334  -0.6362  -0.1894
    -0.1553  -0.1351  -0.1257   0.0752   0.1121   0.2415   0.2527   0.3853
     0.4295   0.5290   0.5727   0.7695   0.9929   1.0004   1.0112   1.0284
     1.1126   1.1144   1.1369   1.1454   1.1699   1.2682   1.2983   1.3684
     1.3982   1.4001   1.5628   1.5639   1.5713   2.0013   2.2593   3.0921
     3.5643   3.6518   4.1883   4.8558   4.9302

[...]

          k =-0.0887 0.0512 0.0000 ( 17240 PWs)   bands (ev):

[...]

     the Fermi energy is     1.3429 ev

!    total energy              =   -2411.35458491 Ry
     Harris-Foulkes estimate   =   -2411.35458811 Ry
     estimated scf accuracy    <       0.00000449 Ry

     The total energy is the sum of the following terms:

     one-electron contribution =  -20676.51755919 Ry
     hartree contribution      =   10391.48869610 Ry
     xc contribution           =    -395.40401179 Ry
     ewald contribution        =    8269.18709340 Ry
     electric field correction =       0.00012776 Ry
     smearing contrib. (-TS)   =      -0.10893118 Ry

     convergence has been achieved in  21 iterations

 BEEF-vdW xc energy contributions
           1 :   -344.119075962738
           2 :    314.382909134077
           3 :   -263.685063399223
           4 :    205.666555098193
           5 :   -153.502241199331
           6 :    115.590391492093
           7 :   -93.7446537076473
           8 :    84.1917166544105
           9 :   -80.5273781099428
          10 :    77.0444445502570
          11 :   -70.9262022000996
          12 :    62.5529730335355
          13 :   -54.2057317146899
          14 :    48.1680341334449
          15 :   -45.3266194085109
          16 :    44.8796577212107
          17 :   -45.0647268734620
          18 :    44.2930190812040
          19 :   -41.9787772017101
          20 :    38.6497562432887
          21 :   -35.4076197696689
          22 :    33.1600070718821
          23 :   -32.1071291035615
          24 :    31.7367228948321
          25 :   -31.2493935993592
          26 :    30.0931596328397
          27 :   -28.2690346034098
          28 :    26.2499641425302
          29 :   -24.6135376777276
          30 :    23.6521418884201
          31 :   -33.6809673083296
          32 :   -24.8850573186081

     Forces acting on atoms (Ry/au):

     negative rho (up, down):  9.422E-01 0.000E+00
     atom    1 type  1   force =     0.00036983    0.00064736   -0.00190128
     atom    2 type  1   force =    -0.00105534    0.00012702   -0.00258466
     atom    3 type  1   force =    -0.00079702   -0.00074931   -0.00215180
     atom    4 type  1   force =     0.00091664    0.00010610    0.00078539
     atom    5 type  1   force =    -0.00002444    0.00090016   -0.00034405
     atom    6 type  1   force =    -0.00016204    0.00003339   -0.01251219
     atom    7 type  1   force =    -0.00049973   -0.00035676   -0.00294986
     atom    8 type  1   force =     0.00055189   -0.00042152    0.00154424
     atom    9 type  1   force =    -0.00177913    0.00009559   -0.00682589
     atom   10 type  1   force =     0.00879300    0.00480876    0.01153866
     atom   11 type  1   force =     0.01528546   -0.00373261    0.02719143
     atom   12 type  1   force =     0.00632756   -0.00157391   -0.00410108
     atom   13 type  2   force =    -0.03292641   -0.00183443   -0.03577532
     atom   14 type  3   force =     0.00816494    0.00677139    0.01542221
     atom   15 type  3   force =    -0.00316521   -0.00482124    0.01266421

     Total force =     0.065123     Total SCF correction =     0.001208

     entering subroutine stress ...

     negative rho (up, down):  9.422E-01 0.000E+00
          total   stress  (Ry/bohr**3)                   (kbar)     P=   -6.36
  -0.00007150   0.00000574  -0.00001352        -10.52      0.84     -1.99
   0.00000574  -0.00007133   0.00000014          0.84    -10.49      0.02
  -0.00001352   0.00000014   0.00001306         -1.99      0.02      1.92

     BFGS Geometry Optimization

     number of scf cycles    =   1
     number of bfgs steps    =   0

     energy   new            =   -2411.3545849080 Ry

     new trust radius        =       0.0486558000 bohr
     new conv_thr            =       0.0000099958 Ry

ATOMIC_POSITIONS (crystal)
Pd1      0.166666667   0.166666667   0.406452311    0   0   0
Pd1      0.666666667   0.166666667   0.406452311    0   0   0
Pd1      0.166666667   0.666666667   0.406452311    0   0   0
Pd1      0.666666667   0.666666667   0.406452311    0   0   0
Pd1      0.833333333   0.333333333   0.500000000    0   0   0
Pd1      0.333333333   0.333333333   0.500000000    0   0   0
Pd1      0.833333333   0.833333333   0.500000000    0   0   0
Pd1      0.333333333   0.833333333   0.500000000    0   0   0
Pd1     -0.000172178   0.000010361   0.593400874
Pd1      0.500564752   0.000521201   0.593795869
Pd1      0.001637044   0.499595439   0.594132537
Pd1      0.500679229   0.499829410   0.593459481
C1       0.330342120   0.333134508   0.649579925
H1       0.380963219   0.463103234   0.676287604
H1       0.286067061   0.203774800   0.676228284

     Writing output data file calc.save
     Check: negative starting charge=   -0.903953
     NEW-OLD atomic charge density approx. for the potential
     Check: negative starting charge=   -0.903547

[...]

     energy   old            =   -2411.3545849080 Ry
     energy   new            =   -2411.3573861764 Ry

     CASE: energy  _new < energy  _old

[...]

     Total force =     0.008572     Total SCF correction =     0.000880
     SCF correction compared to forces is large: reduce conv_thr to get better values

[...]

     Total force =     0.004715     Total SCF correction =     0.000301

[...]

     number of scf cycles    =  40
     number of bfgs steps    =  39

     energy   old            =   -2411.3776457484 Ry
     energy   new            =   -2411.3776998655 Ry

     CASE: energy  _new < energy  _old

     new trust radius        =       0.0329232353 bohr
     new conv_thr            =       0.0000001000 Ry

ATOMIC_POSITIONS (crystal)
Pd1      0.166666667   0.166666667   0.406452311    0   0   0
Pd1      0.666666667   0.166666667   0.406452311    0   0   0
Pd1      0.166666667   0.666666667   0.406452311    0   0   0
Pd1      0.666666667   0.666666667   0.406452311    0   0   0
Pd1      0.833333333   0.333333333   0.500000000    0   0   0
Pd1      0.333333333   0.333333333   0.500000000    0   0   0
Pd1      0.833333333   0.833333333   0.500000000    0   0   0
Pd1      0.333333333   0.833333333   0.500000000    0   0   0
Pd1     -0.000682374  -0.002778364   0.591993629
Pd1      0.498772022   0.005991854   0.597599149
Pd1      0.007217819   0.497437202   0.597439388
Pd1      0.506833122   0.504460098   0.592995924
C1       0.246528161   0.246421830   0.657585529
H1       0.338710404   0.337931714   0.683300547
H1       0.152726460   0.152624730   0.682110846

     Writing output data file calc.save
     Check: negative starting charge=   -0.906111
     NEW-OLD atomic charge density approx. for the potential
     Check: negative starting charge=   -0.905987

[...]

     Self-consistent Calculation

[...]

     total energy              =   -2411.37773863 Ry
     Harris-Foulkes estimate   =   -2411.37773867 Ry
     estimated scf accuracy    <       0.00000012 Ry

     iteration # 11     ecut=    36.75 Ry     beta=0.30
     Davidson diagonalization with overlap
     ethr =  6.31E-11,  avg # of iterations =  1.1

[...]

     negative rho (up, down):  9.442E-01 0.000E+00

     Adding external electric field

     Computed dipole along edir(3) :
        Dipole                0.1815 Ry au,          0.4613 Debye
        Dipole field          0.0005 Ry au

        Potential amp.       -0.0452 Ry
        Total length         45.3309 bohr

     End of self-consistent calculation

[...]

          k = 0.0591-0.0683 0.0000 ( 17183 PWs)   bands (ev):

[...]

          k =-0.0887-0.0512 0.0000 ( 17240 PWs)   bands (ev):

   -49.1868 -49.0840 -48.7453 -48.6866 -48.6696 -48.6574 -48.5442 -48.5143
   -48.4852 -48.4723 -48.4567 -48.4455 -48.4330 -48.4306 -48.4195 -48.4102
   -48.3750 -48.3500 -48.3392 -48.3055 -48.3019 -48.2834 -48.2510 -48.2355
   -48.2264 -48.2128 -48.1994 -48.1769 -48.1576 -48.1449 -48.1337 -48.0800
   -48.0426 -48.0192 -47.9916 -47.9817 -10.9430  -5.1278  -4.2977  -3.0704
    -2.9772  -2.6679  -2.5783  -2.5447  -2.3824  -2.3043  -2.2838  -2.2833
    -2.2118  -2.1114  -2.0618  -1.9213  -1.8942  -1.8744  -1.8442  -1.7479
    -1.5156  -1.4879  -1.4502  -1.4110  -1.3792  -1.3337  -1.2499  -1.1161
    -1.0214  -1.0015  -0.9227  -0.8530  -0.7569  -0.6767  -0.6623  -0.6141
    -0.5963  -0.5645  -0.5260  -0.4838  -0.4513  -0.4143  -0.2416  -0.1967
    -0.1904  -0.1250  -0.0809  -0.0308  -0.0013   0.0537   0.1049   0.2155
     0.2461   0.2922   0.4283   0.4653   0.4775   0.6320   0.8273   0.8566
     1.0145   1.0583   1.1671   1.2693   1.3165   1.3655   2.2801   2.3589
     3.5952   3.7056   3.8122   4.2839   5.1347

     the Fermi energy is     1.2918 ev

!    total energy              =   -2411.37773863 Ry
     Harris-Foulkes estimate   =   -2411.37773872 Ry
     estimated scf accuracy    <       0.00000002 Ry

     The total energy is the sum of the following terms:

     one-electron contribution =  -20517.09324505 Ry
     hartree contribution      =   10311.55141823 Ry
     xc contribution           =    -395.35325993 Ry
     ewald contribution        =    8189.62340540 Ry
     electric field correction =       0.00009056 Ry
     smearing contrib. (-TS)   =      -0.10614784 Ry

     convergence has been achieved in  11 iterations

 BEEF-vdW xc energy contributions
           1 :   -344.054527380599
           2 :    314.248647213530
           3 :   -263.473468491817
           4 :    205.434580303007
           5 :   -153.327182441814
           6 :    115.519968685422
           7 :   -93.7705978777974
           8 :    84.2612142238578
           9 :   -80.5812157487634
          10 :    77.0551310228676
          11 :   -70.9114571789937
          12 :    62.5570419512903
          13 :   -54.2620777364425
          14 :    48.2694632575134
          15 :   -45.4236540190210
          16 :    44.9088219328242
          17 :   -44.9888220693511
          18 :    44.1278299279772
          19 :   -41.7887672460909
          20 :    38.5142364726530
          21 :   -35.3776763313216
          22 :    33.2317884636497
          23 :   -32.2265363089032
          24 :    31.8323478606352
          25 :   -31.2731688407471
          26 :    30.0445271611269
          27 :   -28.1897922435931
          28 :    26.1953812576646
          29 :   -24.6189021045755
          30 :    23.7136147377495
          31 :   -33.6755227985476
          32 :   -24.8626559268034

     Forces acting on atoms (Ry/au):

     negative rho (up, down):  9.442E-01 0.000E+00
     atom    1 type  1   force =     0.00019638    0.00014300   -0.00062212
     atom    2 type  1   force =    -0.00077535    0.00196178   -0.00330036
     atom    3 type  1   force =     0.00131428   -0.00162984   -0.00328905
     atom    4 type  1   force =    -0.00006445   -0.00000186    0.00031049
     atom    5 type  1   force =     0.00391038    0.00344128   -0.00160087
     atom    6 type  1   force =    -0.00232758   -0.00156021    0.00080958
     atom    7 type  1   force =    -0.00501344   -0.00289530    0.00975141
     atom    8 type  1   force =     0.00528877    0.00128787   -0.00141198
     atom    9 type  1   force =    -0.00060000   -0.00011858   -0.00024220
     atom   10 type  1   force =    -0.00040143   -0.00038619    0.00073262
     atom   11 type  1   force =    -0.00030537    0.00013244    0.00103187
     atom   12 type  1   force =    -0.00113039    0.00000893   -0.00097354
     atom   13 type  2   force =     0.00054495   -0.00031160    0.00043717
     atom   14 type  3   force =    -0.00151973   -0.00068226   -0.00122991
     atom   15 type  3   force =     0.00088299    0.00061055   -0.00040311

     Total force =     0.003297     Total SCF correction =     0.000332
     SCF correction compared to forces is large: reduce conv_thr to get better values

     entering subroutine stress ...

     negative rho (up, down):  9.442E-01 0.000E+00
          total   stress  (Ry/bohr**3)                   (kbar)     P=   -9.11
  -0.00008466   0.00000381  -0.00000335        -12.45      0.56     -0.49
   0.00000381  -0.00008968  -0.00000148          0.56    -13.19     -0.22
  -0.00000335  -0.00000148  -0.00001147         -0.49     -0.22     -1.69

     bfgs converged in  41 scf cycles and  40 bfgs steps
     (criteria: energy <  1.0E+00, force <  1.9E-03)

     End of BFGS Geometry Optimization

     Final energy   =   -2411.3777386304 Ry
Begin final coordinates

ATOMIC_POSITIONS (crystal)
Pd1      0.166666667   0.166666667   0.406452311    0   0   0
Pd1      0.666666667   0.166666667   0.406452311    0   0   0
Pd1      0.166666667   0.666666667   0.406452311    0   0   0
Pd1      0.666666667   0.666666667   0.406452311    0   0   0
Pd1      0.833333333   0.333333333   0.500000000    0   0   0
Pd1      0.333333333   0.333333333   0.500000000    0   0   0
Pd1      0.833333333   0.833333333   0.500000000    0   0   0
Pd1      0.333333333   0.833333333   0.500000000    0   0   0
Pd1     -0.000682374  -0.002778364   0.591993629
Pd1      0.498772022   0.005991854   0.597599149
Pd1      0.007217819   0.497437202   0.597439388
Pd1      0.506833122   0.504460098   0.592995924
C1       0.246528161   0.246421830   0.657585529
H1       0.338710404   0.337931714   0.683300547
H1       0.152726460   0.152624730   0.682110846
End final coordinates

     Writing output data file calc.save

     General routines

     Parallel routines

   This run was terminated on:   3:55: 1  22Apr2018

   JOB DONE.
Job  /afs/slac/g/suncat/bin/suncat-tsmpirun -x LD_LIBRARY_PATH -wdir /scratch/qe526531_gdtjb pw.x -npool 4 -in pw.inp

TID   HOST_NAME   COMMAND_LINE            STATUS            TERMINATION_TIME
00000 suncat0105 pw.x -npool 4 -i  Done                     04/22/2018 03:55:01
00001 suncat0105 pw.x -npool 4 -i  Done                     04/22/2018 03:55:01
00002 suncat0105 pw.x -npool 4 -i  Done                     04/22/2018 03:55:01
00003 suncat0105 pw.x -npool 4 -i  Done                     04/22/2018 03:55:01
00004 suncat0105 pw.x -npool 4 -i  Done                     04/22/2018 03:55:01
00005 suncat0105 pw.x -npool 4 -i  Done                     04/22/2018 03:55:01
00006 suncat0105 pw.x -npool 4 -i  Done                     04/22/2018 03:55:01
00007 suncat0105 pw.x -npool 4 -i  Done                     04/22/2018 03:55:01
00008 suncat0260 pw.x -npool 4 -i  Done                     04/22/2018 03:55:01
00009 suncat0260 pw.x -npool 4 -i  Done                     04/22/2018 03:55:01
00010 suncat0260 pw.x -npool 4 -i  Done                     04/22/2018 03:55:01
00011 suncat0260 pw.x -npool 4 -i  Done                     04/22/2018 03:55:01
00012 suncat0260 pw.x -npool 4 -i  Done                     04/22/2018 03:55:01
00013 suncat0260 pw.x -npool 4 -i  Done                     04/22/2018 03:55:01
00014 suncat0260 pw.x -npool 4 -i  Done                     04/22/2018 03:55:01
00015 suncat0260 pw.x -npool 4 -i  Done                     04/22/2018 03:55:01
00016 suncat0259 pw.x -npool 4 -i  Done                     04/22/2018 03:55:01
00017 suncat0259 pw.x -npool 4 -i  Done                     04/22/2018 03:55:01
00018 suncat0259 pw.x -npool 4 -i  Done                     04/22/2018 03:55:01
00019 suncat0259 pw.x -npool 4 -i  Done                     04/22/2018 03:55:01
00020 suncat0259 pw.x -npool 4 -i  Done                     04/22/2018 03:55:01
00021 suncat0259 pw.x -npool 4 -i  Done                     04/22/2018 03:55:01
00022 suncat0259 pw.x -npool 4 -i  Done                     04/22/2018 03:55:01
00023 suncat0259 pw.x -npool 4 -i  Done                     04/22/2018 03:55:01
00024 suncat0224 pw.x -npool 4 -i  Done                     04/22/2018 03:55:01
00025 suncat0224 pw.x -npool 4 -i  Done                     04/22/2018 03:55:01
00026 suncat0224 pw.x -npool 4 -i  Done                     04/22/2018 03:55:01
00027 suncat0224 pw.x -npool 4 -i  Done                     04/22/2018 03:55:01
00028 suncat0224 pw.x -npool 4 -i  Done                     04/22/2018 03:55:01
00029 suncat0224 pw.x -npool 4 -i  Done                     04/22/2018 03:55:01
00030 suncat0224 pw.x -npool 4 -i  Done                     04/22/2018 03:55:01
00031 suncat0224 pw.x -npool 4 -i  Done                     04/22/2018 03:55:01