     Program PWSCF v.5.1rc2 (svn rev. 11289) starts on  2May2018 at 16:12:12

     Current dimensions of program PWSCF are:
     Max number of different atomic species (ntypx) = 10
     Max number of k-points (npk) =  40000
     Max angular momentum in pseudopotentials (lmaxx) =  3
     Presently stress not available with electric field

     IMPORTANT: XC functional enforced from input :
     Exchange-correlation      = BEEF-VDW ( 1  4 27 13 2)
     Any further DFT definition will be discarded
     Please, verify this is what you really want

     Subspace diagonalization in iterative solution of the eigenvalue problem:
     a serial algorithm will be used

     bravais-lattice index     =            0
     lattice parameter (alat)  =       1.8897  a.u.
     unit-cell volume          =    4301.6107 (a.u.)^3
     number of atoms/cell      =           13
     number of atomic types    =            2
     number of electrons       =       181.00
     number of Kohn-Sham states=          100
     kinetic-energy cutoff     =      36.7493  Ry
     charge density cutoff     =     367.4932  Ry
     convergence threshold     =      1.0E-05
     mixing beta               =       0.3000
     number of iterations used =           10  plain     mixing
     Exchange-correlation      = BEEF-VDW ( 1  4 27 13 2)
     nstep                     =           50

     celldm(1)=   1.889726  celldm(2)=   0.000000  celldm(3)=   0.000000
     celldm(4)=   0.000000  celldm(5)=   0.000000  celldm(6)=   0.000000

     crystal axes: (cart. coord. in units of alat)
               a(1) = (   5.483647   0.000000   0.000000 )
               a(2) = (   2.741823   4.748977   0.000000 )
               a(3) = (   0.000000   0.000000  24.477379 )

     reciprocal axes: (cart. coord. in units 2 pi/alat)
               b(1) = (  0.182360 -0.105286  0.000000 )
               b(2) = (  0.000000  0.210572  0.000000 )
               b(3) = (  0.000000  0.000000  0.040854 )

     PseudoPot. # 1 for Tc read from file:
     /u/if/mamunm/psp/gbrv1.5pbe/Tc.UPF
     MD5 check sum: 9eb49e5b028550b2339a02317eb7b844
     Pseudo is Ultrasoft + core correction, Zval = 15.0
     Generated by new atomic code, or converted to UPF format
     Using radial grid of  965 points,  6 beta functions with:
                l(1) =   0
                l(2) =   0
                l(3) =   1
                l(4) =   1
                l(5) =   2
                l(6) =   2
     Q(r) pseudized with  8 coefficients,  rinner =    1.300   1.300   1.300
                                                       1.300   1.300

     PseudoPot. # 2 for H  read from file:
     /u/if/mamunm/psp/gbrv1.5pbe/H.UPF
     MD5 check sum: 761ae9a214b05c3daf00ab9f6b793d6f
     Pseudo is Ultrasoft, Zval =  1.0
     Generated by new atomic code, or converted to UPF format
     Using radial grid of  615 points,  2 beta functions with:
                l(1) =   0
                l(2) =   0
     Q(r) pseudized with  8 coefficients,  rinner =    0.700

     vdW kernel table read from file vdW_kernel_table
     MD5 check sum: 095c7af220d748ca6e76c0b4c6cfb241

     atomic species   valence    mass     pseudopotential
        Tc1           15.00    97.90721     Tc( 1.00)
        H1             1.00     1.00800     H ( 1.00)

     No symmetry found

   Cartesian axes

     site n.     atom                  positions (alat units)
         1           Tc1 tau(   1) = (   1.3709117   0.7914962  10.0000000  )
         2           Tc1 tau(   2) = (   4.1127351   0.7914962  10.0000000  )
         3           Tc1 tau(   3) = (   2.7418234   3.1659850  10.0000000  )
         4           Tc1 tau(   4) = (   5.4836469   3.1659850  10.0000000  )
         5           Tc1 tau(   5) = (   5.4836469   1.5829925  12.2386895  )
         6           Tc1 tau(   6) = (   2.7418234   1.5829925  12.2386895  )
         7           Tc1 tau(   7) = (   6.8545586   3.9574812  12.2386895  )
         8           Tc1 tau(   8) = (   4.1127351   3.9574812  12.2386895  )
         9           Tc1 tau(   9) = (   0.0000000   0.0000000  14.4773789  )
        10           Tc1 tau(  10) = (   2.7418234   0.0000000  14.4773789  )
        11           Tc1 tau(  11) = (   1.3709117   2.3744887  14.4773789  )
        12           Tc1 tau(  12) = (   4.1127351   2.3744887  14.4773789  )
        13           H1  tau(  13) = (   0.0000000   0.0000000  15.9903789  )

     number of k points=    20  Fermi-Dirac smearing, width (Ry)=  0.0110
                       cart. coord. in units 2pi/alat
        k(    1) = (   0.0000000   0.0000000   0.0000000), wk =   0.0555556
        k(    2) = (   0.0000000   0.0350953   0.0000000), wk =   0.1111111
        k(    3) = (   0.0000000   0.0701905   0.0000000), wk =   0.1111111
        k(    4) = (   0.0000000  -0.1052858   0.0000000), wk =   0.0555556
        k(    5) = (   0.0303934  -0.0175476   0.0000000), wk =   0.1111111
        k(    6) = (   0.0303934   0.0175476   0.0000000), wk =   0.1111111
        k(    7) = (   0.0303934   0.0526429   0.0000000), wk =   0.1111111
        k(    8) = (   0.0303934  -0.1228335   0.0000000), wk =   0.1111111
        k(    9) = (   0.0303934  -0.0877382   0.0000000), wk =   0.1111111
        k(   10) = (   0.0303934  -0.0526429   0.0000000), wk =   0.1111111
        k(   11) = (   0.0607868  -0.0350953   0.0000000), wk =   0.1111111
        k(   12) = (   0.0607868   0.0000000   0.0000000), wk =   0.1111111
        k(   13) = (   0.0607868   0.0350953   0.0000000), wk =   0.1111111
        k(   14) = (   0.0607868  -0.1403811   0.0000000), wk =   0.1111111
        k(   15) = (   0.0607868  -0.1052858   0.0000000), wk =   0.1111111
        k(   16) = (   0.0607868  -0.0701905   0.0000000), wk =   0.1111111
        k(   17) = (  -0.0911802   0.0526429   0.0000000), wk =   0.0555556
        k(   18) = (  -0.0911802   0.0877382   0.0000000), wk =   0.1111111
        k(   19) = (  -0.0911802   0.1228335   0.0000000), wk =   0.1111111
        k(   20) = (  -0.0911802  -0.0526429   0.0000000), wk =   0.0555556

     Largest allocated arrays     est. size (Mb)     dimensions
     Largest temporary arrays     est. size (Mb)     dimensions

     Check: negative/imaginary core charge=   -0.000022    0.000000

     Initial potential from superposition of free atoms
     Check: negative starting charge=   -1.504844

     starting charge  168.99966, renormalised to  181.00000

     negative rho (up, down):  1.612E+00 0.000E+00

     *
     * You are using vdW-DF for exchange-correlation in this calculation.
     * Please cite the following three references that made this development
     * possible:
     *
     *   M. Dion, H. Rydberg, E. Schroder, D. C. Langreth, and
     *   B. I. Lundqvist, Phys. Rev. Lett. 92, 246401 (2004).
     *
     *   T. Thonhauser, V. R. Cooper, S. Li, A. Puzder, P. Hyldgaard, and
     *   D. C. Langreth, Phys. Rev. B 76, 125112 (2007).
     *
     *   G. Roman-Perez and J. M. Soler, Phys. Rev. Lett. 103, 096102 (2009).
     *
     *
     * If you are using vdW-DF2, please also cite:
     *
     *   K. Lee, E. D. Murray, L. Kong, B. I. Lundqvist, and
     *   D. C. Langreth, Phys. Rev. B 82, 081101(R) (2010).
     *
     *
     * If you are calculating the stress with vdW-DF, please also cite:
     *
     *   R. Sabatini, E. Kucukbenli, B. Kolb, T. Thonhauser, and
     *   S. de Gironcoli, J. Phys.: Condens. Matter 24, 424209 (2012).
     *

     Carrying out vdW-DF run using the following parameters:

     Nqs =      20    Nr_points =    1024   r_max =   100.000
     q_mesh =
               0.00001000     0.04494208     0.09755937     0.15916263
               0.23128650     0.31572767     0.41458969     0.53033537
               0.66584808     0.82450364     1.01025438     1.22772762
               1.48234092     1.78043706     2.12944203     2.53805004
               3.01644009     3.57652955     4.23227104     5.00000000

     Gradients computed in reciprocal space

     Adding external electric field

     Computed dipole along edir(3) :
        Dipole               -0.5034 Ry au,         -1.2794 Debye
        Dipole field         -0.0015 Ry au

        Potential amp.        0.1326 Ry
        Total length         45.0992 bohr

     Starting wfc are  157 randomized atomic wfcs

     Self-consistent Calculation

     iteration #  1     ecut=    36.75 Ry     beta=0.30
     Davidson diagonalization with overlap
     ethr =  1.00E-02,  avg # of iterations =  2.1

[...]

     total energy              =   -2099.90277749 Ry
     Harris-Foulkes estimate   =   -2109.27253640 Ry
     estimated scf accuracy    <      21.53450727 Ry

[...]

     End of self-consistent calculation

          k = 0.0000 0.0000 0.0000 ( 16073 PWs)   bands (ev):

   -64.9414 -64.8047 -64.7733 -64.7725 -64.7155 -64.6919 -64.5923 -64.5915
   -64.5895 -64.5816 -64.5813 -64.5016 -37.3802 -37.3798 -37.3583 -37.2664
   -37.1965 -37.1868 -37.1865 -37.0639 -37.0560 -37.0557 -36.7680 -36.7298
   -36.7139 -36.7136 -36.6456 -36.6454 -36.6426 -36.6402 -36.6398 -36.6291
   -36.4933 -36.4930 -36.4910 -36.4179 -36.4111 -36.4111 -36.3996 -36.3822
   -36.3821 -36.3595 -36.3366 -36.3362 -36.1774 -36.1774 -36.1522 -36.1522
    -4.2197  -2.8760  -2.8756  -2.8754  -2.8231  -2.7729  -2.6212  -2.4321
    -2.4319  -2.2515  -2.2363  -2.2362  -1.8914  -1.8835  -1.8833  -1.4365
    -0.7229  -0.7227  -0.7191   0.0982   0.0982   0.1216   0.3786   0.6546
     0.6546   0.8501   0.9837   0.9837   1.0476   1.0477   1.0515   1.2308
     1.2308   1.5889   1.5891   1.8622   2.6768   2.6866   2.6879   2.6881
     2.7480   2.7483   2.9728   3.0544   3.0544   3.5334   3.5334   3.5813
     4.0842   4.0844   4.3746   4.3810

[...]

          k =-0.0912 0.0526 0.0000 ( 16164 PWs)   bands (ev):

[...]

     the Fermi energy is     2.3290 ev

!    total energy              =   -2104.49464651 Ry
     Harris-Foulkes estimate   =   -2104.49465266 Ry
     estimated scf accuracy    <       0.00000293 Ry

     The total energy is the sum of the following terms:

     one-electron contribution =  -18651.76024020 Ry
     hartree contribution      =    9324.19052345 Ry
     xc contribution           =    -397.72505369 Ry
     ewald contribution        =    7620.89374275 Ry
     electric field correction =       0.00000570 Ry
     smearing contrib. (-TS)   =      -0.09362452 Ry

     convergence has been achieved in  21 iterations

 BEEF-vdW xc energy contributions
           1 :   -348.525507394665
           2 :    320.460386928682
           3 :   -270.524483527746
           4 :    208.725876607875
           5 :   -145.772347454744
           6 :    90.0972124523753
           7 :   -46.2028065640246
           8 :    14.5495879614737
           9 :    7.19171438171202
          10 :   -22.3090569060578
          11 :    33.3847210575545
          12 :   -41.4313285859355
          13 :    45.9479090417564
          14 :   -45.7215082811003
          15 :    39.8797373106455
          16 :   -28.7210232931778
          17 :    13.9621795513808
          18 :    1.65016542126261
          19 :   -15.1745903341039
          20 :    24.3623972905787
          21 :   -28.2384157042036
          22 :    27.1631848555779
          23 :   -22.4272980776457
          24 :    15.6097993601945
          25 :   -8.02013437778862
          26 :   0.441942029271672
          27 :    6.77605635077521
          28 :   -13.4201309493646
          29 :    19.1169035848661
          30 :   -23.2251470027586
          31 :   -33.1233774726386
          32 :   -24.2971083342742

     Forces acting on atoms (Ry/au):

     negative rho (up, down):  1.588E+00 0.000E+00
     atom    1 type  1   force =    -0.00037586   -0.00020839    0.02761647
     atom    2 type  1   force =     0.00037548   -0.00023105    0.02764608
     atom    3 type  1   force =    -0.00002152    0.00042969    0.02760701
     atom    4 type  1   force =     0.00003339   -0.00000196    0.03706237
     atom    5 type  1   force =    -0.00000501    0.00651056   -0.00980174
     atom    6 type  1   force =     0.00000466   -0.00003597    0.00130601
     atom    7 type  1   force =    -0.00567207   -0.00323895   -0.00978495
     atom    8 type  1   force =     0.00566500   -0.00322742   -0.00973561
     atom    9 type  1   force =    -0.00003123    0.00000522   -0.11626388
     atom   10 type  1   force =     0.00002121   -0.00206398   -0.03194262
     atom   11 type  1   force =    -0.00178674    0.00104433   -0.03192091
     atom   12 type  1   force =     0.00179212    0.00101882   -0.03189475
     atom   13 type  2   force =     0.00000057   -0.00000091    0.12010652

     Total force =     0.176103     Total SCF correction =     0.001458

     entering subroutine stress ...

     negative rho (up, down):  1.588E+00 0.000E+00
          total   stress  (Ry/bohr**3)                   (kbar)     P=  -29.71
  -0.00022885  -0.00000001  -0.00000000        -33.67     -0.00     -0.00
  -0.00000001  -0.00022885  -0.00000001         -0.00    -33.67     -0.00
  -0.00000000  -0.00000001  -0.00014817         -0.00     -0.00    -21.80

     BFGS Geometry Optimization

     number of scf cycles    =   1
     number of bfgs steps    =   0

     energy   new            =   -2104.4946465140 Ry

     new trust radius        =       0.1201065208 bohr
     new conv_thr            =       0.0000099958 Ry

ATOMIC_POSITIONS (crystal)
Tc1      0.166666667   0.166666667   0.408540475    0   0   0
Tc1      0.666666667   0.166666667   0.408540475    0   0   0
Tc1      0.166666667   0.666666667   0.408540475    0   0   0
Tc1      0.666666667   0.666666667   0.408540475    0   0   0
Tc1      0.833333333   0.333333333   0.500000000    0   0   0
Tc1      0.333333333   0.333333333   0.500000000    0   0   0
Tc1      0.833333333   0.833333333   0.500000000    0   0   0
Tc1      0.333333333   0.833333333   0.500000000    0   0   0
Tc1     -0.000003305   0.000000582   0.588946013
Tc1      0.500117041  -0.000229988   0.590768957
Tc1     -0.000230607   0.500116370   0.590769426
Tc1      0.500116178   0.500113527   0.590769992
H1       0.000000106  -0.000000101   0.655868286

     Writing output data file calc.save
     Check: negative starting charge=   -1.504844
     NEW-OLD atomic charge density approx. for the potential

     Check: negative/imaginary core charge=   -0.000022    0.000000
     Check: negative starting charge=   -1.509736

[...]

     Total force =     0.064307     Total SCF correction =     0.011532
     SCF correction compared to forces is large: reduce conv_thr to get better values

[...]

     energy   old            =   -2104.4946465140 Ry
     energy   new            =   -2104.5137849734 Ry

     CASE: energy  _new < energy  _old

[...]

     iteration #  1     ecut=    36.75 Ry     beta=0.30
     Davidson diagonalization with overlap
     c_bands:  1 eigenvalues not converged
     ethr =  1.00E-06,  avg # of iterations =  9.4

[...]

     Total force =     0.002875     Total SCF correction =     0.000127

[...]

     number of scf cycles    =  11
     number of bfgs steps    =  10

     energy   old            =   -2104.5252350832 Ry
     energy   new            =   -2104.5252557845 Ry

     CASE: energy  _new < energy  _old

     new trust radius        =       0.0146940463 bohr
     new conv_thr            =       0.0000001000 Ry

ATOMIC_POSITIONS (crystal)
Tc1      0.166666667   0.166666667   0.408540475    0   0   0
Tc1      0.666666667   0.166666667   0.408540475    0   0   0
Tc1      0.166666667   0.666666667   0.408540475    0   0   0
Tc1      0.666666667   0.666666667   0.408540475    0   0   0
Tc1      0.833333333   0.333333333   0.500000000    0   0   0
Tc1      0.333333333   0.333333333   0.500000000    0   0   0
Tc1      0.833333333   0.833333333   0.500000000    0   0   0
Tc1      0.333333333   0.833333333   0.500000000    0   0   0
Tc1      0.000000608   0.000000039   0.589952817
Tc1      0.500452389  -0.000906370   0.586685921
Tc1     -0.000906231   0.500452729   0.586685130
Tc1      0.500453069   0.500453426   0.586685181
H1       0.000000399  -0.000000660   0.659490769

     Writing output data file calc.save
     Check: negative starting charge=   -1.512529
     NEW-OLD atomic charge density approx. for the potential

     Check: negative/imaginary core charge=   -0.000022    0.000000
     Check: negative starting charge=   -1.513335

[...]

     Self-consistent Calculation

[...]

     total energy              =   -2104.52527117 Ry
     Harris-Foulkes estimate   =   -2104.52527134 Ry
     estimated scf accuracy    <       0.00000176 Ry

     iteration # 11     ecut=    36.75 Ry     beta=0.30
     Davidson diagonalization with overlap
     ethr =  9.73E-10,  avg # of iterations =  3.6

[...]

     negative rho (up, down):  1.598E+00 0.000E+00

     Adding external electric field

     Computed dipole along edir(3) :
        Dipole               -0.0842 Ry au,         -0.2140 Debye
        Dipole field         -0.0002 Ry au

        Potential amp.        0.0222 Ry
        Total length         45.0992 bohr

     End of self-consistent calculation

[...]

          k = 0.0608-0.0702 0.0000 ( 16203 PWs)   bands (ev):

[...]

          k =-0.0912-0.0526 0.0000 ( 16164 PWs)   bands (ev):

   -64.9606 -64.9396 -64.8708 -64.8584 -64.7312 -64.7292 -64.6920 -64.6762
   -64.6676 -64.6656 -64.6371 -64.5880 -37.3367 -37.3179 -37.2841 -37.2368
   -37.2086 -37.1869 -37.0812 -37.0718 -37.0143 -36.9838 -36.9753 -36.9683
   -36.7412 -36.7250 -36.7178 -36.7125 -36.7070 -36.7012 -36.6801 -36.6596
   -36.6561 -36.6465 -36.6425 -36.6191 -36.6145 -36.6089 -36.5902 -36.5549
   -36.4814 -36.4747 -36.4277 -36.4199 -36.3654 -36.3609 -36.3154 -36.3077
    -2.7893  -2.7274  -2.1294  -2.1012  -2.0349  -2.0314  -1.7822  -1.7686
    -1.7479  -1.5261  -1.4215  -1.3847  -1.1040  -1.0906  -1.0251  -0.9692
    -0.8606  -0.5617  -0.4767  -0.3828  -0.1944  -0.1784   0.0694   0.3086
     0.3864   0.5848   0.6168   0.6790   0.7554   0.8442   0.9104   0.9376
     1.0160   1.0184   1.0468   1.1638   1.1843   1.2205   1.2866   1.2955
     1.4948   2.0420   2.0856   2.1737   2.2798   2.3106   2.5253   2.7130
     2.7525   2.8484   2.8849   2.9744

     the Fermi energy is     2.2620 ev

!    total energy              =   -2104.52527127 Ry
     Harris-Foulkes estimate   =   -2104.52527128 Ry
     estimated scf accuracy    <       0.00000005 Ry

     The total energy is the sum of the following terms:

     one-electron contribution =  -18896.09954741 Ry
     hartree contribution      =    9445.91716338 Ry
     xc contribution           =    -397.86863464 Ry
     ewald contribution        =    7743.61764578 Ry
     electric field correction =       0.00002071 Ry
     smearing contrib. (-TS)   =      -0.09191909 Ry

     convergence has been achieved in  11 iterations

 BEEF-vdW xc energy contributions
           1 :   -348.675977158994
           2 :    320.683622780278
           3 :   -270.853359459061
           4 :    209.126896011855
           5 :   -146.152648701828
           6 :    90.3498869963059
           7 :   -46.2652523445345
           8 :    14.4423133533870
           9 :    7.36866527326259
          10 :   -22.4240355317773
          11 :    33.3409839094281
          12 :   -41.2136180585381
          13 :    45.6309998962420
          14 :   -45.4348164166541
          15 :    39.7452909487867
          16 :   -28.7958914161507
          17 :    14.2097490943543
          18 :    1.34515014576436
          19 :   -14.9529006301999
          20 :    24.3234115239400
          21 :   -28.3920415590429
          22 :    27.4238701238773
          23 :   -22.6544549080244
          24 :    15.6770809092744
          25 :   -7.87871597279951
          26 :   0.145961864329536
          27 :    7.09479903214782
          28 :   -13.6160666520860
          29 :    19.1006424010403
          30 :   -23.0054825561961
          31 :   -33.1335101414087
          32 :   -24.3242549921492

     Forces acting on atoms (Ry/au):

     negative rho (up, down):  1.598E+00 0.000E+00
     atom    1 type  1   force =    -0.00069822   -0.00040178    0.01752865
     atom    2 type  1   force =     0.00069810   -0.00040201    0.01752728
     atom    3 type  1   force =    -0.00000019    0.00080515    0.01754356
     atom    4 type  1   force =    -0.00000002   -0.00000074    0.02406033
     atom    5 type  1   force =     0.00000049    0.00251770   -0.02051721
     atom    6 type  1   force =    -0.00000054    0.00000093   -0.01479769
     atom    7 type  1   force =    -0.00217822   -0.00125935   -0.02051537
     atom    8 type  1   force =     0.00217877   -0.00125909   -0.02051643
     atom    9 type  1   force =    -0.00000237    0.00000060   -0.00028722
     atom   10 type  1   force =     0.00000234   -0.00069640   -0.00031055
     atom   11 type  1   force =    -0.00060314    0.00034867   -0.00030643
     atom   12 type  1   force =     0.00060309    0.00034619   -0.00030762
     atom   13 type  2   force =    -0.00000010    0.00000015    0.00089868

     Total force =     0.001621     Total SCF correction =     0.001020
     SCF correction compared to forces is large: reduce conv_thr to get better values

     entering subroutine stress ...

     negative rho (up, down):  1.598E+00 0.000E+00
          total   stress  (Ry/bohr**3)                   (kbar)     P=  -22.15
  -0.00018002   0.00000000   0.00000000        -26.48      0.00      0.00
   0.00000000  -0.00018002  -0.00000000          0.00    -26.48     -0.00
   0.00000000  -0.00000000  -0.00009162          0.00     -0.00    -13.48

     bfgs converged in  12 scf cycles and  11 bfgs steps
     (criteria: energy <  1.0E+00, force <  1.9E-03)

     End of BFGS Geometry Optimization

     Final energy   =   -2104.5252712722 Ry
Begin final coordinates

ATOMIC_POSITIONS (crystal)
Tc1      0.166666667   0.166666667   0.408540475    0   0   0
Tc1      0.666666667   0.166666667   0.408540475    0   0   0
Tc1      0.166666667   0.666666667   0.408540475    0   0   0
Tc1      0.666666667   0.666666667   0.408540475    0   0   0
Tc1      0.833333333   0.333333333   0.500000000    0   0   0
Tc1      0.333333333   0.333333333   0.500000000    0   0   0
Tc1      0.833333333   0.833333333   0.500000000    0   0   0
Tc1      0.333333333   0.833333333   0.500000000    0   0   0
Tc1      0.000000608   0.000000039   0.589952817
Tc1      0.500452389  -0.000906370   0.586685921
Tc1     -0.000906231   0.500452729   0.586685130
Tc1      0.500453069   0.500453426   0.586685181
H1       0.000000399  -0.000000660   0.659490769
End final coordinates

     Writing output data file calc.save

     General routines

     Parallel routines

   This run was terminated on:  17:30:31   2May2018

   JOB DONE.
Job  /afs/slac/g/suncat/bin/suncat-tsmpirun -x LD_LIBRARY_PATH -wdir /scratch/qe794834_1hzCJ pw.x -npool 4 -in pw.inp

TID   HOST_NAME   COMMAND_LINE            STATUS            TERMINATION_TIME
00000 suncat0060 pw.x -npool 4 -i  Done                     05/02/2018 17:30:31
00001 suncat0060 pw.x -npool 4 -i  Done                     05/02/2018 17:30:31
00002 suncat0060 pw.x -npool 4 -i  Done                     05/02/2018 17:30:31
00003 suncat0060 pw.x -npool 4 -i  Done                     05/02/2018 17:30:31
00004 suncat0060 pw.x -npool 4 -i  Done                     05/02/2018 17:30:31
00005 suncat0060 pw.x -npool 4 -i  Done                     05/02/2018 17:30:31
00006 suncat0060 pw.x -npool 4 -i  Done                     05/02/2018 17:30:31
00007 suncat0060 pw.x -npool 4 -i  Done                     05/02/2018 17:30:31
00008 suncat0056 pw.x -npool 4 -i  Done                     05/02/2018 17:30:31
00009 suncat0056 pw.x -npool 4 -i  Done                     05/02/2018 17:30:31
00010 suncat0056 pw.x -npool 4 -i  Done                     05/02/2018 17:30:31
00011 suncat0056 pw.x -npool 4 -i  Done                     05/02/2018 17:30:31
00012 suncat0056 pw.x -npool 4 -i  Done                     05/02/2018 17:30:31
00013 suncat0056 pw.x -npool 4 -i  Done                     05/02/2018 17:30:31
00014 suncat0056 pw.x -npool 4 -i  Done                     05/02/2018 17:30:31
00015 suncat0056 pw.x -npool 4 -i  Done                     05/02/2018 17:30:31
00016 suncat0031 pw.x -npool 4 -i  Done                     05/02/2018 17:30:31
00017 suncat0031 pw.x -npool 4 -i  Done                     05/02/2018 17:30:31
00018 suncat0031 pw.x -npool 4 -i  Done                     05/02/2018 17:30:31
00019 suncat0031 pw.x -npool 4 -i  Done                     05/02/2018 17:30:31
00020 suncat0031 pw.x -npool 4 -i  Done                     05/02/2018 17:30:31
00021 suncat0031 pw.x -npool 4 -i  Done                     05/02/2018 17:30:31
00022 suncat0031 pw.x -npool 4 -i  Done                     05/02/2018 17:30:31
00023 suncat0031 pw.x -npool 4 -i  Done                     05/02/2018 17:30:31
00024 suncat0012 pw.x -npool 4 -i  Done                     05/02/2018 17:30:31
00025 suncat0012 pw.x -npool 4 -i  Done                     05/02/2018 17:30:31
00026 suncat0012 pw.x -npool 4 -i  Done                     05/02/2018 17:30:31
00027 suncat0012 pw.x -npool 4 -i  Done                     05/02/2018 17:30:31
00028 suncat0012 pw.x -npool 4 -i  Done                     05/02/2018 17:30:31
00029 suncat0012 pw.x -npool 4 -i  Done                     05/02/2018 17:30:31
00030 suncat0012 pw.x -npool 4 -i  Done                     05/02/2018 17:30:31
00031 suncat0012 pw.x -npool 4 -i  Done                     05/02/2018 17:30:31