     Program PWSCF v.5.1rc2 (svn rev. 11289) starts on 18Jan2018 at  4:29:13

     Current dimensions of program PWSCF are:
     Max number of different atomic species (ntypx) = 10
     Max number of k-points (npk) =  40000
     Max angular momentum in pseudopotentials (lmaxx) =  3
     Presently stress not available with electric field

     IMPORTANT: XC functional enforced from input :
     Exchange-correlation      = BEEF-VDW ( 1  4 27 13 2)
     Any further DFT definition will be discarded
     Please, verify this is what you really want

     Subspace diagonalization in iterative solution of the eigenvalue problem:
     a serial algorithm will be used

     bravais-lattice index     =            0
     lattice parameter (alat)  =       1.8897  a.u.
     unit-cell volume          =    6501.5726 (a.u.)^3
     number of atoms/cell      =           13
     number of atomic types    =            2
     number of electrons       =       160.00
     number of Kohn-Sham states=           90
     kinetic-energy cutoff     =      36.7493  Ry
     charge density cutoff     =     367.4932  Ry
     convergence threshold     =      1.0E-05
     mixing beta               =       0.3000
     number of iterations used =           10  plain     mixing
     Exchange-correlation      = BEEF-VDW ( 1  4 27 13 2)
     nstep                     =           50

     celldm(1)=   1.889726  celldm(2)=   0.000000  celldm(3)=   0.000000
     celldm(4)=   0.000000  celldm(5)=   0.000000  celldm(6)=   0.000000

     crystal axes: (cart. coord. in units of alat)
               a(1) = (   6.617606   0.000000   0.000000 )
               a(2) = (   3.308803   5.731015   0.000000 )
               a(3) = (   0.000000   0.000000  25.403253 )

     reciprocal axes: (cart. coord. in units 2 pi/alat)
               b(1) = (  0.151112 -0.087245  0.000000 )
               b(2) = (  0.000000  0.174489  0.000000 )
               b(3) = (  0.000000  0.000000  0.039365 )

     PseudoPot. # 1 for In read from file:
     /afs/slac.stanford.edu/u/if/mamunm/psp/gbrv1.5pbe/In.UPF
     MD5 check sum: 90777abd96fbb83f2e67db2a40c566b9
     Pseudo is Ultrasoft + core correction, Zval = 13.0
     Generated by new atomic code, or converted to UPF format
     Using radial grid of  889 points,  6 beta functions with:
                l(1) =   0
                l(2) =   0
                l(3) =   1
                l(4) =   1
                l(5) =   2
                l(6) =   2
     Q(r) pseudized with  6 coefficients,  rinner =    1.400   1.400   1.400
                                                       1.400   1.400

     PseudoPot. # 2 for C  read from file:
     /afs/slac.stanford.edu/u/if/mamunm/psp/gbrv1.5pbe/C.UPF
     MD5 check sum: d1aef80898a10debaa0f26306b886e00
     Pseudo is Ultrasoft + core correction, Zval =  4.0
     Generated by new atomic code, or converted to UPF format
     Using radial grid of  721 points,  4 beta functions with:
                l(1) =   0
                l(2) =   0
                l(3) =   1
                l(4) =   1
     Q(r) pseudized with  8 coefficients,  rinner =    1.100   1.100   1.100

     vdW kernel table read from file vdW_kernel_table
     MD5 check sum: 095c7af220d748ca6e76c0b4c6cfb241

     atomic species   valence    mass     pseudopotential
        In1           13.00   114.81800     In( 1.00)
        C1             4.00    12.01100     C ( 1.00)

     No symmetry found

   Cartesian axes

     site n.     atom                  positions (alat units)
         1           In1 tau(   1) = (   1.6544016   0.9551692  10.0000000  )
         2           In1 tau(   2) = (   4.9632047   0.9551692  10.0000000  )
         3           In1 tau(   3) = (   3.3088031   3.8206768  10.0000000  )
         4           In1 tau(   4) = (   6.6176063   3.8206768  10.0000000  )
         5           In1 tau(   5) = (   6.6176063   1.9103384  12.7016265  )
         6           In1 tau(   6) = (   3.3088031   1.9103384  12.7016265  )
         7           In1 tau(   7) = (   8.2720078   4.7758460  12.7016265  )
         8           In1 tau(   8) = (   4.9632047   4.7758460  12.7016265  )
         9           In1 tau(   9) = (   0.0000000   0.0000000  15.4032529  )
        10           In1 tau(  10) = (   3.3088031   0.0000000  15.4032529  )
        11           In1 tau(  11) = (   1.6544016   2.8655076  15.4032529  )
        12           In1 tau(  12) = (   4.9632047   2.8655076  15.4032529  )
        13           C1  tau(  13) = (   3.3088031   1.9103384  17.5832529  )

     number of k points=    20  Fermi-Dirac smearing, width (Ry)=  0.0110
                       cart. coord. in units 2pi/alat
        k(    1) = (   0.0000000   0.0000000   0.0000000), wk =   0.0555556
        k(    2) = (   0.0000000   0.0290815   0.0000000), wk =   0.1111111
        k(    3) = (   0.0000000   0.0581631   0.0000000), wk =   0.1111111
        k(    4) = (   0.0000000  -0.0872446   0.0000000), wk =   0.0555556
        k(    5) = (   0.0251853  -0.0145408   0.0000000), wk =   0.1111111
        k(    6) = (   0.0251853   0.0145408   0.0000000), wk =   0.1111111
        k(    7) = (   0.0251853   0.0436223   0.0000000), wk =   0.1111111
        k(    8) = (   0.0251853  -0.1017853   0.0000000), wk =   0.1111111
        k(    9) = (   0.0251853  -0.0727038   0.0000000), wk =   0.1111111
        k(   10) = (   0.0251853  -0.0436223   0.0000000), wk =   0.1111111
        k(   11) = (   0.0503707  -0.0290815   0.0000000), wk =   0.1111111
        k(   12) = (   0.0503707   0.0000000   0.0000000), wk =   0.1111111
        k(   13) = (   0.0503707   0.0290815   0.0000000), wk =   0.1111111
        k(   14) = (   0.0503707  -0.1163261   0.0000000), wk =   0.1111111
        k(   15) = (   0.0503707  -0.0872446   0.0000000), wk =   0.1111111
        k(   16) = (   0.0503707  -0.0581631   0.0000000), wk =   0.1111111
        k(   17) = (  -0.0755560   0.0436223   0.0000000), wk =   0.0555556
        k(   18) = (  -0.0755560   0.0727038   0.0000000), wk =   0.1111111
        k(   19) = (  -0.0755560   0.1017853   0.0000000), wk =   0.1111111
        k(   20) = (  -0.0755560  -0.0436223   0.0000000), wk =   0.0555556

     Largest allocated arrays     est. size (Mb)     dimensions
     Largest temporary arrays     est. size (Mb)     dimensions

     Initial potential from superposition of free atoms
     Check: negative starting charge=   -0.000196

     starting charge  141.99995, renormalised to  160.00000

     negative rho (up, down):  2.208E-04 0.000E+00

     *
     * You are using vdW-DF for exchange-correlation in this calculation.
     * Please cite the following three references that made this development
     * possible:
     *
     *   M. Dion, H. Rydberg, E. Schroder, D. C. Langreth, and
     *   B. I. Lundqvist, Phys. Rev. Lett. 92, 246401 (2004).
     *
     *   T. Thonhauser, V. R. Cooper, S. Li, A. Puzder, P. Hyldgaard, and
     *   D. C. Langreth, Phys. Rev. B 76, 125112 (2007).
     *
     *   G. Roman-Perez and J. M. Soler, Phys. Rev. Lett. 103, 096102 (2009).
     *
     *
     * If you are using vdW-DF2, please also cite:
     *
     *   K. Lee, E. D. Murray, L. Kong, B. I. Lundqvist, and
     *   D. C. Langreth, Phys. Rev. B 82, 081101(R) (2010).
     *
     *
     * If you are calculating the stress with vdW-DF, please also cite:
     *
     *   R. Sabatini, E. Kucukbenli, B. Kolb, T. Thonhauser, and
     *   S. de Gironcoli, J. Phys.: Condens. Matter 24, 424209 (2012).
     *

     Carrying out vdW-DF run using the following parameters:

     Nqs =      20    Nr_points =    1024   r_max =   100.000
     q_mesh =
               0.00001000     0.04494208     0.09755937     0.15916263
               0.23128650     0.31572767     0.41458969     0.53033537
               0.66584808     0.82450364     1.01025438     1.22772762
               1.48234092     1.78043706     2.12944203     2.53805004
               3.01644009     3.57652955     4.23227104     5.00000000

     Gradients computed in reciprocal space

     Adding external electric field

     Computed dipole along edir(3) :
        Dipole               -4.6770 Ry au,        -11.8878 Debye
        Dipole field         -0.0090 Ry au

        Potential amp.        0.8462 Ry
        Total length         46.8051 bohr

     Starting wfc are  112 randomized atomic wfcs

     Self-consistent Calculation

     iteration #  1     ecut=    36.75 Ry     beta=0.30
     Davidson diagonalization with overlap
     ethr =  1.00E-02,  avg # of iterations =  8.3

[...]

     total energy              =   -1476.40510393 Ry
     Harris-Foulkes estimate   =   -1636.85958998 Ry
     estimated scf accuracy    <     346.35993218 Ry

     iteration #  2     ecut=    36.75 Ry     beta=0.30
     Davidson diagonalization with overlap
     c_bands:  1 eigenvalues not converged
     c_bands:  2 eigenvalues not converged
     c_bands:  1 eigenvalues not converged
     c_bands:  3 eigenvalues not converged
     c_bands:  1 eigenvalues not converged
     c_bands:  2 eigenvalues not converged
     ethr =  1.00E-02,  avg # of iterations = 19.5

[...]

     End of self-consistent calculation

          k = 0.0000 0.0000 0.0000 ( 24345 PWs)   bands (ev):

   -14.9978 -14.9958 -14.9958 -14.9063 -14.9063 -14.8985 -14.8976 -14.8976
   -14.8927 -14.8776 -14.8543 -14.8543 -14.8483 -14.8411 -14.8150 -14.8150
   -14.8080 -14.8064 -14.8064 -14.7840 -14.7840 -14.7690 -14.7690 -14.7616
   -14.7589 -14.7589 -14.7573 -14.7311 -14.7311 -14.7244 -14.6482 -14.6482
   -14.6272 -14.6272 -14.6108 -14.5966 -14.5779 -14.5779 -14.5698 -14.5698
   -14.5412 -14.5412 -14.5284 -14.5197 -14.5197 -14.5168 -14.5003 -14.5003
   -14.4958 -14.4939 -14.4876 -14.4876 -14.4730 -14.4730 -14.4625 -14.4555
   -14.4555 -14.4214 -14.4214 -14.4047  -9.0978  -8.4475  -7.3855  -5.3530
    -4.1745  -4.1745  -4.1653  -3.8982  -3.8982  -3.8939  -2.6957  -2.6957
    -2.6270  -2.3912  -2.3810  -2.3810  -1.8678  -0.9938  -0.9938  -0.7740
    -0.7194  -0.5017  -0.5017   0.6562   0.6562   0.8330   1.5533   2.8773
     2.8773   2.9456

[...]

          k =-0.0756 0.0436 0.0000 ( 24448 PWs)   bands (ev):

[...]

     the Fermi energy is     0.1735 ev

!    total energy              =   -1628.47548736 Ry
     Harris-Foulkes estimate   =   -1628.47549256 Ry
     estimated scf accuracy    <       0.00000038 Ry

     The total energy is the sum of the following terms:

     one-electron contribution =   -9288.63630200 Ry
     hartree contribution      =    4723.24140693 Ry
     xc contribution           =    -472.76795556 Ry
     ewald contribution        =    3409.73034682 Ry
     electric field correction =       0.00063455 Ry
     smearing contrib. (-TS)   =      -0.04361811 Ry

     convergence has been achieved in  19 iterations

 BEEF-vdW xc energy contributions
           1 :   -414.051129933894
           2 :    378.378244793932
           3 :   -318.180851601618
           4 :    250.420441030705
           5 :   -190.562230532647
           6 :    146.976379720838
           7 :   -119.359830356309
           8 :    101.333096486436
           9 :   -85.3133198825310
          10 :    66.8204469160572
          11 :   -46.0849447900137
[...]

     Current dimensions of program PWSCF are:
     Max number of different atomic species (ntypx) = 10
     Max number of k-points (npk) =  40000
     Max angular momentum in pseudopotentials (lmaxx) =  3
     Presently stress not available with electric field

     IMPORTANT: XC functional enforced from input :
     Exchange-correlation      = BEEF-VDW ( 1  4 27 13 2)
     Any further DFT definition will be discarded
     Please, verify this is what you really want

     Subspace diagonalization in iterative solution of the eigenvalue problem:
     a serial algorithm will be used

     bravais-lattice index     =            0
     lattice parameter (alat)  =       1.8897  a.u.
     unit-cell volume          =    6501.5726 (a.u.)^3
     number of atoms/cell      =           13
     number of atomic types    =            2
     number of electrons       =       160.00
     number of Kohn-Sham states=           90
     kinetic-energy cutoff     =      36.7493  Ry
     charge density cutoff     =     367.4932  Ry
     convergence threshold     =      1.0E-05
     mixing beta               =       0.3000
     number of iterations used =           10  plain     mixing
     Exchange-correlation      = BEEF-VDW ( 1  4 27 13 2)
     nstep                     =           50

     celldm(1)=   1.889726  celldm(2)=   0.000000  celldm(3)=   0.000000
     celldm(4)=   0.000000  celldm(5)=   0.000000  celldm(6)=   0.000000

     crystal axes: (cart. coord. in units of alat)
               a(1) = (   6.617606   0.000000   0.000000 )
               a(2) = (   3.308803   5.731015   0.000000 )
               a(3) = (   0.000000   0.000000  25.403253 )

     reciprocal axes: (cart. coord. in units 2 pi/alat)
               b(1) = (  0.151112 -0.087245  0.000000 )
               b(2) = (  0.000000  0.174489  0.000000 )
               b(3) = (  0.000000  0.000000  0.039365 )

     PseudoPot. # 1 for In read from file:
     /afs/slac.stanford.edu/u/if/mamunm/psp/gbrv1.5pbe/In.UPF
     MD5 check sum: 90777abd96fbb83f2e67db2a40c566b9
     Pseudo is Ultrasoft + core correction, Zval = 13.0
     Generated by new atomic code, or converted to UPF format
     Using radial grid of  889 points,  6 beta functions with:
                l(1) =   0
                l(2) =   0
                l(3) =   1
                l(4) =   1
                l(5) =   2
                l(6) =   2
     Q(r) pseudized with  6 coefficients,  rinner =    1.400   1.400   1.400
                                                       1.400   1.400

     PseudoPot. # 2 for C  read from file:
     /afs/slac.stanford.edu/u/if/mamunm/psp/gbrv1.5pbe/C.UPF
     MD5 check sum: d1aef80898a10debaa0f26306b886e00
     Pseudo is Ultrasoft + core correction, Zval =  4.0
     Generated by new atomic code, or converted to UPF format
     Using radial grid of  721 points,  4 beta functions with:
                l(1) =   0
                l(2) =   0
                l(3) =   1
                l(4) =   1
     Q(r) pseudized with  8 coefficients,  rinner =    1.100   1.100   1.100

     vdW kernel table read from file vdW_kernel_table
     MD5 check sum: 095c7af220d748ca6e76c0b4c6cfb241

     atomic species   valence    mass     pseudopotential
        In1           13.00   114.81800     In( 1.00)
        C1             4.00    12.01100     C ( 1.00)

     No symmetry found

   Cartesian axes

     site n.     atom                  positions (alat units)
         1           In1 tau(   1) = (   1.6544016   0.9551692  10.0000000  )
         2           In1 tau(   2) = (   4.9632047   0.9551692  10.0000000  )
         3           In1 tau(   3) = (   3.3088031   3.8206768  10.0000000  )
         4           In1 tau(   4) = (   6.6176063   3.8206768  10.0000000  )
         5           In1 tau(   5) = (   6.6176063   1.9103384  12.7016265  )
         6           In1 tau(   6) = (   3.3088031   1.9103384  12.7016265  )
         7           In1 tau(   7) = (   8.2720078   4.7758460  12.7016265  )
         8           In1 tau(   8) = (   4.9632047   4.7758460  12.7016265  )
         9           In1 tau(   9) = (   6.6175849   0.0000217  15.4962079  )
        10           In1 tau(  10) = (   6.6176131   5.5938220  15.7008621  )
        11           In1 tau(  11) = (   8.1531229   2.9341350  15.7008950  )
        12           In1 tau(  12) = (   5.0820574   2.9341056  15.7008491  )
        13           C1  tau(  13) = (   3.3087787   1.9102874  16.4401049  )

     number of k points=    20  Fermi-Dirac smearing, width (Ry)=  0.0110
                       cart. coord. in units 2pi/alat
        k(    1) = (   0.0000000   0.0000000   0.0000000), wk =   0.0555556
        k(    2) = (   0.0000000   0.0290815   0.0000000), wk =   0.1111111
        k(    3) = (   0.0000000   0.0581631   0.0000000), wk =   0.1111111
        k(    4) = (   0.0000000  -0.0872446   0.0000000), wk =   0.0555556
        k(    5) = (   0.0251853  -0.0145408   0.0000000), wk =   0.1111111
        k(    6) = (   0.0251853   0.0145408   0.0000000), wk =   0.1111111
        k(    7) = (   0.0251853   0.0436223   0.0000000), wk =   0.1111111
        k(    8) = (   0.0251853  -0.1017853   0.0000000), wk =   0.1111111
        k(    9) = (   0.0251853  -0.0727038   0.0000000), wk =   0.1111111
        k(   10) = (   0.0251853  -0.0436223   0.0000000), wk =   0.1111111
        k(   11) = (   0.0503707  -0.0290815   0.0000000), wk =   0.1111111
        k(   12) = (   0.0503707   0.0000000   0.0000000), wk =   0.1111111
        k(   13) = (   0.0503707   0.0290815   0.0000000), wk =   0.1111111
        k(   14) = (   0.0503707  -0.1163261   0.0000000), wk =   0.1111111
        k(   15) = (   0.0503707  -0.0872446   0.0000000), wk =   0.1111111
        k(   16) = (   0.0503707  -0.0581631   0.0000000), wk =   0.1111111
        k(   17) = (  -0.0755560   0.0436223   0.0000000), wk =   0.0555556
        k(   18) = (  -0.0755560   0.0727038   0.0000000), wk =   0.1111111
        k(   19) = (  -0.0755560   0.1017853   0.0000000), wk =   0.1111111
        k(   20) = (  -0.0755560  -0.0436223   0.0000000), wk =   0.0555556

     Largest allocated arrays     est. size (Mb)     dimensions
     Largest temporary arrays     est. size (Mb)     dimensions

     Initial potential from superposition of free atoms
     Check: negative starting charge=   -0.000220

     starting charge  141.99995, renormalised to  160.00000

[...]

     *
     * You are using vdW-DF for exchange-correlation in this calculation.
     * Please cite the following three references that made this development
     * possible:
     *
     *   M. Dion, H. Rydberg, E. Schroder, D. C. Langreth, and
     *   B. I. Lundqvist, Phys. Rev. Lett. 92, 246401 (2004).
     *
     *   T. Thonhauser, V. R. Cooper, S. Li, A. Puzder, P. Hyldgaard, and
     *   D. C. Langreth, Phys. Rev. B 76, 125112 (2007).
     *
     *   G. Roman-Perez and J. M. Soler, Phys. Rev. Lett. 103, 096102 (2009).
     *
     *
     * If you are using vdW-DF2, please also cite:
     *
     *   K. Lee, E. D. Murray, L. Kong, B. I. Lundqvist, and
     *   D. C. Langreth, Phys. Rev. B 82, 081101(R) (2010).
     *
     *
     * If you are calculating the stress with vdW-DF, please also cite:
     *
     *   R. Sabatini, E. Kucukbenli, B. Kolb, T. Thonhauser, and
     *   S. de Gironcoli, J. Phys.: Condens. Matter 24, 424209 (2012).
     *

     Carrying out vdW-DF run using the following parameters:

     Nqs =      20    Nr_points =    1024   r_max =   100.000
     q_mesh =
               0.00001000     0.04494208     0.09755937     0.15916263
               0.23128650     0.31572767     0.41458969     0.53033537
               0.66584808     0.82450364     1.01025438     1.22772762
               1.48234092     1.78043706     2.12944203     2.53805004
               3.01644009     3.57652955     4.23227104     5.00000000

     Gradients computed in reciprocal space

[...]

     Starting wfc are  112 randomized atomic wfcs

     Self-consistent Calculation

[...]

     iteration #  2     ecut=    36.75 Ry     beta=0.30
     Davidson diagonalization with overlap
     c_bands:  1 eigenvalues not converged
     c_bands:  4 eigenvalues not converged
     c_bands:  1 eigenvalues not converged
     c_bands:  5 eigenvalues not converged
     c_bands:  5 eigenvalues not converged
     c_bands:  1 eigenvalues not converged
     c_bands:  1 eigenvalues not converged
     c_bands:  1 eigenvalues not converged
     c_bands:  3 eigenvalues not converged
     c_bands:  5 eigenvalues not converged
     c_bands:  5 eigenvalues not converged
     c_bands:  3 eigenvalues not converged
     c_bands:  5 eigenvalues not converged
     c_bands:  5 eigenvalues not converged
     ethr =  1.00E-02,  avg # of iterations = 20.0

[...]

     total energy              =   -1628.64058758 Ry
     Harris-Foulkes estimate   =   -1628.64058719 Ry
     estimated scf accuracy    <       0.00004716 Ry

     iteration # 19     ecut=    36.75 Ry     beta=0.30
     Davidson diagonalization with overlap
     ethr =  2.95E-08,  avg # of iterations =  3.0

[...]

     negative rho (up, down):  1.143E-03 0.000E+00

     Adding external electric field

     Computed dipole along edir(3) :
        Dipole               -0.1995 Ry au,         -0.5070 Debye
        Dipole field         -0.0004 Ry au

        Potential amp.        0.0361 Ry
        Total length         46.8051 bohr

     End of self-consistent calculation

[...]

          k = 0.0504-0.0582 0.0000 ( 24479 PWs)   bands (ev):

[...]

          k =-0.0756-0.0436 0.0000 ( 24448 PWs)   bands (ev):

   -14.7328 -14.6148 -14.5919 -14.5741 -14.5529 -14.5426 -14.5341 -14.5331
   -14.5278 -14.5221 -14.5142 -14.5047 -14.4988 -14.4982 -14.4930 -14.4878
   -14.4758 -14.4632 -14.4626 -14.4572 -14.4541 -14.4490 -14.4390 -14.4219
   -14.4193 -14.4178 -14.4152 -14.4103 -14.4098 -14.3978 -14.3943 -14.3868
   -14.3756 -14.3720 -14.3707 -14.3522 -14.3408 -14.3367 -14.3269 -14.3196
   -14.3183 -14.3181 -14.3115 -14.3007 -14.2940 -14.2934 -14.2896 -14.2870
   -14.2804 -14.2746 -14.2741 -14.2547 -14.2469 -14.2239 -14.2173 -14.2122
   -14.2041 -14.1757 -14.1735 -14.1430  -9.4573  -7.3522  -7.1425  -6.3226
    -5.4329  -4.8779  -4.6965  -4.4469  -4.1126  -3.9952  -2.5451  -2.3766
    -1.8472  -1.3993  -0.3969  -0.1545  -0.0828   0.1914   0.3009   0.4836
     0.7221   1.0708   1.5364   1.6198   2.0729   2.1863   2.4444   2.6305
     2.6482   3.0010

     the Fermi energy is     0.5205 ev

!    total energy              =   -1628.64058945 Ry
     Harris-Foulkes estimate   =   -1628.64057555 Ry
     estimated scf accuracy    <       0.00000264 Ry

     The total energy is the sum of the following terms:

     one-electron contribution =   -9143.11101615 Ry
     hartree contribution      =    4651.92660164 Ry
     xc contribution           =    -473.08587590 Ry
     ewald contribution        =    3335.66310306 Ry
     electric field correction =       0.00007692 Ry
     smearing contrib. (-TS)   =      -0.03347901 Ry

     convergence has been achieved in  19 iterations

 BEEF-vdW xc energy contributions
           1 :   -414.372635808421
           2 :    378.763098039900
           3 :   -318.606340568022
           4 :    250.803693064188
           5 :   -190.820577088123
           6 :    147.050974648931
           7 :   -119.225706117265
           8 :    101.014048680908
           9 :   -84.8888641640726
          10 :    66.4043126921270
          11 :   -45.7755766970479
          12 :    26.4528586450633
          13 :   -12.1245970115950
          14 :    4.21579123371930
          15 :   -1.27273884624435
          16 :   0.227504325030282
          17 :    1.59507749255431
          18 :   -5.10129681682349
          19 :    9.39384991583859
          20 :   -12.8252352287535
          21 :    14.2617816887384
          22 :   -13.7332441182813
          23 :    12.1979558790312
          24 :   -10.7769450693967
          25 :    10.0733110352426
          26 :   -9.99626395331461
          27 :    10.0675507967118
          28 :   -9.87066344667744
          29 :    9.29541163775059
          30 :   -8.47564134607973
          31 :   -37.7133343803995
          32 :   -27.3965886082651

     Forces acting on atoms (Ry/au):

     negative rho (up, down):  1.143E-03 0.000E+00
     atom    1 type  1   force =    -0.00396109   -0.00228811   -0.01253159
     atom    2 type  1   force =     0.00396521   -0.00229267   -0.01253164
     atom    3 type  1   force =    -0.00000309    0.00458001   -0.01253420
     atom    4 type  1   force =    -0.00000077    0.00000272   -0.01170186
     atom    5 type  1   force =     0.00000106    0.00165128    0.01054098
     atom    6 type  1   force =    -0.00000083    0.00000182    0.01718826
     atom    7 type  1   force =    -0.00142847   -0.00082737    0.01054026
     atom    8 type  1   force =     0.00142830   -0.00082570    0.01054058
     atom    9 type  1   force =     0.00000283   -0.00000288    0.00190000
     atom   10 type  1   force =    -0.00000326   -0.00003188   -0.00042849
     atom   11 type  1   force =     0.00000583   -0.00000212   -0.00042111
     atom   12 type  1   force =    -0.00000875    0.00000094   -0.00041946
     atom   13 type  2   force =     0.00000304    0.00003397   -0.00014174

     Total force =     0.036223     Total SCF correction =     0.009916
     SCF correction compared to forces is large: reduce conv_thr to get better values

     entering subroutine stress ...

     negative rho (up, down):  1.143E-03 0.000E+00
          total   stress  (Ry/bohr**3)                   (kbar)     P=    5.73
   0.00004276   0.00000000   0.00000000          6.29      0.00      0.00
   0.00000000   0.00004277   0.00000001          0.00      6.29      0.00
   0.00000000   0.00000001   0.00003135          0.00      0.00      4.61

 !ASE

     Writing output data file calc.save

     General routines

     Parallel routines

   This run was terminated on:   6:14:43  18Jan2018

   JOB DONE.
Job  /afs/slac/g/suncat/bin/suncat-tsmpirun -x LD_LIBRARY_PATH -wdir /scratch/qe842449_J6g3r pw.x -in pw.inp

TID   HOST_NAME   COMMAND_LINE            STATUS            TERMINATION_TIME
00000 suncat2070 pw.x -in pw.inp   Done                     01/18/2018 06:14:43
00001 suncat2070 pw.x -in pw.inp   Done                     01/18/2018 06:14:43
00002 suncat2070 pw.x -in pw.inp   Done                     01/18/2018 06:14:43
00003 suncat2070 pw.x -in pw.inp   Done                     01/18/2018 06:14:43
00004 suncat2070 pw.x -in pw.inp   Done                     01/18/2018 06:14:43
00005 suncat2070 pw.x -in pw.inp   Done                     01/18/2018 06:14:43
00006 suncat2070 pw.x -in pw.inp   Done                     01/18/2018 06:14:43
00007 suncat2070 pw.x -in pw.inp   Done                     01/18/2018 06:14:43
00008 suncat2070 pw.x -in pw.inp   Done                     01/18/2018 06:14:43
00009 suncat2070 pw.x -in pw.inp   Done                     01/18/2018 06:14:43
00010 suncat2070 pw.x -in pw.inp   Done                     01/18/2018 06:14:43
00011 suncat2070 pw.x -in pw.inp   Done                     01/18/2018 06:14:43
00012 suncat2070 pw.x -in pw.inp   Done                     01/18/2018 06:14:43
00013 suncat2070 pw.x -in pw.inp   Done                     01/18/2018 06:14:43
00014 suncat2070 pw.x -in pw.inp   Done                     01/18/2018 06:14:43
00015 suncat2070 pw.x -in pw.inp   Done                     01/18/2018 06:14:43
00016 suncat2062 pw.x -in pw.inp   Done                     01/18/2018 06:14:43
00017 suncat2062 pw.x -in pw.inp   Done                     01/18/2018 06:14:43
00018 suncat2062 pw.x -in pw.inp   Done                     01/18/2018 06:14:43
00019 suncat2062 pw.x -in pw.inp   Done                     01/18/2018 06:14:43
00020 suncat2062 pw.x -in pw.inp   Done                     01/18/2018 06:14:43
00021 suncat2062 pw.x -in pw.inp   Done                     01/18/2018 06:14:43
00022 suncat2062 pw.x -in pw.inp   Done                     01/18/2018 06:14:43
00023 suncat2062 pw.x -in pw.inp   Done                     01/18/2018 06:14:43
00024 suncat2062 pw.x -in pw.inp   Done                     01/18/2018 06:14:43
00025 suncat2062 pw.x -in pw.inp   Done                     01/18/2018 06:14:43
00026 suncat2062 pw.x -in pw.inp   Done                     01/18/2018 06:14:43
00027 suncat2062 pw.x -in pw.inp   Done                     01/18/2018 06:14:43
00028 suncat2062 pw.x -in pw.inp   Done                     01/18/2018 06:14:43
00029 suncat2062 pw.x -in pw.inp   Done                     01/18/2018 06:14:43
00030 suncat2062 pw.x -in pw.inp   Done                     01/18/2018 06:14:43
00031 suncat2062 pw.x -in pw.inp   Done                     01/18/2018 06:14:43