     Program PWSCF v.5.1rc2 (svn rev. 11289) starts on  2May2018 at 23:45:41

     Current dimensions of program PWSCF are:
     Max number of different atomic species (ntypx) = 10
     Max number of k-points (npk) =  40000
     Max angular momentum in pseudopotentials (lmaxx) =  3
     Presently stress not available with electric field

     IMPORTANT: XC functional enforced from input :
     Exchange-correlation      = BEEF-VDW ( 1  4 27 13 2)
     Any further DFT definition will be discarded
     Please, verify this is what you really want

     Subspace diagonalization in iterative solution of the eigenvalue problem:
     a serial algorithm will be used

     bravais-lattice index     =            0
     lattice parameter (alat)  =       1.8897  a.u.
     unit-cell volume          =    7725.1200 (a.u.)^3
     number of atoms/cell      =           13
     number of atomic types    =            2
     number of electrons       =       133.00
     number of Kohn-Sham states=           76
     kinetic-energy cutoff     =      36.7493  Ry
     charge density cutoff     =     367.4932  Ry
     convergence threshold     =      1.0E-05
     mixing beta               =       0.3000
     number of iterations used =           10  plain     mixing
     Exchange-correlation      = BEEF-VDW ( 1  4 27 13 2)
     nstep                     =           50

     celldm(1)=   1.889726  celldm(2)=   0.000000  celldm(3)=   0.000000
     celldm(4)=   0.000000  celldm(5)=   0.000000  celldm(6)=   0.000000

     crystal axes: (cart. coord. in units of alat)
               a(1) = (   7.152277   0.000000   0.000000 )
               a(2) = (   3.576139   6.194054   0.000000 )
               a(3) = (   0.000000   0.000000  25.839810 )

     reciprocal axes: (cart. coord. in units 2 pi/alat)
               b(1) = (  0.139816 -0.080723  0.000000 )
               b(2) = (  0.000000  0.161445  0.000000 )
               b(3) = (  0.000000  0.000000  0.038700 )

     PseudoPot. # 1 for Y  read from file:
     /u/if/mamunm/psp/gbrv1.5pbe/Y.UPF
     MD5 check sum: d034151ed7554c50b6e82763ed42c788
     Pseudo is Ultrasoft + core correction, Zval = 11.0
     Generated by new atomic code, or converted to UPF format
     Using radial grid of  885 points,  6 beta functions with:
                l(1) =   0
                l(2) =   0
                l(3) =   1
                l(4) =   1
                l(5) =   2
                l(6) =   2
     Q(r) pseudized with  8 coefficients,  rinner =    1.200   1.200   1.200
                                                       1.200   1.200

     PseudoPot. # 2 for H  read from file:
     /u/if/mamunm/psp/gbrv1.5pbe/H.UPF
     MD5 check sum: 761ae9a214b05c3daf00ab9f6b793d6f
     Pseudo is Ultrasoft, Zval =  1.0
     Generated by new atomic code, or converted to UPF format
     Using radial grid of  615 points,  2 beta functions with:
                l(1) =   0
                l(2) =   0
     Q(r) pseudized with  8 coefficients,  rinner =    0.700

     vdW kernel table read from file vdW_kernel_table
     MD5 check sum: 095c7af220d748ca6e76c0b4c6cfb241

     atomic species   valence    mass     pseudopotential
        Y1            11.00    88.90584     Y ( 1.00)
        H1             1.00     1.00800     H ( 1.00)

     No symmetry found

   Cartesian axes

     site n.     atom                  positions (alat units)
         1           Y1  tau(   1) = (   1.7880693   1.0323423  10.0000000  )
         2           Y1  tau(   2) = (   5.3642080   1.0323423  10.0000000  )
         3           Y1  tau(   3) = (   3.5761386   4.1293692  10.0000000  )
         4           Y1  tau(   4) = (   7.1522773   4.1293692  10.0000000  )
         5           Y1  tau(   5) = (   7.1522773   2.0646846  12.9199050  )
         6           Y1  tau(   6) = (   3.5761386   2.0646846  12.9199050  )
         7           Y1  tau(   7) = (   8.9403466   5.1617115  12.9199050  )
         8           Y1  tau(   8) = (   5.3642080   5.1617115  12.9199050  )
         9           Y1  tau(   9) = (   0.0000000   0.0000000  15.8398100  )
        10           Y1  tau(  10) = (   3.5761386   0.0000000  15.8398100  )
        11           Y1  tau(  11) = (   1.7880693   3.0970269  15.8398100  )
        12           Y1  tau(  12) = (   5.3642080   3.0970269  15.8398100  )
        13           H1  tau(  13) = (   1.7880693   1.0323423  17.2763100  )

     number of k points=    20  Fermi-Dirac smearing, width (Ry)=  0.0110
                       cart. coord. in units 2pi/alat
        k(    1) = (   0.0000000   0.0000000   0.0000000), wk =   0.0555556
        k(    2) = (   0.0000000   0.0269075   0.0000000), wk =   0.1111111
        k(    3) = (   0.0000000   0.0538151   0.0000000), wk =   0.1111111
        k(    4) = (   0.0000000  -0.0807226   0.0000000), wk =   0.0555556
        k(    5) = (   0.0233026  -0.0134538   0.0000000), wk =   0.1111111
        k(    6) = (   0.0233026   0.0134538   0.0000000), wk =   0.1111111
        k(    7) = (   0.0233026   0.0403613   0.0000000), wk =   0.1111111
        k(    8) = (   0.0233026  -0.0941763   0.0000000), wk =   0.1111111
        k(    9) = (   0.0233026  -0.0672688   0.0000000), wk =   0.1111111
        k(   10) = (   0.0233026  -0.0403613   0.0000000), wk =   0.1111111
        k(   11) = (   0.0466052  -0.0269075   0.0000000), wk =   0.1111111
        k(   12) = (   0.0466052   0.0000000   0.0000000), wk =   0.1111111
        k(   13) = (   0.0466052   0.0269075   0.0000000), wk =   0.1111111
        k(   14) = (   0.0466052  -0.1076301   0.0000000), wk =   0.1111111
        k(   15) = (   0.0466052  -0.0807226   0.0000000), wk =   0.1111111
        k(   16) = (   0.0466052  -0.0538151   0.0000000), wk =   0.1111111
        k(   17) = (  -0.0699078   0.0403613   0.0000000), wk =   0.0555556
        k(   18) = (  -0.0699078   0.0672688   0.0000000), wk =   0.1111111
        k(   19) = (  -0.0699078   0.0941763   0.0000000), wk =   0.1111111
        k(   20) = (  -0.0699078  -0.0403613   0.0000000), wk =   0.0555556

     Largest allocated arrays     est. size (Mb)     dimensions
     Largest temporary arrays     est. size (Mb)     dimensions

     Initial potential from superposition of free atoms
     Check: negative starting charge=   -0.000596

     starting charge  132.94636, renormalised to  133.00000

     negative rho (up, down):  5.962E-04 0.000E+00

     *
     * You are using vdW-DF for exchange-correlation in this calculation.
     * Please cite the following three references that made this development
     * possible:
     *
     *   M. Dion, H. Rydberg, E. Schroder, D. C. Langreth, and
     *   B. I. Lundqvist, Phys. Rev. Lett. 92, 246401 (2004).
     *
     *   T. Thonhauser, V. R. Cooper, S. Li, A. Puzder, P. Hyldgaard, and
     *   D. C. Langreth, Phys. Rev. B 76, 125112 (2007).
     *
     *   G. Roman-Perez and J. M. Soler, Phys. Rev. Lett. 103, 096102 (2009).
     *
     *
     * If you are using vdW-DF2, please also cite:
     *
     *   K. Lee, E. D. Murray, L. Kong, B. I. Lundqvist, and
     *   D. C. Langreth, Phys. Rev. B 82, 081101(R) (2010).
     *
     *
     * If you are calculating the stress with vdW-DF, please also cite:
     *
     *   R. Sabatini, E. Kucukbenli, B. Kolb, T. Thonhauser, and
     *   S. de Gironcoli, J. Phys.: Condens. Matter 24, 424209 (2012).
     *

     Carrying out vdW-DF run using the following parameters:

     Nqs =      20    Nr_points =    1024   r_max =   100.000
     q_mesh =
               0.00001000     0.04494208     0.09755937     0.15916263
               0.23128650     0.31572767     0.41458969     0.53033537
               0.66584808     0.82450364     1.01025438     1.22772762
               1.48234092     1.78043706     2.12944203     2.53805004
               3.01644009     3.57652955     4.23227104     5.00000000

     Gradients computed in reciprocal space

     Adding external electric field

     Computed dipole along edir(3) :
        Dipole               -0.0032 Ry au,         -0.0083 Debye
        Dipole field         -0.0000 Ry au

        Potential amp.        0.0005 Ry
        Total length         47.6094 bohr

     Starting wfc are  157 randomized atomic wfcs

     Self-consistent Calculation

     iteration #  1     ecut=    36.75 Ry     beta=0.30
     Davidson diagonalization with overlap
     ethr =  1.00E-02,  avg # of iterations =  2.0

[...]

     total energy              =   -1123.68767580 Ry
     Harris-Foulkes estimate   =   -1125.91690554 Ry
     estimated scf accuracy    <       4.78867550 Ry

[...]

     End of self-consistent calculation

          k = 0.0000 0.0000 0.0000 ( 28997 PWs)   bands (ev):

   -42.3876 -42.3765 -42.3381 -42.3353 -42.3349 -42.3307 -42.3146 -42.3144
   -41.8141 -41.7748 -41.7739 -41.7636 -22.4863 -22.4862 -22.4850 -22.4712
   -22.4710 -22.4524 -22.4356 -22.3944 -22.3542 -22.3471 -22.3468 -22.3248
   -22.3081 -22.3078 -22.1571 -22.1570 -22.1565 -22.1479 -22.1479 -22.1364
   -22.0575 -22.0575 -22.0396 -22.0396 -21.9349 -21.9303 -21.9299 -21.7230
   -21.6977 -21.6969 -21.6858 -21.6367 -21.6321 -21.6318 -21.5360 -21.5360
    -3.5186  -2.8935  -1.9286  -1.1745  -0.6470  -0.6469  -0.5418  -0.5123
    -0.5123  -0.5025  -0.2441  -0.2441  -0.0679   0.2887   0.2888   0.3652
     0.7025   0.7026   0.8801   1.1585   1.3743   1.5675   1.6274   1.6275
     1.6840   1.7461   1.7462   2.1377

[...]

          k =-0.0699 0.0404 0.0000 ( 29048 PWs)   bands (ev):

[...]

     the Fermi energy is     0.9709 ev

!    total energy              =   -1125.50251267 Ry
     Harris-Foulkes estimate   =   -1125.50252351 Ry
     estimated scf accuracy    <       0.00000909 Ry

     The total energy is the sum of the following terms:

     one-electron contribution =   -5401.58621024 Ry
     hartree contribution      =    2692.85626126 Ry
     xc contribution           =    -339.54240276 Ry
     ewald contribution        =    1922.89794796 Ry
     electric field correction =       0.00000034 Ry
     smearing contrib. (-TS)   =      -0.12810923 Ry

     convergence has been achieved in  15 iterations

 BEEF-vdW xc energy contributions
           1 :   -296.201140577201
           2 :    266.030702214328
           3 :   -214.045540101196
           4 :    152.996034962922
           5 :   -94.7928714997290
           6 :    46.9350904638118
           7 :   -11.9532412651968
           8 :   -10.8397757562867
           9 :    23.0953766428490
          10 :   -26.1921929411402
          11 :    21.3821267455928
          12 :   -10.6406710297673
          13 :   -2.82115290171453
          14 :    15.0182338784483
          15 :   -22.4682958726469
          16 :    23.4850673222230
          17 :   -18.6582342948582
          18 :    10.2572709045467
          19 :   -1.02053530758053
          20 :   -6.89738692726200
          21 :    12.3206646949926
          22 :   -14.8540385426965
          23 :    14.5206369179569
          24 :   -11.6111392156936
          25 :    6.78263389894016
          26 :   -1.15854972192608
          27 :   -3.83888525478972
          28 :    6.95230160183780
          29 :   -7.59964764656615
          30 :    6.09415967978424
          31 :   -28.3076519399290
          32 :   -19.3540030664888

     Forces acting on atoms (Ry/au):

     negative rho (up, down):  1.770E-05 0.000E+00
     atom    1 type  1   force =     0.00008037   -0.00001784    0.00513298
     atom    2 type  1   force =    -0.00008796   -0.00061691    0.00540728
     atom    3 type  1   force =    -0.00052390    0.00027205    0.00549885
     atom    4 type  1   force =     0.00052476    0.00036776    0.00530745
     atom    5 type  1   force =    -0.00114316    0.00057488    0.00041724
     atom    6 type  1   force =     0.00115997    0.00070869    0.00038611
     atom    7 type  1   force =     0.00009134    0.00001831   -0.00470383
     atom    8 type  1   force =    -0.00007985   -0.00131637    0.00042850
     atom    9 type  1   force =     0.02007345    0.01152396    0.00664637
     atom   10 type  1   force =    -0.02007513    0.01160436    0.00665132
     atom   11 type  1   force =     0.00006853   -0.02315446    0.00668265
     atom   12 type  1   force =    -0.00008551    0.00003299   -0.01150723
     atom   13 type  2   force =    -0.00000290    0.00000258   -0.02634769

     Total force =     0.050688     Total SCF correction =     0.007424
     SCF correction compared to forces is large: reduce conv_thr to get better values

     entering subroutine stress ...

     negative rho (up, down):  1.770E-05 0.000E+00
          total   stress  (Ry/bohr**3)                   (kbar)     P=   -4.15
  -0.00002394   0.00000000  -0.00000000         -3.52      0.00     -0.00
   0.00000000  -0.00002394   0.00000000          0.00     -3.52      0.00
  -0.00000000   0.00000000  -0.00003666         -0.00      0.00     -5.39

     BFGS Geometry Optimization

     number of scf cycles    =   1
     number of bfgs steps    =   0

     energy   new            =   -1125.5025126709 Ry

     new trust radius        =       0.0263476949 bohr
     new conv_thr            =       0.0000099958 Ry

ATOMIC_POSITIONS (crystal)
Y1       0.166666667   0.166666667   0.386999750    0   0   0
Y1       0.666666667   0.166666667   0.386999750    0   0   0
Y1       0.166666667   0.666666667   0.386999750    0   0   0
Y1       0.666666667   0.666666667   0.386999750    0   0   0
Y1       0.833333333   0.333333333   0.500000000    0   0   0
Y1       0.333333333   0.333333333   0.500000000    0   0   0
Y1       0.833333333   0.833333333   0.500000000    0   0   0
Y1       0.333333333   0.833333333   0.500000000    0   0   0
Y1       0.000992915   0.000984528   0.613136362
Y1       0.498018998   0.000991396   0.613136463
Y1       0.000994149   0.498021843   0.613137105
Y1       0.499992264   0.500002818   0.612764591
H1       0.166666342   0.166666887   0.668053186

     Writing output data file calc.save
     Check: negative starting charge=   -0.000596
     NEW-OLD atomic charge density approx. for the potential
     Check: negative starting charge=   -0.000596

[...]

     Total force =     0.045937     Total SCF correction =     0.002816

[...]

     energy   old            =   -1125.5025126709 Ry
     energy   new            =   -1125.5049777624 Ry

     CASE: energy  _new < energy  _old

     WARNING: bfgs curvature condition failed, Theta= 0.884
     new trust radius        =       0.0289824643 bohr
     new conv_thr            =       0.0000001000 Ry

[...]

     Threshold (ethr) on eigenvalues was too large:
     Diagonalizing with lowered threshold

     Davidson diagonalization with overlap
     ethr =  7.13E-08,  avg # of iterations =  3.4

[...]

     iteration # 12     ecut=    36.75 Ry     beta=0.30
     Davidson diagonalization with overlap
     c_bands:  1 eigenvalues not converged
     ethr =  1.93E-10,  avg # of iterations =  8.3

[...]

     CASE: energy  _new > energy  _old

[...]

     WARNING: bfgs curvature condition failed, Theta= 0.259
     new trust radius        =       0.0012567167 bohr
     new conv_thr            =       0.0000001000 Ry

[...]

     Total force =     0.004794     Total SCF correction =     0.000188

[...]

     number of scf cycles    =  20
     number of bfgs steps    =  18

     energy   old            =   -1125.5187119719 Ry
     energy   new            =   -1125.5187321450 Ry

     CASE: energy  _new < energy  _old

     new trust radius        =       0.0042414190 bohr
     new conv_thr            =       0.0000001000 Ry

ATOMIC_POSITIONS (crystal)
Y1       0.166666667   0.166666667   0.386999750    0   0   0
Y1       0.666666667   0.166666667   0.386999750    0   0   0
Y1       0.166666667   0.666666667   0.386999750    0   0   0
Y1       0.666666667   0.666666667   0.386999750    0   0   0
Y1       0.833333333   0.333333333   0.500000000    0   0   0
Y1       0.333333333   0.333333333   0.500000000    0   0   0
Y1       0.833333333   0.833333333   0.500000000    0   0   0
Y1       0.333333333   0.833333333   0.500000000    0   0   0
Y1       0.005541211   0.005553106   0.612972686
Y1       0.488904692   0.005546985   0.612973038
Y1       0.005543218   0.488905740   0.612974552
Y1       0.500002525   0.499998985   0.606706137
H1       0.166666059   0.166664530   0.655577527

     Writing output data file calc.save
     Check: negative starting charge=   -0.000602
     NEW-OLD atomic charge density approx. for the potential
     Check: negative starting charge=   -0.000602

[...]

     Self-consistent Calculation

[...]

     Threshold (ethr) on eigenvalues was too large:
     Diagonalizing with lowered threshold

     Davidson diagonalization with overlap
     ethr =  2.30E-08,  avg # of iterations =  5.1

[...]

     total energy              =   -1125.51876201 Ry
     Harris-Foulkes estimate   =   -1125.51876157 Ry
     estimated scf accuracy    <       0.00000016 Ry

     iteration #  7     ecut=    36.75 Ry     beta=0.30
     Davidson diagonalization with overlap
     ethr =  1.23E-10,  avg # of iterations =  3.9

[...]

     negative rho (up, down):  1.658E-05 0.000E+00

     Adding external electric field

     Computed dipole along edir(3) :
        Dipole                0.0247 Ry au,          0.0628 Debye
        Dipole field          0.0000 Ry au

        Potential amp.       -0.0038 Ry
        Total length         47.6094 bohr

     End of self-consistent calculation

[...]

          k = 0.0466-0.0538 0.0000 ( 29098 PWs)   bands (ev):

[...]

          k =-0.0699-0.0404 0.0000 ( 29048 PWs)   bands (ev):

   -42.3099 -42.3059 -42.2874 -42.2844 -42.2719 -42.2549 -42.2451 -42.1661
   -41.7591 -41.6951 -41.6830 -41.6740 -22.3558 -22.3545 -22.3362 -22.3288
   -22.3260 -22.2985 -22.2885 -22.2882 -22.2840 -22.2760 -22.2534 -22.2294
   -22.2248 -22.2208 -22.2095 -22.1905 -22.1900 -22.1436 -22.1301 -22.0856
   -22.0605 -22.0582 -22.0100 -21.9706 -21.8047 -21.7611 -21.7021 -21.6796
   -21.6504 -21.6257 -21.6216 -21.6070 -21.5988 -21.5965 -21.5221 -21.4889
    -3.5269  -2.0623  -1.9493  -1.2315  -0.9641  -0.3744  -0.3658  -0.2230
    -0.0682   0.0643   0.0933   0.7201   0.7259   0.7674   0.7797   0.8675
     0.8832   0.9424   1.0121   1.1180   1.1257   1.1415   1.1754   1.2191
     1.3793   1.4495   1.4953   1.5596

     the Fermi energy is     1.0246 ev

!    total energy              =   -1125.51876199 Ry
     Harris-Foulkes estimate   =   -1125.51876210 Ry
     estimated scf accuracy    <       0.00000004 Ry

     The total energy is the sum of the following terms:

     one-electron contribution =   -5442.21392753 Ry
     hartree contribution      =    2713.46507839 Ry
     xc contribution           =    -339.64239132 Ry
     ewald contribution        =    1943.00098530 Ry
     electric field correction =       0.00000099 Ry
     smearing contrib. (-TS)   =      -0.12850782 Ry

     convergence has been achieved in   7 iterations

 BEEF-vdW xc energy contributions
           1 :   -296.301465565913
           2 :    266.158308477826
           3 :   -214.188600360565
           4 :    153.107464990803
           5 :   -94.8276818944282
           6 :    46.8858732310198
           7 :   -11.8566032838992
           8 :   -10.9301843400583
           9 :    23.1459140659750
          10 :   -26.2065864375238
          11 :    21.3893147400893
          12 :   -10.6671073670124
          13 :   -2.77246870127209
          14 :    14.9682578373620
          15 :   -22.4437342606024
          16 :    23.4951486259872
          17 :   -18.6839886091262
          18 :    10.2636157892501
          19 :  -0.983635532387780
          20 :   -6.96980776988943
          21 :    12.3942239228057
          22 :   -14.8943184482296
          23 :    14.5191463395603
          24 :   -11.5901079328664
          25 :    6.77711619399975
          26 :   -1.19158827462013
          27 :   -3.77016093822704
          28 :    6.87177908882938
          29 :   -7.53353875635946
          30 :    6.05243446249870
          31 :   -28.3156119833815
          32 :   -19.3665696102560

     Forces acting on atoms (Ry/au):

     negative rho (up, down):  1.658E-05 0.000E+00
     atom    1 type  1   force =    -0.00000003   -0.00000003    0.00388183
     atom    2 type  1   force =     0.00000013   -0.00152048    0.00462846
     atom    3 type  1   force =    -0.00131739    0.00076064    0.00462899
     atom    4 type  1   force =     0.00131711    0.00076014    0.00462897
     atom    5 type  1   force =     0.00127352   -0.00073419   -0.00404184
     atom    6 type  1   force =    -0.00127354   -0.00073535   -0.00404048
     atom    7 type  1   force =    -0.00000076   -0.00000014   -0.00161188
     atom    8 type  1   force =     0.00000023    0.00147024   -0.00404219
     atom    9 type  1   force =     0.00157371    0.00090206   -0.00158306
     atom   10 type  1   force =    -0.00157317    0.00090789   -0.00158371
     atom   11 type  1   force =     0.00000366   -0.00181378   -0.00158630
     atom   12 type  1   force =    -0.00000375    0.00000246    0.00112367
     atom   13 type  2   force =     0.00000028    0.00000054   -0.00040246

     Total force =     0.004340     Total SCF correction =     0.000581
     SCF correction compared to forces is large: reduce conv_thr to get better values

     entering subroutine stress ...

     negative rho (up, down):  1.658E-05 0.000E+00
          total   stress  (Ry/bohr**3)                   (kbar)     P=   -2.30
  -0.00001478   0.00000000   0.00000000         -2.17      0.00      0.00
   0.00000000  -0.00001478  -0.00000000          0.00     -2.17     -0.00
   0.00000000  -0.00000000  -0.00001737          0.00     -0.00     -2.56

     bfgs converged in  21 scf cycles and  19 bfgs steps
     (criteria: energy <  1.0E+00, force <  1.9E-03)

     End of BFGS Geometry Optimization

     Final energy   =   -1125.5187619901 Ry
Begin final coordinates

ATOMIC_POSITIONS (crystal)
Y1       0.166666667   0.166666667   0.386999750    0   0   0
Y1       0.666666667   0.166666667   0.386999750    0   0   0
Y1       0.166666667   0.666666667   0.386999750    0   0   0
Y1       0.666666667   0.666666667   0.386999750    0   0   0
Y1       0.833333333   0.333333333   0.500000000    0   0   0
Y1       0.333333333   0.333333333   0.500000000    0   0   0
Y1       0.833333333   0.833333333   0.500000000    0   0   0
Y1       0.333333333   0.833333333   0.500000000    0   0   0
Y1       0.005541211   0.005553106   0.612972686
Y1       0.488904692   0.005546985   0.612973038
Y1       0.005543218   0.488905740   0.612974552
Y1       0.500002525   0.499998985   0.606706137
H1       0.166666059   0.166664530   0.655577527
End final coordinates

     Writing output data file calc.save

     General routines

     Parallel routines

   This run was terminated on:   2:57: 4   3May2018

   JOB DONE.
Job  /afs/slac/g/suncat/bin/suncat-tsmpirun -x LD_LIBRARY_PATH -wdir /scratch/qe556714_Y60sp pw.x -npool 4 -in pw.inp

TID   HOST_NAME   COMMAND_LINE            STATUS            TERMINATION_TIME
00000 suncat0183 pw.x -npool 4 -i  Done                     05/03/2018 02:57:04
00001 suncat0183 pw.x -npool 4 -i  Done                     05/03/2018 02:57:04
00002 suncat0183 pw.x -npool 4 -i  Done                     05/03/2018 02:57:04
00003 suncat0183 pw.x -npool 4 -i  Done                     05/03/2018 02:57:04
00004 suncat0183 pw.x -npool 4 -i  Done                     05/03/2018 02:57:04
00005 suncat0183 pw.x -npool 4 -i  Done                     05/03/2018 02:57:04
00006 suncat0183 pw.x -npool 4 -i  Done                     05/03/2018 02:57:04
00007 suncat0183 pw.x -npool 4 -i  Done                     05/03/2018 02:57:04
00008 suncat0229 pw.x -npool 4 -i  Done                     05/03/2018 02:57:04
00009 suncat0229 pw.x -npool 4 -i  Done                     05/03/2018 02:57:04
00010 suncat0229 pw.x -npool 4 -i  Done                     05/03/2018 02:57:04
00011 suncat0229 pw.x -npool 4 -i  Done                     05/03/2018 02:57:04
00012 suncat0229 pw.x -npool 4 -i  Done                     05/03/2018 02:57:04
00013 suncat0229 pw.x -npool 4 -i  Done                     05/03/2018 02:57:04
00014 suncat0229 pw.x -npool 4 -i  Done                     05/03/2018 02:57:04
00015 suncat0229 pw.x -npool 4 -i  Done                     05/03/2018 02:57:04
00016 suncat0224 pw.x -npool 4 -i  Done                     05/03/2018 02:57:04
00017 suncat0224 pw.x -npool 4 -i  Done                     05/03/2018 02:57:04
00018 suncat0224 pw.x -npool 4 -i  Done                     05/03/2018 02:57:04
00019 suncat0224 pw.x -npool 4 -i  Done                     05/03/2018 02:57:04
00020 suncat0224 pw.x -npool 4 -i  Done                     05/03/2018 02:57:04
00021 suncat0224 pw.x -npool 4 -i  Done                     05/03/2018 02:57:04
00022 suncat0224 pw.x -npool 4 -i  Done                     05/03/2018 02:57:04
00023 suncat0224 pw.x -npool 4 -i  Done                     05/03/2018 02:57:04
00024 suncat0222 pw.x -npool 4 -i  Done                     05/03/2018 02:57:04
00025 suncat0222 pw.x -npool 4 -i  Done                     05/03/2018 02:57:04
00026 suncat0222 pw.x -npool 4 -i  Done                     05/03/2018 02:57:04
00027 suncat0222 pw.x -npool 4 -i  Done                     05/03/2018 02:57:04
00028 suncat0222 pw.x -npool 4 -i  Done                     05/03/2018 02:57:04
00029 suncat0222 pw.x -npool 4 -i  Done                     05/03/2018 02:57:04
00030 suncat0222 pw.x -npool 4 -i  Done                     05/03/2018 02:57:04
00031 suncat0222 pw.x -npool 4 -i  Done                     05/03/2018 02:57:04