     Program PWSCF v.5.1rc2 starts on 27Apr2018 at 11:27:29

     Current dimensions of program PWSCF are:
     Max number of different atomic species (ntypx) = 10
     Max number of k-points (npk) =  40000
     Max angular momentum in pseudopotentials (lmaxx) =  3
     Presently stress not available with electric field

     IMPORTANT: XC functional enforced from input :
     Exchange-correlation      = BEEF-VDW ( 1  4 27 13 2)
     Any further DFT definition will be discarded
     Please, verify this is what you really want

     bravais-lattice index     =            0
     lattice parameter (alat)  =       1.8897  a.u.
     unit-cell volume          =    7276.7660 (a.u.)^3
     number of atoms/cell      =           14
     number of atomic types    =            3
     number of electrons       =       187.00
     number of Kohn-Sham states=          103
     kinetic-energy cutoff     =      36.7493  Ry
     charge density cutoff     =     367.4932  Ry
     convergence threshold     =      1.0E-05
     mixing beta               =       0.3000
     number of iterations used =           10  plain     mixing
     Exchange-correlation      = BEEF-VDW ( 1  4 27 13 2)
     nstep                     =           50

     celldm(1)=   1.889726  celldm(2)=   0.000000  celldm(3)=   0.000000
     celldm(4)=   0.000000  celldm(5)=   0.000000  celldm(6)=   0.000000

     crystal axes: (cart. coord. in units of alat)
               a(1) = (   6.962526   0.000000   0.000000 )
               a(2) = (   3.481263   6.029724   0.000000 )
               a(3) = (   0.000000   0.000000  25.684879 )

     reciprocal axes: (cart. coord. in units 2 pi/alat)
               b(1) = (  0.143626 -0.082923  0.000000 )
               b(2) = (  0.000000  0.165845  0.000000 )
               b(3) = (  0.000000  0.000000  0.038933 )

     PseudoPot. # 1 for Bi read from file:
     /home/users/mamunm/src/pseudo/gbrv1.5pbe/Bi.UPF
     MD5 check sum: 81103212dc04adf40945787f699eab19
     Pseudo is Ultrasoft + core correction, Zval = 15.0
     Generated by new atomic code, or converted to UPF format
     Using radial grid of  899 points,  6 beta functions with:
                l(1) =   0
                l(2) =   0
                l(3) =   1
                l(4) =   1
                l(5) =   2
                l(6) =   2
     Q(r) pseudized with  6 coefficients,  rinner =    1.000   1.000   1.000
                                                       1.000   1.000

     PseudoPot. # 2 for O  read from file:
     /home/users/mamunm/src/pseudo/gbrv1.5pbe/O.UPF
     MD5 check sum: 734c27235a0248c51dbae37a1fbe46ec
     Pseudo is Ultrasoft + core correction, Zval =  6.0
     Generated by new atomic code, or converted to UPF format
     Using radial grid of  737 points,  5 beta functions with:
                l(1) =   0
                l(2) =   0
                l(3) =   1
                l(4) =   1
                l(5) =   2
     Q(r) pseudized with  8 coefficients,  rinner =    0.900   0.900   0.900
                                                       0.900   0.900

     PseudoPot. # 3 for H  read from file:
     /home/users/mamunm/src/pseudo/gbrv1.5pbe/H.UPF
     MD5 check sum: 761ae9a214b05c3daf00ab9f6b793d6f
     Pseudo is Ultrasoft, Zval =  1.0
     Generated by new atomic code, or converted to UPF format
     Using radial grid of  615 points,  2 beta functions with:
                l(1) =   0
                l(2) =   0
     Q(r) pseudized with  8 coefficients,  rinner =    0.700

     vdW kernel table read from file vdW_kernel_table
     MD5 check sum: 095c7af220d748ca6e76c0b4c6cfb241

     atomic species   valence    mass     pseudopotential
        Bi1           15.00   208.98040     Bi( 1.00)
        O1             6.00    15.99900     O ( 1.00)
        H1             1.00     1.00800     H ( 1.00)

     No symmetry found

   Cartesian axes

     site n.     atom                  positions (alat units)
         1           Bi1 tau(   1) = (   1.7406315   1.0049541  10.0000000  )
         2           Bi1 tau(   2) = (   5.2218945   1.0049541  10.0000000  )
         3           Bi1 tau(   3) = (   3.4812630   4.0198163  10.0000000  )
         4           Bi1 tau(   4) = (   6.9625260   4.0198163  10.0000000  )
         5           Bi1 tau(   5) = (   6.9625260   2.0099081  12.8424393  )
         6           Bi1 tau(   6) = (   3.4812630   2.0099081  12.8424393  )
         7           Bi1 tau(   7) = (   8.7031575   5.0247703  12.8424393  )
         8           Bi1 tau(   8) = (   5.2218945   5.0247703  12.8424393  )
         9           Bi1 tau(   9) = (   0.0000000   0.0000000  15.6848787  )
        10           Bi1 tau(  10) = (   3.4812630   0.0000000  15.6848787  )
        11           Bi1 tau(  11) = (   1.7406315   3.0148622  15.6848787  )
        12           Bi1 tau(  12) = (   5.2218945   3.0148622  15.6848787  )
        13           O1  tau(  13) = (   3.4812630   2.0099081  17.0758787  )
        14           H1  tau(  14) = (   3.4812630   2.0099081  18.0258787  )

     number of k points=    20  Fermi-Dirac smearing, width (Ry)=  0.0110
                       cart. coord. in units 2pi/alat
        k(    1) = (   0.0000000   0.0000000   0.0000000), wk =   0.0555556
        k(    2) = (   0.0000000   0.0276408   0.0000000), wk =   0.1111111
        k(    3) = (   0.0000000   0.0552817   0.0000000), wk =   0.1111111
        k(    4) = (   0.0000000  -0.0829225   0.0000000), wk =   0.0555556
        k(    5) = (   0.0239377  -0.0138204   0.0000000), wk =   0.1111111
        k(    6) = (   0.0239377   0.0138204   0.0000000), wk =   0.1111111
        k(    7) = (   0.0239377   0.0414613   0.0000000), wk =   0.1111111
        k(    8) = (   0.0239377  -0.0967430   0.0000000), wk =   0.1111111
        k(    9) = (   0.0239377  -0.0691021   0.0000000), wk =   0.1111111
        k(   10) = (   0.0239377  -0.0414613   0.0000000), wk =   0.1111111
        k(   11) = (   0.0478753  -0.0276408   0.0000000), wk =   0.1111111
        k(   12) = (   0.0478753  -0.0000000   0.0000000), wk =   0.1111111
        k(   13) = (   0.0478753   0.0276408   0.0000000), wk =   0.1111111
        k(   14) = (   0.0478753  -0.1105634   0.0000000), wk =   0.1111111
        k(   15) = (   0.0478753  -0.0829225   0.0000000), wk =   0.1111111
        k(   16) = (   0.0478753  -0.0552817   0.0000000), wk =   0.1111111
        k(   17) = (  -0.0718130   0.0414613   0.0000000), wk =   0.0555556
        k(   18) = (  -0.0718130   0.0691021   0.0000000), wk =   0.1111111
        k(   19) = (  -0.0718130   0.0967430   0.0000000), wk =   0.1111111
        k(   20) = (  -0.0718130  -0.0414613   0.0000000), wk =   0.0555556

     Largest allocated arrays     est. size (Mb)     dimensions
     Largest temporary arrays     est. size (Mb)     dimensions

     Check: negative/imaginary core charge=   -0.000001    0.000000

     Initial potential from superposition of free atoms
     Check: negative starting charge=   -0.503179

     starting charge  174.99949, renormalised to  187.00000

     negative rho (up, down):  5.377E-01 0.000E+00

     *
     * You are using vdW-DF for exchange-correlation in this calculation.
     * Please cite the following three references that made this development
     * possible:
     *
     *   M. Dion, H. Rydberg, E. Schroder, D. C. Langreth, and
     *   B. I. Lundqvist, Phys. Rev. Lett. 92, 246401 (2004).
     *
     *   T. Thonhauser, V. R. Cooper, S. Li, A. Puzder, P. Hyldgaard, and
     *   D. C. Langreth, Phys. Rev. B 76, 125112 (2007).
     *
     *   G. Roman-Perez and J. M. Soler, Phys. Rev. Lett. 103, 096102 (2009).
     *
     *
     * If you are using vdW-DF2, please also cite:
     *
     *   K. Lee, E. D. Murray, L. Kong, B. I. Lundqvist, and
     *   D. C. Langreth, Phys. Rev. B 82, 081101(R) (2010).
     *
     *
     * If you are calculating the stress with vdW-DF, please also cite:
     *
     *   R. Sabatini, E. Kucukbenli, B. Kolb, T. Thonhauser, and
     *   S. de Gironcoli, J. Phys.: Condens. Matter 24, 424209 (2012).
     *

     Carrying out vdW-DF run using the following parameters:

     Nqs =      20    Nr_points =    1024   r_max =   100.000
     q_mesh =
               0.00001000     0.04494208     0.09755937     0.15916263
               0.23128650     0.31572767     0.41458969     0.53033537
               0.66584808     0.82450364     1.01025438     1.22772762
               1.48234092     1.78043706     2.12944203     2.53805004
               3.01644009     3.57652955     4.23227104     5.00000000

     Gradients computed in reciprocal space

     Adding external electric field

     Computed dipole along edir(3) :
        Dipole               -3.9632 Ry au,        -10.0734 Debye
        Dipole field         -0.0068 Ry au

        Potential amp.        0.6478 Ry
        Total length         47.3240 bohr

     Starting wfc are  113 randomized atomic wfcs

     Self-consistent Calculation

     iteration #  1     ecut=    36.75 Ry     beta=0.30
     Davidson diagonalization with overlap
     ethr =  1.00E-02,  avg # of iterations =  8.8

[...]

     total energy              =   -2220.03862043 Ry
     Harris-Foulkes estimate   =   -2281.70234301 Ry
     estimated scf accuracy    <     130.66217436 Ry

[...]

     End of self-consistent calculation

          k = 0.0000 0.0000 0.0000 ( 27441 PWs)   bands (ev):

   -22.0884 -22.0884 -22.0831 -22.0684 -22.0495 -22.0495 -22.0197 -22.0146
   -22.0146 -21.9922 -21.9791 -21.9791 -21.9568 -21.9547 -21.9547 -21.9329
   -21.9234 -21.9186 -21.9186 -21.9092 -21.9092 -21.8989 -21.8989 -21.8771
   -21.8771 -21.8615 -21.8588 -21.8527 -21.8527 -21.8441 -21.8297 -21.8297
   -21.8224 -21.8224 -21.8070 -21.8054 -21.8054 -21.7640 -21.7634 -21.7559
   -21.7559 -21.7450 -21.7450 -21.7140 -21.6835 -21.6835 -21.6657 -21.6632
   -21.6584 -21.6584 -21.6408 -21.6408 -21.6361 -21.6361 -21.6309 -21.6309
   -21.6276 -21.6201 -21.6200 -21.6093 -18.9471 -11.8872 -10.8281  -9.7361
    -9.0828  -9.0828  -9.0815  -8.6392  -8.6392  -8.5279  -8.1635  -8.1635
    -8.1373  -6.4091  -3.3358  -3.3358  -3.2484  -3.2484  -3.1572  -2.7095
    -2.3626  -2.2489  -2.2489  -1.7030  -1.7030  -1.3552   0.0226   1.2835
     1.2835   1.3503   1.6466   1.6466   1.7608   2.4471   2.5012   2.5012
     2.8935   3.4449   3.5061   3.5061   3.5890   4.0172   4.0172

[...]

          k =-0.0718 0.0415 0.0000 ( 27378 PWs)   bands (ev):

[...]

     the Fermi energy is     1.7221 ev

!    total energy              =   -2279.56641268 Ry
     Harris-Foulkes estimate   =   -2279.57169863 Ry
     estimated scf accuracy    <       0.00000249 Ry

     The total energy is the sum of the following terms:

     one-electron contribution =  -11103.59288400 Ry
     hartree contribution      =    5610.72961722 Ry
     xc contribution           =    -807.44160286 Ry
     ewald contribution        =    4020.79605252 Ry
     electric field correction =       0.00010089 Ry
     smearing contrib. (-TS)   =      -0.05769645 Ry

     convergence has been achieved in  19 iterations

 BEEF-vdW xc energy contributions
           1 :   -719.531794302753
           2 :    668.486419300790
           3 :   -578.501352955242
           4 :    469.214234714381
           5 :   -361.185878778348
           6 :    269.919587175807
           7 :   -202.391804033536
           8 :    156.940533421716
           9 :   -126.153432534732
          10 :    101.267897088899
          11 :   -76.1364184778481
          12 :    49.1993588988241
          13 :   -22.9746363144604
          14 :    1.72781992996511
          15 :    11.2914452317162
          16 :   -15.6734803847751
          17 :    13.9925420710911
          18 :   -10.4308086692264
          19 :    8.73554000832939
          20 :   -10.5865172326733
          21 :    15.1399418058154
          22 :   -19.8648833448340
          23 :    22.1258417542090
          24 :   -20.6451867555470
          25 :    16.1168093550129
          26 :   -10.7371209612238
          27 :    6.98369230955939
          28 :   -6.32837536290208
          29 :    8.55023981670445
          30 :   -11.9626900941438
          31 :   -57.6040057860242
          32 :   -42.3583954742616

     Forces acting on atoms (Ry/au):

     negative rho (up, down):  5.262E-01 0.000E+00
     atom    1 type  1   force =     0.00229188    0.00132291   -0.01045059
     atom    2 type  1   force =    -0.00229020    0.00132225   -0.01045114
     atom    3 type  1   force =     0.00000089   -0.00264754   -0.01045026
     atom    4 type  1   force =    -0.00000095    0.00000136   -0.00274275
     atom    5 type  1   force =     0.00000189   -0.00104690   -0.00312758
     atom    6 type  1   force =    -0.00000275    0.00000703   -0.00129656
     atom    7 type  1   force =     0.00091159    0.00052082   -0.00312945
     atom    8 type  1   force =    -0.00091072    0.00051832   -0.00313449
     atom    9 type  1   force =     0.00000122    0.00000083    0.00932026
     atom   10 type  1   force =    -0.00000235   -0.02790412   -0.00505452
     atom   11 type  1   force =    -0.02416675    0.01395194   -0.00505668
     atom   12 type  1   force =     0.02416684    0.01395352   -0.00505638
     atom   13 type  2   force =    -0.00000039   -0.00000039   -0.01577389
     atom   14 type  3   force =    -0.00000021   -0.00000002    0.06640403

     Total force =     0.084605     Total SCF correction =     0.003003

     entering subroutine stress ...

     negative rho (up, down):  5.262E-01 0.000E+00
          total   stress  (Ry/bohr**3)                   (kbar)     P=    9.60
   0.00006210  -0.00000000   0.00000000          9.14     -0.00      0.00
  -0.00000000   0.00006210  -0.00000000         -0.00      9.14     -0.00
   0.00000000  -0.00000000   0.00007161          0.00     -0.00     10.53

     BFGS Geometry Optimization

     number of scf cycles    =   1
     number of bfgs steps    =   0

     energy   new            =   -2279.5664126777 Ry

     new trust radius        =       0.0664040326 bohr
     new conv_thr            =       0.0000099958 Ry

ATOMIC_POSITIONS (crystal)
Bi1      0.166666667   0.166666667   0.389334134    0   0   0
Bi1      0.666666667   0.166666667   0.389334134    0   0   0
Bi1      0.166666667   0.666666667   0.389334134    0   0   0
Bi1      0.666666667   0.666666667   0.389334134    0   0   0
Bi1      0.833333333   0.333333333   0.500000000    0   0   0
Bi1      0.333333333   0.333333333   0.500000000    0   0   0
Bi1      0.833333333   0.833333333   0.500000000    0   0   0
Bi1      0.333333333   0.833333333   0.500000000    0   0   0
Bi1      0.000000056   0.000000072   0.610857888
Bi1      0.501224274  -0.002448905   0.610561729
Bi1     -0.002448981   0.501224442   0.610561685
Bi1      0.501224477   0.501224581   0.610561691
O1       0.333333321   0.333333299   0.664497260
H1       0.333333318   0.333333332   0.703177087

     Writing output data file calc.save
     Check: negative starting charge=   -0.503179
     NEW-OLD atomic charge density approx. for the potential

     Check: negative/imaginary core charge=   -0.000001    0.000000
     Check: negative starting charge=   -0.503201

[...]

     energy   old            =   -2279.5664126777 Ry
     energy   new            =   -2279.5748093489 Ry

     CASE: energy  _new < energy  _old

[...]

     iteration #  1     ecut=    36.75 Ry     beta=0.30
     Davidson diagonalization with overlap
     c_bands:  1 eigenvalues not converged
     c_bands:  1 eigenvalues not converged
     c_bands:  1 eigenvalues not converged
     ethr =  1.00E-06,  avg # of iterations =  7.8

[...]

     Total force =     0.005683     Total SCF correction =     0.000725
     SCF correction compared to forces is large: reduce conv_thr to get better values

[...]

     Total force =     0.004243     Total SCF correction =     0.000403

[...]

     number of scf cycles    =  19
     number of bfgs steps    =  18

     energy   old            =   -2279.5943053595 Ry
     energy   new            =   -2279.5943983766 Ry

     CASE: energy  _new < energy  _old

     new trust radius        =       0.0442268933 bohr
     new conv_thr            =       0.0000001000 Ry

ATOMIC_POSITIONS (crystal)
Bi1      0.166666667   0.166666667   0.389334134    0   0   0
Bi1      0.666666667   0.166666667   0.389334134    0   0   0
Bi1      0.166666667   0.666666667   0.389334134    0   0   0
Bi1      0.666666667   0.666666667   0.389334134    0   0   0
Bi1      0.833333333   0.333333333   0.500000000    0   0   0
Bi1      0.333333333   0.333333333   0.500000000    0   0   0
Bi1      0.833333333   0.833333333   0.500000000    0   0   0
Bi1      0.333333333   0.833333333   0.500000000    0   0   0
Bi1     -0.000001280   0.000001467   0.618878145
Bi1      0.505915722  -0.011833349   0.619842234
Bi1     -0.011834387   0.505918138   0.619842008
Bi1      0.505916546   0.505917033   0.619841820
O1       0.333333120   0.333333357   0.681106930
H1       0.333333498   0.333333091   0.719203343

     Writing output data file calc.save
     Check: negative starting charge=   -0.496608
     NEW-OLD atomic charge density approx. for the potential

     Check: negative/imaginary core charge=   -0.000001    0.000000
     Check: negative starting charge=   -0.497437

[...]

     Self-consistent Calculation

[...]

     total energy              =   -2279.59447158 Ry
     Harris-Foulkes estimate   =   -2279.59447075 Ry
     estimated scf accuracy    <       0.00000065 Ry

     iteration #  8     ecut=    36.75 Ry     beta=0.30
     Davidson diagonalization with overlap
     ethr =  3.50E-10,  avg # of iterations =  2.5

[...]

     negative rho (up, down):  5.202E-01 0.000E+00

     Adding external electric field

     Computed dipole along edir(3) :
        Dipole                0.0952 Ry au,          0.2421 Debye
        Dipole field          0.0002 Ry au

        Potential amp.       -0.0156 Ry
        Total length         47.3240 bohr

     End of self-consistent calculation

[...]

          k = 0.0479-0.0553 0.0000 ( 27352 PWs)   bands (ev):

[...]

          k =-0.0718-0.0415 0.0000 ( 27378 PWs)   bands (ev):

   -22.1439 -22.1352 -22.1022 -22.0923 -22.0907 -22.0836 -22.0808 -22.0768
   -22.0626 -22.0611 -22.0565 -22.0551 -22.0514 -22.0495 -22.0490 -22.0416
   -22.0401 -22.0359 -22.0291 -22.0119 -22.0099 -21.9996 -21.9970 -21.9923
   -21.9885 -21.9673 -21.9653 -21.9588 -21.9442 -21.9380 -21.9373 -21.9357
   -21.9261 -21.9252 -21.9205 -21.9004 -21.8933 -21.8819 -21.8730 -21.8710
   -21.8708 -21.8650 -21.8566 -21.8455 -21.8446 -21.8438 -21.8409 -21.8387
   -21.8372 -21.8369 -21.8321 -21.8242 -21.8157 -21.7898 -21.7802 -21.7706
   -21.7599 -21.7480 -21.7456 -21.7335 -17.9291 -10.9002 -10.8495 -10.1036
    -9.8866  -9.2804  -9.2768  -9.1918  -9.1335  -8.6798  -8.6102  -8.2273
    -8.2182  -5.3078  -2.5572  -2.1161  -1.8722  -1.7963  -1.7843  -1.7500
    -1.6654  -1.5345  -1.1348  -0.6081  -0.3960  -0.2627  -0.2080  -0.0891
     0.6271   0.7859   0.8536   0.9981   1.0077   1.1568   1.2020   1.4916
     1.5014   1.5976   1.8610   2.0994   2.4329   2.7977   3.5016

     the Fermi energy is     1.5810 ev

!    total energy              =   -2279.59447129 Ry
     Harris-Foulkes estimate   =   -2279.59447169 Ry
     estimated scf accuracy    <       0.00000007 Ry

     The total energy is the sum of the following terms:

     one-electron contribution =  -10677.23280692 Ry
     hartree contribution      =    5397.11831064 Ry
     xc contribution           =    -807.16986068 Ry
     ewald contribution        =    3807.74887974 Ry
     electric field correction =       0.00001567 Ry
     smearing contrib. (-TS)   =      -0.05900974 Ry

     convergence has been achieved in   8 iterations

 BEEF-vdW xc energy contributions
           1 :   -719.400130017271
           2 :    668.212813823791
           3 :   -578.058489727823
           4 :    468.715955510837
           5 :   -360.824184024210
           6 :    269.855425684062
           7 :   -202.658179019556
           8 :    157.414644135087
           9 :   -126.615002199608
          10 :    101.512905794481
          11 :   -76.0843688076136
          12 :    48.9346263115091
          13 :   -22.7000907801677
          14 :    1.65617007198534
          15 :    11.0514300350202
          16 :   -15.1745993646855
          17 :    13.4196107553216
          18 :   -10.0019188262263
          19 :    8.58766836381551
          20 :   -10.7051946098683
          21 :    15.3688226303661
          22 :   -19.9895304202098
          23 :    21.9876443810751
          24 :   -20.2248851949961
          25 :    15.5439793822700
          26 :   -10.2216520671579
          27 :    6.70522067932222
          28 :   -6.34196995151194
          29 :    8.75780811679135
          30 :   -12.1643513447398
          31 :   -57.5897644642087
          32 :   -42.3078032028141

     Forces acting on atoms (Ry/au):

     negative rho (up, down):  5.202E-01 0.000E+00
     atom    1 type  1   force =     0.00101928    0.00058850   -0.00678664
     atom    2 type  1   force =    -0.00101936    0.00058852   -0.00678660
     atom    3 type  1   force =    -0.00000007   -0.00117694   -0.00678641
     atom    4 type  1   force =     0.00000006   -0.00000000   -0.00370718
     atom    5 type  1   force =     0.00000003   -0.00208950    0.00668966
     atom    6 type  1   force =     0.00000001   -0.00000016    0.00362460
     atom    7 type  1   force =     0.00180938    0.00104466    0.00668962
     atom    8 type  1   force =    -0.00180930    0.00104482    0.00668955
     atom    9 type  1   force =     0.00000000    0.00000006   -0.00124639
     atom   10 type  1   force =    -0.00000020   -0.00135456    0.00037524
     atom   11 type  1   force =    -0.00117288    0.00067746    0.00037518
     atom   12 type  1   force =     0.00117304    0.00067712    0.00037521
     atom   13 type  2   force =     0.00000005    0.00000007    0.00104162
     atom   14 type  3   force =    -0.00000005   -0.00000005   -0.00054745

     Total force =     0.002977     Total SCF correction =     0.000579
     SCF correction compared to forces is large: reduce conv_thr to get better values

     entering subroutine stress ...

     negative rho (up, down):  5.202E-01 0.000E+00
          total   stress  (Ry/bohr**3)                   (kbar)     P=    1.93
   0.00001853  -0.00000000  -0.00000000          2.73     -0.00     -0.00
  -0.00000000   0.00001853   0.00000000         -0.00      2.73      0.00
  -0.00000000   0.00000000   0.00000234         -0.00      0.00      0.34

     bfgs converged in  20 scf cycles and  19 bfgs steps
     (criteria: energy <  1.0E+00, force <  1.9E-03)

     End of BFGS Geometry Optimization

     Final energy   =   -2279.5944712892 Ry
Begin final coordinates

ATOMIC_POSITIONS (crystal)
Bi1      0.166666667   0.166666667   0.389334134    0   0   0
Bi1      0.666666667   0.166666667   0.389334134    0   0   0
Bi1      0.166666667   0.666666667   0.389334134    0   0   0
Bi1      0.666666667   0.666666667   0.389334134    0   0   0
Bi1      0.833333333   0.333333333   0.500000000    0   0   0
Bi1      0.333333333   0.333333333   0.500000000    0   0   0
Bi1      0.833333333   0.833333333   0.500000000    0   0   0
Bi1      0.333333333   0.833333333   0.500000000    0   0   0
Bi1     -0.000001280   0.000001467   0.618878145
Bi1      0.505915722  -0.011833349   0.619842234
Bi1     -0.011834387   0.505918138   0.619842008
Bi1      0.505916546   0.505917033   0.619841820
O1       0.333333120   0.333333357   0.681106930
H1       0.333333498   0.333333091   0.719203343
End final coordinates

     Writing output data file calc.save

     General routines

     Parallel routines

   This run was terminated on:  12:43:12  27Apr2018

   JOB DONE.