     Program PWSCF v.5.1rc2 (svn rev. 11289) starts on  3May2018 at  4:32:29

     Current dimensions of program PWSCF are:
     Max number of different atomic species (ntypx) = 10
     Max number of k-points (npk) =  40000
     Max angular momentum in pseudopotentials (lmaxx) =  3
     Presently stress not available with electric field

     IMPORTANT: XC functional enforced from input :
     Exchange-correlation      = BEEF-VDW ( 1  4 27 13 2)
     Any further DFT definition will be discarded
     Please, verify this is what you really want

     Subspace diagonalization in iterative solution of the eigenvalue problem:
     a serial algorithm will be used

     bravais-lattice index     =            0
     lattice parameter (alat)  =       1.8897  a.u.
     unit-cell volume          =    4704.3541 (a.u.)^3
     number of atoms/cell      =           13
     number of atomic types    =            2
     number of electrons       =       169.00
     number of Kohn-Sham states=           94
     kinetic-energy cutoff     =      36.7493  Ry
     charge density cutoff     =     367.4932  Ry
     convergence threshold     =      1.0E-05
     mixing beta               =       0.3000
     number of iterations used =           10  plain     mixing
     Exchange-correlation      = BEEF-VDW ( 1  4 27 13 2)
     nstep                     =           50

     celldm(1)=   1.889726  celldm(2)=   0.000000  celldm(3)=   0.000000
     celldm(4)=   0.000000  celldm(5)=   0.000000  celldm(6)=   0.000000

     crystal axes: (cart. coord. in units of alat)
               a(1) = (   5.712816   0.000000   0.000000 )
               a(2) = (   2.856408   4.947444   0.000000 )
               a(3) = (   0.000000   0.000000  24.664495 )

     reciprocal axes: (cart. coord. in units 2 pi/alat)
               b(1) = (  0.175045 -0.101062  0.000000 )
               b(2) = (  0.000000  0.202125  0.000000 )
               b(3) = (  0.000000  0.000000  0.040544 )

     PseudoPot. # 1 for W  read from file:
     /u/if/mamunm/psp/gbrv1.5pbe/W.UPF
     MD5 check sum: 9c083fa34c2a2ea0f02f1f893e16e1c8
     Pseudo is Ultrasoft + core correction, Zval = 14.0
     Generated by new atomic code, or converted to UPF format
     Using radial grid of  923 points,  8 beta functions with:
                l(1) =   0
                l(2) =   0
                l(3) =   0
                l(4) =   1
                l(5) =   1
                l(6) =   2
                l(7) =   2
                l(8) =   3
     Q(r) pseudized with  6 coefficients,  rinner =    1.350   1.350   1.350
                                                       1.350   1.350   1.350
                                                       1.350

     PseudoPot. # 2 for H  read from file:
     /u/if/mamunm/psp/gbrv1.5pbe/H.UPF
     MD5 check sum: 761ae9a214b05c3daf00ab9f6b793d6f
     Pseudo is Ultrasoft, Zval =  1.0
     Generated by new atomic code, or converted to UPF format
     Using radial grid of  615 points,  2 beta functions with:
                l(1) =   0
                l(2) =   0
     Q(r) pseudized with  8 coefficients,  rinner =    0.700

     vdW kernel table read from file vdW_kernel_table
     MD5 check sum: 095c7af220d748ca6e76c0b4c6cfb241

     atomic species   valence    mass     pseudopotential
        W1            14.00   183.84000     W ( 1.00)
        H1             1.00     1.00800     H ( 1.00)

     No symmetry found

   Cartesian axes

     site n.     atom                  positions (alat units)
         1           W1  tau(   1) = (   1.4282041   0.8245740  10.0000000  )
         2           W1  tau(   2) = (   4.2846123   0.8245740  10.0000000  )
         3           W1  tau(   3) = (   2.8564082   3.2982961  10.0000000  )
         4           W1  tau(   4) = (   5.7128165   3.2982961  10.0000000  )
         5           W1  tau(   5) = (   5.7128165   1.6491481  12.3322476  )
         6           W1  tau(   6) = (   2.8564082   1.6491481  12.3322476  )
         7           W1  tau(   7) = (   7.1410206   4.1228701  12.3322476  )
         8           W1  tau(   8) = (   4.2846123   4.1228701  12.3322476  )
         9           W1  tau(   9) = (   0.0000000   0.0000000  14.6644951  )
        10           W1  tau(  10) = (   2.8564082   0.0000000  14.6644951  )
        11           W1  tau(  11) = (   1.4282041   2.4737221  14.6644951  )
        12           W1  tau(  12) = (   4.2846123   2.4737221  14.6644951  )
        13           H1  tau(  13) = (   2.8564082   1.6491481  15.9189951  )

     number of k points=    20  Fermi-Dirac smearing, width (Ry)=  0.0110
                       cart. coord. in units 2pi/alat
        k(    1) = (   0.0000000   0.0000000   0.0000000), wk =   0.0555556
        k(    2) = (   0.0000000   0.0336874   0.0000000), wk =   0.1111111
        k(    3) = (   0.0000000   0.0673749   0.0000000), wk =   0.1111111
        k(    4) = (   0.0000000  -0.1010623   0.0000000), wk =   0.0555556
        k(    5) = (   0.0291742  -0.0168437   0.0000000), wk =   0.1111111
        k(    6) = (   0.0291742   0.0168437   0.0000000), wk =   0.1111111
        k(    7) = (   0.0291742   0.0505311   0.0000000), wk =   0.1111111
        k(    8) = (   0.0291742  -0.1179060   0.0000000), wk =   0.1111111
        k(    9) = (   0.0291742  -0.0842186   0.0000000), wk =   0.1111111
        k(   10) = (   0.0291742  -0.0505311   0.0000000), wk =   0.1111111
        k(   11) = (   0.0583483  -0.0336874   0.0000000), wk =   0.1111111
        k(   12) = (   0.0583483  -0.0000000   0.0000000), wk =   0.1111111
        k(   13) = (   0.0583483   0.0336874   0.0000000), wk =   0.1111111
        k(   14) = (   0.0583483  -0.1347497   0.0000000), wk =   0.1111111
        k(   15) = (   0.0583483  -0.1010623   0.0000000), wk =   0.1111111
        k(   16) = (   0.0583483  -0.0673749   0.0000000), wk =   0.1111111
        k(   17) = (  -0.0875225   0.0505311   0.0000000), wk =   0.0555556
        k(   18) = (  -0.0875225   0.0842186   0.0000000), wk =   0.1111111
        k(   19) = (  -0.0875225   0.1179060   0.0000000), wk =   0.1111111
        k(   20) = (  -0.0875225  -0.0505311   0.0000000), wk =   0.0555556

     Largest allocated arrays     est. size (Mb)     dimensions
     Largest temporary arrays     est. size (Mb)     dimensions

     Initial potential from superposition of free atoms
     Check: negative starting charge=   -0.760431

     starting charge  167.79591, renormalised to  169.00000

     negative rho (up, down):  7.659E-01 0.000E+00

     *
     * You are using vdW-DF for exchange-correlation in this calculation.
     * Please cite the following three references that made this development
     * possible:
     *
     *   M. Dion, H. Rydberg, E. Schroder, D. C. Langreth, and
     *   B. I. Lundqvist, Phys. Rev. Lett. 92, 246401 (2004).
     *
     *   T. Thonhauser, V. R. Cooper, S. Li, A. Puzder, P. Hyldgaard, and
     *   D. C. Langreth, Phys. Rev. B 76, 125112 (2007).
     *
     *   G. Roman-Perez and J. M. Soler, Phys. Rev. Lett. 103, 096102 (2009).
     *
     *
     * If you are using vdW-DF2, please also cite:
     *
     *   K. Lee, E. D. Murray, L. Kong, B. I. Lundqvist, and
     *   D. C. Langreth, Phys. Rev. B 82, 081101(R) (2010).
     *
     *
     * If you are calculating the stress with vdW-DF, please also cite:
     *
     *   R. Sabatini, E. Kucukbenli, B. Kolb, T. Thonhauser, and
     *   S. de Gironcoli, J. Phys.: Condens. Matter 24, 424209 (2012).
     *

     Carrying out vdW-DF run using the following parameters:

     Nqs =      20    Nr_points =    1024   r_max =   100.000
     q_mesh =
               0.00001000     0.04494208     0.09755937     0.15916263
               0.23128650     0.31572767     0.41458969     0.53033537
               0.66584808     0.82450364     1.01025438     1.22772762
               1.48234092     1.78043706     2.12944203     2.53805004
               3.01644009     3.57652955     4.23227104     5.00000000

     Gradients computed in reciprocal space

     Adding external electric field

     Computed dipole along edir(3) :
        Dipole               -0.0486 Ry au,         -0.1235 Debye
        Dipole field         -0.0001 Ry au

        Potential amp.        0.0118 Ry
        Total length         45.4439 bohr

     Starting wfc are  157 randomized atomic wfcs

     Self-consistent Calculation

     iteration #  1     ecut=    36.75 Ry     beta=0.30
     Davidson diagonalization with overlap
     ethr =  1.00E-02,  avg # of iterations =  2.0

[...]

     total energy              =   -1925.00846023 Ry
     Harris-Foulkes estimate   =   -1926.29094001 Ry
     estimated scf accuracy    <       2.87981433 Ry

[...]

     End of self-consistent calculation

          k = 0.0000 0.0000 0.0000 ( 17753 PWs)   bands (ev):

   -71.8461 -71.7923 -71.7778 -71.7777 -71.7408 -71.7327 -71.7218 -71.7217
   -71.7171 -71.6872 -71.6870 -71.6869 -36.4023 -36.3900 -36.3899 -36.3450
   -36.3191 -36.2830 -36.2830 -36.2009 -36.1822 -36.1821 -36.0008 -35.9042
   -35.9042 -35.8812 -35.8303 -35.8269 -35.8268 -35.7160 -35.7160 -35.7107
   -35.6362 -35.6362 -35.6296 -35.5929 -35.5929 -35.5751 -35.5644 -35.5051
   -35.5051 -35.5024 -35.4797 -35.4797 -35.3914 -35.3913 -35.3295 -35.3295
    -5.8880  -4.4891  -3.3926  -2.8060  -2.6058  -2.6058  -2.5579  -2.3873
    -2.3873  -1.9391  -1.6048  -1.6048  -1.5983  -1.5683  -1.5683  -0.9134
    -0.1120  -0.1119   0.3319   0.9667   1.0788   1.0789   1.3985   1.4419
     1.8252   1.8252   1.8952   1.8953   1.9210   2.1683   2.1683   2.2317
     2.2317   2.2434   2.4024   2.4200   2.4200   3.0186   3.1733   3.1733
     3.8429   4.0277   4.0277   4.0711   4.2693   4.2694

[...]

          k =-0.0875 0.0505 0.0000 ( 17668 PWs)   bands (ev):

[...]

     the Fermi energy is     2.4150 ev

!    total energy              =   -1925.96868747 Ry
     Harris-Foulkes estimate   =   -1925.96869490 Ry
     estimated scf accuracy    <       0.00000816 Ry

     The total energy is the sum of the following terms:

     one-electron contribution =  -14691.80965656 Ry
     hartree contribution      =    7329.06425404 Ry
     xc contribution           =    -510.99707701 Ry
     ewald contribution        =    5947.86839894 Ry
     electric field correction =       0.00000074 Ry
     smearing contrib. (-TS)   =      -0.09460761 Ry

     convergence has been achieved in  13 iterations

 BEEF-vdW xc energy contributions
           1 :   -449.661021206487
           2 :    416.101046579404
           3 :   -356.941596888948
           4 :    285.117332824546
           5 :   -214.157099148865
           6 :    154.224165277701
           7 :   -109.910843717897
           8 :    80.3294272802061
           9 :   -61.0759890737824
          10 :    46.9541104168152
          11 :   -34.2227721300634
          12 :    21.5692727156554
          13 :   -9.72682731876989
          14 :   0.264814418788376
          15 :    5.68159864185810
          16 :   -8.13252233444393
          17 :    8.21645437709452
          18 :   -7.53958017406410
          19 :    7.39145265479169
          20 :   -8.21311273877751
          21 :    9.56668372613626
          22 :   -10.5631816761076
          23 :    10.4710498590246
          24 :   -9.16339304945188
          25 :    7.18204565335685
          26 :   -5.41850232312845
          27 :    4.61456366380622
          28 :   -4.96759321654258
          29 :    6.05019696238958
          30 :   -7.07173041936403
          31 :   -40.6663349246676
          32 :   -30.4690830211100

     Forces acting on atoms (Ry/au):

     negative rho (up, down):  7.926E-01 0.000E+00
     atom    1 type  1   force =    -0.00046625   -0.00026942   -0.00423827
     atom    2 type  1   force =     0.00046559   -0.00026368   -0.00424982
     atom    3 type  1   force =     0.00000448    0.00053999   -0.00424964
     atom    4 type  1   force =    -0.00000198   -0.00000238   -0.00521656
     atom    5 type  1   force =     0.00000498   -0.00246468    0.00120529
     atom    6 type  1   force =    -0.00000636   -0.00001079    0.00558717
     atom    7 type  1   force =     0.00212548    0.00123226    0.00122842
     atom    8 type  1   force =    -0.00212608    0.00124314    0.00121013
     atom    9 type  1   force =     0.00001278    0.00000597   -0.00240698
     atom   10 type  1   force =    -0.00001031   -0.01793433    0.01233268
     atom   11 type  1   force =    -0.01553600    0.00895637    0.01233408
     atom   12 type  1   force =     0.01553396    0.00896785    0.01232152
     atom   13 type  2   force =    -0.00000030   -0.00000030   -0.02585802

     Total force =     0.045776     Total SCF correction =     0.005312
     SCF correction compared to forces is large: reduce conv_thr to get better values

     entering subroutine stress ...

     negative rho (up, down):  7.926E-01 0.000E+00
          total   stress  (Ry/bohr**3)                   (kbar)     P=  -48.42
  -0.00046039  -0.00000000   0.00000001        -67.73     -0.00      0.00
  -0.00000000  -0.00046040   0.00000000         -0.00    -67.73      0.00
   0.00000001   0.00000000  -0.00006675          0.00      0.00     -9.82

     BFGS Geometry Optimization

     number of scf cycles    =   1
     number of bfgs steps    =   0

     energy   new            =   -1925.9686874718 Ry

     new trust radius        =       0.0258580206 bohr
     new conv_thr            =       0.0000099958 Ry

ATOMIC_POSITIONS (crystal)
W1       0.166666667   0.166666667   0.405441099    0   0   0
W1       0.666666667   0.166666667   0.405441099    0   0   0
W1       0.166666667   0.666666667   0.405441099    0   0   0
W1       0.666666667   0.666666667   0.405441099    0   0   0
W1       0.833333333   0.333333333   0.500000000    0   0   0
W1       0.333333333   0.333333333   0.500000000    0   0   0
W1       0.833333333   0.833333333   0.500000000    0   0   0
W1       0.333333333   0.833333333   0.500000000    0   0   0
W1       0.000000865   0.000000639   0.594507259
W1       0.500958171  -0.001918251   0.594823499
W1      -0.001918082   0.500957970   0.594823529
W1       0.500959309   0.500959198   0.594823259
H1       0.333333322   0.333333302   0.644866703

     Writing output data file calc.save
     Check: negative starting charge=   -0.760431
     NEW-OLD atomic charge density approx. for the potential
     Check: negative starting charge=   -0.759934

[...]

     energy   old            =   -1925.9686874718 Ry
     energy   new            =   -1925.9705756254 Ry

     CASE: energy  _new < energy  _old

[...]

     Total force =     0.025696     Total SCF correction =     0.000210

[...]

     Threshold (ethr) on eigenvalues was too large:
     Diagonalizing with lowered threshold

     Davidson diagonalization with overlap
     ethr =  5.30E-08,  avg # of iterations =  2.1

[...]

     Threshold (ethr) on eigenvalues was too large:
     Diagonalizing with lowered threshold

     Davidson diagonalization with overlap
     ethr =  7.90E-08,  avg # of iterations =  1.3

[...]

     Total force =     0.008479     Total SCF correction =     0.000070

[...]

     number of scf cycles    =   9
     number of bfgs steps    =   8

     energy   old            =   -1925.9751959004 Ry
     energy   new            =   -1925.9752884610 Ry

     CASE: energy  _new < energy  _old

     new trust radius        =       0.0136736360 bohr
     new conv_thr            =       0.0000001000 Ry

ATOMIC_POSITIONS (crystal)
W1       0.166666667   0.166666667   0.405441099    0   0   0
W1       0.666666667   0.166666667   0.405441099    0   0   0
W1       0.166666667   0.666666667   0.405441099    0   0   0
W1       0.666666667   0.666666667   0.405441099    0   0   0
W1       0.833333333   0.333333333   0.500000000    0   0   0
W1       0.333333333   0.333333333   0.500000000    0   0   0
W1       0.833333333   0.833333333   0.500000000    0   0   0
W1       0.333333333   0.833333333   0.500000000    0   0   0
W1       0.000000130  -0.000000528   0.593976158
W1       0.503487623  -0.006974127   0.595154979
W1      -0.006973670   0.503486965   0.595154923
W1       0.503486757   0.503486060   0.595154977
H1       0.333333447   0.333333074   0.638344231

     Writing output data file calc.save
     Check: negative starting charge=   -0.762100
     NEW-OLD atomic charge density approx. for the potential
     Check: negative starting charge=   -0.761871

[...]

     Self-consistent Calculation

[...]

     total energy              =   -1925.97537081 Ry
     Harris-Foulkes estimate   =   -1925.97537083 Ry
     estimated scf accuracy    <       0.00000023 Ry

     iteration #  9     ecut=    36.75 Ry     beta=0.30
     Davidson diagonalization with overlap
     ethr =  1.33E-10,  avg # of iterations =  3.0

[...]

     negative rho (up, down):  7.946E-01 0.000E+00

     Adding external electric field

     Computed dipole along edir(3) :
        Dipole                0.0275 Ry au,          0.0699 Debye
        Dipole field          0.0001 Ry au

        Potential amp.       -0.0067 Ry
        Total length         45.4439 bohr

     End of self-consistent calculation

[...]

          k = 0.0583-0.0674 0.0000 ( 17692 PWs)   bands (ev):

[...]

          k =-0.0875-0.0505 0.0000 ( 17668 PWs)   bands (ev):

   -71.8016 -71.7895 -71.7641 -71.7577 -71.7549 -71.7346 -71.7200 -71.7167
   -71.7085 -71.7063 -71.6816 -71.6814 -36.2429 -36.2382 -36.2184 -36.2037
   -36.1714 -36.1547 -36.0670 -36.0553 -36.0473 -36.0214 -36.0027 -35.9916
   -35.8927 -35.8403 -35.8101 -35.8069 -35.7817 -35.7767 -35.7708 -35.7643
   -35.7465 -35.7271 -35.7215 -35.7162 -35.6988 -35.6942 -35.6078 -35.5911
   -35.5761 -35.5759 -35.5438 -35.5376 -35.4969 -35.4553 -35.4148 -35.4080
    -4.3234  -3.8391  -3.4292  -2.3194  -1.9436  -1.6091  -1.6080  -1.4423
    -1.4355  -1.4057  -1.0760  -0.5657  -0.5440  -0.2969  -0.2383  -0.1919
    -0.1148   0.1846   0.2291   0.2884   0.3666   0.5518   0.5715   1.0158
     1.0573   1.1639   1.2353   1.3264   1.3401   1.4311   1.4372   1.5276
     1.6964   1.8780   1.9790   1.9947   1.9951   2.0186   2.7594   2.8078
     3.1055   3.1887   3.5164   3.5559   3.5918   3.6210

     the Fermi energy is     2.4192 ev

!    total energy              =   -1925.97537077 Ry
     Harris-Foulkes estimate   =   -1925.97537082 Ry
     estimated scf accuracy    <       0.00000009 Ry

     The total energy is the sum of the following terms:

     one-electron contribution =  -14685.50121545 Ry
     hartree contribution      =    7325.93306017 Ry
     xc contribution           =    -511.02122025 Ry
     ewald contribution        =    5944.70778783 Ry
     electric field correction =       0.00000202 Ry
     smearing contrib. (-TS)   =      -0.09378510 Ry

     convergence has been achieved in   9 iterations

 BEEF-vdW xc energy contributions
           1 :   -449.685061912942
           2 :    416.126540772644
           3 :   -356.964804568584
           4 :    285.131161457437
           5 :   -214.155349102066
           6 :    154.203884858553
           7 :   -109.873329267909
           8 :    80.2799909182544
           9 :   -61.0222976200341
          10 :    46.9034210295519
          11 :   -34.1792704541456
          12 :    21.5330085687365
          13 :   -9.69484325389141
          14 :   0.233684302845177
          15 :    5.71354452998673
          16 :   -8.16465911045185
          17 :    8.24713132257148
          18 :   -7.56818744731538
          19 :    7.41949017205582
          20 :   -8.24297293588825
          21 :    9.59916375650675
          22 :   -10.5961586761240
          23 :    10.5005569898378
          24 :   -9.18637701838600
          25 :    7.19873349309682
          26 :   -5.43233422899249
          27 :    4.62948455949351
          28 :   -4.98460273047397
          29 :    6.06579161114360
          30 :   -7.07980918625788
          31 :   -40.6680648388372
          32 :   -30.4705431616597

     Forces acting on atoms (Ry/au):

     negative rho (up, down):  7.946E-01 0.000E+00
     atom    1 type  1   force =    -0.00074226   -0.00042848   -0.00510239
     atom    2 type  1   force =     0.00074239   -0.00042866   -0.00510231
     atom    3 type  1   force =    -0.00000008    0.00085725   -0.00510236
     atom    4 type  1   force =     0.00000019    0.00000009   -0.00482975
     atom    5 type  1   force =    -0.00000039   -0.00103588    0.00104579
     atom    6 type  1   force =     0.00000031    0.00000007    0.01740888
     atom    7 type  1   force =     0.00089699    0.00051819    0.00104488
     atom    8 type  1   force =    -0.00089719    0.00051782    0.00104616
     atom    9 type  1   force =     0.00000119    0.00000043    0.00091193
     atom   10 type  1   force =    -0.00000127   -0.00190557   -0.00058110
     atom   11 type  1   force =    -0.00165071    0.00095164   -0.00058069
     atom   12 type  1   force =     0.00165096    0.00095321   -0.00058127
     atom   13 type  2   force =    -0.00000012   -0.00000011    0.00042224

     Total force =     0.003594     Total SCF correction =     0.000386
     SCF correction compared to forces is large: reduce conv_thr to get better values

     entering subroutine stress ...

     negative rho (up, down):  7.946E-01 0.000E+00
          total   stress  (Ry/bohr**3)                   (kbar)     P=  -47.73
  -0.00045481   0.00000000   0.00000000        -66.91      0.00      0.00
   0.00000000  -0.00045482  -0.00000000          0.00    -66.91     -0.00
   0.00000000  -0.00000000  -0.00006367          0.00     -0.00     -9.37

     bfgs converged in  10 scf cycles and   9 bfgs steps
     (criteria: energy <  1.0E+00, force <  1.9E-03)

     End of BFGS Geometry Optimization

     Final energy   =   -1925.9753707710 Ry
Begin final coordinates

ATOMIC_POSITIONS (crystal)
W1       0.166666667   0.166666667   0.405441099    0   0   0
W1       0.666666667   0.166666667   0.405441099    0   0   0
W1       0.166666667   0.666666667   0.405441099    0   0   0
W1       0.666666667   0.666666667   0.405441099    0   0   0
W1       0.833333333   0.333333333   0.500000000    0   0   0
W1       0.333333333   0.333333333   0.500000000    0   0   0
W1       0.833333333   0.833333333   0.500000000    0   0   0
W1       0.333333333   0.833333333   0.500000000    0   0   0
W1       0.000000130  -0.000000528   0.593976158
W1       0.503487623  -0.006974127   0.595154979
W1      -0.006973670   0.503486965   0.595154923
W1       0.503486757   0.503486060   0.595154977
H1       0.333333447   0.333333074   0.638344231
End final coordinates

     Writing output data file calc.save

     General routines

     Parallel routines

   This run was terminated on:   5:51:29   3May2018

   JOB DONE.
Job  /afs/slac/g/suncat/bin/suncat-tsmpirun -x LD_LIBRARY_PATH -wdir /scratch/qe614646_YqZfp pw.x -npool 4 -in pw.inp

TID   HOST_NAME   COMMAND_LINE            STATUS            TERMINATION_TIME
00000 suncat0068 pw.x -npool 4 -i  Done                     05/03/2018 05:51:29
00001 suncat0068 pw.x -npool 4 -i  Done                     05/03/2018 05:51:29
00002 suncat0068 pw.x -npool 4 -i  Done                     05/03/2018 05:51:29
00003 suncat0068 pw.x -npool 4 -i  Done                     05/03/2018 05:51:29
00004 suncat0068 pw.x -npool 4 -i  Done                     05/03/2018 05:51:29
00005 suncat0068 pw.x -npool 4 -i  Done                     05/03/2018 05:51:29
00006 suncat0068 pw.x -npool 4 -i  Done                     05/03/2018 05:51:29
00007 suncat0068 pw.x -npool 4 -i  Done                     05/03/2018 05:51:29
00008 suncat0053 pw.x -npool 4 -i  Done                     05/03/2018 05:51:29
00009 suncat0053 pw.x -npool 4 -i  Done                     05/03/2018 05:51:29
00010 suncat0053 pw.x -npool 4 -i  Done                     05/03/2018 05:51:29
00011 suncat0053 pw.x -npool 4 -i  Done                     05/03/2018 05:51:29
00012 suncat0053 pw.x -npool 4 -i  Done                     05/03/2018 05:51:29
00013 suncat0053 pw.x -npool 4 -i  Done                     05/03/2018 05:51:29
00014 suncat0053 pw.x -npool 4 -i  Done                     05/03/2018 05:51:29
00015 suncat0053 pw.x -npool 4 -i  Done                     05/03/2018 05:51:29
00016 suncat0047 pw.x -npool 4 -i  Done                     05/03/2018 05:51:29
00017 suncat0047 pw.x -npool 4 -i  Done                     05/03/2018 05:51:29
00018 suncat0047 pw.x -npool 4 -i  Done                     05/03/2018 05:51:29
00019 suncat0047 pw.x -npool 4 -i  Done                     05/03/2018 05:51:29
00020 suncat0047 pw.x -npool 4 -i  Done                     05/03/2018 05:51:29
00021 suncat0047 pw.x -npool 4 -i  Done                     05/03/2018 05:51:29
00022 suncat0047 pw.x -npool 4 -i  Done                     05/03/2018 05:51:29
00023 suncat0047 pw.x -npool 4 -i  Done                     05/03/2018 05:51:29
00024 suncat0039 pw.x -npool 4 -i  Done                     05/03/2018 05:51:29
00025 suncat0039 pw.x -npool 4 -i  Done                     05/03/2018 05:51:29
00026 suncat0039 pw.x -npool 4 -i  Done                     05/03/2018 05:51:29
00027 suncat0039 pw.x -npool 4 -i  Done                     05/03/2018 05:51:29
00028 suncat0039 pw.x -npool 4 -i  Done                     05/03/2018 05:51:29
00029 suncat0039 pw.x -npool 4 -i  Done                     05/03/2018 05:51:29
00030 suncat0039 pw.x -npool 4 -i  Done                     05/03/2018 05:51:29
00031 suncat0039 pw.x -npool 4 -i  Done                     05/03/2018 05:51:29