     Program PWSCF v.5.1rc2 (svn rev. 11289) starts on 16Jan2018 at 15:53:51

     Current dimensions of program PWSCF are:
     Max number of different atomic species (ntypx) = 10
     Max number of k-points (npk) =  40000
     Max angular momentum in pseudopotentials (lmaxx) =  3
     Presently stress not available with electric field

     IMPORTANT: XC functional enforced from input :
     Exchange-correlation      = BEEF-VDW ( 1  4 27 13 2)
     Any further DFT definition will be discarded
     Please, verify this is what you really want

     Subspace diagonalization in iterative solution of the eigenvalue problem:
     a serial algorithm will be used

     bravais-lattice index     =            0
     lattice parameter (alat)  =       1.8897  a.u.
     unit-cell volume          =    4204.8134 (a.u.)^3
     number of atoms/cell      =           13
     number of atomic types    =            2
     number of electrons       =       181.00
     number of Kohn-Sham states=          100
     kinetic-energy cutoff     =      36.7493  Ry
     charge density cutoff     =     367.4932  Ry
     convergence threshold     =      1.0E-05
     mixing beta               =       0.3000
     number of iterations used =           10  plain     mixing
     Exchange-correlation      = BEEF-VDW ( 1  4 27 13 2)
     nstep                     =           50

     celldm(1)=   1.889726  celldm(2)=   0.000000  celldm(3)=   0.000000
     celldm(4)=   0.000000  celldm(5)=   0.000000  celldm(6)=   0.000000

     crystal axes: (cart. coord. in units of alat)
               a(1) = (   5.426750   0.000000   0.000000 )
               a(2) = (   2.713375   4.699703   0.000000 )
               a(3) = (   0.000000   0.000000  24.430923 )

     reciprocal axes: (cart. coord. in units 2 pi/alat)
               b(1) = (  0.184272 -0.106390  0.000000 )
               b(2) = (  0.000000  0.212779  0.000000 )
               b(3) = (  0.000000  0.000000  0.040932 )

     PseudoPot. # 1 for Rh read from file:
     /afs/slac.stanford.edu/u/if/mamunm/psp/gbrv1.5pbe/Rh.UPF
     MD5 check sum: 761627e959a2e3a1f56b0b5fe687810e
     Pseudo is Ultrasoft + core correction, Zval = 15.0
     Generated by new atomic code, or converted to UPF format
     Using radial grid of  969 points,  7 beta functions with:
                l(1) =   0
                l(2) =   0
                l(3) =   1
                l(4) =   1
                l(5) =   2
                l(6) =   2
                l(7) =   2
     Q(r) pseudized with  8 coefficients,  rinner =    1.200   1.200   1.200
                                                       1.200   1.200

     PseudoPot. # 2 for H  read from file:
     /afs/slac.stanford.edu/u/if/mamunm/psp/gbrv1.5pbe/H.UPF
     MD5 check sum: 761ae9a214b05c3daf00ab9f6b793d6f
     Pseudo is Ultrasoft, Zval =  1.0
     Generated by new atomic code, or converted to UPF format
     Using radial grid of  615 points,  2 beta functions with:
                l(1) =   0
                l(2) =   0
     Q(r) pseudized with  8 coefficients,  rinner =    0.700

     vdW kernel table read from file vdW_kernel_table
     MD5 check sum: 095c7af220d748ca6e76c0b4c6cfb241

     atomic species   valence    mass     pseudopotential
        Rh1           15.00   102.90550     Rh( 1.00)
        H1             1.00     1.00800     H ( 1.00)

     No symmetry found

   Cartesian axes

     site n.     atom                  positions (alat units)
         1           Rh1 tau(   1) = (   1.3566875   0.7832839  10.0000000  )
         2           Rh1 tau(   2) = (   4.0700625   0.7832839  10.0000000  )
         3           Rh1 tau(   3) = (   2.7133750   3.1331356  10.0000000  )
         4           Rh1 tau(   4) = (   5.4267500   3.1331356  10.0000000  )
         5           Rh1 tau(   5) = (   5.4267500   1.5665678  12.2154614  )
         6           Rh1 tau(   6) = (   2.7133750   1.5665678  12.2154614  )
         7           Rh1 tau(   7) = (   6.7834375   3.9164194  12.2154614  )
         8           Rh1 tau(   8) = (   4.0700625   3.9164194  12.2154614  )
         9           Rh1 tau(   9) = (   0.0000000   0.0000000  14.4309228  )
        10           Rh1 tau(  10) = (   2.7133750   0.0000000  14.4309228  )
        11           Rh1 tau(  11) = (   1.3566875   2.3498517  14.4309228  )
        12           Rh1 tau(  12) = (   4.0700625   2.3498517  14.4309228  )
        13           H1  tau(  13) = (   1.3566875   0.7832839  16.1609228  )

     number of k points=    20  Fermi-Dirac smearing, width (Ry)=  0.0110
                       cart. coord. in units 2pi/alat
        k(    1) = (   0.0000000   0.0000000   0.0000000), wk =   0.0555556
        k(    2) = (   0.0000000   0.0354632   0.0000000), wk =   0.1111111
        k(    3) = (   0.0000000   0.0709265   0.0000000), wk =   0.1111111
        k(    4) = (   0.0000000  -0.1063897   0.0000000), wk =   0.0555556
        k(    5) = (   0.0307121  -0.0177316   0.0000000), wk =   0.1111111
        k(    6) = (   0.0307121   0.0177316   0.0000000), wk =   0.1111111
        k(    7) = (   0.0307121   0.0531948   0.0000000), wk =   0.1111111
        k(    8) = (   0.0307121  -0.1241213   0.0000000), wk =   0.1111111
        k(    9) = (   0.0307121  -0.0886581   0.0000000), wk =   0.1111111
        k(   10) = (   0.0307121  -0.0531948   0.0000000), wk =   0.1111111
        k(   11) = (   0.0614241  -0.0354632   0.0000000), wk =   0.1111111
        k(   12) = (   0.0614241   0.0000000   0.0000000), wk =   0.1111111
        k(   13) = (   0.0614241   0.0354632   0.0000000), wk =   0.1111111
        k(   14) = (   0.0614241  -0.1418529   0.0000000), wk =   0.1111111
        k(   15) = (   0.0614241  -0.1063897   0.0000000), wk =   0.1111111
        k(   16) = (   0.0614241  -0.0709265   0.0000000), wk =   0.1111111
        k(   17) = (  -0.0921362   0.0531948   0.0000000), wk =   0.0555556
        k(   18) = (  -0.0921362   0.0886581   0.0000000), wk =   0.1111111
        k(   19) = (  -0.0921362   0.1241213   0.0000000), wk =   0.1111111
        k(   20) = (  -0.0921362  -0.0531948   0.0000000), wk =   0.0555556

     Largest allocated arrays     est. size (Mb)     dimensions
     Largest temporary arrays     est. size (Mb)     dimensions

     Initial potential from superposition of free atoms
     Check: negative starting charge=   -0.652779

     starting charge  174.99881, renormalised to  181.00000

     negative rho (up, down):  6.752E-01 0.000E+00

     *
     * You are using vdW-DF for exchange-correlation in this calculation.
     * Please cite the following three references that made this development
     * possible:
     *
     *   M. Dion, H. Rydberg, E. Schroder, D. C. Langreth, and
     *   B. I. Lundqvist, Phys. Rev. Lett. 92, 246401 (2004).
     *
     *   T. Thonhauser, V. R. Cooper, S. Li, A. Puzder, P. Hyldgaard, and
     *   D. C. Langreth, Phys. Rev. B 76, 125112 (2007).
     *
     *   G. Roman-Perez and J. M. Soler, Phys. Rev. Lett. 103, 096102 (2009).
     *
     *
     * If you are using vdW-DF2, please also cite:
     *
     *   K. Lee, E. D. Murray, L. Kong, B. I. Lundqvist, and
     *   D. C. Langreth, Phys. Rev. B 82, 081101(R) (2010).
     *
     *
     * If you are calculating the stress with vdW-DF, please also cite:
     *
     *   R. Sabatini, E. Kucukbenli, B. Kolb, T. Thonhauser, and
     *   S. de Gironcoli, J. Phys.: Condens. Matter 24, 424209 (2012).
     *

     Carrying out vdW-DF run using the following parameters:

     Nqs =      20    Nr_points =    1024   r_max =   100.000
     q_mesh =
               0.00001000     0.04494208     0.09755937     0.15916263
               0.23128650     0.31572767     0.41458969     0.53033537
               0.66584808     0.82450364     1.01025438     1.22772762
               1.48234092     1.78043706     2.12944203     2.53805004
               3.01644009     3.57652955     4.23227104     5.00000000

     Gradients computed in reciprocal space

     Adding external electric field

     Computed dipole along edir(3) :
        Dipole               -0.2556 Ry au,         -0.6497 Debye
        Dipole field         -0.0008 Ry au

        Potential amp.        0.0688 Ry
        Total length         45.0136 bohr

     Starting wfc are  145 randomized atomic wfcs

     Self-consistent Calculation

     iteration #  1     ecut=    36.75 Ry     beta=0.30
     Davidson diagonalization with overlap
     ethr =  1.00E-02,  avg # of iterations =  2.0

[...]

     total energy              =   -2064.66975898 Ry
     Harris-Foulkes estimate   =   -2069.08367338 Ry
     estimated scf accuracy    <       9.86140900 Ry

[...]

     End of self-consistent calculation

          k = 0.0000 0.0000 0.0000 ( 15785 PWs)   bands (ev):

   -45.4680 -45.4680 -45.4585 -45.3367 -45.2751 -45.2709 -45.2708 -45.0939
   -45.0884 -45.0705 -45.0705 -45.0642 -45.0642 -44.9831 -44.9831 -44.9811
   -44.9506 -44.9506 -44.7337 -44.7336 -44.7220 -44.7059 -44.6640 -44.6617
   -44.6616 -44.6486 -44.6485 -44.6128 -44.5862 -44.5861 -44.5861 -44.5703
   -44.5702 -44.5702 -44.5437 -44.5437  -5.1516  -3.8927  -3.8659  -3.8659
    -3.8638  -3.7583  -3.5756  -3.5728  -3.5728  -3.4269  -3.3380  -3.3380
    -3.0618  -3.0297  -3.0297  -2.1647  -1.9054  -1.9054  -1.4989  -1.4619
    -1.4619  -1.2837  -1.1697  -1.1697  -1.0929  -0.8537  -0.8537  -0.7670
    -0.7605  -0.7605  -0.6243  -0.6243  -0.2540   0.0124   0.0124   0.1687
     0.6847   0.6847   0.6885   0.7261   0.7261   0.8699   0.8700   0.9913
     1.3027   1.3027   1.7968   1.8092   1.8119   1.8119   1.8333   1.8334
     1.9533   1.9533   2.1931   2.2007   2.2007   2.2324   2.5176   2.5335
     2.5336   2.5948   2.5948   2.5948

[...]

          k =-0.0921 0.0532 0.0000 ( 15852 PWs)   bands (ev):

[...]

     the Fermi energy is     1.5919 ev

!    total energy              =   -2067.53107889 Ry
     Harris-Foulkes estimate   =   -2067.53108545 Ry
     estimated scf accuracy    <       0.00000833 Ry

     The total energy is the sum of the following terms:

     one-electron contribution =  -19131.35217902 Ry
     hartree contribution      =    9606.47294507 Ry
     xc contribution           =    -372.73283384 Ry
     ewald contribution        =    7830.20641338 Ry
     electric field correction =       0.00003044 Ry
     smearing contrib. (-TS)   =      -0.12545492 Ry

     convergence has been achieved in  19 iterations

 BEEF-vdW xc energy contributions
           1 :   -324.646836134553
           2 :    298.172109929460
           3 :   -252.370489732329
           4 :    198.632769267599
           5 :   -148.461202181253
           6 :    109.883302542350
           7 :   -85.6046738538336
           8 :    73.3321431892765
           9 :   -67.8176723829935
          10 :    63.5643895610615
          11 :   -57.0190803497158
          12 :    47.4652731019957
          13 :   -36.5111117026727
          14 :    26.6844537712971
          15 :   -19.9358265051097
          16 :    16.7344816259046
          17 :   -16.0530060224642
          18 :    16.0834757064720
          19 :   -15.2194435249459
          20 :    12.7891777230461
          21 :   -9.21581469739044
[...]
00029 suncat0233 pw.x -in pw.inp   Done                     01/16/2018 16:05:58
00030 suncat0233 pw.x -in pw.inp   Done                     01/16/2018 16:05:58
00031 suncat0233 pw.x -in pw.inp   Done                     01/16/2018 16:05:58

     Program PWSCF v.5.1rc2 (svn rev. 11289) starts on 16Jan2018 at 16: 6: 4

[...]

   This run was terminated on:  16:17:47  16Jan2018

[...]

   This run was terminated on:  16:53: 2  16Jan2018

[...]

     Program PWSCF v.5.1rc2 (svn rev. 11289) starts on 16Jan2018 at 16:53: 8

[...]

   This run was terminated on:  17: 4:41  16Jan2018

[...]

     Program PWSCF v.5.1rc2 (svn rev. 11289) starts on 16Jan2018 at 17: 4:48

[...]

     Program PWSCF v.5.1rc2 (svn rev. 11289) starts on 16Jan2018 at 17:16:24

     Current dimensions of program PWSCF are:
     Max number of different atomic species (ntypx) = 10
     Max number of k-points (npk) =  40000
     Max angular momentum in pseudopotentials (lmaxx) =  3
     Presently stress not available with electric field

     IMPORTANT: XC functional enforced from input :
     Exchange-correlation      = BEEF-VDW ( 1  4 27 13 2)
     Any further DFT definition will be discarded
     Please, verify this is what you really want

     Subspace diagonalization in iterative solution of the eigenvalue problem:
     a serial algorithm will be used

     bravais-lattice index     =            0
     lattice parameter (alat)  =       1.8897  a.u.
     unit-cell volume          =    4204.8134 (a.u.)^3
     number of atoms/cell      =           13
     number of atomic types    =            2
     number of electrons       =       181.00
     number of Kohn-Sham states=          100
     kinetic-energy cutoff     =      36.7493  Ry
     charge density cutoff     =     367.4932  Ry
     convergence threshold     =      1.0E-05
     mixing beta               =       0.3000
     number of iterations used =           10  plain     mixing
     Exchange-correlation      = BEEF-VDW ( 1  4 27 13 2)
     nstep                     =           50

     celldm(1)=   1.889726  celldm(2)=   0.000000  celldm(3)=   0.000000
     celldm(4)=   0.000000  celldm(5)=   0.000000  celldm(6)=   0.000000

     crystal axes: (cart. coord. in units of alat)
               a(1) = (   5.426750   0.000000   0.000000 )
               a(2) = (   2.713375   4.699703   0.000000 )
               a(3) = (   0.000000   0.000000  24.430923 )

     reciprocal axes: (cart. coord. in units 2 pi/alat)
               b(1) = (  0.184272 -0.106390  0.000000 )
               b(2) = (  0.000000  0.212779  0.000000 )
               b(3) = (  0.000000  0.000000  0.040932 )

     PseudoPot. # 1 for Rh read from file:
     /afs/slac.stanford.edu/u/if/mamunm/psp/gbrv1.5pbe/Rh.UPF
     MD5 check sum: 761627e959a2e3a1f56b0b5fe687810e
     Pseudo is Ultrasoft + core correction, Zval = 15.0
     Generated by new atomic code, or converted to UPF format
     Using radial grid of  969 points,  7 beta functions with:
                l(1) =   0
                l(2) =   0
                l(3) =   1
                l(4) =   1
                l(5) =   2
                l(6) =   2
                l(7) =   2
     Q(r) pseudized with  8 coefficients,  rinner =    1.200   1.200   1.200
                                                       1.200   1.200

     PseudoPot. # 2 for H  read from file:
     /afs/slac.stanford.edu/u/if/mamunm/psp/gbrv1.5pbe/H.UPF
     MD5 check sum: 761ae9a214b05c3daf00ab9f6b793d6f
     Pseudo is Ultrasoft, Zval =  1.0
     Generated by new atomic code, or converted to UPF format
     Using radial grid of  615 points,  2 beta functions with:
                l(1) =   0
                l(2) =   0
     Q(r) pseudized with  8 coefficients,  rinner =    0.700

     vdW kernel table read from file vdW_kernel_table
     MD5 check sum: 095c7af220d748ca6e76c0b4c6cfb241

     atomic species   valence    mass     pseudopotential
        Rh1           15.00   102.90550     Rh( 1.00)
        H1             1.00     1.00800     H ( 1.00)

     No symmetry found

   Cartesian axes

     site n.     atom                  positions (alat units)
         1           Rh1 tau(   1) = (   1.3566875   0.7832839  10.0000000  )
         2           Rh1 tau(   2) = (   4.0700625   0.7832839  10.0000000  )
         3           Rh1 tau(   3) = (   2.7133750   3.1331356  10.0000000  )
         4           Rh1 tau(   4) = (   5.4267500   3.1331356  10.0000000  )
         5           Rh1 tau(   5) = (   5.4267500   1.5665678  12.2154614  )
         6           Rh1 tau(   6) = (   2.7133750   1.5665678  12.2154614  )
         7           Rh1 tau(   7) = (   6.7834375   3.9164194  12.2154614  )
         8           Rh1 tau(   8) = (   4.0700625   3.9164194  12.2154614  )
         9           Rh1 tau(   9) = (   8.1222275   4.6893652  14.4187522  )
        10           Rh1 tau(  10) = (   5.4446201   4.6894113  14.4184925  )
        11           Rh1 tau(  11) = (   6.7834603   2.3705111  14.4184446  )
        12           Rh1 tau(  12) = (   4.0700234   2.3498330  14.4017471  )
        13           H1  tau(  13) = (   1.3566698   0.7833235  15.4008350  )

     number of k points=    20  Fermi-Dirac smearing, width (Ry)=  0.0110
                       cart. coord. in units 2pi/alat
        k(    1) = (   0.0000000   0.0000000   0.0000000), wk =   0.0555556
        k(    2) = (   0.0000000   0.0354632   0.0000000), wk =   0.1111111
        k(    3) = (   0.0000000   0.0709265   0.0000000), wk =   0.1111111
        k(    4) = (   0.0000000  -0.1063897   0.0000000), wk =   0.0555556
        k(    5) = (   0.0307121  -0.0177316   0.0000000), wk =   0.1111111
        k(    6) = (   0.0307121   0.0177316   0.0000000), wk =   0.1111111
        k(    7) = (   0.0307121   0.0531948   0.0000000), wk =   0.1111111
        k(    8) = (   0.0307121  -0.1241213   0.0000000), wk =   0.1111111
        k(    9) = (   0.0307121  -0.0886581   0.0000000), wk =   0.1111111
        k(   10) = (   0.0307121  -0.0531948   0.0000000), wk =   0.1111111
        k(   11) = (   0.0614241  -0.0354632   0.0000000), wk =   0.1111111
        k(   12) = (   0.0614241   0.0000000   0.0000000), wk =   0.1111111
        k(   13) = (   0.0614241   0.0354632   0.0000000), wk =   0.1111111
        k(   14) = (   0.0614241  -0.1418529   0.0000000), wk =   0.1111111
        k(   15) = (   0.0614241  -0.1063897   0.0000000), wk =   0.1111111
        k(   16) = (   0.0614241  -0.0709265   0.0000000), wk =   0.1111111
        k(   17) = (  -0.0921362   0.0531948   0.0000000), wk =   0.0555556
        k(   18) = (  -0.0921362   0.0886581   0.0000000), wk =   0.1111111
        k(   19) = (  -0.0921362   0.1241213   0.0000000), wk =   0.1111111
        k(   20) = (  -0.0921362  -0.0531948   0.0000000), wk =   0.0555556

     Largest allocated arrays     est. size (Mb)     dimensions
     Largest temporary arrays     est. size (Mb)     dimensions

     Initial potential from superposition of free atoms
     Check: negative starting charge=   -0.655719

     starting charge  174.99881, renormalised to  181.00000

[...]

     *
     * You are using vdW-DF for exchange-correlation in this calculation.
     * Please cite the following three references that made this development
     * possible:
     *
     *   M. Dion, H. Rydberg, E. Schroder, D. C. Langreth, and
     *   B. I. Lundqvist, Phys. Rev. Lett. 92, 246401 (2004).
     *
     *   T. Thonhauser, V. R. Cooper, S. Li, A. Puzder, P. Hyldgaard, and
     *   D. C. Langreth, Phys. Rev. B 76, 125112 (2007).
     *
     *   G. Roman-Perez and J. M. Soler, Phys. Rev. Lett. 103, 096102 (2009).
     *
     *
     * If you are using vdW-DF2, please also cite:
     *
     *   K. Lee, E. D. Murray, L. Kong, B. I. Lundqvist, and
     *   D. C. Langreth, Phys. Rev. B 82, 081101(R) (2010).
     *
     *
     * If you are calculating the stress with vdW-DF, please also cite:
     *
     *   R. Sabatini, E. Kucukbenli, B. Kolb, T. Thonhauser, and
     *   S. de Gironcoli, J. Phys.: Condens. Matter 24, 424209 (2012).
     *

     Carrying out vdW-DF run using the following parameters:

     Nqs =      20    Nr_points =    1024   r_max =   100.000
     q_mesh =
               0.00001000     0.04494208     0.09755937     0.15916263
               0.23128650     0.31572767     0.41458969     0.53033537
               0.66584808     0.82450364     1.01025438     1.22772762
               1.48234092     1.78043706     2.12944203     2.53805004
               3.01644009     3.57652955     4.23227104     5.00000000

     Gradients computed in reciprocal space

[...]

     Starting wfc are  145 randomized atomic wfcs

     Self-consistent Calculation

[...]

     total energy              =   -2067.59463258 Ry
     Harris-Foulkes estimate   =   -2067.59463286 Ry
     estimated scf accuracy    <       0.00003210 Ry

     iteration # 18     ecut=    36.75 Ry     beta=0.30
     Davidson diagonalization with overlap
     ethr =  1.77E-08,  avg # of iterations =  1.6

[...]

     negative rho (up, down):  6.894E-01 0.000E+00

     Adding external electric field

     Computed dipole along edir(3) :
        Dipole               -0.0282 Ry au,         -0.0718 Debye
        Dipole field         -0.0001 Ry au

        Potential amp.        0.0076 Ry
        Total length         45.0136 bohr

     End of self-consistent calculation

[...]

          k = 0.0614-0.0709 0.0000 ( 15838 PWs)   bands (ev):

[...]

          k =-0.0921-0.0532 0.0000 ( 15852 PWs)   bands (ev):

   -45.2773 -45.2635 -45.1966 -45.1880 -45.1586 -45.1577 -45.1262 -45.1116
   -45.0906 -45.0656 -44.9611 -44.9198 -44.9042 -44.8865 -44.8442 -44.8234
   -44.8232 -44.7776 -44.7663 -44.7000 -44.6924 -44.6898 -44.6647 -44.6588
   -44.6405 -44.5876 -44.5749 -44.5546 -44.5498 -44.5271 -44.5100 -44.5082
   -44.4968 -44.4932 -44.4848 -44.4816  -4.5630  -3.5638  -3.4784  -2.9740
    -2.9369  -2.9227  -2.8842  -2.6819  -2.6739  -2.5604  -2.4597  -2.4462
    -2.4456  -2.1696  -2.0831  -2.0777  -2.0413  -1.6774  -1.6735  -1.5533
    -1.5520  -1.4813  -1.4059  -1.1147  -1.0648  -0.7881  -0.7586  -0.7252
    -0.6480  -0.5555  -0.5289  -0.4030  -0.3741  -0.3660  -0.3560  -0.2979
    -0.2774  -0.2566  -0.2318  -0.2126   0.2283   0.2365   0.3499   0.4207
     0.4742   0.4770   0.7058   0.7498   0.7643   0.8458   0.9454   0.9526
     1.1566   1.2873   1.3471   1.3802   1.5045   1.6875   1.9213   1.9502
     2.0742   2.1152   2.3573   2.3600

     the Fermi energy is     1.6907 ev

!    total energy              =   -2067.59462926 Ry
     Harris-Foulkes estimate   =   -2067.59463408 Ry
     estimated scf accuracy    <       0.00000785 Ry

     The total energy is the sum of the following terms:

     one-electron contribution =  -19224.77355384 Ry
     hartree contribution      =    9653.49276446 Ry
     xc contribution           =    -372.92160504 Ry
     ewald contribution        =    7876.73224430 Ry
     electric field correction =       0.00000238 Ry
     smearing contrib. (-TS)   =      -0.12448153 Ry

     convergence has been achieved in  18 iterations

 BEEF-vdW xc energy contributions
           1 :   -324.843593092704
           2 :    298.438441364497
           3 :   -252.713399319031
           4 :    198.986295242554
           5 :   -148.723818569220
           6 :    109.975589425837
           7 :   -85.5163418291798
           8 :    73.1306518309522
           9 :   -67.6133118104112
          10 :    63.4524148916065
          11 :   -57.0327170400046
          12 :    47.5658014108694
          13 :   -36.6185091614706
          14 :    26.7279279718044
          15 :   -19.8932741877666
          16 :    16.6407434992196
          17 :   -15.9757387250306
          18 :    16.0804782279699
          19 :   -15.3039762431985
          20 :    12.9256747372663
          21 :   -9.34382644241180
          22 :    5.67490512930289
          23 :   -3.05500847356245
          24 :    2.03557570379229
          25 :   -2.35971922009588
          26 :    3.18032526961389
          27 :   -3.55830792444527
          28 :    2.95781984497444
          29 :   -1.48065469676436
          30 :  -0.258642841028063
          31 :   -32.0976994911433
          32 :   -24.0940075629898

     Forces acting on atoms (Ry/au):

     negative rho (up, down):  6.894E-01 0.000E+00
     atom    1 type  1   force =    -0.00000650    0.00000626    0.00643647
     atom    2 type  1   force =     0.00000329    0.00181544    0.00602260
     atom    3 type  1   force =     0.00156299   -0.00090462    0.00596873
     atom    4 type  1   force =    -0.00156952   -0.00090710    0.00608027
     atom    5 type  1   force =     0.00043133   -0.00026304   -0.00593700
     atom    6 type  1   force =    -0.00043888   -0.00025986   -0.00589089
     atom    7 type  1   force =     0.00000535    0.00001539   -0.00592085
     atom    8 type  1   force =    -0.00002152    0.00051240   -0.00593063
     atom    9 type  1   force =     0.00058052    0.00035169    0.00015672
     atom   10 type  1   force =    -0.00053225    0.00029247    0.00010604
     atom   11 type  1   force =    -0.00002227   -0.00067191    0.00027487
     atom   12 type  1   force =     0.00002131    0.00000339   -0.00084629
     atom   13 type  2   force =    -0.00001386    0.00000950   -0.00052004

     Total force =     0.017421     Total SCF correction =     0.015469
     SCF correction compared to forces is large: reduce conv_thr to get better values

     entering subroutine stress ...

     negative rho (up, down):  6.894E-01 0.000E+00
          total   stress  (Ry/bohr**3)                   (kbar)     P=  -29.64
  -0.00020708  -0.00000003  -0.00000000        -30.46     -0.00     -0.00
  -0.00000003  -0.00020711  -0.00000001         -0.00    -30.47     -0.00
  -0.00000000  -0.00000001  -0.00019037         -0.00     -0.00    -28.00

 !ASE

     Writing output data file calc.save

     General routines

     Parallel routines

   This run was terminated on:  17:27:57  16Jan2018

   JOB DONE.
Job  /afs/slac/g/suncat/bin/suncat-tsmpirun -x LD_LIBRARY_PATH -wdir /scratch/qe842475_hDjKT pw.x -in pw.inp

TID   HOST_NAME   COMMAND_LINE            STATUS            TERMINATION_TIME
00000 suncat0273 pw.x -in pw.inp   Done                     01/16/2018 17:27:57
00001 suncat0273 pw.x -in pw.inp   Done                     01/16/2018 17:27:57
00002 suncat0273 pw.x -in pw.inp   Done                     01/16/2018 17:27:57
00003 suncat0273 pw.x -in pw.inp   Done                     01/16/2018 17:27:57
00004 suncat0273 pw.x -in pw.inp   Done                     01/16/2018 17:27:57
00005 suncat0273 pw.x -in pw.inp   Done                     01/16/2018 17:27:57
00006 suncat0273 pw.x -in pw.inp   Done                     01/16/2018 17:27:57
00007 suncat0273 pw.x -in pw.inp   Done                     01/16/2018 17:27:57
00008 suncat0268 pw.x -in pw.inp   Done                     01/16/2018 17:27:57
00009 suncat0268 pw.x -in pw.inp   Done                     01/16/2018 17:27:57
00010 suncat0268 pw.x -in pw.inp   Done                     01/16/2018 17:27:57
00011 suncat0268 pw.x -in pw.inp   Done                     01/16/2018 17:27:57
00012 suncat0268 pw.x -in pw.inp   Done                     01/16/2018 17:27:57
00013 suncat0268 pw.x -in pw.inp   Done                     01/16/2018 17:27:57
00014 suncat0268 pw.x -in pw.inp   Done                     01/16/2018 17:27:57
00015 suncat0268 pw.x -in pw.inp   Done                     01/16/2018 17:27:57
00016 suncat0266 pw.x -in pw.inp   Done                     01/16/2018 17:27:57
00017 suncat0266 pw.x -in pw.inp   Done                     01/16/2018 17:27:57
00018 suncat0266 pw.x -in pw.inp   Done                     01/16/2018 17:27:57
00019 suncat0266 pw.x -in pw.inp   Done                     01/16/2018 17:27:57
00020 suncat0266 pw.x -in pw.inp   Done                     01/16/2018 17:27:57
00021 suncat0266 pw.x -in pw.inp   Done                     01/16/2018 17:27:57
00022 suncat0266 pw.x -in pw.inp   Done                     01/16/2018 17:27:57
00023 suncat0266 pw.x -in pw.inp   Done                     01/16/2018 17:27:57
00024 suncat0233 pw.x -in pw.inp   Done                     01/16/2018 17:27:57
00025 suncat0233 pw.x -in pw.inp   Done                     01/16/2018 17:27:57
00026 suncat0233 pw.x -in pw.inp   Done                     01/16/2018 17:27:57
00027 suncat0233 pw.x -in pw.inp   Done                     01/16/2018 17:27:57
00028 suncat0233 pw.x -in pw.inp   Done                     01/16/2018 17:27:57
00029 suncat0233 pw.x -in pw.inp   Done                     01/16/2018 17:27:57
00030 suncat0233 pw.x -in pw.inp   Done                     01/16/2018 17:27:57
00031 suncat0233 pw.x -in pw.inp   Done                     01/16/2018 17:27:57