     Program PWSCF v.5.1rc2 (svn rev. 11289) starts on 18Apr2018 at 18: 9:17

     Current dimensions of program PWSCF are:
     Max number of different atomic species (ntypx) = 10
     Max number of k-points (npk) =  40000
     Max angular momentum in pseudopotentials (lmaxx) =  3
     Presently stress not available with electric field

     IMPORTANT: XC functional enforced from input :
     Exchange-correlation      = BEEF-VDW ( 1  4 27 13 2)
     Any further DFT definition will be discarded
     Please, verify this is what you really want

     Subspace diagonalization in iterative solution of the eigenvalue problem:
     a serial algorithm will be used

     bravais-lattice index     =            0
     lattice parameter (alat)  =       1.8897  a.u.
     unit-cell volume          =    3807.2308 (a.u.)^3
     number of atoms/cell      =           14
     number of atomic types    =            3
     number of electrons       =       233.00
     number of Kohn-Sham states=          126
     kinetic-energy cutoff     =      36.7493  Ry
     charge density cutoff     =     367.4932  Ry
     convergence threshold     =      1.0E-05
     mixing beta               =       0.3000
     number of iterations used =           10  plain     mixing
     Exchange-correlation      = BEEF-VDW ( 1  4 27 13 2)
     nstep                     =           50

     celldm(1)=   1.889726  celldm(2)=   0.000000  celldm(3)=   0.000000
     celldm(4)=   0.000000  celldm(5)=   0.000000  celldm(6)=   0.000000

     crystal axes: (cart. coord. in units of alat)
               a(1) = (   5.184823   0.000000   0.000000 )
               a(2) = (   2.592411   4.490188   0.000000 )
               a(3) = (   0.000000   0.000000  24.233390 )

     reciprocal axes: (cart. coord. in units 2 pi/alat)
               b(1) = (  0.192871 -0.111354  0.000000 )
               b(2) = (  0.000000  0.222708  0.000000 )
               b(3) = (  0.000000  0.000000  0.041265 )

     PseudoPot. # 1 for Cu read from file:
     /u/if/mamunm/psp/gbrv1.5pbe/Cu.UPF
     MD5 check sum: 6e991ff952a84172a2a52a1c1e996048
     Pseudo is Ultrasoft + core correction, Zval = 19.0
     Generated by new atomic code, or converted to UPF format
     Using radial grid of  867 points,  6 beta functions with:
                l(1) =   0
                l(2) =   0
                l(3) =   1
                l(4) =   1
                l(5) =   2
                l(6) =   2
     Q(r) pseudized with  8 coefficients,  rinner =    1.150   1.150   1.150
                                                       1.150   1.150

     PseudoPot. # 2 for C  read from file:
     /u/if/mamunm/psp/gbrv1.5pbe/C.UPF
     MD5 check sum: d1aef80898a10debaa0f26306b886e00
     Pseudo is Ultrasoft + core correction, Zval =  4.0
     Generated by new atomic code, or converted to UPF format
     Using radial grid of  721 points,  4 beta functions with:
                l(1) =   0
                l(2) =   0
                l(3) =   1
                l(4) =   1
     Q(r) pseudized with  8 coefficients,  rinner =    1.100   1.100   1.100

     PseudoPot. # 3 for H  read from file:
     /u/if/mamunm/psp/gbrv1.5pbe/H.UPF
     MD5 check sum: 761ae9a214b05c3daf00ab9f6b793d6f
     Pseudo is Ultrasoft, Zval =  1.0
     Generated by new atomic code, or converted to UPF format
     Using radial grid of  615 points,  2 beta functions with:
                l(1) =   0
                l(2) =   0
     Q(r) pseudized with  8 coefficients,  rinner =    0.700

     vdW kernel table read from file vdW_kernel_table
     MD5 check sum: 095c7af220d748ca6e76c0b4c6cfb241

     atomic species   valence    mass     pseudopotential
        Cu1           19.00    63.54600     Cu( 1.00)
        C1             4.00    12.01100     C ( 1.00)
        H1             1.00     1.00800     H ( 1.00)

     No symmetry found

   Cartesian axes

     site n.     atom                  positions (alat units)
         1           Cu1 tau(   1) = (   1.2962057   0.7483647  10.0000000  )
         2           Cu1 tau(   2) = (   3.8886170   0.7483647  10.0000000  )
         3           Cu1 tau(   3) = (   2.5924113   2.9934587  10.0000000  )
         4           Cu1 tau(   4) = (   5.1848226   2.9934587  10.0000000  )
         5           Cu1 tau(   5) = (   5.1848226   1.4967294  12.1166950  )
         6           Cu1 tau(   6) = (   2.5924113   1.4967294  12.1166950  )
         7           Cu1 tau(   7) = (   6.4810283   3.7418234  12.1166950  )
         8           Cu1 tau(   8) = (   3.8886170   3.7418234  12.1166950  )
         9           Cu1 tau(   9) = (   0.0000000   0.0000000  14.2333899  )
        10           Cu1 tau(  10) = (   2.5924113   0.0000000  14.2333899  )
        11           Cu1 tau(  11) = (   1.2962057   2.2450940  14.2333899  )
        12           Cu1 tau(  12) = (   3.8886170   2.2450940  14.2333899  )
        13           C1  tau(  13) = (   1.2962057   0.7483647  15.5853899  )
        14           H1  tau(  14) = (   1.2962057   0.7483647  16.6853899  )

     number of k points=    20  Fermi-Dirac smearing, width (Ry)=  0.0110
                       cart. coord. in units 2pi/alat
        k(    1) = (   0.0000000   0.0000000   0.0000000), wk =   0.0555556
        k(    2) = (   0.0000000   0.0371180   0.0000000), wk =   0.1111111
        k(    3) = (   0.0000000   0.0742359   0.0000000), wk =   0.1111111
        k(    4) = (   0.0000000  -0.1113539   0.0000000), wk =   0.0555556
        k(    5) = (   0.0321451  -0.0185590   0.0000000), wk =   0.1111111
        k(    6) = (   0.0321451   0.0185590   0.0000000), wk =   0.1111111
        k(    7) = (   0.0321451   0.0556770   0.0000000), wk =   0.1111111
        k(    8) = (   0.0321451  -0.1299129   0.0000000), wk =   0.1111111
        k(    9) = (   0.0321451  -0.0927949   0.0000000), wk =   0.1111111
        k(   10) = (   0.0321451  -0.0556770   0.0000000), wk =   0.1111111
        k(   11) = (   0.0642902  -0.0371180   0.0000000), wk =   0.1111111
        k(   12) = (   0.0642902  -0.0000000   0.0000000), wk =   0.1111111
        k(   13) = (   0.0642902   0.0371180   0.0000000), wk =   0.1111111
        k(   14) = (   0.0642902  -0.1484719   0.0000000), wk =   0.1111111
        k(   15) = (   0.0642902  -0.1113539   0.0000000), wk =   0.1111111
        k(   16) = (   0.0642902  -0.0742359   0.0000000), wk =   0.1111111
        k(   17) = (  -0.0964353   0.0556770   0.0000000), wk =   0.0555556
        k(   18) = (  -0.0964353   0.0927949   0.0000000), wk =   0.1111111
        k(   19) = (  -0.0964353   0.1299129   0.0000000), wk =   0.1111111
        k(   20) = (  -0.0964353  -0.0556770   0.0000000), wk =   0.0555556

     Largest allocated arrays     est. size (Mb)     dimensions
     Largest temporary arrays     est. size (Mb)     dimensions

     Initial potential from superposition of free atoms
     Check: negative starting charge=   -0.000134

     starting charge  220.99993, renormalised to  233.00000

     negative rho (up, down):  1.408E-04 0.000E+00

     *
     * You are using vdW-DF for exchange-correlation in this calculation.
     * Please cite the following three references that made this development
     * possible:
     *
     *   M. Dion, H. Rydberg, E. Schroder, D. C. Langreth, and
     *   B. I. Lundqvist, Phys. Rev. Lett. 92, 246401 (2004).
     *
     *   T. Thonhauser, V. R. Cooper, S. Li, A. Puzder, P. Hyldgaard, and
     *   D. C. Langreth, Phys. Rev. B 76, 125112 (2007).
     *
     *   G. Roman-Perez and J. M. Soler, Phys. Rev. Lett. 103, 096102 (2009).
     *
     *
     * If you are using vdW-DF2, please also cite:
     *
     *   K. Lee, E. D. Murray, L. Kong, B. I. Lundqvist, and
     *   D. C. Langreth, Phys. Rev. B 82, 081101(R) (2010).
     *
     *
     * If you are calculating the stress with vdW-DF, please also cite:
     *
     *   R. Sabatini, E. Kucukbenli, B. Kolb, T. Thonhauser, and
     *   S. de Gironcoli, J. Phys.: Condens. Matter 24, 424209 (2012).
     *

     Carrying out vdW-DF run using the following parameters:

     Nqs =      20    Nr_points =    1024   r_max =   100.000
     q_mesh =
               0.00001000     0.04494208     0.09755937     0.15916263
               0.23128650     0.31572767     0.41458969     0.53033537
               0.66584808     0.82450364     1.01025438     1.22772762
               1.48234092     1.78043706     2.12944203     2.53805004
               3.01644009     3.57652955     4.23227104     5.00000000

     Gradients computed in reciprocal space

     Adding external electric field

     Computed dipole along edir(3) :
        Dipole               -1.8921 Ry au,         -4.8093 Debye
        Dipole field         -0.0062 Ry au

        Potential amp.        0.5577 Ry
        Total length         44.6496 bohr

     Starting wfc are  161 randomized atomic wfcs

     Self-consistent Calculation

     iteration #  1     ecut=    36.75 Ry     beta=0.30
     Davidson diagonalization with overlap
     ethr =  1.00E-02,  avg # of iterations =  7.9

[...]

     total energy              =   -4651.01048552 Ry
     Harris-Foulkes estimate   =   -4876.37015708 Ry
     estimated scf accuracy    <     472.77834988 Ry

     iteration #  2     ecut=    36.75 Ry     beta=0.30
     Davidson diagonalization with overlap
     c_bands:  2 eigenvalues not converged
     c_bands:  4 eigenvalues not converged
     c_bands:  1 eigenvalues not converged
     ethr =  1.00E-02,  avg # of iterations = 19.9

[...]

     End of self-consistent calculation

          k = 0.0000 0.0000 0.0000 ( 14321 PWs)   bands (ev):

  -112.2200-112.2148-112.2136-112.1642-112.0559-112.0509-112.0497-111.8272
  -111.8204-111.8175-111.8159-111.6684 -69.7237 -69.6946 -69.6935 -69.5907
   -69.5897 -69.5647 -69.5639 -69.5599 -69.5598 -69.5473 -69.5121 -69.5111
   -69.4971 -69.4591 -69.4590 -69.4436 -69.4400 -69.4392 -69.4317 -69.4269
   -69.4265 -69.2800 -69.2793 -69.2776 -69.2293 -69.2288 -69.2260 -69.2102
   -69.2101 -69.1772 -69.1712 -69.1686 -69.1671 -69.0932 -69.0932 -69.0314
   -10.6758  -7.7256  -6.1289  -4.9954  -4.2713  -4.0574  -4.0572  -4.0034
    -4.0031  -3.9927  -3.7660  -3.5679  -3.5676  -3.5132  -3.5131  -3.4754
    -3.1795  -3.0253  -3.0252  -2.5939  -2.5885  -2.5883  -2.5087  -2.5085
    -2.4947  -2.4734  -2.4013  -2.4012  -2.2948  -2.2630  -2.2478  -2.2474
    -2.1959  -2.1955  -2.1338  -2.1338  -1.8915  -1.8804  -1.8800  -1.7351
    -1.6874  -1.6872  -1.5674  -1.5671  -1.4383  -1.4381  -1.3421  -1.2935
    -1.2932  -1.2597  -1.2262  -1.2258  -1.1783  -1.1591  -1.1589  -1.1082
    -1.1077  -1.0790  -1.0771  -1.0122  -1.0118  -0.8905  -0.8898  -0.8871
    -0.3957   0.0384   0.0385   0.6752   1.0022   1.0023   1.2383   1.8658
     1.8659   1.9756   2.4245   2.4245   3.5601   4.3918

[...]

          k =-0.0964 0.0557 0.0000 ( 14294 PWs)   bands (ev):

[...]

     the Fermi energy is     0.5339 ev

!    total energy              =   -4871.89764798 Ry
     Harris-Foulkes estimate   =   -4871.89765061 Ry
     estimated scf accuracy    <       0.00000451 Ry

     The total energy is the sum of the following terms:

     one-electron contribution =  -37721.07498513 Ry
     hartree contribution      =   18876.52449764 Ry
     xc contribution           =    -484.30697894 Ry
     ewald contribution        =   14456.98675190 Ry
     electric field correction =       0.00000070 Ry
     smearing contrib. (-TS)   =      -0.02693416 Ry

     convergence has been achieved in  32 iterations

 BEEF-vdW xc energy contributions
           1 :   -429.111913709793
           2 :    389.051480588839
           3 :   -321.175848548532
           4 :    244.131697798705
           5 :   -174.911084521256
           6 :    122.777107587209
           7 :   -87.7891182051552
           8 :    63.9085411134305
           9 :   -44.2676314802804
          10 :    25.3519108582542
          11 :   -7.99338167892955
          12 :   -4.71621714447451
          13 :    10.6274090499151
          14 :   -10.5295124786152
          15 :    7.77088610069922
          16 :   -6.07679574246754
          17 :    7.27329064838557
          18 :   -10.4862260252247
          19 :    13.2049028254789
          20 :   -13.3071958930340
          21 :    10.5831645185523
          22 :   -6.77146066585669
          23 :    4.22100868155206
          24 :   -4.22326946622150
          25 :    6.19689625647413
          26 :   -8.22930199705195
          27 :    8.50550706299953
          28 :   -6.57593404801537
          29 :    3.59261282171747
          30 :   -1.41073215065649
          31 :   -34.3435152560172
          32 :   -23.4908821170690

     Forces acting on atoms (Ry/au):

     negative rho (up, down):  1.064E-03 0.000E+00
     atom    1 type  1   force =    -0.00014341    0.00008736    0.00653330
     atom    2 type  1   force =     0.00014978    0.00079027    0.00436514
     atom    3 type  1   force =     0.00061660   -0.00034053    0.00442418
     atom    4 type  1   force =    -0.00061472   -0.00052249    0.00444671
     atom    5 type  1   force =    -0.00168303    0.00078714   -0.00726448
     atom    6 type  1   force =     0.00174060    0.00087889   -0.00727020
     atom    7 type  1   force =     0.00004557    0.00015523    0.00608288
     atom    8 type  1   force =    -0.00005261   -0.00184487   -0.00718108
     atom    9 type  1   force =     0.00606249    0.00357061    0.02592394
     atom   10 type  1   force =    -0.00616847    0.00354501    0.02621527
     atom   11 type  1   force =    -0.00007437   -0.00707203    0.02599927
     atom   12 type  1   force =     0.00008703   -0.00003207    0.00122886
     atom   13 type  2   force =     0.00002725   -0.00000282   -0.07161614
     atom   14 type  3   force =     0.00000729    0.00000031   -0.01188765

     Total force =     0.086354     Total SCF correction =     0.005221

     entering subroutine stress ...

     negative rho (up, down):  1.064E-03 0.000E+00
          total   stress  (Ry/bohr**3)                   (kbar)     P=  -40.69
  -0.00028222  -0.00000001  -0.00000007        -41.52     -0.00     -0.01
  -0.00000001  -0.00028223   0.00000001         -0.00    -41.52      0.00
  -0.00000007   0.00000001  -0.00026535         -0.01      0.00    -39.03

     BFGS Geometry Optimization

     number of scf cycles    =   1
     number of bfgs steps    =   0

     energy   new            =   -4871.8976479769 Ry

     new trust radius        =       0.0716161452 bohr
     new conv_thr            =       0.0000099958 Ry

ATOMIC_POSITIONS (crystal)
Cu1      0.166666667   0.166666667   0.412653782    0   0   0
Cu1      0.666666667   0.166666667   0.412653782    0   0   0
Cu1      0.166666667   0.666666667   0.412653782    0   0   0
Cu1      0.666666667   0.666666667   0.412653782    0   0   0
Cu1      0.833333333   0.333333333   0.500000000    0   0   0
Cu1      0.333333333   0.333333333   0.500000000    0   0   0
Cu1      0.833333333   0.833333333   0.500000000    0   0   0
Cu1      0.333333333   0.833333333   0.500000000    0   0   0
Cu1      0.000408353   0.000420803   0.587912311
Cu1      0.499161536   0.000417786   0.587918673
Cu1      0.000409135   0.499166548   0.587913956
Cu1      0.500010772   0.499996221   0.587373052
C1       0.166669614   0.166666334   0.641573149
H1       0.166667392   0.166666703   0.688269339

     Writing output data file calc.save
     Check: negative starting charge=   -0.000134
     NEW-OLD atomic charge density approx. for the potential
     Check: negative starting charge=   -0.000130

[...]

     energy   old            =   -4871.8976479769 Ry
     energy   new            =   -4871.9029689118 Ry

     CASE: energy  _new < energy  _old

[...]

     Total force =     0.008264     Total SCF correction =     0.001284
     SCF correction compared to forces is large: reduce conv_thr to get better values

[...]

     Total force =     0.010667     Total SCF correction =     0.000723

[...]

     number of scf cycles    =  14
     number of bfgs steps    =  13

     energy   old            =   -4871.9150001525 Ry
     energy   new            =   -4871.9150213009 Ry

     CASE: energy  _new < energy  _old

     new trust radius        =       0.0071332204 bohr
     new conv_thr            =       0.0000001000 Ry

ATOMIC_POSITIONS (crystal)
Cu1      0.166666667   0.166666667   0.412653782    0   0   0
Cu1      0.666666667   0.166666667   0.412653782    0   0   0
Cu1      0.166666667   0.666666667   0.412653782    0   0   0
Cu1      0.666666667   0.666666667   0.412653782    0   0   0
Cu1      0.833333333   0.333333333   0.500000000    0   0   0
Cu1      0.333333333   0.333333333   0.500000000    0   0   0
Cu1      0.833333333   0.833333333   0.500000000    0   0   0
Cu1      0.333333333   0.833333333   0.500000000    0   0   0
Cu1     -0.004674284  -0.004681571   0.588219559
Cu1      0.509349225  -0.004672917   0.588216704
Cu1     -0.004671556   0.509354906   0.588217581
Cu1      0.499992666   0.500001766   0.586879862
C1       0.166665790   0.166670238   0.634799039
H1       0.166650925   0.166669046   0.679895120

     Writing output data file calc.save
     Check: negative starting charge=   -0.000143
     NEW-OLD atomic charge density approx. for the potential
     Check: negative starting charge=   -0.000142

[...]

     Self-consistent Calculation

[...]

     total energy              =   -4871.91502455 Ry
     Harris-Foulkes estimate   =   -4871.91502458 Ry
     estimated scf accuracy    <       0.00000022 Ry

     iteration #  8     ecut=    36.75 Ry     beta=0.30
     Davidson diagonalization with overlap
     ethr =  9.60E-11,  avg # of iterations =  2.1

[...]

     negative rho (up, down):  1.124E-03 0.000E+00

     Adding external electric field

     Computed dipole along edir(3) :
        Dipole                0.0298 Ry au,          0.0757 Debye
        Dipole field          0.0001 Ry au

        Potential amp.       -0.0088 Ry
        Total length         44.6496 bohr

     End of self-consistent calculation

[...]

          k = 0.0643-0.0742 0.0000 ( 14299 PWs)   bands (ev):

[...]

          k =-0.0964-0.0557 0.0000 ( 14294 PWs)   bands (ev):

  -112.3502-112.3472-112.3456-112.1464-112.0185-112.0166-112.0147-111.8188
  -111.7987-111.7966-111.7949-111.6809 -69.8914 -69.8751 -69.8647 -69.6956
   -69.6896 -69.6785 -69.6402 -69.6282 -69.6192 -69.5491 -69.5371 -69.5328
   -69.4513 -69.4301 -69.4183 -69.4168 -69.4075 -69.4051 -69.4027 -69.4013
   -69.3970 -69.2554 -69.2418 -69.2397 -69.2221 -69.2184 -69.2171 -69.2052
   -69.1946 -69.1726 -69.1490 -69.1471 -69.1453 -69.1042 -69.1032 -69.0508
   -10.9271  -6.1609  -6.0262  -5.3970  -4.6154  -4.0890  -3.8749  -3.8743
    -3.5964  -3.5877  -3.4732  -3.4565  -3.3929  -3.1901  -3.1509  -3.1440
    -3.1021  -3.0085  -2.9979  -2.9788  -2.8157  -2.7729  -2.7650  -2.7462
    -2.7201  -2.6728  -2.5470  -2.5417  -2.4818  -2.3759  -2.2927  -2.2870
    -2.2812  -2.2129  -2.1813  -2.1508  -2.1282  -2.1220  -2.0646  -2.0539
    -2.0509  -1.9442  -1.8953  -1.8668  -1.8631  -1.8203  -1.8119  -1.7572
    -1.6983  -1.6823  -1.6044  -1.5626  -1.5169  -1.4678  -1.4513  -1.4339
    -1.3935  -1.3813  -1.2852  -1.2762  -1.1854  -1.1369  -1.1180  -1.0622
    -1.0448  -0.3192  -0.0592   0.1170   0.5589   0.7357   1.2920   2.1446
     2.4590   2.8944   3.7226   4.3719   5.1335   5.6444

     the Fermi energy is     0.5704 ev

!    total energy              =   -4871.91502455 Ry
     Harris-Foulkes estimate   =   -4871.91502458 Ry
     estimated scf accuracy    <       0.00000004 Ry

     The total energy is the sum of the following terms:

     one-electron contribution =  -37748.52734687 Ry
     hartree contribution      =   18890.23971959 Ry
     xc contribution           =    -484.40413780 Ry
     ewald contribution        =   14470.80251645 Ry
     electric field correction =       0.00000293 Ry
     smearing contrib. (-TS)   =      -0.02577885 Ry

     convergence has been achieved in   8 iterations

 BEEF-vdW xc energy contributions
           1 :   -429.214199309389
           2 :    389.191759954505
           3 :   -321.349925072553
           4 :    244.291304577469
           5 :   -174.997929176832
           6 :    122.763818770798
           7 :   -87.7003225690979
           8 :    63.8072248359456
           9 :   -44.2156899185358
          10 :    25.3715260428247
          11 :   -8.05524240918021
          12 :   -4.66989240217140
          13 :    10.6412452137857
          14 :   -10.6034932328701
          15 :    7.86048839225020
          16 :   -6.12435112563094
          17 :    7.24772244499422
          18 :   -10.4035598003234
          19 :    13.1160963847317
          20 :   -13.2623555413118
          21 :    10.5974060826463
          22 :   -6.81565318108608
          23 :    4.24333231589117
          24 :   -4.18616118620594
          25 :    6.10348597071902
          26 :   -8.12136979752290
          27 :    8.43470023997179
          28 :   -6.56829358294021
          29 :    3.63061674616426
          30 :   -1.44546445992063
          31 :   -34.3511366017513
          32 :   -23.5049320723070

     Forces acting on atoms (Ry/au):

     negative rho (up, down):  1.124E-03 0.000E+00
     atom    1 type  1   force =     0.00000061   -0.00000012    0.00497194
     atom    2 type  1   force =    -0.00000040    0.00034853    0.00156438
     atom    3 type  1   force =     0.00030199   -0.00017454    0.00156502
     atom    4 type  1   force =    -0.00030185   -0.00017392    0.00156366
     atom    5 type  1   force =    -0.00182183    0.00105025   -0.00501880
     atom    6 type  1   force =     0.00182152    0.00105297   -0.00502871
     atom    7 type  1   force =     0.00000247    0.00000027    0.00416504
     atom    8 type  1   force =    -0.00000266   -0.00210321   -0.00502437
     atom    9 type  1   force =    -0.00001893    0.00000157    0.00023575
     atom   10 type  1   force =     0.00001744   -0.00001534    0.00025219
     atom   11 type  1   force =    -0.00001591    0.00001755    0.00024520
     atom   12 type  1   force =     0.00001482   -0.00000349    0.00037379
     atom   13 type  2   force =    -0.00000279   -0.00000097    0.00004954
     atom   14 type  3   force =     0.00000552    0.00000045    0.00008538

     Total force =     0.000575     Total SCF correction =     0.000750
     SCF correction compared to forces is large: reduce conv_thr to get better values

     entering subroutine stress ...

     negative rho (up, down):  1.124E-03 0.000E+00
          total   stress  (Ry/bohr**3)                   (kbar)     P=  -19.58
  -0.00015020   0.00000000   0.00000000        -22.10      0.00      0.00
   0.00000000  -0.00015020  -0.00000000          0.00    -22.09     -0.00
   0.00000000  -0.00000000  -0.00009887          0.00     -0.00    -14.54

     bfgs converged in  15 scf cycles and  14 bfgs steps
     (criteria: energy <  1.0E+00, force <  1.9E-03)

     End of BFGS Geometry Optimization

     Final energy   =   -4871.9150245491 Ry
Begin final coordinates

ATOMIC_POSITIONS (crystal)
Cu1      0.166666667   0.166666667   0.412653782    0   0   0
Cu1      0.666666667   0.166666667   0.412653782    0   0   0
Cu1      0.166666667   0.666666667   0.412653782    0   0   0
Cu1      0.666666667   0.666666667   0.412653782    0   0   0
Cu1      0.833333333   0.333333333   0.500000000    0   0   0
Cu1      0.333333333   0.333333333   0.500000000    0   0   0
Cu1      0.833333333   0.833333333   0.500000000    0   0   0
Cu1      0.333333333   0.833333333   0.500000000    0   0   0
Cu1     -0.004674284  -0.004681571   0.588219559
Cu1      0.509349225  -0.004672917   0.588216704
Cu1     -0.004671556   0.509354906   0.588217581
Cu1      0.499992666   0.500001766   0.586879862
C1       0.166665790   0.166670238   0.634799039
H1       0.166650925   0.166669046   0.679895120
End final coordinates

     Writing output data file calc.save

     General routines

     Parallel routines

   This run was terminated on:  19:26:18  18Apr2018

   JOB DONE.
Job  /afs/slac/g/suncat/bin/suncat-tsmpirun -x LD_LIBRARY_PATH -wdir /scratch/qe276545_0HBnQ pw.x -npool 4 -in pw.inp

TID   HOST_NAME   COMMAND_LINE            STATUS            TERMINATION_TIME
00000 suncat0034 pw.x -npool 4 -i  Done                     04/18/2018 19:26:18
00001 suncat0034 pw.x -npool 4 -i  Done                     04/18/2018 19:26:18
00002 suncat0034 pw.x -npool 4 -i  Done                     04/18/2018 19:26:18
00003 suncat0034 pw.x -npool 4 -i  Done                     04/18/2018 19:26:18
00004 suncat0034 pw.x -npool 4 -i  Done                     04/18/2018 19:26:18
00005 suncat0034 pw.x -npool 4 -i  Done                     04/18/2018 19:26:18
00006 suncat0034 pw.x -npool 4 -i  Done                     04/18/2018 19:26:18
00007 suncat0034 pw.x -npool 4 -i  Done                     04/18/2018 19:26:18
00008 suncat0033 pw.x -npool 4 -i  Done                     04/18/2018 19:26:18
00009 suncat0033 pw.x -npool 4 -i  Done                     04/18/2018 19:26:18
00010 suncat0033 pw.x -npool 4 -i  Done                     04/18/2018 19:26:18
00011 suncat0033 pw.x -npool 4 -i  Done                     04/18/2018 19:26:18
00012 suncat0033 pw.x -npool 4 -i  Done                     04/18/2018 19:26:18
00013 suncat0033 pw.x -npool 4 -i  Done                     04/18/2018 19:26:18
00014 suncat0033 pw.x -npool 4 -i  Done                     04/18/2018 19:26:18
00015 suncat0033 pw.x -npool 4 -i  Done                     04/18/2018 19:26:18
00016 suncat0177 pw.x -npool 4 -i  Done                     04/18/2018 19:26:18
00017 suncat0177 pw.x -npool 4 -i  Done                     04/18/2018 19:26:18
00018 suncat0177 pw.x -npool 4 -i  Done                     04/18/2018 19:26:18
00019 suncat0177 pw.x -npool 4 -i  Done                     04/18/2018 19:26:18
00020 suncat0177 pw.x -npool 4 -i  Done                     04/18/2018 19:26:18
00021 suncat0177 pw.x -npool 4 -i  Done                     04/18/2018 19:26:18
00022 suncat0177 pw.x -npool 4 -i  Done                     04/18/2018 19:26:18
00023 suncat0177 pw.x -npool 4 -i  Done                     04/18/2018 19:26:18
00024 suncat0163 pw.x -npool 4 -i  Done                     04/18/2018 19:26:18
00025 suncat0163 pw.x -npool 4 -i  Done                     04/18/2018 19:26:18
00026 suncat0163 pw.x -npool 4 -i  Done                     04/18/2018 19:26:18
00027 suncat0163 pw.x -npool 4 -i  Done                     04/18/2018 19:26:18
00028 suncat0163 pw.x -npool 4 -i  Done                     04/18/2018 19:26:18
00029 suncat0163 pw.x -npool 4 -i  Done                     04/18/2018 19:26:18
00030 suncat0163 pw.x -npool 4 -i  Done                     04/18/2018 19:26:18
00031 suncat0163 pw.x -npool 4 -i  Done                     04/18/2018 19:26:18