     Program PWSCF v.5.1rc2 (svn rev. ) starts on 17Apr2018 at  8:35:47

     Current dimensions of program PWSCF are:
     Max number of different atomic species (ntypx) = 10
     Max number of k-points (npk) =  40000
     Max angular momentum in pseudopotentials (lmaxx) =  3
     Presently stress not available with electric field

     IMPORTANT: XC functional enforced from input :
     Exchange-correlation      = BEEF-VDW ( 1  4 27 13 2)
     Any further DFT definition will be discarded
     Please, verify this is what you really want

     Subspace diagonalization in iterative solution of the eigenvalue problem:
     a serial algorithm will be used

     bravais-lattice index     =            0
     lattice parameter (alat)  =       1.8897  a.u.
     unit-cell volume          =    3807.2308 (a.u.)^3
     number of atoms/cell      =           14
     number of atomic types    =            3
     number of electrons       =       233.00
     number of Kohn-Sham states=          126
     kinetic-energy cutoff     =      36.7493  Ry
     charge density cutoff     =     367.4932  Ry
     convergence threshold     =      1.0E-05
     mixing beta               =       0.3000
     number of iterations used =           10  plain     mixing
     Exchange-correlation      = BEEF-VDW ( 1  4 27 13 2)
     nstep                     =           50

     celldm(1)=   1.889726  celldm(2)=   0.000000  celldm(3)=   0.000000
     celldm(4)=   0.000000  celldm(5)=   0.000000  celldm(6)=   0.000000

     crystal axes: (cart. coord. in units of alat)
               a(1) = (   5.184823   0.000000   0.000000 )
               a(2) = (   2.592411   4.490188   0.000000 )
               a(3) = (   0.000000   0.000000  24.233390 )

     reciprocal axes: (cart. coord. in units 2 pi/alat)
               b(1) = (  0.192871 -0.111354  0.000000 )
               b(2) = (  0.000000  0.222708  0.000000 )
               b(3) = (  0.000000  0.000000  0.041265 )

     PseudoPot. # 1 for Cu read from file:
     /home/mamunm/src/pseudo/gbrv1.5pbe/Cu.UPF
     MD5 check sum: 6e991ff952a84172a2a52a1c1e996048
     Pseudo is Ultrasoft + core correction, Zval = 19.0
     Generated by new atomic code, or converted to UPF format
     Using radial grid of  867 points,  6 beta functions with:
                l(1) =   0
                l(2) =   0
                l(3) =   1
                l(4) =   1
                l(5) =   2
                l(6) =   2
     Q(r) pseudized with  8 coefficients,  rinner =    1.150   1.150   1.150
                                                       1.150   1.150

     PseudoPot. # 2 for C  read from file:
     /home/mamunm/src/pseudo/gbrv1.5pbe/C.UPF
     MD5 check sum: d1aef80898a10debaa0f26306b886e00
     Pseudo is Ultrasoft + core correction, Zval =  4.0
     Generated by new atomic code, or converted to UPF format
     Using radial grid of  721 points,  4 beta functions with:
                l(1) =   0
                l(2) =   0
                l(3) =   1
                l(4) =   1
     Q(r) pseudized with  8 coefficients,  rinner =    1.100   1.100   1.100

     PseudoPot. # 3 for H  read from file:
     /home/mamunm/src/pseudo/gbrv1.5pbe/H.UPF
     MD5 check sum: 761ae9a214b05c3daf00ab9f6b793d6f
     Pseudo is Ultrasoft, Zval =  1.0
     Generated by new atomic code, or converted to UPF format
     Using radial grid of  615 points,  2 beta functions with:
                l(1) =   0
                l(2) =   0
     Q(r) pseudized with  8 coefficients,  rinner =    0.700

     vdW kernel table read from file vdW_kernel_table
     MD5 check sum: 095c7af220d748ca6e76c0b4c6cfb241

     atomic species   valence    mass     pseudopotential
        Cu1           19.00    63.54600     Cu( 1.00)
        C1             4.00    12.01100     C ( 1.00)
        H1             1.00     1.00800     H ( 1.00)

     No symmetry found

   Cartesian axes

     site n.     atom                  positions (alat units)
         1           Cu1 tau(   1) = (   1.2962057   0.7483647  10.0000000  )
         2           Cu1 tau(   2) = (   3.8886170   0.7483647  10.0000000  )
         3           Cu1 tau(   3) = (   2.5924113   2.9934587  10.0000000  )
         4           Cu1 tau(   4) = (   5.1848226   2.9934587  10.0000000  )
         5           Cu1 tau(   5) = (   5.1848226   1.4967294  12.1166950  )
         6           Cu1 tau(   6) = (   2.5924113   1.4967294  12.1166950  )
         7           Cu1 tau(   7) = (   6.4810283   3.7418234  12.1166950  )
         8           Cu1 tau(   8) = (   3.8886170   3.7418234  12.1166950  )
         9           Cu1 tau(   9) = (   0.0000000   0.0000000  14.2333899  )
        10           Cu1 tau(  10) = (   2.5924113   0.0000000  14.2333899  )
        11           Cu1 tau(  11) = (   1.2962057   2.2450940  14.2333899  )
        12           Cu1 tau(  12) = (   3.8886170   2.2450940  14.2333899  )
        13           C1  tau(  13) = (   2.5924113   1.4967294  15.5853899  )
        14           H1  tau(  14) = (   2.5924113   1.4967294  16.6853899  )

     number of k points=    20  Fermi-Dirac smearing, width (Ry)=  0.0110
                       cart. coord. in units 2pi/alat
        k(    1) = (   0.0000000   0.0000000   0.0000000), wk =   0.0555556
        k(    2) = (   0.0000000   0.0371180   0.0000000), wk =   0.1111111
        k(    3) = (   0.0000000   0.0742359   0.0000000), wk =   0.1111111
        k(    4) = (   0.0000000  -0.1113539   0.0000000), wk =   0.0555556
        k(    5) = (   0.0321451  -0.0185590   0.0000000), wk =   0.1111111
        k(    6) = (   0.0321451   0.0185590   0.0000000), wk =   0.1111111
        k(    7) = (   0.0321451   0.0556770   0.0000000), wk =   0.1111111
        k(    8) = (   0.0321451  -0.1299129   0.0000000), wk =   0.1111111
        k(    9) = (   0.0321451  -0.0927949   0.0000000), wk =   0.1111111
        k(   10) = (   0.0321451  -0.0556770   0.0000000), wk =   0.1111111
        k(   11) = (   0.0642902  -0.0371180   0.0000000), wk =   0.1111111
        k(   12) = (   0.0642902  -0.0000000   0.0000000), wk =   0.1111111
        k(   13) = (   0.0642902   0.0371180   0.0000000), wk =   0.1111111
        k(   14) = (   0.0642902  -0.1484719   0.0000000), wk =   0.1111111
        k(   15) = (   0.0642902  -0.1113539   0.0000000), wk =   0.1111111
        k(   16) = (   0.0642902  -0.0742359   0.0000000), wk =   0.1111111
        k(   17) = (  -0.0964353   0.0556770   0.0000000), wk =   0.0555556
        k(   18) = (  -0.0964353   0.0927949   0.0000000), wk =   0.1111111
        k(   19) = (  -0.0964353   0.1299129   0.0000000), wk =   0.1111111
        k(   20) = (  -0.0964353  -0.0556770   0.0000000), wk =   0.0555556

     Largest allocated arrays     est. size (Mb)     dimensions
     Largest temporary arrays     est. size (Mb)     dimensions

     Initial potential from superposition of free atoms
     Check: negative starting charge=   -0.000133

     starting charge  220.99993, renormalised to  233.00000

     negative rho (up, down):  1.403E-04 0.000E+00

     *
     * You are using vdW-DF for exchange-correlation in this calculation.
     * Please cite the following three references that made this development
     * possible:
     *
     *   M. Dion, H. Rydberg, E. Schroder, D. C. Langreth, and
     *   B. I. Lundqvist, Phys. Rev. Lett. 92, 246401 (2004).
     *
     *   T. Thonhauser, V. R. Cooper, S. Li, A. Puzder, P. Hyldgaard, and
     *   D. C. Langreth, Phys. Rev. B 76, 125112 (2007).
     *
     *   G. Roman-Perez and J. M. Soler, Phys. Rev. Lett. 103, 096102 (2009).
     *
     *
     * If you are using vdW-DF2, please also cite:
     *
     *   K. Lee, E. D. Murray, L. Kong, B. I. Lundqvist, and
     *   D. C. Langreth, Phys. Rev. B 82, 081101(R) (2010).
     *
     *
     * If you are calculating the stress with vdW-DF, please also cite:
     *
     *   R. Sabatini, E. Kucukbenli, B. Kolb, T. Thonhauser, and
     *   S. de Gironcoli, J. Phys.: Condens. Matter 24, 424209 (2012).
     *

     Carrying out vdW-DF run using the following parameters:

     Nqs =      20    Nr_points =    1024   r_max =   100.000
     q_mesh =
               0.00001000     0.04494208     0.09755937     0.15916263
               0.23128650     0.31572767     0.41458969     0.53033537
               0.66584808     0.82450364     1.01025438     1.22772762
               1.48234092     1.78043706     2.12944203     2.53805004
               3.01644009     3.57652955     4.23227104     5.00000000

     Gradients computed in reciprocal space

     Adding external electric field

     Computed dipole along edir(3) :
        Dipole               -1.8921 Ry au,         -4.8093 Debye
        Dipole field         -0.0062 Ry au

        Potential amp.        0.5577 Ry
        Total length         44.6496 bohr

     Starting wfc are  161 randomized atomic wfcs

     Self-consistent Calculation

     iteration #  1     ecut=    36.75 Ry     beta=0.30
     Davidson diagonalization with overlap
     ethr =  1.00E-02,  avg # of iterations =  7.5

[...]

     total energy              =   -4650.84400403 Ry
     Harris-Foulkes estimate   =   -4876.37985299 Ry
     estimated scf accuracy    <     473.09175206 Ry

     iteration #  2     ecut=    36.75 Ry     beta=0.30
     Davidson diagonalization with overlap
     c_bands:  2 eigenvalues not converged
     c_bands:  4 eigenvalues not converged
     c_bands:  2 eigenvalues not converged
     c_bands:  1 eigenvalues not converged
     c_bands:  1 eigenvalues not converged
     c_bands:  2 eigenvalues not converged
     c_bands:  2 eigenvalues not converged
     c_bands:  2 eigenvalues not converged
     c_bands:  3 eigenvalues not converged
     c_bands:  1 eigenvalues not converged
     c_bands:  3 eigenvalues not converged
     ethr =  1.00E-02,  avg # of iterations = 19.9

[...]

     End of self-consistent calculation

          k = 0.0000 0.0000 0.0000 ( 14321 PWs)   bands (ev):

  -112.2181-112.2129-112.2113-112.1181-112.1127-112.1122-111.9994-111.8430
  -111.8374-111.8365-111.8148-111.6517 -69.7166 -69.6878 -69.6861 -69.5953
   -69.5938 -69.5694 -69.5472 -69.5400 -69.5399 -69.5395 -69.5099 -69.5088
   -69.5056 -69.5047 -69.5010 -69.5008 -69.4796 -69.4792 -69.3976 -69.3976
   -69.3889 -69.2977 -69.2899 -69.2895 -69.2445 -69.2415 -69.2409 -69.2192
   -69.2190 -69.1938 -69.1889 -69.1880 -69.1631 -69.0765 -69.0764 -69.0163
   -10.6936  -7.7380  -6.1422  -5.0046  -4.2631  -4.1255  -4.1254  -4.0682
    -3.9123  -3.9122  -3.7009  -3.6309  -3.6307  -3.5245  -3.4814  -3.4813
    -3.2253  -2.9967  -2.9966  -2.6813  -2.6808  -2.6744  -2.5271  -2.5025
    -2.5024  -2.4048  -2.3789  -2.3789  -2.3006  -2.2838  -2.2835  -2.1913
    -2.1911  -2.1509  -2.1454  -2.1453  -1.9249  -1.8676  -1.8672  -1.7459
    -1.6690  -1.6686  -1.5930  -1.5928  -1.4248  -1.4246  -1.3292  -1.3287
    -1.3245  -1.2707  -1.2211  -1.2208  -1.2007  -1.1614  -1.1612  -1.1306
    -1.1095  -1.1094  -1.1091  -0.9984  -0.9980  -0.9068  -0.8979  -0.8976
    -0.4332   0.2065   0.2067   0.6948   0.8400   0.8401   1.2343   1.8658
     1.8659   1.9577   2.2479   2.2479   3.8496   4.4489

[...]

          k =-0.0964 0.0557 0.0000 ( 14294 PWs)   bands (ev):

[...]

     the Fermi energy is     0.5292 ev

!    total energy              =   -4871.89223844 Ry
     Harris-Foulkes estimate   =   -4871.89224004 Ry
     estimated scf accuracy    <       0.00000730 Ry

     The total energy is the sum of the following terms:

     one-electron contribution =  -37721.12520202 Ry
     hartree contribution      =   18876.57766618 Ry
     xc contribution           =    -484.32087476 Ry
     ewald contribution        =   14457.00388552 Ry
     electric field correction =       0.00000158 Ry
     smearing contrib. (-TS)   =      -0.02771494 Ry

     convergence has been achieved in  32 iterations

 BEEF-vdW xc energy contributions
           1 :   -429.124726625236
           2 :    389.062749827729
           3 :   -321.184720956499
           4 :    244.138386183753
           5 :   -174.916412211542
           6 :    122.781689405754
           7 :   -87.7927920206512
           8 :    63.9104322164557
           9 :   -44.2668749281610
          10 :    25.3485998505898
          11 :   -7.98874222144684
          12 :   -4.72075537788464
          13 :    10.6313891123037
          14 :   -10.5338986111923
          15 :    7.77723647779646
          16 :   -6.08564810585642
          17 :    7.28337356966222
          18 :   -10.4953763978008
          19 :    13.2118529194486
          20 :   -13.3126894773520
          21 :    10.5894133020563
          22 :   -6.78012594175334
          23 :    4.23141396668211
          24 :   -4.23243467523366
          25 :    6.20162549862260
          26 :   -8.22885422923571
          27 :    8.50258226193091
          28 :   -6.57493340555993
          29 :    3.59627900923914
          30 :   -1.41793023030232
          31 :   -34.3439560979721
          32 :   -23.4908463661729

     Forces acting on atoms (Ry/au):

     negative rho (up, down):  1.049E-03 0.000E+00
     atom    1 type  1   force =    -0.00032949   -0.00007665    0.00454185
     atom    2 type  1   force =     0.00043307   -0.00021936    0.00557284
     atom    3 type  1   force =    -0.00006958    0.00041075    0.00568329
     atom    4 type  1   force =     0.00000212   -0.00003122    0.00109620
     atom    5 type  1   force =     0.00001447    0.00313924    0.00311496
     atom    6 type  1   force =    -0.00008319    0.00011419   -0.01588380
     atom    7 type  1   force =    -0.00263500   -0.00161945    0.00294798
     atom    8 type  1   force =     0.00257406   -0.00155607    0.00289325
     atom    9 type  1   force =    -0.00003442    0.00005226   -0.00060860
     atom   10 type  1   force =    -0.00002366    0.00654061    0.02482087
     atom   11 type  1   force =     0.00589794   -0.00345262    0.02465249
     atom   12 type  1   force =    -0.00568498   -0.00332929    0.02474036
     atom   13 type  2   force =    -0.00003876    0.00002508   -0.07099913
     atom   14 type  3   force =    -0.00002258    0.00000254   -0.01257256

     Total force =     0.084665     Total SCF correction =     0.007272

     entering subroutine stress ...

     negative rho (up, down):  1.049E-03 0.000E+00
          total   stress  (Ry/bohr**3)                   (kbar)     P=  -31.83
  -0.00022372  -0.00000002   0.00000005        -32.91     -0.00      0.01
  -0.00000002  -0.00022377  -0.00000009         -0.00    -32.92     -0.01
   0.00000005  -0.00000009  -0.00020165          0.01     -0.01    -29.66

     BFGS Geometry Optimization

     number of scf cycles    =   1
     number of bfgs steps    =   0

     energy   new            =   -4871.8922384372 Ry

     new trust radius        =       0.0709991462 bohr
     new conv_thr            =       0.0000099958 Ry

ATOMIC_POSITIONS (crystal)
Cu1      0.166666667   0.166666667   0.412653782    0   0   0
Cu1      0.666666667   0.166666667   0.412653782    0   0   0
Cu1      0.166666667   0.666666667   0.412653782    0   0   0
Cu1      0.666666667   0.666666667   0.412653782    0   0   0
Cu1      0.833333333   0.333333333   0.500000000    0   0   0
Cu1      0.333333333   0.333333333   0.500000000    0   0   0
Cu1      0.833333333   0.833333333   0.500000000    0   0   0
Cu1      0.333333333   0.833333333   0.500000000    0   0   0
Cu1     -0.000006593   0.000006159   0.587332928
Cu1      0.499612174   0.000770823   0.587888224
Cu1      0.000805408   0.499593103   0.587884547
Cu1      0.499615957   0.499607637   0.587886466
C1       0.333327899   0.333336289   0.641586623
H1       0.333330879   0.333333633   0.688254382

     Writing output data file calc.save
     Check: negative starting charge=   -0.000133
     NEW-OLD atomic charge density approx. for the potential
     Check: negative starting charge=   -0.000133

[...]

     Total force =     0.060029     Total SCF correction =     0.007291
     SCF correction compared to forces is large: reduce conv_thr to get better values

[...]

     energy   old            =   -4871.8922384372 Ry
     energy   new            =   -4871.8974242768 Ry

     CASE: energy  _new < energy  _old

[...]

     WARNING: bfgs curvature condition failed, Theta= 0.990
     new trust radius        =       0.0048026453 bohr
     new conv_thr            =       0.0000001000 Ry

[...]

     Total force =     0.007989     Total SCF correction =     0.000746

[...]

     number of scf cycles    =  14
     number of bfgs steps    =  13

     energy   old            =   -4871.9090957260 Ry
     energy   new            =   -4871.9091375406 Ry

     CASE: energy  _new < energy  _old

     new trust radius        =       0.0010882753 bohr
     new conv_thr            =       0.0000001000 Ry

ATOMIC_POSITIONS (crystal)
Cu1      0.166666667   0.166666667   0.412653782    0   0   0
Cu1      0.666666667   0.166666667   0.412653782    0   0   0
Cu1      0.166666667   0.666666667   0.412653782    0   0   0
Cu1      0.666666667   0.666666667   0.412653782    0   0   0
Cu1      0.833333333   0.333333333   0.500000000    0   0   0
Cu1      0.333333333   0.333333333   0.500000000    0   0   0
Cu1      0.833333333   0.833333333   0.500000000    0   0   0
Cu1      0.333333333   0.833333333   0.500000000    0   0   0
Cu1      0.000039052  -0.000034965   0.587714967
Cu1      0.504686576  -0.009349237   0.588671626
Cu1     -0.009361789   0.504673923   0.588676345
Cu1      0.504687057   0.504658600   0.588673183
C1       0.333327822   0.333329939   0.635331074
H1       0.333314283   0.333347823   0.680490572

     Writing output data file calc.save
     Check: negative starting charge=   -0.000138
     NEW-OLD atomic charge density approx. for the potential
     Check: negative starting charge=   -0.000138

[...]

     Self-consistent Calculation

[...]

     Threshold (ethr) on eigenvalues was too large:
     Diagonalizing with lowered threshold

     Davidson diagonalization with overlap
     ethr =  1.42E-08,  avg # of iterations =  2.0

[...]

     total energy              =   -4871.90914129 Ry
     Harris-Foulkes estimate   =   -4871.90914133 Ry
     estimated scf accuracy    <       0.00000027 Ry

     iteration #  5     ecut=    36.75 Ry     beta=0.30
     Davidson diagonalization with overlap
     ethr =  1.17E-10,  avg # of iterations =  3.1

[...]

     negative rho (up, down):  1.095E-03 0.000E+00

     Adding external electric field

     Computed dipole along edir(3) :
        Dipole                0.0339 Ry au,          0.0861 Debye
        Dipole field          0.0001 Ry au

        Potential amp.       -0.0100 Ry
        Total length         44.6496 bohr

     End of self-consistent calculation

[...]

          k = 0.0643-0.0742 0.0000 ( 14299 PWs)   bands (ev):

[...]

          k =-0.0964-0.0557 0.0000 ( 14294 PWs)   bands (ev):

  -112.3479-112.3449-112.3433-112.0746-112.0728-112.0709-111.9439-111.8031
  -111.8014-111.7994-111.7822-111.6425 -69.8860 -69.8699 -69.8593 -69.6994
   -69.6936 -69.6822 -69.6360 -69.6241 -69.6154 -69.4951 -69.4841 -69.4763
   -69.4755 -69.4668 -69.4619 -69.4588 -69.4585 -69.4431 -69.3520 -69.3476
   -69.3326 -69.2474 -69.2386 -69.2253 -69.2243 -69.2205 -69.2063 -69.2006
   -69.1892 -69.1541 -69.1526 -69.1508 -69.1304 -69.0677 -69.0668 -69.0112
   -10.9472  -6.1654  -6.0133  -5.4050  -4.6188  -4.1062  -3.8482  -3.8180
    -3.6068  -3.5494  -3.5170  -3.4136  -3.3937  -3.1838  -3.1785  -3.1401
    -3.0639  -3.0197  -2.9729  -2.9204  -2.7911  -2.7835  -2.7561  -2.7321
    -2.6945  -2.6480  -2.5342  -2.5154  -2.4978  -2.3693  -2.3615  -2.2969
    -2.2958  -2.2167  -2.1778  -2.1495  -2.1219  -2.1038  -2.0740  -2.0600
    -2.0446  -2.0284  -1.8800  -1.8420  -1.8195  -1.7857  -1.7603  -1.7398
    -1.7278  -1.6764  -1.6238  -1.5787  -1.4981  -1.4646  -1.4415  -1.4363
    -1.3765  -1.3751  -1.2694  -1.2657  -1.1590  -1.1329  -1.1286  -1.0643
    -1.0139  -0.2727  -0.0720   0.1200   0.5606   0.7758   1.2840   2.1197
     2.4079   2.8931   3.7119   4.4029   4.9409   5.6707

     the Fermi energy is     0.5783 ev

!    total energy              =   -4871.90914135 Ry
     Harris-Foulkes estimate   =   -4871.90914137 Ry
     estimated scf accuracy    <       0.00000009 Ry

     The total energy is the sum of the following terms:

     one-electron contribution =  -37680.56654084 Ry
     hartree contribution      =   18856.30858477 Ry
     xc contribution           =    -484.40227048 Ry
     ewald contribution        =   14436.77681952 Ry
     electric field correction =       0.00000379 Ry
     smearing contrib. (-TS)   =      -0.02573810 Ry

     convergence has been achieved in   5 iterations

 BEEF-vdW xc energy contributions
           1 :   -429.210252835435
           2 :    389.178196137928
           3 :   -321.325968179770
           4 :    244.266846520920
           5 :   -174.986101171965
           6 :    122.770001593133
           7 :   -87.7163516249298
           8 :    63.8160607699256
           9 :   -44.2035521111346
          10 :    25.3387073706495
          11 :   -8.01683780001332
          12 :   -4.69460246066615
          13 :    10.6430015883116
          14 :   -10.5900677322888
          15 :    7.85076958704195
          16 :   -6.13362705071455
          17 :    7.27546376948425
          18 :   -10.4332181847591
          19 :    13.1273744898838
          20 :   -13.2470125384827
          21 :    10.5663378981239
          22 :   -6.79131785352268
          23 :    4.24310319950933
          24 :   -4.20941379142806
          25 :    6.13231082001977
          26 :   -8.13423764076316
          27 :    8.42294142764632
          28 :   -6.54264770781498
          29 :    3.61260511448205
          30 :   -1.45029367970176
          31 :   -34.3503232888422
          32 :   -23.5021008525474

     Forces acting on atoms (Ry/au):

     negative rho (up, down):  1.095E-03 0.000E+00
     atom    1 type  1   force =    -0.00041865   -0.00023914    0.00309627
     atom    2 type  1   force =     0.00041546   -0.00023935    0.00309541
     atom    3 type  1   force =    -0.00000181    0.00048313    0.00309618
     atom    4 type  1   force =    -0.00000178    0.00000181   -0.00046758
     atom    5 type  1   force =     0.00000106    0.00267848    0.00191707
     atom    6 type  1   force =    -0.00000525    0.00000443   -0.01218177
     atom    7 type  1   force =    -0.00232006   -0.00134199    0.00191382
     atom    8 type  1   force =     0.00232141   -0.00134066    0.00190887
     atom    9 type  1   force =     0.00001123   -0.00002780   -0.00084541
     atom   10 type  1   force =    -0.00000069   -0.00011643   -0.00061081
     atom   11 type  1   force =    -0.00010248    0.00006701   -0.00060470
     atom   12 type  1   force =     0.00009934    0.00006881   -0.00061259
     atom   13 type  2   force =     0.00000146    0.00000534    0.00169058
     atom   14 type  3   force =     0.00000076   -0.00000365   -0.00139535

     Total force =     0.002584     Total SCF correction =     0.002463
     SCF correction compared to forces is large: reduce conv_thr to get better values

     entering subroutine stress ...

     negative rho (up, down):  1.095E-03 0.000E+00
          total   stress  (Ry/bohr**3)                   (kbar)     P=  -20.25
  -0.00015508  -0.00000001   0.00000000        -22.81     -0.00      0.00
  -0.00000001  -0.00015510   0.00000000         -0.00    -22.82      0.00
   0.00000000   0.00000000  -0.00010284          0.00      0.00    -15.13

     bfgs converged in  15 scf cycles and  14 bfgs steps
     (criteria: energy <  1.0E+00, force <  1.9E-03)

     End of BFGS Geometry Optimization

     Final energy   =   -4871.9091413481 Ry
Begin final coordinates

ATOMIC_POSITIONS (crystal)
Cu1      0.166666667   0.166666667   0.412653782    0   0   0
Cu1      0.666666667   0.166666667   0.412653782    0   0   0
Cu1      0.166666667   0.666666667   0.412653782    0   0   0
Cu1      0.666666667   0.666666667   0.412653782    0   0   0
Cu1      0.833333333   0.333333333   0.500000000    0   0   0
Cu1      0.333333333   0.333333333   0.500000000    0   0   0
Cu1      0.833333333   0.833333333   0.500000000    0   0   0
Cu1      0.333333333   0.833333333   0.500000000    0   0   0
Cu1      0.000039052  -0.000034965   0.587714967
Cu1      0.504686576  -0.009349237   0.588671626
Cu1     -0.009361789   0.504673923   0.588676345
Cu1      0.504687057   0.504658600   0.588673183
C1       0.333327822   0.333329939   0.635331074
H1       0.333314283   0.333347823   0.680490572
End final coordinates

     Writing output data file calc.save

     General routines

     Parallel routines

   This run was terminated on:   9:22: 0  17Apr2018

   JOB DONE.