     Program PWSCF v.5.1rc2 (svn rev. ) starts on 22Feb2018 at 14:33:49

     Current dimensions of program PWSCF are:
     Max number of different atomic species (ntypx) = 10
     Max number of k-points (npk) =  40000
     Max angular momentum in pseudopotentials (lmaxx) =  3
     Presently stress not available with electric field

     IMPORTANT: XC functional enforced from input :
     Exchange-correlation      = BEEF-VDW ( 1  4 27 13 2)
     Any further DFT definition will be discarded
     Please, verify this is what you really want

     Subspace diagonalization in iterative solution of the eigenvalue problem:
     a serial algorithm will be used

     bravais-lattice index     =            0
     lattice parameter (alat)  =       1.8897  a.u.
     unit-cell volume          =    7276.7660 (a.u.)^3
     number of atoms/cell      =           13
     number of atomic types    =            2
     number of electrons       =       181.00
     number of Kohn-Sham states=          100
     kinetic-energy cutoff     =      36.7493  Ry
     charge density cutoff     =     367.4932  Ry
     convergence threshold     =      1.0E-05
     mixing beta               =       0.3000
     number of iterations used =           10  plain     mixing
     Exchange-correlation      = BEEF-VDW ( 1  4 27 13 2)
     nstep                     =           50

     celldm(1)=   1.889726  celldm(2)=   0.000000  celldm(3)=   0.000000
     celldm(4)=   0.000000  celldm(5)=   0.000000  celldm(6)=   0.000000

     crystal axes: (cart. coord. in units of alat)
               a(1) = (   6.962526   0.000000   0.000000 )
               a(2) = (   3.481263   6.029724   0.000000 )
               a(3) = (   0.000000   0.000000  25.684879 )

     reciprocal axes: (cart. coord. in units 2 pi/alat)
               b(1) = (  0.143626 -0.082923  0.000000 )
               b(2) = (  0.000000  0.165845  0.000000 )
               b(3) = (  0.000000  0.000000  0.038933 )

     PseudoPot. # 1 for Bi read from file:
     /home/mamunm/src/pseudo/gbrv1.5pbe/Bi.UPF
     MD5 check sum: 81103212dc04adf40945787f699eab19
     Pseudo is Ultrasoft + core correction, Zval = 15.0
     Generated by new atomic code, or converted to UPF format
     Using radial grid of  899 points,  6 beta functions with:
                l(1) =   0
                l(2) =   0
                l(3) =   1
                l(4) =   1
                l(5) =   2
                l(6) =   2
     Q(r) pseudized with  6 coefficients,  rinner =    1.000   1.000   1.000
                                                       1.000   1.000

     PseudoPot. # 2 for H  read from file:
     /home/mamunm/src/pseudo/gbrv1.5pbe/H.UPF
     MD5 check sum: 761ae9a214b05c3daf00ab9f6b793d6f
     Pseudo is Ultrasoft, Zval =  1.0
     Generated by new atomic code, or converted to UPF format
     Using radial grid of  615 points,  2 beta functions with:
                l(1) =   0
                l(2) =   0
     Q(r) pseudized with  8 coefficients,  rinner =    0.700

     vdW kernel table read from file vdW_kernel_table
     MD5 check sum: 095c7af220d748ca6e76c0b4c6cfb241

     atomic species   valence    mass     pseudopotential
        Bi1           15.00   208.98040     Bi( 1.00)
        H1             1.00     1.00800     H ( 1.00)

     No symmetry found

   Cartesian axes

     site n.     atom                  positions (alat units)
         1           Bi1 tau(   1) = (   1.7406315   1.0049541  10.0000000  )
         2           Bi1 tau(   2) = (   5.2218945   1.0049541  10.0000000  )
         3           Bi1 tau(   3) = (   3.4812630   4.0198163  10.0000000  )
         4           Bi1 tau(   4) = (   6.9625260   4.0198163  10.0000000  )
         5           Bi1 tau(   5) = (   6.9625260   2.0099081  12.8424393  )
         6           Bi1 tau(   6) = (   3.4812630   2.0099081  12.8424393  )
         7           Bi1 tau(   7) = (   8.7031575   5.0247703  12.8424393  )
         8           Bi1 tau(   8) = (   5.2218945   5.0247703  12.8424393  )
         9           Bi1 tau(   9) = (   0.0000000   0.0000000  15.6848787  )
        10           Bi1 tau(  10) = (   3.4812630   0.0000000  15.6848787  )
        11           Bi1 tau(  11) = (   1.7406315   3.0148622  15.6848787  )
        12           Bi1 tau(  12) = (   5.2218945   3.0148622  15.6848787  )
        13           H1  tau(  13) = (   1.7406315   1.0049541  16.8483787  )

     number of k points=    20  Fermi-Dirac smearing, width (Ry)=  0.0110
                       cart. coord. in units 2pi/alat
        k(    1) = (   0.0000000   0.0000000   0.0000000), wk =   0.0555556
        k(    2) = (   0.0000000   0.0276408   0.0000000), wk =   0.1111111
        k(    3) = (   0.0000000   0.0552817   0.0000000), wk =   0.1111111
        k(    4) = (   0.0000000  -0.0829225   0.0000000), wk =   0.0555556
        k(    5) = (   0.0239377  -0.0138204   0.0000000), wk =   0.1111111
        k(    6) = (   0.0239377   0.0138204   0.0000000), wk =   0.1111111
        k(    7) = (   0.0239377   0.0414613   0.0000000), wk =   0.1111111
        k(    8) = (   0.0239377  -0.0967430   0.0000000), wk =   0.1111111
        k(    9) = (   0.0239377  -0.0691021   0.0000000), wk =   0.1111111
        k(   10) = (   0.0239377  -0.0414613   0.0000000), wk =   0.1111111
        k(   11) = (   0.0478753  -0.0276408   0.0000000), wk =   0.1111111
        k(   12) = (   0.0478753   0.0000000   0.0000000), wk =   0.1111111
        k(   13) = (   0.0478753   0.0276408   0.0000000), wk =   0.1111111
        k(   14) = (   0.0478753  -0.1105634   0.0000000), wk =   0.1111111
        k(   15) = (   0.0478753  -0.0829225   0.0000000), wk =   0.1111111
        k(   16) = (   0.0478753  -0.0552817   0.0000000), wk =   0.1111111
        k(   17) = (  -0.0718130   0.0414613   0.0000000), wk =   0.0555556
        k(   18) = (  -0.0718130   0.0691021   0.0000000), wk =   0.1111111
        k(   19) = (  -0.0718130   0.0967430   0.0000000), wk =   0.1111111
        k(   20) = (  -0.0718130  -0.0414613   0.0000000), wk =   0.0555556

     Largest allocated arrays     est. size (Mb)     dimensions
     Largest temporary arrays     est. size (Mb)     dimensions

     Check: negative/imaginary core charge=   -0.000001    0.000000

     Initial potential from superposition of free atoms
     Check: negative starting charge=   -0.503593

     starting charge  168.99949, renormalised to  181.00000

     negative rho (up, down):  5.394E-01 0.000E+00

     *
     * You are using vdW-DF for exchange-correlation in this calculation.
     * Please cite the following three references that made this development
     * possible:
     *
     *   M. Dion, H. Rydberg, E. Schroder, D. C. Langreth, and
     *   B. I. Lundqvist, Phys. Rev. Lett. 92, 246401 (2004).
     *
     *   T. Thonhauser, V. R. Cooper, S. Li, A. Puzder, P. Hyldgaard, and
     *   D. C. Langreth, Phys. Rev. B 76, 125112 (2007).
     *
     *   G. Roman-Perez and J. M. Soler, Phys. Rev. Lett. 103, 096102 (2009).
     *
     *
     * If you are using vdW-DF2, please also cite:
     *
     *   K. Lee, E. D. Murray, L. Kong, B. I. Lundqvist, and
     *   D. C. Langreth, Phys. Rev. B 82, 081101(R) (2010).
     *
     *
     * If you are calculating the stress with vdW-DF, please also cite:
     *
     *   R. Sabatini, E. Kucukbenli, B. Kolb, T. Thonhauser, and
     *   S. de Gironcoli, J. Phys.: Condens. Matter 24, 424209 (2012).
     *

     Carrying out vdW-DF run using the following parameters:

     Nqs =      20    Nr_points =    1024   r_max =   100.000
     q_mesh =
               0.00001000     0.04494208     0.09755937     0.15916263
               0.23128650     0.31572767     0.41458969     0.53033537
               0.66584808     0.82450364     1.01025438     1.22772762
               1.48234092     1.78043706     2.12944203     2.53805004
               3.01644009     3.57652955     4.23227104     5.00000000

     Gradients computed in reciprocal space

     Adding external electric field

     Computed dipole along edir(3) :
        Dipole               -0.5375 Ry au,         -1.3661 Debye
        Dipole field         -0.0009 Ry au

        Potential amp.        0.0878 Ry
        Total length         47.3240 bohr

     Starting wfc are  109 randomized atomic wfcs

     Self-consistent Calculation

     iteration #  1     ecut=    36.75 Ry     beta=0.30
     Davidson diagonalization with overlap
     ethr =  1.00E-02,  avg # of iterations =  4.2

[...]

     total energy              =   -2245.75450588 Ry
     Harris-Foulkes estimate   =   -2250.49260547 Ry
     estimated scf accuracy    <      10.31442026 Ry

[...]

     End of self-consistent calculation

          k = 0.0000 0.0000 0.0000 ( 27441 PWs)   bands (ev):

   -22.4562 -22.4483 -22.4483 -22.4003 -22.3992 -22.3887 -22.3887 -22.3842
   -22.3842 -22.3502 -22.3375 -22.3375 -22.3156 -22.3156 -22.2741 -22.2549
   -22.2437 -22.2437 -22.2231 -22.2174 -22.2174 -22.1978 -22.1977 -22.1637
   -22.1576 -22.1576 -22.1530 -22.1530 -22.1504 -22.1422 -22.1247 -22.1247
   -22.1067 -22.1067 -22.1061 -22.0952 -22.0952 -22.0950 -22.0797 -22.0797
   -22.0716 -22.0716 -22.0612 -22.0420 -22.0295 -22.0295 -22.0202 -22.0202
   -22.0173 -22.0070 -22.0070 -22.0045 -21.9952 -21.9952 -21.9945 -21.9847
   -21.9847 -21.9702 -21.9702 -21.9611 -12.2525 -11.1988 -10.0943  -9.4237
    -9.4237  -9.3710  -8.8601  -8.8601  -8.8598  -8.4732  -8.4732  -8.4708
    -4.2311  -3.6698  -3.6698  -3.4969  -3.0214  -2.7700  -2.7700  -2.6430
    -2.5440  -2.5440  -0.8213   0.4770   0.9030   0.9030   0.9758   1.0227
     1.0227   1.8562   2.0824   2.0824   2.0860   2.7079   3.1103   3.1103
     3.2246   3.2246   3.2639   4.1706

[...]

          k =-0.0718 0.0415 0.0000 ( 27378 PWs)   bands (ev):

[...]

     the Fermi energy is     1.3536 ev

!    total energy              =   -2246.92022273 Ry
     Harris-Foulkes estimate   =   -2246.92022130 Ry
     estimated scf accuracy    <       0.00000456 Ry

     The total energy is the sum of the following terms:

     one-electron contribution =  -10751.83887302 Ry
     hartree contribution      =    5430.10584602 Ry
     xc contribution           =    -799.68533944 Ry
     ewald contribution        =    3874.56096934 Ry
     electric field correction =       0.00000599 Ry
     smearing contrib. (-TS)   =      -0.06283162 Ry

     convergence has been achieved in  11 iterations

 BEEF-vdW xc energy contributions
           1 :   -713.111208703913
           2 :    662.956921912318
           3 :   -574.378974632440
           4 :    466.539194581747
           5 :   -359.671501645795
           6 :    269.170192200447
           7 :   -202.066304338661
           8 :    156.828496319108
           9 :   -126.170502648855
          10 :    101.401207566978
          11 :   -76.3799675427526
          12 :    49.5160527994394
          13 :   -23.3009088305378
          14 :    2.00940321569647
          15 :    11.0632905455047
          16 :   -15.4556523672184
          17 :    13.7221513870147
          18 :   -10.0714274668437
          19 :    8.30520396051315
          20 :   -10.1515146454988
          21 :    14.7790601657816
          22 :   -19.6244164990242
          23 :    21.9924236689346
          24 :   -20.5526701537740
          25 :    15.9835806460137
          26 :   -10.5129052503539
          27 :    6.67875079460850
          28 :   -6.00690305024034
          29 :    8.29219496053065
          30 :   -11.8171914677796
          31 :   -56.8474990908003
          32 :   -41.8635490691349

     Forces acting on atoms (Ry/au):

     negative rho (up, down):  5.268E-01 0.000E+00
     atom    1 type  1   force =     0.00000224    0.00000345   -0.00993749
     atom    2 type  1   force =    -0.00000455    0.00105608   -0.01083528
     atom    3 type  1   force =     0.00091416   -0.00053240   -0.01083219
     atom    4 type  1   force =    -0.00091174   -0.00052663   -0.01083515
     atom    5 type  1   force =    -0.00139217    0.00080509   -0.00545286
     atom    6 type  1   force =     0.00139149    0.00080544   -0.00546550
     atom    7 type  1   force =    -0.00000234    0.00000174    0.00141968
     atom    8 type  1   force =    -0.00000089   -0.00160112   -0.00545540
     atom    9 type  1   force =    -0.01022045   -0.00589972    0.01658680
     atom   10 type  1   force =     0.01022902   -0.00590838    0.01657018
     atom   11 type  1   force =    -0.00000659    0.01179968    0.01658985
     atom   12 type  1   force =     0.00000212   -0.00000400    0.01232516
     atom   13 type  2   force =    -0.00000030    0.00000078   -0.00467781

     Total force =     0.037640     Total SCF correction =     0.003077

     entering subroutine stress ...

     negative rho (up, down):  5.268E-01 0.000E+00
          total   stress  (Ry/bohr**3)                   (kbar)     P=    8.94
   0.00006098  -0.00000000   0.00000000          8.97     -0.00      0.00
  -0.00000000   0.00006098   0.00000000         -0.00      8.97      0.00
   0.00000000   0.00000000   0.00006028          0.00      0.00      8.87

     BFGS Geometry Optimization

     number of scf cycles    =   1
     number of bfgs steps    =   0

     energy   new            =   -2246.9202227269 Ry

     new trust radius        =       0.0203581861 bohr
     new conv_thr            =       0.0000099958 Ry

ATOMIC_POSITIONS (crystal)
Bi1      0.166666667   0.166666667   0.389334134    0   0   0
Bi1      0.666666667   0.166666667   0.389334134    0   0   0
Bi1      0.166666667   0.666666667   0.389334134    0   0   0
Bi1      0.666666667   0.666666667   0.389334134    0   0   0
Bi1      0.833333333   0.333333333   0.500000000    0   0   0
Bi1      0.333333333   0.333333333   0.500000000    0   0   0
Bi1      0.833333333   0.833333333   0.500000000    0   0   0
Bi1      0.333333333   0.833333333   0.500000000    0   0   0
Bi1     -0.000517907  -0.000517767   0.611007598
Bi1      0.501036707  -0.000518528   0.611007256
Bi1     -0.000518279   0.501035557   0.611007661
Bi1      0.500000337   0.499999649   0.610919797
H1       0.166666610   0.166666735   0.655868517

     Writing output data file calc.save
     Check: negative starting charge=   -0.503593
     NEW-OLD atomic charge density approx. for the potential

     Check: negative/imaginary core charge=   -0.000001    0.000000
     Check: negative starting charge=   -0.504596

[...]

     Total force =     0.033604     Total SCF correction =     0.004537
     SCF correction compared to forces is large: reduce conv_thr to get better values

[...]

     energy   old            =   -2246.9202227269 Ry
     energy   new            =   -2246.9214650447 Ry

     CASE: energy  _new < energy  _old

     WARNING: bfgs curvature condition failed, Theta= 0.898
     new trust radius        =       0.0305372792 bohr
     new conv_thr            =       0.0000001000 Ry

[...]

     iteration #  1     ecut=    36.75 Ry     beta=0.30
     Davidson diagonalization with overlap
     c_bands:  1 eigenvalues not converged
     ethr =  1.00E-06,  avg # of iterations =  9.4

[...]

     iteration #  1     ecut=    36.75 Ry     beta=0.30
     Davidson diagonalization with overlap
     c_bands:  1 eigenvalues not converged
     c_bands:  1 eigenvalues not converged
     c_bands:  1 eigenvalues not converged
     c_bands:  1 eigenvalues not converged
     c_bands:  1 eigenvalues not converged
     c_bands:  1 eigenvalues not converged
     ethr =  1.00E-06,  avg # of iterations = 12.8

[...]

     WARNING: bfgs curvature condition failed, Theta= 0.898
     new trust radius        =       0.0058683022 bohr
     new conv_thr            =       0.0000001000 Ry

[...]

     Total force =     0.002864     Total SCF correction =     0.000177

[...]

     number of scf cycles    =  20
     number of bfgs steps    =  19

     energy   old            =   -2246.9381654311 Ry
     energy   new            =   -2246.9383031967 Ry

     CASE: energy  _new < energy  _old

     new trust radius        =       0.0668436295 bohr
     new conv_thr            =       0.0000001000 Ry

ATOMIC_POSITIONS (crystal)
Bi1      0.166666667   0.166666667   0.389334134    0   0   0
Bi1      0.666666667   0.166666667   0.389334134    0   0   0
Bi1      0.166666667   0.666666667   0.389334134    0   0   0
Bi1      0.666666667   0.666666667   0.389334134    0   0   0
Bi1      0.833333333   0.333333333   0.500000000    0   0   0
Bi1      0.333333333   0.333333333   0.500000000    0   0   0
Bi1      0.833333333   0.833333333   0.500000000    0   0   0
Bi1      0.333333333   0.833333333   0.500000000    0   0   0
Bi1     -0.009773536  -0.009782082   0.624408687
Bi1      0.519568271  -0.009706054   0.624410641
Bi1     -0.009696374   0.519555926   0.624413610
Bi1      0.499994446   0.499988396   0.614638794
H1       0.166662450   0.166676519   0.655073591

     Writing output data file calc.save
     Check: negative starting charge=   -0.502953
     NEW-OLD atomic charge density approx. for the potential

     Check: negative/imaginary core charge=   -0.000001    0.000000
     Check: negative starting charge=   -0.503605

[...]

     Self-consistent Calculation

[...]

     total energy              =   -2246.93846966 Ry
     Harris-Foulkes estimate   =   -2246.93846976 Ry
     estimated scf accuracy    <       0.00000030 Ry

     iteration #  8     ecut=    36.75 Ry     beta=0.30
     Davidson diagonalization with overlap
     ethr =  1.67E-10,  avg # of iterations =  3.0

[...]

     negative rho (up, down):  5.266E-01 0.000E+00

     Adding external electric field

     Computed dipole along edir(3) :
        Dipole               -0.0932 Ry au,         -0.2369 Debye
        Dipole field         -0.0002 Ry au

        Potential amp.        0.0152 Ry
        Total length         47.3240 bohr

     End of self-consistent calculation

[...]

          k = 0.0479-0.0553 0.0000 ( 27352 PWs)   bands (ev):

[...]

          k =-0.0718-0.0415 0.0000 ( 27378 PWs)   bands (ev):

   -22.3710 -22.3664 -22.3265 -22.3214 -22.3151 -22.3116 -22.2969 -22.2961
   -22.2946 -22.2937 -22.2921 -22.2888 -22.2879 -22.2854 -22.2776 -22.2729
   -22.2672 -22.2640 -22.2293 -22.2248 -22.1559 -22.1494 -22.1340 -22.1127
   -22.1115 -22.1065 -22.0904 -22.0869 -22.0833 -22.0780 -22.0734 -22.0714
   -22.0703 -22.0671 -22.0669 -22.0638 -22.0613 -22.0588 -22.0543 -22.0494
   -22.0470 -22.0463 -22.0425 -22.0351 -22.0330 -22.0308 -22.0280 -22.0169
   -22.0101 -22.0094 -22.0080 -22.0042 -21.9999 -21.9940 -21.9908 -21.9901
   -21.9802 -21.9756 -21.9570 -21.9480 -11.0993 -11.0502 -10.3438 -10.1264
    -9.5051  -9.4571  -9.4392  -9.3816  -8.8436  -8.7720  -8.4445  -8.4268
    -3.0417  -2.1263  -2.0976  -2.0064  -1.9736  -1.9369  -1.7859  -1.3424
    -0.8481  -0.5787  -0.5380  -0.4949  -0.1061   0.3200   0.4695   0.6887
     0.7052   0.7989   0.8179   0.8414   1.0576   1.1006   1.5512   1.6608
     1.9706   2.0453   3.0350   3.2041

     the Fermi energy is     1.3381 ev

!    total energy              =   -2246.93846965 Ry
     Harris-Foulkes estimate   =   -2246.93846979 Ry
     estimated scf accuracy    <       0.00000004 Ry

     The total energy is the sum of the following terms:

     one-electron contribution =  -10323.37662709 Ry
     hartree contribution      =    5216.01567060 Ry
     xc contribution           =    -799.51757671 Ry
     ewald contribution        =    3660.00121227 Ry
     electric field correction =       0.00001500 Ry
     smearing contrib. (-TS)   =      -0.06116372 Ry

     convergence has been achieved in   8 iterations

 BEEF-vdW xc energy contributions
           1 :   -712.935959125143
           2 :    662.662147775330
           3 :   -573.916641458290
           4 :    465.968459531582
           5 :   -359.135219210749
           6 :    268.820323619042
           7 :   -201.979559147927
           8 :    156.960875031269
           9 :   -126.378015763196
          10 :    101.516196559276
          11 :   -76.3009514083725
          12 :    49.2619313564988
          13 :   -22.9993588916971
          14 :    1.82521516825454
          15 :    11.0212322573266
          16 :   -15.1975545615689
          17 :    13.3747223697283
          18 :   -9.81084304933597
          19 :    8.26213100446728
          20 :   -10.3396969009143
          21 :    15.0870303227157
          22 :   -19.8757878640583
          23 :    22.0418582395782
          24 :   -20.3652638631913
          25 :    15.6544480593087
          26 :   -10.2157982455526
          27 :    6.57113366126214
          28 :   -6.14347841338042
          29 :    8.59383630629759
          30 :   -12.1124482183866
          31 :   -56.8313951430139
          32 :   -41.8119466702806

     Forces acting on atoms (Ry/au):

     negative rho (up, down):  5.266E-01 0.000E+00
     atom    1 type  1   force =     0.00000238    0.00000094   -0.00613009
     atom    2 type  1   force =    -0.00000428   -0.00085710   -0.00465083
     atom    3 type  1   force =    -0.00074537    0.00042513   -0.00465146
     atom    4 type  1   force =     0.00073802    0.00042600   -0.00463614
     atom    5 type  1   force =     0.00418139   -0.00241938    0.00471979
     atom    6 type  1   force =    -0.00419081   -0.00241833    0.00472854
     atom    7 type  1   force =    -0.00000400   -0.00000293    0.00557010
     atom    8 type  1   force =    -0.00000546    0.00483110    0.00471960
     atom    9 type  1   force =     0.00055427    0.00032053   -0.00012624
     atom   10 type  1   force =    -0.00052099    0.00027840   -0.00013366
     atom   11 type  1   force =    -0.00001999   -0.00059358   -0.00013336
     atom   12 type  1   force =     0.00000692    0.00000305   -0.00091413
     atom   13 type  2   force =     0.00000791    0.00000615    0.00163788

     Total force =     0.002164     Total SCF correction =     0.000669
     SCF correction compared to forces is large: reduce conv_thr to get better values

     entering subroutine stress ...

     negative rho (up, down):  5.266E-01 0.000E+00
          total   stress  (Ry/bohr**3)                   (kbar)     P=    2.13
   0.00002130   0.00000001   0.00000000          3.13      0.00      0.00
   0.00000001   0.00002129   0.00000000          0.00      3.13      0.00
   0.00000000   0.00000000   0.00000090          0.00      0.00      0.13

     bfgs converged in  21 scf cycles and  20 bfgs steps
     (criteria: energy <  1.0E+00, force <  1.9E-03)

     End of BFGS Geometry Optimization

     Final energy   =   -2246.9384696496 Ry
Begin final coordinates

ATOMIC_POSITIONS (crystal)
Bi1      0.166666667   0.166666667   0.389334134    0   0   0
Bi1      0.666666667   0.166666667   0.389334134    0   0   0
Bi1      0.166666667   0.666666667   0.389334134    0   0   0
Bi1      0.666666667   0.666666667   0.389334134    0   0   0
Bi1      0.833333333   0.333333333   0.500000000    0   0   0
Bi1      0.333333333   0.333333333   0.500000000    0   0   0
Bi1      0.833333333   0.833333333   0.500000000    0   0   0
Bi1      0.333333333   0.833333333   0.500000000    0   0   0
Bi1     -0.009773536  -0.009782082   0.624408687
Bi1      0.519568271  -0.009706054   0.624410641
Bi1     -0.009696374   0.519555926   0.624413610
Bi1      0.499994446   0.499988396   0.614638794
H1       0.166662450   0.166676519   0.655073591
End final coordinates

     Writing output data file calc.save

     General routines

     Parallel routines

   This run was terminated on:  16: 9:12  22Feb2018

   JOB DONE.