     Program PWSCF v.5.1rc2 (svn rev. 11289) starts on 18Jan2018 at  6:38:18

     Current dimensions of program PWSCF are:
     Max number of different atomic species (ntypx) = 10
     Max number of k-points (npk) =  40000
     Max angular momentum in pseudopotentials (lmaxx) =  3
     Presently stress not available with electric field

     IMPORTANT: XC functional enforced from input :
     Exchange-correlation      = BEEF-VDW ( 1  4 27 13 2)
     Any further DFT definition will be discarded
     Please, verify this is what you really want

     Subspace diagonalization in iterative solution of the eigenvalue problem:
     a serial algorithm will be used

     bravais-lattice index     =            0
     lattice parameter (alat)  =       1.8897  a.u.
     unit-cell volume          =    4198.3539 (a.u.)^3
     number of atoms/cell      =           13
     number of atomic types    =            2
     number of electrons       =       196.00
     number of Kohn-Sham states=          108
     kinetic-energy cutoff     =      36.7493  Ry
     charge density cutoff     =     367.4932  Ry
     convergence threshold     =      1.0E-05
     mixing beta               =       0.3000
     number of iterations used =           10  plain     mixing
     Exchange-correlation      = BEEF-VDW ( 1  4 27 13 2)
     nstep                     =           50

     celldm(1)=   1.889726  celldm(2)=   0.000000  celldm(3)=   0.000000
     celldm(4)=   0.000000  celldm(5)=   0.000000  celldm(6)=   0.000000

     crystal axes: (cart. coord. in units of alat)
               a(1) = (   5.422927   0.000000   0.000000 )
               a(2) = (   2.711463   4.696392   0.000000 )
               a(3) = (   0.000000   0.000000  24.427801 )

     reciprocal axes: (cart. coord. in units 2 pi/alat)
               b(1) = (  0.184402 -0.106465  0.000000 )
               b(2) = (  0.000000  0.212929  0.000000 )
               b(3) = (  0.000000  0.000000  0.040937 )

     PseudoPot. # 1 for Ru read from file:
     /afs/slac.stanford.edu/u/if/mamunm/psp/gbrv1.5pbe/Ru.UPF
     MD5 check sum: 7158a806dd851261a58e6920c40ebe78
     Pseudo is Ultrasoft + core correction, Zval = 16.0
     Generated by new atomic code, or converted to UPF format
     Using radial grid of  967 points,  6 beta functions with:
                l(1) =   0
                l(2) =   0
                l(3) =   1
                l(4) =   1
                l(5) =   2
                l(6) =   2
     Q(r) pseudized with  8 coefficients,  rinner =    1.300   1.300   1.300
                                                       1.300   1.300

     PseudoPot. # 2 for C  read from file:
     /afs/slac.stanford.edu/u/if/mamunm/psp/gbrv1.5pbe/C.UPF
     MD5 check sum: d1aef80898a10debaa0f26306b886e00
     Pseudo is Ultrasoft + core correction, Zval =  4.0
     Generated by new atomic code, or converted to UPF format
     Using radial grid of  721 points,  4 beta functions with:
                l(1) =   0
                l(2) =   0
                l(3) =   1
                l(4) =   1
     Q(r) pseudized with  8 coefficients,  rinner =    1.100   1.100   1.100

     vdW kernel table read from file vdW_kernel_table
     MD5 check sum: 095c7af220d748ca6e76c0b4c6cfb241

     atomic species   valence    mass     pseudopotential
        Ru1           16.00   101.07000     Ru( 1.00)
        C1             4.00    12.01100     C ( 1.00)

     No symmetry found

   Cartesian axes

     site n.     atom                  positions (alat units)
         1           Ru1 tau(   1) = (   1.3557316   0.7827320  10.0000000  )
         2           Ru1 tau(   2) = (   4.0671949   0.7827320  10.0000000  )
         3           Ru1 tau(   3) = (   2.7114633   3.1309281  10.0000000  )
         4           Ru1 tau(   4) = (   5.4229265   3.1309281  10.0000000  )
         5           Ru1 tau(   5) = (   5.4229265   1.5654640  12.2139005  )
         6           Ru1 tau(   6) = (   2.7114633   1.5654640  12.2139005  )
         7           Ru1 tau(   7) = (   6.7786581   3.9136601  12.2139005  )
         8           Ru1 tau(   8) = (   4.0671949   3.9136601  12.2139005  )
         9           Ru1 tau(   9) = (   0.0000000   0.0000000  14.4278010  )
        10           Ru1 tau(  10) = (   2.7114633   0.0000000  14.4278010  )
        11           Ru1 tau(  11) = (   1.3557316   2.3481961  14.4278010  )
        12           Ru1 tau(  12) = (   4.0671949   2.3481961  14.4278010  )
        13           C1  tau(  13) = (   0.0000000   0.0000000  16.6478010  )

     number of k points=    20  Fermi-Dirac smearing, width (Ry)=  0.0110
                       cart. coord. in units 2pi/alat
        k(    1) = (   0.0000000   0.0000000   0.0000000), wk =   0.0555556
        k(    2) = (   0.0000000   0.0354882   0.0000000), wk =   0.1111111
        k(    3) = (   0.0000000   0.0709765   0.0000000), wk =   0.1111111
        k(    4) = (   0.0000000  -0.1064647   0.0000000), wk =   0.0555556
        k(    5) = (   0.0307337  -0.0177441   0.0000000), wk =   0.1111111
        k(    6) = (   0.0307337   0.0177441   0.0000000), wk =   0.1111111
        k(    7) = (   0.0307337   0.0532324   0.0000000), wk =   0.1111111
        k(    8) = (   0.0307337  -0.1242088   0.0000000), wk =   0.1111111
        k(    9) = (   0.0307337  -0.0887206   0.0000000), wk =   0.1111111
        k(   10) = (   0.0307337  -0.0532324   0.0000000), wk =   0.1111111
        k(   11) = (   0.0614674  -0.0354882   0.0000000), wk =   0.1111111
        k(   12) = (   0.0614674   0.0000000   0.0000000), wk =   0.1111111
        k(   13) = (   0.0614674   0.0354882   0.0000000), wk =   0.1111111
        k(   14) = (   0.0614674  -0.1419529   0.0000000), wk =   0.1111111
        k(   15) = (   0.0614674  -0.1064647   0.0000000), wk =   0.1111111
        k(   16) = (   0.0614674  -0.0709765   0.0000000), wk =   0.1111111
        k(   17) = (  -0.0922011   0.0532324   0.0000000), wk =   0.0555556
        k(   18) = (  -0.0922011   0.0887206   0.0000000), wk =   0.1111111
        k(   19) = (  -0.0922011   0.1242088   0.0000000), wk =   0.1111111
        k(   20) = (  -0.0922011  -0.0532324   0.0000000), wk =   0.0555556

     Largest allocated arrays     est. size (Mb)     dimensions
     Largest temporary arrays     est. size (Mb)     dimensions

     Initial potential from superposition of free atoms
     Check: negative starting charge=   -0.873587

     starting charge  183.99977, renormalised to  196.00000

     negative rho (up, down):  9.306E-01 0.000E+00

     *
     * You are using vdW-DF for exchange-correlation in this calculation.
     * Please cite the following three references that made this development
     * possible:
     *
     *   M. Dion, H. Rydberg, E. Schroder, D. C. Langreth, and
     *   B. I. Lundqvist, Phys. Rev. Lett. 92, 246401 (2004).
     *
     *   T. Thonhauser, V. R. Cooper, S. Li, A. Puzder, P. Hyldgaard, and
     *   D. C. Langreth, Phys. Rev. B 76, 125112 (2007).
     *
     *   G. Roman-Perez and J. M. Soler, Phys. Rev. Lett. 103, 096102 (2009).
     *
     *
     * If you are using vdW-DF2, please also cite:
     *
     *   K. Lee, E. D. Murray, L. Kong, B. I. Lundqvist, and
     *   D. C. Langreth, Phys. Rev. B 82, 081101(R) (2010).
     *
     *
     * If you are calculating the stress with vdW-DF, please also cite:
     *
     *   R. Sabatini, E. Kucukbenli, B. Kolb, T. Thonhauser, and
     *   S. de Gironcoli, J. Phys.: Condens. Matter 24, 424209 (2012).
     *

     Carrying out vdW-DF run using the following parameters:

     Nqs =      20    Nr_points =    1024   r_max =   100.000
     q_mesh =
               0.00001000     0.04494208     0.09755937     0.15916263
               0.23128650     0.31572767     0.41458969     0.53033537
               0.66584808     0.82450364     1.01025438     1.22772762
               1.48234092     1.78043706     2.12944203     2.53805004
               3.01644009     3.57652955     4.23227104     5.00000000

     Gradients computed in reciprocal space

     Adding external electric field

     Computed dipole along edir(3) :
        Dipole               -2.1855 Ry au,         -5.5549 Debye
        Dipole field         -0.0065 Ry au

        Potential amp.        0.5888 Ry
        Total length         45.0078 bohr

     Starting wfc are  160 randomized atomic wfcs

     Self-consistent Calculation

     iteration #  1     ecut=    36.75 Ry     beta=0.30
     Davidson diagonalization with overlap
     ethr =  1.00E-02,  avg # of iterations =  4.6

[...]

     total energy              =   -2265.96317644 Ry
     Harris-Foulkes estimate   =   -2355.60667396 Ry
     estimated scf accuracy    <     187.62249092 Ry

[...]

     End of self-consistent calculation

          k = 0.0000 0.0000 0.0000 ( 15761 PWs)   bands (ev):

   -71.1607 -71.0697 -71.0334 -71.0316 -70.8777 -70.6959 -70.6627 -70.6117
   -70.5984 -70.5978 -70.5829 -70.5826 -41.4397 -41.4389 -41.4030 -41.2747
   -41.1815 -41.1810 -41.1801 -41.0028 -41.0025 -40.9555 -40.8728 -40.8723
   -40.8686 -40.8315 -40.8148 -40.8142 -40.7784 -40.6871 -40.6868 -40.5955
   -40.5320 -40.5193 -40.5189 -40.5035 -40.5034 -40.4607 -40.4603 -40.4544
   -40.4284 -40.4171 -40.4170 -40.3998 -40.2965 -40.2964 -40.2483 -40.2483
    -6.5935  -4.5742  -3.4016  -3.4014  -3.3802  -3.2896  -3.1370  -3.0215
    -3.0211  -2.9969  -2.7903  -2.7899  -2.7663  -2.4197  -2.4196  -2.4039
    -1.3568  -1.3566  -1.2447  -0.6805  -0.6805  -0.6762  -0.4362  -0.2649
    -0.2649  -0.0815   0.1190   0.1190   0.1524   0.1527   0.1826   0.3814
     0.3814   0.5031   0.8924   0.8927   1.4405   1.4408   1.6997   1.7947
     1.7947   1.8024   1.9351   1.9351   1.9472   2.4404   2.4816   2.4816
     2.8376   2.8377   3.1018   3.1020   3.1857   3.2348   3.2348   3.2866
     3.3590   3.3591   3.6881   3.6887

[...]

          k =-0.0922 0.0532 0.0000 ( 15808 PWs)   bands (ev):

[...]

     the Fermi energy is     2.1231 ev

!    total energy              =   -2352.48045014 Ry
     Harris-Foulkes estimate   =   -2352.48043749 Ry
     estimated scf accuracy    <       0.00000865 Ry

     The total energy is the sum of the following terms:

     one-electron contribution =  -22045.80420187 Ry
     hartree contribution      =   11022.58855580 Ry
     xc contribution           =    -324.96355710 Ry
     ewald contribution        =    8995.79121946 Ry
     electric field correction =       0.00021868 Ry
     smearing contrib. (-TS)   =      -0.09268510 Ry

     convergence has been achieved in  23 iterations

 BEEF-vdW xc energy contributions
           1 :   -281.736077870434
           2 :    258.516592187573
           3 :   -218.366562311397
           4 :    171.259960877049
           5 :   -127.285807069438
           6 :    93.6133685365961
           7 :   -72.8773777772397
           8 :    63.3278569016555
           9 :   -60.4335006580783
          10 :    59.1375462440793
          11 :   -55.8257499017975
          12 :    49.3126279704716
          13 :   -40.6551830532715
          14 :    32.1056931726421
          15 :   -25.7960430593799
          16 :    22.7312498251701
          17 :   -22.4556764829941
          18 :    23.4387977068688
[...]

[...]

     Program PWSCF v.5.1rc2 (svn rev. 11289) starts on 18Jan2018 at  8: 9: 7

[...]

     Total force =     0.140132     Total SCF correction =     0.012196

[...]

     Program PWSCF v.5.1rc2 (svn rev. 11289) starts on 18Jan2018 at  8:45:44

[...]

     iteration #  2     ecut=    36.75 Ry     beta=0.30
     Davidson diagonalization with overlap
     c_bands:  1 eigenvalues not converged
     ethr =  1.00E-02,  avg # of iterations = 16.1

[...]

   This run was terminated on:   9: 2:42  18Jan2018

[...]

     Program PWSCF v.5.1rc2 (svn rev. 11289) starts on 18Jan2018 at  9: 2:48

     Current dimensions of program PWSCF are:
     Max number of different atomic species (ntypx) = 10
     Max number of k-points (npk) =  40000
     Max angular momentum in pseudopotentials (lmaxx) =  3
     Presently stress not available with electric field

     IMPORTANT: XC functional enforced from input :
     Exchange-correlation      = BEEF-VDW ( 1  4 27 13 2)
     Any further DFT definition will be discarded
     Please, verify this is what you really want

     Subspace diagonalization in iterative solution of the eigenvalue problem:
     a serial algorithm will be used

     bravais-lattice index     =            0
     lattice parameter (alat)  =       1.8897  a.u.
     unit-cell volume          =    4198.3539 (a.u.)^3
     number of atoms/cell      =           13
     number of atomic types    =            2
     number of electrons       =       196.00
     number of Kohn-Sham states=          108
     kinetic-energy cutoff     =      36.7493  Ry
     charge density cutoff     =     367.4932  Ry
     convergence threshold     =      1.0E-05
     mixing beta               =       0.3000
     number of iterations used =           10  plain     mixing
     Exchange-correlation      = BEEF-VDW ( 1  4 27 13 2)
     nstep                     =           50

     celldm(1)=   1.889726  celldm(2)=   0.000000  celldm(3)=   0.000000
     celldm(4)=   0.000000  celldm(5)=   0.000000  celldm(6)=   0.000000

     crystal axes: (cart. coord. in units of alat)
               a(1) = (   5.422927   0.000000   0.000000 )
               a(2) = (   2.711463   4.696392   0.000000 )
               a(3) = (   0.000000   0.000000  24.427801 )

     reciprocal axes: (cart. coord. in units 2 pi/alat)
               b(1) = (  0.184402 -0.106465  0.000000 )
               b(2) = (  0.000000  0.212929  0.000000 )
               b(3) = (  0.000000  0.000000  0.040937 )

     PseudoPot. # 1 for Ru read from file:
     /afs/slac.stanford.edu/u/if/mamunm/psp/gbrv1.5pbe/Ru.UPF
     MD5 check sum: 7158a806dd851261a58e6920c40ebe78
     Pseudo is Ultrasoft + core correction, Zval = 16.0
     Generated by new atomic code, or converted to UPF format
     Using radial grid of  967 points,  6 beta functions with:
                l(1) =   0
                l(2) =   0
                l(3) =   1
                l(4) =   1
                l(5) =   2
                l(6) =   2
     Q(r) pseudized with  8 coefficients,  rinner =    1.300   1.300   1.300
                                                       1.300   1.300

     PseudoPot. # 2 for C  read from file:
     /afs/slac.stanford.edu/u/if/mamunm/psp/gbrv1.5pbe/C.UPF
     MD5 check sum: d1aef80898a10debaa0f26306b886e00
     Pseudo is Ultrasoft + core correction, Zval =  4.0
     Generated by new atomic code, or converted to UPF format
     Using radial grid of  721 points,  4 beta functions with:
                l(1) =   0
                l(2) =   0
                l(3) =   1
                l(4) =   1
     Q(r) pseudized with  8 coefficients,  rinner =    1.100   1.100   1.100

     vdW kernel table read from file vdW_kernel_table
     MD5 check sum: 095c7af220d748ca6e76c0b4c6cfb241

     atomic species   valence    mass     pseudopotential
        Ru1           16.00   101.07000     Ru( 1.00)
        C1             4.00    12.01100     C ( 1.00)

     No symmetry found

   Cartesian axes

     site n.     atom                  positions (alat units)
         1           Ru1 tau(   1) = (   1.3557316   0.7827320  10.0000000  )
         2           Ru1 tau(   2) = (   4.0671949   0.7827320  10.0000000  )
         3           Ru1 tau(   3) = (   2.7114633   3.1309281  10.0000000  )
         4           Ru1 tau(   4) = (   5.4229265   3.1309281  10.0000000  )
         5           Ru1 tau(   5) = (   5.4229265   1.5654640  12.2139005  )
         6           Ru1 tau(   6) = (   2.7114633   1.5654640  12.2139005  )
         7           Ru1 tau(   7) = (   6.7786581   3.9136601  12.2139005  )
         8           Ru1 tau(   8) = (   4.0671949   3.9136601  12.2139005  )
         9           Ru1 tau(   9) = (   2.7115373   4.6963011  14.7002787  )
        10           Ru1 tau(  10) = (   2.7113598   0.0029227  14.3063917  )
        11           Ru1 tau(  11) = (   1.3583457   2.3467450  14.3065466  )
        12           Ru1 tau(  12) = (   4.0645755   2.3468218  14.3063525  )
        13           C1  tau(  13) = (   5.4229264   0.0000162  16.3792292  )

     number of k points=    20  Fermi-Dirac smearing, width (Ry)=  0.0110
                       cart. coord. in units 2pi/alat
        k(    1) = (   0.0000000   0.0000000   0.0000000), wk =   0.0555556
        k(    2) = (   0.0000000   0.0354882   0.0000000), wk =   0.1111111
        k(    3) = (   0.0000000   0.0709765   0.0000000), wk =   0.1111111
        k(    4) = (   0.0000000  -0.1064647   0.0000000), wk =   0.0555556
        k(    5) = (   0.0307337  -0.0177441   0.0000000), wk =   0.1111111
        k(    6) = (   0.0307337   0.0177441   0.0000000), wk =   0.1111111
        k(    7) = (   0.0307337   0.0532324   0.0000000), wk =   0.1111111
        k(    8) = (   0.0307337  -0.1242088   0.0000000), wk =   0.1111111
        k(    9) = (   0.0307337  -0.0887206   0.0000000), wk =   0.1111111
        k(   10) = (   0.0307337  -0.0532324   0.0000000), wk =   0.1111111
        k(   11) = (   0.0614674  -0.0354882   0.0000000), wk =   0.1111111
        k(   12) = (   0.0614674   0.0000000   0.0000000), wk =   0.1111111
        k(   13) = (   0.0614674   0.0354882   0.0000000), wk =   0.1111111
        k(   14) = (   0.0614674  -0.1419529   0.0000000), wk =   0.1111111
        k(   15) = (   0.0614674  -0.1064647   0.0000000), wk =   0.1111111
        k(   16) = (   0.0614674  -0.0709765   0.0000000), wk =   0.1111111
        k(   17) = (  -0.0922011   0.0532324   0.0000000), wk =   0.0555556
        k(   18) = (  -0.0922011   0.0887206   0.0000000), wk =   0.1111111
        k(   19) = (  -0.0922011   0.1242088   0.0000000), wk =   0.1111111
        k(   20) = (  -0.0922011  -0.0532324   0.0000000), wk =   0.0555556

     Largest allocated arrays     est. size (Mb)     dimensions
     Largest temporary arrays     est. size (Mb)     dimensions

     Initial potential from superposition of free atoms
     Check: negative starting charge=   -0.880783

     starting charge  183.99977, renormalised to  196.00000

[...]

     *
     * You are using vdW-DF for exchange-correlation in this calculation.
     * Please cite the following three references that made this development
     * possible:
     *
     *   M. Dion, H. Rydberg, E. Schroder, D. C. Langreth, and
     *   B. I. Lundqvist, Phys. Rev. Lett. 92, 246401 (2004).
     *
     *   T. Thonhauser, V. R. Cooper, S. Li, A. Puzder, P. Hyldgaard, and
     *   D. C. Langreth, Phys. Rev. B 76, 125112 (2007).
     *
     *   G. Roman-Perez and J. M. Soler, Phys. Rev. Lett. 103, 096102 (2009).
     *
     *
     * If you are using vdW-DF2, please also cite:
     *
     *   K. Lee, E. D. Murray, L. Kong, B. I. Lundqvist, and
     *   D. C. Langreth, Phys. Rev. B 82, 081101(R) (2010).
     *
     *
     * If you are calculating the stress with vdW-DF, please also cite:
     *
     *   R. Sabatini, E. Kucukbenli, B. Kolb, T. Thonhauser, and
     *   S. de Gironcoli, J. Phys.: Condens. Matter 24, 424209 (2012).
     *

     Carrying out vdW-DF run using the following parameters:

     Nqs =      20    Nr_points =    1024   r_max =   100.000
     q_mesh =
               0.00001000     0.04494208     0.09755937     0.15916263
               0.23128650     0.31572767     0.41458969     0.53033537
               0.66584808     0.82450364     1.01025438     1.22772762
               1.48234092     1.78043706     2.12944203     2.53805004
               3.01644009     3.57652955     4.23227104     5.00000000

     Gradients computed in reciprocal space

[...]

     Starting wfc are  160 randomized atomic wfcs

     Self-consistent Calculation

[...]

     total energy              =   -2352.64636979 Ry
     Harris-Foulkes estimate   =   -2352.64637274 Ry
     estimated scf accuracy    <       0.00001246 Ry

     iteration # 25     ecut=    36.75 Ry     beta=0.30
     Davidson diagonalization with overlap
     ethr =  6.36E-09,  avg # of iterations =  3.2

[...]

     negative rho (up, down):  9.168E-01 0.000E+00

     Adding external electric field

     Computed dipole along edir(3) :
        Dipole               -0.2573 Ry au,         -0.6539 Debye
        Dipole field         -0.0008 Ry au

        Potential amp.        0.0693 Ry
        Total length         45.0078 bohr

     End of self-consistent calculation

[...]

          k = 0.0615-0.0710 0.0000 ( 15803 PWs)   bands (ev):

[...]

          k =-0.0922-0.0532 0.0000 ( 15808 PWs)   bands (ev):

   -71.1601 -71.0789 -71.0447 -71.0251 -70.9082 -70.6812 -70.6594 -70.6346
   -70.6124 -70.5847 -70.5554 -70.5358 -41.3530 -41.3433 -41.2958 -41.2745
   -41.1791 -41.1393 -41.1346 -41.1242 -41.0667 -41.0361 -40.9578 -40.8692
   -40.8250 -40.8079 -40.7706 -40.7480 -40.7197 -40.7040 -40.6268 -40.6101
   -40.5893 -40.5847 -40.5665 -40.5561 -40.5364 -40.5172 -40.5013 -40.4727
   -40.4666 -40.4393 -40.4255 -40.4229 -40.4151 -40.3600 -40.3165 -40.2827
    -7.0441  -3.1472  -3.0942  -2.6136  -2.5392  -2.5154  -2.3890  -2.3014
    -2.2822  -2.0812  -2.0521  -1.9842  -1.8580  -1.6993  -1.6570  -1.5570
    -1.4233  -1.3016  -1.1324  -1.0690  -0.9492  -0.9031  -0.8449  -0.7446
    -0.5966  -0.5167  -0.2327  -0.1501  -0.1305   0.1067   0.1554   0.2329
     0.2909   0.3488   0.3674   0.3983   0.4884   0.5026   0.5438   0.5608
     0.6188   0.9642   1.0840   1.1485   1.2917   1.4026   1.4965   1.6077
     1.6866   1.8381   1.9596   1.9992   2.0670   2.0774   2.2869   2.5474
     2.5725   2.6022   2.6640   2.8721

     the Fermi energy is     2.1542 ev

!    total energy              =   -2352.64636684 Ry
     Harris-Foulkes estimate   =   -2352.64636989 Ry
     estimated scf accuracy    <       0.00000427 Ry

     The total energy is the sum of the following terms:

     one-electron contribution =  -22179.41212436 Ry
     hartree contribution      =   11089.44167179 Ry
     xc contribution           =    -325.45829896 Ry
     ewald contribution        =    9062.86842517 Ry
     electric field correction =       0.00019810 Ry
     smearing contrib. (-TS)   =      -0.08623858 Ry

     convergence has been achieved in  25 iterations

 BEEF-vdW xc energy contributions
           1 :   -282.220103889001
           2 :    259.079328520447
           3 :   -219.040699821304
           4 :    172.000893133415
           5 :   -127.978964300338
           6 :    94.1220993800723
           7 :   -73.1079199611886
           8 :    63.2775029502716
           9 :   -60.1952650102951
          10 :    58.8590477791129
          11 :   -55.6450229825261
          12 :    49.3024917740141
          13 :   -40.7997188083365
          14 :    32.3156146276005
          15 :   -25.9535008682907
          16 :    22.7439658793338
          17 :   -22.2986087165635
          18 :    23.1659466868387
          19 :   -23.6285295624344
          20 :    22.5197389099134
          21 :   -19.6836017749038
          22 :    15.9064504815900
          23 :   -12.4155015993377
          24 :    10.2288032078479
          25 :   -9.67931061606407
          26 :    10.3209969889413
          27 :   -11.2209347345669
          28 :    11.4571564512794
          29 :   -10.5612988393856
          30 :    8.69591461837126
          31 :   -29.3707798846266
          32 :   -22.2758379231213

     Forces acting on atoms (Ry/au):

     negative rho (up, down):  9.168E-01 0.000E+00
     atom    1 type  1   force =    -0.00153773   -0.00088394    0.02244587
     atom    2 type  1   force =     0.00153515   -0.00088302    0.02242648
     atom    3 type  1   force =     0.00000161    0.00177603    0.02242784
     atom    4 type  1   force =    -0.00000947    0.00000821    0.05077068
     atom    5 type  1   force =    -0.00001852    0.00564105   -0.03018432
     atom    6 type  1   force =     0.00001722   -0.00003357   -0.02767217
     atom    7 type  1   force =    -0.00490755   -0.00279423   -0.03017011
     atom    8 type  1   force =     0.00490132   -0.00281989   -0.03016126
     atom    9 type  1   force =    -0.00002815    0.00002964   -0.00033700
     atom   10 type  1   force =     0.00003472    0.00056413   -0.00013878
     atom   11 type  1   force =     0.00047723   -0.00029132   -0.00017675
     atom   12 type  1   force =    -0.00046004   -0.00031373   -0.00009133
     atom   13 type  2   force =    -0.00000578    0.00000064    0.00086084

     Total force =     0.087699     Total SCF correction =     0.014234
     SCF correction compared to forces is large: reduce conv_thr to get better values

     entering subroutine stress ...

     negative rho (up, down):  9.168E-01 0.000E+00
          total   stress  (Ry/bohr**3)                   (kbar)     P=  -21.55
  -0.00016419   0.00000005   0.00000001        -24.15      0.01      0.00
   0.00000005  -0.00016408  -0.00000002          0.01    -24.14     -0.00
   0.00000001  -0.00000002  -0.00011114          0.00     -0.00    -16.35

 !ASE

     Writing output data file calc.save

     General routines

     Parallel routines

   This run was terminated on:   9:20:40  18Jan2018

   JOB DONE.
Job  /afs/slac/g/suncat/bin/suncat-tsmpirun -x LD_LIBRARY_PATH -wdir /scratch/qe842477_5bi2D pw.x -in pw.inp

TID   HOST_NAME   COMMAND_LINE            STATUS            TERMINATION_TIME
00000 suncat0153 pw.x -in pw.inp   Done                     01/18/2018 09:20:40
00001 suncat0153 pw.x -in pw.inp   Done                     01/18/2018 09:20:40
00002 suncat0153 pw.x -in pw.inp   Done                     01/18/2018 09:20:40
00003 suncat0153 pw.x -in pw.inp   Done                     01/18/2018 09:20:40
00004 suncat0153 pw.x -in pw.inp   Done                     01/18/2018 09:20:40
00005 suncat0153 pw.x -in pw.inp   Done                     01/18/2018 09:20:40
00006 suncat0153 pw.x -in pw.inp   Done                     01/18/2018 09:20:40
00007 suncat0153 pw.x -in pw.inp   Done                     01/18/2018 09:20:40
00008 suncat0146 pw.x -in pw.inp   Done                     01/18/2018 09:20:40
00009 suncat0146 pw.x -in pw.inp   Done                     01/18/2018 09:20:40
00010 suncat0146 pw.x -in pw.inp   Done                     01/18/2018 09:20:40
00011 suncat0146 pw.x -in pw.inp   Done                     01/18/2018 09:20:40
00012 suncat0146 pw.x -in pw.inp   Done                     01/18/2018 09:20:40
00013 suncat0146 pw.x -in pw.inp   Done                     01/18/2018 09:20:40
00014 suncat0146 pw.x -in pw.inp   Done                     01/18/2018 09:20:40
00015 suncat0146 pw.x -in pw.inp   Done                     01/18/2018 09:20:40
00016 suncat0115 pw.x -in pw.inp   Done                     01/18/2018 09:20:40
00017 suncat0115 pw.x -in pw.inp   Done                     01/18/2018 09:20:40
00018 suncat0115 pw.x -in pw.inp   Done                     01/18/2018 09:20:40
00019 suncat0115 pw.x -in pw.inp   Done                     01/18/2018 09:20:40
00020 suncat0115 pw.x -in pw.inp   Done                     01/18/2018 09:20:40
00021 suncat0115 pw.x -in pw.inp   Done                     01/18/2018 09:20:40
00022 suncat0115 pw.x -in pw.inp   Done                     01/18/2018 09:20:40
00023 suncat0115 pw.x -in pw.inp   Done                     01/18/2018 09:20:40
00024 suncat0114 pw.x -in pw.inp   Done                     01/18/2018 09:20:40
00025 suncat0114 pw.x -in pw.inp   Done                     01/18/2018 09:20:40
00026 suncat0114 pw.x -in pw.inp   Done                     01/18/2018 09:20:40
00027 suncat0114 pw.x -in pw.inp   Done                     01/18/2018 09:20:40
00028 suncat0114 pw.x -in pw.inp   Done                     01/18/2018 09:20:40
00029 suncat0114 pw.x -in pw.inp   Done                     01/18/2018 09:20:40
00030 suncat0114 pw.x -in pw.inp   Done                     01/18/2018 09:20:40
00031 suncat0114 pw.x -in pw.inp   Done                     01/18/2018 09:20:40