     Program PWSCF v.5.1rc2 (svn rev. 11289) starts on 18Apr2018 at 20:27:18

     Current dimensions of program PWSCF are:
     Max number of different atomic species (ntypx) = 10
     Max number of k-points (npk) =  40000
     Max angular momentum in pseudopotentials (lmaxx) =  3
     Presently stress not available with electric field

     IMPORTANT: XC functional enforced from input :
     Exchange-correlation      = BEEF-VDW ( 1  4 27 13 2)
     Any further DFT definition will be discarded
     Please, verify this is what you really want

     Subspace diagonalization in iterative solution of the eigenvalue problem:
     a serial algorithm will be used

     bravais-lattice index     =            0
     lattice parameter (alat)  =       1.8897  a.u.
     unit-cell volume          =    6501.5726 (a.u.)^3
     number of atoms/cell      =           14
     number of atomic types    =            3
     number of electrons       =       162.00
     number of Kohn-Sham states=           91
     kinetic-energy cutoff     =      36.7493  Ry
     charge density cutoff     =     367.4932  Ry
     convergence threshold     =      1.0E-05
     mixing beta               =       0.3000
     number of iterations used =           10  plain     mixing
     Exchange-correlation      = BEEF-VDW ( 1  4 27 13 2)
     nstep                     =           50

     celldm(1)=   1.889726  celldm(2)=   0.000000  celldm(3)=   0.000000
     celldm(4)=   0.000000  celldm(5)=   0.000000  celldm(6)=   0.000000

     crystal axes: (cart. coord. in units of alat)
               a(1) = (   6.617606   0.000000   0.000000 )
               a(2) = (   3.308803   5.731015   0.000000 )
               a(3) = (   0.000000   0.000000  25.403253 )

     reciprocal axes: (cart. coord. in units 2 pi/alat)
               b(1) = (  0.151112 -0.087245  0.000000 )
               b(2) = (  0.000000  0.174489  0.000000 )
               b(3) = (  0.000000  0.000000  0.039365 )

     PseudoPot. # 1 for In read from file:
     /u/if/mamunm/psp/gbrv1.5pbe/In.UPF
     MD5 check sum: 90777abd96fbb83f2e67db2a40c566b9
     Pseudo is Ultrasoft + core correction, Zval = 13.0
     Generated by new atomic code, or converted to UPF format
     Using radial grid of  889 points,  6 beta functions with:
                l(1) =   0
                l(2) =   0
                l(3) =   1
                l(4) =   1
                l(5) =   2
                l(6) =   2
     Q(r) pseudized with  6 coefficients,  rinner =    1.400   1.400   1.400
                                                       1.400   1.400

     PseudoPot. # 2 for N  read from file:
     /u/if/mamunm/psp/gbrv1.5pbe/N.UPF
     MD5 check sum: 95339753478d7afb44899504a8723017
     Pseudo is Ultrasoft + core correction, Zval =  5.0
     Generated by new atomic code, or converted to UPF format
     Using radial grid of  729 points,  4 beta functions with:
                l(1) =   0
                l(2) =   0
                l(3) =   1
                l(4) =   1
     Q(r) pseudized with  8 coefficients,  rinner =    0.900   0.900   0.900

     PseudoPot. # 3 for H  read from file:
     /u/if/mamunm/psp/gbrv1.5pbe/H.UPF
     MD5 check sum: 761ae9a214b05c3daf00ab9f6b793d6f
     Pseudo is Ultrasoft, Zval =  1.0
     Generated by new atomic code, or converted to UPF format
     Using radial grid of  615 points,  2 beta functions with:
                l(1) =   0
                l(2) =   0
     Q(r) pseudized with  8 coefficients,  rinner =    0.700

     vdW kernel table read from file vdW_kernel_table
     MD5 check sum: 095c7af220d748ca6e76c0b4c6cfb241

     atomic species   valence    mass     pseudopotential
        In1           13.00   114.81800     In( 1.00)
        N1             5.00    14.00700     N ( 1.00)
        H1             1.00     1.00800     H ( 1.00)

     No symmetry found

   Cartesian axes

     site n.     atom                  positions (alat units)
         1           In1 tau(   1) = (   1.6544016   0.9551692  10.0000000  )
         2           In1 tau(   2) = (   4.9632047   0.9551692  10.0000000  )
         3           In1 tau(   3) = (   3.3088031   3.8206768  10.0000000  )
         4           In1 tau(   4) = (   6.6176063   3.8206768  10.0000000  )
         5           In1 tau(   5) = (   6.6176063   1.9103384  12.7016265  )
         6           In1 tau(   6) = (   3.3088031   1.9103384  12.7016265  )
         7           In1 tau(   7) = (   8.2720078   4.7758460  12.7016265  )
         8           In1 tau(   8) = (   4.9632047   4.7758460  12.7016265  )
         9           In1 tau(   9) = (   0.0000000   0.0000000  15.4032529  )
        10           In1 tau(  10) = (   3.3088031   0.0000000  15.4032529  )
        11           In1 tau(  11) = (   1.6544016   2.8655076  15.4032529  )
        12           In1 tau(  12) = (   4.9632047   2.8655076  15.4032529  )
        13           N1  tau(  13) = (   3.3088031   1.9103384  16.7877529  )
        14           H1  tau(  14) = (   3.3088031   1.9103384  17.8377529  )

     number of k points=    20  Fermi-Dirac smearing, width (Ry)=  0.0110
                       cart. coord. in units 2pi/alat
        k(    1) = (   0.0000000   0.0000000   0.0000000), wk =   0.0555556
        k(    2) = (   0.0000000   0.0290815   0.0000000), wk =   0.1111111
        k(    3) = (   0.0000000   0.0581631   0.0000000), wk =   0.1111111
        k(    4) = (   0.0000000  -0.0872446   0.0000000), wk =   0.0555556
        k(    5) = (   0.0251853  -0.0145408   0.0000000), wk =   0.1111111
        k(    6) = (   0.0251853   0.0145408   0.0000000), wk =   0.1111111
        k(    7) = (   0.0251853   0.0436223   0.0000000), wk =   0.1111111
        k(    8) = (   0.0251853  -0.1017853   0.0000000), wk =   0.1111111
        k(    9) = (   0.0251853  -0.0727038   0.0000000), wk =   0.1111111
        k(   10) = (   0.0251853  -0.0436223   0.0000000), wk =   0.1111111
        k(   11) = (   0.0503707  -0.0290815   0.0000000), wk =   0.1111111
        k(   12) = (   0.0503707   0.0000000   0.0000000), wk =   0.1111111
        k(   13) = (   0.0503707   0.0290815   0.0000000), wk =   0.1111111
        k(   14) = (   0.0503707  -0.1163261   0.0000000), wk =   0.1111111
        k(   15) = (   0.0503707  -0.0872446   0.0000000), wk =   0.1111111
        k(   16) = (   0.0503707  -0.0581631   0.0000000), wk =   0.1111111
        k(   17) = (  -0.0755560   0.0436223   0.0000000), wk =   0.0555556
        k(   18) = (  -0.0755560   0.0727038   0.0000000), wk =   0.1111111
        k(   19) = (  -0.0755560   0.1017853   0.0000000), wk =   0.1111111
        k(   20) = (  -0.0755560  -0.0436223   0.0000000), wk =   0.0555556

     Largest allocated arrays     est. size (Mb)     dimensions
     Largest temporary arrays     est. size (Mb)     dimensions

     Initial potential from superposition of free atoms
     Check: negative starting charge=   -0.000166

     starting charge  143.99998, renormalised to  162.00000

     negative rho (up, down):  1.867E-04 0.000E+00

     *
     * You are using vdW-DF for exchange-correlation in this calculation.
     * Please cite the following three references that made this development
     * possible:
     *
     *   M. Dion, H. Rydberg, E. Schroder, D. C. Langreth, and
     *   B. I. Lundqvist, Phys. Rev. Lett. 92, 246401 (2004).
     *
     *   T. Thonhauser, V. R. Cooper, S. Li, A. Puzder, P. Hyldgaard, and
     *   D. C. Langreth, Phys. Rev. B 76, 125112 (2007).
     *
     *   G. Roman-Perez and J. M. Soler, Phys. Rev. Lett. 103, 096102 (2009).
     *
     *
     * If you are using vdW-DF2, please also cite:
     *
     *   K. Lee, E. D. Murray, L. Kong, B. I. Lundqvist, and
     *   D. C. Langreth, Phys. Rev. B 82, 081101(R) (2010).
     *
     *
     * If you are calculating the stress with vdW-DF, please also cite:
     *
     *   R. Sabatini, E. Kucukbenli, B. Kolb, T. Thonhauser, and
     *   S. de Gironcoli, J. Phys.: Condens. Matter 24, 424209 (2012).
     *

     Carrying out vdW-DF run using the following parameters:

     Nqs =      20    Nr_points =    1024   r_max =   100.000
     q_mesh =
               0.00001000     0.04494208     0.09755937     0.15916263
               0.23128650     0.31572767     0.41458969     0.53033537
               0.66584808     0.82450364     1.01025438     1.22772762
               1.48234092     1.78043706     2.12944203     2.53805004
               3.01644009     3.57652955     4.23227104     5.00000000

     Gradients computed in reciprocal space

     Adding external electric field

     Computed dipole along edir(3) :
        Dipole               -6.0391 Ry au,        -15.3499 Debye
        Dipole field         -0.0117 Ry au

        Potential amp.        1.0927 Ry
        Total length         46.8051 bohr

     Starting wfc are  113 randomized atomic wfcs

     Self-consistent Calculation

     iteration #  1     ecut=    36.75 Ry     beta=0.30
     Davidson diagonalization with overlap
     ethr =  1.00E-02,  avg # of iterations =  8.0

[...]

     total energy              =   -1171.64421467 Ry
     Harris-Foulkes estimate   =   -1630.90844635 Ry
     estimated scf accuracy    <     980.40495959 Ry

[...]

     End of self-consistent calculation

          k = 0.0000 0.0000 0.0000 ( 24345 PWs)   bands (ev):

   -14.9000 -14.4955 -14.4955 -14.4945 -14.4071 -14.4071 -14.3966 -14.3900
   -14.3900 -14.3780 -14.3706 -14.3575 -14.3575 -14.3532 -14.3295 -14.3150
   -14.3150 -14.3034 -14.3034 -14.2921 -14.2819 -14.2819 -14.2795 -14.2666
   -14.2666 -14.2566 -14.2566 -14.2563 -14.2406 -14.2406 -14.1453 -14.1453
   -14.1233 -14.1233 -14.1208 -14.0914 -14.0787 -14.0770 -14.0770 -14.0596
   -14.0596 -14.0387 -14.0387 -14.0324 -14.0272 -14.0272 -14.0120 -14.0120
   -13.9971 -13.9971 -13.9962 -13.9933 -13.9730 -13.9730 -13.9570 -13.9569
   -13.9458 -13.9328 -13.9328 -13.9293 -13.3642  -8.5158  -7.1971  -5.5103
    -4.4394  -3.7304  -3.7304  -3.6028  -3.6028  -3.4909  -3.2446  -2.7289
    -2.7289  -2.1268  -1.8916  -1.8916  -1.6211  -1.1080  -1.1080  -1.0316
    -0.2405  -0.0344  -0.0344   0.9317   0.9317   1.1543   1.8035   3.3500
     3.3500   3.3802   3.4605

[...]

          k =-0.0756 0.0436 0.0000 ( 24448 PWs)   bands (ev):

[...]

     the Fermi energy is     0.7084 ev

!    total energy              =   -1638.77916552 Ry
     Harris-Foulkes estimate   =   -1638.77916484 Ry
     estimated scf accuracy    <       0.00000596 Ry

     The total energy is the sum of the following terms:

     one-electron contribution =   -9501.73752929 Ry
     hartree contribution      =    4833.29729466 Ry
     xc contribution           =    -475.87806707 Ry
     ewald contribution        =    3505.57579323 Ry
     electric field correction =       0.00000301 Ry
     smearing contrib. (-TS)   =      -0.03666005 Ry

     convergence has been achieved in  21 iterations

 BEEF-vdW xc energy contributions
           1 :   -416.725372687088
           2 :    380.762991708082
           3 :   -320.065685444312
           4 :    251.717448074513
           5 :   -191.296952428355
           6 :    147.246433733516
           7 :   -119.296238526993
           8 :    101.073786462527
           9 :   -84.9834185169026
          10 :    66.5116686400149
          11 :   -45.8366397433077
          12 :    26.4127135812251
          13 :   -11.9602934359079
          14 :    3.94037636282263
          15 :  -0.919031838009744
          16 :  -0.176132945797974
          17 :    2.03491776445821
          18 :   -5.56475530950433
          19 :    9.84992603049142
          20 :   -13.2231375677293
          21 :    14.5544279353346
          22 :   -13.9099073743087
          23 :    12.2996127354145
          24 :   -10.8772030079786
          25 :    10.2317833415378
          26 :   -10.2145095907197
          27 :    10.2817965553518
          28 :   -9.99128888200050
          29 :    9.26833820573160
          30 :   -8.32453117795188
          31 :   -37.9821940639918
          32 :   -27.5656592057684

     Forces acting on atoms (Ry/au):

     negative rho (up, down):  1.287E-03 0.000E+00
     atom    1 type  1   force =     0.00028648    0.00016422   -0.01051917
     atom    2 type  1   force =    -0.00028658    0.00016504   -0.01052162
     atom    3 type  1   force =     0.00000064   -0.00032910   -0.01051971
     atom    4 type  1   force =    -0.00000110    0.00000027   -0.00866933
     atom    5 type  1   force =     0.00000138   -0.00237194    0.00038236
     atom    6 type  1   force =    -0.00000141    0.00000074    0.00712372
     atom    7 type  1   force =     0.00205450    0.00118529    0.00038342
     atom    8 type  1   force =    -0.00205423    0.00118590    0.00038333
     atom    9 type  1   force =    -0.00000080   -0.00000084    0.00629310
     atom   10 type  1   force =     0.00000051   -0.00100042    0.02559197
     atom   11 type  1   force =    -0.00086557    0.00050071    0.02559155
     atom   12 type  1   force =     0.00086578    0.00050034    0.02559220
     atom   13 type  2   force =     0.00000028   -0.00000017   -0.02145297
     atom   14 type  3   force =     0.00000011   -0.00000003   -0.02965884

     Total force =     0.057856     Total SCF correction =     0.007418
     SCF correction compared to forces is large: reduce conv_thr to get better values

     entering subroutine stress ...

     negative rho (up, down):  1.287E-03 0.000E+00
          total   stress  (Ry/bohr**3)                   (kbar)     P=    6.10
   0.00005084  -0.00000000   0.00000000          7.48     -0.00      0.00
  -0.00000000   0.00005084  -0.00000000         -0.00      7.48     -0.00
   0.00000000  -0.00000000   0.00002276          0.00     -0.00      3.35

     BFGS Geometry Optimization

     number of scf cycles    =   1
     number of bfgs steps    =   0

     energy   new            =   -1638.7791655220 Ry

     new trust radius        =       0.0296588375 bohr
     new conv_thr            =       0.0000099958 Ry

ATOMIC_POSITIONS (crystal)
In1      0.166666667   0.166666667   0.393650374    0   0   0
In1      0.666666667   0.166666667   0.393650374    0   0   0
In1      0.166666667   0.666666667   0.393650374    0   0   0
In1      0.666666667   0.666666667   0.393650374    0   0   0
In1      0.833333333   0.333333333   0.500000000    0   0   0
In1      0.333333333   0.333333333   0.500000000    0   0   0
In1      0.833333333   0.833333333   0.500000000    0   0   0
In1      0.333333333   0.833333333   0.500000000    0   0   0
In1     -0.000000025  -0.000000077   0.606480718
In1      0.500046228  -0.000092374   0.606882735
In1     -0.000092332   0.500046233   0.606882726
In1      0.500046133   0.500046199   0.606882739
N1       0.333333364   0.333333318   0.660403632
H1       0.333333344   0.333333330   0.701565984

     Writing output data file calc.save
     Check: negative starting charge=   -0.000166
     NEW-OLD atomic charge density approx. for the potential
     Check: negative starting charge=   -0.000169

[...]

     Total force =     0.054080     Total SCF correction =     0.001860

[...]

     energy   old            =   -1638.7791655220 Ry
     energy   new            =   -1638.7823979795 Ry

     CASE: energy  _new < energy  _old

     WARNING: bfgs curvature condition failed, Theta= 0.859
     new trust radius        =       0.0444882562 bohr
     new conv_thr            =       0.0000001000 Ry

[...]

     iteration #  1     ecut=    36.75 Ry     beta=0.30
     Davidson diagonalization with overlap
     c_bands:  1 eigenvalues not converged
     ethr =  1.00E-06,  avg # of iterations = 12.3

[...]

     Total force =     0.008408     Total SCF correction =     0.000541

[...]

     number of scf cycles    =   8
     number of bfgs steps    =   7

     energy   old            =   -1638.7999208596 Ry
     energy   new            =   -1638.8006607595 Ry

     CASE: energy  _new < energy  _old

     new trust radius        =       0.0134849262 bohr
     new conv_thr            =       0.0000001000 Ry

ATOMIC_POSITIONS (crystal)
In1      0.166666667   0.166666667   0.393650374    0   0   0
In1      0.666666667   0.166666667   0.393650374    0   0   0
In1      0.166666667   0.666666667   0.393650374    0   0   0
In1      0.666666667   0.666666667   0.393650374    0   0   0
In1      0.833333333   0.333333333   0.500000000    0   0   0
In1      0.333333333   0.333333333   0.500000000    0   0   0
In1      0.833333333   0.833333333   0.500000000    0   0   0
In1      0.333333333   0.833333333   0.500000000    0   0   0
In1     -0.000000114  -0.000000239   0.608428441
In1      0.507590748  -0.015181286   0.613564085
In1     -0.015181038   0.507590665   0.613564034
In1      0.507590554   0.507590733   0.613564092
N1       0.333333460   0.333333215   0.654198344
H1       0.333333403   0.333333294   0.694740119

     Writing output data file calc.save
     Check: negative starting charge=   -0.000175
     NEW-OLD atomic charge density approx. for the potential
     Check: negative starting charge=   -0.000175

[...]

     Self-consistent Calculation

[...]

     total energy              =   -1638.80078211 Ry
     Harris-Foulkes estimate   =   -1638.80078171 Ry
     estimated scf accuracy    <       0.00000065 Ry

     iteration #  7     ecut=    36.75 Ry     beta=0.30
     Davidson diagonalization with overlap
     ethr =  3.98E-10,  avg # of iterations =  2.0

[...]

     negative rho (up, down):  1.298E-03 0.000E+00

     Adding external electric field

     Computed dipole along edir(3) :
        Dipole                0.1305 Ry au,          0.3316 Debye
        Dipole field          0.0003 Ry au

        Potential amp.       -0.0236 Ry
        Total length         46.8051 bohr

     End of self-consistent calculation

[...]

          k = 0.0504-0.0582 0.0000 ( 24479 PWs)   bands (ev):

[...]

          k =-0.0756-0.0436 0.0000 ( 24448 PWs)   bands (ev):

   -15.3604 -14.2364 -14.2259 -14.2061 -14.1812 -14.1778 -14.1738 -14.1728
   -14.1658 -14.1472 -14.1365 -14.1292 -14.1279 -14.1230 -14.1206 -14.1142
   -14.1036 -14.0982 -14.0980 -14.0952 -14.0857 -14.0749 -14.0625 -14.0563
   -14.0412 -14.0391 -14.0374 -14.0359 -14.0245 -14.0244 -14.0198 -14.0055
   -14.0030 -13.9865 -13.9862 -13.9775 -13.9654 -13.9610 -13.9538 -13.9464
   -13.9436 -13.9387 -13.9358 -13.9312 -13.9264 -13.9215 -13.9198 -13.9192
   -13.9155 -13.9076 -13.9070 -13.8971 -13.8764 -13.8542 -13.8466 -13.8444
   -13.8432 -13.8238 -13.8057 -13.7918 -13.2715  -7.0273  -7.0021  -6.1678
    -5.9161  -4.8939  -4.6235  -4.2950  -4.1016  -3.8792  -3.5722  -2.2233
    -2.2126  -2.0699  -1.0115  -0.3451   0.0140   0.1689   0.4931   0.6935
     0.8953   1.2583   1.8018   1.9048   2.2963   2.4227   2.5698   2.7639
     2.7991   3.2089   3.3368

     the Fermi energy is     0.9112 ev

!    total energy              =   -1638.80078216 Ry
     Harris-Foulkes estimate   =   -1638.80078216 Ry
     estimated scf accuracy    <       0.00000004 Ry

     The total energy is the sum of the following terms:

     one-electron contribution =   -9355.37797711 Ry
     hartree contribution      =    4760.84985977 Ry
     xc contribution           =    -475.91537815 Ry
     ewald contribution        =    3431.67958849 Ry
     electric field correction =       0.00003289 Ry
     smearing contrib. (-TS)   =      -0.03690805 Ry

     convergence has been achieved in   7 iterations

 BEEF-vdW xc energy contributions
           1 :   -416.759875389604
           2 :    380.775416250011
           3 :   -320.034611841243
           4 :    251.641595198819
           5 :   -191.202132667052
           6 :    147.165407868306
           7 :   -119.244625090872
           8 :    101.042570671830
           9 :   -84.9514850758959
          10 :    66.4650219521392
          11 :   -45.7784168466179
          12 :    26.3586374754880
          13 :   -11.9261621955570
          14 :    3.93207569216872
          15 :  -0.932714645682381
          16 :  -0.146169428687472
          17 :    1.99160478732404
          18 :   -5.51167958016867
          19 :    9.79721712372071
          20 :   -13.1881086692340
          21 :    14.5531411468724
          22 :   -13.9440084346413
          23 :    12.3489663486952
          24 :   -10.9074512597679
          25 :    10.2149872144793
          26 :   -10.1491287032713
          27 :    10.1964070727588
          28 :   -9.92768454692589
          29 :    9.25439206832232
          30 :   -8.35515030845477
          31 :   -37.9822441171862
          32 :   -27.5570691848142

     Forces acting on atoms (Ry/au):

     negative rho (up, down):  1.298E-03 0.000E+00
     atom    1 type  1   force =     0.00098456    0.00056843   -0.01116842
     atom    2 type  1   force =    -0.00098456    0.00056843   -0.01116842
     atom    3 type  1   force =     0.00000000   -0.00113686   -0.01116841
     atom    4 type  1   force =    -0.00000000    0.00000001   -0.00957307
     atom    5 type  1   force =    -0.00000003   -0.00073614    0.00979187
     atom    6 type  1   force =     0.00000003   -0.00000000    0.01593862
     atom    7 type  1   force =     0.00063749    0.00036808    0.00979175
     atom    8 type  1   force =    -0.00063751    0.00036806    0.00979184
     atom    9 type  1   force =     0.00000018    0.00000019    0.00019217
     atom   10 type  1   force =    -0.00000011   -0.00072917   -0.00098018
     atom   11 type  1   force =    -0.00063163    0.00036441   -0.00098014
     atom   12 type  1   force =     0.00063161    0.00036453   -0.00098018
     atom   13 type  2   force =    -0.00000000    0.00000007   -0.00035535
     atom   14 type  3   force =    -0.00000003   -0.00000002    0.00086793

     Total force =     0.002322     Total SCF correction =     0.000630
     SCF correction compared to forces is large: reduce conv_thr to get better values

     entering subroutine stress ...

     negative rho (up, down):  1.298E-03 0.000E+00
          total   stress  (Ry/bohr**3)                   (kbar)     P=    7.34
   0.00006211  -0.00000000  -0.00000000          9.14     -0.00     -0.00
  -0.00000000   0.00006211  -0.00000000         -0.00      9.14     -0.00
  -0.00000000  -0.00000000   0.00002553         -0.00     -0.00      3.76

     bfgs converged in   9 scf cycles and   8 bfgs steps
     (criteria: energy <  1.0E+00, force <  1.9E-03)

     End of BFGS Geometry Optimization

     Final energy   =   -1638.8007821580 Ry
Begin final coordinates

ATOMIC_POSITIONS (crystal)
In1      0.166666667   0.166666667   0.393650374    0   0   0
In1      0.666666667   0.166666667   0.393650374    0   0   0
In1      0.166666667   0.666666667   0.393650374    0   0   0
In1      0.666666667   0.666666667   0.393650374    0   0   0
In1      0.833333333   0.333333333   0.500000000    0   0   0
In1      0.333333333   0.333333333   0.500000000    0   0   0
In1      0.833333333   0.833333333   0.500000000    0   0   0
In1      0.333333333   0.833333333   0.500000000    0   0   0
In1     -0.000000114  -0.000000239   0.608428441
In1      0.507590748  -0.015181286   0.613564085
In1     -0.015181038   0.507590665   0.613564034
In1      0.507590554   0.507590733   0.613564092
N1       0.333333460   0.333333215   0.654198344
H1       0.333333403   0.333333294   0.694740119
End final coordinates

     Writing output data file calc.save

     General routines

     Parallel routines

   This run was terminated on:  21:36: 8  18Apr2018

   JOB DONE.
Job  /afs/slac/g/suncat/bin/suncat-tsmpirun -x LD_LIBRARY_PATH -wdir /scratch/qe283666_Kvd9e pw.x -npool 4 -in pw.inp

TID   HOST_NAME   COMMAND_LINE            STATUS            TERMINATION_TIME
00000 suncat0129 pw.x -npool 4 -i  Done                     04/18/2018 21:36:08
00001 suncat0129 pw.x -npool 4 -i  Done                     04/18/2018 21:36:08
00002 suncat0129 pw.x -npool 4 -i  Done                     04/18/2018 21:36:08
00003 suncat0129 pw.x -npool 4 -i  Done                     04/18/2018 21:36:08
00004 suncat0129 pw.x -npool 4 -i  Done                     04/18/2018 21:36:08
00005 suncat0129 pw.x -npool 4 -i  Done                     04/18/2018 21:36:08
00006 suncat0129 pw.x -npool 4 -i  Done                     04/18/2018 21:36:08
00007 suncat0129 pw.x -npool 4 -i  Done                     04/18/2018 21:36:08
00008 suncat0126 pw.x -npool 4 -i  Done                     04/18/2018 21:36:08
00009 suncat0126 pw.x -npool 4 -i  Done                     04/18/2018 21:36:08
00010 suncat0126 pw.x -npool 4 -i  Done                     04/18/2018 21:36:08
00011 suncat0126 pw.x -npool 4 -i  Done                     04/18/2018 21:36:08
00012 suncat0126 pw.x -npool 4 -i  Done                     04/18/2018 21:36:08
00013 suncat0126 pw.x -npool 4 -i  Done                     04/18/2018 21:36:08
00014 suncat0126 pw.x -npool 4 -i  Done                     04/18/2018 21:36:08
00015 suncat0126 pw.x -npool 4 -i  Done                     04/18/2018 21:36:08
00016 suncat0258 pw.x -npool 4 -i  Done                     04/18/2018 21:36:08
00017 suncat0258 pw.x -npool 4 -i  Done                     04/18/2018 21:36:08
00018 suncat0258 pw.x -npool 4 -i  Done                     04/18/2018 21:36:08
00019 suncat0258 pw.x -npool 4 -i  Done                     04/18/2018 21:36:08
00020 suncat0258 pw.x -npool 4 -i  Done                     04/18/2018 21:36:08
00021 suncat0258 pw.x -npool 4 -i  Done                     04/18/2018 21:36:08
00022 suncat0258 pw.x -npool 4 -i  Done                     04/18/2018 21:36:08
00023 suncat0258 pw.x -npool 4 -i  Done                     04/18/2018 21:36:08
00024 suncat0252 pw.x -npool 4 -i  Done                     04/18/2018 21:36:08
00025 suncat0252 pw.x -npool 4 -i  Done                     04/18/2018 21:36:08
00026 suncat0252 pw.x -npool 4 -i  Done                     04/18/2018 21:36:08
00027 suncat0252 pw.x -npool 4 -i  Done                     04/18/2018 21:36:08
00028 suncat0252 pw.x -npool 4 -i  Done                     04/18/2018 21:36:08
00029 suncat0252 pw.x -npool 4 -i  Done                     04/18/2018 21:36:08
00030 suncat0252 pw.x -npool 4 -i  Done                     04/18/2018 21:36:08
00031 suncat0252 pw.x -npool 4 -i  Done                     04/18/2018 21:36:08