     Program PWSCF v.5.1rc2 (svn rev. 11289) starts on  2May2018 at 17:54:43

     Current dimensions of program PWSCF are:
     Max number of different atomic species (ntypx) = 10
     Max number of k-points (npk) =  40000
     Max angular momentum in pseudopotentials (lmaxx) =  3
     Presently stress not available with electric field

     IMPORTANT: XC functional enforced from input :
     Exchange-correlation      = BEEF-VDW ( 1  4 27 13 2)
     Any further DFT definition will be discarded
     Please, verify this is what you really want

     Subspace diagonalization in iterative solution of the eigenvalue problem:
     a serial algorithm will be used

     bravais-lattice index     =            0
     lattice parameter (alat)  =       1.8897  a.u.
     unit-cell volume          =    4158.3597 (a.u.)^3
     number of atoms/cell      =           13
     number of atomic types    =            2
     number of electrons       =       162.00
     number of Kohn-Sham states=           91
     kinetic-energy cutoff     =      36.7493  Ry
     charge density cutoff     =     367.4932  Ry
     convergence threshold     =      1.0E-05
     mixing beta               =       0.3000
     number of iterations used =           10  plain     mixing
     Exchange-correlation      = BEEF-VDW ( 1  4 27 13 2)
     nstep                     =           50

     celldm(1)=   1.889726  celldm(2)=   0.000000  celldm(3)=   0.000000
     celldm(4)=   0.000000  celldm(5)=   0.000000  celldm(6)=   0.000000

     crystal axes: (cart. coord. in units of alat)
               a(1) = (   5.399178   0.000000   0.000000 )
               a(2) = (   2.699589   4.675825   0.000000 )
               a(3) = (   0.000000   0.000000  24.408411 )

     reciprocal axes: (cart. coord. in units 2 pi/alat)
               b(1) = (  0.185213 -0.106933  0.000000 )
               b(2) = (  0.000000  0.213866  0.000000 )
               b(3) = (  0.000000  0.000000  0.040969 )

     PseudoPot. # 1 for V  read from file:
     /u/if/mamunm/psp/gbrv1.5pbe/V.UPF
     MD5 check sum: 22b79981416ebb76fdaf5b1b8640f6fb
     Pseudo is Ultrasoft + core correction, Zval = 13.0
     Generated by new atomic code, or converted to UPF format
     Using radial grid of  853 points,  6 beta functions with:
                l(1) =   0
                l(2) =   0
                l(3) =   1
                l(4) =   1
                l(5) =   2
                l(6) =   2
     Q(r) pseudized with  8 coefficients,  rinner =    1.100   1.100   1.100
                                                       1.100   1.100

     PseudoPot. # 2 for O  read from file:
     /u/if/mamunm/psp/gbrv1.5pbe/O.UPF
     MD5 check sum: 734c27235a0248c51dbae37a1fbe46ec
     Pseudo is Ultrasoft + core correction, Zval =  6.0
     Generated by new atomic code, or converted to UPF format
     Using radial grid of  737 points,  5 beta functions with:
                l(1) =   0
                l(2) =   0
                l(3) =   1
                l(4) =   1
                l(5) =   2
     Q(r) pseudized with  8 coefficients,  rinner =    0.900   0.900   0.900
                                                       0.900   0.900

     vdW kernel table read from file vdW_kernel_table
     MD5 check sum: 095c7af220d748ca6e76c0b4c6cfb241

     atomic species   valence    mass     pseudopotential
        V1            13.00    50.94150     V ( 1.00)
        O1             6.00    15.99900     O ( 1.00)

     No symmetry found

   Cartesian axes

     site n.     atom                  positions (alat units)
         1           V1  tau(   1) = (   1.3497945   0.7793042  10.0000000  )
         2           V1  tau(   2) = (   4.0493836   0.7793042  10.0000000  )
         3           V1  tau(   3) = (   2.6995891   3.1172170  10.0000000  )
         4           V1  tau(   4) = (   5.3991782   3.1172170  10.0000000  )
         5           V1  tau(   5) = (   5.3991782   1.5586085  12.2042053  )
         6           V1  tau(   6) = (   2.6995891   1.5586085  12.2042053  )
         7           V1  tau(   7) = (   6.7489727   3.8965212  12.2042053  )
         8           V1  tau(   8) = (   4.0493836   3.8965212  12.2042053  )
         9           V1  tau(   9) = (   0.0000000   0.0000000  14.4084105  )
        10           V1  tau(  10) = (   2.6995891   0.0000000  14.4084105  )
        11           V1  tau(  11) = (   1.3497945   2.3379127  14.4084105  )
        12           V1  tau(  12) = (   4.0493836   2.3379127  14.4084105  )
        13           O1  tau(  13) = (   2.6995891   1.5586085  15.8319105  )

     number of k points=    20  Fermi-Dirac smearing, width (Ry)=  0.0110
                       cart. coord. in units 2pi/alat
        k(    1) = (   0.0000000   0.0000000   0.0000000), wk =   0.0555556
        k(    2) = (   0.0000000   0.0356443   0.0000000), wk =   0.1111111
        k(    3) = (   0.0000000   0.0712887   0.0000000), wk =   0.1111111
        k(    4) = (   0.0000000  -0.1069330   0.0000000), wk =   0.0555556
        k(    5) = (   0.0308689  -0.0178222   0.0000000), wk =   0.1111111
        k(    6) = (   0.0308689   0.0178222   0.0000000), wk =   0.1111111
        k(    7) = (   0.0308689   0.0534665   0.0000000), wk =   0.1111111
        k(    8) = (   0.0308689  -0.1247552   0.0000000), wk =   0.1111111
        k(    9) = (   0.0308689  -0.0891108   0.0000000), wk =   0.1111111
        k(   10) = (   0.0308689  -0.0534665   0.0000000), wk =   0.1111111
        k(   11) = (   0.0617378  -0.0356443   0.0000000), wk =   0.1111111
        k(   12) = (   0.0617378   0.0000000   0.0000000), wk =   0.1111111
        k(   13) = (   0.0617378   0.0356443   0.0000000), wk =   0.1111111
        k(   14) = (   0.0617378  -0.1425773   0.0000000), wk =   0.1111111
        k(   15) = (   0.0617378  -0.1069330   0.0000000), wk =   0.1111111
        k(   16) = (   0.0617378  -0.0712887   0.0000000), wk =   0.1111111
        k(   17) = (  -0.0926067   0.0534665   0.0000000), wk =   0.0555556
        k(   18) = (  -0.0926067   0.0891108   0.0000000), wk =   0.1111111
        k(   19) = (  -0.0926067   0.1247552   0.0000000), wk =   0.1111111
        k(   20) = (  -0.0926067  -0.0534665   0.0000000), wk =   0.0555556

     Largest allocated arrays     est. size (Mb)     dimensions
     Largest temporary arrays     est. size (Mb)     dimensions

     Check: negative/imaginary core charge=   -0.000001    0.000000

     Initial potential from superposition of free atoms
     Check: negative starting charge=   -0.011713

     starting charge  161.98527, renormalised to  162.00000

     negative rho (up, down):  1.171E-02 0.000E+00

     *
     * You are using vdW-DF for exchange-correlation in this calculation.
     * Please cite the following three references that made this development
     * possible:
     *
     *   M. Dion, H. Rydberg, E. Schroder, D. C. Langreth, and
     *   B. I. Lundqvist, Phys. Rev. Lett. 92, 246401 (2004).
     *
     *   T. Thonhauser, V. R. Cooper, S. Li, A. Puzder, P. Hyldgaard, and
     *   D. C. Langreth, Phys. Rev. B 76, 125112 (2007).
     *
     *   G. Roman-Perez and J. M. Soler, Phys. Rev. Lett. 103, 096102 (2009).
     *
     *
     * If you are using vdW-DF2, please also cite:
     *
     *   K. Lee, E. D. Murray, L. Kong, B. I. Lundqvist, and
     *   D. C. Langreth, Phys. Rev. B 82, 081101(R) (2010).
     *
     *
     * If you are calculating the stress with vdW-DF, please also cite:
     *
     *   R. Sabatini, E. Kucukbenli, B. Kolb, T. Thonhauser, and
     *   S. de Gironcoli, J. Phys.: Condens. Matter 24, 424209 (2012).
     *

     Carrying out vdW-DF run using the following parameters:

     Nqs =      20    Nr_points =    1024   r_max =   100.000
     q_mesh =
               0.00001000     0.04494208     0.09755937     0.15916263
               0.23128650     0.31572767     0.41458969     0.53033537
               0.66584808     0.82450364     1.01025438     1.22772762
               1.48234092     1.78043706     2.12944203     2.53805004
               3.01644009     3.57652955     4.23227104     5.00000000

     Gradients computed in reciprocal space

     Adding external electric field

     Computed dipole along edir(3) :
        Dipole               -0.0037 Ry au,         -0.0095 Debye
        Dipole field         -0.0000 Ry au

        Potential amp.        0.0010 Ry
        Total length         44.9721 bohr

     Starting wfc are  124 randomized atomic wfcs

     Self-consistent Calculation

     iteration #  1     ecut=    36.75 Ry     beta=0.30
     Davidson diagonalization with overlap
     ethr =  1.00E-02,  avg # of iterations =  2.4

[...]

     total energy              =   -1776.46053000 Ry
     Harris-Foulkes estimate   =   -1782.29221887 Ry
     estimated scf accuracy    <      12.04485260 Ry

[...]

     End of self-consistent calculation

          k = 0.0000 0.0000 0.0000 ( 15569 PWs)   bands (ev):

   -63.5481 -63.4461 -63.4449 -63.4437 -63.3671 -63.3534 -63.3330 -63.3326
   -63.3238 -63.2824 -63.2819 -63.2788 -37.6469 -37.5914 -37.5913 -37.5565
   -37.5543 -37.5543 -37.5467 -37.4480 -37.4446 -37.4443 -37.3199 -37.2741
   -37.2732 -37.2122 -37.1581 -37.1578 -37.1562 -37.1260 -37.1185 -37.1179
   -37.0347 -37.0347 -37.0342 -37.0166 -37.0165 -37.0141 -36.9759 -36.9547
   -36.9545 -36.9354 -36.9322 -36.9320 -36.8912 -36.8912 -36.8093 -36.8093
   -16.9563  -5.2533  -3.8196  -3.1486  -3.1486  -3.1042  -2.5231  -2.2399
    -2.2399  -2.1421  -1.8270  -1.8266  -1.8265  -1.4691  -1.4691  -1.4659
    -1.3609  -1.3608  -1.0326  -0.5092  -0.5091  -0.3604   0.3074   0.4520
     0.4520   0.6423   0.7881   0.9159   0.9506   0.9506   1.0805   1.0806
     1.1324   1.1329   1.1332   1.2002   1.2308   1.2308   1.3386   1.3386
     1.7287   1.8004   1.8006

[...]

          k =-0.0926 0.0535 0.0000 ( 15660 PWs)   bands (ev):

[...]

     the Fermi energy is     0.8247 ev

!    total energy              =   -1781.57181981 Ry
     Harris-Foulkes estimate   =   -1781.57182880 Ry
     estimated scf accuracy    <       0.00000829 Ry

     The total energy is the sum of the following terms:

     one-electron contribution =  -15451.41902372 Ry
     hartree contribution      =    7714.62877952 Ry
     xc contribution           =    -251.75652863 Ry
     ewald contribution        =    6207.11731204 Ry
     electric field correction =       0.00009612 Ry
     smearing contrib. (-TS)   =      -0.14245514 Ry

     convergence has been achieved in  29 iterations

 BEEF-vdW xc energy contributions
           1 :   -216.878725095439
           2 :    194.456364296126
           3 :   -157.479009249686
           4 :    117.615660408921
           5 :   -84.9640830889621
           6 :    64.2777432240624
           7 :   -54.3775896094251
           8 :    50.4167561634487
           9 :   -47.2939534564811
          10 :    42.2370102417536
          11 :   -35.4414104464197
          12 :    28.9043450779106
          13 :   -24.5438315511308
          14 :    22.8482057248592
          15 :   -22.7495572384321
          16 :    22.5454245652004
          17 :   -21.0998029353059
          18 :    18.4980146177840
          19 :   -15.7958363344731
          20 :    14.1384840175226
          21 :   -13.9245293265626
          22 :    14.5824188319196
          23 :   -15.0478609760408
          24 :    14.5332050820481
          25 :   -13.0311719738069
          26 :    11.2388083358303
          27 :   -10.0146289462806
          28 :    9.77921419581230
          29 :   -10.2695635411681
          30 :    10.7790244492379
          31 :   -22.5049749075202
          32 :   -16.1854341576554

     Forces acting on atoms (Ry/au):

     negative rho (up, down):  1.557E-02 0.000E+00
     atom    1 type  1   force =    -0.00018151   -0.00008427    0.00003659
     atom    2 type  1   force =     0.00017947   -0.00008395    0.00000994
     atom    3 type  1   force =     0.00001381    0.00021770   -0.00006567
     atom    4 type  1   force =    -0.00000162    0.00000787   -0.00191680
     atom    5 type  1   force =    -0.00001064    0.00002152   -0.00112175
     atom    6 type  1   force =     0.00002938    0.00006424    0.00266862
     atom    7 type  1   force =     0.00003609   -0.00000662   -0.00123754
     atom    8 type  1   force =    -0.00003277   -0.00003145   -0.00119860
     atom    9 type  1   force =    -0.00000842    0.00001876   -0.03240754
     atom   10 type  1   force =     0.00000034    0.02397098    0.06101879
     atom   11 type  1   force =     0.02076331   -0.01198716    0.06105701
     atom   12 type  1   force =    -0.02075859   -0.01198722    0.06110984
     atom   13 type  2   force =    -0.00002883   -0.00012041   -0.14795289

     Total force =     0.189341     Total SCF correction =     0.003952

     entering subroutine stress ...

     negative rho (up, down):  1.557E-02 0.000E+00
          total   stress  (Ry/bohr**3)                   (kbar)     P=  -23.74
  -0.00019437  -0.00000002   0.00000003        -28.59     -0.00      0.00
  -0.00000002  -0.00019424   0.00000011         -0.00    -28.57      0.02
   0.00000003   0.00000011  -0.00009545          0.00      0.02    -14.04

     BFGS Geometry Optimization

     number of scf cycles    =   1
     number of bfgs steps    =   0

     energy   new            =   -1781.5718198050 Ry

     new trust radius        =       0.1479529401 bohr
     new conv_thr            =       0.0000099958 Ry

ATOMIC_POSITIONS (crystal)
V1       0.166666667   0.166666667   0.409694847    0   0   0
V1       0.666666667   0.166666667   0.409694847    0   0   0
V1       0.166666667   0.666666667   0.409694847    0   0   0
V1       0.666666667   0.666666667   0.409694847    0   0   0
V1       0.833333333   0.333333333   0.500000000    0   0   0
V1       0.333333333   0.333333333   0.500000000    0   0   0
V1       0.833333333   0.833333333   0.500000000    0   0   0
V1       0.333333333   0.833333333   0.500000000    0   0   0
V1      -0.000001887   0.000002123   0.589602554
V1       0.498643599   0.002712868   0.591628048
V1       0.002713338   0.498643377   0.591628877
V1       0.498643751   0.498643370   0.591630022
O1       0.333337321   0.333319706   0.645417579

     Writing output data file calc.save
     Check: negative starting charge=   -0.011713
     NEW-OLD atomic charge density approx. for the potential

     Check: negative/imaginary core charge=   -0.000001    0.000000
     Check: negative starting charge=   -0.011564

[...]

     energy   old            =   -1781.5718198050 Ry
     energy   new            =   -1781.6033962699 Ry

     CASE: energy  _new < energy  _old

[...]

     iteration #  1     ecut=    36.75 Ry     beta=0.30
     Davidson diagonalization with overlap
     c_bands:  1 eigenvalues not converged
     ethr =  1.00E-06,  avg # of iterations = 13.9

[...]

     iteration #  1     ecut=    36.75 Ry     beta=0.30
     Davidson diagonalization with overlap
     c_bands:  1 eigenvalues not converged
     c_bands:  1 eigenvalues not converged
     c_bands:  1 eigenvalues not converged
     ethr =  1.00E-06,  avg # of iterations = 17.8

[...]

     Total force =     0.012102     Total SCF correction =     0.000100

[...]

     Total force =     0.004890     Total SCF correction =     0.000609
     SCF correction compared to forces is large: reduce conv_thr to get better values

[...]

     number of scf cycles    =  11
     number of bfgs steps    =  10

     energy   old            =   -1781.6553571040 Ry
     energy   new            =   -1781.6554731539 Ry

     CASE: energy  _new < energy  _old

     new trust radius        =       0.0076897413 bohr
     new conv_thr            =       0.0000001000 Ry

ATOMIC_POSITIONS (crystal)
V1       0.166666667   0.166666667   0.409694847    0   0   0
V1       0.666666667   0.166666667   0.409694847    0   0   0
V1       0.166666667   0.666666667   0.409694847    0   0   0
V1       0.666666667   0.666666667   0.409694847    0   0   0
V1       0.833333333   0.333333333   0.500000000    0   0   0
V1       0.333333333   0.333333333   0.500000000    0   0   0
V1       0.833333333   0.833333333   0.500000000    0   0   0
V1       0.333333333   0.833333333   0.500000000    0   0   0
V1       0.000003702  -0.000007884   0.572625640
V1       0.502237463  -0.004480919   0.594741175
V1      -0.004465532   0.502222568   0.594741632
V1       0.502237126   0.502223753   0.594741446
O1       0.333336242   0.333321935   0.638643059

     Writing output data file calc.save
     Check: negative starting charge=   -0.011041
     NEW-OLD atomic charge density approx. for the potential

     Check: negative/imaginary core charge=   -0.000001    0.000000
     Check: negative starting charge=   -0.011096

[...]

     Self-consistent Calculation

[...]

     Threshold (ethr) on eigenvalues was too large:
     Diagonalizing with lowered threshold

     Davidson diagonalization with overlap
     ethr =  6.83E-08,  avg # of iterations =  2.4

[...]

     total energy              =   -1781.65550050 Ry
     Harris-Foulkes estimate   =   -1781.65550052 Ry
     estimated scf accuracy    <       0.00000025 Ry

     iteration # 13     ecut=    36.75 Ry     beta=0.30
     Davidson diagonalization with overlap
     ethr =  1.53E-10,  avg # of iterations =  3.5

[...]

     negative rho (up, down):  1.518E-02 0.000E+00

     Adding external electric field

     Computed dipole along edir(3) :
        Dipole                0.0048 Ry au,          0.0122 Debye
        Dipole field          0.0000 Ry au

        Potential amp.       -0.0013 Ry
        Total length         44.9721 bohr

     End of self-consistent calculation

[...]

          k = 0.0617-0.0713 0.0000 ( 15642 PWs)   bands (ev):

[...]

          k =-0.0926-0.0535 0.0000 ( 15660 PWs)   bands (ev):

   -63.3196 -63.2919 -63.2627 -63.1375 -63.0961 -63.0668 -63.0431 -63.0254
   -63.0231 -63.0013 -62.9831 -62.7411 -37.3768 -37.2573 -37.2426 -37.2309
   -37.2264 -37.1738 -37.1328 -37.1180 -37.1073 -37.1056 -37.0718 -37.0579
   -37.0509 -37.0330 -37.0229 -36.9377 -36.9183 -36.9063 -36.8651 -36.8596
   -36.8561 -36.8394 -36.8355 -36.8192 -36.8025 -36.7752 -36.7542 -36.7320
   -36.7277 -36.6886 -36.6741 -36.6067 -36.6004 -36.4225 -36.3787 -36.2939
   -18.1408  -4.5823  -4.3011  -4.0717  -3.1752  -3.0921  -1.9304  -1.7461
    -1.2805  -1.2672  -1.1851  -1.1840  -1.1337  -0.8833  -0.6519  -0.5760
    -0.4271  -0.4077  -0.2078  -0.1607  -0.0750   0.1703   0.1728   0.2186
     0.2398   0.3200   0.4017   0.4172   0.6155   0.6366   0.7032   0.7202
     0.8313   0.8825   1.0585   1.1969   1.2552   1.2690   1.3612   1.4448
     1.6068   1.9136   1.9167

     the Fermi energy is     1.0771 ev

!    total energy              =   -1781.65550048 Ry
     Harris-Foulkes estimate   =   -1781.65550052 Ry
     estimated scf accuracy    <       0.00000004 Ry

     The total energy is the sum of the following terms:

     one-electron contribution =  -15574.45169035 Ry
     hartree contribution      =    7777.36109021 Ry
     xc contribution           =    -252.03388385 Ry
     ewald contribution        =    6267.59629881 Ry
     electric field correction =       0.00000007 Ry
     smearing contrib. (-TS)   =      -0.12731537 Ry

     convergence has been achieved in  13 iterations

 BEEF-vdW xc energy contributions
           1 :   -217.166588890265
           2 :    194.823123321805
           3 :   -157.910836318466
           4 :    118.001643823825
           5 :   -85.1644818180471
           6 :    64.2055932433437
           7 :   -54.0505714481772
           8 :    49.9528679201302
           9 :   -46.8535432484235
          10 :    41.9403242681906
          11 :   -35.3064665908300
          12 :    28.8450313670875
          13 :   -24.4333114895397
          14 :    22.6057478878145
          15 :   -22.3914708533748
          16 :    22.1690039402487
          17 :   -20.8140897291771
          18 :    18.3487069508030
          19 :   -15.7343611460787
          20 :    14.0542720633248
          21 :   -13.7179380421432
          22 :    14.2314356849463
          23 :   -14.6272099893219
          24 :    14.1735792132354
          25 :   -12.8413749438070
          26 :    11.2370216759516
          27 :   -10.1148321322390
          28 :    9.84531908330945
          29 :   -10.2024173426166
          30 :    10.5773050329587
          31 :   -22.5214909906446
          32 :   -16.2133959142257

     Forces acting on atoms (Ry/au):

     negative rho (up, down):  1.518E-02 0.000E+00
     atom    1 type  1   force =    -0.00002089   -0.00001215   -0.00115025
     atom    2 type  1   force =     0.00002239   -0.00001196   -0.00115262
     atom    3 type  1   force =    -0.00000065    0.00002852   -0.00114860
     atom    4 type  1   force =     0.00000192    0.00000528    0.00256647
     atom    5 type  1   force =    -0.00000120    0.02846959   -0.01086891
     atom    6 type  1   force =     0.00000379    0.00000406    0.03979040
     atom    7 type  1   force =    -0.02465348   -0.01423354   -0.01087320
     atom    8 type  1   force =     0.02465372   -0.01423686   -0.01087355
     atom    9 type  1   force =    -0.00000578   -0.00000497   -0.00008607
     atom   10 type  1   force =     0.00000211   -0.00058204   -0.00159017
     atom   11 type  1   force =    -0.00050058    0.00029208   -0.00158661
     atom   12 type  1   force =     0.00050024    0.00028784   -0.00158202
     atom   13 type  2   force =    -0.00000160   -0.00000585   -0.00144488

     Total force =     0.003264     Total SCF correction =     0.000455
     SCF correction compared to forces is large: reduce conv_thr to get better values

     entering subroutine stress ...

     negative rho (up, down):  1.518E-02 0.000E+00
          total   stress  (Ry/bohr**3)                   (kbar)     P=  -12.86
  -0.00012436  -0.00000000  -0.00000000        -18.29     -0.00     -0.00
  -0.00000000  -0.00012436  -0.00000001         -0.00    -18.29     -0.00
  -0.00000000  -0.00000001  -0.00001364         -0.00     -0.00     -2.01

     bfgs converged in  12 scf cycles and  11 bfgs steps
     (criteria: energy <  1.0E+00, force <  1.9E-03)

     End of BFGS Geometry Optimization

     Final energy   =   -1781.6555004828 Ry
Begin final coordinates

ATOMIC_POSITIONS (crystal)
V1       0.166666667   0.166666667   0.409694847    0   0   0
V1       0.666666667   0.166666667   0.409694847    0   0   0
V1       0.166666667   0.666666667   0.409694847    0   0   0
V1       0.666666667   0.666666667   0.409694847    0   0   0
V1       0.833333333   0.333333333   0.500000000    0   0   0
V1       0.333333333   0.333333333   0.500000000    0   0   0
V1       0.833333333   0.833333333   0.500000000    0   0   0
V1       0.333333333   0.833333333   0.500000000    0   0   0
V1       0.000003702  -0.000007884   0.572625640
V1       0.502237463  -0.004480919   0.594741175
V1      -0.004465532   0.502222568   0.594741632
V1       0.502237126   0.502223753   0.594741446
O1       0.333336242   0.333321935   0.638643059
End final coordinates

     Writing output data file calc.save

     General routines

     Parallel routines

   This run was terminated on:  19:30:44   2May2018

   JOB DONE.
Job  /afs/slac/g/suncat/bin/suncat-tsmpirun -x LD_LIBRARY_PATH -wdir /scratch/qe821851_2Emhj pw.x -npool 4 -in pw.inp

TID   HOST_NAME   COMMAND_LINE            STATUS            TERMINATION_TIME
00000 suncat0088 pw.x -npool 4 -i  Done                     05/02/2018 19:30:44
00001 suncat0088 pw.x -npool 4 -i  Done                     05/02/2018 19:30:44
00002 suncat0088 pw.x -npool 4 -i  Done                     05/02/2018 19:30:44
00003 suncat0088 pw.x -npool 4 -i  Done                     05/02/2018 19:30:44
00004 suncat0088 pw.x -npool 4 -i  Done                     05/02/2018 19:30:44
00005 suncat0088 pw.x -npool 4 -i  Done                     05/02/2018 19:30:44
00006 suncat0088 pw.x -npool 4 -i  Done                     05/02/2018 19:30:44
00007 suncat0088 pw.x -npool 4 -i  Done                     05/02/2018 19:30:44
00008 suncat0087 pw.x -npool 4 -i  Done                     05/02/2018 19:30:44
00009 suncat0087 pw.x -npool 4 -i  Done                     05/02/2018 19:30:44
00010 suncat0087 pw.x -npool 4 -i  Done                     05/02/2018 19:30:44
00011 suncat0087 pw.x -npool 4 -i  Done                     05/02/2018 19:30:44
00012 suncat0087 pw.x -npool 4 -i  Done                     05/02/2018 19:30:44
00013 suncat0087 pw.x -npool 4 -i  Done                     05/02/2018 19:30:44
00014 suncat0087 pw.x -npool 4 -i  Done                     05/02/2018 19:30:44
00015 suncat0087 pw.x -npool 4 -i  Done                     05/02/2018 19:30:44
00016 suncat0086 pw.x -npool 4 -i  Done                     05/02/2018 19:30:44
00017 suncat0086 pw.x -npool 4 -i  Done                     05/02/2018 19:30:44
00018 suncat0086 pw.x -npool 4 -i  Done                     05/02/2018 19:30:44
00019 suncat0086 pw.x -npool 4 -i  Done                     05/02/2018 19:30:44
00020 suncat0086 pw.x -npool 4 -i  Done                     05/02/2018 19:30:44
00021 suncat0086 pw.x -npool 4 -i  Done                     05/02/2018 19:30:44
00022 suncat0086 pw.x -npool 4 -i  Done                     05/02/2018 19:30:44
00023 suncat0086 pw.x -npool 4 -i  Done                     05/02/2018 19:30:44
00024 suncat0078 pw.x -npool 4 -i  Done                     05/02/2018 19:30:44
00025 suncat0078 pw.x -npool 4 -i  Done                     05/02/2018 19:30:44
00026 suncat0078 pw.x -npool 4 -i  Done                     05/02/2018 19:30:44
00027 suncat0078 pw.x -npool 4 -i  Done                     05/02/2018 19:30:44
00028 suncat0078 pw.x -npool 4 -i  Done                     05/02/2018 19:30:44
00029 suncat0078 pw.x -npool 4 -i  Done                     05/02/2018 19:30:44
00030 suncat0078 pw.x -npool 4 -i  Done                     05/02/2018 19:30:44
00031 suncat0078 pw.x -npool 4 -i  Done                     05/02/2018 19:30:44