     Program PWSCF v.5.1rc2 (svn rev. 11289) starts on 30Apr2018 at 16:49: 1

     Current dimensions of program PWSCF are:
     Max number of different atomic species (ntypx) = 10
     Max number of k-points (npk) =  40000
     Max angular momentum in pseudopotentials (lmaxx) =  3
     Presently stress not available with electric field

     IMPORTANT: XC functional enforced from input :
     Exchange-correlation      = BEEF-VDW ( 1  4 27 13 2)
     Any further DFT definition will be discarded
     Please, verify this is what you really want

     Subspace diagonalization in iterative solution of the eigenvalue problem:
     a serial algorithm will be used

     bravais-lattice index     =            0
     lattice parameter (alat)  =       1.8897  a.u.
     unit-cell volume          =    4650.5773 (a.u.)^3
     number of atoms/cell      =           13
     number of atomic types    =            2
     number of electrons       =        41.00
     number of Kohn-Sham states=           30
     kinetic-energy cutoff     =      36.7493  Ry
     charge density cutoff     =     367.4932  Ry
     convergence threshold     =      1.0E-05
     mixing beta               =       0.3000
     number of iterations used =           10  plain     mixing
     Exchange-correlation      = BEEF-VDW ( 1  4 27 13 2)
     nstep                     =           50

     celldm(1)=   1.889726  celldm(2)=   0.000000  celldm(3)=   0.000000
     celldm(4)=   0.000000  celldm(5)=   0.000000  celldm(6)=   0.000000

     crystal axes: (cart. coord. in units of alat)
               a(1) = (   5.682886   0.000000   0.000000 )
               a(2) = (   2.841443   4.921524   0.000000 )
               a(3) = (   0.000000   0.000000  24.640057 )

     reciprocal axes: (cart. coord. in units 2 pi/alat)
               b(1) = (  0.175967 -0.101595  0.000000 )
               b(2) = (  0.000000  0.203189  0.000000 )
               b(3) = (  0.000000  0.000000  0.040584 )

     PseudoPot. # 1 for Al read from file:
     /u/if/mamunm/psp/gbrv1.5pbe/Al.UPF
     MD5 check sum: 0a6289f5291fc8f409219462bc851e1f
     Pseudo is Ultrasoft + core correction, Zval =  3.0
     Generated by new atomic code, or converted to UPF format
     Using radial grid of  893 points,  3 beta functions with:
                l(1) =   0
                l(2) =   1
                l(3) =   2
     Q(r) pseudized with  8 coefficients,  rinner =    0.900   0.900   0.900
                                                       0.900   0.900

     PseudoPot. # 2 for N  read from file:
     /u/if/mamunm/psp/gbrv1.5pbe/N.UPF
     MD5 check sum: 95339753478d7afb44899504a8723017
     Pseudo is Ultrasoft + core correction, Zval =  5.0
     Generated by new atomic code, or converted to UPF format
     Using radial grid of  729 points,  4 beta functions with:
                l(1) =   0
                l(2) =   0
                l(3) =   1
                l(4) =   1
     Q(r) pseudized with  8 coefficients,  rinner =    0.900   0.900   0.900

     vdW kernel table read from file vdW_kernel_table
     MD5 check sum: 095c7af220d748ca6e76c0b4c6cfb241

     atomic species   valence    mass     pseudopotential
        Al1            3.00    26.98154     Al( 1.00)
        N1             5.00    14.00700     N ( 1.00)

     No symmetry found

   Cartesian axes

     site n.     atom                  positions (alat units)
         1           Al1 tau(   1) = (   1.4207216   0.8202540  10.0000000  )
         2           Al1 tau(   2) = (   4.2621647   0.8202540  10.0000000  )
         3           Al1 tau(   3) = (   2.8414431   3.2810159  10.0000000  )
         4           Al1 tau(   4) = (   5.6828862   3.2810159  10.0000000  )
         5           Al1 tau(   5) = (   5.6828862   1.6405079  12.3200286  )
         6           Al1 tau(   6) = (   2.8414431   1.6405079  12.3200286  )
         7           Al1 tau(   7) = (   7.1036078   4.1012699  12.3200286  )
         8           Al1 tau(   8) = (   4.2621647   4.1012699  12.3200286  )
         9           Al1 tau(   9) = (   0.0000000   0.0000000  14.6400572  )
        10           Al1 tau(  10) = (   2.8414431   0.0000000  14.6400572  )
        11           Al1 tau(  11) = (   1.4207216   2.4607619  14.6400572  )
        12           Al1 tau(  12) = (   4.2621647   2.4607619  14.6400572  )
        13           N1  tau(  13) = (   2.8414431   1.6405079  15.8880572  )

     number of k points=    20  Fermi-Dirac smearing, width (Ry)=  0.0110
                       cart. coord. in units 2pi/alat
        k(    1) = (   0.0000000   0.0000000   0.0000000), wk =   0.0555556
        k(    2) = (   0.0000000   0.0338648   0.0000000), wk =   0.1111111
        k(    3) = (   0.0000000   0.0677297   0.0000000), wk =   0.1111111
        k(    4) = (   0.0000000  -0.1015945   0.0000000), wk =   0.0555556
        k(    5) = (   0.0293278  -0.0169324   0.0000000), wk =   0.1111111
        k(    6) = (   0.0293278   0.0169324   0.0000000), wk =   0.1111111
        k(    7) = (   0.0293278   0.0507973   0.0000000), wk =   0.1111111
        k(    8) = (   0.0293278  -0.1185270   0.0000000), wk =   0.1111111
        k(    9) = (   0.0293278  -0.0846621   0.0000000), wk =   0.1111111
        k(   10) = (   0.0293278  -0.0507973   0.0000000), wk =   0.1111111
        k(   11) = (   0.0586556  -0.0338648   0.0000000), wk =   0.1111111
        k(   12) = (   0.0586556   0.0000000   0.0000000), wk =   0.1111111
        k(   13) = (   0.0586556   0.0338648   0.0000000), wk =   0.1111111
        k(   14) = (   0.0586556  -0.1354594   0.0000000), wk =   0.1111111
        k(   15) = (   0.0586556  -0.1015945   0.0000000), wk =   0.1111111
        k(   16) = (   0.0586556  -0.0677297   0.0000000), wk =   0.1111111
        k(   17) = (  -0.0879835   0.0507973   0.0000000), wk =   0.0555556
        k(   18) = (  -0.0879835   0.0846621   0.0000000), wk =   0.1111111
        k(   19) = (  -0.0879835   0.1185270   0.0000000), wk =   0.1111111
        k(   20) = (  -0.0879835  -0.0507973   0.0000000), wk =   0.0555556

     Largest allocated arrays     est. size (Mb)     dimensions
     Largest temporary arrays     est. size (Mb)     dimensions

     Initial potential from superposition of free atoms
     Check: negative starting charge=   -0.000176

     starting charge   40.97041, renormalised to   41.00000

     negative rho (up, down):  1.762E-04 0.000E+00

     *
     * You are using vdW-DF for exchange-correlation in this calculation.
     * Please cite the following three references that made this development
     * possible:
     *
     *   M. Dion, H. Rydberg, E. Schroder, D. C. Langreth, and
     *   B. I. Lundqvist, Phys. Rev. Lett. 92, 246401 (2004).
     *
     *   T. Thonhauser, V. R. Cooper, S. Li, A. Puzder, P. Hyldgaard, and
     *   D. C. Langreth, Phys. Rev. B 76, 125112 (2007).
     *
     *   G. Roman-Perez and J. M. Soler, Phys. Rev. Lett. 103, 096102 (2009).
     *
     *
     * If you are using vdW-DF2, please also cite:
     *
     *   K. Lee, E. D. Murray, L. Kong, B. I. Lundqvist, and
     *   D. C. Langreth, Phys. Rev. B 82, 081101(R) (2010).
     *
     *
     * If you are calculating the stress with vdW-DF, please also cite:
     *
     *   R. Sabatini, E. Kucukbenli, B. Kolb, T. Thonhauser, and
     *   S. de Gironcoli, J. Phys.: Condens. Matter 24, 424209 (2012).
     *

     Carrying out vdW-DF run using the following parameters:

     Nqs =      20    Nr_points =    1024   r_max =   100.000
     q_mesh =
               0.00001000     0.04494208     0.09755937     0.15916263
               0.23128650     0.31572767     0.41458969     0.53033537
               0.66584808     0.82450364     1.01025438     1.22772762
               1.48234092     1.78043706     2.12944203     2.53805004
               3.01644009     3.57652955     4.23227104     5.00000000

     Gradients computed in reciprocal space

     Adding external electric field

     Computed dipole along edir(3) :
        Dipole               -0.0243 Ry au,         -0.0617 Debye
        Dipole field         -0.0001 Ry au

        Potential amp.        0.0060 Ry
        Total length         45.3989 bohr

     Starting wfc are   52 randomized atomic wfcs

     Self-consistent Calculation

     iteration #  1     ecut=    36.75 Ry     beta=0.30
     Davidson diagonalization with overlap
     ethr =  1.00E-02,  avg # of iterations =  3.0

[...]

     total energy              =    -102.01079767 Ry
     Harris-Foulkes estimate   =    -103.01240480 Ry
     estimated scf accuracy    <       2.25365865 Ry

[...]

     End of self-consistent calculation

          k = 0.0000 0.0000 0.0000 ( 17579 PWs)   bands (ev):

   -14.7988 -11.7036  -9.8141  -7.0495  -6.0418  -6.0418  -5.8973  -5.8318
    -5.8318  -5.7716  -4.8151  -4.8151  -4.6709  -4.4892  -4.4892  -3.9053
    -3.7285  -2.9695  -2.9695  -2.3551  -1.5697  -1.3296  -1.3296  -0.2575
    -0.2302  -0.2302   0.4011   1.4991   1.5398   1.5398

[...]

          k =-0.0880 0.0508 0.0000 ( 17464 PWs)   bands (ev):

[...]

     the Fermi energy is    -1.1583 ev

!    total energy              =    -102.71577702 Ry
     Harris-Foulkes estimate   =    -102.71582953 Ry
     estimated scf accuracy    <       0.00000806 Ry

     The total energy is the sum of the following terms:

     one-electron contribution =    -760.84185772 Ry
     hartree contribution      =     388.69206816 Ry
     xc contribution           =     -58.60293866 Ry
     ewald contribution        =     328.06684183 Ry
     electric field correction =       0.00041649 Ry
     smearing contrib. (-TS)   =      -0.03030712 Ry

     convergence has been achieved in  10 iterations

 BEEF-vdW xc energy contributions
           1 :   -48.1991403900253
           2 :    41.4051579269693
           3 :   -30.9717867090538
           4 :    20.9996442265964
           5 :   -14.1113460454713
           6 :    10.4812899129690
           7 :   -8.62246398204370
           8 :    6.99692481937049
           9 :   -5.12661342525384
          10 :    3.51332787462361
          11 :   -2.75751314842842
          12 :    2.82418003813858
          13 :   -3.07590931190922
          14 :    2.88885379675649
          15 :   -2.18067032328300
          16 :    1.37149166752913
          17 :  -0.898723953307318
          18 :   0.803197667179589
          19 :  -0.764503254407963
          20 :   0.479692264288914
          21 :   3.021487559483660E-002
          22 :  -0.473100994694995
          23 :   0.599473408627802
          24 :  -0.444364299651468
          25 :   0.270895345347398
          26 :  -0.300603164312889
          27 :   0.511325256740690
          28 :  -0.690449149124710
          29 :   0.665351027724782
          30 :  -0.472064510691368
          31 :   -7.13132250678471
          32 :   -5.18642432592000

     Forces acting on atoms (Ry/au):

     negative rho (up, down):  6.980E-04 0.000E+00
     atom    1 type  1   force =     0.00276210    0.00159459   -0.00172326
     atom    2 type  1   force =    -0.00276234    0.00159501   -0.00172356
     atom    3 type  1   force =     0.00000015   -0.00318968   -0.00172367
     atom    4 type  1   force =     0.00000007   -0.00000012   -0.00499559
     atom    5 type  1   force =     0.00000028   -0.00287982    0.00510473
     atom    6 type  1   force =    -0.00000035   -0.00000029   -0.00547185
     atom    7 type  1   force =     0.00249392    0.00143965    0.00510484
     atom    8 type  1   force =    -0.00249363    0.00144004    0.00510480
     atom    9 type  1   force =    -0.00000001    0.00000048   -0.01295264
     atom   10 type  1   force =     0.00000011    0.02254511    0.04995124
     atom   11 type  1   force =     0.01952447   -0.01127298    0.04995117
     atom   12 type  1   force =    -0.01952455   -0.01127327    0.04995132
     atom   13 type  2   force =    -0.00000019    0.00000127   -0.13657751

     Total force =     0.166828     Total SCF correction =     0.001976

     entering subroutine stress ...

     negative rho (up, down):  6.980E-04 0.000E+00
          total   stress  (Ry/bohr**3)                   (kbar)     P=  -12.66
  -0.00009900   0.00000000   0.00000000        -14.56      0.00      0.00
   0.00000000  -0.00009900  -0.00000000          0.00    -14.56     -0.00
   0.00000000  -0.00000000  -0.00006013          0.00     -0.00     -8.85

     BFGS Geometry Optimization

     number of scf cycles    =   1
     number of bfgs steps    =   0

     energy   new            =    -102.7157770219 Ry

     new trust radius        =       0.1365775149 bohr
     new conv_thr            =       0.0000099958 Ry

ATOMIC_POSITIONS (crystal)
Al1      0.166666667   0.166666667   0.405843214    0   0   0
Al1      0.666666667   0.166666667   0.405843214    0   0   0
Al1      0.166666667   0.666666667   0.405843214    0   0   0
Al1      0.666666667   0.666666667   0.405843214    0   0   0
Al1      0.833333333   0.333333333   0.500000000    0   0   0
Al1      0.333333333   0.333333333   0.500000000    0   0   0
Al1      0.833333333   0.833333333   0.500000000    0   0   0
Al1      0.333333333   0.833333333   0.500000000    0   0   0
Al1     -0.000000027   0.000000051   0.593878611
Al1      0.498787950   0.002424119   0.595229554
Al1      0.002424125   0.498787895   0.595229552
Al1      0.498787988   0.498787863   0.595229555
N1       0.333333247   0.333333470   0.641872840

     Writing output data file calc.save
     Check: negative starting charge=   -0.000176
     NEW-OLD atomic charge density approx. for the potential
     Check: negative starting charge=   -0.000168

[...]

     energy   old            =    -102.7157770219 Ry
     energy   new            =    -102.7405066757 Ry

     CASE: energy  _new < energy  _old

[...]

     Threshold (ethr) on eigenvalues was too large:
     Diagonalizing with lowered threshold

     Davidson diagonalization with overlap
     ethr =  9.32E-08,  avg # of iterations =  1.8

[...]

     number of scf cycles    =  14
     number of bfgs steps    =  13

     energy   old            =    -102.7847182400 Ry
     energy   new            =    -102.7847395975 Ry

     CASE: energy  _new < energy  _old

     new trust radius        =       0.0059623156 bohr
     new conv_thr            =       0.0000001000 Ry

ATOMIC_POSITIONS (crystal)
Al1      0.166666667   0.166666667   0.405843214    0   0   0
Al1      0.666666667   0.166666667   0.405843214    0   0   0
Al1      0.166666667   0.666666667   0.405843214    0   0   0
Al1      0.666666667   0.666666667   0.405843214    0   0   0
Al1      0.833333333   0.333333333   0.500000000    0   0   0
Al1      0.333333333   0.333333333   0.500000000    0   0   0
Al1      0.833333333   0.833333333   0.500000000    0   0   0
Al1      0.333333333   0.833333333   0.500000000    0   0   0
Al1     -0.000000027   0.000000020   0.588839060
Al1      0.508181858  -0.016363753   0.598294854
Al1     -0.016363804   0.508181929   0.598294853
Al1      0.508181836   0.508181923   0.598294855
N1       0.333333299   0.333333359   0.625868701

     Writing output data file calc.save
     Check: negative starting charge=   -0.000163
     NEW-OLD atomic charge density approx. for the potential
     Check: negative starting charge=   -0.000163

[...]

     Self-consistent Calculation

[...]

     Threshold (ethr) on eigenvalues was too large:
     Diagonalizing with lowered threshold

     Davidson diagonalization with overlap
     ethr =  2.10E-08,  avg # of iterations =  2.0

[...]

     total energy              =    -102.78475471 Ry
     Harris-Foulkes estimate   =    -102.78475470 Ry
     estimated scf accuracy    <       0.00000016 Ry

     iteration #  6     ecut=    36.75 Ry     beta=0.30
     Davidson diagonalization with overlap
     ethr =  3.87E-10,  avg # of iterations =  1.4

[...]

     negative rho (up, down):  7.174E-04 0.000E+00

     Adding external electric field

     Computed dipole along edir(3) :
        Dipole               -0.1170 Ry au,         -0.2973 Debye
        Dipole field         -0.0003 Ry au

        Potential amp.        0.0287 Ry
        Total length         45.3989 bohr

     End of self-consistent calculation

[...]

          k = 0.0587-0.0677 0.0000 ( 17495 PWs)   bands (ev):

[...]

          k =-0.0880-0.0508 0.0000 ( 17464 PWs)   bands (ev):

   -15.6649 -10.0388  -9.7271  -8.5289  -7.8126  -7.1975  -6.8286  -6.1581
    -6.0988  -5.5514  -4.5811  -4.1902  -4.1769  -3.3068  -2.3903  -2.3306
    -1.9836  -1.2761  -1.2001  -0.9530  -0.5959  -0.5782   0.3124   0.4236
     0.8504   0.8800   1.2898   1.6167   1.7170   1.7452

     the Fermi energy is    -0.7911 ev

!    total energy              =    -102.78475476 Ry
     Harris-Foulkes estimate   =    -102.78475491 Ry
     estimated scf accuracy    <       0.00000003 Ry

     The total energy is the sum of the following terms:

     one-electron contribution =    -783.04978549 Ry
     hartree contribution      =     400.17529681 Ry
     xc contribution           =     -58.85642753 Ry
     ewald contribution        =     338.97646286 Ry
     electric field correction =       0.00003698 Ry
     smearing contrib. (-TS)   =      -0.03033841 Ry

     convergence has been achieved in   6 iterations

 BEEF-vdW xc energy contributions
           1 :   -48.4445525525769
           2 :    41.6600012331146
           3 :   -31.1926025382537
           4 :    21.1068354220901
           5 :   -14.0397018763549
           6 :    10.2154747769122
           7 :   -8.20830762422709
           8 :    6.52499678700657
           9 :   -4.69052741275580
          10 :    3.16484332150713
          11 :   -2.48923299228811
          12 :    2.59236502637317
          13 :   -2.84297459144701
          14 :    2.64981277709500
          15 :   -1.95406017214716
          16 :    1.17044329709914
          17 :  -0.717420613902782
          18 :   0.632285319804630
          19 :  -0.612810255955296
          20 :   0.373458805671582
          21 :   7.036180563749639E-002
          22 :  -0.452086926263995
          23 :   0.544486626396449
          24 :  -0.382101890387197
          25 :   0.208345156144766
          26 :  -0.227319070381817
          27 :   0.416873146555481
          28 :  -0.576461519024946
          29 :   0.541076775226607
          30 :  -0.340402160181888
          31 :   -7.14609487641426
          32 :   -5.19539525474538

     Forces acting on atoms (Ry/au):

     negative rho (up, down):  7.174E-04 0.000E+00
     atom    1 type  1   force =     0.00211774    0.00122267   -0.00336048
     atom    2 type  1   force =    -0.00211774    0.00122268   -0.00336048
     atom    3 type  1   force =     0.00000000   -0.00244535   -0.00336048
     atom    4 type  1   force =     0.00000000    0.00000000   -0.00536609
     atom    5 type  1   force =    -0.00000000    0.00600607    0.00580432
     atom    6 type  1   force =     0.00000000   -0.00000000   -0.00220931
     atom    7 type  1   force =    -0.00520141   -0.00300303    0.00580432
     atom    8 type  1   force =     0.00520140   -0.00300303    0.00580432
     atom    9 type  1   force =     0.00000000    0.00000001    0.00192416
     atom   10 type  1   force =    -0.00000000    0.00131673   -0.00001261
     atom   11 type  1   force =     0.00114029   -0.00065837   -0.00001261
     atom   12 type  1   force =    -0.00114027   -0.00065836   -0.00001263
     atom   13 type  2   force =    -0.00000001   -0.00000002   -0.00164243

     Total force =     0.003406     Total SCF correction =     0.000040

     entering subroutine stress ...

     negative rho (up, down):  7.174E-04 0.000E+00
          total   stress  (Ry/bohr**3)                   (kbar)     P=   -5.43
  -0.00006175   0.00000000   0.00000000         -9.08      0.00      0.00
   0.00000000  -0.00006175  -0.00000000          0.00     -9.08     -0.00
   0.00000000  -0.00000000   0.00001274          0.00     -0.00      1.87

     bfgs converged in  15 scf cycles and  14 bfgs steps
     (criteria: energy <  1.0E+00, force <  1.9E-03)

     End of BFGS Geometry Optimization

     Final energy   =    -102.7847547645 Ry
Begin final coordinates

ATOMIC_POSITIONS (crystal)
Al1      0.166666667   0.166666667   0.405843214    0   0   0
Al1      0.666666667   0.166666667   0.405843214    0   0   0
Al1      0.166666667   0.666666667   0.405843214    0   0   0
Al1      0.666666667   0.666666667   0.405843214    0   0   0
Al1      0.833333333   0.333333333   0.500000000    0   0   0
Al1      0.333333333   0.333333333   0.500000000    0   0   0
Al1      0.833333333   0.833333333   0.500000000    0   0   0
Al1      0.333333333   0.833333333   0.500000000    0   0   0
Al1     -0.000000027   0.000000020   0.588839060
Al1      0.508181858  -0.016363753   0.598294854
Al1     -0.016363804   0.508181929   0.598294853
Al1      0.508181836   0.508181923   0.598294855
N1       0.333333299   0.333333359   0.625868701
End final coordinates

     Writing output data file calc.save

     General routines

     Parallel routines

   This run was terminated on:  17:21:35  30Apr2018

   JOB DONE.
Job  /afs/slac/g/suncat/bin/suncat-tsmpirun -x LD_LIBRARY_PATH -wdir /scratch/qe525764_akihg pw.x -npool 4 -in pw.inp

TID   HOST_NAME   COMMAND_LINE            STATUS            TERMINATION_TIME
00000 suncat0182 pw.x -npool 4 -i  Done                     04/30/2018 17:21:35
00001 suncat0182 pw.x -npool 4 -i  Done                     04/30/2018 17:21:35
00002 suncat0182 pw.x -npool 4 -i  Done                     04/30/2018 17:21:35
00003 suncat0182 pw.x -npool 4 -i  Done                     04/30/2018 17:21:35
00004 suncat0182 pw.x -npool 4 -i  Done                     04/30/2018 17:21:35
00005 suncat0182 pw.x -npool 4 -i  Done                     04/30/2018 17:21:35
00006 suncat0182 pw.x -npool 4 -i  Done                     04/30/2018 17:21:35
00007 suncat0182 pw.x -npool 4 -i  Done                     04/30/2018 17:21:35
00008 suncat0173 pw.x -npool 4 -i  Done                     04/30/2018 17:21:35
00009 suncat0173 pw.x -npool 4 -i  Done                     04/30/2018 17:21:35
00010 suncat0173 pw.x -npool 4 -i  Done                     04/30/2018 17:21:35
00011 suncat0173 pw.x -npool 4 -i  Done                     04/30/2018 17:21:35
00012 suncat0173 pw.x -npool 4 -i  Done                     04/30/2018 17:21:35
00013 suncat0173 pw.x -npool 4 -i  Done                     04/30/2018 17:21:35
00014 suncat0173 pw.x -npool 4 -i  Done                     04/30/2018 17:21:35
00015 suncat0173 pw.x -npool 4 -i  Done                     04/30/2018 17:21:35
00016 suncat0201 pw.x -npool 4 -i  Done                     04/30/2018 17:21:35
00017 suncat0201 pw.x -npool 4 -i  Done                     04/30/2018 17:21:35
00018 suncat0201 pw.x -npool 4 -i  Done                     04/30/2018 17:21:35
00019 suncat0201 pw.x -npool 4 -i  Done                     04/30/2018 17:21:35
00020 suncat0201 pw.x -npool 4 -i  Done                     04/30/2018 17:21:35
00021 suncat0201 pw.x -npool 4 -i  Done                     04/30/2018 17:21:35
00022 suncat0201 pw.x -npool 4 -i  Done                     04/30/2018 17:21:35
00023 suncat0201 pw.x -npool 4 -i  Done                     04/30/2018 17:21:35
00024 suncat0099 pw.x -npool 4 -i  Done                     04/30/2018 17:21:35
00025 suncat0099 pw.x -npool 4 -i  Done                     04/30/2018 17:21:35
00026 suncat0099 pw.x -npool 4 -i  Done                     04/30/2018 17:21:35
00027 suncat0099 pw.x -npool 4 -i  Done                     04/30/2018 17:21:35
00028 suncat0099 pw.x -npool 4 -i  Done                     04/30/2018 17:21:35
00029 suncat0099 pw.x -npool 4 -i  Done                     04/30/2018 17:21:35
00030 suncat0099 pw.x -npool 4 -i  Done                     04/30/2018 17:21:35
00031 suncat0099 pw.x -npool 4 -i  Done                     04/30/2018 17:21:35