     Program PWSCF v.5.1rc2 (svn rev. 11289) starts on  2May2018 at 13:20:36

     Current dimensions of program PWSCF are:
     Max number of different atomic species (ntypx) = 10
     Max number of k-points (npk) =  40000
     Max angular momentum in pseudopotentials (lmaxx) =  3
     Presently stress not available with electric field

     IMPORTANT: XC functional enforced from input :
     Exchange-correlation      = BEEF-VDW ( 1  4 27 13 2)
     Any further DFT definition will be discarded
     Please, verify this is what you really want

     Subspace diagonalization in iterative solution of the eigenvalue problem:
     a serial algorithm will be used

     bravais-lattice index     =            0
     lattice parameter (alat)  =       1.8897  a.u.
     unit-cell volume          =    3724.3394 (a.u.)^3
     number of atoms/cell      =           13
     number of atomic types    =            2
     number of electrons       =       169.00
     number of Kohn-Sham states=           94
     kinetic-energy cutoff     =      36.7493  Ry
     charge density cutoff     =     367.4932  Ry
     convergence threshold     =      1.0E-05
     mixing beta               =       0.3000
     number of iterations used =           10  plain     mixing
     Exchange-correlation      = BEEF-VDW ( 1  4 27 13 2)
     nstep                     =           50

     celldm(1)=   1.889726  celldm(2)=   0.000000  celldm(3)=   0.000000
     celldm(4)=   0.000000  celldm(5)=   0.000000  celldm(6)=   0.000000

     crystal axes: (cart. coord. in units of alat)
               a(1) = (   5.132588   0.000000   0.000000 )
               a(2) = (   2.566294   4.444952   0.000000 )
               a(3) = (   0.000000   0.000000  24.190741 )

     reciprocal axes: (cart. coord. in units 2 pi/alat)
               b(1) = (  0.194833 -0.112487  0.000000 )
               b(2) = (  0.000000  0.224974  0.000000 )
               b(3) = (  0.000000  0.000000  0.041338 )

     PseudoPot. # 1 for Cr read from file:
     /u/if/mamunm/psp/gbrv1.5pbe/Cr.UPF
     MD5 check sum: 0d52af634a40206e4dee301ad30da4bf
     Pseudo is Ultrasoft + core correction, Zval = 14.0
     Generated by new atomic code, or converted to UPF format
     Using radial grid of  857 points,  6 beta functions with:
                l(1) =   0
                l(2) =   0
                l(3) =   1
                l(4) =   1
                l(5) =   2
                l(6) =   2
     Q(r) pseudized with  8 coefficients,  rinner =    0.950   0.950   0.950
                                                       0.950   0.950

     PseudoPot. # 2 for H  read from file:
     /u/if/mamunm/psp/gbrv1.5pbe/H.UPF
     MD5 check sum: 761ae9a214b05c3daf00ab9f6b793d6f
     Pseudo is Ultrasoft, Zval =  1.0
     Generated by new atomic code, or converted to UPF format
     Using radial grid of  615 points,  2 beta functions with:
                l(1) =   0
                l(2) =   0
     Q(r) pseudized with  8 coefficients,  rinner =    0.700

     vdW kernel table read from file vdW_kernel_table
     MD5 check sum: 095c7af220d748ca6e76c0b4c6cfb241

     atomic species   valence    mass     pseudopotential
        Cr1           14.00    51.99610     Cr( 1.00)
        H1             1.00     1.00800     H ( 1.00)

     No symmetry found

   Cartesian axes

     site n.     atom                  positions (alat units)
         1           Cr1 tau(   1) = (   1.2831471   0.7408253  10.0000000  )
         2           Cr1 tau(   2) = (   3.8494412   0.7408253  10.0000000  )
         3           Cr1 tau(   3) = (   2.5662941   2.9633012  10.0000000  )
         4           Cr1 tau(   4) = (   5.1325882   2.9633012  10.0000000  )
         5           Cr1 tau(   5) = (   5.1325882   1.4816506  12.0953704  )
         6           Cr1 tau(   6) = (   2.5662941   1.4816506  12.0953704  )
         7           Cr1 tau(   7) = (   6.4157353   3.7041265  12.0953704  )
         8           Cr1 tau(   8) = (   3.8494412   3.7041265  12.0953704  )
         9           Cr1 tau(   9) = (   0.0000000   0.0000000  14.1907408  )
        10           Cr1 tau(  10) = (   2.5662941   0.0000000  14.1907408  )
        11           Cr1 tau(  11) = (   1.2831471   2.2224759  14.1907408  )
        12           Cr1 tau(  12) = (   3.8494412   2.2224759  14.1907408  )
        13           H1  tau(  13) = (   1.2831471   0.7408253  15.2957408  )

     number of k points=    20  Fermi-Dirac smearing, width (Ry)=  0.0110
                       cart. coord. in units 2pi/alat
        k(    1) = (   0.0000000   0.0000000   0.0000000), wk =   0.0555556
        k(    2) = (   0.0000000   0.0374957   0.0000000), wk =   0.1111111
        k(    3) = (   0.0000000   0.0749914   0.0000000), wk =   0.1111111
        k(    4) = (   0.0000000  -0.1124872   0.0000000), wk =   0.0555556
        k(    5) = (   0.0324722  -0.0187479   0.0000000), wk =   0.1111111
        k(    6) = (   0.0324722   0.0187479   0.0000000), wk =   0.1111111
        k(    7) = (   0.0324722   0.0562436   0.0000000), wk =   0.1111111
        k(    8) = (   0.0324722  -0.1312350   0.0000000), wk =   0.1111111
        k(    9) = (   0.0324722  -0.0937393   0.0000000), wk =   0.1111111
        k(   10) = (   0.0324722  -0.0562436   0.0000000), wk =   0.1111111
        k(   11) = (   0.0649445  -0.0374957   0.0000000), wk =   0.1111111
        k(   12) = (   0.0649445   0.0000000   0.0000000), wk =   0.1111111
        k(   13) = (   0.0649445   0.0374957   0.0000000), wk =   0.1111111
        k(   14) = (   0.0649445  -0.1499829   0.0000000), wk =   0.1111111
        k(   15) = (   0.0649445  -0.1124872   0.0000000), wk =   0.1111111
        k(   16) = (   0.0649445  -0.0749914   0.0000000), wk =   0.1111111
        k(   17) = (  -0.0974167   0.0562436   0.0000000), wk =   0.0555556
        k(   18) = (  -0.0974167   0.0937393   0.0000000), wk =   0.1111111
        k(   19) = (  -0.0974167   0.1312350   0.0000000), wk =   0.1111111
        k(   20) = (  -0.0974167  -0.0562436   0.0000000), wk =   0.0555556

     Largest allocated arrays     est. size (Mb)     dimensions
     Largest temporary arrays     est. size (Mb)     dimensions

     Check: negative/imaginary core charge=   -0.000004    0.000000

     Initial potential from superposition of free atoms
     Check: negative starting charge=   -0.015038

     starting charge  156.99981, renormalised to  169.00000

     negative rho (up, down):  1.619E-02 0.000E+00

     *
     * You are using vdW-DF for exchange-correlation in this calculation.
     * Please cite the following three references that made this development
     * possible:
     *
     *   M. Dion, H. Rydberg, E. Schroder, D. C. Langreth, and
     *   B. I. Lundqvist, Phys. Rev. Lett. 92, 246401 (2004).
     *
     *   T. Thonhauser, V. R. Cooper, S. Li, A. Puzder, P. Hyldgaard, and
     *   D. C. Langreth, Phys. Rev. B 76, 125112 (2007).
     *
     *   G. Roman-Perez and J. M. Soler, Phys. Rev. Lett. 103, 096102 (2009).
     *
     *
     * If you are using vdW-DF2, please also cite:
     *
     *   K. Lee, E. D. Murray, L. Kong, B. I. Lundqvist, and
     *   D. C. Langreth, Phys. Rev. B 82, 081101(R) (2010).
     *
     *
     * If you are calculating the stress with vdW-DF, please also cite:
     *
     *   R. Sabatini, E. Kucukbenli, B. Kolb, T. Thonhauser, and
     *   S. de Gironcoli, J. Phys.: Condens. Matter 24, 424209 (2012).
     *

     Carrying out vdW-DF run using the following parameters:

     Nqs =      20    Nr_points =    1024   r_max =   100.000
     q_mesh =
               0.00001000     0.04494208     0.09755937     0.15916263
               0.23128650     0.31572767     0.41458969     0.53033537
               0.66584808     0.82450364     1.01025438     1.22772762
               1.48234092     1.78043706     2.12944203     2.53805004
               3.01644009     3.57652955     4.23227104     5.00000000

     Gradients computed in reciprocal space

     Adding external electric field

     Computed dipole along edir(3) :
        Dipole               -0.4622 Ry au,         -1.1748 Debye
        Dipole field         -0.0016 Ry au

        Potential amp.        0.1390 Ry
        Total length         44.5710 bohr

     Starting wfc are  121 randomized atomic wfcs

     Self-consistent Calculation

     iteration #  1     ecut=    36.75 Ry     beta=0.30
     Davidson diagonalization with overlap
     ethr =  1.00E-02,  avg # of iterations =  5.3

[...]

     total energy              =   -2105.33817545 Ry
     Harris-Foulkes estimate   =   -2123.42558708 Ry
     estimated scf accuracy    <      39.82567199 Ry

[...]

     iteration # 23     ecut=    36.75 Ry     beta=0.30
     Davidson diagonalization with overlap
     c_bands:  1 eigenvalues not converged
     ethr =  1.33E-04,  avg # of iterations =  5.7

[...]

     End of self-consistent calculation

          k = 0.0000 0.0000 0.0000 ( 14081 PWs)   bands (ev):

   -70.6127 -70.5062 -70.4814 -70.4804 -70.4627 -70.4500 -70.4122 -70.4111
   -70.3923 -70.3580 -70.3556 -70.3547 -42.2113 -42.2013 -42.2009 -42.1488
   -42.1216 -42.0897 -42.0897 -42.0156 -42.0043 -42.0040 -41.8584 -41.7870
   -41.7862 -41.7694 -41.7490 -41.7488 -41.7483 -41.6934 -41.6929 -41.6918
   -41.6263 -41.6256 -41.6156 -41.5706 -41.5670 -41.5662 -41.5357 -41.5306
   -41.5305 -41.5015 -41.5012 -41.4998 -41.4136 -41.4134 -41.3686 -41.3686
    -5.8000  -4.6364  -3.2373  -2.5778  -2.5280  -2.5277  -2.5174  -2.2211
    -2.2209  -2.0651  -1.7701  -1.7701  -1.7185  -1.6833  -1.6831  -1.2929
    -0.7970  -0.7967  -0.3449   0.1464   0.1860   0.1861   0.2723   0.4030
     0.6931   0.6931   0.8862   0.8862   0.9086   0.9398   0.9402   0.9507
     0.9511   0.9573   1.0543   1.0543   1.2127   1.7037   1.7240   1.7243
     2.0145   2.0148   2.0443   2.3187   2.3188   2.5839

[...]

          k =-0.0974 0.0562 0.0000 ( 14010 PWs)   bands (ev):

[...]

     the Fermi energy is     1.1151 ev

!    total energy              =   -2116.11997678 Ry
     Harris-Foulkes estimate   =   -2116.11998472 Ry
     estimated scf accuracy    <       0.00000825 Ry

     The total energy is the sum of the following terms:

     one-electron contribution =  -19526.94465048 Ry
     hartree contribution      =    9754.27836602 Ry
     xc contribution           =    -279.83217853 Ry
     ewald contribution        =    7936.51080180 Ry
     electric field correction =       0.00000002 Ry
     smearing contrib. (-TS)   =      -0.13231561 Ry

     convergence has been achieved in  43 iterations

 BEEF-vdW xc energy contributions
           1 :   -242.292650224460
           2 :    218.168642012230
           3 :   -177.863152729804
           4 :    133.508319937826
           5 :   -96.1700970948241
           6 :    71.7755633691842
           7 :   -59.9737043354467
           8 :    55.9861072319568
           9 :   -54.0210918504283
          10 :    50.2744902681507
          11 :   -44.1317606435932
          12 :    37.3870567904073
          13 :   -32.3708622630424
          14 :    30.2559439586857
          15 :   -30.4503801818596
          16 :    31.2013671418472
          17 :   -30.8308202823076
          18 :    28.7526817214027
          19 :   -25.6792437294713
          20 :    22.9865888977191
          21 :   -21.7319702241380
          22 :    21.9827116876659
          23 :   -22.8578928048523
          24 :    23.1861406884076
          25 :   -22.2936318454714
          26 :    20.3952076484493
          27 :   -18.3723995931350
          28 :    17.1390445447279
          29 :   -17.0428062739456
          30 :    17.6828051163909
          31 :   -23.9316706958800
          32 :   -17.2036962377264

     Forces acting on atoms (Ry/au):

     negative rho (up, down):  1.462E-02 0.000E+00
     atom    1 type  1   force =    -0.00000353    0.00000616    0.00027425
     atom    2 type  1   force =     0.00000309   -0.00026324   -0.00032229
     atom    3 type  1   force =    -0.00023607    0.00012822   -0.00032072
     atom    4 type  1   force =     0.00023259    0.00012723   -0.00031484
     atom    5 type  1   force =     0.00091137   -0.00052667    0.00375473
     atom    6 type  1   force =    -0.00090525   -0.00049467    0.00376161
     atom    7 type  1   force =    -0.00001433   -0.00000465   -0.01006149
     atom    8 type  1   force =     0.00001265    0.00104564    0.00377066
     atom    9 type  1   force =    -0.00807720   -0.00467076    0.00518951
     atom   10 type  1   force =     0.00809246   -0.00465555    0.00519791
     atom   11 type  1   force =     0.00000183    0.00933201    0.00517580
     atom   12 type  1   force =    -0.00000189   -0.00000998   -0.00938872
     atom   13 type  2   force =    -0.00001571   -0.00001375   -0.00671640

     Total force =     0.021801     Total SCF correction =     0.004677
     SCF correction compared to forces is large: reduce conv_thr to get better values

     entering subroutine stress ...

     negative rho (up, down):  1.462E-02 0.000E+00
          total   stress  (Ry/bohr**3)                   (kbar)     P=  -26.28
  -0.00026082  -0.00000003  -0.00000002        -38.37     -0.00     -0.00
  -0.00000003  -0.00026075  -0.00000003         -0.00    -38.36     -0.00
  -0.00000002  -0.00000003  -0.00001447         -0.00     -0.00     -2.13

     BFGS Geometry Optimization

     number of scf cycles    =   1
     number of bfgs steps    =   0

     energy   new            =   -2116.1199767794 Ry

     new trust radius        =       0.0106855212 bohr
     new conv_thr            =       0.0000099958 Ry

ATOMIC_POSITIONS (crystal)
Cr1      0.166666667   0.166666667   0.413381306    0   0   0
Cr1      0.666666667   0.166666667   0.413381306    0   0   0
Cr1      0.166666667   0.666666667   0.413381306    0   0   0
Cr1      0.666666667   0.666666667   0.413381306    0   0   0
Cr1      0.833333333   0.333333333   0.500000000    0   0   0
Cr1      0.333333333   0.333333333   0.500000000    0   0   0
Cr1      0.833333333   0.833333333   0.500000000    0   0   0
Cr1      0.333333333   0.833333333   0.500000000    0   0   0
Cr1     -0.000554741  -0.000556059   0.586732216
Cr1      0.501111469  -0.000554249   0.586732400
Cr1     -0.000555305   0.501110988   0.586731916
Cr1      0.500000399   0.499998812   0.586413314
H1       0.166665865   0.166665030   0.632150406

     Writing output data file calc.save
     Check: negative starting charge=   -0.015038
     NEW-OLD atomic charge density approx. for the potential

     Check: negative/imaginary core charge=   -0.000004    0.000000
     Check: negative starting charge=   -0.015012

[...]

     energy   old            =   -2116.1199767794 Ry
     energy   new            =   -2116.1204205301 Ry

     CASE: energy  _new < energy  _old

     WARNING: bfgs curvature condition failed, Theta= 0.928
     new trust radius        =       0.0117540733 bohr
     new conv_thr            =       0.0000001000 Ry

[...]

     Total force =     0.016018     Total SCF correction =     0.000276

[...]

     Total force =     0.005245     Total SCF correction =     0.000333

[...]

     number of scf cycles    =   8
     number of bfgs steps    =   7

     energy   old            =   -2116.1220653855 Ry
     energy   new            =   -2116.1221047661 Ry

     CASE: energy  _new < energy  _old

     new trust radius        =       0.0136833113 bohr
     new conv_thr            =       0.0000001000 Ry

ATOMIC_POSITIONS (crystal)
Cr1      0.166666667   0.166666667   0.413381306    0   0   0
Cr1      0.666666667   0.166666667   0.413381306    0   0   0
Cr1      0.166666667   0.666666667   0.413381306    0   0   0
Cr1      0.666666667   0.666666667   0.413381306    0   0   0
Cr1      0.833333333   0.333333333   0.500000000    0   0   0
Cr1      0.333333333   0.333333333   0.500000000    0   0   0
Cr1      0.833333333   0.833333333   0.500000000    0   0   0
Cr1      0.333333333   0.833333333   0.500000000    0   0   0
Cr1     -0.003721682  -0.003727892   0.587627992
Cr1      0.507455563  -0.003724678   0.587628215
Cr1     -0.003726316   0.507451950   0.587628320
Cr1      0.500000492   0.499999052   0.583686454
H1       0.166668363   0.166661942   0.630342492

     Writing output data file calc.save
     Check: negative starting charge=   -0.013573
     NEW-OLD atomic charge density approx. for the potential

     Check: negative/imaginary core charge=   -0.000004    0.000000
     Check: negative starting charge=   -0.013716

[...]

     Self-consistent Calculation

[...]

     total energy              =   -2116.12214547 Ry
     Harris-Foulkes estimate   =   -2116.12214550 Ry
     estimated scf accuracy    <       0.00000033 Ry

     iteration # 25     ecut=    36.75 Ry     beta=0.30
     Davidson diagonalization with overlap
     ethr =  1.97E-10,  avg # of iterations =  1.1

[...]

     negative rho (up, down):  1.332E-02 0.000E+00

     Adding external electric field

     Computed dipole along edir(3) :
        Dipole                0.0078 Ry au,          0.0198 Debye
        Dipole field          0.0000 Ry au

        Potential amp.       -0.0023 Ry
        Total length         44.5710 bohr

     End of self-consistent calculation

[...]

          k = 0.0649-0.0750 0.0000 ( 13990 PWs)   bands (ev):

[...]

          k =-0.0974-0.0562 0.0000 ( 14010 PWs)   bands (ev):

   -70.5492 -70.5463 -70.4793 -70.4781 -70.4661 -70.4484 -70.4172 -70.4065
   -70.4042 -70.3797 -70.3576 -70.3555 -42.0933 -42.0863 -42.0598 -42.0486
   -42.0199 -42.0039 -41.9415 -41.9358 -41.9137 -41.8916 -41.8890 -41.8798
   -41.7773 -41.7593 -41.7425 -41.7413 -41.7156 -41.7125 -41.7080 -41.6955
   -41.6929 -41.6916 -41.6758 -41.6669 -41.6458 -41.6382 -41.6148 -41.6132
   -41.5765 -41.5688 -41.5559 -41.5400 -41.5007 -41.4638 -41.4361 -41.4343
    -4.5565  -3.7343  -3.4703  -2.3746  -2.0399  -1.7541  -1.7455  -1.7293
    -1.7012  -1.5030  -1.3664  -1.0606  -1.0337  -0.8769  -0.8554  -0.7552
    -0.7024  -0.4135  -0.3845  -0.2822  -0.2718  -0.2471  -0.2149   0.0545
     0.1915   0.2468   0.3106   0.3501   0.3624   0.4765   0.5255   0.5690
     0.6164   0.7649   0.7763   0.8334   0.8367   0.8998   1.2634   1.2758
     1.5590   1.6210   1.7488   1.7840   1.7966   1.8166

     the Fermi energy is     1.1157 ev

!    total energy              =   -2116.12214539 Ry
     Harris-Foulkes estimate   =   -2116.12214547 Ry
     estimated scf accuracy    <       0.00000010 Ry

     The total energy is the sum of the following terms:

     one-electron contribution =  -19527.99947631 Ry
     hartree contribution      =    9754.80224781 Ry
     xc contribution           =    -279.84323374 Ry
     ewald contribution        =    7937.05000552 Ry
     electric field correction =       0.00000021 Ry
     smearing contrib. (-TS)   =      -0.13168888 Ry

     convergence has been achieved in  25 iterations

 BEEF-vdW xc energy contributions
           1 :   -242.303756159654
           2 :    218.180011596768
           3 :   -177.872122843745
           4 :    133.509468921983
           5 :   -96.1578030712719
           6 :    71.7468845913805
           7 :   -59.9302527938427
           8 :    55.9341837349338
           9 :   -53.9697211441073
          10 :    50.2317431726929
          11 :   -44.1009410602647
          12 :    37.3648898902716
          13 :   -32.3491346526318
          14 :    30.2263818125944
          15 :   -30.4102181065046
          16 :    31.1555693824254
          17 :   -30.7888823894218
          18 :    28.7222458169404
          19 :   -25.6612058118572
          20 :    22.9749300712640
          21 :   -21.7181082711649
          22 :    21.9612850064983
          23 :   -22.8301195344386
          24 :    23.1585346649773
          25 :   -22.2730972932829
          26 :    20.3838242822467
          27 :   -18.3647360576433
          28 :    17.1237334538474
          29 :   -17.0082895555582
          30 :    17.6246871982010
          31 :   -23.9324275068425
          32 :   -17.2038788982621

     Forces acting on atoms (Ry/au):

     negative rho (up, down):  1.332E-02 0.000E+00
     atom    1 type  1   force =    -0.00000059   -0.00000026    0.00230677
     atom    2 type  1   force =     0.00000104   -0.00032920   -0.00083204
     atom    3 type  1   force =    -0.00028690    0.00016488   -0.00082881
     atom    4 type  1   force =     0.00028573    0.00016461   -0.00082784
     atom    5 type  1   force =     0.00564878   -0.00326223    0.00302744
     atom    6 type  1   force =    -0.00564937   -0.00326130    0.00302856
     atom    7 type  1   force =    -0.00000038    0.00000047   -0.00401244
     atom    8 type  1   force =    -0.00000034    0.00652360    0.00303031
     atom    9 type  1   force =     0.00022924    0.00013102   -0.00115596
     atom   10 type  1   force =    -0.00023033    0.00013132   -0.00115552
     atom   11 type  1   force =    -0.00000096   -0.00026702   -0.00115454
     atom   12 type  1   force =     0.00000179    0.00000111   -0.00147395
     atom   13 type  2   force =     0.00000229    0.00000301    0.00004803

     Total force =     0.002528     Total SCF correction =     0.000590
     SCF correction compared to forces is large: reduce conv_thr to get better values

     entering subroutine stress ...

     negative rho (up, down):  1.332E-02 0.000E+00
          total   stress  (Ry/bohr**3)                   (kbar)     P=  -25.31
  -0.00025142  -0.00000000   0.00000000        -36.99     -0.00      0.00
  -0.00000000  -0.00025143   0.00000000         -0.00    -36.99      0.00
   0.00000000   0.00000000  -0.00001330          0.00      0.00     -1.96

     bfgs converged in   9 scf cycles and   8 bfgs steps
     (criteria: energy <  1.0E+00, force <  1.9E-03)

     End of BFGS Geometry Optimization

     Final energy   =   -2116.1221453926 Ry
Begin final coordinates

ATOMIC_POSITIONS (crystal)
Cr1      0.166666667   0.166666667   0.413381306    0   0   0
Cr1      0.666666667   0.166666667   0.413381306    0   0   0
Cr1      0.166666667   0.666666667   0.413381306    0   0   0
Cr1      0.666666667   0.666666667   0.413381306    0   0   0
Cr1      0.833333333   0.333333333   0.500000000    0   0   0
Cr1      0.333333333   0.333333333   0.500000000    0   0   0
Cr1      0.833333333   0.833333333   0.500000000    0   0   0
Cr1      0.333333333   0.833333333   0.500000000    0   0   0
Cr1     -0.003721682  -0.003727892   0.587627992
Cr1      0.507455563  -0.003724678   0.587628215
Cr1     -0.003726316   0.507451950   0.587628320
Cr1      0.500000492   0.499999052   0.583686454
H1       0.166668363   0.166661942   0.630342492
End final coordinates

     Writing output data file calc.save

     General routines

     Parallel routines

   This run was terminated on:  14:26:12   2May2018

   JOB DONE.
Job  /afs/slac/g/suncat/bin/suncat-tsmpirun -x LD_LIBRARY_PATH -wdir /scratch/qe651258_fkzAP pw.x -npool 4 -in pw.inp

TID   HOST_NAME   COMMAND_LINE            STATUS            TERMINATION_TIME
00000 suncat0159 pw.x -npool 4 -i  Done                     05/02/2018 14:26:12
00001 suncat0159 pw.x -npool 4 -i  Done                     05/02/2018 14:26:12
00002 suncat0159 pw.x -npool 4 -i  Done                     05/02/2018 14:26:12
00003 suncat0159 pw.x -npool 4 -i  Done                     05/02/2018 14:26:12
00004 suncat0159 pw.x -npool 4 -i  Done                     05/02/2018 14:26:12
00005 suncat0159 pw.x -npool 4 -i  Done                     05/02/2018 14:26:12
00006 suncat0159 pw.x -npool 4 -i  Done                     05/02/2018 14:26:12
00007 suncat0159 pw.x -npool 4 -i  Done                     05/02/2018 14:26:12
00008 suncat0143 pw.x -npool 4 -i  Done                     05/02/2018 14:26:12
00009 suncat0143 pw.x -npool 4 -i  Done                     05/02/2018 14:26:12
00010 suncat0143 pw.x -npool 4 -i  Done                     05/02/2018 14:26:12
00011 suncat0143 pw.x -npool 4 -i  Done                     05/02/2018 14:26:12
00012 suncat0143 pw.x -npool 4 -i  Done                     05/02/2018 14:26:12
00013 suncat0143 pw.x -npool 4 -i  Done                     05/02/2018 14:26:12
00014 suncat0143 pw.x -npool 4 -i  Done                     05/02/2018 14:26:12
00015 suncat0143 pw.x -npool 4 -i  Done                     05/02/2018 14:26:12
00016 suncat0233 pw.x -npool 4 -i  Done                     05/02/2018 14:26:12
00017 suncat0233 pw.x -npool 4 -i  Done                     05/02/2018 14:26:12
00018 suncat0233 pw.x -npool 4 -i  Done                     05/02/2018 14:26:12
00019 suncat0233 pw.x -npool 4 -i  Done                     05/02/2018 14:26:12
00020 suncat0233 pw.x -npool 4 -i  Done                     05/02/2018 14:26:12
00021 suncat0233 pw.x -npool 4 -i  Done                     05/02/2018 14:26:12
00022 suncat0233 pw.x -npool 4 -i  Done                     05/02/2018 14:26:12
00023 suncat0233 pw.x -npool 4 -i  Done                     05/02/2018 14:26:12
00024 suncat0223 pw.x -npool 4 -i  Done                     05/02/2018 14:26:12
00025 suncat0223 pw.x -npool 4 -i  Done                     05/02/2018 14:26:12
00026 suncat0223 pw.x -npool 4 -i  Done                     05/02/2018 14:26:12
00027 suncat0223 pw.x -npool 4 -i  Done                     05/02/2018 14:26:12
00028 suncat0223 pw.x -npool 4 -i  Done                     05/02/2018 14:26:12
00029 suncat0223 pw.x -npool 4 -i  Done                     05/02/2018 14:26:12
00030 suncat0223 pw.x -npool 4 -i  Done                     05/02/2018 14:26:12
00031 suncat0223 pw.x -npool 4 -i  Done                     05/02/2018 14:26:12