     Program PWSCF v.5.1rc2 (svn rev. 11289) starts on 16Apr2018 at 13:43:17

     Current dimensions of program PWSCF are:
     Max number of different atomic species (ntypx) = 10
     Max number of k-points (npk) =  40000
     Max angular momentum in pseudopotentials (lmaxx) =  3
     Presently stress not available with electric field

     IMPORTANT: XC functional enforced from input :
     Exchange-correlation      = BEEF-VDW ( 1  4 27 13 2)
     Any further DFT definition will be discarded
     Please, verify this is what you really want

     Subspace diagonalization in iterative solution of the eigenvalue problem:
     a serial algorithm will be used

     bravais-lattice index     =            0
     lattice parameter (alat)  =       1.8897  a.u.
     unit-cell volume          =    5739.2980 (a.u.)^3
     number of atoms/cell      =           14
     number of atomic types    =            3
     number of electrons       =       151.00
     number of Kohn-Sham states=           85
     kinetic-energy cutoff     =      36.7493  Ry
     charge density cutoff     =     367.4932  Ry
     convergence threshold     =      1.0E-05
     mixing beta               =       0.3000
     number of iterations used =           10  plain     mixing
     Exchange-correlation      = BEEF-VDW ( 1  4 27 13 2)
     nstep                     =           50

     celldm(1)=   1.889726  celldm(2)=   0.000000  celldm(3)=   0.000000
     celldm(4)=   0.000000  celldm(5)=   0.000000  celldm(6)=   0.000000

     crystal axes: (cart. coord. in units of alat)
               a(1) = (   6.254208   0.000000   0.000000 )
               a(2) = (   3.127104   5.416303   0.000000 )
               a(3) = (   0.000000   0.000000  25.106540 )

     reciprocal axes: (cart. coord. in units 2 pi/alat)
               b(1) = (  0.159892 -0.092314  0.000000 )
               b(2) = (  0.000000  0.184628  0.000000 )
               b(3) = (  0.000000  0.000000  0.039830 )

     PseudoPot. # 1 for Cd read from file:
     /u/if/mamunm/psp/gbrv1.5pbe/Cd.UPF
     MD5 check sum: 17164a7926edb8e0dc231208abae86a6
     Pseudo is Ultrasoft + core correction, Zval = 12.0
     Generated by new atomic code, or converted to UPF format
     Using radial grid of  889 points,  6 beta functions with:
                l(1) =   0
                l(2) =   0
                l(3) =   1
                l(4) =   1
                l(5) =   2
                l(6) =   2
     Q(r) pseudized with  6 coefficients,  rinner =    1.000   1.000   1.000
                                                       1.000   1.000

     PseudoPot. # 2 for S  read from file:
     /u/if/mamunm/psp/gbrv1.5pbe/S.UPF
     MD5 check sum: 88d86576ff6df21479756cfb9bdac1df
     Pseudo is Ultrasoft + core correction, Zval =  6.0
     Generated by new atomic code, or converted to UPF format
     Using radial grid of  907 points,  6 beta functions with:
                l(1) =   0
                l(2) =   0
                l(3) =   1
                l(4) =   1
                l(5) =   2
                l(6) =   2
     Q(r) pseudized with  8 coefficients,  rinner =    1.300   1.300   1.300
                                                       1.300   1.300

     PseudoPot. # 3 for H  read from file:
     /u/if/mamunm/psp/gbrv1.5pbe/H.UPF
     MD5 check sum: 761ae9a214b05c3daf00ab9f6b793d6f
     Pseudo is Ultrasoft, Zval =  1.0
     Generated by new atomic code, or converted to UPF format
     Using radial grid of  615 points,  2 beta functions with:
                l(1) =   0
                l(2) =   0
     Q(r) pseudized with  8 coefficients,  rinner =    0.700

     vdW kernel table read from file vdW_kernel_table
     MD5 check sum: 095c7af220d748ca6e76c0b4c6cfb241

     atomic species   valence    mass     pseudopotential
        Cd1           12.00   112.41400     Cd( 1.00)
        S1             6.00    32.06000     S ( 1.00)
        H1             1.00     1.00800     H ( 1.00)

     No symmetry found

   Cartesian axes

     site n.     atom                  positions (alat units)
         1           Cd1 tau(   1) = (   1.5635521   0.9027172  10.0000000  )
         2           Cd1 tau(   2) = (   4.6906562   0.9027172  10.0000000  )
         3           Cd1 tau(   3) = (   3.1271041   3.6108688  10.0000000  )
         4           Cd1 tau(   4) = (   6.2542083   3.6108688  10.0000000  )
         5           Cd1 tau(   5) = (   6.2542083   1.8054344  12.5532698  )
         6           Cd1 tau(   6) = (   3.1271041   1.8054344  12.5532698  )
         7           Cd1 tau(   7) = (   7.8177603   4.5135860  12.5532698  )
         8           Cd1 tau(   8) = (   4.6906562   4.5135860  12.5532698  )
         9           Cd1 tau(   9) = (   0.0000000   0.0000000  15.1065397  )
        10           Cd1 tau(  10) = (   3.1271041   0.0000000  15.1065397  )
        11           Cd1 tau(  11) = (   1.5635521   2.7081516  15.1065397  )
        12           Cd1 tau(  12) = (   4.6906562   2.7081516  15.1065397  )
        13           S1  tau(  13) = (   1.5635521   0.9027172  16.7250397  )
        14           H1  tau(  14) = (   1.5635521   0.9027172  17.9750397  )

     number of k points=    20  Fermi-Dirac smearing, width (Ry)=  0.0110
                       cart. coord. in units 2pi/alat
        k(    1) = (   0.0000000   0.0000000   0.0000000), wk =   0.0555556
        k(    2) = (   0.0000000   0.0307713   0.0000000), wk =   0.1111111
        k(    3) = (   0.0000000   0.0615426   0.0000000), wk =   0.1111111
        k(    4) = (   0.0000000  -0.0923139   0.0000000), wk =   0.0555556
        k(    5) = (   0.0266487  -0.0153856   0.0000000), wk =   0.1111111
        k(    6) = (   0.0266487   0.0153856   0.0000000), wk =   0.1111111
        k(    7) = (   0.0266487   0.0461569   0.0000000), wk =   0.1111111
        k(    8) = (   0.0266487  -0.1076995   0.0000000), wk =   0.1111111
        k(    9) = (   0.0266487  -0.0769282   0.0000000), wk =   0.1111111
        k(   10) = (   0.0266487  -0.0461569   0.0000000), wk =   0.1111111
        k(   11) = (   0.0532974  -0.0307713   0.0000000), wk =   0.1111111
        k(   12) = (   0.0532974   0.0000000   0.0000000), wk =   0.1111111
        k(   13) = (   0.0532974   0.0307713   0.0000000), wk =   0.1111111
        k(   14) = (   0.0532974  -0.1230852   0.0000000), wk =   0.1111111
        k(   15) = (   0.0532974  -0.0923139   0.0000000), wk =   0.1111111
        k(   16) = (   0.0532974  -0.0615426   0.0000000), wk =   0.1111111
        k(   17) = (  -0.0799462   0.0461569   0.0000000), wk =   0.0555556
        k(   18) = (  -0.0799462   0.0769282   0.0000000), wk =   0.1111111
        k(   19) = (  -0.0799462   0.1076995   0.0000000), wk =   0.1111111
        k(   20) = (  -0.0799462  -0.0461569   0.0000000), wk =   0.0555556

     Largest allocated arrays     est. size (Mb)     dimensions
     Largest temporary arrays     est. size (Mb)     dimensions

     Initial potential from superposition of free atoms
     Check: negative starting charge=   -0.257736

     starting charge  144.99946, renormalised to  151.00000

     negative rho (up, down):  2.684E-01 0.000E+00

     *
     * You are using vdW-DF for exchange-correlation in this calculation.
     * Please cite the following three references that made this development
     * possible:
     *
     *   M. Dion, H. Rydberg, E. Schroder, D. C. Langreth, and
     *   B. I. Lundqvist, Phys. Rev. Lett. 92, 246401 (2004).
     *
     *   T. Thonhauser, V. R. Cooper, S. Li, A. Puzder, P. Hyldgaard, and
     *   D. C. Langreth, Phys. Rev. B 76, 125112 (2007).
     *
     *   G. Roman-Perez and J. M. Soler, Phys. Rev. Lett. 103, 096102 (2009).
     *
     *
     * If you are using vdW-DF2, please also cite:
     *
     *   K. Lee, E. D. Murray, L. Kong, B. I. Lundqvist, and
     *   D. C. Langreth, Phys. Rev. B 82, 081101(R) (2010).
     *
     *
     * If you are calculating the stress with vdW-DF, please also cite:
     *
     *   R. Sabatini, E. Kucukbenli, B. Kolb, T. Thonhauser, and
     *   S. de Gironcoli, J. Phys.: Condens. Matter 24, 424209 (2012).
     *

     Carrying out vdW-DF run using the following parameters:

     Nqs =      20    Nr_points =    1024   r_max =   100.000
     q_mesh =
               0.00001000     0.04494208     0.09755937     0.15916263
               0.23128650     0.31572767     0.41458969     0.53033537
               0.66584808     0.82450364     1.01025438     1.22772762
               1.48234092     1.78043706     2.12944203     2.53805004
               3.01644009     3.57652955     4.23227104     5.00000000

     Gradients computed in reciprocal space

     Adding external electric field

     Computed dipole along edir(3) :
        Dipole               -2.3811 Ry au,         -6.0521 Debye
        Dipole field         -0.0052 Ry au

        Potential amp.        0.4823 Ry
        Total length         46.2584 bohr

     Starting wfc are  113 randomized atomic wfcs

     Self-consistent Calculation

     iteration #  1     ecut=    36.75 Ry     beta=0.30
     Davidson diagonalization with overlap
     ethr =  1.00E-02,  avg # of iterations =  5.6

[...]

     total energy              =   -1409.68639979 Ry
     Harris-Foulkes estimate   =   -1419.17051179 Ry
     estimated scf accuracy    <      19.75263713 Ry

[...]

     End of self-consistent calculation

          k = 0.0000 0.0000 0.0000 ( 21643 PWs)   bands (ev):

   -14.3405  -9.3336  -8.8352  -8.8352  -8.7728  -8.7553  -8.7553  -8.7135
    -8.6757  -8.6549  -8.6549  -8.5294  -8.5235  -8.5235  -8.4610  -8.4239
    -8.4239  -8.4025  -8.2890  -8.2890  -8.2651  -8.2565  -8.2565  -8.2241
    -8.2240  -8.2148  -8.1789  -8.1476  -8.1476  -8.0449  -8.0448  -7.9617
    -7.9617  -7.8621  -7.8621  -7.8506  -7.7878  -7.7878  -7.7278  -7.6622
    -7.6622  -7.6410  -7.5992  -7.5958  -7.5957  -7.5313  -7.5252  -7.5251
    -7.4820  -7.4820  -7.4708  -7.4708  -7.4444  -7.4444  -7.4379  -7.4303
    -7.3946  -7.3946  -7.2663  -7.2661  -7.2593  -7.2593  -6.3295  -4.7867
    -3.0789  -3.0789  -2.2896  -1.1305  -1.1304  -1.0434  -0.7366  -0.7132
    -0.7132  -0.0665   0.2514   0.2514   0.4485   1.0609   1.0609   1.5793
     2.5829   2.5829   2.8246   2.8862   3.1305

[...]

          k =-0.0799 0.0462 0.0000 ( 21576 PWs)   bands (ev):

[...]

     the Fermi energy is     1.1281 ev

!    total energy              =   -1418.57164506 Ry
     Harris-Foulkes estimate   =   -1418.57167686 Ry
     estimated scf accuracy    <       0.00000934 Ry

     The total energy is the sum of the following terms:

     one-electron contribution =   -9081.40959004 Ry
     hartree contribution      =    4637.51396804 Ry
     xc contribution           =    -499.50538613 Ry
     ewald contribution        =    3524.85799531 Ry
     electric field correction =       0.00010606 Ry
     smearing contrib. (-TS)   =      -0.02873830 Ry

     convergence has been achieved in  14 iterations

 BEEF-vdW xc energy contributions
           1 :   -437.453085913822
           2 :    399.975133741503
           3 :   -336.701995038725
           4 :    265.526029755981
           5 :   -203.002770429230
           6 :    158.513496468176
           7 :   -132.456145908903
           8 :    118.664710191108
           9 :   -109.182213434281
          10 :    98.6095685333048
          11 :   -85.9369471545436
          12 :    73.4824283120596
          13 :   -64.2250238496051
          14 :    59.4585704537685
          15 :   -58.0912474063900
          16 :    57.6479800272149
          17 :   -55.9875150021362
          18 :    52.5078757256599
          19 :   -48.1732581731659
          20 :    44.5596465731396
          21 :   -42.6959597350412
          22 :    42.4662970836148
          23 :   -42.8483384138767
          24 :    42.6857850107483
          25 :   -41.4127859061779
          26 :    39.2874758866755
          27 :   -37.0813764296119
          28 :    35.5178172633474
          29 :   -34.8483875041553
          30 :    34.7934582041329
          31 :   -39.6556220646880
          32 :   -28.9360456809593

     Forces acting on atoms (Ry/au):

     negative rho (up, down):  2.666E-01 0.000E+00
     atom    1 type  1   force =    -0.00010582   -0.00007750   -0.01472000
     atom    2 type  1   force =    -0.00001503   -0.00080362   -0.01942834
     atom    3 type  1   force =    -0.00064763    0.00034182   -0.01940216
     atom    4 type  1   force =     0.00074461    0.00041311   -0.01925186
     atom    5 type  1   force =     0.00312933   -0.00175347    0.00269317
     atom    6 type  1   force =    -0.00315443   -0.00183007    0.00267594
     atom    7 type  1   force =     0.00002811    0.00004345   -0.00215010
     atom    8 type  1   force =     0.00004055    0.00357217    0.00270297
     atom    9 type  1   force =    -0.06384544   -0.03684617   -0.02814762
     atom   10 type  1   force =     0.06386366   -0.03686691   -0.02810357
     atom   11 type  1   force =    -0.00001427    0.07377257   -0.02814282
     atom   12 type  1   force =     0.00000623    0.00001723    0.00575714
     atom   13 type  2   force =    -0.00002900    0.00000763    0.00541862
     atom   14 type  3   force =    -0.00000087    0.00000976    0.14009863

     Total force =     0.195904     Total SCF correction =     0.009452

     entering subroutine stress ...

     negative rho (up, down):  2.666E-01 0.000E+00
          total   stress  (Ry/bohr**3)                   (kbar)     P=   15.27
   0.00005563   0.00000002  -0.00000001          8.18      0.00     -0.00
   0.00000002   0.00005570  -0.00000001          0.00      8.19     -0.00
  -0.00000001  -0.00000001   0.00020000         -0.00     -0.00     29.42

     BFGS Geometry Optimization

     number of scf cycles    =   1
     number of bfgs steps    =   0

     energy   new            =   -1418.5716450606 Ry

     new trust radius        =       0.1400986274 bohr
     new conv_thr            =       0.0000099958 Ry

ATOMIC_POSITIONS (crystal)
Cd1      0.166666667   0.166666667   0.398302599    0   0   0
Cd1      0.666666667   0.166666667   0.398302599    0   0   0
Cd1      0.166666667   0.666666667   0.398302599    0   0   0
Cd1      0.666666667   0.666666667   0.398302599    0   0   0
Cd1      0.833333333   0.333333333   0.500000000    0   0   0
Cd1      0.333333333   0.333333333   0.500000000    0   0   0
Cd1      0.833333333   0.833333333   0.500000000    0   0   0
Cd1      0.333333333   0.833333333   0.500000000    0   0   0
Cd1     -0.003602101  -0.003599901   0.601104126
Cd1      0.507204556  -0.003601927   0.601105055
Cd1     -0.003605027   0.507207640   0.601104227
Cd1      0.499999686   0.500001683   0.601818746
S1       0.166663840   0.166667412   0.666276886
H1       0.166666116   0.166667620   0.718903398

     Writing output data file calc.save
     Check: negative starting charge=   -0.257736
     NEW-OLD atomic charge density approx. for the potential
     Check: negative starting charge=   -0.258876

[...]

     energy   old            =   -1418.5716450606 Ry
     energy   new            =   -1418.6009074120 Ry

     CASE: energy  _new < energy  _old

[...]

     Total force =     0.005094     Total SCF correction =     0.000537
     SCF correction compared to forces is large: reduce conv_thr to get better values

[...]

     WARNING: bfgs curvature condition failed, Theta= 0.986
     new trust radius        =       0.0722256984 bohr
     new conv_thr            =       0.0000001000 Ry

[...]

     CASE: energy  _new > energy  _old

[...]

     new trust radius        =       0.0421577818 bohr
     new conv_thr            =       0.0000001000 Ry

[...]

     Total force =     0.003102     Total SCF correction =     0.001542
     SCF correction compared to forces is large: reduce conv_thr to get better values

[...]

     number of scf cycles    =  27
     number of bfgs steps    =  25

     energy   old            =   -1418.6706461909 Ry
     energy   new            =   -1418.6707243199 Ry

     CASE: energy  _new < energy  _old

     WARNING: bfgs curvature condition failed, Theta= 0.914
     new trust radius        =       0.0632366726 bohr
     new conv_thr            =       0.0000001000 Ry

ATOMIC_POSITIONS (crystal)
Cd1      0.166666667   0.166666667   0.398302599    0   0   0
Cd1      0.666666667   0.166666667   0.398302599    0   0   0
Cd1      0.166666667   0.666666667   0.398302599    0   0   0
Cd1      0.666666667   0.666666667   0.398302599    0   0   0
Cd1      0.833333333   0.333333333   0.500000000    0   0   0
Cd1      0.333333333   0.333333333   0.500000000    0   0   0
Cd1      0.833333333   0.833333333   0.500000000    0   0   0
Cd1      0.333333333   0.833333333   0.500000000    0   0   0
Cd1     -0.006251130  -0.006229896   0.618216101
Cd1      0.512417953  -0.006197528   0.618248338
Cd1     -0.006208074   0.512416916   0.618245567
Cd1      0.499975937   0.499975173   0.610991824
S1       0.166597842   0.166625975   0.702133090
H1       0.166704631   0.166690976   0.756278037

     Writing output data file calc.save
     Check: negative starting charge=   -0.259678
     NEW-OLD atomic charge density approx. for the potential
     Check: negative starting charge=   -0.259685

[...]

     Self-consistent Calculation

[...]

     total energy              =   -1418.67081392 Ry
     Harris-Foulkes estimate   =   -1418.67081386 Ry
     estimated scf accuracy    <       0.00000012 Ry

     iteration #  8     ecut=    36.75 Ry     beta=0.30
     Davidson diagonalization with overlap
     ethr =  8.23E-11,  avg # of iterations =  4.2

[...]

     negative rho (up, down):  2.680E-01 0.000E+00

     Adding external electric field

     Computed dipole along edir(3) :
        Dipole               -0.1595 Ry au,         -0.4054 Debye
        Dipole field         -0.0003 Ry au

        Potential amp.        0.0323 Ry
        Total length         46.2584 bohr

     End of self-consistent calculation

[...]

          k = 0.0533-0.0615 0.0000 ( 21571 PWs)   bands (ev):

[...]

          k =-0.0799-0.0462 0.0000 ( 21576 PWs)   bands (ev):

   -12.3981  -8.9385  -8.9322  -8.8344  -8.8342  -8.7996  -8.7955  -8.7573
    -8.7569  -8.7362  -8.7298  -8.6876  -8.6364  -8.6240  -8.6140  -8.5901
    -8.5752  -8.5683  -8.5557  -8.5015  -8.4762  -8.4708  -8.4364  -8.4069
    -8.3859  -8.3820  -8.3685  -8.3684  -8.3530  -8.3434  -8.3206  -8.2914
    -8.2434  -8.2381  -8.2354  -8.2165  -8.2118  -8.2077  -8.1795  -8.1752
    -8.1453  -8.1416  -8.1344  -8.1164  -8.1139  -8.1114  -8.0944  -8.0633
    -8.0608  -8.0534  -8.0103  -8.0039  -7.9971  -7.9888  -7.9328  -7.9240
    -7.8847  -7.8507  -7.8435  -7.7863  -7.7753  -5.8418  -5.7708  -5.3065
    -4.3435  -3.6050  -2.6633  -2.6028  -2.4229  -1.9670  -1.7854  -1.0078
    -0.8909  -0.6170   0.7321   1.0050   1.4638   1.6568   2.9420   2.9668
     3.2989   3.3355   3.8260   4.0363   4.0661

     the Fermi energy is     0.7220 ev

!    total energy              =   -1418.67081400 Ry
     Harris-Foulkes estimate   =   -1418.67081415 Ry
     estimated scf accuracy    <       0.00000002 Ry

     The total energy is the sum of the following terms:

     one-electron contribution =   -8442.60862332 Ry
     hartree contribution      =    4316.96964532 Ry
     xc contribution           =    -499.07385065 Ry
     ewald contribution        =    3206.07068236 Ry
     electric field correction =       0.00005570 Ry
     smearing contrib. (-TS)   =      -0.02872341 Ry

     convergence has been achieved in   8 iterations

 BEEF-vdW xc energy contributions
           1 :   -436.983147114841
           2 :    399.200200221104
           3 :   -335.601703081509
           4 :    264.394455344573
           5 :   -202.229377960827
           6 :    158.299970655434
           7 :   -132.677289455369
           8 :    118.969447233251
           9 :   -109.248738546675
          10 :    98.3618187012646
          11 :   -85.5669126688093
          12 :    73.2739029276137
          13 :   -64.3222841761236
          14 :    59.7574861651293
          15 :   -58.3290998057621
          16 :    57.6133590478015
          17 :   -55.6836096231769
          18 :    52.1454252884470
          19 :   -48.0054488105561
          20 :    44.6905626969003
          21 :   -43.0081074699232
          22 :    42.7163151867287
          23 :   -42.8501631215300
          24 :    42.4393181367892
          25 :   -41.0864500876024
          26 :    39.0792455516755
          27 :   -37.0719604360071
          28 :    35.6256241223403
          29 :   -34.9098937157365
          30 :    34.6967471690178
          31 :   -39.6156778643907
          32 :   -28.8231771049853

     Forces acting on atoms (Ry/au):

     negative rho (up, down):  2.680E-01 0.000E+00
     atom    1 type  1   force =     0.00000170    0.00000085   -0.01684595
     atom    2 type  1   force =     0.00000013   -0.00015343   -0.01910444
     atom    3 type  1   force =    -0.00013275    0.00007677   -0.01910391
     atom    4 type  1   force =     0.00013404    0.00007748   -0.01910931
     atom    5 type  1   force =     0.00242180   -0.00139300    0.01919915
     atom    6 type  1   force =    -0.00242211   -0.00139889    0.01919527
     atom    7 type  1   force =    -0.00000463   -0.00000227    0.01478885
     atom    8 type  1   force =     0.00000494    0.00279393    0.01920039
     atom    9 type  1   force =    -0.00068011   -0.00040180    0.00054911
     atom   10 type  1   force =     0.00067263   -0.00042863    0.00057142
     atom   11 type  1   force =    -0.00002717    0.00080869    0.00056497
     atom   12 type  1   force =     0.00002623    0.00002309   -0.00110742
     atom   13 type  2   force =    -0.00000673   -0.00000934    0.00085592
     atom   14 type  3   force =     0.00001206    0.00000654    0.00034594

     Total force =     0.002223     Total SCF correction =     0.000080

     entering subroutine stress ...

     negative rho (up, down):  2.680E-01 0.000E+00
          total   stress  (Ry/bohr**3)                   (kbar)     P=   -0.45
  -0.00002368   0.00000000   0.00000001         -3.48      0.00      0.00
   0.00000000  -0.00002368   0.00000000          0.00     -3.48      0.00
   0.00000001   0.00000000   0.00003813          0.00      0.00      5.61

     bfgs converged in  28 scf cycles and  26 bfgs steps
     (criteria: energy <  1.0E+00, force <  1.9E-03)

     End of BFGS Geometry Optimization

     Final energy   =   -1418.6708140012 Ry
Begin final coordinates

ATOMIC_POSITIONS (crystal)
Cd1      0.166666667   0.166666667   0.398302599    0   0   0
Cd1      0.666666667   0.166666667   0.398302599    0   0   0
Cd1      0.166666667   0.666666667   0.398302599    0   0   0
Cd1      0.666666667   0.666666667   0.398302599    0   0   0
Cd1      0.833333333   0.333333333   0.500000000    0   0   0
Cd1      0.333333333   0.333333333   0.500000000    0   0   0
Cd1      0.833333333   0.833333333   0.500000000    0   0   0
Cd1      0.333333333   0.833333333   0.500000000    0   0   0
Cd1     -0.006251130  -0.006229896   0.618216101
Cd1      0.512417953  -0.006197528   0.618248338
Cd1     -0.006208074   0.512416916   0.618245567
Cd1      0.499975937   0.499975173   0.610991824
S1       0.166597842   0.166625975   0.702133090
H1       0.166704631   0.166690976   0.756278037
End final coordinates

     Writing output data file calc.save

     General routines

     Parallel routines

   This run was terminated on:  16:52:55  16Apr2018

   JOB DONE.
Job  /afs/slac/g/suncat/bin/suncat-tsmpirun -x LD_LIBRARY_PATH -wdir /scratch/qe132057_JY4LM pw.x -npool 4 -in pw.inp

TID   HOST_NAME   COMMAND_LINE            STATUS            TERMINATION_TIME
00000 suncat0191 pw.x -npool 4 -i  Done                     04/16/2018 16:52:55
00001 suncat0191 pw.x -npool 4 -i  Done                     04/16/2018 16:52:55
00002 suncat0191 pw.x -npool 4 -i  Done                     04/16/2018 16:52:55
00003 suncat0191 pw.x -npool 4 -i  Done                     04/16/2018 16:52:55
00004 suncat0191 pw.x -npool 4 -i  Done                     04/16/2018 16:52:55
00005 suncat0191 pw.x -npool 4 -i  Done                     04/16/2018 16:52:55
00006 suncat0191 pw.x -npool 4 -i  Done                     04/16/2018 16:52:55
00007 suncat0191 pw.x -npool 4 -i  Done                     04/16/2018 16:52:55
00008 suncat0179 pw.x -npool 4 -i  Done                     04/16/2018 16:52:55
00009 suncat0179 pw.x -npool 4 -i  Done                     04/16/2018 16:52:55
00010 suncat0179 pw.x -npool 4 -i  Done                     04/16/2018 16:52:55
00011 suncat0179 pw.x -npool 4 -i  Done                     04/16/2018 16:52:55
00012 suncat0179 pw.x -npool 4 -i  Done                     04/16/2018 16:52:55
00013 suncat0179 pw.x -npool 4 -i  Done                     04/16/2018 16:52:55
00014 suncat0179 pw.x -npool 4 -i  Done                     04/16/2018 16:52:55
00015 suncat0179 pw.x -npool 4 -i  Done                     04/16/2018 16:52:55
00016 suncat0173 pw.x -npool 4 -i  Done                     04/16/2018 16:52:55
00017 suncat0173 pw.x -npool 4 -i  Done                     04/16/2018 16:52:55
00018 suncat0173 pw.x -npool 4 -i  Done                     04/16/2018 16:52:55
00019 suncat0173 pw.x -npool 4 -i  Done                     04/16/2018 16:52:55
00020 suncat0173 pw.x -npool 4 -i  Done                     04/16/2018 16:52:55
00021 suncat0173 pw.x -npool 4 -i  Done                     04/16/2018 16:52:55
00022 suncat0173 pw.x -npool 4 -i  Done                     04/16/2018 16:52:55
00023 suncat0173 pw.x -npool 4 -i  Done                     04/16/2018 16:52:55
00024 suncat0208 pw.x -npool 4 -i  Done                     04/16/2018 16:52:55
00025 suncat0208 pw.x -npool 4 -i  Done                     04/16/2018 16:52:55
00026 suncat0208 pw.x -npool 4 -i  Done                     04/16/2018 16:52:55
00027 suncat0208 pw.x -npool 4 -i  Done                     04/16/2018 16:52:55
00028 suncat0208 pw.x -npool 4 -i  Done                     04/16/2018 16:52:55
00029 suncat0208 pw.x -npool 4 -i  Done                     04/16/2018 16:52:55
00030 suncat0208 pw.x -npool 4 -i  Done                     04/16/2018 16:52:55
00031 suncat0208 pw.x -npool 4 -i  Done                     04/16/2018 16:52:55