     Program PWSCF v.5.1rc2 (svn rev. 11289) starts on  3May2018 at  1:34:50

     Current dimensions of program PWSCF are:
     Max number of different atomic species (ntypx) = 10
     Max number of k-points (npk) =  40000
     Max angular momentum in pseudopotentials (lmaxx) =  3
     Presently stress not available with electric field

     IMPORTANT: XC functional enforced from input :
     Exchange-correlation      = BEEF-VDW ( 1  4 27 13 2)
     Any further DFT definition will be discarded
     Please, verify this is what you really want

     Subspace diagonalization in iterative solution of the eigenvalue problem:
     a serial algorithm will be used

     bravais-lattice index     =            0
     lattice parameter (alat)  =       1.8897  a.u.
     unit-cell volume          =    4704.3541 (a.u.)^3
     number of atoms/cell      =           13
     number of atomic types    =            2
     number of electrons       =       172.00
     number of Kohn-Sham states=           96
     kinetic-energy cutoff     =      36.7493  Ry
     charge density cutoff     =     367.4932  Ry
     convergence threshold     =      1.0E-05
     mixing beta               =       0.3000
     number of iterations used =           10  plain     mixing
     Exchange-correlation      = BEEF-VDW ( 1  4 27 13 2)
     nstep                     =           50

     celldm(1)=   1.889726  celldm(2)=   0.000000  celldm(3)=   0.000000
     celldm(4)=   0.000000  celldm(5)=   0.000000  celldm(6)=   0.000000

     crystal axes: (cart. coord. in units of alat)
               a(1) = (   5.712816   0.000000   0.000000 )
               a(2) = (   2.856408   4.947444   0.000000 )
               a(3) = (   0.000000   0.000000  24.664495 )

     reciprocal axes: (cart. coord. in units 2 pi/alat)
               b(1) = (  0.175045 -0.101062  0.000000 )
               b(2) = (  0.000000  0.202125  0.000000 )
               b(3) = (  0.000000  0.000000  0.040544 )

     PseudoPot. # 1 for W  read from file:
     /u/if/mamunm/psp/gbrv1.5pbe/W.UPF
     MD5 check sum: 9c083fa34c2a2ea0f02f1f893e16e1c8
     Pseudo is Ultrasoft + core correction, Zval = 14.0
     Generated by new atomic code, or converted to UPF format
     Using radial grid of  923 points,  8 beta functions with:
                l(1) =   0
                l(2) =   0
                l(3) =   0
                l(4) =   1
                l(5) =   1
                l(6) =   2
                l(7) =   2
                l(8) =   3
     Q(r) pseudized with  6 coefficients,  rinner =    1.350   1.350   1.350
                                                       1.350   1.350   1.350
                                                       1.350

     PseudoPot. # 2 for C  read from file:
     /u/if/mamunm/psp/gbrv1.5pbe/C.UPF
     MD5 check sum: d1aef80898a10debaa0f26306b886e00
     Pseudo is Ultrasoft + core correction, Zval =  4.0
     Generated by new atomic code, or converted to UPF format
     Using radial grid of  721 points,  4 beta functions with:
                l(1) =   0
                l(2) =   0
                l(3) =   1
                l(4) =   1
     Q(r) pseudized with  8 coefficients,  rinner =    1.100   1.100   1.100

     vdW kernel table read from file vdW_kernel_table
     MD5 check sum: 095c7af220d748ca6e76c0b4c6cfb241

     atomic species   valence    mass     pseudopotential
        W1            14.00   183.84000     W ( 1.00)
        C1             4.00    12.01100     C ( 1.00)

     No symmetry found

   Cartesian axes

     site n.     atom                  positions (alat units)
         1           W1  tau(   1) = (   1.4282041   0.8245740  10.0000000  )
         2           W1  tau(   2) = (   4.2846123   0.8245740  10.0000000  )
         3           W1  tau(   3) = (   2.8564082   3.2982961  10.0000000  )
         4           W1  tau(   4) = (   5.7128165   3.2982961  10.0000000  )
         5           W1  tau(   5) = (   5.7128165   1.6491481  12.3322476  )
         6           W1  tau(   6) = (   2.8564082   1.6491481  12.3322476  )
         7           W1  tau(   7) = (   7.1410206   4.1228701  12.3322476  )
         8           W1  tau(   8) = (   4.2846123   4.1228701  12.3322476  )
         9           W1  tau(   9) = (   0.0000000   0.0000000  14.6644951  )
        10           W1  tau(  10) = (   2.8564082   0.0000000  14.6644951  )
        11           W1  tau(  11) = (   1.4282041   2.4737221  14.6644951  )
        12           W1  tau(  12) = (   4.2846123   2.4737221  14.6644951  )
        13           C1  tau(  13) = (   1.4282041   0.8245740  16.2114951  )

     number of k points=    20  Fermi-Dirac smearing, width (Ry)=  0.0110
                       cart. coord. in units 2pi/alat
        k(    1) = (   0.0000000   0.0000000   0.0000000), wk =   0.0555556
        k(    2) = (   0.0000000   0.0336874   0.0000000), wk =   0.1111111
        k(    3) = (   0.0000000   0.0673749   0.0000000), wk =   0.1111111
        k(    4) = (   0.0000000  -0.1010623   0.0000000), wk =   0.0555556
        k(    5) = (   0.0291742  -0.0168437   0.0000000), wk =   0.1111111
        k(    6) = (   0.0291742   0.0168437   0.0000000), wk =   0.1111111
        k(    7) = (   0.0291742   0.0505311   0.0000000), wk =   0.1111111
        k(    8) = (   0.0291742  -0.1179060   0.0000000), wk =   0.1111111
        k(    9) = (   0.0291742  -0.0842186   0.0000000), wk =   0.1111111
        k(   10) = (   0.0291742  -0.0505311   0.0000000), wk =   0.1111111
        k(   11) = (   0.0583483  -0.0336874   0.0000000), wk =   0.1111111
        k(   12) = (   0.0583483  -0.0000000   0.0000000), wk =   0.1111111
        k(   13) = (   0.0583483   0.0336874   0.0000000), wk =   0.1111111
        k(   14) = (   0.0583483  -0.1347497   0.0000000), wk =   0.1111111
        k(   15) = (   0.0583483  -0.1010623   0.0000000), wk =   0.1111111
        k(   16) = (   0.0583483  -0.0673749   0.0000000), wk =   0.1111111
        k(   17) = (  -0.0875225   0.0505311   0.0000000), wk =   0.0555556
        k(   18) = (  -0.0875225   0.0842186   0.0000000), wk =   0.1111111
        k(   19) = (  -0.0875225   0.1179060   0.0000000), wk =   0.1111111
        k(   20) = (  -0.0875225  -0.0505311   0.0000000), wk =   0.0555556

     Largest allocated arrays     est. size (Mb)     dimensions
     Largest temporary arrays     est. size (Mb)     dimensions

     Initial potential from superposition of free atoms
     Check: negative starting charge=   -0.760321

     starting charge  170.79588, renormalised to  172.00000

     negative rho (up, down):  7.657E-01 0.000E+00

     *
     * You are using vdW-DF for exchange-correlation in this calculation.
     * Please cite the following three references that made this development
     * possible:
     *
     *   M. Dion, H. Rydberg, E. Schroder, D. C. Langreth, and
     *   B. I. Lundqvist, Phys. Rev. Lett. 92, 246401 (2004).
     *
     *   T. Thonhauser, V. R. Cooper, S. Li, A. Puzder, P. Hyldgaard, and
     *   D. C. Langreth, Phys. Rev. B 76, 125112 (2007).
     *
     *   G. Roman-Perez and J. M. Soler, Phys. Rev. Lett. 103, 096102 (2009).
     *
     *
     * If you are using vdW-DF2, please also cite:
     *
     *   K. Lee, E. D. Murray, L. Kong, B. I. Lundqvist, and
     *   D. C. Langreth, Phys. Rev. B 82, 081101(R) (2010).
     *
     *
     * If you are calculating the stress with vdW-DF, please also cite:
     *
     *   R. Sabatini, E. Kucukbenli, B. Kolb, T. Thonhauser, and
     *   S. de Gironcoli, J. Phys.: Condens. Matter 24, 424209 (2012).
     *

     Carrying out vdW-DF run using the following parameters:

     Nqs =      20    Nr_points =    1024   r_max =   100.000
     q_mesh =
               0.00001000     0.04494208     0.09755937     0.15916263
               0.23128650     0.31572767     0.41458969     0.53033537
               0.66584808     0.82450364     1.01025438     1.22772762
               1.48234092     1.78043706     2.12944203     2.53805004
               3.01644009     3.57652955     4.23227104     5.00000000

     Gradients computed in reciprocal space

     Adding external electric field

     Computed dipole along edir(3) :
        Dipole               -0.2064 Ry au,         -0.5247 Debye
        Dipole field         -0.0006 Ry au

        Potential amp.        0.0501 Ry
        Total length         45.4439 bohr

     Starting wfc are  160 randomized atomic wfcs

     Self-consistent Calculation

     iteration #  1     ecut=    36.75 Ry     beta=0.30
     Davidson diagonalization with overlap
     ethr =  1.00E-02,  avg # of iterations =  2.0

[...]

     total energy              =   -1935.27843902 Ry
     Harris-Foulkes estimate   =   -1936.59995546 Ry
     estimated scf accuracy    <       2.99690544 Ry

[...]

     End of self-consistent calculation

          k = 0.0000 0.0000 0.0000 ( 17753 PWs)   bands (ev):

   -72.1470 -72.0546 -72.0170 -72.0070 -72.0069 -71.9663 -71.9504 -71.9436
   -71.9434 -71.9160 -71.9155 -71.9086 -36.6334 -36.6295 -36.6294 -36.5729
   -36.5675 -36.5675 -36.5546 -36.4260 -36.4258 -36.4255 -36.2580 -36.1749
   -36.1137 -36.1137 -36.0578 -36.0575 -36.0507 -35.9683 -35.9682 -35.9499
   -35.8647 -35.8641 -35.8639 -35.8467 -35.8466 -35.8388 -35.7902 -35.7354
   -35.7353 -35.7295 -35.7258 -35.7257 -35.6579 -35.6578 -35.5561 -35.5561
    -7.6926  -5.7953  -3.9701  -3.3155  -2.8455  -2.8455  -2.7957  -2.7429
    -2.7428  -2.5701  -1.9319  -1.9318  -1.8544  -1.8370  -1.8370  -1.7710
    -0.5415  -0.5415  -0.3171   0.5831   0.5832   0.7765   0.9250   1.0420
     1.0420   1.1189   1.5930   1.5930   1.6591   1.7566   1.7567   1.9557
     1.9557   2.0041   2.0146   2.1318   2.1318   2.3054   2.3574   2.3575
     3.1810   3.1811   3.5473   3.7603   3.8389   3.8767   3.8768   4.3889

[...]

          k =-0.0875 0.0505 0.0000 ( 17668 PWs)   bands (ev):

[...]

     the Fermi energy is     2.1953 ev

!    total energy              =   -1936.23828745 Ry
     Harris-Foulkes estimate   =   -1936.23829011 Ry
     estimated scf accuracy    <       0.00000541 Ry

     The total energy is the sum of the following terms:

     one-electron contribution =  -14926.90389316 Ry
     hartree contribution      =    7446.67040646 Ry
     xc contribution           =    -513.77448851 Ry
     ewald contribution        =    6057.86268165 Ry
     electric field correction =       0.00011245 Ry
     smearing contrib. (-TS)   =      -0.09310635 Ry

     convergence has been achieved in  13 iterations

 BEEF-vdW xc energy contributions
           1 :   -451.990800673843
           2 :    418.225654099745
           3 :   -358.742709394419
           4 :    286.563633457690
           5 :   -215.260993150433
           6 :    155.014018951051
           7 :   -110.425694424145
           8 :    80.6209704185332
           9 :   -61.2049591292505
          10 :    46.9799408016687
          11 :   -34.1936666379404
          12 :    21.5178339221965
          13 :   -9.67131039679731
          14 :   0.213813590730751
          15 :    5.72144473956939
          16 :   -8.14986117325986
          17 :    8.19585352528247
          18 :   -7.46847049484779
          19 :    7.26805332941825
          20 :   -8.05152572544500
          21 :    9.39479219199507
          22 :   -10.4122984260395
          23 :    10.3628308714133
          24 :   -9.10196821768068
          25 :    7.15567867752168
          26 :   -5.40872420403264
          27 :    4.60604800420128
          28 :   -4.95344863360850
          29 :    6.03160857158400
          30 :   -7.05364813831955
          31 :   -41.0064828487702
          32 :   -30.7406065429840

     Forces acting on atoms (Ry/au):

     negative rho (up, down):  7.929E-01 0.000E+00
     atom    1 type  1   force =     0.00002540   -0.00002858   -0.00357689
     atom    2 type  1   force =    -0.00001656    0.00068791   -0.00489660
     atom    3 type  1   force =     0.00058971   -0.00033019   -0.00488580
     atom    4 type  1   force =    -0.00060682   -0.00032171   -0.00489432
     atom    5 type  1   force =     0.00243856   -0.00142475    0.00884660
     atom    6 type  1   force =    -0.00243461   -0.00145239    0.00887335
     atom    7 type  1   force =    -0.00003148    0.00003289    0.00827235
     atom    8 type  1   force =     0.00002562    0.00283725    0.00888501
     atom    9 type  1   force =     0.00169018    0.00096689    0.07244421
     atom   10 type  1   force =    -0.00168745    0.00097439    0.07242850
     atom   11 type  1   force =     0.00000940   -0.00194563    0.07244861
     atom   12 type  1   force =    -0.00000409    0.00000629   -0.04059214
     atom   13 type  2   force =     0.00000215   -0.00000237   -0.19335289

     Total force =     0.234067     Total SCF correction =     0.000888

     entering subroutine stress ...

     negative rho (up, down):  7.929E-01 0.000E+00
          total   stress  (Ry/bohr**3)                   (kbar)     P=  -50.54
  -0.00041690   0.00000000  -0.00000000        -61.33      0.00     -0.00
   0.00000000  -0.00041690   0.00000000          0.00    -61.33      0.00
  -0.00000000   0.00000000  -0.00019688         -0.00      0.00    -28.96

     BFGS Geometry Optimization

     number of scf cycles    =   1
     number of bfgs steps    =   0

     energy   new            =   -1936.2382874535 Ry

     new trust radius        =       0.1933528902 bohr
     new conv_thr            =       0.0000099958 Ry

ATOMIC_POSITIONS (crystal)
W1       0.166666667   0.166666667   0.405441099    0   0   0
W1       0.666666667   0.166666667   0.405441099    0   0   0
W1       0.166666667   0.666666667   0.405441099    0   0   0
W1       0.666666667   0.666666667   0.405441099    0   0   0
W1       0.833333333   0.333333333   0.500000000    0   0   0
W1       0.333333333   0.333333333   0.500000000    0   0   0
W1       0.833333333   0.833333333   0.500000000    0   0   0
W1       0.333333333   0.833333333   0.500000000    0   0   0
W1       0.000104852   0.000103418   0.596113193
W1       0.499791582   0.000104220   0.596112856
W1       0.000104922   0.499791896   0.596113287
W1       0.499999285   0.500000673   0.593687996
C1       0.166666992   0.166666413   0.653132249

     Writing output data file calc.save
     Check: negative starting charge=   -0.760321
     NEW-OLD atomic charge density approx. for the potential
     Check: negative starting charge=   -0.761159

[...]

     energy   old            =   -1936.2382874535 Ry
     energy   new            =   -1936.2882892244 Ry

     CASE: energy  _new < energy  _old

     WARNING: bfgs curvature condition failed, Theta= 0.995
     new trust radius        =       0.2126881792 bohr
     new conv_thr            =       0.0000001000 Ry

[...]

     Threshold (ethr) on eigenvalues was too large:
     Diagonalizing with lowered threshold

     Davidson diagonalization with overlap
     ethr =  1.42E-08,  avg # of iterations =  3.8

[...]

     number of scf cycles    =  10
     number of bfgs steps    =   9

     energy   old            =   -1936.3527605219 Ry
     energy   new            =   -1936.3528123349 Ry

     CASE: energy  _new < energy  _old

     new trust radius        =       0.0070041760 bohr
     new conv_thr            =       0.0000001000 Ry

ATOMIC_POSITIONS (crystal)
W1       0.166666667   0.166666667   0.405441099    0   0   0
W1       0.666666667   0.166666667   0.405441099    0   0   0
W1       0.166666667   0.666666667   0.405441099    0   0   0
W1       0.666666667   0.666666667   0.405441099    0   0   0
W1       0.833333333   0.333333333   0.500000000    0   0   0
W1       0.333333333   0.333333333   0.500000000    0   0   0
W1       0.833333333   0.833333333   0.500000000    0   0   0
W1       0.333333333   0.833333333   0.500000000    0   0   0
W1      -0.003088750  -0.003088212   0.597177677
W1       0.506177511  -0.003088453   0.597177680
W1      -0.003088623   0.506177444   0.597177686
W1       0.500000632   0.499999968   0.584498750
C1       0.166667321   0.166666432   0.641092031

     Writing output data file calc.save
     Check: negative starting charge=   -0.757655
     NEW-OLD atomic charge density approx. for the potential
     Check: negative starting charge=   -0.757696

[...]

     Self-consistent Calculation

[...]

     Threshold (ethr) on eigenvalues was too large:
     Diagonalizing with lowered threshold

     Davidson diagonalization with overlap
     ethr =  1.95E-08,  avg # of iterations =  3.6

[...]

     total energy              =   -1936.35283600 Ry
     Harris-Foulkes estimate   =   -1936.35283603 Ry
     estimated scf accuracy    <       0.00000010 Ry

     iteration #  8     ecut=    36.75 Ry     beta=0.30
     Davidson diagonalization with overlap
     ethr =  5.89E-11,  avg # of iterations =  3.0

[...]

     negative rho (up, down):  7.909E-01 0.000E+00

     Adding external electric field

     Computed dipole along edir(3) :
        Dipole               -0.0849 Ry au,         -0.2157 Debye
        Dipole field         -0.0002 Ry au

        Potential amp.        0.0206 Ry
        Total length         45.4439 bohr

     End of self-consistent calculation

[...]

          k = 0.0583-0.0674 0.0000 ( 17692 PWs)   bands (ev):

[...]

          k =-0.0875-0.0505 0.0000 ( 17668 PWs)   bands (ev):

   -71.9177 -71.8898 -71.8793 -71.8601 -71.8147 -71.8032 -71.7896 -71.7748
   -71.7659 -71.7485 -71.7346 -71.7264 -36.3764 -36.3729 -36.3297 -36.2859
   -36.2740 -36.2455 -36.1902 -36.1700 -36.1219 -36.1051 -36.0972 -36.0573
   -36.0159 -35.9889 -35.9419 -35.9221 -35.8945 -35.8917 -35.8806 -35.8517
   -35.8250 -35.7993 -35.7892 -35.7840 -35.7572 -35.7462 -35.7094 -35.6936
   -35.6877 -35.6306 -35.6163 -35.5629 -35.5324 -35.4996 -35.4837 -35.4633
    -8.2173  -4.0449  -3.8335  -2.7346  -2.2437  -1.9308  -1.7814  -1.7417
    -1.6439  -1.5482  -1.4949  -1.2750  -0.9002  -0.6531  -0.5381  -0.5166
    -0.3955  -0.3775  -0.1942  -0.0758   0.1372   0.2708   0.2747   0.4525
     0.5047   0.5854   0.7510   1.0824   1.1220   1.1717   1.2598   1.2792
     1.3618   1.4534   1.6455   1.8692   1.9123   1.9862   2.2633   2.4491
     2.5658   2.9272   3.1251   3.3162   3.3616   3.4345   3.5692   3.6080

     the Fermi energy is     2.3508 ev

!    total energy              =   -1936.35283602 Ry
     Harris-Foulkes estimate   =   -1936.35283601 Ry
     estimated scf accuracy    <       0.00000002 Ry

     The total energy is the sum of the following terms:

     one-electron contribution =  -15035.59490483 Ry
     hartree contribution      =    7501.85386592 Ry
     xc contribution           =    -514.19648690 Ry
     ewald contribution        =    6111.67065493 Ry
     electric field correction =       0.00001924 Ry
     smearing contrib. (-TS)   =      -0.08598437 Ry

     convergence has been achieved in   8 iterations

 BEEF-vdW xc energy contributions
           1 :   -452.406260535799
           2 :    418.717230350177
           3 :   -359.318353587174
           4 :    287.152423218998
           5 :   -215.749474452572
           6 :    155.296817367073
           7 :   -110.449305010953
           8 :    80.4058275252337
           9 :   -60.8386649967807
          10 :    46.5835303691958
          11 :   -33.8735268673590
          12 :    21.3235530019358
          13 :   -9.57950388079911
          14 :   0.146281533569720
          15 :    5.85429986246578
          16 :   -8.40010588645225
          17 :    8.54687379438434
          18 :   -7.83957435637592
          19 :    7.55285795375880
          20 :   -8.16882272164753
          21 :    9.32665927042643
          22 :   -10.2121853407766
          23 :    10.1305506163445
          24 :   -8.93793312196215
          25 :    7.11660414315799
          26 :   -5.48601827851513
          27 :    4.73639030415899
          28 :   -5.05476693388681
          29 :    6.04569959689621
          30 :   -6.97497220080908
          31 :   -41.0321152173589
          32 :   -30.7806926765274

     Forces acting on atoms (Ry/au):

     negative rho (up, down):  7.909E-01 0.000E+00
     atom    1 type  1   force =    -0.00000020   -0.00000015    0.00461717
     atom    2 type  1   force =    -0.00000000   -0.00007112   -0.00633216
     atom    3 type  1   force =    -0.00006162    0.00003556   -0.00633241
     atom    4 type  1   force =     0.00006148    0.00003549   -0.00633270
     atom    5 type  1   force =     0.02443087   -0.01410626   -0.00095733
     atom    6 type  1   force =    -0.02443099   -0.01410547   -0.00095709
     atom    7 type  1   force =     0.00000062    0.00000060    0.01962644
     atom    8 type  1   force =    -0.00000074    0.02821112   -0.00095659
     atom    9 type  1   force =    -0.00069008   -0.00039955   -0.00089851
     atom   10 type  1   force =     0.00069115   -0.00039896   -0.00089850
     atom   11 type  1   force =     0.00000101    0.00079800   -0.00089803
     atom   12 type  1   force =    -0.00000067    0.00000014    0.00140860
     atom   13 type  2   force =    -0.00000083    0.00000061   -0.00108890

     Total force =     0.002739     Total SCF correction =     0.000182

     entering subroutine stress ...

     negative rho (up, down):  7.909E-01 0.000E+00
          total   stress  (Ry/bohr**3)                   (kbar)     P=  -33.91
  -0.00031000  -0.00000000   0.00000000        -45.60     -0.00      0.00
  -0.00000000  -0.00031000   0.00000000         -0.00    -45.60      0.00
   0.00000000   0.00000000  -0.00007163          0.00      0.00    -10.54

     bfgs converged in  11 scf cycles and  10 bfgs steps
     (criteria: energy <  1.0E+00, force <  1.9E-03)

     End of BFGS Geometry Optimization

     Final energy   =   -1936.3528360183 Ry
Begin final coordinates

ATOMIC_POSITIONS (crystal)
W1       0.166666667   0.166666667   0.405441099    0   0   0
W1       0.666666667   0.166666667   0.405441099    0   0   0
W1       0.166666667   0.666666667   0.405441099    0   0   0
W1       0.666666667   0.666666667   0.405441099    0   0   0
W1       0.833333333   0.333333333   0.500000000    0   0   0
W1       0.333333333   0.333333333   0.500000000    0   0   0
W1       0.833333333   0.833333333   0.500000000    0   0   0
W1       0.333333333   0.833333333   0.500000000    0   0   0
W1      -0.003088750  -0.003088212   0.597177677
W1       0.506177511  -0.003088453   0.597177680
W1      -0.003088623   0.506177444   0.597177686
W1       0.500000632   0.499999968   0.584498750
C1       0.166667321   0.166666432   0.641092031
End final coordinates

     Writing output data file calc.save

     General routines

     Parallel routines

   This run was terminated on:   3:17:52   3May2018

   JOB DONE.
Job  /afs/slac/g/suncat/bin/suncat-tsmpirun -x LD_LIBRARY_PATH -wdir /scratch/qe605532_BaBB3 pw.x -npool 4 -in pw.inp

TID   HOST_NAME   COMMAND_LINE            STATUS            TERMINATION_TIME
00000 suncat0100 pw.x -npool 4 -i  Done                     05/03/2018 03:17:52
00001 suncat0100 pw.x -npool 4 -i  Done                     05/03/2018 03:17:52
00002 suncat0100 pw.x -npool 4 -i  Done                     05/03/2018 03:17:52
00003 suncat0100 pw.x -npool 4 -i  Done                     05/03/2018 03:17:52
00004 suncat0100 pw.x -npool 4 -i  Done                     05/03/2018 03:17:52
00005 suncat0100 pw.x -npool 4 -i  Done                     05/03/2018 03:17:52
00006 suncat0100 pw.x -npool 4 -i  Done                     05/03/2018 03:17:52
00007 suncat0100 pw.x -npool 4 -i  Done                     05/03/2018 03:17:52
00008 suncat0266 pw.x -npool 4 -i  Done                     05/03/2018 03:17:52
00009 suncat0266 pw.x -npool 4 -i  Done                     05/03/2018 03:17:52
00010 suncat0266 pw.x -npool 4 -i  Done                     05/03/2018 03:17:52
00011 suncat0266 pw.x -npool 4 -i  Done                     05/03/2018 03:17:52
00012 suncat0266 pw.x -npool 4 -i  Done                     05/03/2018 03:17:52
00013 suncat0266 pw.x -npool 4 -i  Done                     05/03/2018 03:17:52
00014 suncat0266 pw.x -npool 4 -i  Done                     05/03/2018 03:17:52
00015 suncat0266 pw.x -npool 4 -i  Done                     05/03/2018 03:17:52
00016 suncat0214 pw.x -npool 4 -i  Done                     05/03/2018 03:17:52
00017 suncat0214 pw.x -npool 4 -i  Done                     05/03/2018 03:17:52
00018 suncat0214 pw.x -npool 4 -i  Done                     05/03/2018 03:17:52
00019 suncat0214 pw.x -npool 4 -i  Done                     05/03/2018 03:17:52
00020 suncat0214 pw.x -npool 4 -i  Done                     05/03/2018 03:17:52
00021 suncat0214 pw.x -npool 4 -i  Done                     05/03/2018 03:17:52
00022 suncat0214 pw.x -npool 4 -i  Done                     05/03/2018 03:17:52
00023 suncat0214 pw.x -npool 4 -i  Done                     05/03/2018 03:17:52
00024 suncat0206 pw.x -npool 4 -i  Done                     05/03/2018 03:17:52
00025 suncat0206 pw.x -npool 4 -i  Done                     05/03/2018 03:17:52
00026 suncat0206 pw.x -npool 4 -i  Done                     05/03/2018 03:17:52
00027 suncat0206 pw.x -npool 4 -i  Done                     05/03/2018 03:17:52
00028 suncat0206 pw.x -npool 4 -i  Done                     05/03/2018 03:17:52
00029 suncat0206 pw.x -npool 4 -i  Done                     05/03/2018 03:17:52
00030 suncat0206 pw.x -npool 4 -i  Done                     05/03/2018 03:17:52
00031 suncat0206 pw.x -npool 4 -i  Done                     05/03/2018 03:17:52