     Program PWSCF v.5.1rc2 (svn rev. 11289) starts on  2May2018 at 11:50:49

     Current dimensions of program PWSCF are:
     Max number of different atomic species (ntypx) = 10
     Max number of k-points (npk) =  40000
     Max angular momentum in pseudopotentials (lmaxx) =  3
     Presently stress not available with electric field

     IMPORTANT: XC functional enforced from input :
     Exchange-correlation      = BEEF-VDW ( 1  4 27 13 2)
     Any further DFT definition will be discarded
     Please, verify this is what you really want

     Subspace diagonalization in iterative solution of the eigenvalue problem:
     a serial algorithm will be used

     bravais-lattice index     =            0
     lattice parameter (alat)  =       1.8897  a.u.
     unit-cell volume          =    3807.2308 (a.u.)^3
     number of atoms/cell      =           13
     number of atomic types    =            2
     number of electrons       =       233.00
     number of Kohn-Sham states=          126
     kinetic-energy cutoff     =      36.7493  Ry
     charge density cutoff     =     367.4932  Ry
     convergence threshold     =      1.0E-05
     mixing beta               =       0.3000
     number of iterations used =           10  plain     mixing
     Exchange-correlation      = BEEF-VDW ( 1  4 27 13 2)
     nstep                     =           50

     celldm(1)=   1.889726  celldm(2)=   0.000000  celldm(3)=   0.000000
     celldm(4)=   0.000000  celldm(5)=   0.000000  celldm(6)=   0.000000

     crystal axes: (cart. coord. in units of alat)
               a(1) = (   5.184823   0.000000   0.000000 )
               a(2) = (   2.592411   4.490188   0.000000 )
               a(3) = (   0.000000   0.000000  24.233390 )

     reciprocal axes: (cart. coord. in units 2 pi/alat)
               b(1) = (  0.192871 -0.111354  0.000000 )
               b(2) = (  0.000000  0.222708  0.000000 )
               b(3) = (  0.000000  0.000000  0.041265 )

     PseudoPot. # 1 for Cu read from file:
     /u/if/mamunm/psp/gbrv1.5pbe/Cu.UPF
     MD5 check sum: 6e991ff952a84172a2a52a1c1e996048
     Pseudo is Ultrasoft + core correction, Zval = 19.0
     Generated by new atomic code, or converted to UPF format
     Using radial grid of  867 points,  6 beta functions with:
                l(1) =   0
                l(2) =   0
                l(3) =   1
                l(4) =   1
                l(5) =   2
                l(6) =   2
     Q(r) pseudized with  8 coefficients,  rinner =    1.150   1.150   1.150
                                                       1.150   1.150

     PseudoPot. # 2 for N  read from file:
     /u/if/mamunm/psp/gbrv1.5pbe/N.UPF
     MD5 check sum: 95339753478d7afb44899504a8723017
     Pseudo is Ultrasoft + core correction, Zval =  5.0
     Generated by new atomic code, or converted to UPF format
     Using radial grid of  729 points,  4 beta functions with:
                l(1) =   0
                l(2) =   0
                l(3) =   1
                l(4) =   1
     Q(r) pseudized with  8 coefficients,  rinner =    0.900   0.900   0.900

     vdW kernel table read from file vdW_kernel_table
     MD5 check sum: 095c7af220d748ca6e76c0b4c6cfb241

     atomic species   valence    mass     pseudopotential
        Cu1           19.00    63.54600     Cu( 1.00)
        N1             5.00    14.00700     N ( 1.00)

     No symmetry found

   Cartesian axes

     site n.     atom                  positions (alat units)
         1           Cu1 tau(   1) = (   1.2962057   0.7483647  10.0000000  )
         2           Cu1 tau(   2) = (   3.8886170   0.7483647  10.0000000  )
         3           Cu1 tau(   3) = (   2.5924113   2.9934587  10.0000000  )
         4           Cu1 tau(   4) = (   5.1848226   2.9934587  10.0000000  )
         5           Cu1 tau(   5) = (   5.1848226   1.4967294  12.1166950  )
         6           Cu1 tau(   6) = (   2.5924113   1.4967294  12.1166950  )
         7           Cu1 tau(   7) = (   6.4810283   3.7418234  12.1166950  )
         8           Cu1 tau(   8) = (   3.8886170   3.7418234  12.1166950  )
         9           Cu1 tau(   9) = (   0.0000000   0.0000000  14.2333899  )
        10           Cu1 tau(  10) = (   2.5924113   0.0000000  14.2333899  )
        11           Cu1 tau(  11) = (   1.2962057   2.2450940  14.2333899  )
        12           Cu1 tau(  12) = (   3.8886170   2.2450940  14.2333899  )
        13           N1  tau(  13) = (   2.5924113   1.4967294  15.5528899  )

     number of k points=    20  Fermi-Dirac smearing, width (Ry)=  0.0110
                       cart. coord. in units 2pi/alat
        k(    1) = (   0.0000000   0.0000000   0.0000000), wk =   0.0555556
        k(    2) = (   0.0000000   0.0371180   0.0000000), wk =   0.1111111
        k(    3) = (   0.0000000   0.0742359   0.0000000), wk =   0.1111111
        k(    4) = (   0.0000000  -0.1113539   0.0000000), wk =   0.0555556
        k(    5) = (   0.0321451  -0.0185590   0.0000000), wk =   0.1111111
        k(    6) = (   0.0321451   0.0185590   0.0000000), wk =   0.1111111
        k(    7) = (   0.0321451   0.0556770   0.0000000), wk =   0.1111111
        k(    8) = (   0.0321451  -0.1299129   0.0000000), wk =   0.1111111
        k(    9) = (   0.0321451  -0.0927949   0.0000000), wk =   0.1111111
        k(   10) = (   0.0321451  -0.0556770   0.0000000), wk =   0.1111111
        k(   11) = (   0.0642902  -0.0371180   0.0000000), wk =   0.1111111
        k(   12) = (   0.0642902  -0.0000000   0.0000000), wk =   0.1111111
        k(   13) = (   0.0642902   0.0371180   0.0000000), wk =   0.1111111
        k(   14) = (   0.0642902  -0.1484719   0.0000000), wk =   0.1111111
        k(   15) = (   0.0642902  -0.1113539   0.0000000), wk =   0.1111111
        k(   16) = (   0.0642902  -0.0742359   0.0000000), wk =   0.1111111
        k(   17) = (  -0.0964353   0.0556770   0.0000000), wk =   0.0555556
        k(   18) = (  -0.0964353   0.0927949   0.0000000), wk =   0.1111111
        k(   19) = (  -0.0964353   0.1299129   0.0000000), wk =   0.1111111
        k(   20) = (  -0.0964353  -0.0556770   0.0000000), wk =   0.0555556

     Largest allocated arrays     est. size (Mb)     dimensions
     Largest temporary arrays     est. size (Mb)     dimensions

     Initial potential from superposition of free atoms
     Check: negative starting charge=   -0.000128

     starting charge  220.99997, renormalised to  233.00000

     negative rho (up, down):  1.350E-04 0.000E+00

     *
     * You are using vdW-DF for exchange-correlation in this calculation.
     * Please cite the following three references that made this development
     * possible:
     *
     *   M. Dion, H. Rydberg, E. Schroder, D. C. Langreth, and
     *   B. I. Lundqvist, Phys. Rev. Lett. 92, 246401 (2004).
     *
     *   T. Thonhauser, V. R. Cooper, S. Li, A. Puzder, P. Hyldgaard, and
     *   D. C. Langreth, Phys. Rev. B 76, 125112 (2007).
     *
     *   G. Roman-Perez and J. M. Soler, Phys. Rev. Lett. 103, 096102 (2009).
     *
     *
     * If you are using vdW-DF2, please also cite:
     *
     *   K. Lee, E. D. Murray, L. Kong, B. I. Lundqvist, and
     *   D. C. Langreth, Phys. Rev. B 82, 081101(R) (2010).
     *
     *
     * If you are calculating the stress with vdW-DF, please also cite:
     *
     *   R. Sabatini, E. Kucukbenli, B. Kolb, T. Thonhauser, and
     *   S. de Gironcoli, J. Phys.: Condens. Matter 24, 424209 (2012).
     *

     Carrying out vdW-DF run using the following parameters:

     Nqs =      20    Nr_points =    1024   r_max =   100.000
     q_mesh =
               0.00001000     0.04494208     0.09755937     0.15916263
               0.23128650     0.31572767     0.41458969     0.53033537
               0.66584808     0.82450364     1.01025438     1.22772762
               1.48234092     1.78043706     2.12944203     2.53805004
               3.01644009     3.57652955     4.23227104     5.00000000

     Gradients computed in reciprocal space

     Adding external electric field

     Computed dipole along edir(3) :
        Dipole               -1.7629 Ry au,         -4.4808 Debye
        Dipole field         -0.0058 Ry au

        Potential amp.        0.5196 Ry
        Total length         44.6496 bohr

     Starting wfc are  160 randomized atomic wfcs

     Self-consistent Calculation

     iteration #  1     ecut=    36.75 Ry     beta=0.30
     Davidson diagonalization with overlap
     ethr =  1.00E-02,  avg # of iterations =  8.6

[...]

     total energy              =   -4625.15231940 Ry
     Harris-Foulkes estimate   =   -4881.47370961 Ry
     estimated scf accuracy    <     539.44956006 Ry

     iteration #  2     ecut=    36.75 Ry     beta=0.30
     Davidson diagonalization with overlap
     c_bands:  1 eigenvalues not converged
     ethr =  1.00E-02,  avg # of iterations = 19.7

[...]

     End of self-consistent calculation

          k = 0.0000 0.0000 0.0000 ( 14321 PWs)   bands (ev):

  -112.8702-112.8646-112.8645-112.7637-112.7580-112.7579-112.6979-112.5037
  -112.4977-112.4971-112.4866-112.3161 -70.3690 -70.3341 -70.3339 -70.2417
   -70.2416 -70.2168 -70.2030 -70.1910 -70.1909 -70.1904 -70.1695 -70.1694
   -70.1510 -70.1502 -70.1441 -70.1440 -70.1309 -70.1308 -70.0940 -70.0887
   -70.0887 -69.9575 -69.9517 -69.9514 -69.9034 -69.9030 -69.9028 -69.8841
   -69.8840 -69.8574 -69.8521 -69.8515 -69.8346 -69.7437 -69.7437 -69.6837
   -13.4417  -8.3547  -6.3334  -5.0776  -4.8081  -4.8081  -4.7339  -4.6435
    -4.5890  -4.5889  -4.3156  -4.3099  -4.3099  -4.1408  -4.1407  -4.1371
    -3.7024  -3.7024  -3.5874  -3.3696  -3.3696  -3.3176  -3.1787  -3.1787
    -3.1433  -3.0460  -3.0460  -3.0095  -2.9525  -2.9525  -2.9454  -2.8448
    -2.8447  -2.8044  -2.8044  -2.6127  -2.5481  -2.5480  -2.3908  -2.3295
    -2.3211  -2.3210  -2.2480  -2.2479  -2.0927  -2.0927  -1.9870  -1.9868
    -1.9247  -1.8892  -1.8890  -1.8639  -1.8227  -1.8226  -1.7868  -1.7817
    -1.7794  -1.7793  -1.6703  -1.6703  -1.5649  -1.5608  -1.5605  -1.2510
    -1.0610  -0.6993  -0.6993   0.1065   0.1065   0.2930   0.6505   1.1850
     1.1851   1.2864   1.5572   1.5573   3.6195   3.9296

[...]

          k =-0.0964 0.0557 0.0000 ( 14294 PWs)   bands (ev):

[...]

     the Fermi energy is    -0.1358 ev

!    total energy              =   -4879.40445050 Ry
     Harris-Foulkes estimate   =   -4879.40443389 Ry
     estimated scf accuracy    <       0.00000134 Ry

     The total energy is the sum of the following terms:

     one-electron contribution =  -37827.21333199 Ry
     hartree contribution      =   18925.12960081 Ry
     xc contribution           =    -485.33937846 Ry
     ewald contribution        =   14508.04692427 Ry
     electric field correction =       0.00047745 Ry
     smearing contrib. (-TS)   =      -0.02874258 Ry

     convergence has been achieved in  34 iterations

 BEEF-vdW xc energy contributions
           1 :   -430.023127154567
           2 :    389.807236225017
           3 :   -321.687661914119
           4 :    244.404695566292
           5 :   -175.008353068915
           6 :    122.757554528448
           7 :   -87.6789042058465
           8 :    63.7188638500367
           9 :   -44.0291208595704
          10 :    25.1257986020099
          11 :   -7.84562386603142
          12 :   -4.75627697085082
          13 :    10.5922296203497
          14 :   -10.5001976383186
          15 :    7.82773123383487
          16 :   -6.25053363598198
          17 :    7.53470604488746
          18 :   -10.7757632737648
          19 :    13.4737194475435
          20 :   -13.5393464247232
          21 :    10.7879470838010
          22 :   -6.95871686283806
          23 :    4.38137096156379
          24 :   -4.32762832447651
          25 :    6.21534522410707
          26 :   -8.15622053284335
          27 :    8.37104849138495
          28 :   -6.43369354581273
          29 :    3.49132225394072
          30 :   -1.36889529944011
          31 :   -34.3976700442341
          32 :   -23.5044859872944

     Forces acting on atoms (Ry/au):

     negative rho (up, down):  1.217E-03 0.000E+00
     atom    1 type  1   force =    -0.00087691   -0.00050895    0.00359191
     atom    2 type  1   force =     0.00087941   -0.00049320    0.00344041
     atom    3 type  1   force =     0.00000532    0.00101061    0.00366175
     atom    4 type  1   force =    -0.00000555   -0.00000626    0.00129738
     atom    5 type  1   force =    -0.00005084    0.00268020    0.00168411
     atom    6 type  1   force =     0.00005850   -0.00005730   -0.01039031
     atom    7 type  1   force =    -0.00237320   -0.00128838    0.00169514
     atom    8 type  1   force =     0.00236778   -0.00133998    0.00174839
     atom    9 type  1   force =     0.00000006    0.00000592   -0.00311140
     atom   10 type  1   force =    -0.00000251    0.01146066    0.03114892
     atom   11 type  1   force =     0.00991099   -0.00573281    0.03117577
     atom   12 type  1   force =    -0.00991152   -0.00573008    0.03112927
     atom   13 type  2   force =    -0.00000152   -0.00000042   -0.09707135

     Total force =     0.112859     Total SCF correction =     0.005607

     entering subroutine stress ...

     negative rho (up, down):  1.217E-03 0.000E+00
          total   stress  (Ry/bohr**3)                   (kbar)     P=  -29.61
  -0.00020373  -0.00000000   0.00000000        -29.97     -0.00      0.00
  -0.00000000  -0.00020373   0.00000000         -0.00    -29.97      0.00
   0.00000000   0.00000000  -0.00019637          0.00      0.00    -28.89

     BFGS Geometry Optimization

     number of scf cycles    =   1
     number of bfgs steps    =   0

     energy   new            =   -4879.4044505020 Ry

     new trust radius        =       0.0970713454 bohr
     new conv_thr            =       0.0000099958 Ry

ATOMIC_POSITIONS (crystal)
Cu1      0.166666667   0.166666667   0.412653782    0   0   0
Cu1      0.666666667   0.166666667   0.412653782    0   0   0
Cu1      0.166666667   0.666666667   0.412653782    0   0   0
Cu1      0.666666667   0.666666667   0.412653782    0   0   0
Cu1      0.833333333   0.333333333   0.500000000    0   0   0
Cu1      0.333333333   0.333333333   0.500000000    0   0   0
Cu1      0.833333333   0.833333333   0.500000000    0   0   0
Cu1      0.333333333   0.833333333   0.500000000    0   0   0
Cu1     -0.000000343   0.000000697   0.587278276
Cu1      0.499324414   0.001350660   0.588026408
Cu1      0.001349354   0.499324377   0.588026994
Cu1      0.499326053   0.499324699   0.588025979
N1       0.333333203   0.333333284   0.639676167

     Writing output data file calc.save
     Check: negative starting charge=   -0.000128
     NEW-OLD atomic charge density approx. for the potential
     Check: negative starting charge=   -0.000131

[...]

     energy   old            =   -4879.4044505020 Ry
     energy   new            =   -4879.4156394859 Ry

     CASE: energy  _new < energy  _old

[...]

     Total force =     0.007404     Total SCF correction =     0.002039
     SCF correction compared to forces is large: reduce conv_thr to get better values

[...]

     Total force =     0.006497     Total SCF correction =     0.000395

[...]

     number of scf cycles    =  10
     number of bfgs steps    =   9

     energy   old            =   -4879.4329848888 Ry
     energy   new            =   -4879.4331224501 Ry

     CASE: energy  _new < energy  _old

     new trust radius        =       0.0216710133 bohr
     new conv_thr            =       0.0000001000 Ry

ATOMIC_POSITIONS (crystal)
Cu1      0.166666667   0.166666667   0.412653782    0   0   0
Cu1      0.666666667   0.166666667   0.412653782    0   0   0
Cu1      0.166666667   0.666666667   0.412653782    0   0   0
Cu1      0.666666667   0.666666667   0.412653782    0   0   0
Cu1      0.833333333   0.333333333   0.500000000    0   0   0
Cu1      0.333333333   0.333333333   0.500000000    0   0   0
Cu1      0.833333333   0.833333333   0.500000000    0   0   0
Cu1      0.333333333   0.833333333   0.500000000    0   0   0
Cu1      0.000001798   0.000000153   0.584758775
Cu1      0.506429896  -0.012857941   0.588892780
Cu1     -0.012858863   0.506432980   0.588891815
Cu1      0.506413439   0.506418786   0.588891565
N1       0.333329891   0.333326287   0.629954144

     Writing output data file calc.save
     Check: negative starting charge=   -0.000137
     NEW-OLD atomic charge density approx. for the potential
     Check: negative starting charge=   -0.000138

[...]

     Self-consistent Calculation

[...]

     total energy              =   -4879.43319507 Ry
     Harris-Foulkes estimate   =   -4879.43319676 Ry
     estimated scf accuracy    <       0.00000016 Ry

     iteration # 11     ecut=    36.75 Ry     beta=0.30
     Davidson diagonalization with overlap
     ethr =  7.04E-11,  avg # of iterations =  2.0

[...]

     negative rho (up, down):  1.300E-03 0.000E+00

     Adding external electric field

     Computed dipole along edir(3) :
        Dipole               -0.2486 Ry au,         -0.6319 Debye
        Dipole field         -0.0008 Ry au

        Potential amp.        0.0733 Ry
        Total length         44.6496 bohr

     End of self-consistent calculation

[...]

          k = 0.0643-0.0742 0.0000 ( 14299 PWs)   bands (ev):

[...]

          k =-0.0964-0.0557 0.0000 ( 14294 PWs)   bands (ev):

  -112.9356-112.9318-112.9303-112.5898-112.5880-112.5861-112.5028-112.3223
  -112.3205-112.3177-112.3167-112.2191 -70.4911 -70.4686 -70.4562 -70.2740
   -70.2689 -70.2552 -70.2195 -70.2086 -70.2026 -70.0138 -70.0011 -69.9952
   -69.9916 -69.9895 -69.9752 -69.9747 -69.9710 -69.9601 -69.9104 -69.9041
   -69.8931 -69.7641 -69.7637 -69.7445 -69.7404 -69.7400 -69.7367 -69.7167
   -69.7167 -69.6732 -69.6730 -69.6699 -69.6694 -69.6443 -69.6434 -69.5969
   -14.1519  -6.6398  -6.3943  -5.3742  -4.8082  -4.7916  -4.5664  -4.2965
    -4.2712  -4.0838  -4.0525  -3.9710  -3.9406  -3.8054  -3.7169  -3.6910
    -3.6230  -3.6157  -3.4925  -3.4119  -3.3314  -3.3045  -3.2944  -3.2689
    -3.2513  -3.1363  -3.0896  -3.0706  -2.9967  -2.9073  -2.8722  -2.8453
    -2.8282  -2.7161  -2.7052  -2.6927  -2.6581  -2.6414  -2.6344  -2.6049
    -2.5802  -2.5681  -2.4039  -2.3861  -2.3530  -2.3407  -2.2720  -2.2717
    -2.2367  -2.1580  -2.1347  -2.1162  -2.0368  -1.9798  -1.9641  -1.9238
    -1.9092  -1.9034  -1.8027  -1.6894  -1.6574  -1.6529  -1.5846  -1.5499
    -1.4462  -0.8189  -0.8169  -0.2336   0.2062   0.3411   0.7243   1.3356
     1.7706   2.5328   3.3199   3.5576   4.2997   5.6493

     the Fermi energy is     0.0577 ev

!    total energy              =   -4879.43319506 Ry
     Harris-Foulkes estimate   =   -4879.43319660 Ry
     estimated scf accuracy    <       0.00000006 Ry

     The total energy is the sum of the following terms:

     one-electron contribution =  -37896.40226809 Ry
     hartree contribution      =   18960.50544176 Ry
     xc contribution           =    -485.47020468 Ry
     ewald contribution        =   14541.95902008 Ry
     electric field correction =       0.00020399 Ry
     smearing contrib. (-TS)   =      -0.02538812 Ry

     convergence has been achieved in  11 iterations

 BEEF-vdW xc energy contributions
           1 :   -430.166796486401
           2 :    390.016471591821
           3 :   -321.953828023127
           4 :    244.646336073299
           5 :   -175.131937799067
           6 :    122.720807873853
           7 :   -87.5175950850407
           8 :    63.5228733666869
           9 :   -43.8864921755306
          10 :    25.0728455246503
          11 :   -7.85438729394849
          12 :   -4.74778733008122
          13 :    10.6289329010754
          14 :   -10.5752220294380
          15 :    7.88902406202840
          16 :   -6.24136787914006
          17 :    7.43706918701372
          18 :   -10.6266959394218
          19 :    13.3446128828809
          20 :   -13.4922359120736
          21 :    10.8373110094682
          22 :   -7.06314390018298
          23 :    4.47102444193581
          24 :   -4.35065892530929
          25 :    6.17150745808112
          26 :   -8.09417984458781
          27 :    8.35168586431547
          28 :   -6.48420073851815
          29 :    3.58134301192581
          30 :   -1.42742544539016
          31 :   -34.4075695632936
          32 :   -23.5253105839803

     Forces acting on atoms (Ry/au):

     negative rho (up, down):  1.300E-03 0.000E+00
     atom    1 type  1   force =    -0.00127807   -0.00073778    0.00301757
     atom    2 type  1   force =     0.00127824   -0.00073781    0.00301766
     atom    3 type  1   force =    -0.00000002    0.00147621    0.00301710
     atom    4 type  1   force =    -0.00000006    0.00000024    0.00029922
     atom    5 type  1   force =     0.00000009    0.00445512   -0.00137346
     atom    6 type  1   force =    -0.00000202   -0.00000366   -0.00587646
     atom    7 type  1   force =    -0.00385976   -0.00222526   -0.00137250
     atom    8 type  1   force =     0.00386064   -0.00222568   -0.00137218
     atom    9 type  1   force =    -0.00000054    0.00000422    0.00144121
     atom   10 type  1   force =    -0.00000765    0.00111105    0.00000988
     atom   11 type  1   force =     0.00096471   -0.00056931    0.00000794
     atom   12 type  1   force =    -0.00094185   -0.00054743   -0.00000535
     atom   13 type  2   force =    -0.00001371    0.00000009   -0.00081063

     Total force =     0.002532     Total SCF correction =     0.001380
     SCF correction compared to forces is large: reduce conv_thr to get better values

     entering subroutine stress ...

     negative rho (up, down):  1.300E-03 0.000E+00
          total   stress  (Ry/bohr**3)                   (kbar)     P=  -16.61
  -0.00012238   0.00000000  -0.00000001        -18.00      0.00     -0.00
   0.00000000  -0.00012237   0.00000000          0.00    -18.00      0.00
  -0.00000001   0.00000000  -0.00009403         -0.00      0.00    -13.83

     bfgs converged in  11 scf cycles and  10 bfgs steps
     (criteria: energy <  1.0E+00, force <  1.9E-03)

     End of BFGS Geometry Optimization

     Final energy   =   -4879.4331950554 Ry
Begin final coordinates

ATOMIC_POSITIONS (crystal)
Cu1      0.166666667   0.166666667   0.412653782    0   0   0
Cu1      0.666666667   0.166666667   0.412653782    0   0   0
Cu1      0.166666667   0.666666667   0.412653782    0   0   0
Cu1      0.666666667   0.666666667   0.412653782    0   0   0
Cu1      0.833333333   0.333333333   0.500000000    0   0   0
Cu1      0.333333333   0.333333333   0.500000000    0   0   0
Cu1      0.833333333   0.833333333   0.500000000    0   0   0
Cu1      0.333333333   0.833333333   0.500000000    0   0   0
Cu1      0.000001798   0.000000153   0.584758775
Cu1      0.506429896  -0.012857941   0.588892780
Cu1     -0.012858863   0.506432980   0.588891815
Cu1      0.506413439   0.506418786   0.588891565
N1       0.333329891   0.333326287   0.629954144
End final coordinates

     Writing output data file calc.save

     General routines

     Parallel routines

   This run was terminated on:  12:48:58   2May2018

   JOB DONE.
Job  /afs/slac/g/suncat/bin/suncat-tsmpirun -x LD_LIBRARY_PATH -wdir /scratch/qe588454_hRIlO pw.x -npool 4 -in pw.inp

TID   HOST_NAME   COMMAND_LINE            STATUS            TERMINATION_TIME
00000 suncat0012 pw.x -npool 4 -i  Done                     05/02/2018 12:48:58
00001 suncat0012 pw.x -npool 4 -i  Done                     05/02/2018 12:48:58
00002 suncat0012 pw.x -npool 4 -i  Done                     05/02/2018 12:48:58
00003 suncat0012 pw.x -npool 4 -i  Done                     05/02/2018 12:48:58
00004 suncat0012 pw.x -npool 4 -i  Done                     05/02/2018 12:48:58
00005 suncat0012 pw.x -npool 4 -i  Done                     05/02/2018 12:48:58
00006 suncat0012 pw.x -npool 4 -i  Done                     05/02/2018 12:48:58
00007 suncat0012 pw.x -npool 4 -i  Done                     05/02/2018 12:48:58
00008 suncat0010 pw.x -npool 4 -i  Done                     05/02/2018 12:48:58
00009 suncat0010 pw.x -npool 4 -i  Done                     05/02/2018 12:48:58
00010 suncat0010 pw.x -npool 4 -i  Done                     05/02/2018 12:48:58
00011 suncat0010 pw.x -npool 4 -i  Done                     05/02/2018 12:48:58
00012 suncat0010 pw.x -npool 4 -i  Done                     05/02/2018 12:48:58
00013 suncat0010 pw.x -npool 4 -i  Done                     05/02/2018 12:48:58
00014 suncat0010 pw.x -npool 4 -i  Done                     05/02/2018 12:48:58
00015 suncat0010 pw.x -npool 4 -i  Done                     05/02/2018 12:48:58
00016 suncat0194 pw.x -npool 4 -i  Done                     05/02/2018 12:48:58
00017 suncat0194 pw.x -npool 4 -i  Done                     05/02/2018 12:48:58
00018 suncat0194 pw.x -npool 4 -i  Done                     05/02/2018 12:48:58
00019 suncat0194 pw.x -npool 4 -i  Done                     05/02/2018 12:48:58
00020 suncat0194 pw.x -npool 4 -i  Done                     05/02/2018 12:48:58
00021 suncat0194 pw.x -npool 4 -i  Done                     05/02/2018 12:48:58
00022 suncat0194 pw.x -npool 4 -i  Done                     05/02/2018 12:48:58
00023 suncat0194 pw.x -npool 4 -i  Done                     05/02/2018 12:48:58
00024 suncat0188 pw.x -npool 4 -i  Done                     05/02/2018 12:48:58
00025 suncat0188 pw.x -npool 4 -i  Done                     05/02/2018 12:48:58
00026 suncat0188 pw.x -npool 4 -i  Done                     05/02/2018 12:48:58
00027 suncat0188 pw.x -npool 4 -i  Done                     05/02/2018 12:48:58
00028 suncat0188 pw.x -npool 4 -i  Done                     05/02/2018 12:48:58
00029 suncat0188 pw.x -npool 4 -i  Done                     05/02/2018 12:48:58
00030 suncat0188 pw.x -npool 4 -i  Done                     05/02/2018 12:48:58
00031 suncat0188 pw.x -npool 4 -i  Done                     05/02/2018 12:48:58