     Program PWSCF v.5.1rc2 (svn rev. 11289) starts on 16Apr2018 at 21:59: 8

     Current dimensions of program PWSCF are:
     Max number of different atomic species (ntypx) = 10
     Max number of k-points (npk) =  40000
     Max angular momentum in pseudopotentials (lmaxx) =  3
     Presently stress not available with electric field

     IMPORTANT: XC functional enforced from input :
     Exchange-correlation      = BEEF-VDW ( 1  4 27 13 2)
     Any further DFT definition will be discarded
     Please, verify this is what you really want

     Subspace diagonalization in iterative solution of the eigenvalue problem:
     a serial algorithm will be used

     bravais-lattice index     =            0
     lattice parameter (alat)  =       1.8897  a.u.
     unit-cell volume          =    3724.3394 (a.u.)^3
     number of atoms/cell      =           14
     number of atomic types    =            3
     number of electrons       =       173.00
     number of Kohn-Sham states=           96
     kinetic-energy cutoff     =      36.7493  Ry
     charge density cutoff     =     367.4932  Ry
     convergence threshold     =      1.0E-05
     mixing beta               =       0.3000
     number of iterations used =           10  plain     mixing
     Exchange-correlation      = BEEF-VDW ( 1  4 27 13 2)
     nstep                     =           50

     celldm(1)=   1.889726  celldm(2)=   0.000000  celldm(3)=   0.000000
     celldm(4)=   0.000000  celldm(5)=   0.000000  celldm(6)=   0.000000

     crystal axes: (cart. coord. in units of alat)
               a(1) = (   5.132588   0.000000   0.000000 )
               a(2) = (   2.566294   4.444952   0.000000 )
               a(3) = (   0.000000   0.000000  24.190741 )

     reciprocal axes: (cart. coord. in units 2 pi/alat)
               b(1) = (  0.194833 -0.112487  0.000000 )
               b(2) = (  0.000000  0.224974  0.000000 )
               b(3) = (  0.000000  0.000000  0.041338 )

     PseudoPot. # 1 for Cr read from file:
     /u/if/mamunm/psp/gbrv1.5pbe/Cr.UPF
     MD5 check sum: 0d52af634a40206e4dee301ad30da4bf
     Pseudo is Ultrasoft + core correction, Zval = 14.0
     Generated by new atomic code, or converted to UPF format
     Using radial grid of  857 points,  6 beta functions with:
                l(1) =   0
                l(2) =   0
                l(3) =   1
                l(4) =   1
                l(5) =   2
                l(6) =   2
     Q(r) pseudized with  8 coefficients,  rinner =    0.950   0.950   0.950
                                                       0.950   0.950

     PseudoPot. # 2 for C  read from file:
     /u/if/mamunm/psp/gbrv1.5pbe/C.UPF
     MD5 check sum: d1aef80898a10debaa0f26306b886e00
     Pseudo is Ultrasoft + core correction, Zval =  4.0
     Generated by new atomic code, or converted to UPF format
     Using radial grid of  721 points,  4 beta functions with:
                l(1) =   0
                l(2) =   0
                l(3) =   1
                l(4) =   1
     Q(r) pseudized with  8 coefficients,  rinner =    1.100   1.100   1.100

     PseudoPot. # 3 for H  read from file:
     /u/if/mamunm/psp/gbrv1.5pbe/H.UPF
     MD5 check sum: 761ae9a214b05c3daf00ab9f6b793d6f
     Pseudo is Ultrasoft, Zval =  1.0
     Generated by new atomic code, or converted to UPF format
     Using radial grid of  615 points,  2 beta functions with:
                l(1) =   0
                l(2) =   0
     Q(r) pseudized with  8 coefficients,  rinner =    0.700

     vdW kernel table read from file vdW_kernel_table
     MD5 check sum: 095c7af220d748ca6e76c0b4c6cfb241

     atomic species   valence    mass     pseudopotential
        Cr1           14.00    51.99610     Cr( 1.00)
        C1             4.00    12.01100     C ( 1.00)
        H1             1.00     1.00800     H ( 1.00)

     No symmetry found

   Cartesian axes

     site n.     atom                  positions (alat units)
         1           Cr1 tau(   1) = (   1.2831471   0.7408253  10.0000000  )
         2           Cr1 tau(   2) = (   3.8494412   0.7408253  10.0000000  )
         3           Cr1 tau(   3) = (   2.5662941   2.9633012  10.0000000  )
         4           Cr1 tau(   4) = (   5.1325882   2.9633012  10.0000000  )
         5           Cr1 tau(   5) = (   5.1325882   1.4816506  12.0953704  )
         6           Cr1 tau(   6) = (   2.5662941   1.4816506  12.0953704  )
         7           Cr1 tau(   7) = (   6.4157353   3.7041265  12.0953704  )
         8           Cr1 tau(   8) = (   3.8494412   3.7041265  12.0953704  )
         9           Cr1 tau(   9) = (   0.0000000   0.0000000  14.1907408  )
        10           Cr1 tau(  10) = (   2.5662941   0.0000000  14.1907408  )
        11           Cr1 tau(  11) = (   1.2831471   2.2224759  14.1907408  )
        12           Cr1 tau(  12) = (   3.8494412   2.2224759  14.1907408  )
        13           C1  tau(  13) = (   2.5662941   1.4816506  15.5882408  )
        14           H1  tau(  14) = (   2.5662941   1.4816506  16.6882408  )

     number of k points=    20  Fermi-Dirac smearing, width (Ry)=  0.0110
                       cart. coord. in units 2pi/alat
        k(    1) = (   0.0000000   0.0000000   0.0000000), wk =   0.0555556
        k(    2) = (   0.0000000   0.0374957   0.0000000), wk =   0.1111111
        k(    3) = (   0.0000000   0.0749914   0.0000000), wk =   0.1111111
        k(    4) = (   0.0000000  -0.1124872   0.0000000), wk =   0.0555556
        k(    5) = (   0.0324722  -0.0187479   0.0000000), wk =   0.1111111
        k(    6) = (   0.0324722   0.0187479   0.0000000), wk =   0.1111111
        k(    7) = (   0.0324722   0.0562436   0.0000000), wk =   0.1111111
        k(    8) = (   0.0324722  -0.1312350   0.0000000), wk =   0.1111111
        k(    9) = (   0.0324722  -0.0937393   0.0000000), wk =   0.1111111
        k(   10) = (   0.0324722  -0.0562436   0.0000000), wk =   0.1111111
        k(   11) = (   0.0649445  -0.0374957   0.0000000), wk =   0.1111111
        k(   12) = (   0.0649445   0.0000000   0.0000000), wk =   0.1111111
        k(   13) = (   0.0649445   0.0374957   0.0000000), wk =   0.1111111
        k(   14) = (   0.0649445  -0.1499829   0.0000000), wk =   0.1111111
        k(   15) = (   0.0649445  -0.1124872   0.0000000), wk =   0.1111111
        k(   16) = (   0.0649445  -0.0749914   0.0000000), wk =   0.1111111
        k(   17) = (  -0.0974167   0.0562436   0.0000000), wk =   0.0555556
        k(   18) = (  -0.0974167   0.0937393   0.0000000), wk =   0.1111111
        k(   19) = (  -0.0974167   0.1312350   0.0000000), wk =   0.1111111
        k(   20) = (  -0.0974167  -0.0562436   0.0000000), wk =   0.0555556

     Largest allocated arrays     est. size (Mb)     dimensions
     Largest temporary arrays     est. size (Mb)     dimensions

     Check: negative/imaginary core charge=   -0.000004    0.000000

     Initial potential from superposition of free atoms
     Check: negative starting charge=   -0.014826

     starting charge  160.99977, renormalised to  173.00000

     negative rho (up, down):  1.593E-02 0.000E+00

     *
     * You are using vdW-DF for exchange-correlation in this calculation.
     * Please cite the following three references that made this development
     * possible:
     *
     *   M. Dion, H. Rydberg, E. Schroder, D. C. Langreth, and
     *   B. I. Lundqvist, Phys. Rev. Lett. 92, 246401 (2004).
     *
     *   T. Thonhauser, V. R. Cooper, S. Li, A. Puzder, P. Hyldgaard, and
     *   D. C. Langreth, Phys. Rev. B 76, 125112 (2007).
     *
     *   G. Roman-Perez and J. M. Soler, Phys. Rev. Lett. 103, 096102 (2009).
     *
     *
     * If you are using vdW-DF2, please also cite:
     *
     *   K. Lee, E. D. Murray, L. Kong, B. I. Lundqvist, and
     *   D. C. Langreth, Phys. Rev. B 82, 081101(R) (2010).
     *
     *
     * If you are calculating the stress with vdW-DF, please also cite:
     *
     *   R. Sabatini, E. Kucukbenli, B. Kolb, T. Thonhauser, and
     *   S. de Gironcoli, J. Phys.: Condens. Matter 24, 424209 (2012).
     *

     Carrying out vdW-DF run using the following parameters:

     Nqs =      20    Nr_points =    1024   r_max =   100.000
     q_mesh =
               0.00001000     0.04494208     0.09755937     0.15916263
               0.23128650     0.31572767     0.41458969     0.53033537
               0.66584808     0.82450364     1.01025438     1.22772762
               1.48234092     1.78043706     2.12944203     2.53805004
               3.01644009     3.57652955     4.23227104     5.00000000

     Gradients computed in reciprocal space

     Adding external electric field

     Computed dipole along edir(3) :
        Dipole               -2.6145 Ry au,         -6.6453 Debye
        Dipole field         -0.0088 Ry au

        Potential amp.        0.7864 Ry
        Total length         44.5710 bohr

     Starting wfc are  125 randomized atomic wfcs

     Self-consistent Calculation

     iteration #  1     ecut=    36.75 Ry     beta=0.30
     Davidson diagonalization with overlap
     ethr =  1.00E-02,  avg # of iterations =  7.5

[...]

     total energy              =   -1979.43950977 Ry
     Harris-Foulkes estimate   =   -2131.85234527 Ry
     estimated scf accuracy    <     317.42852770 Ry

[...]

     End of self-consistent calculation

          k = 0.0000 0.0000 0.0000 ( 14081 PWs)   bands (ev):

   -70.3202 -70.2346 -70.1803 -70.1800 -70.1699 -70.1590 -70.1411 -70.1408
   -70.1388 -70.0655 -70.0644 -70.0633 -41.9169 -41.9095 -41.9094 -41.8484
   -41.8394 -41.8392 -41.8378 -41.7277 -41.7273 -41.7266 -41.5633 -41.4863
   -41.4753 -41.4751 -41.4590 -41.4573 -41.4566 -41.4118 -41.4016 -41.4014
   -41.3253 -41.3250 -41.3246 -41.3091 -41.3011 -41.3010 -41.2722 -41.2394
   -41.2394 -41.2104 -41.2080 -41.2076 -41.1716 -41.1716 -41.0752 -41.0752
    -9.5224  -5.3465  -4.2843  -3.0997  -2.4189  -2.2535  -2.2534  -2.1558
    -2.1558  -2.0914  -1.7653  -1.5932  -1.5932  -1.4908  -1.4376  -1.4375
    -1.0161  -0.7571  -0.7570  -0.1548  -0.0160  -0.0160   0.4300   0.5692
     0.5693   0.6985   0.8272   0.9885   0.9885   1.1570   1.1570   1.2415
     1.2417   1.2456   1.2487   1.3232   1.3232   1.4554   1.6841   1.6842
     2.1160   2.1162   2.1461   2.3261   2.5148   2.5151   2.6797   2.6798

[...]

          k =-0.0974 0.0562 0.0000 ( 14010 PWs)   bands (ev):

[...]

     the Fermi energy is     1.4110 ev

!    total energy              =   -2127.69810395 Ry
     Harris-Foulkes estimate   =   -2127.69810522 Ry
     estimated scf accuracy    <       0.00000524 Ry

     The total energy is the sum of the following terms:

     one-electron contribution =  -19926.15395763 Ry
     hartree contribution      =    9956.98162497 Ry
     xc contribution           =    -283.53014346 Ry
     ewald contribution        =    8125.13890699 Ry
     electric field correction =       0.00003552 Ry
     smearing contrib. (-TS)   =      -0.13457033 Ry

     convergence has been achieved in  40 iterations

 BEEF-vdW xc energy contributions
           1 :   -245.386138354398
           2 :    220.947981911940
           3 :   -180.144649155472
           4 :    135.232014927703
           5 :   -97.3445699143930
           6 :    72.4618624025263
           7 :   -60.2825225967994
           8 :    56.0540457206426
           9 :   -53.9667443697508
          10 :    50.1645639888811
          11 :   -43.9834477159224
          12 :    37.2000857985576
          13 :   -32.1610011741768
          14 :    30.0648543910520
          15 :   -30.3278505090313
          16 :    31.1804964342502
          17 :   -30.9157117496597
          18 :    28.9206326493681
          19 :   -25.8904978967357
          20 :    23.1958271693034
          21 :   -21.9010369419794
          22 :    22.0935481406697
          23 :   -22.9179972346161
          24 :    23.2193623299315
          25 :   -22.3200633969901
          26 :    20.4150816712381
          27 :   -18.3674927152337
          28 :    17.0907598620295
          29 :   -16.9510900448540
          30 :    17.5696205078763
          31 :   -24.3812653467049
          32 :   -17.5479035791988

     Forces acting on atoms (Ry/au):

     negative rho (up, down):  1.468E-02 0.000E+00
     atom    1 type  1   force =    -0.00172347   -0.00099654    0.00036901
     atom    2 type  1   force =     0.00172248   -0.00100033    0.00037686
     atom    3 type  1   force =    -0.00000435    0.00199963    0.00038807
     atom    4 type  1   force =     0.00000795    0.00000571    0.00003045
     atom    5 type  1   force =    -0.00000091   -0.00099361   -0.00703081
     atom    6 type  1   force =     0.00000262   -0.00002047    0.00710527
     atom    7 type  1   force =     0.00084945    0.00050535   -0.00700723
     atom    8 type  1   force =    -0.00085841    0.00050183   -0.00701445
     atom    9 type  1   force =    -0.00000097    0.00000400   -0.01479832
     atom   10 type  1   force =     0.00000688   -0.01037706    0.03509039
     atom   11 type  1   force =    -0.00898034    0.00518762    0.03509334
     atom   12 type  1   force =     0.00898932    0.00518266    0.03508575
     atom   13 type  2   force =    -0.00000985    0.00000085   -0.06817234
     atom   14 type  3   force =    -0.00000041    0.00000036   -0.00951598

     Total force =     0.094730     Total SCF correction =     0.004152

     entering subroutine stress ...

     negative rho (up, down):  1.468E-02 0.000E+00
          total   stress  (Ry/bohr**3)                   (kbar)     P=  -26.03
  -0.00023895   0.00000001  -0.00000004        -35.15      0.00     -0.01
   0.00000001  -0.00023894  -0.00000001          0.00    -35.15     -0.00
  -0.00000004  -0.00000001  -0.00005298         -0.01     -0.00     -7.79

     BFGS Geometry Optimization

     number of scf cycles    =   1
     number of bfgs steps    =   0

     energy   new            =   -2127.6981039498 Ry

     new trust radius        =       0.0681723457 bohr
     new conv_thr            =       0.0000099958 Ry

ATOMIC_POSITIONS (crystal)
Cr1      0.166666667   0.166666667   0.413381306    0   0   0
Cr1      0.666666667   0.166666667   0.413381306    0   0   0
Cr1      0.166666667   0.666666667   0.413381306    0   0   0
Cr1      0.666666667   0.666666667   0.413381306    0   0   0
Cr1      0.833333333   0.333333333   0.500000000    0   0   0
Cr1      0.333333333   0.333333333   0.500000000    0   0   0
Cr1      0.833333333   0.833333333   0.500000000    0   0   0
Cr1      0.333333333   0.833333333   0.500000000    0   0   0
Cr1     -0.000000338   0.000000476   0.586294978
Cr1      0.500618410  -0.001235403   0.587386304
Cr1     -0.001234682   0.500617593   0.587386368
Cr1      0.500618311   0.500617003   0.587386202
C1       0.333332267   0.333333435   0.642897448
H1       0.333333270   0.333333376   0.689652512

     Writing output data file calc.save
     Check: negative starting charge=   -0.014826
     NEW-OLD atomic charge density approx. for the potential

     Check: negative/imaginary core charge=   -0.000004    0.000000
     Check: negative starting charge=   -0.014610

[...]

     energy   old            =   -2127.6981039498 Ry
     energy   new            =   -2127.7046896647 Ry

     CASE: energy  _new < energy  _old

[...]

     iteration #  1     ecut=    36.75 Ry     beta=0.30
     Davidson diagonalization with overlap
     c_bands:  2 eigenvalues not converged
     c_bands:  1 eigenvalues not converged
     ethr =  1.00E-06,  avg # of iterations = 16.4

[...]

     iteration #  1     ecut=    36.75 Ry     beta=0.30
     Davidson diagonalization with overlap
     c_bands:  1 eigenvalues not converged
     c_bands:  1 eigenvalues not converged
     ethr =  1.00E-06,  avg # of iterations = 17.9

[...]

     Total force =     0.012474     Total SCF correction =     0.001578
     SCF correction compared to forces is large: reduce conv_thr to get better values

[...]

     number of scf cycles    =  11
     number of bfgs steps    =  10

     energy   old            =   -2127.7254818898 Ry
     energy   new            =   -2127.7259029280 Ry

     CASE: energy  _new < energy  _old

     new trust radius        =       0.0076028277 bohr
     new conv_thr            =       0.0000001000 Ry

ATOMIC_POSITIONS (crystal)
Cr1      0.166666667   0.166666667   0.413381306    0   0   0
Cr1      0.666666667   0.166666667   0.413381306    0   0   0
Cr1      0.166666667   0.666666667   0.413381306    0   0   0
Cr1      0.666666667   0.666666667   0.413381306    0   0   0
Cr1      0.833333333   0.333333333   0.500000000    0   0   0
Cr1      0.333333333   0.333333333   0.500000000    0   0   0
Cr1      0.833333333   0.833333333   0.500000000    0   0   0
Cr1      0.333333333   0.833333333   0.500000000    0   0   0
Cr1      0.000002303   0.000001919   0.571544975
Cr1      0.504606783  -0.009210607   0.589746837
Cr1     -0.009209349   0.504603547   0.589745326
Cr1      0.504606163   0.504603580   0.589746345
C1       0.333330533   0.333337313   0.639968306
H1       0.333335633   0.333333437   0.685385067

     Writing output data file calc.save
     Check: negative starting charge=   -0.014451
     NEW-OLD atomic charge density approx. for the potential

     Check: negative/imaginary core charge=   -0.000004    0.000000
     Check: negative starting charge=   -0.014517

[...]

     Self-consistent Calculation

[...]

     Threshold (ethr) on eigenvalues was too large:
     Diagonalizing with lowered threshold

     Davidson diagonalization with overlap
     ethr =  9.73E-08,  avg # of iterations =  2.0

[...]

     total energy              =   -2127.72598550 Ry
     Harris-Foulkes estimate   =   -2127.72598554 Ry
     estimated scf accuracy    <       0.00000022 Ry

     iteration # 19     ecut=    36.75 Ry     beta=0.30
     Davidson diagonalization with overlap
     ethr =  1.27E-10,  avg # of iterations =  5.2

[...]

     negative rho (up, down):  1.465E-02 0.000E+00

     Adding external electric field

     Computed dipole along edir(3) :
        Dipole                0.1152 Ry au,          0.2929 Debye
        Dipole field          0.0004 Ry au

        Potential amp.       -0.0347 Ry
        Total length         44.5710 bohr

     End of self-consistent calculation

[...]

          k = 0.0649-0.0750 0.0000 ( 13990 PWs)   bands (ev):

[...]

          k =-0.0974-0.0562 0.0000 ( 14010 PWs)   bands (ev):

   -70.2929 -70.2735 -70.2023 -70.1742 -70.1609 -70.1491 -70.1224 -70.1105
   -70.1017 -70.0758 -70.0531 -70.0496 -41.9745 -41.8284 -41.8232 -41.7912
   -41.7431 -41.7284 -41.6965 -41.6414 -41.6247 -41.5953 -41.5836 -41.5687
   -41.5192 -41.4837 -41.4481 -41.4453 -41.4406 -41.4252 -41.4217 -41.4045
   -41.3945 -41.3823 -41.3724 -41.3662 -41.3359 -41.3356 -41.3317 -41.3290
   -41.2881 -41.2752 -41.2216 -41.1894 -41.1591 -41.1290 -41.1214 -41.1023
    -9.5774  -4.1974  -3.5121  -3.2511  -2.3540  -1.9251  -1.6551  -1.5589
    -1.4695  -1.4428  -1.4020  -1.2796  -1.0786  -0.9400  -0.8133  -0.7291
    -0.6122  -0.5640  -0.4365  -0.2811  -0.2712  -0.0625   0.0281   0.0292
     0.0557   0.2626   0.2908   0.4152   0.5200   0.5478   0.6881   0.7010
     0.7702   0.8193   0.9593   1.0800   1.1098   1.1129   1.2398   1.2865
     1.5036   1.7354   1.7475   1.9808   1.9847   2.0336   2.0667   2.3158

     the Fermi energy is     1.4363 ev

!    total energy              =   -2127.72598543 Ry
     Harris-Foulkes estimate   =   -2127.72598686 Ry
     estimated scf accuracy    <       0.00000009 Ry

     The total energy is the sum of the following terms:

     one-electron contribution =  -20036.27786940 Ry
     hartree contribution      =   10012.05754664 Ry
     xc contribution           =    -283.73100087 Ry
     ewald contribution        =    8180.34776384 Ry
     electric field correction =       0.00004481 Ry
     smearing contrib. (-TS)   =      -0.12247045 Ry

     convergence has been achieved in  19 iterations

 BEEF-vdW xc energy contributions
           1 :   -245.588834959011
           2 :    221.190136640898
           3 :   -180.421794942846
           4 :    135.486894331481
           5 :   -97.4939179277960
           6 :    72.4402381754447
           7 :   -60.0807593297199
           8 :    55.7314988738560
           9 :   -53.6284564448216
          10 :    49.9103503659318
          11 :   -43.8529481770031
          12 :    37.1465791356547
          13 :   -32.0757992638972
          14 :    29.8448630065403
          15 :   -29.9463830077330
          16 :    30.7118399879902
          17 :   -30.4939879579726
          18 :    28.6588674603869
          19 :   -25.8122636044204
          20 :    23.2236905633314
          21 :   -21.9073511944850
          22 :    21.9786139294055
          23 :   -22.6671236698401
          24 :    22.9067806297130
          25 :   -22.0607443670149
          26 :    20.2941740948251
          27 :   -18.3873517078806
          28 :    17.1665728804724
          29 :   -16.9600850421696
          30 :    17.4263161919175
          31 :   -24.3938594186957
          32 :   -17.5649419135159

     Forces acting on atoms (Ry/au):

     negative rho (up, down):  1.465E-02 0.000E+00
     atom    1 type  1   force =    -0.00112942   -0.00065206    0.00025720
     atom    2 type  1   force =     0.00112952   -0.00065217    0.00025585
     atom    3 type  1   force =    -0.00000031    0.00130365    0.00025633
     atom    4 type  1   force =     0.00000055    0.00000000    0.00592100
     atom    5 type  1   force =    -0.00000199    0.01937860   -0.01783295
     atom    6 type  1   force =     0.00000125   -0.00000088    0.04114092
     atom    7 type  1   force =    -0.01678233   -0.00968632   -0.01783089
     atom    8 type  1   force =     0.01678280   -0.00968925   -0.01782927
     atom    9 type  1   force =    -0.00000224   -0.00000349    0.00025393
     atom   10 type  1   force =     0.00000147    0.00173611    0.00152053
     atom   11 type  1   force =     0.00150616   -0.00086419    0.00152923
     atom   12 type  1   force =    -0.00150408   -0.00086615    0.00152132
     atom   13 type  2   force =    -0.00000055   -0.00000516    0.00082091
     atom   14 type  3   force =    -0.00000084    0.00000132    0.00001588

     Total force =     0.004092     Total SCF correction =     0.000406

     entering subroutine stress ...

     negative rho (up, down):  1.465E-02 0.000E+00
          total   stress  (Ry/bohr**3)                   (kbar)     P=  -16.02
  -0.00015862   0.00000000  -0.00000000        -23.33      0.00     -0.00
   0.00000000  -0.00015862  -0.00000000          0.00    -23.33     -0.00
  -0.00000000  -0.00000000  -0.00000957         -0.00     -0.00     -1.41

     bfgs converged in  12 scf cycles and  11 bfgs steps
     (criteria: energy <  1.0E+00, force <  1.9E-03)

     End of BFGS Geometry Optimization

     Final energy   =   -2127.7259854321 Ry
Begin final coordinates

ATOMIC_POSITIONS (crystal)
Cr1      0.166666667   0.166666667   0.413381306    0   0   0
Cr1      0.666666667   0.166666667   0.413381306    0   0   0
Cr1      0.166666667   0.666666667   0.413381306    0   0   0
Cr1      0.666666667   0.666666667   0.413381306    0   0   0
Cr1      0.833333333   0.333333333   0.500000000    0   0   0
Cr1      0.333333333   0.333333333   0.500000000    0   0   0
Cr1      0.833333333   0.833333333   0.500000000    0   0   0
Cr1      0.333333333   0.833333333   0.500000000    0   0   0
Cr1      0.000002303   0.000001919   0.571544975
Cr1      0.504606783  -0.009210607   0.589746837
Cr1     -0.009209349   0.504603547   0.589745326
Cr1      0.504606163   0.504603580   0.589746345
C1       0.333330533   0.333337313   0.639968306
H1       0.333335633   0.333333437   0.685385067
End final coordinates

     Writing output data file calc.save

     General routines

     Parallel routines

   This run was terminated on:  23:49:20  16Apr2018

   JOB DONE.
Job  /afs/slac/g/suncat/bin/suncat-tsmpirun -x LD_LIBRARY_PATH -wdir /scratch/qe150815_BjYUR pw.x -npool 4 -in pw.inp

TID   HOST_NAME   COMMAND_LINE            STATUS            TERMINATION_TIME
00000 suncat0175 pw.x -npool 4 -i  Done                     04/16/2018 23:49:20
00001 suncat0175 pw.x -npool 4 -i  Done                     04/16/2018 23:49:20
00002 suncat0175 pw.x -npool 4 -i  Done                     04/16/2018 23:49:20
00003 suncat0175 pw.x -npool 4 -i  Done                     04/16/2018 23:49:20
00004 suncat0175 pw.x -npool 4 -i  Done                     04/16/2018 23:49:20
00005 suncat0175 pw.x -npool 4 -i  Done                     04/16/2018 23:49:20
00006 suncat0175 pw.x -npool 4 -i  Done                     04/16/2018 23:49:20
00007 suncat0175 pw.x -npool 4 -i  Done                     04/16/2018 23:49:20
00008 suncat0170 pw.x -npool 4 -i  Done                     04/16/2018 23:49:20
00009 suncat0170 pw.x -npool 4 -i  Done                     04/16/2018 23:49:20
00010 suncat0170 pw.x -npool 4 -i  Done                     04/16/2018 23:49:20
00011 suncat0170 pw.x -npool 4 -i  Done                     04/16/2018 23:49:20
00012 suncat0170 pw.x -npool 4 -i  Done                     04/16/2018 23:49:20
00013 suncat0170 pw.x -npool 4 -i  Done                     04/16/2018 23:49:20
00014 suncat0170 pw.x -npool 4 -i  Done                     04/16/2018 23:49:20
00015 suncat0170 pw.x -npool 4 -i  Done                     04/16/2018 23:49:20
00016 suncat0115 pw.x -npool 4 -i  Done                     04/16/2018 23:49:20
00017 suncat0115 pw.x -npool 4 -i  Done                     04/16/2018 23:49:20
00018 suncat0115 pw.x -npool 4 -i  Done                     04/16/2018 23:49:20
00019 suncat0115 pw.x -npool 4 -i  Done                     04/16/2018 23:49:20
00020 suncat0115 pw.x -npool 4 -i  Done                     04/16/2018 23:49:20
00021 suncat0115 pw.x -npool 4 -i  Done                     04/16/2018 23:49:20
00022 suncat0115 pw.x -npool 4 -i  Done                     04/16/2018 23:49:20
00023 suncat0115 pw.x -npool 4 -i  Done                     04/16/2018 23:49:20
00024 suncat0248 pw.x -npool 4 -i  Done                     04/16/2018 23:49:20
00025 suncat0248 pw.x -npool 4 -i  Done                     04/16/2018 23:49:20
00026 suncat0248 pw.x -npool 4 -i  Done                     04/16/2018 23:49:20
00027 suncat0248 pw.x -npool 4 -i  Done                     04/16/2018 23:49:20
00028 suncat0248 pw.x -npool 4 -i  Done                     04/16/2018 23:49:20
00029 suncat0248 pw.x -npool 4 -i  Done                     04/16/2018 23:49:20
00030 suncat0248 pw.x -npool 4 -i  Done                     04/16/2018 23:49:20
00031 suncat0248 pw.x -npool 4 -i  Done                     04/16/2018 23:49:20