     Program PWSCF v.5.1rc2 (svn rev. 11289) starts on 24Apr2018 at 19:53:14

     Current dimensions of program PWSCF are:
     Max number of different atomic species (ntypx) = 10
     Max number of k-points (npk) =  40000
     Max angular momentum in pseudopotentials (lmaxx) =  3
     Presently stress not available with electric field

     IMPORTANT: XC functional enforced from input :
     Exchange-correlation      = BEEF-VDW ( 1  4 27 13 2)
     Any further DFT definition will be discarded
     Please, verify this is what you really want

     Subspace diagonalization in iterative solution of the eigenvalue problem:
     a serial algorithm will be used

     bravais-lattice index     =            0
     lattice parameter (alat)  =       1.8897  a.u.
     unit-cell volume          =    7725.1200 (a.u.)^3
     number of atoms/cell      =           14
     number of atomic types    =            3
     number of electrons       =       138.00
     number of Kohn-Sham states=           79
     kinetic-energy cutoff     =      36.7493  Ry
     charge density cutoff     =     367.4932  Ry
     convergence threshold     =      1.0E-05
     mixing beta               =       0.3000
     number of iterations used =           10  plain     mixing
     Exchange-correlation      = BEEF-VDW ( 1  4 27 13 2)
     nstep                     =           50

     celldm(1)=   1.889726  celldm(2)=   0.000000  celldm(3)=   0.000000
     celldm(4)=   0.000000  celldm(5)=   0.000000  celldm(6)=   0.000000

     crystal axes: (cart. coord. in units of alat)
               a(1) = (   7.152277   0.000000   0.000000 )
               a(2) = (   3.576139   6.194054   0.000000 )
               a(3) = (   0.000000   0.000000  25.839810 )

     reciprocal axes: (cart. coord. in units 2 pi/alat)
               b(1) = (  0.139816 -0.080723  0.000000 )
               b(2) = (  0.000000  0.161445  0.000000 )
               b(3) = (  0.000000  0.000000  0.038700 )

     PseudoPot. # 1 for Y  read from file:
     /u/if/mamunm/psp/gbrv1.5pbe/Y.UPF
     MD5 check sum: d034151ed7554c50b6e82763ed42c788
     Pseudo is Ultrasoft + core correction, Zval = 11.0
     Generated by new atomic code, or converted to UPF format
     Using radial grid of  885 points,  6 beta functions with:
                l(1) =   0
                l(2) =   0
                l(3) =   1
                l(4) =   1
                l(5) =   2
                l(6) =   2
     Q(r) pseudized with  8 coefficients,  rinner =    1.200   1.200   1.200
                                                       1.200   1.200

     PseudoPot. # 2 for N  read from file:
     /u/if/mamunm/psp/gbrv1.5pbe/N.UPF
     MD5 check sum: 95339753478d7afb44899504a8723017
     Pseudo is Ultrasoft + core correction, Zval =  5.0
     Generated by new atomic code, or converted to UPF format
     Using radial grid of  729 points,  4 beta functions with:
                l(1) =   0
                l(2) =   0
                l(3) =   1
                l(4) =   1
     Q(r) pseudized with  8 coefficients,  rinner =    0.900   0.900   0.900

     PseudoPot. # 3 for H  read from file:
     /u/if/mamunm/psp/gbrv1.5pbe/H.UPF
     MD5 check sum: 761ae9a214b05c3daf00ab9f6b793d6f
     Pseudo is Ultrasoft, Zval =  1.0
     Generated by new atomic code, or converted to UPF format
     Using radial grid of  615 points,  2 beta functions with:
                l(1) =   0
                l(2) =   0
     Q(r) pseudized with  8 coefficients,  rinner =    0.700

     vdW kernel table read from file vdW_kernel_table
     MD5 check sum: 095c7af220d748ca6e76c0b4c6cfb241

     atomic species   valence    mass     pseudopotential
        Y1            11.00    88.90584     Y ( 1.00)
        N1             5.00    14.00700     N ( 1.00)
        H1             1.00     1.00800     H ( 1.00)

     No symmetry found

   Cartesian axes

     site n.     atom                  positions (alat units)
         1           Y1  tau(   1) = (   1.7880693   1.0323423  10.0000000  )
         2           Y1  tau(   2) = (   5.3642080   1.0323423  10.0000000  )
         3           Y1  tau(   3) = (   3.5761386   4.1293692  10.0000000  )
         4           Y1  tau(   4) = (   7.1522773   4.1293692  10.0000000  )
         5           Y1  tau(   5) = (   7.1522773   2.0646846  12.9199050  )
         6           Y1  tau(   6) = (   3.5761386   2.0646846  12.9199050  )
         7           Y1  tau(   7) = (   8.9403466   5.1617115  12.9199050  )
         8           Y1  tau(   8) = (   5.3642080   5.1617115  12.9199050  )
         9           Y1  tau(   9) = (   0.0000000   0.0000000  15.8398100  )
        10           Y1  tau(  10) = (   3.5761386   0.0000000  15.8398100  )
        11           Y1  tau(  11) = (   1.7880693   3.0970269  15.8398100  )
        12           Y1  tau(  12) = (   5.3642080   3.0970269  15.8398100  )
        13           N1  tau(  13) = (   1.7880693   0.0000000  17.7973100  )
        14           H1  tau(  14) = (   1.7880693   0.0000000  18.8473100  )

     number of k points=    20  Fermi-Dirac smearing, width (Ry)=  0.0110
                       cart. coord. in units 2pi/alat
        k(    1) = (   0.0000000   0.0000000   0.0000000), wk =   0.0555556
        k(    2) = (   0.0000000   0.0269075   0.0000000), wk =   0.1111111
        k(    3) = (   0.0000000   0.0538151   0.0000000), wk =   0.1111111
        k(    4) = (   0.0000000  -0.0807226   0.0000000), wk =   0.0555556
        k(    5) = (   0.0233026  -0.0134538   0.0000000), wk =   0.1111111
        k(    6) = (   0.0233026   0.0134538   0.0000000), wk =   0.1111111
        k(    7) = (   0.0233026   0.0403613   0.0000000), wk =   0.1111111
        k(    8) = (   0.0233026  -0.0941763   0.0000000), wk =   0.1111111
        k(    9) = (   0.0233026  -0.0672688   0.0000000), wk =   0.1111111
        k(   10) = (   0.0233026  -0.0403613   0.0000000), wk =   0.1111111
        k(   11) = (   0.0466052  -0.0269075   0.0000000), wk =   0.1111111
        k(   12) = (   0.0466052   0.0000000   0.0000000), wk =   0.1111111
        k(   13) = (   0.0466052   0.0269075   0.0000000), wk =   0.1111111
        k(   14) = (   0.0466052  -0.1076301   0.0000000), wk =   0.1111111
        k(   15) = (   0.0466052  -0.0807226   0.0000000), wk =   0.1111111
        k(   16) = (   0.0466052  -0.0538151   0.0000000), wk =   0.1111111
        k(   17) = (  -0.0699078   0.0403613   0.0000000), wk =   0.0555556
        k(   18) = (  -0.0699078   0.0672688   0.0000000), wk =   0.1111111
        k(   19) = (  -0.0699078   0.0941763   0.0000000), wk =   0.1111111
        k(   20) = (  -0.0699078  -0.0403613   0.0000000), wk =   0.0555556

     Largest allocated arrays     est. size (Mb)     dimensions
     Largest temporary arrays     est. size (Mb)     dimensions

     Initial potential from superposition of free atoms
     Check: negative starting charge=   -0.000511

     starting charge  137.94635, renormalised to  138.00000

     negative rho (up, down):  5.113E-04 0.000E+00

     *
     * You are using vdW-DF for exchange-correlation in this calculation.
     * Please cite the following three references that made this development
     * possible:
     *
     *   M. Dion, H. Rydberg, E. Schroder, D. C. Langreth, and
     *   B. I. Lundqvist, Phys. Rev. Lett. 92, 246401 (2004).
     *
     *   T. Thonhauser, V. R. Cooper, S. Li, A. Puzder, P. Hyldgaard, and
     *   D. C. Langreth, Phys. Rev. B 76, 125112 (2007).
     *
     *   G. Roman-Perez and J. M. Soler, Phys. Rev. Lett. 103, 096102 (2009).
     *
     *
     * If you are using vdW-DF2, please also cite:
     *
     *   K. Lee, E. D. Murray, L. Kong, B. I. Lundqvist, and
     *   D. C. Langreth, Phys. Rev. B 82, 081101(R) (2010).
     *
     *
     * If you are calculating the stress with vdW-DF, please also cite:
     *
     *   R. Sabatini, E. Kucukbenli, B. Kolb, T. Thonhauser, and
     *   S. de Gironcoli, J. Phys.: Condens. Matter 24, 424209 (2012).
     *

     Carrying out vdW-DF run using the following parameters:

     Nqs =      20    Nr_points =    1024   r_max =   100.000
     q_mesh =
               0.00001000     0.04494208     0.09755937     0.15916263
               0.23128650     0.31572767     0.41458969     0.53033537
               0.66584808     0.82450364     1.01025438     1.22772762
               1.48234092     1.78043706     2.12944203     2.53805004
               3.01644009     3.57652955     4.23227104     5.00000000

     Gradients computed in reciprocal space

     Adding external electric field

     Computed dipole along edir(3) :
        Dipole               -0.0221 Ry au,         -0.0562 Debye
        Dipole field         -0.0000 Ry au

        Potential amp.        0.0034 Ry
        Total length         47.6094 bohr

     Starting wfc are  161 randomized atomic wfcs

     Self-consistent Calculation

     iteration #  1     ecut=    36.75 Ry     beta=0.30
     Davidson diagonalization with overlap
     ethr =  1.00E-02,  avg # of iterations =  2.0

[...]

     total energy              =   -1143.83983398 Ry
     Harris-Foulkes estimate   =   -1146.44877895 Ry
     estimated scf accuracy    <       5.68285118 Ry

[...]

     End of self-consistent calculation

          k = 0.0000 0.0000 0.0000 ( 28997 PWs)   bands (ev):

   -42.5768 -42.5416 -42.4708 -42.4304 -42.4275 -42.4257 -42.2775 -42.2576
   -41.9203 -41.8826 -41.8786 -41.8687 -22.6313 -22.6216 -22.5909 -22.5764
   -22.5743 -22.5726 -22.5695 -22.5352 -22.5010 -22.4338 -22.4305 -22.4294
   -22.3055 -22.2886 -22.2529 -22.2512 -22.2499 -22.2278 -22.1862 -22.1524
   -22.1520 -22.1462 -22.1005 -22.0440 -22.0369 -22.0289 -21.9833 -21.8257
   -21.8081 -21.8030 -21.7894 -21.7439 -21.7362 -21.7343 -21.6417 -21.6401
   -12.6389  -3.8476  -3.2787  -2.3310  -1.3754  -0.8594  -0.8283  -0.7277
    -0.6360  -0.6354  -0.5970  -0.4896  -0.4538  -0.2283   0.0077   0.0575
     0.1884   0.2337   0.2823   0.6201   0.7086   0.8191   1.0624   1.4676
     1.5180   1.5531   1.5826   1.6005   1.7266   2.0059   2.0555

[...]

          k =-0.0699 0.0404 0.0000 ( 29048 PWs)   bands (ev):

[...]

     the Fermi energy is     0.8748 ev

!    total energy              =   -1145.83484061 Ry
     Harris-Foulkes estimate   =   -1145.83482594 Ry
     estimated scf accuracy    <       0.00000373 Ry

     The total energy is the sum of the following terms:

     one-electron contribution =   -5521.12984983 Ry
     hartree contribution      =    2754.58925043 Ry
     xc contribution           =    -345.01395422 Ry
     ewald contribution        =    1965.84302388 Ry
     electric field correction =       0.00009896 Ry
     smearing contrib. (-TS)   =      -0.12340982 Ry

     convergence has been achieved in  16 iterations

 BEEF-vdW xc energy contributions
           1 :   -300.784102915478
           2 :    269.947777671593
           3 :   -216.946408911520
           4 :    154.884071202632
           5 :   -95.8707125722286
           6 :    47.4484355908576
           7 :   -12.1138148864462
           8 :   -10.8706819244356
           9 :    23.2081190639610
          10 :   -26.3338056219015
          11 :    21.5518015961215
          12 :   -10.8657285202430
          13 :   -2.52153879327852
          14 :    14.6628419017796
          15 :   -22.1157679615073
          16 :    23.2002191673005
          17 :   -18.4676895087429
          18 :    10.1312632087582
          19 :  -0.895110503584647
          20 :   -7.07559106352022
          21 :    12.5597897874210
          22 :   -15.1160647906361
          23 :    14.7511930739024
          24 :   -11.7755320606765
          25 :    6.88128987641056
          26 :   -1.21445676247635
          27 :   -3.80439264387695
          28 :    6.93250246594835
          29 :   -7.59611093576069
          30 :    6.09987838440935
          31 :   -28.9084049440935
          32 :   -19.7509158245826

     Forces acting on atoms (Ry/au):

     negative rho (up, down):  5.278E-04 0.000E+00
     atom    1 type  1   force =     0.00001600   -0.00025109    0.00419985
     atom    2 type  1   force =    -0.00001785   -0.00057260    0.00443751
     atom    3 type  1   force =    -0.00016261    0.00032156    0.00514027
     atom    4 type  1   force =     0.00016241    0.00033640    0.00513094
     atom    5 type  1   force =    -0.00002428    0.00295524    0.00274863
     atom    6 type  1   force =     0.00002802    0.00296824    0.00272793
     atom    7 type  1   force =     0.00001121   -0.00304902   -0.00457267
     atom    8 type  1   force =    -0.00001814   -0.00341157   -0.00500863
     atom    9 type  1   force =     0.05281642    0.00169757    0.06130136
     atom   10 type  1   force =    -0.05281486    0.00169867    0.06130014
     atom   11 type  1   force =     0.00000084   -0.01664205    0.00088842
     atom   12 type  1   force =     0.00000178    0.01509351    0.00082665
     atom   13 type  2   force =    -0.00000034   -0.00190857   -0.09918215
     atom   14 type  3   force =     0.00000140    0.00076370   -0.03993825

     Total force =     0.158250     Total SCF correction =     0.004011

     entering subroutine stress ...

     negative rho (up, down):  5.278E-04 0.000E+00
          total   stress  (Ry/bohr**3)                   (kbar)     P=   -8.12
  -0.00004276   0.00000000  -0.00000000         -6.29      0.00     -0.00
   0.00000000  -0.00001993   0.00000025          0.00     -2.93      0.04
  -0.00000000   0.00000025  -0.00010299         -0.00      0.04    -15.15

     BFGS Geometry Optimization

     number of scf cycles    =   1
     number of bfgs steps    =   0

     energy   new            =   -1145.8348406086 Ry

     new trust radius        =       0.0992005106 bohr
     new conv_thr            =       0.0000099958 Ry

ATOMIC_POSITIONS (crystal)
Y1       0.166666667   0.166666667   0.386999750    0   0   0
Y1       0.666666667   0.166666667   0.386999750    0   0   0
Y1       0.166666667   0.666666667   0.386999750    0   0   0
Y1       0.666666667   0.666666667   0.386999750    0   0   0
Y1       0.833333333   0.333333333   0.500000000    0   0   0
Y1       0.333333333   0.333333333   0.500000000    0   0   0
Y1       0.833333333   0.833333333   0.500000000    0   0   0
Y1       0.333333333   0.833333333   0.500000000    0   0   0
Y1       0.003835226   0.000145029   0.614255649
Y1       0.496019813   0.000145123   0.614255624
Y1       0.000710953   0.498578219   0.613018444
Y1       0.499355389   0.501289485   0.613017179
N1       0.250081502  -0.000163055   0.686724285
H1       0.249967481   0.000065245   0.728572523

     Writing output data file calc.save
     Check: negative starting charge=   -0.000511
     NEW-OLD atomic charge density approx. for the potential
     Check: negative starting charge=   -0.000513

[...]

     energy   old            =   -1145.8348406086 Ry
     energy   new            =   -1145.8579227409 Ry

     CASE: energy  _new < energy  _old

     WARNING: bfgs curvature condition failed, Theta= 0.950
     new trust radius        =       0.1488007659 bohr
     new conv_thr            =       0.0000001000 Ry

[...]

     iteration #  1     ecut=    36.75 Ry     beta=0.30
     Davidson diagonalization with overlap
     c_bands:  1 eigenvalues not converged
     c_bands:  1 eigenvalues not converged
     ethr =  1.00E-06,  avg # of iterations = 14.4

[...]

     iteration #  1     ecut=    36.75 Ry     beta=0.30
     Davidson diagonalization with overlap
     c_bands:  1 eigenvalues not converged
     ethr =  1.00E-06,  avg # of iterations = 13.2

[...]

     Total force =     0.004973     Total SCF correction =     0.000594
     SCF correction compared to forces is large: reduce conv_thr to get better values

[...]

     Threshold (ethr) on eigenvalues was too large:
     Diagonalizing with lowered threshold

     Davidson diagonalization with overlap
     ethr =  4.21E-08,  avg # of iterations =  4.5

[...]

     Total force =     0.003741     Total SCF correction =     0.000341

[...]

     number of scf cycles    =  24
     number of bfgs steps    =  23

     energy   old            =   -1145.9564396497 Ry
     energy   new            =   -1145.9564580339 Ry

     CASE: energy  _new < energy  _old

     new trust radius        =       0.0116905051 bohr
     new conv_thr            =       0.0000001000 Ry

ATOMIC_POSITIONS (crystal)
Y1       0.166666667   0.166666667   0.386999750    0   0   0
Y1       0.666666667   0.166666667   0.386999750    0   0   0
Y1       0.166666667   0.666666667   0.386999750    0   0   0
Y1       0.666666667   0.666666667   0.386999750    0   0   0
Y1       0.833333333   0.333333333   0.500000000    0   0   0
Y1       0.333333333   0.333333333   0.500000000    0   0   0
Y1       0.833333333   0.833333333   0.500000000    0   0   0
Y1       0.333333333   0.833333333   0.500000000    0   0   0
Y1      -0.001109416   0.001539213   0.614339799
Y1       0.499570852   0.001540238   0.614339577
Y1       0.011516288   0.476969083   0.611930833
Y1       0.489901395   0.520196713   0.611659117
N1       0.248656610   0.002686847   0.662451977
H1       0.248884592   0.002231968   0.702239221

     Writing output data file calc.save
     Check: negative starting charge=   -0.000559
     NEW-OLD atomic charge density approx. for the potential
     Check: negative starting charge=   -0.000559

[...]

     Self-consistent Calculation

[...]

     Threshold (ethr) on eigenvalues was too large:
     Diagonalizing with lowered threshold

     Davidson diagonalization with overlap
     ethr =  2.31E-08,  avg # of iterations =  8.4

[...]

     total energy              =   -1145.95646949 Ry
     Harris-Foulkes estimate   =   -1145.95646951 Ry
     estimated scf accuracy    <       0.00000028 Ry

     iteration # 10     ecut=    36.75 Ry     beta=0.30
     Davidson diagonalization with overlap
     ethr =  8.20E-11,  avg # of iterations =  4.0

[...]

     negative rho (up, down):  4.845E-04 0.000E+00

     Adding external electric field

     Computed dipole along edir(3) :
        Dipole                0.1261 Ry au,          0.3205 Debye
        Dipole field          0.0002 Ry au

        Potential amp.       -0.0195 Ry
        Total length         47.6094 bohr

     End of self-consistent calculation

[...]

          k = 0.0466-0.0538 0.0000 ( 29098 PWs)   bands (ev):

[...]

          k =-0.0699-0.0404 0.0000 ( 29048 PWs)   bands (ev):

   -42.2596 -42.2194 -42.1528 -42.1504 -42.1278 -42.1270 -41.7271 -41.7255
   -41.6417 -41.5774 -41.5705 -41.5512 -22.2920 -22.2471 -22.2186 -22.2015
   -22.1962 -22.1829 -22.1692 -22.1672 -22.1414 -22.1278 -22.1267 -22.1122
   -22.0709 -22.0684 -22.0368 -22.0350 -21.9037 -21.9021 -21.8106 -21.7913
   -21.7882 -21.7177 -21.6814 -21.6687 -21.6513 -21.6345 -21.5778 -21.5397
   -21.5235 -21.5119 -21.4945 -21.4870 -21.4866 -21.4631 -21.4004 -21.3691
   -13.6606  -4.7716  -2.2332  -1.8708  -1.8518  -1.5971  -0.9440  -0.7974
    -0.2122  -0.1499  -0.0081   0.0446   0.2401   0.2955   0.8889   0.9038
     0.9272   1.0018   1.0325   1.0465   1.1737   1.2002   1.2658   1.2870
     1.3372   1.3999   1.5643   1.5869   1.6478   1.6884   1.7280

     the Fermi energy is     1.1728 ev

!    total energy              =   -1145.95646947 Ry
     Harris-Foulkes estimate   =   -1145.95646964 Ry
     estimated scf accuracy    <       0.00000004 Ry

     The total energy is the sum of the following terms:

     one-electron contribution =   -5623.97280012 Ry
     hartree contribution      =    2807.19776657 Ry
     xc contribution           =    -345.32903952 Ry
     ewald contribution        =    2016.27403141 Ry
     electric field correction =       0.00002586 Ry
     smearing contrib. (-TS)   =      -0.12645367 Ry

     convergence has been achieved in  10 iterations

 BEEF-vdW xc energy contributions
           1 :   -301.101540135100
           2 :    270.353712175914
           3 :   -217.427941069878
           4 :    155.337049558848
           5 :   -96.1794842439980
           6 :    47.5529096506123
           7 :   -12.0288101260113
           8 :   -11.0767098486168
           9 :    23.4463047860804
          10 :   -26.5244199933875
          11 :    21.6485805130688
          12 :   -10.8695464183624
          13 :   -2.56920623109426
          14 :    14.7062228781000
          15 :   -22.1176815771759
          16 :    23.1621604939426
          17 :   -18.4237350563872
          18 :    10.1206074014806
          19 :  -0.933371761758679
          20 :   -7.00656811419805
          21 :    12.4969139767742
          22 :   -15.0871386990802
          23 :    14.7567478826243
          24 :   -11.7938369353207
          25 :    6.88991580102510
          26 :   -1.20884852497630
          27 :   -3.81017145028233
          28 :    6.92024012582527
          29 :   -7.55836896959414
          30 :    6.04350812210453
          31 :   -28.9295596426162
          32 :   -19.7903374055899

     Forces acting on atoms (Ry/au):

     negative rho (up, down):  4.845E-04 0.000E+00
     atom    1 type  1   force =     0.00000004   -0.00068119    0.00399806
     atom    2 type  1   force =     0.00000010   -0.00124282    0.00548778
     atom    3 type  1   force =    -0.00082212    0.00084881    0.00612289
     atom    4 type  1   force =     0.00082215    0.00084876    0.00612312
     atom    5 type  1   force =    -0.00115330    0.00340126   -0.00085043
     atom    6 type  1   force =     0.00115351    0.00340127   -0.00085070
     atom    7 type  1   force =     0.00000011   -0.00759594   -0.00785845
     atom    8 type  1   force =     0.00000006    0.00076727   -0.01226717
     atom    9 type  1   force =    -0.00016373   -0.00090945   -0.00007108
     atom   10 type  1   force =     0.00016063   -0.00091060   -0.00006949
     atom   11 type  1   force =    -0.00000049   -0.00050075    0.00022552
     atom   12 type  1   force =     0.00000076    0.00039148   -0.00040822
     atom   13 type  2   force =     0.00000205    0.00153599    0.00041167
     atom   14 type  3   force =     0.00000022    0.00064590    0.00000650

     Total force =     0.002299     Total SCF correction =     0.000580
     SCF correction compared to forces is large: reduce conv_thr to get better values

     entering subroutine stress ...

     negative rho (up, down):  4.845E-04 0.000E+00
          total   stress  (Ry/bohr**3)                   (kbar)     P=   -1.53
   0.00000324  -0.00000000   0.00000000          0.48     -0.00      0.00
  -0.00000000  -0.00001664   0.00000116         -0.00     -2.45      0.17
   0.00000000   0.00000116  -0.00001772          0.00      0.17     -2.61

     bfgs converged in  25 scf cycles and  24 bfgs steps
     (criteria: energy <  1.0E+00, force <  1.9E-03)

     End of BFGS Geometry Optimization

     Final energy   =   -1145.9564694667 Ry
Begin final coordinates

ATOMIC_POSITIONS (crystal)
Y1       0.166666667   0.166666667   0.386999750    0   0   0
Y1       0.666666667   0.166666667   0.386999750    0   0   0
Y1       0.166666667   0.666666667   0.386999750    0   0   0
Y1       0.666666667   0.666666667   0.386999750    0   0   0
Y1       0.833333333   0.333333333   0.500000000    0   0   0
Y1       0.333333333   0.333333333   0.500000000    0   0   0
Y1       0.833333333   0.833333333   0.500000000    0   0   0
Y1       0.333333333   0.833333333   0.500000000    0   0   0
Y1      -0.001109416   0.001539213   0.614339799
Y1       0.499570852   0.001540238   0.614339577
Y1       0.011516288   0.476969083   0.611930833
Y1       0.489901395   0.520196713   0.611659117
N1       0.248656610   0.002686847   0.662451977
H1       0.248884592   0.002231968   0.702239221
End final coordinates

     Writing output data file calc.save

     General routines

     Parallel routines

   This run was terminated on:   0:34:14  25Apr2018

   JOB DONE.
Job  /afs/slac/g/suncat/bin/suncat-tsmpirun -x LD_LIBRARY_PATH -wdir /scratch/qe211671_hr9ec pw.x -npool 4 -in pw.inp

TID   HOST_NAME   COMMAND_LINE            STATUS            TERMINATION_TIME
00000 suncat0123 pw.x -npool 4 -i  Done                     04/25/2018 00:34:14
00001 suncat0123 pw.x -npool 4 -i  Done                     04/25/2018 00:34:14
00002 suncat0123 pw.x -npool 4 -i  Done                     04/25/2018 00:34:14
00003 suncat0123 pw.x -npool 4 -i  Done                     04/25/2018 00:34:14
00004 suncat0123 pw.x -npool 4 -i  Done                     04/25/2018 00:34:14
00005 suncat0123 pw.x -npool 4 -i  Done                     04/25/2018 00:34:14
00006 suncat0123 pw.x -npool 4 -i  Done                     04/25/2018 00:34:14
00007 suncat0123 pw.x -npool 4 -i  Done                     04/25/2018 00:34:14
00008 suncat0109 pw.x -npool 4 -i  Done                     04/25/2018 00:34:14
00009 suncat0109 pw.x -npool 4 -i  Done                     04/25/2018 00:34:14
00010 suncat0109 pw.x -npool 4 -i  Done                     04/25/2018 00:34:14
00011 suncat0109 pw.x -npool 4 -i  Done                     04/25/2018 00:34:14
00012 suncat0109 pw.x -npool 4 -i  Done                     04/25/2018 00:34:14
00013 suncat0109 pw.x -npool 4 -i  Done                     04/25/2018 00:34:14
00014 suncat0109 pw.x -npool 4 -i  Done                     04/25/2018 00:34:14
00015 suncat0109 pw.x -npool 4 -i  Done                     04/25/2018 00:34:14
00016 suncat0264 pw.x -npool 4 -i  Done                     04/25/2018 00:34:14
00017 suncat0264 pw.x -npool 4 -i  Done                     04/25/2018 00:34:14
00018 suncat0264 pw.x -npool 4 -i  Done                     04/25/2018 00:34:14
00019 suncat0264 pw.x -npool 4 -i  Done                     04/25/2018 00:34:14
00020 suncat0264 pw.x -npool 4 -i  Done                     04/25/2018 00:34:14
00021 suncat0264 pw.x -npool 4 -i  Done                     04/25/2018 00:34:14
00022 suncat0264 pw.x -npool 4 -i  Done                     04/25/2018 00:34:14
00023 suncat0264 pw.x -npool 4 -i  Done                     04/25/2018 00:34:14
00024 suncat0262 pw.x -npool 4 -i  Done                     04/25/2018 00:34:14
00025 suncat0262 pw.x -npool 4 -i  Done                     04/25/2018 00:34:14
00026 suncat0262 pw.x -npool 4 -i  Done                     04/25/2018 00:34:14
00027 suncat0262 pw.x -npool 4 -i  Done                     04/25/2018 00:34:14
00028 suncat0262 pw.x -npool 4 -i  Done                     04/25/2018 00:34:14
00029 suncat0262 pw.x -npool 4 -i  Done                     04/25/2018 00:34:14
00030 suncat0262 pw.x -npool 4 -i  Done                     04/25/2018 00:34:14
00031 suncat0262 pw.x -npool 4 -i  Done                     04/25/2018 00:34:14