     Program PWSCF v.5.1rc2 (svn rev. ) starts on 17Apr2018 at  8:35:47

     Current dimensions of program PWSCF are:
     Max number of different atomic species (ntypx) = 10
     Max number of k-points (npk) =  40000
     Max angular momentum in pseudopotentials (lmaxx) =  3
     Presently stress not available with electric field

     IMPORTANT: XC functional enforced from input :
     Exchange-correlation      = BEEF-VDW ( 1  4 27 13 2)
     Any further DFT definition will be discarded
     Please, verify this is what you really want

     Subspace diagonalization in iterative solution of the eigenvalue problem:
     a serial algorithm will be used

     bravais-lattice index     =            0
     lattice parameter (alat)  =       1.8897  a.u.
     unit-cell volume          =    3807.2308 (a.u.)^3
     number of atoms/cell      =           14
     number of atomic types    =            3
     number of electrons       =       235.00
     number of Kohn-Sham states=          127
     kinetic-energy cutoff     =      36.7493  Ry
     charge density cutoff     =     367.4932  Ry
     convergence threshold     =      1.0E-05
     mixing beta               =       0.3000
     number of iterations used =           10  plain     mixing
     Exchange-correlation      = BEEF-VDW ( 1  4 27 13 2)
     nstep                     =           50

     celldm(1)=   1.889726  celldm(2)=   0.000000  celldm(3)=   0.000000
     celldm(4)=   0.000000  celldm(5)=   0.000000  celldm(6)=   0.000000

     crystal axes: (cart. coord. in units of alat)
               a(1) = (   5.184823   0.000000   0.000000 )
               a(2) = (   2.592411   4.490188   0.000000 )
               a(3) = (   0.000000   0.000000  24.233390 )

     reciprocal axes: (cart. coord. in units 2 pi/alat)
               b(1) = (  0.192871 -0.111354  0.000000 )
               b(2) = (  0.000000  0.222708  0.000000 )
               b(3) = (  0.000000  0.000000  0.041265 )

     PseudoPot. # 1 for Cu read from file:
     /home/mamunm/src/pseudo/gbrv1.5pbe/Cu.UPF
     MD5 check sum: 6e991ff952a84172a2a52a1c1e996048
     Pseudo is Ultrasoft + core correction, Zval = 19.0
     Generated by new atomic code, or converted to UPF format
     Using radial grid of  867 points,  6 beta functions with:
                l(1) =   0
                l(2) =   0
                l(3) =   1
                l(4) =   1
                l(5) =   2
                l(6) =   2
     Q(r) pseudized with  8 coefficients,  rinner =    1.150   1.150   1.150
                                                       1.150   1.150

     PseudoPot. # 2 for S  read from file:
     /home/mamunm/src/pseudo/gbrv1.5pbe/S.UPF
     MD5 check sum: 88d86576ff6df21479756cfb9bdac1df
     Pseudo is Ultrasoft + core correction, Zval =  6.0
     Generated by new atomic code, or converted to UPF format
     Using radial grid of  907 points,  6 beta functions with:
                l(1) =   0
                l(2) =   0
                l(3) =   1
                l(4) =   1
                l(5) =   2
                l(6) =   2
     Q(r) pseudized with  8 coefficients,  rinner =    1.300   1.300   1.300
                                                       1.300   1.300

     PseudoPot. # 3 for H  read from file:
     /home/mamunm/src/pseudo/gbrv1.5pbe/H.UPF
     MD5 check sum: 761ae9a214b05c3daf00ab9f6b793d6f
     Pseudo is Ultrasoft, Zval =  1.0
     Generated by new atomic code, or converted to UPF format
     Using radial grid of  615 points,  2 beta functions with:
                l(1) =   0
                l(2) =   0
     Q(r) pseudized with  8 coefficients,  rinner =    0.700

     vdW kernel table read from file vdW_kernel_table
     MD5 check sum: 095c7af220d748ca6e76c0b4c6cfb241

     atomic species   valence    mass     pseudopotential
        Cu1           19.00    63.54600     Cu( 1.00)
        S1             6.00    32.06000     S ( 1.00)
        H1             1.00     1.00800     H ( 1.00)

     No symmetry found

   Cartesian axes

     site n.     atom                  positions (alat units)
         1           Cu1 tau(   1) = (   1.2962057   0.7483647  10.0000000  )
         2           Cu1 tau(   2) = (   3.8886170   0.7483647  10.0000000  )
         3           Cu1 tau(   3) = (   2.5924113   2.9934587  10.0000000  )
         4           Cu1 tau(   4) = (   5.1848226   2.9934587  10.0000000  )
         5           Cu1 tau(   5) = (   5.1848226   1.4967294  12.1166950  )
         6           Cu1 tau(   6) = (   2.5924113   1.4967294  12.1166950  )
         7           Cu1 tau(   7) = (   6.4810283   3.7418234  12.1166950  )
         8           Cu1 tau(   8) = (   3.8886170   3.7418234  12.1166950  )
         9           Cu1 tau(   9) = (   0.0000000   0.0000000  14.2333899  )
        10           Cu1 tau(  10) = (   2.5924113   0.0000000  14.2333899  )
        11           Cu1 tau(  11) = (   1.2962057   2.2450940  14.2333899  )
        12           Cu1 tau(  12) = (   3.8886170   2.2450940  14.2333899  )
        13           S1  tau(  13) = (   1.2962057   0.7483647  15.7738899  )
        14           H1  tau(  14) = (   1.2962057   0.7483647  17.0238899  )

     number of k points=    20  Fermi-Dirac smearing, width (Ry)=  0.0110
                       cart. coord. in units 2pi/alat
        k(    1) = (   0.0000000   0.0000000   0.0000000), wk =   0.0555556
        k(    2) = (   0.0000000   0.0371180   0.0000000), wk =   0.1111111
        k(    3) = (   0.0000000   0.0742359   0.0000000), wk =   0.1111111
        k(    4) = (   0.0000000  -0.1113539   0.0000000), wk =   0.0555556
        k(    5) = (   0.0321451  -0.0185590   0.0000000), wk =   0.1111111
        k(    6) = (   0.0321451   0.0185590   0.0000000), wk =   0.1111111
        k(    7) = (   0.0321451   0.0556770   0.0000000), wk =   0.1111111
        k(    8) = (   0.0321451  -0.1299129   0.0000000), wk =   0.1111111
        k(    9) = (   0.0321451  -0.0927949   0.0000000), wk =   0.1111111
        k(   10) = (   0.0321451  -0.0556770   0.0000000), wk =   0.1111111
        k(   11) = (   0.0642902  -0.0371180   0.0000000), wk =   0.1111111
        k(   12) = (   0.0642902  -0.0000000   0.0000000), wk =   0.1111111
        k(   13) = (   0.0642902   0.0371180   0.0000000), wk =   0.1111111
        k(   14) = (   0.0642902  -0.1484719   0.0000000), wk =   0.1111111
        k(   15) = (   0.0642902  -0.1113539   0.0000000), wk =   0.1111111
        k(   16) = (   0.0642902  -0.0742359   0.0000000), wk =   0.1111111
        k(   17) = (  -0.0964353   0.0556770   0.0000000), wk =   0.0555556
        k(   18) = (  -0.0964353   0.0927949   0.0000000), wk =   0.1111111
        k(   19) = (  -0.0964353   0.1299129   0.0000000), wk =   0.1111111
        k(   20) = (  -0.0964353  -0.0556770   0.0000000), wk =   0.0555556

     Largest allocated arrays     est. size (Mb)     dimensions
     Largest temporary arrays     est. size (Mb)     dimensions

     Initial potential from superposition of free atoms

     starting charge  222.99993, renormalised to  235.00000

     negative rho (up, down):  1.045E-04 0.000E+00

     *
     * You are using vdW-DF for exchange-correlation in this calculation.
     * Please cite the following three references that made this development
     * possible:
     *
     *   M. Dion, H. Rydberg, E. Schroder, D. C. Langreth, and
     *   B. I. Lundqvist, Phys. Rev. Lett. 92, 246401 (2004).
     *
     *   T. Thonhauser, V. R. Cooper, S. Li, A. Puzder, P. Hyldgaard, and
     *   D. C. Langreth, Phys. Rev. B 76, 125112 (2007).
     *
     *   G. Roman-Perez and J. M. Soler, Phys. Rev. Lett. 103, 096102 (2009).
     *
     *
     * If you are using vdW-DF2, please also cite:
     *
     *   K. Lee, E. D. Murray, L. Kong, B. I. Lundqvist, and
     *   D. C. Langreth, Phys. Rev. B 82, 081101(R) (2010).
     *
     *
     * If you are calculating the stress with vdW-DF, please also cite:
     *
     *   R. Sabatini, E. Kucukbenli, B. Kolb, T. Thonhauser, and
     *   S. de Gironcoli, J. Phys.: Condens. Matter 24, 424209 (2012).
     *

     Carrying out vdW-DF run using the following parameters:

     Nqs =      20    Nr_points =    1024   r_max =   100.000
     q_mesh =
               0.00001000     0.04494208     0.09755937     0.15916263
               0.23128650     0.31572767     0.41458969     0.53033537
               0.66584808     0.82450364     1.01025438     1.22772762
               1.48234092     1.78043706     2.12944203     2.53805004
               3.01644009     3.57652955     4.23227104     5.00000000

     Gradients computed in reciprocal space

     Adding external electric field

     Computed dipole along edir(3) :
        Dipole               -2.7301 Ry au,         -6.9391 Debye
        Dipole field         -0.0090 Ry au

        Potential amp.        0.8047 Ry
        Total length         44.6496 bohr

     Starting wfc are  161 randomized atomic wfcs

     Self-consistent Calculation

     iteration #  1     ecut=    36.75 Ry     beta=0.30
     Davidson diagonalization with overlap
     ethr =  1.00E-02,  avg # of iterations =  8.2

[...]

     total energy              =   -4506.24128214 Ry
     Harris-Foulkes estimate   =   -4881.03208748 Ry
     estimated scf accuracy    <     788.51106314 Ry

[...]

     End of self-consistent calculation

          k = 0.0000 0.0000 0.0000 ( 14321 PWs)   bands (ev):

  -111.6329-111.6273-111.6272-111.4096-111.3370-111.3316-111.3314-111.1197
  -111.0985-111.0930-111.0914-111.0747 -69.1392 -69.0990 -69.0989 -69.0162
   -69.0160 -68.9917 -68.9829 -68.9591 -68.9590 -68.8103 -68.8098 -68.8098
   -68.7752 -68.7344 -68.7334 -68.7334 -68.7280 -68.7278 -68.7072 -68.7046
   -68.7046 -68.5498 -68.5458 -68.5458 -68.5425 -68.5417 -68.4954 -68.4943
   -68.4931 -68.4851 -68.4739 -68.4735 -68.4564 -68.4514 -68.4498 -68.4253
   -14.0450  -7.8989  -6.7085  -4.7870  -4.1800  -4.1800  -3.7116  -3.3354
    -3.3354  -3.3353  -3.1835  -2.9726  -2.9724  -2.9302  -2.9302  -2.8639
    -2.7562  -2.6076  -2.6074  -2.1662  -2.1054  -2.1052  -1.9297  -1.9295
    -1.8991  -1.8166  -1.7727  -1.7727  -1.6607  -1.6607  -1.6238  -1.6139
    -1.5547  -1.5546  -1.4097  -1.4097  -1.2828  -1.2823  -1.2635  -1.0992
    -1.0931  -1.0930  -0.9132  -0.9129  -0.8877  -0.7992  -0.7991  -0.6912
    -0.6912  -0.6870  -0.5328  -0.5323  -0.5222  -0.5105  -0.5105  -0.4655
    -0.4425  -0.4424  -0.3785  -0.3784  -0.3585  -0.2127  -0.2124  -0.1550
    -0.1495  -0.1489   0.1905   1.0520   1.4239   1.4239   1.7950   2.3448
     2.3449   2.6725   2.7783   2.7784   3.0937   4.2884   4.9257

[...]

          k =-0.0964 0.0557 0.0000 ( 14294 PWs)   bands (ev):

[...]

     the Fermi energy is     1.2367 ev

!    total energy              =   -4884.84876897 Ry
     Harris-Foulkes estimate   =   -4884.84872938 Ry
     estimated scf accuracy    <       0.00000633 Ry

     The total energy is the sum of the following terms:

     one-electron contribution =  -37935.53483166 Ry
     hartree contribution      =   18989.18369450 Ry
     xc contribution           =    -489.86100663 Ry
     ewald contribution        =   14551.39122005 Ry
     electric field correction =       0.00036599 Ry
     smearing contrib. (-TS)   =      -0.02821122 Ry

     convergence has been achieved in  29 iterations

 BEEF-vdW xc energy contributions
           1 :   -433.854248858007
           2 :    393.209829663673
           3 :   -324.315562359340
           4 :    246.059090760816
           5 :   -175.692612032337
           6 :    122.698278875704
           7 :   -87.2549912427852
           8 :    63.3037047071330
           9 :   -43.8303097071304
          10 :    25.1200249730048
          11 :   -7.84682752395827
          12 :   -4.94500483800846
          13 :    11.0402991733980
          14 :   -11.1060280501409
          15 :    8.38905758548810
          16 :   -6.59110266740623
          17 :    7.59639678945695
          18 :   -10.6226442038262
          19 :    13.2247677587932
          20 :   -13.2891429289037
          21 :    10.5685782247401
          22 :   -6.75569011753112
          23 :    4.17728431771172
          24 :   -4.13494779575132
          25 :    6.07336304806893
          26 :   -8.09668226588991
          27 :    8.38409841207357
          28 :   -6.46583031686453
          29 :    3.47971466664103
          30 :   -1.28713317443749
          31 :   -34.8694206943819
          32 :   -23.8430154653236

     Forces acting on atoms (Ry/au):

     negative rho (up, down):  9.588E-04 0.000E+00
     atom    1 type  1   force =     0.00004006    0.00000827    0.00392085
     atom    2 type  1   force =    -0.00003199    0.00067782    0.00269712
     atom    3 type  1   force =     0.00060510   -0.00038354    0.00292987
     atom    4 type  1   force =    -0.00058929   -0.00032233    0.00287023
     atom    5 type  1   force =     0.00074267   -0.00040919   -0.00001455
     atom    6 type  1   force =    -0.00079649   -0.00016039    0.00006970
     atom    7 type  1   force =     0.00020015   -0.00013370    0.01418614
     atom    8 type  1   force =    -0.00019396    0.00073539   -0.00003781
     atom    9 type  1   force =    -0.04405246   -0.02552159   -0.02945681
     atom   10 type  1   force =     0.04406463   -0.02543888   -0.02936038
     atom   11 type  1   force =     0.00007689    0.05090736   -0.02942261
     atom   12 type  1   force =    -0.00006835    0.00004047   -0.01858990
     atom   13 type  2   force =     0.00000045    0.00000082   -0.05161921
     atom   14 type  3   force =     0.00000257   -0.00000051    0.13182736

     Total force =     0.175375     Total SCF correction =     0.014783

     entering subroutine stress ...

     negative rho (up, down):  9.588E-04 0.000E+00
          total   stress  (Ry/bohr**3)                   (kbar)     P=   -5.90
  -0.00008009  -0.00000000   0.00000000        -11.78     -0.00      0.00
  -0.00000000  -0.00008009   0.00000002         -0.00    -11.78      0.00
   0.00000000   0.00000002   0.00003991          0.00      0.00      5.87

     BFGS Geometry Optimization

     number of scf cycles    =   1
     number of bfgs steps    =   0

     energy   new            =   -4884.8487689667 Ry

     new trust radius        =       0.1318273623 bohr
     new conv_thr            =       0.0000099958 Ry

ATOMIC_POSITIONS (crystal)
Cu1      0.166666667   0.166666667   0.412653782    0   0   0
Cu1      0.666666667   0.166666667   0.412653782    0   0   0
Cu1      0.166666667   0.666666667   0.412653782    0   0   0
Cu1      0.666666667   0.666666667   0.412653782    0   0   0
Cu1      0.833333333   0.333333333   0.500000000    0   0   0
Cu1      0.333333333   0.333333333   0.500000000    0   0   0
Cu1      0.833333333   0.833333333   0.500000000    0   0   0
Cu1      0.333333333   0.833333333   0.500000000    0   0   0
Cu1     -0.002992231  -0.003007768   0.586702979
Cu1      0.505996367  -0.002998021   0.586705084
Cu1     -0.002991917   0.505999530   0.586703726
Cu1      0.499990640   0.500004769   0.586940276
S1       0.166666664   0.166666763   0.649788340
H1       0.166666959   0.166666607   0.705375930

     Writing output data file calc.save
     NEW-OLD atomic charge density approx. for the potential

[...]

     energy   old            =   -4884.8487689667 Ry
     energy   new            =   -4884.8670775273 Ry

     CASE: energy  _new < energy  _old

[...]

     Writing output data file calc.save
     NEW-OLD atomic charge density approx. for the potential
     Check: negative starting charge=   -0.000100

[...]

     Writing output data file calc.save
     Check: negative starting charge=   -0.000100
     NEW-OLD atomic charge density approx. for the potential
     Check: negative starting charge=   -0.000101

[...]

     Total force =     0.014715     Total SCF correction =     0.001636
     SCF correction compared to forces is large: reduce conv_thr to get better values

[...]

     Writing output data file calc.save
     Check: negative starting charge=   -0.000100
     NEW-OLD atomic charge density approx. for the potential
     Check: negative starting charge=   -0.000100

[...]

     Writing output data file calc.save
     Check: negative starting charge=   -0.000100
     NEW-OLD atomic charge density approx. for the potential

[...]

     CASE: energy  _new > energy  _old

[...]

     Total force =     0.004286     Total SCF correction =     0.000345

[...]

     number of scf cycles    =  15
     number of bfgs steps    =  13

     energy   old            =   -4884.8846126468 Ry
     energy   new            =   -4884.8846141658 Ry

     CASE: energy  _new < energy  _old

     new trust radius        =       0.0075599440 bohr
     new conv_thr            =       0.0000001000 Ry

ATOMIC_POSITIONS (crystal)
Cu1      0.166666667   0.166666667   0.412653782    0   0   0
Cu1      0.666666667   0.166666667   0.412653782    0   0   0
Cu1      0.166666667   0.666666667   0.412653782    0   0   0
Cu1      0.666666667   0.666666667   0.412653782    0   0   0
Cu1      0.833333333   0.333333333   0.500000000    0   0   0
Cu1      0.333333333   0.333333333   0.500000000    0   0   0
Cu1      0.833333333   0.833333333   0.500000000    0   0   0
Cu1      0.333333333   0.833333333   0.500000000    0   0   0
Cu1     -0.005641288  -0.005650255   0.586690752
Cu1      0.511281128  -0.005640526   0.586691204
Cu1     -0.005639984   0.511289121   0.586690911
Cu1      0.499997067   0.500001865   0.582929207
S1       0.166666229   0.166666329   0.657957994
H1       0.166670198   0.166666027   0.714277717

     Writing output data file calc.save
     NEW-OLD atomic charge density approx. for the potential

[...]

     Self-consistent Calculation

[...]

     Threshold (ethr) on eigenvalues was too large:
     Diagonalizing with lowered threshold

     Davidson diagonalization with overlap
     ethr =  5.70E-09,  avg # of iterations =  4.0

[...]

     total energy              =   -4884.88462899 Ry
     Harris-Foulkes estimate   =   -4884.88462872 Ry
     estimated scf accuracy    <       0.00000012 Ry

     iteration #  7     ecut=    36.75 Ry     beta=0.30
     Davidson diagonalization with overlap
     ethr =  5.19E-11,  avg # of iterations =  2.0

[...]

     negative rho (up, down):  9.438E-04 0.000E+00

     Adding external electric field

     Computed dipole along edir(3) :
        Dipole                0.2126 Ry au,          0.5404 Debye
        Dipole field          0.0007 Ry au

        Potential amp.       -0.0627 Ry
        Total length         44.6496 bohr

     End of self-consistent calculation

[...]

          k = 0.0643-0.0742 0.0000 ( 14299 PWs)   bands (ev):

[...]

          k =-0.0964-0.0557 0.0000 ( 14294 PWs)   bands (ev):

  -111.6156-111.5855-111.5823-111.5807-111.5552-111.5533-111.5515-111.3571
  -111.2977-111.2962-111.2940-111.2867 -69.0527 -69.0252 -69.0207 -69.0113
   -69.0025 -69.0025 -68.9911 -68.9876 -68.9809 -68.9758 -68.9654 -68.9606
   -68.9590 -68.9514 -68.9484 -68.9469 -68.9358 -68.9346 -68.9290 -68.9267
   -68.9257 -68.7785 -68.7759 -68.7374 -68.7333 -68.7265 -68.7150 -68.7148
   -68.7110 -68.7065 -68.6903 -68.6860 -68.6558 -68.6543 -68.6523 -68.6406
   -13.0280  -6.6277  -5.6027  -5.2828  -4.1799  -3.6685  -3.4646  -3.3579
    -3.1282  -3.1148  -3.0004  -2.9860  -2.9625  -2.8002  -2.6988  -2.6141
    -2.5974  -2.5504  -2.4802  -2.4616  -2.3111  -2.2841  -2.2643  -2.2204
    -2.2180  -2.1616  -2.0247  -1.9637  -1.9620  -1.9006  -1.8811  -1.7901
    -1.7638  -1.6982  -1.6640  -1.6503  -1.6245  -1.6239  -1.6110  -1.5631
    -1.5550  -1.4512  -1.4353  -1.4301  -1.3758  -1.3470  -1.2911  -1.2292
    -1.2256  -1.1375  -1.1223  -1.0857  -1.0541  -1.0304  -1.0109  -0.9673
    -0.9177  -0.8850  -0.8732  -0.7876  -0.6680  -0.6609  -0.6103  -0.5511
    -0.5397  -0.2823  -0.2680  -0.1065   0.9490   0.9964   1.7438   1.9422
     2.3779   2.3848   4.0933   4.4484   4.5516   5.0137   5.2983

     the Fermi energy is     1.0302 ev

!    total energy              =   -4884.88462899 Ry
     Harris-Foulkes estimate   =   -4884.88462867 Ry
     estimated scf accuracy    <       0.00000003 Ry

     The total energy is the sum of the following terms:

     one-electron contribution =  -37997.56793116 Ry
     hartree contribution      =   19019.33160316 Ry
     xc contribution           =    -489.71602830 Ry
     ewald contribution        =   14583.09703500 Ry
     electric field correction =       0.00014920 Ry
     smearing contrib. (-TS)   =      -0.02945690 Ry

     convergence has been achieved in   7 iterations

 BEEF-vdW xc energy contributions
           1 :   -433.707443791173
           2 :    393.011714909396
           3 :   -324.059080586484
           4 :    245.784361661142
           5 :   -175.455772078489
           6 :    122.536086061975
           7 :   -87.1676906741531
           8 :    63.2638790013258
           9 :   -43.8078888785857
          10 :    25.1045006346325
          11 :   -7.85132439545237
          12 :   -4.89875195962293
          13 :    10.9428311637206
          14 :   -10.9710540613257
          15 :    8.24749353008349
          16 :   -6.47422479065176
          17 :    7.52145767913100
          18 :   -10.5900619744913
          19 :    13.2252632975270
          20 :   -13.3123726617280
          21 :    10.6061813271666
          22 :   -6.79922361784315
          23 :    4.21664951957615
          24 :   -4.16104888534466
          25 :    6.08347729919194
          26 :   -8.09728544618503
          27 :    8.38684437579752
          28 :   -6.47834158547204
          29 :    3.49870990614011
          30 :   -1.30091739893965
          31 :   -34.8591470512175
          32 :   -23.8198697210328

     Forces acting on atoms (Ry/au):

     negative rho (up, down):  9.438E-04 0.000E+00
     atom    1 type  1   force =     0.00000002    0.00000013    0.00345914
     atom    2 type  1   force =     0.00000003    0.00090883    0.00189959
     atom    3 type  1   force =     0.00078707   -0.00045441    0.00190007
     atom    4 type  1   force =    -0.00078698   -0.00045447    0.00189962
     atom    5 type  1   force =     0.00432518   -0.00249711   -0.00468531
     atom    6 type  1   force =    -0.00432458   -0.00249698   -0.00468975
     atom    7 type  1   force =    -0.00000091    0.00000004    0.00553495
     atom    8 type  1   force =     0.00000018    0.00499394   -0.00468987
     atom    9 type  1   force =     0.00027275    0.00017013   -0.00097306
     atom   10 type  1   force =    -0.00026664    0.00015345   -0.00097646
     atom   11 type  1   force =    -0.00001140   -0.00031958   -0.00097377
     atom   12 type  1   force =     0.00000841   -0.00000527    0.00107384
     atom   13 type  2   force =    -0.00000441    0.00000168    0.00083862
     atom   14 type  3   force =     0.00000129   -0.00000039    0.00038239

     Total force =     0.002270     Total SCF correction =     0.000370
     SCF correction compared to forces is large: reduce conv_thr to get better values

     entering subroutine stress ...

     negative rho (up, down):  9.438E-04 0.000E+00
          total   stress  (Ry/bohr**3)                   (kbar)     P=  -15.30
  -0.00010928   0.00000000  -0.00000000        -16.08      0.00     -0.00
   0.00000000  -0.00010928   0.00000000          0.00    -16.08      0.00
  -0.00000000   0.00000000  -0.00009352         -0.00      0.00    -13.76

     bfgs converged in  16 scf cycles and  14 bfgs steps
     (criteria: energy <  1.0E+00, force <  1.9E-03)

     End of BFGS Geometry Optimization

     Final energy   =   -4884.8846289877 Ry
Begin final coordinates

ATOMIC_POSITIONS (crystal)
Cu1      0.166666667   0.166666667   0.412653782    0   0   0
Cu1      0.666666667   0.166666667   0.412653782    0   0   0
Cu1      0.166666667   0.666666667   0.412653782    0   0   0
Cu1      0.666666667   0.666666667   0.412653782    0   0   0
Cu1      0.833333333   0.333333333   0.500000000    0   0   0
Cu1      0.333333333   0.333333333   0.500000000    0   0   0
Cu1      0.833333333   0.833333333   0.500000000    0   0   0
Cu1      0.333333333   0.833333333   0.500000000    0   0   0
Cu1     -0.005641288  -0.005650255   0.586690752
Cu1      0.511281128  -0.005640526   0.586691204
Cu1     -0.005639984   0.511289121   0.586690911
Cu1      0.499997067   0.500001865   0.582929207
S1       0.166666229   0.166666329   0.657957994
H1       0.166670198   0.166666027   0.714277717
End final coordinates

     Writing output data file calc.save

     General routines

     Parallel routines

   This run was terminated on:   9:27:45  17Apr2018

   JOB DONE.