     Program PWSCF v.5.1rc2 (svn rev. 11289) starts on 23Apr2018 at 14:45: 7

     Current dimensions of program PWSCF are:
     Max number of different atomic species (ntypx) = 10
     Max number of k-points (npk) =  40000
     Max angular momentum in pseudopotentials (lmaxx) =  3
     Presently stress not available with electric field

     IMPORTANT: XC functional enforced from input :
     Exchange-correlation      = BEEF-VDW ( 1  4 27 13 2)
     Any further DFT definition will be discarded
     Please, verify this is what you really want

     Subspace diagonalization in iterative solution of the eigenvalue problem:
     a serial algorithm will be used

     bravais-lattice index     =            0
     lattice parameter (alat)  =       1.8897  a.u.
     unit-cell volume          =    4301.6107 (a.u.)^3
     number of atoms/cell      =           16
     number of atomic types    =            3
     number of electrons       =       187.00
     number of Kohn-Sham states=          103
     kinetic-energy cutoff     =      36.7493  Ry
     charge density cutoff     =     367.4932  Ry
     convergence threshold     =      1.0E-05
     mixing beta               =       0.3000
     number of iterations used =           10  plain     mixing
     Exchange-correlation      = BEEF-VDW ( 1  4 27 13 2)
     nstep                     =           50

     celldm(1)=   1.889726  celldm(2)=   0.000000  celldm(3)=   0.000000
     celldm(4)=   0.000000  celldm(5)=   0.000000  celldm(6)=   0.000000

     crystal axes: (cart. coord. in units of alat)
               a(1) = (   5.483647   0.000000   0.000000 )
               a(2) = (   2.741823   4.748977   0.000000 )
               a(3) = (   0.000000   0.000000  24.477379 )

     reciprocal axes: (cart. coord. in units 2 pi/alat)
               b(1) = (  0.182360 -0.105286  0.000000 )
               b(2) = (  0.000000  0.210572  0.000000 )
               b(3) = (  0.000000  0.000000  0.040854 )

     PseudoPot. # 1 for Tc read from file:
     /u/if/mamunm/psp/gbrv1.5pbe/Tc.UPF
     MD5 check sum: 9eb49e5b028550b2339a02317eb7b844
     Pseudo is Ultrasoft + core correction, Zval = 15.0
     Generated by new atomic code, or converted to UPF format
     Using radial grid of  965 points,  6 beta functions with:
                l(1) =   0
                l(2) =   0
                l(3) =   1
                l(4) =   1
                l(5) =   2
                l(6) =   2
     Q(r) pseudized with  8 coefficients,  rinner =    1.300   1.300   1.300
                                                       1.300   1.300

     PseudoPot. # 2 for C  read from file:
     /u/if/mamunm/psp/gbrv1.5pbe/C.UPF
     MD5 check sum: d1aef80898a10debaa0f26306b886e00
     Pseudo is Ultrasoft + core correction, Zval =  4.0
     Generated by new atomic code, or converted to UPF format
     Using radial grid of  721 points,  4 beta functions with:
                l(1) =   0
                l(2) =   0
                l(3) =   1
                l(4) =   1
     Q(r) pseudized with  8 coefficients,  rinner =    1.100   1.100   1.100

     PseudoPot. # 3 for H  read from file:
     /u/if/mamunm/psp/gbrv1.5pbe/H.UPF
     MD5 check sum: 761ae9a214b05c3daf00ab9f6b793d6f
     Pseudo is Ultrasoft, Zval =  1.0
     Generated by new atomic code, or converted to UPF format
     Using radial grid of  615 points,  2 beta functions with:
                l(1) =   0
                l(2) =   0
     Q(r) pseudized with  8 coefficients,  rinner =    0.700

     vdW kernel table read from file vdW_kernel_table
     MD5 check sum: 095c7af220d748ca6e76c0b4c6cfb241

     atomic species   valence    mass     pseudopotential
        Tc1           15.00    97.90721     Tc( 1.00)
        C1             4.00    12.01100     C ( 1.00)
        H1             1.00     1.00800     H ( 1.00)

     No symmetry found

   Cartesian axes

     site n.     atom                  positions (alat units)
         1           Tc1 tau(   1) = (   1.3709117   0.7914962  10.0000000  )
         2           Tc1 tau(   2) = (   4.1127351   0.7914962  10.0000000  )
         3           Tc1 tau(   3) = (   2.7418234   3.1659850  10.0000000  )
         4           Tc1 tau(   4) = (   5.4836469   3.1659850  10.0000000  )
         5           Tc1 tau(   5) = (   5.4836469   1.5829925  12.2386895  )
         6           Tc1 tau(   6) = (   2.7418234   1.5829925  12.2386895  )
         7           Tc1 tau(   7) = (   6.8545586   3.9574812  12.2386895  )
         8           Tc1 tau(   8) = (   4.1127351   3.9574812  12.2386895  )
         9           Tc1 tau(   9) = (   0.0000000   0.0000000  14.4773789  )
        10           Tc1 tau(  10) = (   2.7418234   0.0000000  14.4773789  )
        11           Tc1 tau(  11) = (   1.3709117   2.3744887  14.4773789  )
        12           Tc1 tau(  12) = (   4.1127351   2.3744887  14.4773789  )
        13           C1  tau(  13) = (   1.3709117   0.0000000  16.1498789  )
        14           H1  tau(  14) = (   2.4609117   0.0000000  16.7798789  )
        15           H1  tau(  15) = (   0.9209117   0.8895000  16.7798789  )
        16           H1  tau(  16) = (   3.6627351   3.8594775  16.7798789  )

     number of k points=    20  Fermi-Dirac smearing, width (Ry)=  0.0110
                       cart. coord. in units 2pi/alat
        k(    1) = (   0.0000000   0.0000000   0.0000000), wk =   0.0555556
        k(    2) = (   0.0000000   0.0350953   0.0000000), wk =   0.1111111
        k(    3) = (   0.0000000   0.0701905   0.0000000), wk =   0.1111111
        k(    4) = (   0.0000000  -0.1052858   0.0000000), wk =   0.0555556
        k(    5) = (   0.0303934  -0.0175476   0.0000000), wk =   0.1111111
        k(    6) = (   0.0303934   0.0175476   0.0000000), wk =   0.1111111
        k(    7) = (   0.0303934   0.0526429   0.0000000), wk =   0.1111111
        k(    8) = (   0.0303934  -0.1228335   0.0000000), wk =   0.1111111
        k(    9) = (   0.0303934  -0.0877382   0.0000000), wk =   0.1111111
        k(   10) = (   0.0303934  -0.0526429   0.0000000), wk =   0.1111111
        k(   11) = (   0.0607868  -0.0350953   0.0000000), wk =   0.1111111
        k(   12) = (   0.0607868   0.0000000   0.0000000), wk =   0.1111111
        k(   13) = (   0.0607868   0.0350953   0.0000000), wk =   0.1111111
        k(   14) = (   0.0607868  -0.1403811   0.0000000), wk =   0.1111111
        k(   15) = (   0.0607868  -0.1052858   0.0000000), wk =   0.1111111
        k(   16) = (   0.0607868  -0.0701905   0.0000000), wk =   0.1111111
        k(   17) = (  -0.0911802   0.0526429   0.0000000), wk =   0.0555556
        k(   18) = (  -0.0911802   0.0877382   0.0000000), wk =   0.1111111
        k(   19) = (  -0.0911802   0.1228335   0.0000000), wk =   0.1111111
        k(   20) = (  -0.0911802  -0.0526429   0.0000000), wk =   0.0555556

     Largest allocated arrays     est. size (Mb)     dimensions
     Largest temporary arrays     est. size (Mb)     dimensions

     Check: negative/imaginary core charge=   -0.000022    0.000000

     Initial potential from superposition of free atoms
     Check: negative starting charge=   -1.504785

     starting charge  174.99960, renormalised to  187.00000

     negative rho (up, down):  1.608E+00 0.000E+00

     *
     * You are using vdW-DF for exchange-correlation in this calculation.
     * Please cite the following three references that made this development
     * possible:
     *
     *   M. Dion, H. Rydberg, E. Schroder, D. C. Langreth, and
     *   B. I. Lundqvist, Phys. Rev. Lett. 92, 246401 (2004).
     *
     *   T. Thonhauser, V. R. Cooper, S. Li, A. Puzder, P. Hyldgaard, and
     *   D. C. Langreth, Phys. Rev. B 76, 125112 (2007).
     *
     *   G. Roman-Perez and J. M. Soler, Phys. Rev. Lett. 103, 096102 (2009).
     *
     *
     * If you are using vdW-DF2, please also cite:
     *
     *   K. Lee, E. D. Murray, L. Kong, B. I. Lundqvist, and
     *   D. C. Langreth, Phys. Rev. B 82, 081101(R) (2010).
     *
     *
     * If you are calculating the stress with vdW-DF, please also cite:
     *
     *   R. Sabatini, E. Kucukbenli, B. Kolb, T. Thonhauser, and
     *   S. de Gironcoli, J. Phys.: Condens. Matter 24, 424209 (2012).
     *

     Carrying out vdW-DF run using the following parameters:

     Nqs =      20    Nr_points =    1024   r_max =   100.000
     q_mesh =
               0.00001000     0.04494208     0.09755937     0.15916263
               0.23128650     0.31572767     0.41458969     0.53033537
               0.66584808     0.82450364     1.01025438     1.22772762
               1.48234092     1.78043706     2.12944203     2.53805004
               3.01644009     3.57652955     4.23227104     5.00000000

     Gradients computed in reciprocal space

     Adding external electric field

     Computed dipole along edir(3) :
        Dipole               -3.7922 Ry au,         -9.6388 Debye
        Dipole field         -0.0111 Ry au

        Potential amp.        0.9992 Ry
        Total length         45.0992 bohr

     Starting wfc are  163 randomized atomic wfcs

     Self-consistent Calculation

     iteration #  1     ecut=    36.75 Ry     beta=0.30
     Davidson diagonalization with overlap
     ethr =  1.00E-02,  avg # of iterations =  7.8

[...]

     total energy              =   -1856.10185877 Ry
     Harris-Foulkes estimate   =   -2114.61582425 Ry
     estimated scf accuracy    <     543.09449202 Ry

[...]

     End of self-consistent calculation

          k = 0.0000 0.0000 0.0000 ( 16073 PWs)   bands (ev):

   -64.1836 -64.0405 -64.0299 -64.0122 -63.9955 -63.9202 -63.9040 -63.8469
   -63.8158 -63.8038 -63.7959 -63.7921 -36.6220 -36.6126 -36.6063 -36.5227
   -36.4784 -36.4503 -36.4376 -36.3266 -36.3134 -36.2992 -36.0273 -35.9897
   -35.9649 -35.9497 -35.9171 -35.8913 -35.8875 -35.8849 -35.8736 -35.8511
   -35.7437 -35.7318 -35.7131 -35.6833 -35.6622 -35.6584 -35.6538 -35.6505
   -35.6463 -35.5883 -35.5868 -35.5822 -35.4564 -35.4519 -35.3936 -35.3863
   -10.1206  -3.4888  -3.2363  -2.9819  -2.8011  -2.1163  -2.1052  -2.0561
    -1.9914  -1.8033  -1.6425  -1.5617  -1.5364  -1.4866  -1.4801  -1.2487
    -1.1380  -1.0595  -0.6814   0.0002   0.2114   0.5901   0.8493   0.8930
     1.0825   1.1309   1.3970   1.4151   1.4939   1.7067   1.7597   1.8000
     1.8032   1.8800   1.9612   2.0167   2.3133   2.4193   2.5617   3.0093
     3.3656   3.3790   3.4243   3.4483   3.6104   3.7861   3.7981   3.9832
     4.2112   4.2661   4.2676   4.8117   4.9129   5.0665   5.1052

[...]

          k =-0.0912 0.0526 0.0000 ( 16164 PWs)   bands (ev):

[...]

     the Fermi energy is     3.1047 ev

!    total energy              =   -2118.54153388 Ry
     Harris-Foulkes estimate   =   -2118.54154401 Ry
     estimated scf accuracy    <       0.00000406 Ry

     The total energy is the sum of the following terms:

     one-electron contribution =  -19105.31456157 Ry
     hartree contribution      =    9557.50603099 Ry
     xc contribution           =    -402.93727338 Ry
     ewald contribution        =    7832.29739754 Ry
     electric field correction =       0.00031747 Ry
     smearing contrib. (-TS)   =      -0.09344493 Ry

[...]
           7 :   -46.7325034063276
           8 :    14.8496033423668
           9 :    7.02889917875382
          10 :   -22.2480812171507
          11 :    33.4146030745689
          12 :   -41.5296049995067
          13 :    46.0712423433177
          14 :   -45.8216756852035
          15 :    39.9256533592164
          16 :   -28.7076790904129
          17 :    13.9017384434244
          18 :    1.74468831472592
          19 :   -15.2981481561538
          20 :    24.5122158206885
          21 :   -28.4028030309013
          22 :    27.3173523029042
          23 :   -22.5413975195079
          24 :    15.6648934629712
          25 :   -8.02127677046064
          26 :   0.417864870060555
          27 :    6.78708747820770
          28 :   -13.3898997290003
          29 :    19.0405149247131
          30 :   -23.1222765843663
          31 :   -33.7727993213442
          32 :   -24.7833793625736

     Forces acting on atoms (Ry/au):

     negative rho (up, down):  1.589E+00 0.000E+00
     atom    1 type  1   force =    -0.00034071    0.00137339    0.02596280
     atom    2 type  1   force =     0.00024943   -0.00270606    0.02691072
     atom    3 type  1   force =    -0.00232182    0.00140209    0.02792452
     atom    4 type  1   force =     0.00333007    0.00121245    0.02880440
     atom    5 type  1   force =     0.00048259    0.00088471    0.00637625
     atom    6 type  1   force =     0.00008067    0.00296791    0.00501742
     atom    7 type  1   force =     0.00047658   -0.01340234   -0.02630934
     atom    8 type  1   force =    -0.00166966   -0.00299912    0.00754171
     atom    9 type  1   force =    -0.02188599    0.01094795   -0.03615415
     atom   10 type  1   force =     0.02582582    0.00873958   -0.02674219
     atom   11 type  1   force =    -0.00149644    0.00420536   -0.04230369
     atom   12 type  1   force =     0.00185051   -0.01436479   -0.04256083
     atom   13 type  2   force =     0.02142693   -0.00005065    0.20715183
     atom   14 type  3   force =    -0.06600530    0.00045033   -0.07443884
     atom   15 type  3   force =     0.02047219   -0.03610237   -0.04329100
     atom   16 type  3   force =     0.01952514    0.03744155   -0.04388961

     Total force =     0.260327     Total SCF correction =     0.007625

     entering subroutine stress ...

     negative rho (up, down):  1.589E+00 0.000E+00
          total   stress  (Ry/bohr**3)                   (kbar)     P=  -35.59
  -0.00023080  -0.00000009  -0.00001171        -33.95     -0.01     -1.72
  -0.00000009  -0.00025183   0.00001163         -0.01    -37.04      1.71
  -0.00001171   0.00001163  -0.00024327         -1.72      1.71    -35.79

     BFGS Geometry Optimization

     number of scf cycles    =   1
     number of bfgs steps    =   0

     energy   new            =   -2118.5415338800 Ry

     new trust radius        =       0.2082570452 bohr
     new conv_thr            =       0.0000099958 Ry

ATOMIC_POSITIONS (crystal)
Tc1      0.166666667   0.166666667   0.408540475    0   0   0
Tc1      0.666666667   0.166666667   0.408540475    0   0   0
Tc1      0.166666667   0.666666667   0.408540475    0   0   0
Tc1      0.666666667   0.666666667   0.408540475    0   0   0
Tc1      0.833333333   0.333333333   0.500000000    0   0   0
Tc1      0.333333333   0.333333333   0.500000000    0   0   0
Tc1      0.833333333   0.833333333   0.500000000    0   0   0
Tc1      0.333333333   0.833333333   0.500000000    0   0   0
Tc1     -0.002721983   0.001219927   0.590677908
Tc1      0.502005292   0.000973849   0.590881385
Tc1     -0.000378710   0.500468603   0.590544961
Tc1      0.500978908   0.498399335   0.590539401
C1       0.252070541  -0.000005644   0.664266341
H1       0.442378164   0.000050180   0.683916674
H1       0.078273109   0.183280601   0.684590060
H1       0.261387706   0.816868623   0.684577119

     Writing output data file calc.save
     Check: negative starting charge=   -1.504785
     NEW-OLD atomic charge density approx. for the potential

     Check: negative/imaginary core charge=   -0.000022    0.000000
     Check: negative starting charge=   -1.509721

[...]

     energy   old            =   -2118.5415338800 Ry
     energy   new            =   -2118.5868720138 Ry

     CASE: energy  _new < energy  _old

[...]

     iteration #  1     ecut=    36.75 Ry     beta=0.30
     Davidson diagonalization with overlap
     c_bands:  1 eigenvalues not converged
     c_bands:  2 eigenvalues not converged
     c_bands:  1 eigenvalues not converged
     ethr =  1.00E-06,  avg # of iterations = 14.8

[...]

     iteration #  1     ecut=    36.75 Ry     beta=0.30
     Davidson diagonalization with overlap
     c_bands:  1 eigenvalues not converged
     ethr =  1.00E-06,  avg # of iterations =  8.8

[...]

     Total force =     0.008940     Total SCF correction =     0.000515

[...]

     Total force =     0.007230     Total SCF correction =     0.001105
     SCF correction compared to forces is large: reduce conv_thr to get better values

[...]

     Threshold (ethr) on eigenvalues was too large:
     Diagonalizing with lowered threshold

     Davidson diagonalization with overlap
     ethr =  7.19E-08,  avg # of iterations =  3.5

[...]

     number of scf cycles    =  19
     number of bfgs steps    =  18

     energy   old            =   -2118.6079865256 Ry
     energy   new            =   -2118.6080380699 Ry

     CASE: energy  _new < energy  _old

     new trust radius        =       0.0082233222 bohr
     new conv_thr            =       0.0000001000 Ry

ATOMIC_POSITIONS (crystal)
Tc1      0.166666667   0.166666667   0.408540475    0   0   0
Tc1      0.666666667   0.166666667   0.408540475    0   0   0
Tc1      0.166666667   0.666666667   0.408540475    0   0   0
Tc1      0.666666667   0.666666667   0.408540475    0   0   0
Tc1      0.833333333   0.333333333   0.500000000    0   0   0
Tc1      0.333333333   0.333333333   0.500000000    0   0   0
Tc1      0.833333333   0.833333333   0.500000000    0   0   0
Tc1      0.333333333   0.833333333   0.500000000    0   0   0
Tc1      0.002384067   0.008010214   0.591554097
Tc1      0.493609070   0.001640784   0.588968365
Tc1     -0.002962040   0.514004284   0.585431575
Tc1      0.508670689   0.490116800   0.585205059
C1       0.229256348   0.009141666   0.668289544
H1       0.433791738   0.004926394   0.674839668
H1       0.074705607   0.194849887   0.690917718
H1       0.256755412   0.819904168   0.689073637

     Writing output data file calc.save
     Check: negative starting charge=   -1.500715
     NEW-OLD atomic charge density approx. for the potential

     Check: negative/imaginary core charge=   -0.000022    0.000000
     Check: negative starting charge=   -1.501016

[...]

     Self-consistent Calculation

[...]

     Threshold (ethr) on eigenvalues was too large:
     Diagonalizing with lowered threshold

     Davidson diagonalization with overlap
     ethr =  3.19E-08,  avg # of iterations =  3.1

[...]

     total energy              =   -2118.60806321 Ry
     Harris-Foulkes estimate   =   -2118.60806323 Ry
     estimated scf accuracy    <       0.00000022 Ry

     iteration # 12     ecut=    36.75 Ry     beta=0.30
     Davidson diagonalization with overlap
     ethr =  6.24E-11,  avg # of iterations =  1.0

[...]

     negative rho (up, down):  1.585E+00 0.000E+00

     Adding external electric field

     Computed dipole along edir(3) :
        Dipole                0.2501 Ry au,          0.6356 Debye
        Dipole field          0.0007 Ry au

        Potential amp.       -0.0659 Ry
        Total length         45.0992 bohr

     End of self-consistent calculation

[...]

          k = 0.0608-0.0702 0.0000 ( 16203 PWs)   bands (ev):

[...]

          k =-0.0912-0.0526 0.0000 ( 16164 PWs)   bands (ev):

   -64.2692 -64.2605 -64.1850 -64.1705 -64.0629 -64.0466 -64.0192 -64.0147
   -63.9691 -63.9590 -63.9537 -63.9499 -36.6548 -36.6505 -36.5825 -36.5698
   -36.5284 -36.5155 -36.3903 -36.3854 -36.3257 -36.3059 -36.2880 -36.2828
   -36.1268 -36.0529 -36.0407 -36.0307 -36.0214 -36.0169 -36.0033 -35.9834
   -35.9703 -35.9592 -35.9433 -35.9391 -35.9311 -35.9255 -35.9091 -35.8883
   -35.8164 -35.7990 -35.7405 -35.7360 -35.6792 -35.6752 -35.6412 -35.6381
   -10.1853  -3.5663  -3.2591  -2.0415  -1.9827  -1.4909  -1.3909  -1.3501
    -1.3309  -1.2027  -1.0574  -1.0315  -0.8209  -0.7537  -0.6330  -0.5883
    -0.4153  -0.3419  -0.3049  -0.2483   0.1489   0.1594   0.3357   0.4387
     0.4901   0.6171   0.9893   1.0406   1.2330   1.3016   1.3516   1.3847
     1.5148   1.5913   1.6533   1.6847   1.7052   1.7625   1.8184   1.8536
     1.9143   1.9693   2.1213   2.5361   2.7532   2.7760   2.8888   2.9874
     3.0206   3.3635   3.3787   3.4716   3.5091   3.5784   3.6649

     the Fermi energy is     2.9615 ev

!    total energy              =   -2118.60806313 Ry
     Harris-Foulkes estimate   =   -2118.60806352 Ry
     estimated scf accuracy    <       0.00000009 Ry

     The total energy is the sum of the following terms:

     one-electron contribution =  -19281.19759960 Ry
     hartree contribution      =    9644.72697599 Ry
     xc contribution           =    -403.24009462 Ry
     ewald contribution        =    7921.19337263 Ry
     electric field correction =       0.00018267 Ry
     smearing contrib. (-TS)   =      -0.09090019 Ry

     convergence has been achieved in  12 iterations

 BEEF-vdW xc energy contributions
           1 :   -353.117450560084
           2 :    324.546543598217
           3 :   -273.834933779125
           4 :    211.225381704607
           5 :   -147.526437756582
           6 :    91.2042890736143
           7 :   -46.7938730746583
           8 :    14.7861032002430
           9 :    7.14568689461981
          10 :   -22.3161411988957
          11 :    33.3504705668996
          12 :   -41.3100004188479
          13 :    45.7479140562717
          14 :   -45.4998780467293
          15 :    39.7172762372221
          16 :   -28.6816633084521
          17 :    14.0525415621954
          18 :    1.49561647225721
          19 :   -15.0672755085970
          20 :    24.4017477940233
          21 :   -28.4538615094422
          22 :    27.4896075350129
          23 :   -22.7310061838806
          24 :    15.7545236565357
          25 :   -7.93892381432596
          26 :   0.175353110258527
          27 :    7.09707616334089
          28 :   -13.6373257292186
          29 :    19.1197959633124
          30 :   -23.0026063514525
          31 :   -33.7900998123447
          32 :   -24.7997139697100

     Forces acting on atoms (Ry/au):

     negative rho (up, down):  1.585E+00 0.000E+00
     atom    1 type  1   force =     0.00019873    0.00021885    0.01853454
     atom    2 type  1   force =     0.00084057    0.00080548    0.01961233
     atom    3 type  1   force =    -0.00244043    0.00197513    0.01766162
     atom    4 type  1   force =     0.00396415    0.00205969    0.02019351
     atom    5 type  1   force =     0.00373391   -0.00322522   -0.01522425
     atom    6 type  1   force =     0.00003998   -0.00294854   -0.01724367
     atom    7 type  1   force =    -0.00308709   -0.00622543   -0.04016428
     atom    8 type  1   force =    -0.00271693    0.00376122   -0.00261198
     atom    9 type  1   force =    -0.00064806   -0.00044843   -0.00055090
     atom   10 type  1   force =     0.00120384   -0.00049466   -0.00037749
     atom   11 type  1   force =    -0.00039077    0.00127138    0.00040386
     atom   12 type  1   force =    -0.00065779   -0.00027185   -0.00037012
     atom   13 type  2   force =    -0.00000242    0.00079658    0.00023365
     atom   14 type  3   force =     0.00024778    0.00011897    0.00032198
     atom   15 type  3   force =     0.00018153    0.00182801   -0.00049893
     atom   16 type  3   force =    -0.00046701    0.00077881    0.00008013

     Total force =     0.003265     Total SCF correction =     0.000359
     SCF correction compared to forces is large: reduce conv_thr to get better values

     entering subroutine stress ...

     negative rho (up, down):  1.585E+00 0.000E+00
          total   stress  (Ry/bohr**3)                   (kbar)     P=  -21.51
  -0.00017308   0.00000341  -0.00000327        -25.46      0.50     -0.48
   0.00000341  -0.00017430   0.00000200          0.50    -25.64      0.29
  -0.00000327   0.00000200  -0.00009137         -0.48      0.29    -13.44

     bfgs converged in  20 scf cycles and  19 bfgs steps
     (criteria: energy <  1.0E+00, force <  1.9E-03)

     End of BFGS Geometry Optimization

     Final energy   =   -2118.6080631321 Ry
Begin final coordinates

ATOMIC_POSITIONS (crystal)
Tc1      0.166666667   0.166666667   0.408540475    0   0   0
Tc1      0.666666667   0.166666667   0.408540475    0   0   0
Tc1      0.166666667   0.666666667   0.408540475    0   0   0
Tc1      0.666666667   0.666666667   0.408540475    0   0   0
Tc1      0.833333333   0.333333333   0.500000000    0   0   0
Tc1      0.333333333   0.333333333   0.500000000    0   0   0
Tc1      0.833333333   0.833333333   0.500000000    0   0   0
Tc1      0.333333333   0.833333333   0.500000000    0   0   0
Tc1      0.002384067   0.008010214   0.591554097
Tc1      0.493609070   0.001640784   0.588968365
Tc1     -0.002962040   0.514004284   0.585431575
Tc1      0.508670689   0.490116800   0.585205059
C1       0.229256348   0.009141666   0.668289544
H1       0.433791738   0.004926394   0.674839668
H1       0.074705607   0.194849887   0.690917718
H1       0.256755412   0.819904168   0.689073637
End final coordinates

     Writing output data file calc.save

     General routines

     Parallel routines

   This run was terminated on:  16:14:18  23Apr2018

   JOB DONE.
Job  /afs/slac/g/suncat/bin/suncat-tsmpirun -x LD_LIBRARY_PATH -wdir /scratch/qe23725_syuC4 pw.x -npool 3 -in pw.inp

TID   HOST_NAME   COMMAND_LINE            STATUS            TERMINATION_TIME
00000 suncat2006 pw.x -npool 3 -i  Done                     04/23/2018 16:14:18
00001 suncat2006 pw.x -npool 3 -i  Done                     04/23/2018 16:14:18
00002 suncat2006 pw.x -npool 3 -i  Done                     04/23/2018 16:14:18
00003 suncat2006 pw.x -npool 3 -i  Done                     04/23/2018 16:14:18
00004 suncat2058 pw.x -npool 3 -i  Done                     04/23/2018 16:14:18
00005 suncat2058 pw.x -npool 3 -i  Done                     04/23/2018 16:14:18
00006 suncat2058 pw.x -npool 3 -i  Done                     04/23/2018 16:14:18
00007 suncat2058 pw.x -npool 3 -i  Done                     04/23/2018 16:14:18
00008 suncat2058 pw.x -npool 3 -i  Done                     04/23/2018 16:14:18
00009 suncat2058 pw.x -npool 3 -i  Done                     04/23/2018 16:14:18
00010 suncat2058 pw.x -npool 3 -i  Done                     04/23/2018 16:14:18
00011 suncat2058 pw.x -npool 3 -i  Done                     04/23/2018 16:14:18
00012 suncat2058 pw.x -npool 3 -i  Done                     04/23/2018 16:14:18
00013 suncat2058 pw.x -npool 3 -i  Done                     04/23/2018 16:14:18
00014 suncat2058 pw.x -npool 3 -i  Done                     04/23/2018 16:14:18
00015 suncat2058 pw.x -npool 3 -i  Done                     04/23/2018 16:14:18
00016 suncat2058 pw.x -npool 3 -i  Done                     04/23/2018 16:14:18
00017 suncat2058 pw.x -npool 3 -i  Done                     04/23/2018 16:14:18
00018 suncat2058 pw.x -npool 3 -i  Done                     04/23/2018 16:14:18
00019 suncat2058 pw.x -npool 3 -i  Done                     04/23/2018 16:14:18
00020 suncat2050 pw.x -npool 3 -i  Done                     04/23/2018 16:14:18
00021 suncat2050 pw.x -npool 3 -i  Done                     04/23/2018 16:14:18
00022 suncat2050 pw.x -npool 3 -i  Done                     04/23/2018 16:14:18
00023 suncat2050 pw.x -npool 3 -i  Done                     04/23/2018 16:14:18
00024 suncat2050 pw.x -npool 3 -i  Done                     04/23/2018 16:14:18
00025 suncat2050 pw.x -npool 3 -i  Done                     04/23/2018 16:14:18
00026 suncat2050 pw.x -npool 3 -i  Done                     04/23/2018 16:14:18
00027 suncat2050 pw.x -npool 3 -i  Done                     04/23/2018 16:14:18
00028 suncat2050 pw.x -npool 3 -i  Done                     04/23/2018 16:14:18
00029 suncat2050 pw.x -npool 3 -i  Done                     04/23/2018 16:14:18
00030 suncat2050 pw.x -npool 3 -i  Done                     04/23/2018 16:14:18
00031 suncat2050 pw.x -npool 3 -i  Done                     04/23/2018 16:14:18
00032 suncat2050 pw.x -npool 3 -i  Done                     04/23/2018 16:14:18
00033 suncat2050 pw.x -npool 3 -i  Done                     04/23/2018 16:14:18
00034 suncat2050 pw.x -npool 3 -i  Done                     04/23/2018 16:14:18
00035 suncat2050 pw.x -npool 3 -i  Done                     04/23/2018 16:14:18