     Program PWSCF v.5.1rc2 (svn rev. 11289) starts on  2May2018 at 12: 8:58

     Current dimensions of program PWSCF are:
     Max number of different atomic species (ntypx) = 10
     Max number of k-points (npk) =  40000
     Max angular momentum in pseudopotentials (lmaxx) =  3
     Presently stress not available with electric field

     IMPORTANT: XC functional enforced from input :
     Exchange-correlation      = BEEF-VDW ( 1  4 27 13 2)
     Any further DFT definition will be discarded
     Please, verify this is what you really want

     Subspace diagonalization in iterative solution of the eigenvalue problem:
     a serial algorithm will be used

     bravais-lattice index     =            0
     lattice parameter (alat)  =       1.8897  a.u.
     unit-cell volume          =    3807.2308 (a.u.)^3
     number of atoms/cell      =           13
     number of atomic types    =            2
     number of electrons       =       234.00
     number of Kohn-Sham states=          127
     kinetic-energy cutoff     =      36.7493  Ry
     charge density cutoff     =     367.4932  Ry
     convergence threshold     =      1.0E-05
     mixing beta               =       0.3000
     number of iterations used =           10  plain     mixing
     Exchange-correlation      = BEEF-VDW ( 1  4 27 13 2)
     nstep                     =           50

     celldm(1)=   1.889726  celldm(2)=   0.000000  celldm(3)=   0.000000
     celldm(4)=   0.000000  celldm(5)=   0.000000  celldm(6)=   0.000000

     crystal axes: (cart. coord. in units of alat)
               a(1) = (   5.184823   0.000000   0.000000 )
               a(2) = (   2.592411   4.490188   0.000000 )
               a(3) = (   0.000000   0.000000  24.233390 )

     reciprocal axes: (cart. coord. in units 2 pi/alat)
               b(1) = (  0.192871 -0.111354  0.000000 )
               b(2) = (  0.000000  0.222708  0.000000 )
               b(3) = (  0.000000  0.000000  0.041265 )

     PseudoPot. # 1 for Cu read from file:
     /u/if/mamunm/psp/gbrv1.5pbe/Cu.UPF
     MD5 check sum: 6e991ff952a84172a2a52a1c1e996048
     Pseudo is Ultrasoft + core correction, Zval = 19.0
     Generated by new atomic code, or converted to UPF format
     Using radial grid of  867 points,  6 beta functions with:
                l(1) =   0
                l(2) =   0
                l(3) =   1
                l(4) =   1
                l(5) =   2
                l(6) =   2
     Q(r) pseudized with  8 coefficients,  rinner =    1.150   1.150   1.150
                                                       1.150   1.150

     PseudoPot. # 2 for O  read from file:
     /u/if/mamunm/psp/gbrv1.5pbe/O.UPF
     MD5 check sum: 734c27235a0248c51dbae37a1fbe46ec
     Pseudo is Ultrasoft + core correction, Zval =  6.0
     Generated by new atomic code, or converted to UPF format
     Using radial grid of  737 points,  5 beta functions with:
                l(1) =   0
                l(2) =   0
                l(3) =   1
                l(4) =   1
                l(5) =   2
     Q(r) pseudized with  8 coefficients,  rinner =    0.900   0.900   0.900
                                                       0.900   0.900

     vdW kernel table read from file vdW_kernel_table
     MD5 check sum: 095c7af220d748ca6e76c0b4c6cfb241

     atomic species   valence    mass     pseudopotential
        Cu1           19.00    63.54600     Cu( 1.00)
        O1             6.00    15.99900     O ( 1.00)

     No symmetry found

   Cartesian axes

     site n.     atom                  positions (alat units)
         1           Cu1 tau(   1) = (   1.2962057   0.7483647  10.0000000  )
         2           Cu1 tau(   2) = (   3.8886170   0.7483647  10.0000000  )
         3           Cu1 tau(   3) = (   2.5924113   2.9934587  10.0000000  )
         4           Cu1 tau(   4) = (   5.1848226   2.9934587  10.0000000  )
         5           Cu1 tau(   5) = (   5.1848226   1.4967294  12.1166950  )
         6           Cu1 tau(   6) = (   2.5924113   1.4967294  12.1166950  )
         7           Cu1 tau(   7) = (   6.4810283   3.7418234  12.1166950  )
         8           Cu1 tau(   8) = (   3.8886170   3.7418234  12.1166950  )
         9           Cu1 tau(   9) = (   0.0000000   0.0000000  14.2333899  )
        10           Cu1 tau(  10) = (   2.5924113   0.0000000  14.2333899  )
        11           Cu1 tau(  11) = (   1.2962057   2.2450940  14.2333899  )
        12           Cu1 tau(  12) = (   3.8886170   2.2450940  14.2333899  )
        13           O1  tau(  13) = (   1.2962057   0.7483647  15.5203899  )

     number of k points=    20  Fermi-Dirac smearing, width (Ry)=  0.0110
                       cart. coord. in units 2pi/alat
        k(    1) = (   0.0000000   0.0000000   0.0000000), wk =   0.0555556
        k(    2) = (   0.0000000   0.0371180   0.0000000), wk =   0.1111111
        k(    3) = (   0.0000000   0.0742359   0.0000000), wk =   0.1111111
        k(    4) = (   0.0000000  -0.1113539   0.0000000), wk =   0.0555556
        k(    5) = (   0.0321451  -0.0185590   0.0000000), wk =   0.1111111
        k(    6) = (   0.0321451   0.0185590   0.0000000), wk =   0.1111111
        k(    7) = (   0.0321451   0.0556770   0.0000000), wk =   0.1111111
        k(    8) = (   0.0321451  -0.1299129   0.0000000), wk =   0.1111111
        k(    9) = (   0.0321451  -0.0927949   0.0000000), wk =   0.1111111
        k(   10) = (   0.0321451  -0.0556770   0.0000000), wk =   0.1111111
        k(   11) = (   0.0642902  -0.0371180   0.0000000), wk =   0.1111111
        k(   12) = (   0.0642902  -0.0000000   0.0000000), wk =   0.1111111
        k(   13) = (   0.0642902   0.0371180   0.0000000), wk =   0.1111111
        k(   14) = (   0.0642902  -0.1484719   0.0000000), wk =   0.1111111
        k(   15) = (   0.0642902  -0.1113539   0.0000000), wk =   0.1111111
        k(   16) = (   0.0642902  -0.0742359   0.0000000), wk =   0.1111111
        k(   17) = (  -0.0964353   0.0556770   0.0000000), wk =   0.0555556
        k(   18) = (  -0.0964353   0.0927949   0.0000000), wk =   0.1111111
        k(   19) = (  -0.0964353   0.1299129   0.0000000), wk =   0.1111111
        k(   20) = (  -0.0964353  -0.0556770   0.0000000), wk =   0.0555556

     Largest allocated arrays     est. size (Mb)     dimensions
     Largest temporary arrays     est. size (Mb)     dimensions

     Initial potential from superposition of free atoms
     Check: negative starting charge=   -0.000303

     starting charge  221.99997, renormalised to  234.00000

     negative rho (up, down):  3.191E-04 0.000E+00

     *
     * You are using vdW-DF for exchange-correlation in this calculation.
     * Please cite the following three references that made this development
     * possible:
     *
     *   M. Dion, H. Rydberg, E. Schroder, D. C. Langreth, and
     *   B. I. Lundqvist, Phys. Rev. Lett. 92, 246401 (2004).
     *
     *   T. Thonhauser, V. R. Cooper, S. Li, A. Puzder, P. Hyldgaard, and
     *   D. C. Langreth, Phys. Rev. B 76, 125112 (2007).
     *
     *   G. Roman-Perez and J. M. Soler, Phys. Rev. Lett. 103, 096102 (2009).
     *
     *
     * If you are using vdW-DF2, please also cite:
     *
     *   K. Lee, E. D. Murray, L. Kong, B. I. Lundqvist, and
     *   D. C. Langreth, Phys. Rev. B 82, 081101(R) (2010).
     *
     *
     * If you are calculating the stress with vdW-DF, please also cite:
     *
     *   R. Sabatini, E. Kucukbenli, B. Kolb, T. Thonhauser, and
     *   S. de Gironcoli, J. Phys.: Condens. Matter 24, 424209 (2012).
     *

     Carrying out vdW-DF run using the following parameters:

     Nqs =      20    Nr_points =    1024   r_max =   100.000
     q_mesh =
               0.00001000     0.04494208     0.09755937     0.15916263
               0.23128650     0.31572767     0.41458969     0.53033537
               0.66584808     0.82450364     1.01025438     1.22772762
               1.48234092     1.78043706     2.12944203     2.53805004
               3.01644009     3.57652955     4.23227104     5.00000000

     Gradients computed in reciprocal space

     Adding external electric field

     Computed dipole along edir(3) :
        Dipole               -2.0861 Ry au,         -5.3022 Debye
        Dipole field         -0.0069 Ry au

        Potential amp.        0.6149 Ry
        Total length         44.6496 bohr

     Starting wfc are  160 randomized atomic wfcs

     Self-consistent Calculation

     iteration #  1     ecut=    36.75 Ry     beta=0.30
     Davidson diagonalization with overlap
     ethr =  1.00E-02,  avg # of iterations =  8.0

[...]

     total energy              =   -4549.82891371 Ry
     Harris-Foulkes estimate   =   -4888.89173140 Ry
     estimated scf accuracy    <     714.64116812 Ry

[...]

     End of self-consistent calculation

          k = 0.0000 0.0000 0.0000 ( 14321 PWs)   bands (ev):

  -112.7845-112.6661-112.6606-112.6603-112.6351-112.6301-112.6286-112.4639
  -112.4279-112.4230-112.4218-112.3062 -70.1851 -70.1821 -70.1820 -70.1110
   -70.0888 -70.0717 -70.0717 -70.0641 -70.0639 -70.0609 -70.0508 -70.0501
   -70.0427 -70.0402 -70.0401 -70.0294 -70.0294 -70.0197 -69.9849 -69.9702
   -69.9690 -69.9035 -69.9032 -69.8789 -69.8452 -69.8449 -69.8340 -69.8165
   -69.8164 -69.8159 -69.7800 -69.7752 -69.7741 -69.7315 -69.7315 -69.6790
   -17.6480  -8.3369  -6.3885  -5.1004  -4.8017  -4.8015  -4.7128  -4.6366
    -4.6364  -4.5989  -4.3049  -4.2406  -4.2404  -4.1093  -4.1093  -4.0752
    -3.7707  -3.7707  -3.5498  -3.2859  -3.2857  -3.1560  -3.1001  -3.1000
    -3.0830  -3.0095  -3.0095  -2.9469  -2.8320  -2.8319  -2.8218  -2.7751
    -2.7750  -2.7125  -2.7123  -2.6226  -2.5275  -2.5270  -2.5052  -2.2546
    -2.2546  -2.2513  -2.1619  -2.1617  -2.0485  -2.0482  -1.9033  -1.9030
    -1.8276  -1.8096  -1.8092  -1.7750  -1.7616  -1.7615  -1.7225  -1.7223
    -1.7163  -1.6494  -1.5913  -1.5908  -1.5064  -1.5057  -1.5051  -1.4908
    -1.1425  -1.1421  -1.1341   0.2065   0.2065   0.2226   0.5866   1.1991
     1.1991   1.3491   1.6602   1.6603   2.8272   3.8766   4.2967

[...]

          k =-0.0964 0.0557 0.0000 ( 14294 PWs)   bands (ev):

[...]

     the Fermi energy is    -0.0791 ev

!    total energy              =   -4891.74816730 Ry
     Harris-Foulkes estimate   =   -4891.74817456 Ry
     estimated scf accuracy    <       0.00000729 Ry

     The total energy is the sum of the following terms:

     one-electron contribution =  -38028.19631721 Ry
     hartree contribution      =   19027.12418064 Ry
     xc contribution           =    -487.57108308 Ry
     ewald contribution        =   14596.92287921 Ry
     electric field correction =       0.00035845 Ry
     smearing contrib. (-TS)   =      -0.02818532 Ry

     convergence has been achieved in  39 iterations

 BEEF-vdW xc energy contributions
           1 :   -431.948099199085
           2 :    391.423933023659
           3 :   -322.832341660162
           4 :    245.094218062521
           5 :   -175.374813037268
           6 :    122.955853608468
           7 :   -87.8245602846907
           8 :    63.8733605176612
           9 :   -44.2178310715772
          10 :    25.3606522334920
          11 :   -8.13193398173138
          12 :   -4.43293108585499
          13 :    10.2808053563817
          14 :   -10.2726520386749
          15 :    7.74106451309046
          16 :   -6.31262167541149
          17 :    7.69655876281399
          18 :   -10.9527136005756
          19 :    13.5849473189284
          20 :   -13.5448836630828
          21 :    10.7032520831444
          22 :   -6.83911779437506
          23 :    4.28749473226492
          24 :   -4.29658230974348
          25 :    6.25235591872001
          26 :   -8.24221811500649
          27 :    8.47773208466731
          28 :   -6.53863727967121
          29 :    3.58421026659471
          30 :   -1.44831335014999
          31 :   -34.5578163365828
          32 :   -23.5849156123807

     Forces acting on atoms (Ry/au):

     negative rho (up, down):  1.193E-03 0.000E+00
     atom    1 type  1   force =    -0.00004039    0.00001756    0.00909444
     atom    2 type  1   force =     0.00004080    0.00068494    0.00528933
     atom    3 type  1   force =     0.00055899   -0.00033097    0.00501783
     atom    4 type  1   force =    -0.00057543   -0.00038390    0.00557476
     atom    5 type  1   force =    -0.00276680    0.00161542   -0.00286951
     atom    6 type  1   force =     0.00279346    0.00150294   -0.00261811
     atom    7 type  1   force =    -0.00011026    0.00004360    0.01215452
     atom    8 type  1   force =     0.00012645   -0.00318434   -0.00269496
     atom    9 type  1   force =    -0.00699893   -0.00401318    0.01242303
     atom   10 type  1   force =     0.00691812   -0.00397842    0.01258809
     atom   11 type  1   force =    -0.00000745    0.00805658    0.01240118
     atom   12 type  1   force =    -0.00001061   -0.00000873   -0.01645005
     atom   13 type  2   force =     0.00007206   -0.00002150   -0.04991055

     Total force =     0.058497     Total SCF correction =     0.014096
     SCF correction compared to forces is large: reduce conv_thr to get better values

     entering subroutine stress ...

     negative rho (up, down):  1.193E-03 0.000E+00
          total   stress  (Ry/bohr**3)                   (kbar)     P=  -34.04
  -0.00023299  -0.00000003  -0.00000007        -34.27     -0.00     -0.01
  -0.00000003  -0.00023301   0.00000003         -0.00    -34.28      0.00
  -0.00000007   0.00000003  -0.00022812         -0.01      0.00    -33.56

     BFGS Geometry Optimization

     number of scf cycles    =   1
     number of bfgs steps    =   0

     energy   new            =   -4891.7481672960 Ry

     new trust radius        =       0.0499106048 bohr
     new conv_thr            =       0.0000099958 Ry

ATOMIC_POSITIONS (crystal)
Cu1      0.166666667   0.166666667   0.412653782    0   0   0
Cu1      0.666666667   0.166666667   0.412653782    0   0   0
Cu1      0.166666667   0.666666667   0.412653782    0   0   0
Cu1      0.666666667   0.666666667   0.412653782    0   0   0
Cu1      0.833333333   0.333333333   0.500000000    0   0   0
Cu1      0.333333333   0.333333333   0.500000000    0   0   0
Cu1      0.833333333   0.833333333   0.500000000    0   0   0
Cu1      0.333333333   0.833333333   0.500000000    0   0   0
Cu1     -0.000477850  -0.000472961   0.587617496
Cu1      0.500940515  -0.000468865   0.587621100
Cu1     -0.000475502   0.500949483   0.587617019
Cu1      0.499999432   0.499998972   0.586987003
O1       0.166675288   0.166664133   0.639364878

     Writing output data file calc.save
     Check: negative starting charge=   -0.000303
     NEW-OLD atomic charge density approx. for the potential
     Check: negative starting charge=   -0.000307

[...]

     energy   old            =   -4891.7481672961 Ry
     energy   new            =   -4891.7513456721 Ry

     CASE: energy  _new < energy  _old

     WARNING: bfgs curvature condition failed, Theta= 0.995
     new trust radius        =       0.0549016653 bohr
     new conv_thr            =       0.0000001000 Ry

[...]

     Total force =     0.038225     Total SCF correction =     0.001150

[...]

     Total force =     0.006437     Total SCF correction =     0.000403

[...]

     number of scf cycles    =  10
     number of bfgs steps    =   9

     energy   old            =   -4891.7600954461 Ry
     energy   new            =   -4891.7601703001 Ry

     CASE: energy  _new < energy  _old

     new trust radius        =       0.0154978088 bohr
     new conv_thr            =       0.0000001000 Ry

ATOMIC_POSITIONS (crystal)
Cu1      0.166666667   0.166666667   0.412653782    0   0   0
Cu1      0.666666667   0.166666667   0.412653782    0   0   0
Cu1      0.166666667   0.666666667   0.412653782    0   0   0
Cu1      0.666666667   0.666666667   0.412653782    0   0   0
Cu1      0.833333333   0.333333333   0.500000000    0   0   0
Cu1      0.333333333   0.333333333   0.500000000    0   0   0
Cu1      0.833333333   0.833333333   0.500000000    0   0   0
Cu1      0.333333333   0.833333333   0.500000000    0   0   0
Cu1     -0.006708766  -0.006709067   0.588647293
Cu1      0.513410254  -0.006705183   0.588644770
Cu1     -0.006708949   0.513419009   0.588644819
Cu1      0.499998024   0.500001867   0.582712051
O1       0.166652536   0.166686997   0.633667248

     Writing output data file calc.save
     Check: negative starting charge=   -0.000314
     NEW-OLD atomic charge density approx. for the potential
     Check: negative starting charge=   -0.000314

[...]

     Self-consistent Calculation

[...]

     total energy              =   -4891.76020275 Ry
     Harris-Foulkes estimate   =   -4891.76020278 Ry
     estimated scf accuracy    <       0.00000018 Ry

     iteration #  9     ecut=    36.75 Ry     beta=0.30
     Davidson diagonalization with overlap
     ethr =  7.59E-11,  avg # of iterations =  2.0

[...]

     negative rho (up, down):  1.294E-03 0.000E+00

     Adding external electric field

     Computed dipole along edir(3) :
        Dipole               -0.2453 Ry au,         -0.6234 Debye
        Dipole field         -0.0008 Ry au

        Potential amp.        0.0723 Ry
        Total length         44.6496 bohr

     End of self-consistent calculation

[...]

          k = 0.0643-0.0742 0.0000 ( 14299 PWs)   bands (ev):

[...]

          k =-0.0964-0.0557 0.0000 ( 14294 PWs)   bands (ev):

  -112.6553-112.5738-112.5698-112.5685-112.5422-112.5403-112.5385-112.3411
  -112.2887-112.2867-112.2849-112.2741 -70.0678 -70.0510 -70.0470 -70.0372
   -70.0211 -70.0103 -69.9761 -69.9718 -69.9677 -69.9550 -69.9547 -69.9421
   -69.9411 -69.9367 -69.9304 -69.9301 -69.9267 -69.9186 -69.9032 -69.8936
   -69.8912 -69.7693 -69.7598 -69.7303 -69.7116 -69.7089 -69.7040 -69.7027
   -69.6974 -69.6929 -69.6911 -69.6821 -69.6597 -69.6409 -69.6391 -69.6373
   -18.0556  -6.6020  -6.4286  -5.3437  -4.9275  -4.8819  -4.5603  -4.2891
    -4.1825  -4.1237  -4.0009  -3.9527  -3.8797  -3.7295  -3.6585  -3.6491
    -3.5359  -3.5087  -3.4360  -3.4101  -3.2888  -3.2592  -3.2179  -3.2131
    -3.1944  -3.1500  -2.9901  -2.9414  -2.9317  -2.8712  -2.7755  -2.7341
    -2.6968  -2.6623  -2.6282  -2.6282  -2.6199  -2.5865  -2.5772  -2.5478
    -2.5318  -2.4095  -2.3697  -2.3308  -2.2901  -2.2616  -2.2593  -2.1760
    -2.1551  -2.1180  -2.0978  -2.0351  -2.0137  -1.9377  -1.9332  -1.9158
    -1.9121  -1.8518  -1.7406  -1.6726  -1.6524  -1.6079  -1.6069  -1.5480
    -1.5368  -1.1718  -0.9574  -0.4421   0.0878   0.1351   0.7473   1.0186
     1.6021   2.1660   3.2830   3.3994   4.2779   5.0059   5.7952

     the Fermi energy is     0.0626 ev

!    total energy              =   -4891.76020278 Ry
     Harris-Foulkes estimate   =   -4891.76020190 Ry
     estimated scf accuracy    <       0.00000005 Ry

     The total energy is the sum of the following terms:

     one-electron contribution =  -38134.58785872 Ry
     hartree contribution      =   19081.16776119 Ry
     xc contribution           =    -487.64535171 Ry
     ewald contribution        =   14649.33220320 Ry
     electric field correction =       0.00019858 Ry
     smearing contrib. (-TS)   =      -0.02715531 Ry

     convergence has been achieved in   9 iterations

 BEEF-vdW xc energy contributions
           1 :   -432.031777946208
           2 :    391.547785034971
           3 :   -322.982202178793
           4 :    245.205775561465
           5 :   -175.384670713989
           6 :    122.850839975900
           7 :   -87.6552530348559
           8 :    63.7234673312480
           9 :   -44.1516958107125
          10 :    25.3852148008124
          11 :   -8.19838791482772
          12 :   -4.39040633316108
          13 :    10.2972666914335
          14 :   -10.3304749638526
          15 :    7.78773864024009
          16 :   -6.30264420335186
          17 :    7.62716796478315
          18 :   -10.8683496993496
          19 :    13.5473621237332
          20 :   -13.5902687530981
          21 :    10.8150220292343
          22 :   -6.95526573508192
          23 :    4.33945623789742
          24 :   -4.25417199815473
          25 :    6.14503584151589
          26 :   -8.14140181948034
          27 :    8.44927405884158
          28 :   -6.59692229959802
          29 :    3.68106640488173
          30 :   -1.50560315744610
          31 :   -34.5636010879583
          32 :   -23.5958064565776

     Forces acting on atoms (Ry/au):

     negative rho (up, down):  1.294E-03 0.000E+00
     atom    1 type  1   force =    -0.00000044   -0.00000005    0.00605508
     atom    2 type  1   force =     0.00000023    0.00061931    0.00168043
     atom    3 type  1   force =     0.00053643   -0.00030933    0.00168068
     atom    4 type  1   force =    -0.00053642   -0.00030968    0.00168014
     atom    5 type  1   force =     0.00199875   -0.00115752   -0.00649235
     atom    6 type  1   force =    -0.00199893   -0.00115383   -0.00649752
     atom    7 type  1   force =     0.00000288    0.00000246    0.00988542
     atom    8 type  1   force =    -0.00000342    0.00231008   -0.00649272
     atom    9 type  1   force =     0.00042039    0.00024652   -0.00010399
     atom   10 type  1   force =    -0.00042295    0.00024514   -0.00008866
     atom   11 type  1   force =    -0.00000307   -0.00047103   -0.00009975
     atom   12 type  1   force =     0.00000177   -0.00000141    0.00052526
     atom   13 type  2   force =     0.00000480   -0.00002068   -0.00173201

     Total force =     0.002001     Total SCF correction =     0.000486
     SCF correction compared to forces is large: reduce conv_thr to get better values

     entering subroutine stress ...

     negative rho (up, down):  1.294E-03 0.000E+00
          total   stress  (Ry/bohr**3)                   (kbar)     P=  -16.99
  -0.00012129   0.00000001   0.00000001        -17.84      0.00      0.00
   0.00000001  -0.00012127  -0.00000001          0.00    -17.84     -0.00
   0.00000001  -0.00000001  -0.00010403          0.00     -0.00    -15.30

     bfgs converged in  11 scf cycles and  10 bfgs steps
     (criteria: energy <  1.0E+00, force <  1.9E-03)

     End of BFGS Geometry Optimization

     Final energy   =   -4891.7602027776 Ry
Begin final coordinates

ATOMIC_POSITIONS (crystal)
Cu1      0.166666667   0.166666667   0.412653782    0   0   0
Cu1      0.666666667   0.166666667   0.412653782    0   0   0
Cu1      0.166666667   0.666666667   0.412653782    0   0   0
Cu1      0.666666667   0.666666667   0.412653782    0   0   0
Cu1      0.833333333   0.333333333   0.500000000    0   0   0
Cu1      0.333333333   0.333333333   0.500000000    0   0   0
Cu1      0.833333333   0.833333333   0.500000000    0   0   0
Cu1      0.333333333   0.833333333   0.500000000    0   0   0
Cu1     -0.006708766  -0.006709067   0.588647293
Cu1      0.513410254  -0.006705183   0.588644770
Cu1     -0.006708949   0.513419009   0.588644819
Cu1      0.499998024   0.500001867   0.582712051
O1       0.166652536   0.166686997   0.633667248
End final coordinates

     Writing output data file calc.save

     General routines

     Parallel routines

   This run was terminated on:  13: 7:47   2May2018

   JOB DONE.
Job  /afs/slac/g/suncat/bin/suncat-tsmpirun -x LD_LIBRARY_PATH -wdir /scratch/qe616565_u7WFp pw.x -npool 4 -in pw.inp

TID   HOST_NAME   COMMAND_LINE            STATUS            TERMINATION_TIME
00000 suncat0091 pw.x -npool 4 -i  Done                     05/02/2018 13:07:47
00001 suncat0091 pw.x -npool 4 -i  Done                     05/02/2018 13:07:47
00002 suncat0091 pw.x -npool 4 -i  Done                     05/02/2018 13:07:47
00003 suncat0091 pw.x -npool 4 -i  Done                     05/02/2018 13:07:47
00004 suncat0091 pw.x -npool 4 -i  Done                     05/02/2018 13:07:47
00005 suncat0091 pw.x -npool 4 -i  Done                     05/02/2018 13:07:47
00006 suncat0091 pw.x -npool 4 -i  Done                     05/02/2018 13:07:47
00007 suncat0091 pw.x -npool 4 -i  Done                     05/02/2018 13:07:47
00008 suncat0090 pw.x -npool 4 -i  Done                     05/02/2018 13:07:47
00009 suncat0090 pw.x -npool 4 -i  Done                     05/02/2018 13:07:47
00010 suncat0090 pw.x -npool 4 -i  Done                     05/02/2018 13:07:47
00011 suncat0090 pw.x -npool 4 -i  Done                     05/02/2018 13:07:47
00012 suncat0090 pw.x -npool 4 -i  Done                     05/02/2018 13:07:47
00013 suncat0090 pw.x -npool 4 -i  Done                     05/02/2018 13:07:47
00014 suncat0090 pw.x -npool 4 -i  Done                     05/02/2018 13:07:47
00015 suncat0090 pw.x -npool 4 -i  Done                     05/02/2018 13:07:47
00016 suncat0048 pw.x -npool 4 -i  Done                     05/02/2018 13:07:47
00017 suncat0048 pw.x -npool 4 -i  Done                     05/02/2018 13:07:47
00018 suncat0048 pw.x -npool 4 -i  Done                     05/02/2018 13:07:47
00019 suncat0048 pw.x -npool 4 -i  Done                     05/02/2018 13:07:47
00020 suncat0048 pw.x -npool 4 -i  Done                     05/02/2018 13:07:47
00021 suncat0048 pw.x -npool 4 -i  Done                     05/02/2018 13:07:47
00022 suncat0048 pw.x -npool 4 -i  Done                     05/02/2018 13:07:47
00023 suncat0048 pw.x -npool 4 -i  Done                     05/02/2018 13:07:47
00024 suncat0047 pw.x -npool 4 -i  Done                     05/02/2018 13:07:47
00025 suncat0047 pw.x -npool 4 -i  Done                     05/02/2018 13:07:47
00026 suncat0047 pw.x -npool 4 -i  Done                     05/02/2018 13:07:47
00027 suncat0047 pw.x -npool 4 -i  Done                     05/02/2018 13:07:47
00028 suncat0047 pw.x -npool 4 -i  Done                     05/02/2018 13:07:47
00029 suncat0047 pw.x -npool 4 -i  Done                     05/02/2018 13:07:47
00030 suncat0047 pw.x -npool 4 -i  Done                     05/02/2018 13:07:47
00031 suncat0047 pw.x -npool 4 -i  Done                     05/02/2018 13:07:47