     Program PWSCF v.5.1rc2 (svn rev. 11289) starts on 16Jan2018 at 14:16:19

     Current dimensions of program PWSCF are:
     Max number of different atomic species (ntypx) = 10
     Max number of k-points (npk) =  40000
     Max angular momentum in pseudopotentials (lmaxx) =  3
     Presently stress not available with electric field

     IMPORTANT: XC functional enforced from input :
     Exchange-correlation      = BEEF-VDW ( 1  4 27 13 2)
     Any further DFT definition will be discarded
     Please, verify this is what you really want

     Subspace diagonalization in iterative solution of the eigenvalue problem:
     a serial algorithm will be used

     bravais-lattice index     =            0
     lattice parameter (alat)  =       1.8897  a.u.
     unit-cell volume          =    4204.8134 (a.u.)^3
     number of atoms/cell      =           13
     number of atomic types    =            2
     number of electrons       =       181.00
     number of Kohn-Sham states=          100
     kinetic-energy cutoff     =      36.7493  Ry
     charge density cutoff     =     367.4932  Ry
     convergence threshold     =      1.0E-05
     mixing beta               =       0.3000
     number of iterations used =           10  plain     mixing
     Exchange-correlation      = BEEF-VDW ( 1  4 27 13 2)
     nstep                     =           50

     celldm(1)=   1.889726  celldm(2)=   0.000000  celldm(3)=   0.000000
     celldm(4)=   0.000000  celldm(5)=   0.000000  celldm(6)=   0.000000

     crystal axes: (cart. coord. in units of alat)
               a(1) = (   5.426750   0.000000   0.000000 )
               a(2) = (   2.713375   4.699703   0.000000 )
               a(3) = (   0.000000   0.000000  24.430923 )

     reciprocal axes: (cart. coord. in units 2 pi/alat)
               b(1) = (  0.184272 -0.106390  0.000000 )
               b(2) = (  0.000000  0.212779  0.000000 )
               b(3) = (  0.000000  0.000000  0.040932 )

     PseudoPot. # 1 for Rh read from file:
     /afs/slac.stanford.edu/u/if/mamunm/psp/gbrv1.5pbe/Rh.UPF
     MD5 check sum: 761627e959a2e3a1f56b0b5fe687810e
     Pseudo is Ultrasoft + core correction, Zval = 15.0
     Generated by new atomic code, or converted to UPF format
     Using radial grid of  969 points,  7 beta functions with:
                l(1) =   0
                l(2) =   0
                l(3) =   1
                l(4) =   1
                l(5) =   2
                l(6) =   2
                l(7) =   2
     Q(r) pseudized with  8 coefficients,  rinner =    1.200   1.200   1.200
                                                       1.200   1.200

     PseudoPot. # 2 for H  read from file:
     /afs/slac.stanford.edu/u/if/mamunm/psp/gbrv1.5pbe/H.UPF
     MD5 check sum: 761ae9a214b05c3daf00ab9f6b793d6f
     Pseudo is Ultrasoft, Zval =  1.0
     Generated by new atomic code, or converted to UPF format
     Using radial grid of  615 points,  2 beta functions with:
                l(1) =   0
                l(2) =   0
     Q(r) pseudized with  8 coefficients,  rinner =    0.700

     vdW kernel table read from file vdW_kernel_table
     MD5 check sum: 095c7af220d748ca6e76c0b4c6cfb241

     atomic species   valence    mass     pseudopotential
        Rh1           15.00   102.90550     Rh( 1.00)
        H1             1.00     1.00800     H ( 1.00)

     No symmetry found

   Cartesian axes

     site n.     atom                  positions (alat units)
         1           Rh1 tau(   1) = (   1.3566875   0.7832839  10.0000000  )
         2           Rh1 tau(   2) = (   4.0700625   0.7832839  10.0000000  )
         3           Rh1 tau(   3) = (   2.7133750   3.1331356  10.0000000  )
         4           Rh1 tau(   4) = (   5.4267500   3.1331356  10.0000000  )
         5           Rh1 tau(   5) = (   5.4267500   1.5665678  12.2154614  )
         6           Rh1 tau(   6) = (   2.7133750   1.5665678  12.2154614  )
         7           Rh1 tau(   7) = (   6.7834375   3.9164194  12.2154614  )
         8           Rh1 tau(   8) = (   4.0700625   3.9164194  12.2154614  )
         9           Rh1 tau(   9) = (   0.0000000   0.0000000  14.4309228  )
        10           Rh1 tau(  10) = (   2.7133750   0.0000000  14.4309228  )
        11           Rh1 tau(  11) = (   1.3566875   2.3498517  14.4309228  )
        12           Rh1 tau(  12) = (   4.0700625   2.3498517  14.4309228  )
        13           H1  tau(  13) = (   1.3566875   0.0000000  16.1609228  )

     number of k points=    20  Fermi-Dirac smearing, width (Ry)=  0.0110
                       cart. coord. in units 2pi/alat
        k(    1) = (   0.0000000   0.0000000   0.0000000), wk =   0.0555556
        k(    2) = (   0.0000000   0.0354632   0.0000000), wk =   0.1111111
        k(    3) = (   0.0000000   0.0709265   0.0000000), wk =   0.1111111
        k(    4) = (   0.0000000  -0.1063897   0.0000000), wk =   0.0555556
        k(    5) = (   0.0307121  -0.0177316   0.0000000), wk =   0.1111111
        k(    6) = (   0.0307121   0.0177316   0.0000000), wk =   0.1111111
        k(    7) = (   0.0307121   0.0531948   0.0000000), wk =   0.1111111
        k(    8) = (   0.0307121  -0.1241213   0.0000000), wk =   0.1111111
        k(    9) = (   0.0307121  -0.0886581   0.0000000), wk =   0.1111111
        k(   10) = (   0.0307121  -0.0531948   0.0000000), wk =   0.1111111
        k(   11) = (   0.0614241  -0.0354632   0.0000000), wk =   0.1111111
        k(   12) = (   0.0614241   0.0000000   0.0000000), wk =   0.1111111
        k(   13) = (   0.0614241   0.0354632   0.0000000), wk =   0.1111111
        k(   14) = (   0.0614241  -0.1418529   0.0000000), wk =   0.1111111
        k(   15) = (   0.0614241  -0.1063897   0.0000000), wk =   0.1111111
        k(   16) = (   0.0614241  -0.0709265   0.0000000), wk =   0.1111111
        k(   17) = (  -0.0921362   0.0531948   0.0000000), wk =   0.0555556
        k(   18) = (  -0.0921362   0.0886581   0.0000000), wk =   0.1111111
        k(   19) = (  -0.0921362   0.1241213   0.0000000), wk =   0.1111111
        k(   20) = (  -0.0921362  -0.0531948   0.0000000), wk =   0.0555556

     Largest allocated arrays     est. size (Mb)     dimensions
     Largest temporary arrays     est. size (Mb)     dimensions

     Initial potential from superposition of free atoms
     Check: negative starting charge=   -0.652775

     starting charge  174.99881, renormalised to  181.00000

     negative rho (up, down):  6.752E-01 0.000E+00

     *
     * You are using vdW-DF for exchange-correlation in this calculation.
     * Please cite the following three references that made this development
     * possible:
     *
     *   M. Dion, H. Rydberg, E. Schroder, D. C. Langreth, and
     *   B. I. Lundqvist, Phys. Rev. Lett. 92, 246401 (2004).
     *
     *   T. Thonhauser, V. R. Cooper, S. Li, A. Puzder, P. Hyldgaard, and
     *   D. C. Langreth, Phys. Rev. B 76, 125112 (2007).
     *
     *   G. Roman-Perez and J. M. Soler, Phys. Rev. Lett. 103, 096102 (2009).
     *
     *
     * If you are using vdW-DF2, please also cite:
     *
     *   K. Lee, E. D. Murray, L. Kong, B. I. Lundqvist, and
     *   D. C. Langreth, Phys. Rev. B 82, 081101(R) (2010).
     *
     *
     * If you are calculating the stress with vdW-DF, please also cite:
     *
     *   R. Sabatini, E. Kucukbenli, B. Kolb, T. Thonhauser, and
     *   S. de Gironcoli, J. Phys.: Condens. Matter 24, 424209 (2012).
     *

     Carrying out vdW-DF run using the following parameters:

     Nqs =      20    Nr_points =    1024   r_max =   100.000
     q_mesh =
               0.00001000     0.04494208     0.09755937     0.15916263
               0.23128650     0.31572767     0.41458969     0.53033537
               0.66584808     0.82450364     1.01025438     1.22772762
               1.48234092     1.78043706     2.12944203     2.53805004
               3.01644009     3.57652955     4.23227104     5.00000000

     Gradients computed in reciprocal space

     Adding external electric field

     Computed dipole along edir(3) :
        Dipole               -0.2556 Ry au,         -0.6497 Debye
        Dipole field         -0.0008 Ry au

        Potential amp.        0.0688 Ry
        Total length         45.0136 bohr

     Starting wfc are  145 randomized atomic wfcs

     Self-consistent Calculation

     iteration #  1     ecut=    36.75 Ry     beta=0.30
     Davidson diagonalization with overlap
     ethr =  1.00E-02,  avg # of iterations =  2.0

[...]

     total energy              =   -2064.74681869 Ry
     Harris-Foulkes estimate   =   -2069.09294167 Ry
     estimated scf accuracy    <       9.72283137 Ry

[...]

     End of self-consistent calculation

          k = 0.0000 0.0000 0.0000 ( 15785 PWs)   bands (ev):

   -45.4744 -45.4671 -45.4655 -45.3412 -45.2877 -45.2693 -45.2683 -45.1042
   -45.0920 -45.0820 -45.0773 -45.0683 -45.0605 -44.9973 -44.9846 -44.9845
   -44.9552 -44.9523 -44.7678 -44.7328 -44.7296 -44.6947 -44.6743 -44.6710
   -44.6709 -44.6672 -44.6376 -44.6124 -44.5959 -44.5936 -44.5897 -44.5804
   -44.5788 -44.5782 -44.5526 -44.5516  -5.1564  -3.9210  -3.8692  -3.8691
    -3.8493  -3.7574  -3.5907  -3.5768  -3.5753  -3.3923  -3.3483  -3.3423
    -3.0661  -3.0434  -3.0327  -2.2095  -1.9148  -1.9068  -1.5421  -1.4655
    -1.4648  -1.2958  -1.1756  -1.1751  -1.1039  -0.8577  -0.8576  -0.7745
    -0.7672  -0.7607  -0.6342  -0.6301  -0.2439  -0.0080   0.0218   0.1563
     0.6713   0.6802   0.6972   0.7216   0.7225   0.8637   0.8708   0.9868
     1.2897   1.2996   1.7755   1.7967   1.8100   1.8169   1.8204   1.8372
     1.9454   1.9494   2.1879   2.1914   2.1987   2.2392   2.5101   2.5230
     2.5340   2.5859   2.5877   2.5894

[...]

          k =-0.0921 0.0532 0.0000 ( 15852 PWs)   bands (ev):

[...]

     the Fermi energy is     1.5842 ev

!    total energy              =   -2067.53469498 Ry
     Harris-Foulkes estimate   =   -2067.53470906 Ry
     estimated scf accuracy    <       0.00000969 Ry

     The total energy is the sum of the following terms:

     one-electron contribution =  -19131.02264566 Ry
     hartree contribution      =    9606.08667239 Ry
     xc contribution           =    -372.73155682 Ry
     ewald contribution        =    7830.25791521 Ry
     electric field correction =       0.00002424 Ry
     smearing contrib. (-TS)   =      -0.12510434 Ry

     convergence has been achieved in  18 iterations

 BEEF-vdW xc energy contributions
           1 :   -324.646232478711
           2 :    298.172081945730
           3 :   -252.370660423738
           4 :    198.630233229242
           5 :   -148.450499027693
           6 :    109.859778454441
           7 :   -85.5691031227176
           8 :    73.2921607396738
           9 :   -67.7837480089938
          10 :    63.5428869979139
          11 :   -57.0079078011939
          12 :    47.4558247610607
          13 :   -36.4951092468091
          14 :    26.6602773177374
          15 :   -19.9096213792618
          16 :    16.7155781019040
          17 :   -16.0470463435427
          18 :    16.0883302468999
          19 :   -15.2270681338771
          20 :    12.7913010290101
          21 :   -9.20866526192430
[...]
00029 suncat0233 pw.x -in pw.inp   Done                     01/16/2018 14:27:49
00030 suncat0233 pw.x -in pw.inp   Done                     01/16/2018 14:27:49
00031 suncat0233 pw.x -in pw.inp   Done                     01/16/2018 14:27:49

[...]

     Total force =     0.120328     Total SCF correction =     0.009957

[...]

     Total force =     0.065312     Total SCF correction =     0.006067

[...]

   This run was terminated on:  15: 5:57  16Jan2018

[...]

     Program PWSCF v.5.1rc2 (svn rev. 11289) starts on 16Jan2018 at 15: 6: 3

[...]

     Program PWSCF v.5.1rc2 (svn rev. 11289) starts on 16Jan2018 at 15:18: 3

[...]

   This run was terminated on:  15:30: 5  16Jan2018

[...]

     Program PWSCF v.5.1rc2 (svn rev. 11289) starts on 16Jan2018 at 15:42:19

     Current dimensions of program PWSCF are:
     Max number of different atomic species (ntypx) = 10
     Max number of k-points (npk) =  40000
     Max angular momentum in pseudopotentials (lmaxx) =  3
     Presently stress not available with electric field

     IMPORTANT: XC functional enforced from input :
     Exchange-correlation      = BEEF-VDW ( 1  4 27 13 2)
     Any further DFT definition will be discarded
     Please, verify this is what you really want

     Subspace diagonalization in iterative solution of the eigenvalue problem:
     a serial algorithm will be used

     bravais-lattice index     =            0
     lattice parameter (alat)  =       1.8897  a.u.
     unit-cell volume          =    4204.8134 (a.u.)^3
     number of atoms/cell      =           13
     number of atomic types    =            2
     number of electrons       =       181.00
     number of Kohn-Sham states=          100
     kinetic-energy cutoff     =      36.7493  Ry
     charge density cutoff     =     367.4932  Ry
     convergence threshold     =      1.0E-05
     mixing beta               =       0.3000
     number of iterations used =           10  plain     mixing
     Exchange-correlation      = BEEF-VDW ( 1  4 27 13 2)
     nstep                     =           50

     celldm(1)=   1.889726  celldm(2)=   0.000000  celldm(3)=   0.000000
     celldm(4)=   0.000000  celldm(5)=   0.000000  celldm(6)=   0.000000

     crystal axes: (cart. coord. in units of alat)
               a(1) = (   5.426750   0.000000   0.000000 )
               a(2) = (   2.713375   4.699703   0.000000 )
               a(3) = (   0.000000   0.000000  24.430923 )

     reciprocal axes: (cart. coord. in units 2 pi/alat)
               b(1) = (  0.184272 -0.106390  0.000000 )
               b(2) = (  0.000000  0.212779  0.000000 )
               b(3) = (  0.000000  0.000000  0.040932 )

     PseudoPot. # 1 for Rh read from file:
     /afs/slac.stanford.edu/u/if/mamunm/psp/gbrv1.5pbe/Rh.UPF
     MD5 check sum: 761627e959a2e3a1f56b0b5fe687810e
     Pseudo is Ultrasoft + core correction, Zval = 15.0
     Generated by new atomic code, or converted to UPF format
     Using radial grid of  969 points,  7 beta functions with:
                l(1) =   0
                l(2) =   0
                l(3) =   1
                l(4) =   1
                l(5) =   2
                l(6) =   2
                l(7) =   2
     Q(r) pseudized with  8 coefficients,  rinner =    1.200   1.200   1.200
                                                       1.200   1.200

     PseudoPot. # 2 for H  read from file:
     /afs/slac.stanford.edu/u/if/mamunm/psp/gbrv1.5pbe/H.UPF
     MD5 check sum: 761ae9a214b05c3daf00ab9f6b793d6f
     Pseudo is Ultrasoft, Zval =  1.0
     Generated by new atomic code, or converted to UPF format
     Using radial grid of  615 points,  2 beta functions with:
                l(1) =   0
                l(2) =   0
     Q(r) pseudized with  8 coefficients,  rinner =    0.700

     vdW kernel table read from file vdW_kernel_table
     MD5 check sum: 095c7af220d748ca6e76c0b4c6cfb241

     atomic species   valence    mass     pseudopotential
        Rh1           15.00   102.90550     Rh( 1.00)
        H1             1.00     1.00800     H ( 1.00)

     No symmetry found

   Cartesian axes

     site n.     atom                  positions (alat units)
         1           Rh1 tau(   1) = (   1.3566875   0.7832839  10.0000000  )
         2           Rh1 tau(   2) = (   4.0700625   0.7832839  10.0000000  )
         3           Rh1 tau(   3) = (   2.7133750   3.1331356  10.0000000  )
         4           Rh1 tau(   4) = (   5.4267500   3.1331356  10.0000000  )
         5           Rh1 tau(   5) = (   5.4267500   1.5665678  12.2154614  )
         6           Rh1 tau(   6) = (   2.7133750   1.5665678  12.2154614  )
         7           Rh1 tau(   7) = (   6.7834375   3.9164194  12.2154614  )
         8           Rh1 tau(   8) = (   4.0700625   3.9164194  12.2154614  )
         9           Rh1 tau(   9) = (   8.1186610   4.6949899  14.4326822  )
        10           Rh1 tau(  10) = (   5.4482345   4.6949988  14.4327063  )
        11           Rh1 tau(  11) = (   6.7834262   2.3557897  14.3906058  )
        12           Rh1 tau(  12) = (   4.0700624   2.3434641  14.4047477  )
        13           H1  tau(  13) = (   1.3567070   0.0160840  15.5446250  )

     number of k points=    20  Fermi-Dirac smearing, width (Ry)=  0.0110
                       cart. coord. in units 2pi/alat
        k(    1) = (   0.0000000   0.0000000   0.0000000), wk =   0.0555556
        k(    2) = (   0.0000000   0.0354632   0.0000000), wk =   0.1111111
        k(    3) = (   0.0000000   0.0709265   0.0000000), wk =   0.1111111
        k(    4) = (   0.0000000  -0.1063897   0.0000000), wk =   0.0555556
        k(    5) = (   0.0307121  -0.0177316   0.0000000), wk =   0.1111111
        k(    6) = (   0.0307121   0.0177316   0.0000000), wk =   0.1111111
        k(    7) = (   0.0307121   0.0531948   0.0000000), wk =   0.1111111
        k(    8) = (   0.0307121  -0.1241213   0.0000000), wk =   0.1111111
        k(    9) = (   0.0307121  -0.0886581   0.0000000), wk =   0.1111111
        k(   10) = (   0.0307121  -0.0531948   0.0000000), wk =   0.1111111
        k(   11) = (   0.0614241  -0.0354632   0.0000000), wk =   0.1111111
        k(   12) = (   0.0614241   0.0000000   0.0000000), wk =   0.1111111
        k(   13) = (   0.0614241   0.0354632   0.0000000), wk =   0.1111111
        k(   14) = (   0.0614241  -0.1418529   0.0000000), wk =   0.1111111
        k(   15) = (   0.0614241  -0.1063897   0.0000000), wk =   0.1111111
        k(   16) = (   0.0614241  -0.0709265   0.0000000), wk =   0.1111111
        k(   17) = (  -0.0921362   0.0531948   0.0000000), wk =   0.0555556
        k(   18) = (  -0.0921362   0.0886581   0.0000000), wk =   0.1111111
        k(   19) = (  -0.0921362   0.1241213   0.0000000), wk =   0.1111111
        k(   20) = (  -0.0921362  -0.0531948   0.0000000), wk =   0.0555556

     Largest allocated arrays     est. size (Mb)     dimensions
     Largest temporary arrays     est. size (Mb)     dimensions

     Initial potential from superposition of free atoms
     Check: negative starting charge=   -0.656964

     starting charge  174.99881, renormalised to  181.00000

[...]

     *
     * You are using vdW-DF for exchange-correlation in this calculation.
     * Please cite the following three references that made this development
     * possible:
     *
     *   M. Dion, H. Rydberg, E. Schroder, D. C. Langreth, and
     *   B. I. Lundqvist, Phys. Rev. Lett. 92, 246401 (2004).
     *
     *   T. Thonhauser, V. R. Cooper, S. Li, A. Puzder, P. Hyldgaard, and
     *   D. C. Langreth, Phys. Rev. B 76, 125112 (2007).
     *
     *   G. Roman-Perez and J. M. Soler, Phys. Rev. Lett. 103, 096102 (2009).
     *
     *
     * If you are using vdW-DF2, please also cite:
     *
     *   K. Lee, E. D. Murray, L. Kong, B. I. Lundqvist, and
     *   D. C. Langreth, Phys. Rev. B 82, 081101(R) (2010).
     *
     *
     * If you are calculating the stress with vdW-DF, please also cite:
     *
     *   R. Sabatini, E. Kucukbenli, B. Kolb, T. Thonhauser, and
     *   S. de Gironcoli, J. Phys.: Condens. Matter 24, 424209 (2012).
     *

     Carrying out vdW-DF run using the following parameters:

     Nqs =      20    Nr_points =    1024   r_max =   100.000
     q_mesh =
               0.00001000     0.04494208     0.09755937     0.15916263
               0.23128650     0.31572767     0.41458969     0.53033537
               0.66584808     0.82450364     1.01025438     1.22772762
               1.48234092     1.78043706     2.12944203     2.53805004
               3.01644009     3.57652955     4.23227104     5.00000000

     Gradients computed in reciprocal space

[...]

     Starting wfc are  145 randomized atomic wfcs

     Self-consistent Calculation

[...]

     total energy              =   -2067.58696470 Ry
     Harris-Foulkes estimate   =   -2067.58696430 Ry
     estimated scf accuracy    <       0.00005652 Ry

     iteration # 18     ecut=    36.75 Ry     beta=0.30
     Davidson diagonalization with overlap
     ethr =  3.12E-08,  avg # of iterations =  1.4

[...]

     negative rho (up, down):  6.908E-01 0.000E+00

     Adding external electric field

     Computed dipole along edir(3) :
        Dipole               -0.0336 Ry au,         -0.0854 Debye
        Dipole field         -0.0001 Ry au

        Potential amp.        0.0090 Ry
        Total length         45.0136 bohr

     End of self-consistent calculation

[...]

          k = 0.0614-0.0709 0.0000 ( 15838 PWs)   bands (ev):

[...]

          k =-0.0921-0.0532 0.0000 ( 15852 PWs)   bands (ev):

   -45.2842 -45.2814 -45.2058 -45.2000 -45.1691 -45.1570 -45.1404 -45.1222
   -45.1028 -45.0664 -44.9391 -44.9297 -44.9236 -44.9155 -44.8531 -44.8440
   -44.8303 -44.8225 -44.7369 -44.7123 -44.7060 -44.7036 -44.6732 -44.6710
   -44.6099 -44.6009 -44.5856 -44.5663 -44.5615 -44.5413 -44.5247 -44.5168
   -44.5083 -44.5061 -44.4968 -44.4905  -4.0283  -3.5879  -3.4941  -2.9943
    -2.9558  -2.9524  -2.9241  -2.7113  -2.6851  -2.5662  -2.5161  -2.4555
    -2.4308  -2.1854  -2.1598  -2.0813  -2.0550  -1.7011  -1.6719  -1.5695
    -1.5569  -1.5046  -1.4484  -1.1426  -1.0993  -0.7819  -0.7717  -0.7469
    -0.6562  -0.5766  -0.5674  -0.4168  -0.3941  -0.3661  -0.3380  -0.2980
    -0.2891  -0.2662  -0.2447  -0.2191   0.2140   0.2262   0.3109   0.3981
     0.4552   0.4767   0.6899   0.7313   0.7650   0.8328   0.9259   0.9442
     1.2042   1.2751   1.3492   1.3638   1.5004   1.6662   1.8996   1.9297
     2.0842   2.0940   2.3403   2.3584

     the Fermi energy is     1.6777 ev

!    total energy              =   -2067.58696103 Ry
     Harris-Foulkes estimate   =   -2067.58696671 Ry
     estimated scf accuracy    <       0.00000754 Ry

     The total energy is the sum of the following terms:

     one-electron contribution =  -19213.56684101 Ry
     hartree contribution      =    9647.79016573 Ry
     xc contribution           =    -372.90402058 Ry
     ewald contribution        =    7871.21801296 Ry
     electric field correction =       0.00000337 Ry
     smearing contrib. (-TS)   =      -0.12428150 Ry

     convergence has been achieved in  18 iterations

 BEEF-vdW xc energy contributions
           1 :   -324.825023267650
           2 :    298.410103593018
           3 :   -252.673426086505
           4 :    198.940558557097
           5 :   -148.680634369591
           6 :    109.940848684941
           7 :   -85.4914604920850
           8 :    73.1136132479805
           9 :   -67.6013294847930
          10 :    63.4442290189645
          11 :   -57.0292130039533
          12 :    47.5687659812464
          13 :   -36.6284008570121
          14 :    26.7422499756352
          15 :   -19.9068034617385
          16 :    16.6476155918502
          17 :   -15.9726547774497
          18 :    16.0696381312027
          19 :   -15.2930593259653
          20 :    12.9236067020852
          21 :   -9.35510846945124
          22 :    5.69652563649942
          23 :   -3.07775190539314
          24 :    2.04859100260285
          25 :   -2.35567669397545
          26 :    3.15891251654432
          27 :   -3.52668994966501
          28 :    2.92771211865062
          29 :   -1.46308084626645
          30 :  -0.258758721881577
          31 :   -32.0962785882050
          32 :   -24.0899569166925

     Forces acting on atoms (Ry/au):

     negative rho (up, down):  6.908E-01 0.000E+00
     atom    1 type  1   force =    -0.00000007   -0.00023038    0.00679446
     atom    2 type  1   force =     0.00000209    0.00010100    0.00654758
     atom    3 type  1   force =     0.00207171   -0.00069648    0.00550404
     atom    4 type  1   force =    -0.00207023   -0.00069819    0.00550047
     atom    5 type  1   force =    -0.00122489   -0.00168504   -0.00727877
     atom    6 type  1   force =     0.00122455   -0.00168131   -0.00727614
     atom    7 type  1   force =     0.00000177   -0.00076310   -0.00559161
     atom    8 type  1   force =    -0.00000247    0.00206989   -0.00310346
     atom    9 type  1   force =     0.00140901    0.00120504   -0.00002632
     atom   10 type  1   force =    -0.00141737    0.00120473   -0.00001091
     atom   11 type  1   force =     0.00000504    0.00028577   -0.00035407
     atom   12 type  1   force =     0.00000016   -0.00045430   -0.00063824
     atom   13 type  2   force =     0.00000070    0.00134238   -0.00006703

     Total force =     0.018140     Total SCF correction =     0.019610
     SCF correction compared to forces is large: reduce conv_thr to get better values

     entering subroutine stress ...

     negative rho (up, down):  6.908E-01 0.000E+00
          total   stress  (Ry/bohr**3)                   (kbar)     P=  -30.62
  -0.00021340  -0.00000000   0.00000000        -31.39     -0.00      0.00
  -0.00000000  -0.00021563   0.00000577         -0.00    -31.72      0.85
   0.00000000   0.00000577  -0.00019552          0.00      0.85    -28.76

 !ASE

     Writing output data file calc.save

     General routines

     Parallel routines

   This run was terminated on:  15:53:44  16Jan2018

   JOB DONE.
Job  /afs/slac/g/suncat/bin/suncat-tsmpirun -x LD_LIBRARY_PATH -wdir /scratch/qe842475_m2Zl8 pw.x -in pw.inp

TID   HOST_NAME   COMMAND_LINE            STATUS            TERMINATION_TIME
00000 suncat0273 pw.x -in pw.inp   Done                     01/16/2018 15:53:44
00001 suncat0273 pw.x -in pw.inp   Done                     01/16/2018 15:53:44
00002 suncat0273 pw.x -in pw.inp   Done                     01/16/2018 15:53:44
00003 suncat0273 pw.x -in pw.inp   Done                     01/16/2018 15:53:44
00004 suncat0273 pw.x -in pw.inp   Done                     01/16/2018 15:53:44
00005 suncat0273 pw.x -in pw.inp   Done                     01/16/2018 15:53:44
00006 suncat0273 pw.x -in pw.inp   Done                     01/16/2018 15:53:44
00007 suncat0273 pw.x -in pw.inp   Done                     01/16/2018 15:53:44
00008 suncat0268 pw.x -in pw.inp   Done                     01/16/2018 15:53:44
00009 suncat0268 pw.x -in pw.inp   Done                     01/16/2018 15:53:44
00010 suncat0268 pw.x -in pw.inp   Done                     01/16/2018 15:53:44
00011 suncat0268 pw.x -in pw.inp   Done                     01/16/2018 15:53:44
00012 suncat0268 pw.x -in pw.inp   Done                     01/16/2018 15:53:44
00013 suncat0268 pw.x -in pw.inp   Done                     01/16/2018 15:53:44
00014 suncat0268 pw.x -in pw.inp   Done                     01/16/2018 15:53:44
00015 suncat0268 pw.x -in pw.inp   Done                     01/16/2018 15:53:44
00016 suncat0266 pw.x -in pw.inp   Done                     01/16/2018 15:53:44
00017 suncat0266 pw.x -in pw.inp   Done                     01/16/2018 15:53:44
00018 suncat0266 pw.x -in pw.inp   Done                     01/16/2018 15:53:44
00019 suncat0266 pw.x -in pw.inp   Done                     01/16/2018 15:53:44
00020 suncat0266 pw.x -in pw.inp   Done                     01/16/2018 15:53:44
00021 suncat0266 pw.x -in pw.inp   Done                     01/16/2018 15:53:44
00022 suncat0266 pw.x -in pw.inp   Done                     01/16/2018 15:53:44
00023 suncat0266 pw.x -in pw.inp   Done                     01/16/2018 15:53:44
00024 suncat0233 pw.x -in pw.inp   Done                     01/16/2018 15:53:45
00025 suncat0233 pw.x -in pw.inp   Done                     01/16/2018 15:53:45
00026 suncat0233 pw.x -in pw.inp   Done                     01/16/2018 15:53:44
00027 suncat0233 pw.x -in pw.inp   Done                     01/16/2018 15:53:44
00028 suncat0233 pw.x -in pw.inp   Done                     01/16/2018 15:53:45
00029 suncat0233 pw.x -in pw.inp   Done                     01/16/2018 15:53:44
00030 suncat0233 pw.x -in pw.inp   Done                     01/16/2018 15:53:45
00031 suncat0233 pw.x -in pw.inp   Done                     01/16/2018 15:53:45