     Program PWSCF v.5.1rc2 (svn rev. 11289) starts on  3May2018 at  9:35:15

     Current dimensions of program PWSCF are:
     Max number of different atomic species (ntypx) = 10
     Max number of k-points (npk) =  40000
     Max angular momentum in pseudopotentials (lmaxx) =  3
     Presently stress not available with electric field

     IMPORTANT: XC functional enforced from input :
     Exchange-correlation      = BEEF-VDW ( 1  4 27 13 2)
     Any further DFT definition will be discarded
     Please, verify this is what you really want

     Subspace diagonalization in iterative solution of the eigenvalue problem:
     a serial algorithm will be used

     bravais-lattice index     =            0
     lattice parameter (alat)  =       1.8897  a.u.
     unit-cell volume          =    5182.3421 (a.u.)^3
     number of atoms/cell      =           13
     number of atomic types    =            2
     number of electrons       =       162.00
     number of Kohn-Sham states=           91
     kinetic-energy cutoff     =      36.7493  Ry
     charge density cutoff     =     367.4932  Ry
     convergence threshold     =      1.0E-05
     mixing beta               =       0.3000
     number of iterations used =           10  plain     mixing
     Exchange-correlation      = BEEF-VDW ( 1  4 27 13 2)
     nstep                     =           50

     celldm(1)=   1.889726  celldm(2)=   0.000000  celldm(3)=   0.000000
     celldm(4)=   0.000000  celldm(5)=   0.000000  celldm(6)=   0.000000

     crystal axes: (cart. coord. in units of alat)
               a(1) = (   5.970602   0.000000   0.000000 )
               a(2) = (   2.985301   5.170693   0.000000 )
               a(3) = (   0.000000   0.000000  24.874976 )

     reciprocal axes: (cart. coord. in units 2 pi/alat)
               b(1) = (  0.167487 -0.096699  0.000000 )
               b(2) = (  0.000000  0.193398  0.000000 )
               b(3) = (  0.000000  0.000000  0.040201 )

     PseudoPot. # 1 for Nb read from file:
     /u/if/mamunm/psp/gbrv1.5pbe/Nb.UPF
     MD5 check sum: 573aab8a2fa660278ed4a62cd769473f
     Pseudo is Ultrasoft + core correction, Zval = 13.0
     Generated by new atomic code, or converted to UPF format
     Using radial grid of  887 points,  6 beta functions with:
                l(1) =   0
                l(2) =   0
                l(3) =   1
                l(4) =   1
                l(5) =   2
                l(6) =   2
     Q(r) pseudized with  6 coefficients,  rinner =    1.000   1.000   1.000
                                                       1.000   1.000

     PseudoPot. # 2 for O  read from file:
     /u/if/mamunm/psp/gbrv1.5pbe/O.UPF
     MD5 check sum: 734c27235a0248c51dbae37a1fbe46ec
     Pseudo is Ultrasoft + core correction, Zval =  6.0
     Generated by new atomic code, or converted to UPF format
     Using radial grid of  737 points,  5 beta functions with:
                l(1) =   0
                l(2) =   0
                l(3) =   1
                l(4) =   1
                l(5) =   2
     Q(r) pseudized with  8 coefficients,  rinner =    0.900   0.900   0.900
                                                       0.900   0.900

     vdW kernel table read from file vdW_kernel_table
     MD5 check sum: 095c7af220d748ca6e76c0b4c6cfb241

     atomic species   valence    mass     pseudopotential
        Nb1           13.00    92.90637     Nb( 1.00)
        O1             6.00    15.99900     O ( 1.00)

     No symmetry found

   Cartesian axes

     site n.     atom                  positions (alat units)
         1           Nb1 tau(   1) = (   1.4926504   0.8617821  10.0000000  )
         2           Nb1 tau(   2) = (   4.4779512   0.8617821  10.0000000  )
         3           Nb1 tau(   3) = (   2.9853008   3.4471284  10.0000000  )
         4           Nb1 tau(   4) = (   5.9706016   3.4471284  10.0000000  )
         5           Nb1 tau(   5) = (   5.9706016   1.7235642  12.4374879  )
         6           Nb1 tau(   6) = (   2.9853008   1.7235642  12.4374879  )
         7           Nb1 tau(   7) = (   7.4632520   4.3089105  12.4374879  )
         8           Nb1 tau(   8) = (   4.4779512   4.3089105  12.4374879  )
         9           Nb1 tau(   9) = (   0.0000000   0.0000000  14.8749758  )
        10           Nb1 tau(  10) = (   2.9853008   0.0000000  14.8749758  )
        11           Nb1 tau(  11) = (   1.4926504   2.5853463  14.8749758  )
        12           Nb1 tau(  12) = (   4.4779512   2.5853463  14.8749758  )
        13           O1  tau(  13) = (   2.9853008   1.7235642  16.3699758  )

     number of k points=    20  Fermi-Dirac smearing, width (Ry)=  0.0110
                       cart. coord. in units 2pi/alat
        k(    1) = (   0.0000000   0.0000000   0.0000000), wk =   0.0555556
        k(    2) = (   0.0000000   0.0322329   0.0000000), wk =   0.1111111
        k(    3) = (   0.0000000   0.0644659   0.0000000), wk =   0.1111111
        k(    4) = (   0.0000000  -0.0966988   0.0000000), wk =   0.0555556
        k(    5) = (   0.0279146  -0.0161165   0.0000000), wk =   0.1111111
        k(    6) = (   0.0279146   0.0161165   0.0000000), wk =   0.1111111
        k(    7) = (   0.0279146   0.0483494   0.0000000), wk =   0.1111111
        k(    8) = (   0.0279146  -0.1128153   0.0000000), wk =   0.1111111
        k(    9) = (   0.0279146  -0.0805824   0.0000000), wk =   0.1111111
        k(   10) = (   0.0279146  -0.0483494   0.0000000), wk =   0.1111111
        k(   11) = (   0.0558291  -0.0322329   0.0000000), wk =   0.1111111
        k(   12) = (   0.0558291   0.0000000   0.0000000), wk =   0.1111111
        k(   13) = (   0.0558291   0.0322329   0.0000000), wk =   0.1111111
        k(   14) = (   0.0558291  -0.1289318   0.0000000), wk =   0.1111111
        k(   15) = (   0.0558291  -0.0966988   0.0000000), wk =   0.1111111
        k(   16) = (   0.0558291  -0.0644659   0.0000000), wk =   0.1111111
        k(   17) = (  -0.0837437   0.0483494   0.0000000), wk =   0.0555556
        k(   18) = (  -0.0837437   0.0805824   0.0000000), wk =   0.1111111
        k(   19) = (  -0.0837437   0.1128153   0.0000000), wk =   0.1111111
        k(   20) = (  -0.0837437  -0.0483494   0.0000000), wk =   0.0555556

     Largest allocated arrays     est. size (Mb)     dimensions
     Largest temporary arrays     est. size (Mb)     dimensions

     Initial potential from superposition of free atoms
     Check: negative starting charge=   -0.005260

     starting charge  161.96720, renormalised to  162.00000

     negative rho (up, down):  5.261E-03 0.000E+00

     *
     * You are using vdW-DF for exchange-correlation in this calculation.
     * Please cite the following three references that made this development
     * possible:
     *
     *   M. Dion, H. Rydberg, E. Schroder, D. C. Langreth, and
     *   B. I. Lundqvist, Phys. Rev. Lett. 92, 246401 (2004).
     *
     *   T. Thonhauser, V. R. Cooper, S. Li, A. Puzder, P. Hyldgaard, and
     *   D. C. Langreth, Phys. Rev. B 76, 125112 (2007).
     *
     *   G. Roman-Perez and J. M. Soler, Phys. Rev. Lett. 103, 096102 (2009).
     *
     *
     * If you are using vdW-DF2, please also cite:
     *
     *   K. Lee, E. D. Murray, L. Kong, B. I. Lundqvist, and
     *   D. C. Langreth, Phys. Rev. B 82, 081101(R) (2010).
     *
     *
     * If you are calculating the stress with vdW-DF, please also cite:
     *
     *   R. Sabatini, E. Kucukbenli, B. Kolb, T. Thonhauser, and
     *   S. de Gironcoli, J. Phys.: Condens. Matter 24, 424209 (2012).
     *

     Carrying out vdW-DF run using the following parameters:

     Nqs =      20    Nr_points =    1024   r_max =   100.000
     q_mesh =
               0.00001000     0.04494208     0.09755937     0.15916263
               0.23128650     0.31572767     0.41458969     0.53033537
               0.66584808     0.82450364     1.01025438     1.22772762
               1.48234092     1.78043706     2.12944203     2.53805004
               3.01644009     3.57652955     4.23227104     5.00000000

     Gradients computed in reciprocal space

     Adding external electric field

     Computed dipole along edir(3) :
        Dipole               -0.0090 Ry au,         -0.0229 Debye
        Dipole field         -0.0000 Ry au

        Potential amp.        0.0020 Ry
        Total length         45.8317 bohr

     Starting wfc are  160 randomized atomic wfcs

     Self-consistent Calculation

     iteration #  1     ecut=    36.75 Ry     beta=0.30
     Davidson diagonalization with overlap
     ethr =  1.00E-02,  avg # of iterations =  2.0

[...]

     total energy              =   -1452.79963472 Ry
     Harris-Foulkes estimate   =   -1455.48130392 Ry
     estimated scf accuracy    <       5.95664689 Ry

[...]

     End of self-consistent calculation

          k = 0.0000 0.0000 0.0000 ( 19435 PWs)   bands (ev):

   -53.4956 -53.3797 -53.3796 -53.3527 -53.2857 -53.2384 -53.2133 -53.2132
   -53.2065 -53.1477 -53.1418 -53.1417 -29.9416 -29.8742 -29.8742 -29.8036
   -29.7895 -29.7895 -29.7742 -29.7185 -29.7148 -29.7147 -29.4860 -29.3907
   -29.3906 -29.3354 -29.2566 -29.2566 -29.2521 -29.2131 -29.1965 -29.1964
   -29.0745 -29.0712 -29.0711 -29.0276 -29.0227 -29.0227 -28.9758 -28.9758
   -28.9650 -28.9488 -28.9428 -28.9428 -28.8529 -28.8529 -28.7765 -28.7765
   -15.7683  -3.7147  -2.6587  -2.2276  -2.2276  -2.2260  -1.9216  -1.7935
    -1.7935  -1.6007  -1.3056  -1.2769  -1.2769  -1.0775  -1.0642  -1.0642
    -0.8100  -0.8100  -0.3664   0.2432   0.2432   0.4725   1.1463   1.1908
     1.1908   1.4855   1.7691   1.8696   1.8696   2.0641   2.0771   2.0771
     2.1645   2.1645   2.1939   2.2101   2.2213   2.2213   2.4343   2.4343
     2.9183   3.0966   3.0966

[...]

          k =-0.0837 0.0483 0.0000 ( 19524 PWs)   bands (ev):

[...]

     the Fermi energy is     1.7742 ev

!    total energy              =   -1454.84264971 Ry
     Harris-Foulkes estimate   =   -1454.84267934 Ry
     estimated scf accuracy    <       0.00000725 Ry

     The total energy is the sum of the following terms:

     one-electron contribution =  -11835.81228164 Ry
     hartree contribution      =    5912.14649474 Ry
     xc contribution           =    -235.70873016 Ry
     ewald contribution        =    4704.64815299 Ry
     electric field correction =       0.00008469 Ry
     smearing contrib. (-TS)   =      -0.11637032 Ry

     convergence has been achieved in  17 iterations

 BEEF-vdW xc energy contributions
           1 :   -202.068966213385
           2 :    183.503823789465
           3 :   -151.946498864051
           4 :    115.940899171478
           5 :   -83.6004750623258
           6 :    59.9272072926648
           7 :   -45.8149939102347
           8 :    38.7757565933241
           9 :   -34.7953863508617
          10 :    30.3318646919338
          11 :   -23.6348448948203
          12 :    14.9806095606247
          13 :   -5.97187137486338
          14 :   -1.59772344690319
          15 :    6.70535698208784
          16 :   -9.48949526973988
          17 :    10.9748751279849
          18 :   -12.3754211953693
          19 :    14.3901621398235
          20 :   -16.8795465664497
          21 :    19.0474113481298
          22 :   -19.9710015159546
          23 :    19.1461006156270
          24 :   -16.7581011536907
          25 :    13.5642378911302
          26 :   -10.4951498060998
          27 :    8.21115708931120
          28 :   -6.85033403397233
          29 :    6.07129001415842
          30 :   -5.33588624123408
          31 :   -23.2830138822198
          32 :   -17.5268289523570

     Forces acting on atoms (Ry/au):

     negative rho (up, down):  5.061E-03 0.000E+00
     atom    1 type  1   force =     0.00000156    0.00000240   -0.00285896
     atom    2 type  1   force =    -0.00000179   -0.00000059   -0.00286141
     atom    3 type  1   force =    -0.00000272   -0.00000191   -0.00285662
     atom    4 type  1   force =     0.00000209   -0.00000003   -0.00757000
     atom    5 type  1   force =    -0.00000193   -0.00035271   -0.00214583
     atom    6 type  1   force =    -0.00000129    0.00000019    0.00544530
     atom    7 type  1   force =     0.00030436    0.00017642   -0.00214758
     atom    8 type  1   force =    -0.00030584    0.00017557   -0.00214838
     atom    9 type  1   force =     0.00000140    0.00000072   -0.02972373
     atom   10 type  1   force =     0.00000173    0.02810741    0.06369161
     atom   11 type  1   force =     0.02434109   -0.01405328    0.06368792
     atom   12 type  1   force =    -0.02434160   -0.01405451    0.06369642
     atom   13 type  2   force =     0.00000293    0.00000034   -0.14420872

     Total force =     0.190315     Total SCF correction =     0.007217

     entering subroutine stress ...

     negative rho (up, down):  5.061E-03 0.000E+00
          total   stress  (Ry/bohr**3)                   (kbar)     P=  -25.67
  -0.00023651   0.00000000  -0.00000000        -34.79      0.00     -0.00
   0.00000000  -0.00023651  -0.00000000          0.00    -34.79     -0.00
  -0.00000000  -0.00000000  -0.00005045         -0.00     -0.00     -7.42

     BFGS Geometry Optimization

     number of scf cycles    =   1
     number of bfgs steps    =   0

     energy   new            =   -1454.8426497072 Ry

     new trust radius        =       0.1442087229 bohr
     new conv_thr            =       0.0000099958 Ry

ATOMIC_POSITIONS (crystal)
Nb1      0.166666667   0.166666667   0.402010442    0   0   0
Nb1      0.666666667   0.166666667   0.402010442    0   0   0
Nb1      0.166666667   0.666666667   0.402010442    0   0   0
Nb1      0.666666667   0.666666667   0.402010442    0   0   0
Nb1      0.833333333   0.333333333   0.500000000    0   0   0
Nb1      0.333333333   0.333333333   0.500000000    0   0   0
Nb1      0.833333333   0.833333333   0.500000000    0   0   0
Nb1      0.333333333   0.833333333   0.500000000    0   0   0
Nb1      0.000000087   0.000000073   0.597357231
Nb1      0.498561874   0.002876559   0.599344500
Nb1      0.002876480   0.498561764   0.599344422
Nb1      0.498561773   0.498561638   0.599344602
O1       0.333333576   0.333333368   0.655022298

     Writing output data file calc.save
     Check: negative starting charge=   -0.005260
     NEW-OLD atomic charge density approx. for the potential
     Check: negative starting charge=   -0.005245

[...]

     energy   old            =   -1454.8426497072 Ry
     energy   new            =   -1454.8749504348 Ry

     CASE: energy  _new < energy  _old

[...]

     Total force =     0.018536     Total SCF correction =     0.000895

[...]

     Total force =     0.003523     Total SCF correction =     0.000493
     SCF correction compared to forces is large: reduce conv_thr to get better values

[...]

     number of scf cycles    =  12
     number of bfgs steps    =  11

     energy   old            =   -1454.9230846243 Ry
     energy   new            =   -1454.9236683696 Ry

     CASE: energy  _new < energy  _old

     new trust radius        =       0.0064007629 bohr
     new conv_thr            =       0.0000001000 Ry

ATOMIC_POSITIONS (crystal)
Nb1      0.166666667   0.166666667   0.402010442    0   0   0
Nb1      0.666666667   0.166666667   0.402010442    0   0   0
Nb1      0.166666667   0.666666667   0.402010442    0   0   0
Nb1      0.666666667   0.666666667   0.402010442    0   0   0
Nb1      0.833333333   0.333333333   0.500000000    0   0   0
Nb1      0.333333333   0.333333333   0.500000000    0   0   0
Nb1      0.833333333   0.833333333   0.500000000    0   0   0
Nb1      0.333333333   0.833333333   0.500000000    0   0   0
Nb1     -0.000000468   0.000000677   0.581634397
Nb1      0.499974580   0.000055147   0.602288044
Nb1      0.000055066   0.499973480   0.602288118
Nb1      0.499973601   0.499970456   0.602287835
O1       0.333329297   0.333333174   0.647581526

     Writing output data file calc.save
     Check: negative starting charge=   -0.005244
     NEW-OLD atomic charge density approx. for the potential
     Check: negative starting charge=   -0.005246

[...]

     Self-consistent Calculation

[...]

     Threshold (ethr) on eigenvalues was too large:
     Diagonalizing with lowered threshold

     Davidson diagonalization with overlap
     ethr =  2.79E-08,  avg # of iterations =  3.1

[...]

     total energy              =   -1454.92368120 Ry
     Harris-Foulkes estimate   =   -1454.92368123 Ry
     estimated scf accuracy    <       0.00000012 Ry

     iteration #  8     ecut=    36.75 Ry     beta=0.30
     Davidson diagonalization with overlap
     ethr =  7.60E-11,  avg # of iterations =  3.9

[...]

     negative rho (up, down):  5.040E-03 0.000E+00

     Adding external electric field

     Computed dipole along edir(3) :
        Dipole                0.0188 Ry au,          0.0477 Debye
        Dipole field          0.0000 Ry au

        Potential amp.       -0.0042 Ry
        Total length         45.8317 bohr

     End of self-consistent calculation

[...]

          k = 0.0558-0.0645 0.0000 ( 19505 PWs)   bands (ev):

[...]

          k =-0.0837-0.0483 0.0000 ( 19524 PWs)   bands (ev):

   -53.2783 -53.2465 -53.2121 -53.0195 -53.0088 -52.9533 -52.9410 -52.9349
   -52.9063 -52.8442 -52.8154 -52.6689 -29.7029 -29.5069 -29.4609 -29.4507
   -29.4475 -29.3802 -29.3424 -29.3252 -29.2987 -29.2705 -29.2560 -29.2381
   -29.2191 -29.2026 -29.1660 -29.0493 -29.0393 -29.0267 -28.9625 -28.9550
   -28.9428 -28.9344 -28.9159 -28.9029 -28.8604 -28.8396 -28.7864 -28.7580
   -28.7381 -28.6987 -28.6900 -28.6022 -28.5837 -28.4788 -28.4074 -28.3320
   -17.0402  -3.6781  -3.4052  -3.1330  -1.8602  -1.7763  -0.9980  -0.7798
    -0.6360  -0.5568  -0.4833  -0.3999  -0.3165  -0.1562   0.0026   0.1308
     0.1876   0.2817   0.3778   0.5766   0.6617   0.9092   0.9511   0.9755
     1.0246   1.1041   1.2594   1.3349   1.5051   1.5388   1.6532   1.6716
     1.7279   1.7827   1.9529   2.1029   2.1784   2.1833   2.3480   2.4864
     2.6798   2.9298   3.0558

     the Fermi energy is     2.0292 ev

!    total energy              =   -1454.92368121 Ry
     Harris-Foulkes estimate   =   -1454.92368128 Ry
     estimated scf accuracy    <       0.00000003 Ry

     The total energy is the sum of the following terms:

     one-electron contribution =  -11934.20325660 Ry
     hartree contribution      =    5962.48809710 Ry
     xc contribution           =    -235.99060576 Ry
     ewald contribution        =    4752.88761164 Ry
     electric field correction =       0.00000086 Ry
     smearing contrib. (-TS)   =      -0.10552845 Ry

     convergence has been achieved in   8 iterations

 BEEF-vdW xc energy contributions
           1 :   -202.358707573962
           2 :    183.874122702968
           3 :   -152.399603153034
           4 :    116.393295174092
           5 :   -83.9302125657413
           6 :    60.0301852124914
           7 :   -45.6503306207459
           8 :    38.3876090189576
           9 :   -34.3014522807588
          10 :    29.8793816240695
          11 :   -23.3403339791292
          12 :    14.8809301468823
          13 :   -6.01224614199151
          14 :   -1.53325025127739
          15 :    6.73712265177596
          16 :   -9.68617687503155
          17 :    11.3234799382821
          18 :   -12.7915467997867
          19 :    14.7619778650341
          20 :   -17.1222249710449
          21 :    19.1417777453292
          22 :   -19.9697019489936
          23 :    19.1433815778759
          24 :   -16.8373726118998
          25 :    13.7519588660833
          26 :   -10.7471308407611
          27 :    8.43790619745533
          28 :   -6.96660610306037
          29 :    6.04351155472369
          30 :   -5.20050919327426
          31 :   -23.2999587790248
          32 :   -17.5590024343139

     Forces acting on atoms (Ry/au):

     negative rho (up, down):  5.040E-03 0.000E+00
     atom    1 type  1   force =     0.00168454    0.00097128   -0.00273052
     atom    2 type  1   force =    -0.00168475    0.00097247   -0.00273344
     atom    3 type  1   force =    -0.00000040   -0.00194418   -0.00273258
     atom    4 type  1   force =    -0.00000091    0.00000053    0.00029616
     atom    5 type  1   force =     0.00000297    0.03194965   -0.01121337
     atom    6 type  1   force =    -0.00000402   -0.00000026    0.04478602
     atom    7 type  1   force =    -0.02766929   -0.01597590   -0.01121109
     atom    8 type  1   force =     0.02766874   -0.01597220   -0.01120956
     atom    9 type  1   force =     0.00000477   -0.00000217    0.00019438
     atom   10 type  1   force =    -0.00000587   -0.00012840   -0.00076278
     atom   11 type  1   force =    -0.00011102    0.00006190   -0.00076169
     atom   12 type  1   force =     0.00010884    0.00006760   -0.00076134
     atom   13 type  2   force =     0.00000639   -0.00000033   -0.00116020

     Total force =     0.001782     Total SCF correction =     0.000602
     SCF correction compared to forces is large: reduce conv_thr to get better values

     entering subroutine stress ...

     negative rho (up, down):  5.040E-03 0.000E+00
          total   stress  (Ry/bohr**3)                   (kbar)     P=  -15.39
  -0.00015726  -0.00000000   0.00000000        -23.13     -0.00      0.00
  -0.00000000  -0.00015726  -0.00000000         -0.00    -23.13     -0.00
   0.00000000  -0.00000000   0.00000072          0.00     -0.00      0.11

     bfgs converged in  13 scf cycles and  12 bfgs steps
     (criteria: energy <  1.0E+00, force <  1.9E-03)

     End of BFGS Geometry Optimization

     Final energy   =   -1454.9236812135 Ry
Begin final coordinates

ATOMIC_POSITIONS (crystal)
Nb1      0.166666667   0.166666667   0.402010442    0   0   0
Nb1      0.666666667   0.166666667   0.402010442    0   0   0
Nb1      0.166666667   0.666666667   0.402010442    0   0   0
Nb1      0.666666667   0.666666667   0.402010442    0   0   0
Nb1      0.833333333   0.333333333   0.500000000    0   0   0
Nb1      0.333333333   0.333333333   0.500000000    0   0   0
Nb1      0.833333333   0.833333333   0.500000000    0   0   0
Nb1      0.333333333   0.833333333   0.500000000    0   0   0
Nb1     -0.000000468   0.000000677   0.581634397
Nb1      0.499974580   0.000055147   0.602288044
Nb1      0.000055066   0.499973480   0.602288118
Nb1      0.499973601   0.499970456   0.602287835
O1       0.333329297   0.333333174   0.647581526
End final coordinates

     Writing output data file calc.save

     General routines

     Parallel routines

   This run was terminated on:  11:12:34   3May2018

   JOB DONE.
Job  /afs/slac/g/suncat/bin/suncat-tsmpirun -x LD_LIBRARY_PATH -wdir /scratch/qe710226_sq6M2 pw.x -npool 4 -in pw.inp

TID   HOST_NAME   COMMAND_LINE            STATUS            TERMINATION_TIME
00000 suncat0030 pw.x -npool 4 -i  Done                     05/03/2018 11:12:34
00001 suncat0030 pw.x -npool 4 -i  Done                     05/03/2018 11:12:34
00002 suncat0030 pw.x -npool 4 -i  Done                     05/03/2018 11:12:34
00003 suncat0030 pw.x -npool 4 -i  Done                     05/03/2018 11:12:34
00004 suncat0030 pw.x -npool 4 -i  Done                     05/03/2018 11:12:34
00005 suncat0030 pw.x -npool 4 -i  Done                     05/03/2018 11:12:34
00006 suncat0030 pw.x -npool 4 -i  Done                     05/03/2018 11:12:34
00007 suncat0030 pw.x -npool 4 -i  Done                     05/03/2018 11:12:34
00008 suncat0019 pw.x -npool 4 -i  Done                     05/03/2018 11:12:34
00009 suncat0019 pw.x -npool 4 -i  Done                     05/03/2018 11:12:34
00010 suncat0019 pw.x -npool 4 -i  Done                     05/03/2018 11:12:34
00011 suncat0019 pw.x -npool 4 -i  Done                     05/03/2018 11:12:34
00012 suncat0019 pw.x -npool 4 -i  Done                     05/03/2018 11:12:34
00013 suncat0019 pw.x -npool 4 -i  Done                     05/03/2018 11:12:34
00014 suncat0019 pw.x -npool 4 -i  Done                     05/03/2018 11:12:34
00015 suncat0019 pw.x -npool 4 -i  Done                     05/03/2018 11:12:34
00016 suncat0214 pw.x -npool 4 -i  Done                     05/03/2018 11:12:34
00017 suncat0214 pw.x -npool 4 -i  Done                     05/03/2018 11:12:34
00018 suncat0214 pw.x -npool 4 -i  Done                     05/03/2018 11:12:34
00019 suncat0214 pw.x -npool 4 -i  Done                     05/03/2018 11:12:34
00020 suncat0214 pw.x -npool 4 -i  Done                     05/03/2018 11:12:34
00021 suncat0214 pw.x -npool 4 -i  Done                     05/03/2018 11:12:34
00022 suncat0214 pw.x -npool 4 -i  Done                     05/03/2018 11:12:34
00023 suncat0214 pw.x -npool 4 -i  Done                     05/03/2018 11:12:34
00024 suncat0206 pw.x -npool 4 -i  Done                     05/03/2018 11:12:34
00025 suncat0206 pw.x -npool 4 -i  Done                     05/03/2018 11:12:34
00026 suncat0206 pw.x -npool 4 -i  Done                     05/03/2018 11:12:34
00027 suncat0206 pw.x -npool 4 -i  Done                     05/03/2018 11:12:34
00028 suncat0206 pw.x -npool 4 -i  Done                     05/03/2018 11:12:34
00029 suncat0206 pw.x -npool 4 -i  Done                     05/03/2018 11:12:34
00030 suncat0206 pw.x -npool 4 -i  Done                     05/03/2018 11:12:34
00031 suncat0206 pw.x -npool 4 -i  Done                     05/03/2018 11:12:34