     Program PWSCF v.5.1rc2 (svn rev. 11289) starts on 11Jan2019 at 16:45: 4

     Current dimensions of program PWSCF are:
     Max number of different atomic species (ntypx) = 10
     Max number of k-points (npk) =  40000
     Max angular momentum in pseudopotentials (lmaxx) =  3

     IMPORTANT: XC functional enforced from input :
     Exchange-correlation      = BEEF-VDW ( 1  4 27 13 2)
     Any further DFT definition will be discarded
     Please, verify this is what you really want

     Subspace diagonalization in iterative solution of the eigenvalue problem:
     a serial algorithm will be used

     Generating pointlists ...
     new r_m :   0.1434 (alat units)  1.3588 (a.u.) for type    1
     new r_m :   0.1434 (alat units)  1.3588 (a.u.) for type    2

     bravais-lattice index     =            0
     lattice parameter (alat)  =       9.4723  a.u.
     unit-cell volume          =    3537.7769 (a.u.)^3
     number of atoms/cell      =           13
     number of atomic types    =            2
     number of electrons       =       205.00
     number of Kohn-Sham states=          112
     kinetic-energy cutoff     =      36.7493  Ry
     charge density cutoff     =     367.4933  Ry
     convergence threshold     =      1.0E-04
     mixing beta               =       0.1000
     number of iterations used =            8  plain     mixing
     Exchange-correlation      = BEEF-VDW ( 1  4 27 13 2)
     nstep                     =           50

     celldm(1)=   9.472344  celldm(2)=   0.000000  celldm(3)=   0.000000
     celldm(4)=   0.000000  celldm(5)=   0.000000  celldm(6)=   0.000000

     crystal axes: (cart. coord. in units of alat)
               a(1) = (   1.000000   0.000000   0.000000 )
               a(2) = (   0.500000   0.866025   0.000000 )
               a(3) = (   0.000000   0.000000   4.806483 )

     reciprocal axes: (cart. coord. in units 2 pi/alat)
               b(1) = (  1.000000 -0.577350  0.000000 )
               b(2) = (  0.000000  1.154701  0.000000 )
               b(3) = (  0.000000  0.000000  0.208052 )

     PseudoPot. # 1 for Co read from file:
     /u/if/jboes/code/decaf-espresso/gbrv15pbe/Co.UPF
     MD5 check sum: 5f91765df6ddd3222702df6e7b74a16d
     Pseudo is Ultrasoft + core correction, Zval = 17.0
     Generated by new atomic code, or converted to UPF format
     Using radial grid of  863 points,  6 beta functions with:
                l(1) =   0
                l(2) =   0
                l(3) =   1
                l(4) =   1
                l(5) =   2
                l(6) =   2
     Q(r) pseudized with  8 coefficients,  rinner =    1.200   1.200   1.200
                                                       1.200   1.200

     PseudoPot. # 2 for H  read from file:
     /u/if/jboes/code/decaf-espresso/gbrv15pbe/H.UPF
     MD5 check sum: 761ae9a214b05c3daf00ab9f6b793d6f
     Pseudo is Ultrasoft, Zval =  1.0
     Generated by new atomic code, or converted to UPF format
     Using radial grid of  615 points,  2 beta functions with:
                l(1) =   0
                l(2) =   0
     Q(r) pseudized with  8 coefficients,  rinner =    0.700

     vdW kernel table read from file vdW_kernel_table
     MD5 check sum: 095c7af220d748ca6e76c0b4c6cfb241

     atomic species   valence    mass     pseudopotential
        Co            17.00    58.93319     Co( 1.00)
        H              1.00     1.00800     H ( 1.00)

     Starting magnetic structure
     atomic species   magnetization
        Co           0.118
        H            0.000

     No symmetry found

   Cartesian axes

     site n.     atom                  positions (alat units)
         1           Co  tau(   1) = (   0.2500000   0.1443376   1.9949931  )
         2           Co  tau(   2) = (   0.7500000   0.1443376   1.9949931  )
         3           Co  tau(   3) = (   0.5000000   0.5773503   1.9949931  )
         4           Co  tau(   4) = (   1.0000000   0.5773503   1.9949931  )
         5           Co  tau(   5) = (   1.0000000   0.2886751   2.4032414  )
         6           Co  tau(   6) = (   0.5000000   0.2886751   2.4032414  )
         7           Co  tau(   7) = (   1.2500000   0.7216878   2.4032414  )
         8           Co  tau(   8) = (   0.7500000   0.7216878   2.4032414  )
         9           Co  tau(   9) = (  -0.0000040   0.0000284   2.7974377  )
        10           Co  tau(  10) = (   0.5000004  -0.0027166   2.8074816  )
        11           Co  tau(  11) = (   0.2476044   0.4343713   2.8074964  )
        12           Co  tau(  12) = (   0.7523596   0.4343582   2.8074582  )
        13           H   tau(  13) = (   0.5000128   0.2886995   2.9972836  )

     number of k points=    40  Fermi-Dirac smearing, width (Ry)=  0.0110
                       cart. coord. in units 2pi/alat
        k(    1) = (   0.0000000   0.0000000   0.0000000), wk =   0.0277778
        k(    2) = (   0.0000000   0.1924501   0.0000000), wk =   0.0555556
        k(    3) = (   0.0000000   0.3849002   0.0000000), wk =   0.0555556
        k(    4) = (   0.0000000  -0.5773503   0.0000000), wk =   0.0277778
        k(    5) = (   0.1666667  -0.0962250   0.0000000), wk =   0.0555556
        k(    6) = (   0.1666667   0.0962250   0.0000000), wk =   0.0555556
        k(    7) = (   0.1666667   0.2886751   0.0000000), wk =   0.0555556
        k(    8) = (   0.1666667  -0.6735753   0.0000000), wk =   0.0555556
        k(    9) = (   0.1666667  -0.4811252   0.0000000), wk =   0.0555556
        k(   10) = (   0.1666667  -0.2886751   0.0000000), wk =   0.0555556
        k(   11) = (   0.3333333  -0.1924501   0.0000000), wk =   0.0555556
        k(   12) = (   0.3333333  -0.0000000   0.0000000), wk =   0.0555556
        k(   13) = (   0.3333333   0.1924501   0.0000000), wk =   0.0555556
        k(   14) = (   0.3333333  -0.7698004   0.0000000), wk =   0.0555556
        k(   15) = (   0.3333333  -0.5773503   0.0000000), wk =   0.0555556
        k(   16) = (   0.3333333  -0.3849002   0.0000000), wk =   0.0555556
        k(   17) = (  -0.5000000   0.2886751   0.0000000), wk =   0.0277778
        k(   18) = (  -0.5000000   0.4811252   0.0000000), wk =   0.0555556
        k(   19) = (  -0.5000000   0.6735753   0.0000000), wk =   0.0555556
        k(   20) = (  -0.5000000  -0.2886751   0.0000000), wk =   0.0277778
        k(   21) = (   0.0000000   0.0000000   0.0000000), wk =   0.0277778
        k(   22) = (   0.0000000   0.1924501   0.0000000), wk =   0.0555556
        k(   23) = (   0.0000000   0.3849002   0.0000000), wk =   0.0555556
        k(   24) = (   0.0000000  -0.5773503   0.0000000), wk =   0.0277778
        k(   25) = (   0.1666667  -0.0962250   0.0000000), wk =   0.0555556
        k(   26) = (   0.1666667   0.0962250   0.0000000), wk =   0.0555556
        k(   27) = (   0.1666667   0.2886751   0.0000000), wk =   0.0555556
        k(   28) = (   0.1666667  -0.6735753   0.0000000), wk =   0.0555556
        k(   29) = (   0.1666667  -0.4811252   0.0000000), wk =   0.0555556
        k(   30) = (   0.1666667  -0.2886751   0.0000000), wk =   0.0555556
        k(   31) = (   0.3333333  -0.1924501   0.0000000), wk =   0.0555556
        k(   32) = (   0.3333333  -0.0000000   0.0000000), wk =   0.0555556
        k(   33) = (   0.3333333   0.1924501   0.0000000), wk =   0.0555556
        k(   34) = (   0.3333333  -0.7698004   0.0000000), wk =   0.0555556
        k(   35) = (   0.3333333  -0.5773503   0.0000000), wk =   0.0555556
        k(   36) = (   0.3333333  -0.3849002   0.0000000), wk =   0.0555556
        k(   37) = (  -0.5000000   0.2886751   0.0000000), wk =   0.0277778
        k(   38) = (  -0.5000000   0.4811252   0.0000000), wk =   0.0555556
        k(   39) = (  -0.5000000   0.6735753   0.0000000), wk =   0.0555556
        k(   40) = (  -0.5000000  -0.2886751   0.0000000), wk =   0.0277778

     Largest allocated arrays     est. size (Mb)     dimensions
     Largest temporary arrays     est. size (Mb)     dimensions

     Check: negative/imaginary core charge=   -0.000007    0.000000

     Initial potential from superposition of free atoms
     Check: negative starting charge=(component1):   -0.000205
     Check: negative starting charge=(component2):   -0.000161

     starting charge  192.99991, renormalised to  205.00000

     negative rho (up, down):  2.174E-04 1.706E-04

     *
     * You are using vdW-DF for exchange-correlation in this calculation.
     * Please cite the following three references that made this development
     * possible:
     *
     *   M. Dion, H. Rydberg, E. Schroder, D. C. Langreth, and
     *   B. I. Lundqvist, Phys. Rev. Lett. 92, 246401 (2004).
     *
     *   T. Thonhauser, V. R. Cooper, S. Li, A. Puzder, P. Hyldgaard, and
     *   D. C. Langreth, Phys. Rev. B 76, 125112 (2007).
     *
     *   G. Roman-Perez and J. M. Soler, Phys. Rev. Lett. 103, 096102 (2009).
     *
     *
     * If you are using vdW-DF2, please also cite:
     *
     *   K. Lee, E. D. Murray, L. Kong, B. I. Lundqvist, and
     *   D. C. Langreth, Phys. Rev. B 82, 081101(R) (2010).
     *
     *
     * If you are calculating the stress with vdW-DF, please also cite:
     *
     *   R. Sabatini, E. Kucukbenli, B. Kolb, T. Thonhauser, and
     *   S. de Gironcoli, J. Phys.: Condens. Matter 24, 424209 (2012).
     *

     Carrying out vdW-DF run using the following parameters:

     Nqs =      20    Nr_points =    1024   r_max =   100.000
     q_mesh =
               0.00001000     0.04494208     0.09755937     0.15916263
               0.23128650     0.31572767     0.41458969     0.53033537
               0.66584808     0.82450364     1.01025438     1.22772762
               1.48234092     1.78043706     2.12944203     2.53805004
               3.01644009     3.57652955     4.23227104     5.00000000

     Gradients computed in reciprocal space

     Adding external electric field

     Computed dipole along edir(3) :
        Dipole               -0.3511 Ry au,         -0.8924 Debye
        Dipole field         -0.0012 Ry au

        Potential amp.        0.1022 Ry
        Total length         40.9758 bohr

[...]

     Starting wfc are  157 randomized atomic wfcs

     Self-consistent Calculation

     iteration #  1     ecut=    36.75 Ry     beta=0.10
     Davidson diagonalization with overlap
     ethr =  1.00E-02,  avg # of iterations =  8.1

[...]

     Magnetic moment per site:
     atom:    1    charge:   13.9642    magn:    1.5888    constr:    0.0000
     atom:    2    charge:   13.9641    magn:    1.5887    constr:    0.0000
     atom:    3    charge:   13.9642    magn:    1.5888    constr:    0.0000
     atom:    4    charge:   13.9642    magn:    1.5889    constr:    0.0000
     atom:    5    charge:   13.9635    magn:    1.5857    constr:    0.0000
     atom:    6    charge:   13.9610    magn:    1.5861    constr:    0.0000
     atom:    7    charge:   13.9634    magn:    1.5857    constr:    0.0000
     atom:    8    charge:   13.9635    magn:    1.5857    constr:    0.0000
     atom:    9    charge:   13.9115    magn:    1.5753    constr:    0.0000
     atom:   10    charge:   13.9169    magn:    1.5732    constr:    0.0000
     atom:   11    charge:   13.9168    magn:    1.5732    constr:    0.0000
     atom:   12    charge:   13.9169    magn:    1.5732    constr:    0.0000
     atom:   13    charge:    0.8193    magn:    0.0207    constr:    0.0000

     total energy              =   -3531.35698611 Ry
     Harris-Foulkes estimate   =   -3621.34417014 Ry
     estimated scf accuracy    <     506.51353245 Ry

     total magnetization       =     9.12 Bohr mag/cell
     absolute magnetization    =    10.82 Bohr mag/cell

[...]

     End of self-consistent calculation

 ------ SPIN UP ------------

          k = 0.0000 0.0000 0.0000 ( 13257 PWs)   bands (ev):

   -95.6815 -95.6532 -95.6427 -95.6413 -95.4372 -95.4359 -95.4068 -95.4055
   -95.4023 -95.3429 -95.3211 -95.3207 -59.0319 -59.0313 -59.0278 -58.9796
   -58.9393 -58.9261 -58.9249 -58.8593 -58.8587 -58.8544 -58.8021 -58.8020
   -58.7547 -58.7490 -58.7485 -58.7422 -58.7373 -58.7212 -58.7205 -58.7197
   -58.7119 -58.7114 -58.7035 -58.6141 -58.6138 -58.5935 -58.5915 -58.5899
   -58.5892 -58.5581 -58.5578 -58.5377 -58.5376 -58.4940 -58.4877 -58.4876
    -7.4341  -6.0626  -4.6826  -4.1719  -4.1016  -4.1012  -3.9989  -3.9098
    -3.9096  -3.6740  -3.5400  -3.5398  -3.5145  -3.3633  -3.3632  -2.9372
    -2.6788  -2.6786  -2.4421  -2.1850  -2.1848  -2.0956  -2.0311  -2.0054
    -2.0054  -1.8331  -1.8326  -1.7974  -1.7635  -1.7634  -1.6071  -1.6069
    -1.5850  -1.4890  -1.4762  -1.4758  -0.9695  -0.9692  -0.9500  -0.9498
    -0.9243  -0.8537  -0.8532  -0.6959  -0.6158  -0.6157  -0.3658  -0.3655
    -0.3424  -0.3375  -0.3230  -0.3227  -0.2483  -0.2483  -0.1340  -0.1334
    -0.1211   0.1253   0.1257   0.1310   0.1568   0.1570   0.1803   0.4369

[...]

          k =-0.5000 0.2887 0.0000 ( 13378 PWs)   bands (ev):

[...]

 ------ SPIN DOWN ----------

[...]

     the Fermi energy is     0.8555 ev

!    total energy              =   -3595.50024818 Ry
     Harris-Foulkes estimate   =   -3595.50025917 Ry
     estimated scf accuracy    <       0.00005758 Ry

     The total energy is the sum of the following terms:

     one-electron contribution =  -31411.67975646 Ry
     hartree contribution      =   15712.39494253 Ry
     xc contribution           =    -406.00796574 Ry
     ewald contribution        =   12509.86741119 Ry
     electric field correction =       0.00000022 Ry
     smearing contrib. (-TS)   =      -0.07487990 Ry

[...]

     convergence has been achieved in  34 iterations

     Forces acting on atoms (Ry/au):

     negative rho (up, down):  6.678E-04 3.232E-04
     atom    1 type  1   force =    -0.00102608   -0.00077479    0.00685549
     atom    2 type  1   force =     0.00100392   -0.00058244    0.00657613
     atom    3 type  1   force =     0.00014721    0.00127772    0.00683653
     atom    4 type  1   force =    -0.00016628    0.00011491    0.00742730
     atom    5 type  1   force =    -0.00022718    0.00269311   -0.00690736
     atom    6 type  1   force =     0.00022658    0.00021428   -0.00738953
     atom    7 type  1   force =    -0.00213053   -0.00128839   -0.00712756
     atom    8 type  1   force =     0.00212685   -0.00156720   -0.00688314
     atom    9 type  1   force =     0.00018956   -0.00024943    0.00405446
     atom   10 type  1   force =    -0.00019319   -0.00179418   -0.00136906
     atom   11 type  1   force =    -0.00127484    0.00085586   -0.00111840
     atom   12 type  1   force =     0.00133639    0.00110648   -0.00129539
     atom   13 type  2   force =    -0.00001243   -0.00000593    0.00034053

     Total force =     0.005485     Total SCF correction =     0.009789
     SCF correction compared to forces is large: reduce conv_thr to get better values

     BFGS Geometry Optimization

     number of scf cycles    =   1
     number of bfgs steps    =   0

     energy   new            =   -3595.5002481760 Ry

     new trust radius        =       0.0040665478 bohr
     new conv_thr            =       0.0001000000 Ry

ATOMIC_POSITIONS (angstrom)
Co       1.253137179   0.723499087  10.000000000    0   0   0
Co       3.759411536   0.723499087  10.000000000    0   0   0
Co       2.506274357   2.893996350  10.000000000    0   0   0
Co       5.012548715   2.893996350  10.000000000    0   0   0
Co       5.012548715   1.446998175  12.046364444    0   0   0
Co       2.506274357   1.446998175  12.046364444    0   0   0
Co       6.265685894   3.617495438  12.046364444    0   0   0
Co       3.759411536   3.617495438  12.046364444    0   0   0
Co       0.000080343   0.000010565  14.024438078
Co       2.506174249  -0.014566740  14.071914023
Co       1.240454566   2.177760334  14.072120582
Co       3.771946534   2.177826919  14.071835699
H        2.506331889   1.447117141  15.024210351

     Writing output data file calc.save
     Check: negative starting charge=(component1):   -0.000365
     NEW-OLD atomic charge density approx. for the potential

     Check: negative/imaginary core charge=   -0.000007    0.000000
     Check: negative starting charge=(component1):   -0.000365

[...]

     energy   old            =   -3595.5002481760 Ry
     energy   new            =   -3595.5002666898 Ry

     CASE: energy  _new < energy  _old

[...]

     WARNING: bfgs curvature condition failed, Theta= 0.928
     new trust radius        =       0.0082087173 bohr
     new conv_thr            =       0.0000010000 Ry

[...]

     number of scf cycles    =   8
     number of bfgs steps    =   7

     energy   old            =   -3595.5004887000 Ry
     energy   new            =   -3595.5005201310 Ry

     CASE: energy  _new < energy  _old

     new trust radius        =       0.0076217982 bohr
     new conv_thr            =       0.0000010000 Ry

ATOMIC_POSITIONS (angstrom)
Co       1.253137179   0.723499087  10.000000000    0   0   0
Co       3.759411536   0.723499087  10.000000000    0   0   0
Co       2.506274357   2.893996350  10.000000000    0   0   0
Co       5.012548715   2.893996350  10.000000000    0   0   0
Co       5.012548715   1.446998175  12.046364444    0   0   0
Co       2.506274358   1.446998175  12.046364444    0   0   0
Co       6.265685894   3.617495437  12.046364444    0   0   0
Co       3.759411536   3.617495437  12.046364444    0   0   0
Co       0.000442632  -0.000339095  14.035030243
Co       2.505832086  -0.013719728  14.057291958
Co       1.241565022   2.177213699  14.057903371
Co       3.770964415   2.177689987  14.057257578
H        2.506541895   1.446762108  14.996550086

     Writing output data file calc.save
     Check: negative starting charge=(component1):   -0.000366
     NEW-OLD atomic charge density approx. for the potential

     Check: negative/imaginary core charge=   -0.000007    0.000000
     Check: negative starting charge=(component1):   -0.000366

[...]

     Self-consistent Calculation

[...]

     total energy              =   -3595.50052704 Ry
     Harris-Foulkes estimate   =   -3595.50052792 Ry
     estimated scf accuracy    <       0.00001423 Ry

[...]

     iteration #  7     ecut=    36.75 Ry     beta=0.10
     Davidson diagonalization with overlap
     ethr =  6.94E-09,  avg # of iterations =  1.1

     negative rho (up, down):  6.647E-04 3.214E-04

[...]

     Adding external electric field

     Computed dipole along edir(3) :
        Dipole                0.0075 Ry au,          0.0190 Debye
        Dipole field          0.0000 Ry au

        Potential amp.       -0.0022 Ry
        Total length         40.9758 bohr

     Magnetic moment per site:
     atom:    1    charge:   13.6434    magn:    1.6112    constr:    0.0000
     atom:    2    charge:   13.6435    magn:    1.6111    constr:    0.0000
     atom:    3    charge:   13.6435    magn:    1.6112    constr:    0.0000
     atom:    4    charge:   13.6445    magn:    1.6061    constr:    0.0000
     atom:    5    charge:   13.6397    magn:    1.6066    constr:    0.0000
     atom:    6    charge:   13.6408    magn:    1.6274    constr:    0.0000
     atom:    7    charge:   13.6395    magn:    1.6068    constr:    0.0000
     atom:    8    charge:   13.6394    magn:    1.6067    constr:    0.0000
     atom:    9    charge:   13.6467    magn:    1.6108    constr:    0.0000
     atom:   10    charge:   13.6448    magn:    1.4562    constr:    0.0000
     atom:   11    charge:   13.6447    magn:    1.4568    constr:    0.0000
     atom:   12    charge:   13.6448    magn:    1.4562    constr:    0.0000
     atom:   13    charge:    0.9543    magn:   -0.0250    constr:    0.0000

     End of self-consistent calculation

 ------ SPIN UP ------------

[...]

 ------ SPIN DOWN ----------

[...]

          k = 0.3333-0.3849 0.0000 ( 13313 PWs)   bands (ev):

[...]

          k =-0.5000-0.2887 0.0000 ( 13378 PWs)   bands (ev):

   -93.2493 -93.2434 -93.2305 -93.2141 -93.1759 -93.1682 -93.1596 -93.0473
   -93.0290 -93.0280 -93.0119 -93.0110 -56.6973 -56.6851 -56.6791 -56.6506
   -56.6305 -56.6271 -56.6137 -56.6067 -56.6014 -56.5882 -56.5721 -56.5678
   -56.5410 -56.5281 -56.5136 -56.5104 -56.4997 -56.4673 -56.4564 -56.4562
   -56.4358 -56.4232 -56.4098 -56.4086 -56.3916 -56.3885 -56.3755 -56.3755
   -56.3635 -56.3542 -56.3297 -56.3256 -56.3228 -56.3221 -56.3037 -56.3018
    -5.9587  -5.4018  -4.8262  -3.6241  -3.1197  -2.7888  -2.7712  -2.2893
    -2.2723  -2.2503  -1.9956  -1.6931  -1.6884  -1.5585  -1.5238  -1.3393
    -1.2605  -1.0518  -1.0497  -1.0053  -1.0041  -0.9713  -0.9027  -0.6260
    -0.5932  -0.5439  -0.4481  -0.4303  -0.4265  -0.3665  -0.2879  -0.2229
    -0.1368  -0.0552   0.0247   0.0299   0.0657   0.0815   0.2655   0.2808
     0.6381   0.6671   0.6911   0.6989   0.8067   0.8284   0.9879   1.0042
     1.0225   1.0366   1.1281   1.1530   1.1991   1.3180   1.3408   1.3559
     1.4081   1.4434   1.7275   1.7364   1.8642   1.8878   1.9807   2.0020

     the Fermi energy is     0.8874 ev

!    total energy              =   -3595.50052751 Ry
     Harris-Foulkes estimate   =   -3595.50052762 Ry
     estimated scf accuracy    <       0.00000094 Ry

     The total energy is the sum of the following terms:

     one-electron contribution =  -31447.99424855 Ry
     hartree contribution      =   15730.38805899 Ry
     xc contribution           =    -406.02307644 Ry
     ewald contribution        =   12528.20350086 Ry
     electric field correction =       0.00000020 Ry
     smearing contrib. (-TS)   =      -0.07476257 Ry

     total magnetization       =    18.92 Bohr mag/cell
     absolute magnetization    =    21.85 Bohr mag/cell

     convergence has been achieved in   7 iterations

     Forces acting on atoms (Ry/au):

     negative rho (up, down):  6.647E-04 3.214E-04
     atom    1 type  1   force =    -0.00085246   -0.00056087    0.00997967
     atom    2 type  1   force =     0.00084642   -0.00053711    0.00996602
     atom    3 type  1   force =     0.00001743    0.00104059    0.01001975
     atom    4 type  1   force =    -0.00001945    0.00005834    0.01042526
     atom    5 type  1   force =     0.00006943    0.00118307   -0.00831695
     atom    6 type  1   force =    -0.00008049    0.00004056   -0.01043193
     atom    7 type  1   force =    -0.00096666   -0.00064099   -0.00820638
     atom    8 type  1   force =     0.00095389   -0.00054927   -0.00823821
     atom    9 type  1   force =    -0.00000562   -0.00010487   -0.00194078
     atom   10 type  1   force =     0.00000658   -0.00139907   -0.00144182
     atom   11 type  1   force =    -0.00110400    0.00073849   -0.00146469
     atom   12 type  1   force =     0.00111965    0.00074007   -0.00138189
     atom   13 type  2   force =     0.00001529   -0.00000895    0.00103195

     Total force =     0.004062     Total SCF correction =     0.003789
     SCF correction compared to forces is large: reduce conv_thr to get better values

     bfgs converged in   9 scf cycles and   8 bfgs steps
     (criteria: energy <  1.0E+12, force <  1.9E-03)

     End of BFGS Geometry Optimization

     Final energy   =   -3595.5005275136 Ry
Begin final coordinates

ATOMIC_POSITIONS (angstrom)
Co       1.253137179   0.723499087  10.000000000    0   0   0
Co       3.759411536   0.723499087  10.000000000    0   0   0
Co       2.506274357   2.893996350  10.000000000    0   0   0
Co       5.012548715   2.893996350  10.000000000    0   0   0
Co       5.012548715   1.446998175  12.046364444    0   0   0
Co       2.506274358   1.446998175  12.046364444    0   0   0
Co       6.265685894   3.617495437  12.046364444    0   0   0
Co       3.759411536   3.617495437  12.046364444    0   0   0
Co       0.000442632  -0.000339095  14.035030243
Co       2.505832086  -0.013719728  14.057291958
Co       1.241565022   2.177213699  14.057903371
Co       3.770964415   2.177689987  14.057257578
H        2.506541895   1.446762108  14.996550086
End final coordinates

     Writing output data file calc.save

     General routines

     Parallel routines

   This run was terminated on:  17:22:28  11Jan2019

   JOB DONE.
Job  /afs/slac/g/suncat/bin/suncat-tsmpirun -x LD_LIBRARY_PATH -wdir /tmp/qe_673056g5f6skn2_scratch pw.x -npool 2 -in pw.pwi

TID   HOST_NAME   COMMAND_LINE            STATUS            TERMINATION_TIME
00000 suncat2064 pw.x -npool 2 -i  Done                     01/11/2019 17:22:28
00001 suncat2064 pw.x -npool 2 -i  Done                     01/11/2019 17:22:28
00002 suncat2064 pw.x -npool 2 -i  Done                     01/11/2019 17:22:28
00003 suncat2064 pw.x -npool 2 -i  Done                     01/11/2019 17:22:28
00004 suncat2064 pw.x -npool 2 -i  Done                     01/11/2019 17:22:28
00005 suncat2064 pw.x -npool 2 -i  Done                     01/11/2019 17:22:28
00006 suncat2064 pw.x -npool 2 -i  Done                     01/11/2019 17:22:28
00007 suncat2064 pw.x -npool 2 -i  Done                     01/11/2019 17:22:28
00008 suncat2064 pw.x -npool 2 -i  Done                     01/11/2019 17:22:28
00009 suncat2064 pw.x -npool 2 -i  Done                     01/11/2019 17:22:28
00010 suncat2064 pw.x -npool 2 -i  Done                     01/11/2019 17:22:28
00011 suncat2064 pw.x -npool 2 -i  Done                     01/11/2019 17:22:28
00012 suncat2064 pw.x -npool 2 -i  Done                     01/11/2019 17:22:28
00013 suncat2064 pw.x -npool 2 -i  Done                     01/11/2019 17:22:28
00014 suncat2064 pw.x -npool 2 -i  Done                     01/11/2019 17:22:28
00015 suncat2064 pw.x -npool 2 -i  Done                     01/11/2019 17:22:28
00016 suncat2062 pw.x -npool 2 -i  Done                     01/11/2019 17:22:28
00017 suncat2062 pw.x -npool 2 -i  Done                     01/11/2019 17:22:28
00018 suncat2062 pw.x -npool 2 -i  Done                     01/11/2019 17:22:28
00019 suncat2062 pw.x -npool 2 -i  Done                     01/11/2019 17:22:28
00020 suncat2062 pw.x -npool 2 -i  Done                     01/11/2019 17:22:28
00021 suncat2062 pw.x -npool 2 -i  Done                     01/11/2019 17:22:28
00022 suncat2062 pw.x -npool 2 -i  Done                     01/11/2019 17:22:28
00023 suncat2062 pw.x -npool 2 -i  Done                     01/11/2019 17:22:28
00024 suncat2062 pw.x -npool 2 -i  Done                     01/11/2019 17:22:28
00025 suncat2062 pw.x -npool 2 -i  Done                     01/11/2019 17:22:28
00026 suncat2062 pw.x -npool 2 -i  Done                     01/11/2019 17:22:28
00027 suncat2062 pw.x -npool 2 -i  Done                     01/11/2019 17:22:28
00028 suncat2062 pw.x -npool 2 -i  Done                     01/11/2019 17:22:28
00029 suncat2062 pw.x -npool 2 -i  Done                     01/11/2019 17:22:28
00030 suncat2062 pw.x -npool 2 -i  Done                     01/11/2019 17:22:28
00031 suncat2062 pw.x -npool 2 -i  Done                     01/11/2019 17:22:28