     Program PWSCF v.5.1rc2 (svn rev. 11289) starts on 19Apr2018 at  8: 1:26

     Current dimensions of program PWSCF are:
     Max number of different atomic species (ntypx) = 10
     Max number of k-points (npk) =  40000
     Max angular momentum in pseudopotentials (lmaxx) =  3
     Presently stress not available with electric field

     IMPORTANT: XC functional enforced from input :
     Exchange-correlation      = BEEF-VDW ( 1  4 27 13 2)
     Any further DFT definition will be discarded
     Please, verify this is what you really want

     Subspace diagonalization in iterative solution of the eigenvalue problem:
     a serial algorithm will be used

     bravais-lattice index     =            0
     lattice parameter (alat)  =       1.8897  a.u.
     unit-cell volume          =    5182.3421 (a.u.)^3
     number of atoms/cell      =           14
     number of atomic types    =            3
     number of electrons       =       161.00
     number of Kohn-Sham states=           90
     kinetic-energy cutoff     =      36.7493  Ry
     charge density cutoff     =     367.4932  Ry
     convergence threshold     =      1.0E-05
     mixing beta               =       0.3000
     number of iterations used =           10  plain     mixing
     Exchange-correlation      = BEEF-VDW ( 1  4 27 13 2)
     nstep                     =           50

     celldm(1)=   1.889726  celldm(2)=   0.000000  celldm(3)=   0.000000
     celldm(4)=   0.000000  celldm(5)=   0.000000  celldm(6)=   0.000000

     crystal axes: (cart. coord. in units of alat)
               a(1) = (   5.970602   0.000000   0.000000 )
               a(2) = (   2.985301   5.170693   0.000000 )
               a(3) = (   0.000000   0.000000  24.874976 )

     reciprocal axes: (cart. coord. in units 2 pi/alat)
               b(1) = (  0.167487 -0.096699  0.000000 )
               b(2) = (  0.000000  0.193398  0.000000 )
               b(3) = (  0.000000  0.000000  0.040201 )

     PseudoPot. # 1 for Nb read from file:
     /u/if/mamunm/psp/gbrv1.5pbe/Nb.UPF
     MD5 check sum: 573aab8a2fa660278ed4a62cd769473f
     Pseudo is Ultrasoft + core correction, Zval = 13.0
     Generated by new atomic code, or converted to UPF format
     Using radial grid of  887 points,  6 beta functions with:
                l(1) =   0
                l(2) =   0
                l(3) =   1
                l(4) =   1
                l(5) =   2
                l(6) =   2
     Q(r) pseudized with  6 coefficients,  rinner =    1.000   1.000   1.000
                                                       1.000   1.000

     PseudoPot. # 2 for C  read from file:
     /u/if/mamunm/psp/gbrv1.5pbe/C.UPF
     MD5 check sum: d1aef80898a10debaa0f26306b886e00
     Pseudo is Ultrasoft + core correction, Zval =  4.0
     Generated by new atomic code, or converted to UPF format
     Using radial grid of  721 points,  4 beta functions with:
                l(1) =   0
                l(2) =   0
                l(3) =   1
                l(4) =   1
     Q(r) pseudized with  8 coefficients,  rinner =    1.100   1.100   1.100

     PseudoPot. # 3 for H  read from file:
     /u/if/mamunm/psp/gbrv1.5pbe/H.UPF
     MD5 check sum: 761ae9a214b05c3daf00ab9f6b793d6f
     Pseudo is Ultrasoft, Zval =  1.0
     Generated by new atomic code, or converted to UPF format
     Using radial grid of  615 points,  2 beta functions with:
                l(1) =   0
                l(2) =   0
     Q(r) pseudized with  8 coefficients,  rinner =    0.700

     vdW kernel table read from file vdW_kernel_table
     MD5 check sum: 095c7af220d748ca6e76c0b4c6cfb241

     atomic species   valence    mass     pseudopotential
        Nb1           13.00    92.90637     Nb( 1.00)
        C1             4.00    12.01100     C ( 1.00)
        H1             1.00     1.00800     H ( 1.00)

     No symmetry found

   Cartesian axes

     site n.     atom                  positions (alat units)
         1           Nb1 tau(   1) = (   1.4926504   0.8617821  10.0000000  )
         2           Nb1 tau(   2) = (   4.4779512   0.8617821  10.0000000  )
         3           Nb1 tau(   3) = (   2.9853008   3.4471284  10.0000000  )
         4           Nb1 tau(   4) = (   5.9706016   3.4471284  10.0000000  )
         5           Nb1 tau(   5) = (   5.9706016   1.7235642  12.4374879  )
         6           Nb1 tau(   6) = (   2.9853008   1.7235642  12.4374879  )
         7           Nb1 tau(   7) = (   7.4632520   4.3089105  12.4374879  )
         8           Nb1 tau(   8) = (   4.4779512   4.3089105  12.4374879  )
         9           Nb1 tau(   9) = (   0.0000000   0.0000000  14.8749758  )
        10           Nb1 tau(  10) = (   2.9853008   0.0000000  14.8749758  )
        11           Nb1 tau(  11) = (   1.4926504   2.5853463  14.8749758  )
        12           Nb1 tau(  12) = (   4.4779512   2.5853463  14.8749758  )
        13           C1  tau(  13) = (   1.4926504   0.8617821  16.4349758  )
        14           H1  tau(  14) = (   1.4926504   0.8617821  17.5349758  )

     number of k points=    20  Fermi-Dirac smearing, width (Ry)=  0.0110
                       cart. coord. in units 2pi/alat
        k(    1) = (   0.0000000   0.0000000   0.0000000), wk =   0.0555556
        k(    2) = (   0.0000000   0.0322329   0.0000000), wk =   0.1111111
        k(    3) = (   0.0000000   0.0644659   0.0000000), wk =   0.1111111
        k(    4) = (   0.0000000  -0.0966988   0.0000000), wk =   0.0555556
        k(    5) = (   0.0279146  -0.0161165   0.0000000), wk =   0.1111111
        k(    6) = (   0.0279146   0.0161165   0.0000000), wk =   0.1111111
        k(    7) = (   0.0279146   0.0483494   0.0000000), wk =   0.1111111
        k(    8) = (   0.0279146  -0.1128153   0.0000000), wk =   0.1111111
        k(    9) = (   0.0279146  -0.0805824   0.0000000), wk =   0.1111111
        k(   10) = (   0.0279146  -0.0483494   0.0000000), wk =   0.1111111
        k(   11) = (   0.0558291  -0.0322329   0.0000000), wk =   0.1111111
        k(   12) = (   0.0558291   0.0000000   0.0000000), wk =   0.1111111
        k(   13) = (   0.0558291   0.0322329   0.0000000), wk =   0.1111111
        k(   14) = (   0.0558291  -0.1289318   0.0000000), wk =   0.1111111
        k(   15) = (   0.0558291  -0.0966988   0.0000000), wk =   0.1111111
        k(   16) = (   0.0558291  -0.0644659   0.0000000), wk =   0.1111111
        k(   17) = (  -0.0837437   0.0483494   0.0000000), wk =   0.0555556
        k(   18) = (  -0.0837437   0.0805824   0.0000000), wk =   0.1111111
        k(   19) = (  -0.0837437   0.1128153   0.0000000), wk =   0.1111111
        k(   20) = (  -0.0837437  -0.0483494   0.0000000), wk =   0.0555556

     Largest allocated arrays     est. size (Mb)     dimensions
     Largest temporary arrays     est. size (Mb)     dimensions

     Initial potential from superposition of free atoms
     Check: negative starting charge=   -0.004926

     starting charge  160.96715, renormalised to  161.00000

     negative rho (up, down):  4.927E-03 0.000E+00

     *
     * You are using vdW-DF for exchange-correlation in this calculation.
     * Please cite the following three references that made this development
     * possible:
     *
     *   M. Dion, H. Rydberg, E. Schroder, D. C. Langreth, and
     *   B. I. Lundqvist, Phys. Rev. Lett. 92, 246401 (2004).
     *
     *   T. Thonhauser, V. R. Cooper, S. Li, A. Puzder, P. Hyldgaard, and
     *   D. C. Langreth, Phys. Rev. B 76, 125112 (2007).
     *
     *   G. Roman-Perez and J. M. Soler, Phys. Rev. Lett. 103, 096102 (2009).
     *
     *
     * If you are using vdW-DF2, please also cite:
     *
     *   K. Lee, E. D. Murray, L. Kong, B. I. Lundqvist, and
     *   D. C. Langreth, Phys. Rev. B 82, 081101(R) (2010).
     *
     *
     * If you are calculating the stress with vdW-DF, please also cite:
     *
     *   R. Sabatini, E. Kucukbenli, B. Kolb, T. Thonhauser, and
     *   S. de Gironcoli, J. Phys.: Condens. Matter 24, 424209 (2012).
     *

     Carrying out vdW-DF run using the following parameters:

     Nqs =      20    Nr_points =    1024   r_max =   100.000
     q_mesh =
               0.00001000     0.04494208     0.09755937     0.15916263
               0.23128650     0.31572767     0.41458969     0.53033537
               0.66584808     0.82450364     1.01025438     1.22772762
               1.48234092     1.78043706     2.12944203     2.53805004
               3.01644009     3.57652955     4.23227104     5.00000000

     Gradients computed in reciprocal space

     Adding external electric field

     Computed dipole along edir(3) :
        Dipole               -0.0077 Ry au,         -0.0197 Debye
        Dipole field         -0.0000 Ry au

        Potential amp.        0.0017 Ry
        Total length         45.8317 bohr

     Starting wfc are  161 randomized atomic wfcs

     Self-consistent Calculation

     iteration #  1     ecut=    36.75 Ry     beta=0.30
     Davidson diagonalization with overlap
     ethr =  1.00E-02,  avg # of iterations =  2.0

[...]

     total energy              =   -1432.52400028 Ry
     Harris-Foulkes estimate   =   -1435.58590314 Ry
     estimated scf accuracy    <       6.84087210 Ry

[...]

     End of self-consistent calculation

          k = 0.0000 0.0000 0.0000 ( 19435 PWs)   bands (ev):

   -53.1435 -53.0904 -53.0145 -52.9671 -52.9566 -52.9547 -52.9500 -52.9444
   -52.9438 -52.8844 -52.8837 -52.8678 -29.5661 -29.5659 -29.5570 -29.5137
   -29.4892 -29.4889 -29.4709 -29.4468 -29.4459 -29.4335 -29.1815 -29.0693
   -29.0186 -29.0170 -28.9870 -28.9680 -28.9678 -28.8631 -28.8631 -28.8574
   -28.7906 -28.7900 -28.7796 -28.7562 -28.7544 -28.7542 -28.6824 -28.6742
   -28.6742 -28.6737 -28.6174 -28.6174 -28.5786 -28.5786 -28.5058 -28.5058
    -8.5177  -3.6065  -2.9809  -1.9607  -1.5979  -1.5756  -1.5756  -1.5160
    -1.2653  -1.2652  -1.0616  -0.8729  -0.8726  -0.8017  -0.8016  -0.7748
    -0.1737   0.1185   0.1188   1.0315   1.0317   1.1482   1.3764   1.5713
     1.5746   1.5746   1.7724   2.1474   2.1474   2.2486   2.3796   2.3796
     2.4359   2.4362   2.4787   2.4999   2.4999   2.5347   2.7391   2.7394
     3.1469   3.4400

[...]

          k =-0.0837 0.0483 0.0000 ( 19524 PWs)   bands (ev):

[...]

     the Fermi energy is     2.0356 ev

!    total energy              =   -1434.93048923 Ry
     Harris-Foulkes estimate   =   -1434.93049552 Ry
     estimated scf accuracy    <       0.00000731 Ry

     The total energy is the sum of the following terms:

     one-electron contribution =  -11681.79676308 Ry
     hartree contribution      =    5835.39545245 Ry
     xc contribution           =    -232.55889604 Ry
     ewald contribution        =    4644.14468355 Ry
     electric field correction =       0.00000000 Ry
     smearing contrib. (-TS)   =      -0.11496611 Ry

     convergence has been achieved in  17 iterations

 BEEF-vdW xc energy contributions
           1 :   -199.332949236932
           2 :    181.208694655086
           3 :   -150.357330682126
           4 :    115.075388920658
           5 :   -83.2885999868254
           6 :    59.9299405937480
           7 :   -45.9156810142102
           8 :    38.8213888329187
           9 :   -34.7072412041290
          10 :    30.1038403421175
          11 :   -23.3202927690757
          12 :    14.6664985972459
          13 :   -5.74926154445939
          14 :   -1.66079164575441
          15 :    6.58529653449435
          16 :   -9.21186221982680
          17 :    10.5987542520250
          18 :   -11.9711561206184
          19 :    14.0231680626480
          20 :   -16.5987943849096
          21 :    18.8748354918300
          22 :   -19.8980427606422
          23 :    19.1427646105622
          24 :   -16.7886877241084
          25 :    13.5994464562888
          26 :   -10.5159255805438
          27 :    8.20735531070545
          28 :   -6.81889689359807
          29 :    6.01641346749165
          30 :   -5.26954299719040
          31 :   -23.0721697402729
          32 :   -17.4343316005972

     Forces acting on atoms (Ry/au):

     negative rho (up, down):  4.804E-03 0.000E+00
     atom    1 type  1   force =     0.00002684    0.00000167   -0.00659651
     atom    2 type  1   force =    -0.00002044    0.00292238   -0.00326747
     atom    3 type  1   force =     0.00251878   -0.00147237   -0.00320576
     atom    4 type  1   force =    -0.00253074   -0.00145543   -0.00331901
     atom    5 type  1   force =    -0.00045757    0.00022639    0.00263529
     atom    6 type  1   force =     0.00045715    0.00032285    0.00254221
     atom    7 type  1   force =     0.00008249   -0.00001364   -0.00194198
     atom    8 type  1   force =    -0.00008405   -0.00053584    0.00257501
     atom    9 type  1   force =     0.00369522    0.00210999    0.04821574
     atom   10 type  1   force =    -0.00369714    0.00216056    0.04818469
     atom   11 type  1   force =     0.00004364   -0.00427033    0.04819646
     atom   12 type  1   force =    -0.00004091    0.00000006   -0.00989103
     atom   13 type  2   force =     0.00000518    0.00000313   -0.11684993
     atom   14 type  3   force =     0.00000154    0.00000058   -0.00727773

     Total force =     0.144322     Total SCF correction =     0.001113

     entering subroutine stress ...

     negative rho (up, down):  4.804E-03 0.000E+00
          total   stress  (Ry/bohr**3)                   (kbar)     P=  -23.33
  -0.00021132   0.00000000   0.00000001        -31.09      0.00      0.00
   0.00000000  -0.00021133   0.00000000          0.00    -31.09      0.00
   0.00000001   0.00000000  -0.00005306          0.00      0.00     -7.81

     BFGS Geometry Optimization

     number of scf cycles    =   1
     number of bfgs steps    =   0

     energy   new            =   -1434.9304892315 Ry

     new trust radius        =       0.1168499267 bohr
     new conv_thr            =       0.0000099958 Ry

ATOMIC_POSITIONS (crystal)
Nb1      0.166666667   0.166666667   0.402010442    0   0   0
Nb1      0.666666667   0.166666667   0.402010442    0   0   0
Nb1      0.166666667   0.666666667   0.402010442    0   0   0
Nb1      0.666666667   0.666666667   0.402010442    0   0   0
Nb1      0.833333333   0.333333333   0.500000000    0   0   0
Nb1      0.333333333   0.333333333   0.500000000    0   0   0
Nb1      0.833333333   0.833333333   0.500000000    0   0   0
Nb1      0.333333333   0.833333333   0.500000000    0   0   0
Nb1      0.000219539   0.000215940   0.599015275
Nb1      0.499561763   0.000221115   0.599014614
Nb1      0.000222384   0.499562967   0.599014864
Nb1      0.499996371   0.500000006   0.597779142
C1       0.166666966   0.166666987   0.658217383
H1       0.166666773   0.166666726   0.704769513

     Writing output data file calc.save
     Check: negative starting charge=   -0.004926
     NEW-OLD atomic charge density approx. for the potential
     Check: negative starting charge=   -0.004910

[...]

     energy   old            =   -1434.9304892315 Ry
     energy   new            =   -1434.9454630483 Ry

     CASE: energy  _new < energy  _old

[...]

     iteration #  1     ecut=    36.75 Ry     beta=0.30
     Davidson diagonalization with overlap
     c_bands:  1 eigenvalues not converged
     ethr =  1.00E-06,  avg # of iterations = 12.2

[...]

     Threshold (ethr) on eigenvalues was too large:
     Diagonalizing with lowered threshold

     Davidson diagonalization with overlap
     ethr =  3.37E-08,  avg # of iterations =  5.9

[...]

     Total force =     0.004401     Total SCF correction =     0.000666
     SCF correction compared to forces is large: reduce conv_thr to get better values

[...]

     Total force =     0.004785     Total SCF correction =     0.000520
     SCF correction compared to forces is large: reduce conv_thr to get better values

[...]

     number of scf cycles    =  16
     number of bfgs steps    =  15

     energy   old            =   -1434.9777167728 Ry
     energy   new            =   -1434.9777826744 Ry

     CASE: energy  _new < energy  _old

     new trust radius        =       0.0151836238 bohr
     new conv_thr            =       0.0000001000 Ry

ATOMIC_POSITIONS (crystal)
Nb1      0.166666667   0.166666667   0.402010442    0   0   0
Nb1      0.666666667   0.166666667   0.402010442    0   0   0
Nb1      0.166666667   0.666666667   0.402010442    0   0   0
Nb1      0.666666667   0.666666667   0.402010442    0   0   0
Nb1      0.833333333   0.333333333   0.500000000    0   0   0
Nb1      0.333333333   0.333333333   0.500000000    0   0   0
Nb1      0.833333333   0.833333333   0.500000000    0   0   0
Nb1      0.333333333   0.833333333   0.500000000    0   0   0
Nb1     -0.003325137  -0.003328941   0.599606858
Nb1      0.506653209  -0.003322316   0.599606357
Nb1     -0.003320758   0.506653922   0.599606505
Nb1      0.499998020   0.499999030   0.590555757
C1       0.166666084   0.166665960   0.647744434
H1       0.166668959   0.166666769   0.692094078

     Writing output data file calc.save
     Check: negative starting charge=   -0.005039
     NEW-OLD atomic charge density approx. for the potential
     Check: negative starting charge=   -0.005046

[...]

     Self-consistent Calculation

[...]

     Threshold (ethr) on eigenvalues was too large:
     Diagonalizing with lowered threshold

     Davidson diagonalization with overlap
     ethr =  8.29E-08,  avg # of iterations =  3.4

[...]

     total energy              =   -1434.97781710 Ry
     Harris-Foulkes estimate   =   -1434.97781711 Ry
     estimated scf accuracy    <       0.00000014 Ry

     iteration # 10     ecut=    36.75 Ry     beta=0.30
     Davidson diagonalization with overlap
     ethr =  8.42E-11,  avg # of iterations =  4.0

[...]

     negative rho (up, down):  4.835E-03 0.000E+00

     Adding external electric field

     Computed dipole along edir(3) :
        Dipole                0.0941 Ry au,          0.2391 Debye
        Dipole field          0.0002 Ry au

        Potential amp.       -0.0209 Ry
        Total length         45.8317 bohr

     End of self-consistent calculation

[...]

          k = 0.0558-0.0645 0.0000 ( 19505 PWs)   bands (ev):

[...]

          k =-0.0837-0.0483 0.0000 ( 19524 PWs)   bands (ev):

   -52.9304 -52.9233 -52.8816 -52.8654 -52.8524 -52.8492 -52.8102 -52.8002
   -52.7944 -52.7796 -52.7678 -52.7403 -29.3329 -29.2727 -29.2607 -29.2421
   -29.2417 -29.2320 -29.1560 -29.1449 -29.1236 -29.0810 -29.0384 -29.0233
   -28.9352 -28.9190 -28.9057 -28.8888 -28.8540 -28.8507 -28.8396 -28.8318
   -28.7686 -28.7677 -28.7468 -28.7423 -28.7259 -28.7133 -28.6367 -28.6095
   -28.6043 -28.5696 -28.5541 -28.5490 -28.5339 -28.5129 -28.4573 -28.4538
    -8.8090  -3.1096  -1.8995  -1.7313  -1.1444  -0.7286  -0.6192  -0.5904
    -0.4305  -0.4229  -0.3608  -0.3268  -0.2563   0.1857   0.2998   0.3717
     0.3805   0.4458   0.5667   0.6333   0.8581   0.9673   1.0360   1.0807
     1.1105   1.2512   1.4146   1.6135   1.6888   1.7536   1.7827   1.8182
     1.8592   1.9170   2.0286   2.2669   2.3237   2.3238   2.4572   2.8488
     2.9495   3.0748

     the Fermi energy is     2.1358 ev

!    total energy              =   -1434.97781707 Ry
     Harris-Foulkes estimate   =   -1434.97781700 Ry
     estimated scf accuracy    <       0.00000008 Ry

     The total energy is the sum of the following terms:

     one-electron contribution =  -11775.73846521 Ry
     hartree contribution      =    5883.00539461 Ry
     xc contribution           =    -232.82236633 Ry
     ewald contribution        =    4690.68998652 Ry
     electric field correction =       0.00002145 Ry
     smearing contrib. (-TS)   =      -0.11238812 Ry

     convergence has been achieved in  10 iterations

 BEEF-vdW xc energy contributions
           1 :   -199.592933363568
           2 :    181.527016496051
           3 :   -150.743872324524
           4 :    115.485031163406
           5 :   -83.6440150645420
           6 :    60.1541903687376
           7 :   -45.9682264627571
           8 :    38.7212518105504
           9 :   -34.5272316412831
          10 :    29.9356853753268
          11 :   -23.2293159709134
          12 :    14.6620749142598
          13 :   -5.78800309308087
          14 :   -1.64276573288200
          15 :    6.63260907591410
          16 :   -9.32762355505747
          17 :    10.7475890025393
          18 :   -12.0994596972889
          19 :    14.0835877703144
          20 :   -16.5694679802994
          21 :    18.7686633245924
          22 :   -19.7585045513403
          23 :    19.0259325248375
          24 :   -16.7389535010751
          25 :    13.6305706430910
          26 :   -10.6076837030363
          27 :    8.31969757776432
          28 :   -6.91467949421593
          29 :    6.07875141817721
          30 :   -5.30438693900066
          31 :   -23.0896267350305
          32 :   -17.4646750623230

     Forces acting on atoms (Ry/au):

     negative rho (up, down):  4.835E-03 0.000E+00
     atom    1 type  1   force =    -0.00000086   -0.00000030   -0.00225510
     atom    2 type  1   force =     0.00000022    0.00178956   -0.00265446
     atom    3 type  1   force =     0.00154992   -0.00089453   -0.00265469
     atom    4 type  1   force =    -0.00155009   -0.00089493   -0.00265413
     atom    5 type  1   force =     0.01562281   -0.00901877   -0.00082241
     atom    6 type  1   force =    -0.01562228   -0.00902014   -0.00083053
     atom    7 type  1   force =    -0.00000094    0.00000002    0.01383046
     atom    8 type  1   force =     0.00000138    0.01803923   -0.00082477
     atom    9 type  1   force =    -0.00064203   -0.00036606   -0.00019122
     atom   10 type  1   force =     0.00064529   -0.00038286   -0.00019033
     atom   11 type  1   force =    -0.00001293    0.00074584   -0.00019000
     atom   12 type  1   force =     0.00000782    0.00000185   -0.00040343
     atom   13 type  2   force =     0.00000218    0.00000117   -0.00150679
     atom   14 type  3   force =    -0.00000050   -0.00000007    0.00134740

     Total force =     0.002454     Total SCF correction =     0.000132

     entering subroutine stress ...

     negative rho (up, down):  4.835E-03 0.000E+00
          total   stress  (Ry/bohr**3)                   (kbar)     P=  -12.69
  -0.00013308  -0.00000000   0.00000000        -19.58     -0.00      0.00
  -0.00000000  -0.00013308   0.00000000         -0.00    -19.58      0.00
   0.00000000   0.00000000   0.00000731          0.00      0.00      1.07

     bfgs converged in  17 scf cycles and  16 bfgs steps
     (criteria: energy <  1.0E+00, force <  1.9E-03)

     End of BFGS Geometry Optimization

     Final energy   =   -1434.9778170749 Ry
Begin final coordinates

ATOMIC_POSITIONS (crystal)
Nb1      0.166666667   0.166666667   0.402010442    0   0   0
Nb1      0.666666667   0.166666667   0.402010442    0   0   0
Nb1      0.166666667   0.666666667   0.402010442    0   0   0
Nb1      0.666666667   0.666666667   0.402010442    0   0   0
Nb1      0.833333333   0.333333333   0.500000000    0   0   0
Nb1      0.333333333   0.333333333   0.500000000    0   0   0
Nb1      0.833333333   0.833333333   0.500000000    0   0   0
Nb1      0.333333333   0.833333333   0.500000000    0   0   0
Nb1     -0.003325137  -0.003328941   0.599606858
Nb1      0.506653209  -0.003322316   0.599606357
Nb1     -0.003320758   0.506653922   0.599606505
Nb1      0.499998020   0.499999030   0.590555757
C1       0.166666084   0.166665960   0.647744434
H1       0.166668959   0.166666769   0.692094078
End final coordinates

     Writing output data file calc.save

     General routines

     Parallel routines

   This run was terminated on:  10: 1:35  19Apr2018

   JOB DONE.
Job  /afs/slac/g/suncat/bin/suncat-tsmpirun -x LD_LIBRARY_PATH -wdir /scratch/qe517473_9j5o1 pw.x -npool 4 -in pw.inp

TID   HOST_NAME   COMMAND_LINE            STATUS            TERMINATION_TIME
00000 suncat0126 pw.x -npool 4 -i  Done                     04/19/2018 10:01:35
00001 suncat0126 pw.x -npool 4 -i  Done                     04/19/2018 10:01:35
00002 suncat0126 pw.x -npool 4 -i  Done                     04/19/2018 10:01:35
00003 suncat0126 pw.x -npool 4 -i  Done                     04/19/2018 10:01:35
00004 suncat0126 pw.x -npool 4 -i  Done                     04/19/2018 10:01:35
00005 suncat0126 pw.x -npool 4 -i  Done                     04/19/2018 10:01:35
00006 suncat0126 pw.x -npool 4 -i  Done                     04/19/2018 10:01:35
00007 suncat0126 pw.x -npool 4 -i  Done                     04/19/2018 10:01:35
00008 suncat0105 pw.x -npool 4 -i  Done                     04/19/2018 10:01:35
00009 suncat0105 pw.x -npool 4 -i  Done                     04/19/2018 10:01:35
00010 suncat0105 pw.x -npool 4 -i  Done                     04/19/2018 10:01:35
00011 suncat0105 pw.x -npool 4 -i  Done                     04/19/2018 10:01:35
00012 suncat0105 pw.x -npool 4 -i  Done                     04/19/2018 10:01:35
00013 suncat0105 pw.x -npool 4 -i  Done                     04/19/2018 10:01:35
00014 suncat0105 pw.x -npool 4 -i  Done                     04/19/2018 10:01:35
00015 suncat0105 pw.x -npool 4 -i  Done                     04/19/2018 10:01:35
00016 suncat0100 pw.x -npool 4 -i  Done                     04/19/2018 10:01:35
00017 suncat0100 pw.x -npool 4 -i  Done                     04/19/2018 10:01:35
00018 suncat0100 pw.x -npool 4 -i  Done                     04/19/2018 10:01:35
00019 suncat0100 pw.x -npool 4 -i  Done                     04/19/2018 10:01:35
00020 suncat0100 pw.x -npool 4 -i  Done                     04/19/2018 10:01:35
00021 suncat0100 pw.x -npool 4 -i  Done                     04/19/2018 10:01:35
00022 suncat0100 pw.x -npool 4 -i  Done                     04/19/2018 10:01:35
00023 suncat0100 pw.x -npool 4 -i  Done                     04/19/2018 10:01:35
00024 suncat0268 pw.x -npool 4 -i  Done                     04/19/2018 10:01:35
00025 suncat0268 pw.x -npool 4 -i  Done                     04/19/2018 10:01:35
00026 suncat0268 pw.x -npool 4 -i  Done                     04/19/2018 10:01:35
00027 suncat0268 pw.x -npool 4 -i  Done                     04/19/2018 10:01:35
00028 suncat0268 pw.x -npool 4 -i  Done                     04/19/2018 10:01:35
00029 suncat0268 pw.x -npool 4 -i  Done                     04/19/2018 10:01:35
00030 suncat0268 pw.x -npool 4 -i  Done                     04/19/2018 10:01:35
00031 suncat0268 pw.x -npool 4 -i  Done                     04/19/2018 10:01:35