     Program PWSCF v.5.1rc2 (svn rev. 11289) starts on 25Apr2018 at  4:39:17

     Current dimensions of program PWSCF are:
     Max number of different atomic species (ntypx) = 10
     Max number of k-points (npk) =  40000
     Max angular momentum in pseudopotentials (lmaxx) =  3
     Presently stress not available with electric field

     IMPORTANT: XC functional enforced from input :
     Exchange-correlation      = BEEF-VDW ( 1  4 27 13 2)
     Any further DFT definition will be discarded
     Please, verify this is what you really want

     Subspace diagonalization in iterative solution of the eigenvalue problem:
     a serial algorithm will be used

     bravais-lattice index     =            0
     lattice parameter (alat)  =       1.8897  a.u.
     unit-cell volume          =    4515.4205 (a.u.)^3
     number of atoms/cell      =           14
     number of atomic types    =            3
     number of electrons       =       247.00
     number of Kohn-Sham states=          133
     kinetic-energy cutoff     =      36.7493  Ry
     charge density cutoff     =     367.4932  Ry
     convergence threshold     =      1.0E-05
     mixing beta               =       0.3000
     number of iterations used =           10  plain     mixing
     Exchange-correlation      = BEEF-VDW ( 1  4 27 13 2)
     nstep                     =           50

     celldm(1)=   1.889726  celldm(2)=   0.000000  celldm(3)=   0.000000
     celldm(4)=   0.000000  celldm(5)=   0.000000  celldm(6)=   0.000000

     crystal axes: (cart. coord. in units of alat)
               a(1) = (   5.606773   0.000000   0.000000 )
               a(2) = (   2.803387   4.855608   0.000000 )
               a(3) = (   0.000000   0.000000  24.577911 )

     reciprocal axes: (cart. coord. in units 2 pi/alat)
               b(1) = (  0.178356 -0.102974  0.000000 )
               b(2) = (  0.000000  0.205947  0.000000 )
               b(3) = (  0.000000  0.000000  0.040687 )

     PseudoPot. # 1 for Zn read from file:
     /u/if/mamunm/psp/gbrv1.5pbe/Zn.UPF
     MD5 check sum: df62231357ef9e81f77b2b3087fa5675
     Pseudo is Ultrasoft, Zval = 20.0
     Generated by new atomic code, or converted to UPF format
     Using radial grid of  943 points,  6 beta functions with:
                l(1) =   0
                l(2) =   0
                l(3) =   1
                l(4) =   1
                l(5) =   2
                l(6) =   2
     Q(r) pseudized with  8 coefficients,  rinner =    1.100   1.100   1.100
                                                       1.100   1.100

     PseudoPot. # 2 for S  read from file:
     /u/if/mamunm/psp/gbrv1.5pbe/S.UPF
     MD5 check sum: 88d86576ff6df21479756cfb9bdac1df
     Pseudo is Ultrasoft + core correction, Zval =  6.0
     Generated by new atomic code, or converted to UPF format
     Using radial grid of  907 points,  6 beta functions with:
                l(1) =   0
                l(2) =   0
                l(3) =   1
                l(4) =   1
                l(5) =   2
                l(6) =   2
     Q(r) pseudized with  8 coefficients,  rinner =    1.300   1.300   1.300
                                                       1.300   1.300

     PseudoPot. # 3 for H  read from file:
     /u/if/mamunm/psp/gbrv1.5pbe/H.UPF
     MD5 check sum: 761ae9a214b05c3daf00ab9f6b793d6f
     Pseudo is Ultrasoft, Zval =  1.0
     Generated by new atomic code, or converted to UPF format
     Using radial grid of  615 points,  2 beta functions with:
                l(1) =   0
                l(2) =   0
     Q(r) pseudized with  8 coefficients,  rinner =    0.700

     vdW kernel table read from file vdW_kernel_table
     MD5 check sum: 095c7af220d748ca6e76c0b4c6cfb241

     atomic species   valence    mass     pseudopotential
        Zn1           20.00    65.38000     Zn( 1.00)
        S1             6.00    32.06000     S ( 1.00)
        H1             1.00     1.00800     H ( 1.00)

     No symmetry found

   Cartesian axes

     site n.     atom                  positions (alat units)
         1           Zn1 tau(   1) = (   1.4016933   0.8092680  10.0000000  )
         2           Zn1 tau(   2) = (   4.2050800   0.8092680  10.0000000  )
         3           Zn1 tau(   3) = (   2.8033867   3.2370721  10.0000000  )
         4           Zn1 tau(   4) = (   5.6067733   3.2370721  10.0000000  )
         5           Zn1 tau(   5) = (   5.6067733   1.6185360  12.2889556  )
         6           Zn1 tau(   6) = (   2.8033867   1.6185360  12.2889556  )
         7           Zn1 tau(   7) = (   7.0084667   4.0463401  12.2889556  )
         8           Zn1 tau(   8) = (   4.2050800   4.0463401  12.2889556  )
         9           Zn1 tau(   9) = (   0.0000000   0.0000000  14.5779113  )
        10           Zn1 tau(  10) = (   2.8033867   0.0000000  14.5779113  )
        11           Zn1 tau(  11) = (   1.4016933   2.4278041  14.5779113  )
        12           Zn1 tau(  12) = (   4.2050800   2.4278041  14.5779113  )
        13           S1  tau(  13) = (   1.4016933   0.8092680  16.0534113  )
        14           H1  tau(  14) = (   1.4016933   0.8092680  17.3034113  )

     number of k points=    20  Fermi-Dirac smearing, width (Ry)=  0.0110
                       cart. coord. in units 2pi/alat
        k(    1) = (   0.0000000   0.0000000   0.0000000), wk =   0.0555556
        k(    2) = (   0.0000000   0.0343246   0.0000000), wk =   0.1111111
        k(    3) = (   0.0000000   0.0686491   0.0000000), wk =   0.1111111
        k(    4) = (   0.0000000  -0.1029737   0.0000000), wk =   0.0555556
        k(    5) = (   0.0297260  -0.0171623   0.0000000), wk =   0.1111111
        k(    6) = (   0.0297260   0.0171623   0.0000000), wk =   0.1111111
        k(    7) = (   0.0297260   0.0514869   0.0000000), wk =   0.1111111
        k(    8) = (   0.0297260  -0.1201360   0.0000000), wk =   0.1111111
        k(    9) = (   0.0297260  -0.0858114   0.0000000), wk =   0.1111111
        k(   10) = (   0.0297260  -0.0514869   0.0000000), wk =   0.1111111
        k(   11) = (   0.0594519  -0.0343246   0.0000000), wk =   0.1111111
        k(   12) = (   0.0594519   0.0000000   0.0000000), wk =   0.1111111
        k(   13) = (   0.0594519   0.0343246   0.0000000), wk =   0.1111111
        k(   14) = (   0.0594519  -0.1372983   0.0000000), wk =   0.1111111
        k(   15) = (   0.0594519  -0.1029737   0.0000000), wk =   0.1111111
        k(   16) = (   0.0594519  -0.0686491   0.0000000), wk =   0.1111111
        k(   17) = (  -0.0891779   0.0514869   0.0000000), wk =   0.0555556
        k(   18) = (  -0.0891779   0.0858114   0.0000000), wk =   0.1111111
        k(   19) = (  -0.0891779   0.1201360   0.0000000), wk =   0.1111111
        k(   20) = (  -0.0891779  -0.0514869   0.0000000), wk =   0.0555556

     Largest allocated arrays     est. size (Mb)     dimensions
     Largest temporary arrays     est. size (Mb)     dimensions

     Initial potential from superposition of free atoms
     Check: negative starting charge=   -0.000739

     starting charge  246.99826, renormalised to  247.00000

     negative rho (up, down):  7.386E-04 0.000E+00

     *
     * You are using vdW-DF for exchange-correlation in this calculation.
     * Please cite the following three references that made this development
     * possible:
     *
     *   M. Dion, H. Rydberg, E. Schroder, D. C. Langreth, and
     *   B. I. Lundqvist, Phys. Rev. Lett. 92, 246401 (2004).
     *
     *   T. Thonhauser, V. R. Cooper, S. Li, A. Puzder, P. Hyldgaard, and
     *   D. C. Langreth, Phys. Rev. B 76, 125112 (2007).
     *
     *   G. Roman-Perez and J. M. Soler, Phys. Rev. Lett. 103, 096102 (2009).
     *
     *
     * If you are using vdW-DF2, please also cite:
     *
     *   K. Lee, E. D. Murray, L. Kong, B. I. Lundqvist, and
     *   D. C. Langreth, Phys. Rev. B 82, 081101(R) (2010).
     *
     *
     * If you are calculating the stress with vdW-DF, please also cite:
     *
     *   R. Sabatini, E. Kucukbenli, B. Kolb, T. Thonhauser, and
     *   S. de Gironcoli, J. Phys.: Condens. Matter 24, 424209 (2012).
     *

     Carrying out vdW-DF run using the following parameters:

     Nqs =      20    Nr_points =    1024   r_max =   100.000
     q_mesh =
               0.00001000     0.04494208     0.09755937     0.15916263
               0.23128650     0.31572767     0.41458969     0.53033537
               0.66584808     0.82450364     1.01025438     1.22772762
               1.48234092     1.78043706     2.12944203     2.53805004
               3.01644009     3.57652955     4.23227104     5.00000000

     Gradients computed in reciprocal space

     Adding external electric field

     Computed dipole along edir(3) :
        Dipole               -0.0000 Ry au,         -0.0001 Debye
        Dipole field         -0.0000 Ry au

        Potential amp.        0.0000 Ry
        Total length         45.2844 bohr

     Starting wfc are  161 randomized atomic wfcs

     Self-consistent Calculation

     iteration #  1     ecut=    36.75 Ry     beta=0.30
     Davidson diagonalization with overlap
     ethr =  1.00E-02,  avg # of iterations =  3.2

     Threshold (ethr) on eigenvalues was too large:
     Diagonalizing with lowered threshold

     Davidson diagonalization with overlap
     ethr =  1.05E-04,  avg # of iterations =  5.0

[...]

     total energy              =   -5578.77900302 Ry
     Harris-Foulkes estimate   =   -5578.85746324 Ry
     estimated scf accuracy    <       0.28873687 Ry

[...]

     End of self-consistent calculation

          k = 0.0000 0.0000 0.0000 ( 16931 PWs)   bands (ev):

  -125.7550-125.7541-125.7541-125.5363-125.4946-125.4937-125.4936-125.3022
  -125.3013-125.3013-125.2774-125.2459 -79.9755 -79.9653 -79.9653 -79.9203
   -79.9203 -79.9197 -79.9167 -79.9167 -79.9151 -79.7214 -79.7124 -79.7124
   -79.6752 -79.6752 -79.6751 -79.6705 -79.6693 -79.6684 -79.6684 -79.6628
   -79.6628 -79.4924 -79.4915 -79.4915 -79.4820 -79.4782 -79.4782 -79.4704
   -79.4693 -79.4693 -79.4561 -79.4526 -79.4526 -79.4307 -79.4175 -79.4175
   -14.8172  -9.0047  -8.0818  -7.3532  -7.3532  -7.2461  -7.1789  -7.1149
    -7.1149  -7.0784  -7.0784  -7.0494  -7.0215  -6.8954  -6.8954  -6.8612
    -6.8057  -6.8057  -6.8010  -6.6684  -6.6684  -6.6244  -6.6244  -6.5916
    -6.5729  -6.5549  -6.5549  -6.5146  -6.4843  -6.4843  -6.4182  -6.4182
    -6.3623  -6.3338  -6.3338  -6.3136  -6.3136  -6.2728  -6.1905  -6.1637
    -6.1637  -6.0923  -6.0879  -6.0879  -6.0094  -6.0045  -6.0045  -5.9558
    -5.9555  -5.9555  -5.9427  -5.9427  -5.9198  -5.9198  -5.9065  -5.8995
    -5.8995  -5.8715  -5.8715  -5.8515  -5.7197  -5.7124  -5.7124  -5.0781
    -3.4711  -3.4711  -2.5565  -1.3809  -1.3809  -1.2523  -0.8906  -0.8406
    -0.8406  -0.2007   0.2182   0.2182   0.4445   1.1657   1.1657   1.7828
     3.0018   3.0030   3.0030   3.1170   3.3427

[...]

          k =-0.0892 0.0515 0.0000 ( 17028 PWs)   bands (ev):

[...]

     the Fermi energy is     1.2198 ev

!    total energy              =   -5578.81137404 Ry
     Harris-Foulkes estimate   =   -5578.81137590 Ry
     estimated scf accuracy    <       0.00000319 Ry

     The total energy is the sum of the following terms:

     one-electron contribution =  -36201.60777311 Ry
     hartree contribution      =   18086.78218383 Ry
     xc contribution           =    -530.70706901 Ry
     ewald contribution        =   13066.74681952 Ry
     electric field correction =       0.00031044 Ry
     smearing contrib. (-TS)   =      -0.02584572 Ry

     convergence has been achieved in   9 iterations

 BEEF-vdW xc energy contributions
           1 :   -471.181615102907
           2 :    426.865729149807
           3 :   -352.520861289639
           4 :    269.649979025272
           5 :   -197.291843621250
           6 :    144.961767387752
           7 :   -111.353156520998
           8 :    88.5359916624433
           9 :   -68.4366139737145
          10 :    47.5476136916599
          11 :   -27.5271560460653
          12 :    12.2441051147006
          13 :   -3.96985395837970
          14 :    1.48420251369214
          15 :   -1.08844547854227
          16 :  -0.666801116027898
          17 :    4.75845044364343
          18 :   -9.52156970297119
          19 :    12.3977117114912
          20 :   -12.0955950185998
          21 :    9.53323827697835
          22 :   -7.00675510126899
          23 :    6.39219147681257
          24 :   -7.82276668637638
          25 :    9.78671829201670
          26 :   -10.4442313136658
          27 :    9.06641949975943
          28 :   -6.50645902157493
          29 :    4.43178692167839
          30 :   -4.00245832688074
          31 :   -36.7900220397561
          32 :   -25.1143244111919

     Forces acting on atoms (Ry/au):

     negative rho (up, down):  9.465E-04 0.000E+00
     atom    1 type  1   force =    -0.00000108    0.00000036   -0.00313513
     atom    2 type  1   force =     0.00000257   -0.00123742   -0.00939353
     atom    3 type  1   force =    -0.00107341    0.00062134   -0.00939425
     atom    4 type  1   force =     0.00107354    0.00061873   -0.00939506
     atom    5 type  1   force =     0.00490552   -0.00283099    0.00511364
     atom    6 type  1   force =    -0.00490529   -0.00283175    0.00511257
     atom    7 type  1   force =    -0.00000020    0.00000244   -0.00230850
     atom    8 type  1   force =    -0.00000063    0.00566046    0.00511130
     atom    9 type  1   force =    -0.07271915   -0.04198661   -0.04316867
     atom   10 type  1   force =     0.07271920   -0.04198596   -0.04317017
     atom   11 type  1   force =     0.00000009    0.08396654   -0.04316909
     atom   12 type  1   force =    -0.00000189    0.00000227   -0.00868502
     atom   13 type  2   force =     0.00000023    0.00000022    0.01411609
     atom   14 type  3   force =     0.00000050    0.00000037    0.14236583

     Total force =     0.217453     Total SCF correction =     0.003615

     entering subroutine stress ...

     negative rho (up, down):  9.465E-04 0.000E+00
          total   stress  (Ry/bohr**3)                   (kbar)     P=    2.16
  -0.00005970  -0.00000000   0.00000000         -8.78     -0.00      0.00
  -0.00000000  -0.00005970  -0.00000000         -0.00     -8.78     -0.00
   0.00000000  -0.00000000   0.00016352          0.00     -0.00     24.05

     BFGS Geometry Optimization

     number of scf cycles    =   1
     number of bfgs steps    =   0

     energy   new            =   -5578.8113740438 Ry

     new trust radius        =       0.1423658273 bohr
     new conv_thr            =       0.0000099958 Ry

ATOMIC_POSITIONS (crystal)
Zn1      0.166666667   0.166666667   0.406869400    0   0   0
Zn1      0.666666667   0.166666667   0.406869400    0   0   0
Zn1      0.166666667   0.666666667   0.406869400    0   0   0
Zn1      0.666666667   0.666666667   0.406869400    0   0   0
Zn1      0.833333333   0.333333333   0.500000000    0   0   0
Zn1      0.333333333   0.333333333   0.500000000    0   0   0
Zn1      0.833333333   0.833333333   0.500000000    0   0   0
Zn1      0.333333333   0.833333333   0.500000000    0   0   0
Zn1     -0.004575456  -0.004575814   0.592201153
Zn1      0.509151239  -0.004575743   0.592201121
Zn1     -0.004575441   0.509150899   0.592201144
Zn1      0.499999698   0.500000247   0.592943607
S1       0.166666677   0.166666691   0.653468108
H1       0.166666693   0.166666708   0.707088077

     Writing output data file calc.save
     Check: negative starting charge=   -0.000739
     NEW-OLD atomic charge density approx. for the potential
     Check: negative starting charge=   -0.000727

[...]

     energy   old            =   -5578.8113740438 Ry
     energy   new            =   -5578.8482647957 Ry

     CASE: energy  _new < energy  _old

[...]

     Threshold (ethr) on eigenvalues was too large:
     Diagonalizing with lowered threshold

     Davidson diagonalization with overlap
     ethr =  5.67E-08,  avg # of iterations =  1.0

[...]

     Total force =     0.012838     Total SCF correction =     0.001058

[...]

     number of scf cycles    =  16
     number of bfgs steps    =  15

     energy   old            =   -5578.9011932495 Ry
     energy   new            =   -5578.9021733125 Ry

     CASE: energy  _new < energy  _old

     new trust radius        =       0.1026424862 bohr
     new conv_thr            =       0.0000001000 Ry

ATOMIC_POSITIONS (crystal)
Zn1      0.166666667   0.166666667   0.406869400    0   0   0
Zn1      0.666666667   0.166666667   0.406869400    0   0   0
Zn1      0.166666667   0.666666667   0.406869400    0   0   0
Zn1      0.666666667   0.666666667   0.406869400    0   0   0
Zn1      0.833333333   0.333333333   0.500000000    0   0   0
Zn1      0.333333333   0.333333333   0.500000000    0   0   0
Zn1      0.833333333   0.833333333   0.500000000    0   0   0
Zn1      0.333333333   0.833333333   0.500000000    0   0   0
Zn1     -0.009579851  -0.009579525   0.602667672
Zn1      0.519159289  -0.009579296   0.602667670
Zn1     -0.009578527   0.519156999   0.602667934
Zn1      0.499999955   0.499999684   0.592883895
S1       0.166666391   0.166667008   0.679530271
H1       0.166666447   0.166667547   0.735021965

     Writing output data file calc.save
     Check: negative starting charge=   -0.000678
     NEW-OLD atomic charge density approx. for the potential
     Check: negative starting charge=   -0.000676

[...]

     Self-consistent Calculation

[...]

     total energy              =   -5578.90284843 Ry
     Harris-Foulkes estimate   =   -5578.90284814 Ry
     estimated scf accuracy    <       0.00000042 Ry

     iteration #  8     ecut=    36.75 Ry     beta=0.30
     Davidson diagonalization with overlap
     ethr =  1.71E-10,  avg # of iterations =  2.8

[...]

     negative rho (up, down):  8.570E-04 0.000E+00

     Adding external electric field

     Computed dipole along edir(3) :
        Dipole                0.0350 Ry au,          0.0890 Debye
        Dipole field          0.0001 Ry au

        Potential amp.       -0.0088 Ry
        Total length         45.2844 bohr

     End of self-consistent calculation

[...]

          k = 0.0595-0.0686 0.0000 ( 16986 PWs)   bands (ev):

[...]

          k =-0.0892-0.0515 0.0000 ( 17028 PWs)   bands (ev):

  -125.9350-125.9107-125.9104-125.9101-125.7708-125.7705-125.7702-125.7598
  -125.7589-125.7587-125.7401-125.6544 -80.1218 -80.1098 -80.1088 -80.0916
   -80.0883 -80.0878 -80.0877 -80.0874 -80.0873 -80.0867 -80.0863 -80.0816
   -79.9629 -79.9625 -79.9621 -79.9607 -79.9514 -79.9491 -79.9462 -79.9430
   -79.9423 -79.9417 -79.9411 -79.9373 -79.9364 -79.9363 -79.9331 -79.9312
   -79.9301 -79.9298 -79.9239 -79.9149 -79.9139 -79.8453 -79.8238 -79.8235
   -12.8510  -7.4347  -7.4071  -7.3117  -7.2179  -7.2155  -7.2087  -7.1872
    -7.1418  -7.1406  -7.1261  -7.1063  -7.1020  -7.0693  -7.0133  -6.9869
    -6.9796  -6.9792  -6.9249  -6.9182  -6.8944  -6.8733  -6.8669  -6.8558
    -6.8517  -6.8233  -6.8038  -6.7678  -6.7479  -6.7465  -6.7420  -6.7234
    -6.7104  -6.6591  -6.6567  -6.6399  -6.6213  -6.6149  -6.6136  -6.5940
    -6.5883  -6.5829  -6.5743  -6.5432  -6.5292  -6.5162  -6.5136  -6.4728
    -6.4676  -6.4608  -6.4529  -6.4494  -6.4455  -6.4017  -6.3693  -6.3656
    -6.3593  -6.3206  -6.3043  -6.2844  -6.2791  -6.2700  -6.2571  -5.6187
    -4.9585  -4.0440  -3.1356  -2.9749  -2.8101  -2.3715  -1.8173  -1.1118
    -0.9145  -0.7890   0.9430   1.4197   1.6945   2.0331   3.3938   3.4626
     3.5469   3.6272   4.2911   4.5104   4.6731

     the Fermi energy is     0.8308 ev

!    total energy              =   -5578.90284859 Ry
     Harris-Foulkes estimate   =   -5578.90284848 Ry
     estimated scf accuracy    <       0.00000007 Ry

     The total energy is the sum of the following terms:

     one-electron contribution =  -35108.61158856 Ry
     hartree contribution      =   17538.22760888 Ry
     xc contribution           =    -530.34896393 Ry
     ewald contribution        =   12521.85551505 Ry
     electric field correction =       0.00000341 Ry
     smearing contrib. (-TS)   =      -0.02542343 Ry

     convergence has been achieved in   8 iterations

 BEEF-vdW xc energy contributions
           1 :   -470.800815147754
           2 :    426.270450087854
           3 :   -351.693320214219
           4 :    268.783549308290
           5 :   -196.636813363889
           6 :    144.639693687499
           7 :   -111.278957066743
           8 :    88.5035740202500
           9 :   -68.2930341698959
          10 :    47.3143596590215
          11 :   -27.3712408956569
          12 :    12.3235403411575
          13 :   -4.28158726882185
          14 :    1.84211951910027
          15 :   -1.25475835403671
          16 :  -0.798705856986146
          17 :    5.07794672003223
          18 :   -9.78408150170463
          19 :    12.4133522380706
          20 :   -11.8741125002081
          21 :    9.27097447850292
          22 :   -6.92628975027600
          23 :    6.56227502473115
          24 :   -8.10183737146667
          25 :    9.93509450243886
          26 :   -10.3157916863136
          27 :    8.72816055571428
          28 :   -6.19224445061491
          29 :    4.36788446508103
          30 :   -4.24147375645060
          31 :   -36.7589936778710
          32 :   -25.0330495744206

     Forces acting on atoms (Ry/au):

     negative rho (up, down):  8.570E-04 0.000E+00
     atom    1 type  1   force =     0.00000001    0.00000002   -0.00663503
     atom    2 type  1   force =    -0.00000000   -0.00086823   -0.01081818
     atom    3 type  1   force =    -0.00075199    0.00043417   -0.01081824
     atom    4 type  1   force =     0.00075198    0.00043417   -0.01081825
     atom    5 type  1   force =     0.00513435   -0.00296434    0.01211209
     atom    6 type  1   force =    -0.00513437   -0.00296435    0.01211203
     atom    7 type  1   force =    -0.00000001   -0.00000018    0.00306798
     atom    8 type  1   force =     0.00000001    0.00592859    0.01211219
     atom    9 type  1   force =    -0.00114625   -0.00066246   -0.00100048
     atom   10 type  1   force =     0.00114620   -0.00066254   -0.00100041
     atom   11 type  1   force =    -0.00000010    0.00132540   -0.00100101
     atom   12 type  1   force =     0.00000014    0.00000039   -0.00097612
     atom   13 type  2   force =     0.00000002   -0.00000103    0.00193218
     atom   14 type  3   force =     0.00000002    0.00000037    0.00173125

     Total force =     0.003994     Total SCF correction =     0.001125
     SCF correction compared to forces is large: reduce conv_thr to get better values

     entering subroutine stress ...

     negative rho (up, down):  8.570E-04 0.000E+00
          total   stress  (Ry/bohr**3)                   (kbar)     P=  -15.36
  -0.00015001   0.00000000   0.00000000        -22.07      0.00      0.00
   0.00000000  -0.00015001  -0.00000000          0.00    -22.07     -0.00
   0.00000000  -0.00000000  -0.00001316          0.00     -0.00     -1.94

     bfgs converged in  17 scf cycles and  16 bfgs steps
     (criteria: energy <  1.0E+00, force <  1.9E-03)

     End of BFGS Geometry Optimization

     Final energy   =   -5578.9028485871 Ry
Begin final coordinates

ATOMIC_POSITIONS (crystal)
Zn1      0.166666667   0.166666667   0.406869400    0   0   0
Zn1      0.666666667   0.166666667   0.406869400    0   0   0
Zn1      0.166666667   0.666666667   0.406869400    0   0   0
Zn1      0.666666667   0.666666667   0.406869400    0   0   0
Zn1      0.833333333   0.333333333   0.500000000    0   0   0
Zn1      0.333333333   0.333333333   0.500000000    0   0   0
Zn1      0.833333333   0.833333333   0.500000000    0   0   0
Zn1      0.333333333   0.833333333   0.500000000    0   0   0
Zn1     -0.009579851  -0.009579525   0.602667672
Zn1      0.519159289  -0.009579296   0.602667670
Zn1     -0.009578527   0.519156999   0.602667934
Zn1      0.499999955   0.499999684   0.592883895
S1       0.166666391   0.166667008   0.679530271
H1       0.166666447   0.166667547   0.735021965
End final coordinates

     Writing output data file calc.save

     General routines

     Parallel routines

   This run was terminated on:   6:21:53  25Apr2018

   JOB DONE.
Job  /afs/slac/g/suncat/bin/suncat-tsmpirun -x LD_LIBRARY_PATH -wdir /scratch/qe317402_W92UA pw.x -npool 4 -in pw.inp

TID   HOST_NAME   COMMAND_LINE            STATUS            TERMINATION_TIME
00000 suncat0273 pw.x -npool 4 -i  Done                     04/25/2018 06:21:53
00001 suncat0273 pw.x -npool 4 -i  Done                     04/25/2018 06:21:53
00002 suncat0273 pw.x -npool 4 -i  Done                     04/25/2018 06:21:53
00003 suncat0273 pw.x -npool 4 -i  Done                     04/25/2018 06:21:53
00004 suncat0273 pw.x -npool 4 -i  Done                     04/25/2018 06:21:53
00005 suncat0273 pw.x -npool 4 -i  Done                     04/25/2018 06:21:53
00006 suncat0273 pw.x -npool 4 -i  Done                     04/25/2018 06:21:53
00007 suncat0273 pw.x -npool 4 -i  Done                     04/25/2018 06:21:53
00008 suncat0247 pw.x -npool 4 -i  Done                     04/25/2018 06:21:53
00009 suncat0247 pw.x -npool 4 -i  Done                     04/25/2018 06:21:53
00010 suncat0247 pw.x -npool 4 -i  Done                     04/25/2018 06:21:53
00011 suncat0247 pw.x -npool 4 -i  Done                     04/25/2018 06:21:53
00012 suncat0247 pw.x -npool 4 -i  Done                     04/25/2018 06:21:53
00013 suncat0247 pw.x -npool 4 -i  Done                     04/25/2018 06:21:53
00014 suncat0247 pw.x -npool 4 -i  Done                     04/25/2018 06:21:53
00015 suncat0247 pw.x -npool 4 -i  Done                     04/25/2018 06:21:53
00016 suncat0242 pw.x -npool 4 -i  Done                     04/25/2018 06:21:53
00017 suncat0242 pw.x -npool 4 -i  Done                     04/25/2018 06:21:53
00018 suncat0242 pw.x -npool 4 -i  Done                     04/25/2018 06:21:53
00019 suncat0242 pw.x -npool 4 -i  Done                     04/25/2018 06:21:53
00020 suncat0242 pw.x -npool 4 -i  Done                     04/25/2018 06:21:53
00021 suncat0242 pw.x -npool 4 -i  Done                     04/25/2018 06:21:53
00022 suncat0242 pw.x -npool 4 -i  Done                     04/25/2018 06:21:53
00023 suncat0242 pw.x -npool 4 -i  Done                     04/25/2018 06:21:53
00024 suncat0226 pw.x -npool 4 -i  Done                     04/25/2018 06:21:53
00025 suncat0226 pw.x -npool 4 -i  Done                     04/25/2018 06:21:53
00026 suncat0226 pw.x -npool 4 -i  Done                     04/25/2018 06:21:53
00027 suncat0226 pw.x -npool 4 -i  Done                     04/25/2018 06:21:53
00028 suncat0226 pw.x -npool 4 -i  Done                     04/25/2018 06:21:53
00029 suncat0226 pw.x -npool 4 -i  Done                     04/25/2018 06:21:53
00030 suncat0226 pw.x -npool 4 -i  Done                     04/25/2018 06:21:53
00031 suncat0226 pw.x -npool 4 -i  Done                     04/25/2018 06:21:53