     Program PWSCF v.5.1rc2 (svn rev. 11289) starts on 15Jan2019 at 15:16:21

     Current dimensions of program PWSCF are:
     Max number of different atomic species (ntypx) = 10
     Max number of k-points (npk) =  40000
     Max angular momentum in pseudopotentials (lmaxx) =  3

     IMPORTANT: XC functional enforced from input :
     Exchange-correlation      = BEEF-VDW ( 1  4 27 13 2)
     Any further DFT definition will be discarded
     Please, verify this is what you really want

     Subspace diagonalization in iterative solution of the eigenvalue problem:
     a serial algorithm will be used

     bravais-lattice index     =            0
     lattice parameter (alat)  =      11.1490  a.u.
     unit-cell volume          =    5488.7460 (a.u.)^3
     number of atoms/cell      =           13
     number of atomic types    =            3
     number of electrons       =       186.00
     number of Kohn-Sham states=          103
     kinetic-energy cutoff     =      36.7493  Ry
     charge density cutoff     =     367.4933  Ry
     convergence threshold     =      1.0E-04
     mixing beta               =       0.2000
     number of iterations used =            8  plain     mixing
     Exchange-correlation      = BEEF-VDW ( 1  4 27 13 2)
     nstep                     =           50

     celldm(1)=  11.148956  celldm(2)=   0.000000  celldm(3)=   0.000000
     celldm(4)=   0.000000  celldm(5)=   0.000000  celldm(6)=   0.000000

     crystal axes: (cart. coord. in units of alat)
               a(1) = (   1.000000   0.000000   0.000000 )
               a(2) = (   0.337601   0.941289   0.000000 )
               a(3) = (   0.000000   0.000000   4.207726 )

     reciprocal axes: (cart. coord. in units 2 pi/alat)
               b(1) = (  1.000000 -0.358658  0.000000 )
               b(2) = (  0.000000  1.062373  0.000000 )
               b(3) = (  0.000000  0.000000  0.237658 )

     PseudoPot. # 1 for Sn read from file:
     /u/if/winther/decaf-espresso/gbrv15pbe/Sn.UPF
     MD5 check sum: 469debedee59599fedebd795477fea03
     Pseudo is Ultrasoft + core correction, Zval = 14.0
     Generated by new atomic code, or converted to UPF format
     Using radial grid of  891 points,  6 beta functions with:
                l(1) =   0
                l(2) =   0
                l(3) =   1
                l(4) =   1
                l(5) =   2
                l(6) =   2
     Q(r) pseudized with  8 coefficients,  rinner =    1.350   1.350   1.350
                                                       1.350   1.350

     PseudoPot. # 2 for Pt read from file:
     /u/if/winther/decaf-espresso/gbrv15pbe/Pt.UPF
     MD5 check sum: f09d6de1a584b5a045c4fc126da2d0c4
     Pseudo is Ultrasoft + core correction, Zval = 16.0
     Generated by new atomic code, or converted to UPF format
     Using radial grid of  985 points,  6 beta functions with:
                l(1) =   0
                l(2) =   0
                l(3) =   1
                l(4) =   1
                l(5) =   2
                l(6) =   2
     Q(r) pseudized with  8 coefficients,  rinner =    1.300   1.300   1.300
                                                       1.300   1.300

     PseudoPot. # 3 for S  read from file:
     /u/if/winther/decaf-espresso/gbrv15pbe/S.UPF
     MD5 check sum: 88d86576ff6df21479756cfb9bdac1df
     Pseudo is Ultrasoft + core correction, Zval =  6.0
     Generated by new atomic code, or converted to UPF format
     Using radial grid of  907 points,  6 beta functions with:
                l(1) =   0
                l(2) =   0
                l(3) =   1
                l(4) =   1
                l(5) =   2
                l(6) =   2
     Q(r) pseudized with  8 coefficients,  rinner =    1.300   1.300   1.300
                                                       1.300   1.300

     vdW kernel table read from file vdW_kernel_table
     MD5 check sum: 095c7af220d748ca6e76c0b4c6cfb241

     atomic species   valence    mass     pseudopotential
        Sn            14.00   118.71000     Sn( 1.00)
        Pt            16.00   195.08400     Pt( 1.00)
        S              6.00    32.06000     S ( 1.00)

     No symmetry found

   Cartesian axes

     site n.     atom                  positions (alat units)
         1           Sn  tau(   1) = (   0.0064010   0.0045045   1.6949804  )
         2           Pt  tau(   2) = (   0.5064010   0.0045045   1.6949804  )
         3           Pt  tau(   3) = (   0.1752014   0.4751492   1.6949804  )
         4           Sn  tau(   4) = (   0.6752014   0.4751492   1.6949804  )
         5           Sn  tau(   5) = (   0.3376007   0.2375746   2.1038628  )
         6           Pt  tau(   6) = (   0.8376007   0.2375746   2.1038628  )
         7           Pt  tau(   7) = (   0.5064010   0.7082193   2.1038628  )
         8           Sn  tau(   8) = (   1.0064010   0.7082193   2.1038628  )
         9           Pt  tau(   9) = (   0.5000000   0.0000000   2.5127451  )
        10           Pt  tau(  10) = (   0.1688003   0.4706447   2.5127451  )
        11           Sn  tau(  11) = (   0.6688003   0.4706447   2.5127451  )
        12           Sn  tau(  12) = (   0.0000000   0.0000000   2.5127451  )
        13           S   tau(  13) = (   0.3344002   0.2353224   2.7731201  )

     number of k points=    20  Fermi-Dirac smearing, width (Ry)=  0.0110
                       cart. coord. in units 2pi/alat
        k(    1) = (   0.0000000   0.0000000   0.0000000), wk =   0.0555556
        k(    2) = (   0.0000000   0.1770621   0.0000000), wk =   0.1111111
        k(    3) = (   0.0000000   0.3541242   0.0000000), wk =   0.1111111
        k(    4) = (   0.0000000  -0.5311863   0.0000000), wk =   0.0555556
        k(    5) = (   0.1666667  -0.0597763   0.0000000), wk =   0.1111111
        k(    6) = (   0.1666667   0.1172858   0.0000000), wk =   0.1111111
        k(    7) = (   0.1666667   0.2943479   0.0000000), wk =   0.1111111
        k(    8) = (   0.1666667  -0.5909625   0.0000000), wk =   0.1111111
        k(    9) = (   0.1666667  -0.4139005   0.0000000), wk =   0.1111111
        k(   10) = (   0.1666667  -0.2368384   0.0000000), wk =   0.1111111
        k(   11) = (   0.3333333  -0.1195526   0.0000000), wk =   0.1111111
        k(   12) = (   0.3333333   0.0575095   0.0000000), wk =   0.1111111
        k(   13) = (   0.3333333   0.2345716   0.0000000), wk =   0.1111111
        k(   14) = (   0.3333333  -0.6507388   0.0000000), wk =   0.1111111
        k(   15) = (   0.3333333  -0.4736767   0.0000000), wk =   0.1111111
        k(   16) = (   0.3333333  -0.2966147   0.0000000), wk =   0.1111111
        k(   17) = (  -0.5000000   0.1793288   0.0000000), wk =   0.0555556
        k(   18) = (  -0.5000000   0.3563909   0.0000000), wk =   0.1111111
        k(   19) = (  -0.5000000   0.5334530   0.0000000), wk =   0.1111111
        k(   20) = (  -0.5000000  -0.3518574   0.0000000), wk =   0.0555556

     Largest allocated arrays     est. size (Mb)     dimensions
     Largest temporary arrays     est. size (Mb)     dimensions

     Initial potential from superposition of free atoms
     Check: negative starting charge=   -1.111395

     starting charge  176.99962, renormalised to  186.00000

     negative rho (up, down):  1.168E+00 0.000E+00

     *
     * You are using vdW-DF for exchange-correlation in this calculation.
     * Please cite the following three references that made this development
     * possible:
     *
     *   M. Dion, H. Rydberg, E. Schroder, D. C. Langreth, and
     *   B. I. Lundqvist, Phys. Rev. Lett. 92, 246401 (2004).
     *
     *   T. Thonhauser, V. R. Cooper, S. Li, A. Puzder, P. Hyldgaard, and
     *   D. C. Langreth, Phys. Rev. B 76, 125112 (2007).
     *
     *   G. Roman-Perez and J. M. Soler, Phys. Rev. Lett. 103, 096102 (2009).
     *
     *
     * If you are using vdW-DF2, please also cite:
     *
     *   K. Lee, E. D. Murray, L. Kong, B. I. Lundqvist, and
     *   D. C. Langreth, Phys. Rev. B 82, 081101(R) (2010).
     *
     *
     * If you are calculating the stress with vdW-DF, please also cite:
     *
     *   R. Sabatini, E. Kucukbenli, B. Kolb, T. Thonhauser, and
     *   S. de Gironcoli, J. Phys.: Condens. Matter 24, 424209 (2012).
     *

     Carrying out vdW-DF run using the following parameters:

     Nqs =      20    Nr_points =    1024   r_max =   100.000
     q_mesh =
               0.00001000     0.04494208     0.09755937     0.15916263
               0.23128650     0.31572767     0.41458969     0.53033537
               0.66584808     0.82450364     1.01025438     1.22772762
               1.48234092     1.78043706     2.12944203     2.53805004
               3.01644009     3.57652955     4.23227104     5.00000000

     Gradients computed in reciprocal space

     Adding external electric field

     Computed dipole along edir(3) :
        Dipole               -2.2762 Ry au,         -5.7855 Debye
        Dipole field         -0.0052 Ry au

        Potential amp.        0.4401 Ry
        Total length         42.2206 bohr

     Starting wfc are  130 randomized atomic wfcs

     Self-consistent Calculation

     iteration #  1     ecut=    36.75 Ry     beta=0.20
     Davidson diagonalization with overlap
     ethr =  1.00E-02,  avg # of iterations =  7.2

[...]

     total energy              =   -2197.47421057 Ry
     Harris-Foulkes estimate   =   -2267.82016342 Ry
     estimated scf accuracy    <     207.68023354 Ry

[...]

     End of self-consistent calculation

          k = 0.0000 0.0000 0.0000 ( 20719 PWs)   bands (ev):

   -51.4645 -51.4469 -51.3226 -51.3091 -51.2980 -51.2876 -51.2800 -51.2791
   -51.2477 -51.2454 -51.1323 -51.1239 -50.9028 -50.9011 -50.8310 -50.8095
   -50.6973 -50.6956 -20.8057 -20.7699 -20.7575 -20.7562 -20.7451 -20.7244
   -20.7181 -20.7175 -20.7032 -20.6848 -20.6734 -20.6376 -20.6346 -20.6208
   -20.6143 -20.6110 -20.5940 -20.5916 -20.5888 -20.5879 -20.5852 -20.5483
   -20.5467 -20.5445 -20.5367 -20.5231 -20.5195 -20.5131 -20.4971 -20.4583
   -12.2384  -9.2202  -7.5540  -6.3379  -6.2354  -6.1706  -5.6607  -4.1319
    -3.6510  -3.2782  -2.9019  -2.8807  -2.8504  -2.5556  -2.4740  -2.4116
    -2.1480  -2.1416  -1.8117  -1.7919  -1.6969  -1.6124  -1.5198  -1.3937
    -1.3863  -1.3343  -1.2246  -1.1868  -0.9912  -0.9742  -0.9434  -0.8179
    -0.6838  -0.6335  -0.5765  -0.4542  -0.4242  -0.3831  -0.1022  -0.0309
     0.1743   0.1974   0.2457   0.3735   0.8140   0.8575   1.4949   1.7044
     1.9143   1.9980   2.2134   2.7700   3.0665   3.1013   4.1087

[...]

          k =-0.5000 0.1793 0.0000 ( 20616 PWs)   bands (ev):

[...]

     the Fermi energy is     1.2886 ev

!    total energy              =   -2262.97701312 Ry
     Harris-Foulkes estimate   =   -2262.97704943 Ry
     estimated scf accuracy    <       0.00002468 Ry

     The total energy is the sum of the following terms:

     one-electron contribution =  -15030.87925422 Ry
     hartree contribution      =    7568.07663577 Ry
     xc contribution           =    -628.07931163 Ry
     ewald contribution        =    5827.93902182 Ry
     electric field correction =       0.00001662 Ry
     smearing contrib. (-TS)   =      -0.03412148 Ry

     convergence has been achieved in  14 iterations

     Forces acting on atoms (Ry/au):

     negative rho (up, down):  1.068E+00 0.000E+00
     atom    1 type  1   force =    -0.00320432   -0.00225846   -0.01807342
     atom    2 type  2   force =     0.00260424   -0.00402347    0.02864411
     atom    3 type  2   force =    -0.00290669    0.00381020    0.02860999
     atom    4 type  1   force =     0.00182725    0.00129623   -0.01820038
     atom    5 type  1   force =     0.00012358    0.00014987   -0.01074314
     atom    6 type  2   force =     0.00025883   -0.00014777   -0.00491898
     atom    7 type  2   force =    -0.00006860    0.00028585   -0.00491848
     atom    8 type  1   force =     0.00014081    0.00002251   -0.00756313
     atom    9 type  2   force =     0.02484592   -0.03541814   -0.03178103
     atom   10 type  2   force =    -0.02494986    0.03534865   -0.03177763
     atom   11 type  1   force =     0.01599961    0.01127850    0.01139116
     atom   12 type  1   force =    -0.01475471   -0.01040435    0.01119131
     atom   13 type  3   force =     0.00008394    0.00006039    0.04813961

     Total force =     0.095106     Total SCF correction =     0.010034
     SCF correction compared to forces is large: reduce conv_thr to get better values

     BFGS Geometry Optimization

     number of scf cycles    =   1
     number of bfgs steps    =   0

     energy   new            =   -2262.9770131163 Ry

     new trust radius        =       0.0536827756 bohr
     new conv_thr            =       0.0001000000 Ry

ATOMIC_POSITIONS (angstrom)
Sn       0.037764705   0.026575582  10.000000000    0   0   0
Pt       2.987651304   0.026575582  10.000000000    0   0   0
Pt       1.033648473   2.803272625  10.000000000    0   0   0
Sn       3.983535071   2.803272625  10.000000000    0   0   0
Sn       1.991767536   1.401636312  12.412313092    0   0   0
Pt       4.941654134   1.401636312  12.412313092    0   0   0
Pt       2.987651304   4.178333355  12.412313092    0   0   0
Sn       5.937537902   4.178333355  12.412313092    0   0   0
Pt       2.963034491  -0.018742474  14.807808385
Pt       0.982680871   2.795402743  14.807810187
Sn       3.954236994   2.782665367  14.830654126
Sn      -0.007807858  -0.005505747  14.830548371
S        1.972929603   1.388380477  16.386253836

     Writing output data file calc.save
     Check: negative starting charge=   -1.111395
     NEW-OLD atomic charge density approx. for the potential
     Check: negative starting charge=   -1.108822

[...]

     energy   old            =   -2262.9770131163 Ry
     energy   new            =   -2262.9844353880 Ry

     CASE: energy  _new < energy  _old

[...]

     Total force =     0.030806     Total SCF correction =     0.002259

[...]

     iteration #  1     ecut=    36.75 Ry     beta=0.20
     Davidson diagonalization with overlap
     c_bands:  1 eigenvalues not converged
     ethr =  1.00E-06,  avg # of iterations =  5.8

[...]

     Total force =     0.016415     Total SCF correction =     0.001154

[...]

     Threshold (ethr) on eigenvalues was too large:
     Diagonalizing with lowered threshold

     Davidson diagonalization with overlap
     ethr =  8.51E-09,  avg # of iterations =  3.0

[...]

     CASE: energy  _new < energy  _old

[...]

     number of scf cycles    =  11
     number of bfgs steps    =  10

     energy   old            =   -2262.9975357127 Ry
     energy   new            =   -2262.9974763393 Ry

     CASE: energy  _new > energy  _old

     new trust radius        =       0.0091153208 bohr
     new conv_thr            =       0.0000010000 Ry

ATOMIC_POSITIONS (angstrom)
Sn       0.037764705   0.026575582  10.000000000    0   0   0
Pt       2.987651304   0.026575582  10.000000000    0   0   0
Pt       1.033648473   2.803272625  10.000000000    0   0   0
Sn       3.983535071   2.803272625  10.000000000    0   0   0
Sn       1.991767536   1.401636312  12.412313092    0   0   0
Pt       4.941654134   1.401636312  12.412313092    0   0   0
Pt       2.987651304   4.178333355  12.412313092    0   0   0
Sn       5.937537902   4.178333355  12.412313092    0   0   0
Pt       3.037939155  -0.117736783  14.709900663
Pt       0.914773005   2.899335546  14.709925173
Sn       4.008073257   2.820556667  14.953482648
Sn      -0.051484123  -0.036245350  14.951839359
S        1.972174579   1.387860766  16.289606336

     Writing output data file calc.save
     Check: negative starting charge=   -1.108544
     NEW-OLD atomic charge density approx. for the potential
     Check: negative starting charge=   -1.108821

[...]

     Self-consistent Calculation

[...]

     total energy              =   -2262.99754602 Ry
     Harris-Foulkes estimate   =   -2262.99754523 Ry
     estimated scf accuracy    <       0.00000471 Ry

     iteration #  6     ecut=    36.75 Ry     beta=0.20
     Davidson diagonalization with overlap
     ethr =  2.53E-09,  avg # of iterations =  2.2

     negative rho (up, down):  1.066E+00 0.000E+00

     Adding external electric field

     Computed dipole along edir(3) :
        Dipole               -0.0371 Ry au,         -0.0943 Debye
        Dipole field         -0.0001 Ry au

        Potential amp.        0.0072 Ry
        Total length         42.2206 bohr

     End of self-consistent calculation

[...]

          k = 0.3333-0.2966 0.0000 ( 20645 PWs)   bands (ev):

[...]

          k =-0.5000-0.3519 0.0000 ( 20682 PWs)   bands (ev):

   -51.3768 -51.3469 -51.2281 -51.2250 -51.1919 -51.1841 -51.1722 -51.1547
   -51.1408 -51.1402 -51.1049 -51.0930 -50.8038 -50.8019 -50.7338 -50.7122
   -50.5978 -50.5961 -20.7177 -20.6766 -20.6741 -20.6695 -20.6508 -20.6485
   -20.6271 -20.6241 -20.6189 -20.6172 -20.6159 -20.6001 -20.5891 -20.5856
   -20.5847 -20.5755 -20.5742 -20.5592 -20.5590 -20.5235 -20.5038 -20.4754
   -20.4327 -20.4317 -20.4242 -20.4153 -20.4080 -20.4001 -20.3819 -20.3503
   -11.7690  -7.6320  -7.4787  -6.6742  -6.5064  -5.5123  -4.9712  -4.7068
    -4.2336  -3.7794  -3.6941  -3.6456  -3.4440  -3.3549  -3.0614  -2.9600
    -2.4756  -2.2799  -2.1183  -2.0655  -1.9919  -1.8887  -1.7057  -1.6361
    -1.6234  -1.5276  -1.4527  -1.2035  -1.1877  -1.0757  -0.8486  -0.6710
    -0.6685  -0.5488  -0.3440  -0.1837  -0.1764  -0.0677  -0.0592   0.0783
     0.1430   0.4887   0.6965   1.0309   1.1075   2.2200   2.3296   2.8656
     2.9708   4.1160   4.5100   4.6167   4.6755   5.0086   5.0974

     the Fermi energy is     1.3855 ev

!    total energy              =   -2262.99754605 Ry
     Harris-Foulkes estimate   =   -2262.99754716 Ry
     estimated scf accuracy    <       0.00000097 Ry

     The total energy is the sum of the following terms:

     one-electron contribution =  -15045.10787921 Ry
     hartree contribution      =    7575.48922815 Ry
     xc contribution           =    -628.00701107 Ry
     ewald contribution        =    5834.66239406 Ry
     electric field correction =       0.00000315 Ry
     smearing contrib. (-TS)   =      -0.03428112 Ry

     convergence has been achieved in   6 iterations

     Forces acting on atoms (Ry/au):

     negative rho (up, down):  1.066E+00 0.000E+00
     atom    1 type  1   force =    -0.00271877   -0.00191471   -0.01646135
     atom    2 type  2   force =     0.00183125   -0.00281935    0.03134336
     atom    3 type  2   force =    -0.00203719    0.00267805    0.03134887
     atom    4 type  1   force =     0.00143870    0.00101402   -0.01664647
     atom    5 type  1   force =     0.00048561    0.00037870   -0.00660442
     atom    6 type  2   force =     0.00003442   -0.00029805    0.00354475
     atom    7 type  2   force =    -0.00027348    0.00012941    0.00354487
     atom    8 type  1   force =     0.00039231    0.00024019   -0.02799014
     atom    9 type  2   force =     0.00121167   -0.00098703   -0.00061335
     atom   10 type  2   force =    -0.00052241    0.00147446   -0.00061657
     atom   11 type  1   force =     0.00117751    0.00082698   -0.00009636
     atom   12 type  1   force =    -0.00087217   -0.00061575   -0.00018517
     atom   13 type  3   force =    -0.00014744   -0.00010692   -0.00056802

     Total force =     0.003042     Total SCF correction =     0.007144
     SCF correction compared to forces is large: reduce conv_thr to get better values

     bfgs converged in  12 scf cycles and  10 bfgs steps
     (criteria: energy <  1.0E+12, force <  1.9E-03)

     End of BFGS Geometry Optimization

     Final energy   =   -2262.9975460486 Ry
Begin final coordinates

ATOMIC_POSITIONS (angstrom)
Sn       0.037764705   0.026575582  10.000000000    0   0   0
Pt       2.987651304   0.026575582  10.000000000    0   0   0
Pt       1.033648473   2.803272625  10.000000000    0   0   0
Sn       3.983535071   2.803272625  10.000000000    0   0   0
Sn       1.991767536   1.401636312  12.412313092    0   0   0
Pt       4.941654134   1.401636312  12.412313092    0   0   0
Pt       2.987651304   4.178333355  12.412313092    0   0   0
Sn       5.937537902   4.178333355  12.412313092    0   0   0
Pt       3.037939155  -0.117736783  14.709900663
Pt       0.914773005   2.899335546  14.709925173
Sn       4.008073257   2.820556667  14.953482648
Sn      -0.051484123  -0.036245350  14.951839359
S        1.972174579   1.387860766  16.289606336
End final coordinates

     Writing output data file calc.save

     General routines

     Parallel routines

   This run was terminated on:  15:54:10  15Jan2019

   JOB DONE.
Job  /afs/slac/g/suncat/bin/suncat-tsmpirun -x LD_LIBRARY_PATH -wdir /tmp/qe_340437urq7lf07_scratch pw.x -in pw.pwi

TID   HOST_NAME   COMMAND_LINE            STATUS            TERMINATION_TIME
00000 suncat2067 pw.x -in pw.pwi   Done                     01/15/2019 15:54:10
00001 suncat2067 pw.x -in pw.pwi   Done                     01/15/2019 15:54:10
00002 suncat2067 pw.x -in pw.pwi   Done                     01/15/2019 15:54:10
00003 suncat2067 pw.x -in pw.pwi   Done                     01/15/2019 15:54:10
00004 suncat2067 pw.x -in pw.pwi   Done                     01/15/2019 15:54:10
00005 suncat2067 pw.x -in pw.pwi   Done                     01/15/2019 15:54:10
00006 suncat2067 pw.x -in pw.pwi   Done                     01/15/2019 15:54:10
00007 suncat2067 pw.x -in pw.pwi   Done                     01/15/2019 15:54:10
00008 suncat2067 pw.x -in pw.pwi   Done                     01/15/2019 15:54:10
00009 suncat2067 pw.x -in pw.pwi   Done                     01/15/2019 15:54:10
00010 suncat2067 pw.x -in pw.pwi   Done                     01/15/2019 15:54:10
00011 suncat2067 pw.x -in pw.pwi   Done                     01/15/2019 15:54:10
00012 suncat2067 pw.x -in pw.pwi   Done                     01/15/2019 15:54:10
00013 suncat2067 pw.x -in pw.pwi   Done                     01/15/2019 15:54:10
00014 suncat2067 pw.x -in pw.pwi   Done                     01/15/2019 15:54:10
00015 suncat2067 pw.x -in pw.pwi   Done                     01/15/2019 15:54:10