     Program PWSCF v.5.1rc2 (svn rev. 11289) starts on 25Apr2018 at  4:46:48

     Current dimensions of program PWSCF are:
     Max number of different atomic species (ntypx) = 10
     Max number of k-points (npk) =  40000
     Max angular momentum in pseudopotentials (lmaxx) =  3
     Presently stress not available with electric field

     IMPORTANT: XC functional enforced from input :
     Exchange-correlation      = BEEF-VDW ( 1  4 27 13 2)
     Any further DFT definition will be discarded
     Please, verify this is what you really want

     Subspace diagonalization in iterative solution of the eigenvalue problem:
     a serial algorithm will be used

     bravais-lattice index     =            0
     lattice parameter (alat)  =       1.8897  a.u.
     unit-cell volume          =    4515.4205 (a.u.)^3
     number of atoms/cell      =           14
     number of atomic types    =            3
     number of electrons       =       247.00
     number of Kohn-Sham states=          133
     kinetic-energy cutoff     =      36.7493  Ry
     charge density cutoff     =     367.4932  Ry
     convergence threshold     =      1.0E-05
     mixing beta               =       0.3000
     number of iterations used =           10  plain     mixing
     Exchange-correlation      = BEEF-VDW ( 1  4 27 13 2)
     nstep                     =           50

     celldm(1)=   1.889726  celldm(2)=   0.000000  celldm(3)=   0.000000
     celldm(4)=   0.000000  celldm(5)=   0.000000  celldm(6)=   0.000000

     crystal axes: (cart. coord. in units of alat)
               a(1) = (   5.606773   0.000000   0.000000 )
               a(2) = (   2.803387   4.855608   0.000000 )
               a(3) = (   0.000000   0.000000  24.577911 )

     reciprocal axes: (cart. coord. in units 2 pi/alat)
               b(1) = (  0.178356 -0.102974  0.000000 )
               b(2) = (  0.000000  0.205947  0.000000 )
               b(3) = (  0.000000  0.000000  0.040687 )

     PseudoPot. # 1 for Zn read from file:
     /u/if/mamunm/psp/gbrv1.5pbe/Zn.UPF
     MD5 check sum: df62231357ef9e81f77b2b3087fa5675
     Pseudo is Ultrasoft, Zval = 20.0
     Generated by new atomic code, or converted to UPF format
     Using radial grid of  943 points,  6 beta functions with:
                l(1) =   0
                l(2) =   0
                l(3) =   1
                l(4) =   1
                l(5) =   2
                l(6) =   2
     Q(r) pseudized with  8 coefficients,  rinner =    1.100   1.100   1.100
                                                       1.100   1.100

     PseudoPot. # 2 for S  read from file:
     /u/if/mamunm/psp/gbrv1.5pbe/S.UPF
     MD5 check sum: 88d86576ff6df21479756cfb9bdac1df
     Pseudo is Ultrasoft + core correction, Zval =  6.0
     Generated by new atomic code, or converted to UPF format
     Using radial grid of  907 points,  6 beta functions with:
                l(1) =   0
                l(2) =   0
                l(3) =   1
                l(4) =   1
                l(5) =   2
                l(6) =   2
     Q(r) pseudized with  8 coefficients,  rinner =    1.300   1.300   1.300
                                                       1.300   1.300

     PseudoPot. # 3 for H  read from file:
     /u/if/mamunm/psp/gbrv1.5pbe/H.UPF
     MD5 check sum: 761ae9a214b05c3daf00ab9f6b793d6f
     Pseudo is Ultrasoft, Zval =  1.0
     Generated by new atomic code, or converted to UPF format
     Using radial grid of  615 points,  2 beta functions with:
                l(1) =   0
                l(2) =   0
     Q(r) pseudized with  8 coefficients,  rinner =    0.700

     vdW kernel table read from file vdW_kernel_table
     MD5 check sum: 095c7af220d748ca6e76c0b4c6cfb241

     atomic species   valence    mass     pseudopotential
        Zn1           20.00    65.38000     Zn( 1.00)
        S1             6.00    32.06000     S ( 1.00)
        H1             1.00     1.00800     H ( 1.00)

     No symmetry found

   Cartesian axes

     site n.     atom                  positions (alat units)
         1           Zn1 tau(   1) = (   1.4016933   0.8092680  10.0000000  )
         2           Zn1 tau(   2) = (   4.2050800   0.8092680  10.0000000  )
         3           Zn1 tau(   3) = (   2.8033867   3.2370721  10.0000000  )
         4           Zn1 tau(   4) = (   5.6067733   3.2370721  10.0000000  )
         5           Zn1 tau(   5) = (   5.6067733   1.6185360  12.2889556  )
         6           Zn1 tau(   6) = (   2.8033867   1.6185360  12.2889556  )
         7           Zn1 tau(   7) = (   7.0084667   4.0463401  12.2889556  )
         8           Zn1 tau(   8) = (   4.2050800   4.0463401  12.2889556  )
         9           Zn1 tau(   9) = (   0.0000000   0.0000000  14.5779113  )
        10           Zn1 tau(  10) = (   2.8033867   0.0000000  14.5779113  )
        11           Zn1 tau(  11) = (   1.4016933   2.4278041  14.5779113  )
        12           Zn1 tau(  12) = (   4.2050800   2.4278041  14.5779113  )
        13           S1  tau(  13) = (   2.8033867   1.6185360  16.0534113  )
        14           H1  tau(  14) = (   2.8033867   1.6185360  17.3034113  )

     number of k points=    20  Fermi-Dirac smearing, width (Ry)=  0.0110
                       cart. coord. in units 2pi/alat
        k(    1) = (   0.0000000   0.0000000   0.0000000), wk =   0.0555556
        k(    2) = (   0.0000000   0.0343246   0.0000000), wk =   0.1111111
        k(    3) = (   0.0000000   0.0686491   0.0000000), wk =   0.1111111
        k(    4) = (   0.0000000  -0.1029737   0.0000000), wk =   0.0555556
        k(    5) = (   0.0297260  -0.0171623   0.0000000), wk =   0.1111111
        k(    6) = (   0.0297260   0.0171623   0.0000000), wk =   0.1111111
        k(    7) = (   0.0297260   0.0514869   0.0000000), wk =   0.1111111
        k(    8) = (   0.0297260  -0.1201360   0.0000000), wk =   0.1111111
        k(    9) = (   0.0297260  -0.0858114   0.0000000), wk =   0.1111111
        k(   10) = (   0.0297260  -0.0514869   0.0000000), wk =   0.1111111
        k(   11) = (   0.0594519  -0.0343246   0.0000000), wk =   0.1111111
        k(   12) = (   0.0594519   0.0000000   0.0000000), wk =   0.1111111
        k(   13) = (   0.0594519   0.0343246   0.0000000), wk =   0.1111111
        k(   14) = (   0.0594519  -0.1372983   0.0000000), wk =   0.1111111
        k(   15) = (   0.0594519  -0.1029737   0.0000000), wk =   0.1111111
        k(   16) = (   0.0594519  -0.0686491   0.0000000), wk =   0.1111111
        k(   17) = (  -0.0891779   0.0514869   0.0000000), wk =   0.0555556
        k(   18) = (  -0.0891779   0.0858114   0.0000000), wk =   0.1111111
        k(   19) = (  -0.0891779   0.1201360   0.0000000), wk =   0.1111111
        k(   20) = (  -0.0891779  -0.0514869   0.0000000), wk =   0.0555556

     Largest allocated arrays     est. size (Mb)     dimensions
     Largest temporary arrays     est. size (Mb)     dimensions

     Initial potential from superposition of free atoms
     Check: negative starting charge=   -0.000739

     starting charge  246.99826, renormalised to  247.00000

     negative rho (up, down):  7.393E-04 0.000E+00

     *
     * You are using vdW-DF for exchange-correlation in this calculation.
     * Please cite the following three references that made this development
     * possible:
     *
     *   M. Dion, H. Rydberg, E. Schroder, D. C. Langreth, and
     *   B. I. Lundqvist, Phys. Rev. Lett. 92, 246401 (2004).
     *
     *   T. Thonhauser, V. R. Cooper, S. Li, A. Puzder, P. Hyldgaard, and
     *   D. C. Langreth, Phys. Rev. B 76, 125112 (2007).
     *
     *   G. Roman-Perez and J. M. Soler, Phys. Rev. Lett. 103, 096102 (2009).
     *
     *
     * If you are using vdW-DF2, please also cite:
     *
     *   K. Lee, E. D. Murray, L. Kong, B. I. Lundqvist, and
     *   D. C. Langreth, Phys. Rev. B 82, 081101(R) (2010).
     *
     *
     * If you are calculating the stress with vdW-DF, please also cite:
     *
     *   R. Sabatini, E. Kucukbenli, B. Kolb, T. Thonhauser, and
     *   S. de Gironcoli, J. Phys.: Condens. Matter 24, 424209 (2012).
     *

     Carrying out vdW-DF run using the following parameters:

     Nqs =      20    Nr_points =    1024   r_max =   100.000
     q_mesh =
               0.00001000     0.04494208     0.09755937     0.15916263
               0.23128650     0.31572767     0.41458969     0.53033537
               0.66584808     0.82450364     1.01025438     1.22772762
               1.48234092     1.78043706     2.12944203     2.53805004
               3.01644009     3.57652955     4.23227104     5.00000000

     Gradients computed in reciprocal space

     Adding external electric field

     Computed dipole along edir(3) :
        Dipole               -0.0000 Ry au,         -0.0001 Debye
        Dipole field         -0.0000 Ry au

        Potential amp.        0.0000 Ry
        Total length         45.2844 bohr

     Starting wfc are  161 randomized atomic wfcs

     Self-consistent Calculation

     iteration #  1     ecut=    36.75 Ry     beta=0.30
     Davidson diagonalization with overlap
     ethr =  1.00E-02,  avg # of iterations =  3.1

     Threshold (ethr) on eigenvalues was too large:
     Diagonalizing with lowered threshold

     Davidson diagonalization with overlap
     ethr =  1.04E-04,  avg # of iterations =  5.8

[...]

     total energy              =   -5578.79036203 Ry
     Harris-Foulkes estimate   =   -5578.86678337 Ry
     estimated scf accuracy    <       0.28676296 Ry

[...]

     End of self-consistent calculation

          k = 0.0000 0.0000 0.0000 ( 16931 PWs)   bands (ev):

  -125.7248-125.7239-125.7239-125.4997-125.4988-125.4988-125.4896-125.3264
  -125.2897-125.2822-125.2813-125.2813 -79.9441 -79.9343 -79.9343 -79.8910
   -79.8910 -79.8896 -79.8863 -79.8863 -79.8859 -79.6820 -79.6817 -79.6817
   -79.6810 -79.6810 -79.6774 -79.6737 -79.6659 -79.6659 -79.6642 -79.6642
   -79.6573 -79.5169 -79.4964 -79.4964 -79.4769 -79.4694 -79.4685 -79.4685
   -79.4674 -79.4674 -79.4611 -79.4552 -79.4552 -79.4533 -79.4486 -79.4486
   -14.8405  -9.0077  -8.0671  -7.3466  -7.3466  -7.2275  -7.1665  -7.1181
    -7.1181  -7.0529  -7.0323  -7.0219  -7.0219  -6.8853  -6.8853  -6.8814
    -6.8113  -6.8113  -6.7555  -6.6567  -6.6566  -6.5938  -6.5938  -6.5846
    -6.5594  -6.5357  -6.5357  -6.4922  -6.4913  -6.4913  -6.3924  -6.3924
    -6.3408  -6.3408  -6.3206  -6.2891  -6.2891  -6.2552  -6.1664  -6.1548
    -6.1548  -6.1101  -6.1022  -6.1022  -6.0195  -6.0195  -6.0035  -5.9722
    -5.9722  -5.9477  -5.9396  -5.9396  -5.9084  -5.9084  -5.9052  -5.8908
    -5.8908  -5.8866  -5.8866  -5.8741  -5.7034  -5.7034  -5.7004  -5.0582
    -3.4802  -3.4802  -2.5459  -1.3164  -1.2014  -1.2014  -1.0031  -1.0031
    -0.8319  -0.2593  -0.0332  -0.0332   1.0691   1.2723   1.4961   1.4961
     2.9677   3.0780   3.2098   3.2761   3.2761

[...]

          k =-0.0892 0.0515 0.0000 ( 17028 PWs)   bands (ev):

[...]

     the Fermi energy is     1.2516 ev

!    total energy              =   -5578.82129872 Ry
     Harris-Foulkes estimate   =   -5578.82130305 Ry
     estimated scf accuracy    <       0.00000309 Ry

     The total energy is the sum of the following terms:

     one-electron contribution =  -36201.76490419 Ry
     hartree contribution      =   18086.90027555 Ry
     xc contribution           =    -530.70524532 Ry
     ewald contribution        =   13066.77086130 Ry
     electric field correction =       0.00032145 Ry
     smearing contrib. (-TS)   =      -0.02260751 Ry

     convergence has been achieved in   9 iterations

 BEEF-vdW xc energy contributions
           1 :   -471.179346011584
           2 :    426.863453206909
           3 :   -352.523029695102
           4 :    269.663163958059
           5 :   -197.318370429874
           6 :    144.996374979978
           7 :   -111.384925445557
           8 :    88.5542427761703
           9 :   -68.4381668916811
          10 :    47.5396391395903
          11 :   -27.5224028072372
          12 :    12.2515799109117
          13 :   -3.98782311725301
          14 :    1.50130687926634
          15 :   -1.09270187934214
          16 :  -0.678067507893161
          17 :    4.77574160412826
          18 :   -9.52987590461805
          19 :    12.3877270722148
          20 :   -12.0708759864036
          21 :    9.50774452220730
          22 :   -6.99457059357621
          23 :    6.39693003117640
          24 :   -7.83483224337147
          25 :    9.79093112669233
          26 :   -10.4320988506872
          27 :    9.04335348216136
          28 :   -6.48801779102854
          29 :    4.43185365905117
          30 :   -4.02250000776769
          31 :   -36.7899643903934
          32 :   -25.1151195161536

     Forces acting on atoms (Ry/au):

     negative rho (up, down):  9.225E-04 0.000E+00
     atom    1 type  1   force =     0.00354517    0.00204821   -0.00823799
     atom    2 type  1   force =    -0.00354422    0.00204548   -0.00823781
     atom    3 type  1   force =    -0.00000042   -0.00409323   -0.00823888
     atom    4 type  1   force =     0.00000003   -0.00000006   -0.00599364
     atom    5 type  1   force =     0.00000104    0.00016627    0.00013393
     atom    6 type  1   force =    -0.00000138    0.00000002    0.01618940
     atom    7 type  1   force =    -0.00014498   -0.00008224    0.00013248
     atom    8 type  1   force =     0.00014468   -0.00008130    0.00013245
     atom    9 type  1   force =     0.00000121    0.00000114   -0.00832933
     atom   10 type  1   force =     0.00000259   -0.08728252   -0.04236720
     atom   11 type  1   force =    -0.07558868    0.04363996   -0.04237078
     atom   12 type  1   force =     0.07558375    0.04363779   -0.04236815
     atom   13 type  2   force =     0.00000069    0.00000032    0.00307659
     atom   14 type  3   force =     0.00000055    0.00000016    0.14647892

     Total force =     0.223100     Total SCF correction =     0.002707

     entering subroutine stress ...

     negative rho (up, down):  9.225E-04 0.000E+00
          total   stress  (Ry/bohr**3)                   (kbar)     P=    0.93
  -0.00006701  -0.00000000  -0.00000000         -9.86     -0.00     -0.00
  -0.00000000  -0.00006701  -0.00000000         -0.00     -9.86     -0.00
  -0.00000000  -0.00000000   0.00015299         -0.00     -0.00     22.51

     BFGS Geometry Optimization

     number of scf cycles    =   1
     number of bfgs steps    =   0

     energy   new            =   -5578.8212987153 Ry

     new trust radius        =       0.1464789223 bohr
     new conv_thr            =       0.0000099958 Ry

ATOMIC_POSITIONS (crystal)
Zn1      0.166666667   0.166666667   0.406869400    0   0   0
Zn1      0.666666667   0.166666667   0.406869400    0   0   0
Zn1      0.166666667   0.666666667   0.406869400    0   0   0
Zn1      0.666666667   0.666666667   0.406869400    0   0   0
Zn1      0.833333333   0.333333333   0.500000000    0   0   0
Zn1      0.333333333   0.333333333   0.500000000    0   0   0
Zn1      0.833333333   0.833333333   0.500000000    0   0   0
Zn1      0.333333333   0.833333333   0.500000000    0   0   0
Zn1      0.000000051   0.000000125   0.592951265
Zn1      0.504756386  -0.009512283   0.592218409
Zn1     -0.009512194   0.504756000   0.592218332
Zn1      0.504755846   0.504755763   0.592218389
S1       0.333333381   0.333333368   0.653230421
H1       0.333333376   0.333333351   0.707176634

     Writing output data file calc.save
     Check: negative starting charge=   -0.000739
     NEW-OLD atomic charge density approx. for the potential
     Check: negative starting charge=   -0.000729

[...]

     energy   old            =   -5578.8212987153 Ry
     energy   new            =   -5578.8595022287 Ry

     CASE: energy  _new < energy  _old

[...]

     Total force =     0.009366     Total SCF correction =     0.000620

[...]

     Threshold (ethr) on eigenvalues was too large:
     Diagonalizing with lowered threshold

     Davidson diagonalization with overlap
     ethr =  7.74E-08,  avg # of iterations =  1.0

[...]

     Total force =     0.003608     Total SCF correction =     0.000737
     SCF correction compared to forces is large: reduce conv_thr to get better values

[...]

     number of scf cycles    =  17
     number of bfgs steps    =  16

     energy   old            =   -5578.9085305674 Ry
     energy   new            =   -5578.9087824269 Ry

     CASE: energy  _new < energy  _old

     new trust radius        =       0.0591281082 bohr
     new conv_thr            =       0.0000001000 Ry

ATOMIC_POSITIONS (crystal)
Zn1      0.166666667   0.166666667   0.406869400    0   0   0
Zn1      0.666666667   0.166666667   0.406869400    0   0   0
Zn1      0.166666667   0.666666667   0.406869400    0   0   0
Zn1      0.666666667   0.666666667   0.406869400    0   0   0
Zn1      0.833333333   0.333333333   0.500000000    0   0   0
Zn1      0.333333333   0.333333333   0.500000000    0   0   0
Zn1      0.833333333   0.833333333   0.500000000    0   0   0
Zn1      0.333333333   0.833333333   0.500000000    0   0   0
Zn1     -0.000000195  -0.000000610   0.591942750
Zn1      0.511211834  -0.022422645   0.601262571
Zn1     -0.022423674   0.511211916   0.601262350
Zn1      0.511211205   0.511210472   0.601262529
S1       0.333334569   0.333333183   0.676940269
H1       0.333333653   0.333332988   0.732658487

     Writing output data file calc.save
     Check: negative starting charge=   -0.000671
     NEW-OLD atomic charge density approx. for the potential
     Check: negative starting charge=   -0.000675

[...]

     Self-consistent Calculation

[...]

     total energy              =   -5578.90889340 Ry
     Harris-Foulkes estimate   =   -5578.90889329 Ry
     estimated scf accuracy    <       0.00000012 Ry

     iteration #  8     ecut=    36.75 Ry     beta=0.30
     Davidson diagonalization with overlap
     ethr =  4.76E-11,  avg # of iterations =  2.1

[...]

     negative rho (up, down):  8.530E-04 0.000E+00

     Adding external electric field

     Computed dipole along edir(3) :
        Dipole                0.0500 Ry au,          0.1270 Debye
        Dipole field          0.0001 Ry au

        Potential amp.       -0.0126 Ry
        Total length         45.2844 bohr

     End of self-consistent calculation

[...]

          k = 0.0595-0.0686 0.0000 ( 16986 PWs)   bands (ev):

[...]

          k =-0.0892-0.0515 0.0000 ( 17028 PWs)   bands (ev):

  -125.9170-125.9167-125.9164-125.8445-125.7409-125.7362-125.7359-125.7356
  -125.7348-125.7336-125.7335-125.6978 -80.0998 -80.0994 -80.0989 -80.0959
   -80.0935 -80.0924 -80.0917 -80.0892 -80.0847 -80.0249 -80.0244 -80.0135
   -79.9342 -79.9316 -79.9260 -79.9256 -79.9252 -79.9237 -79.9219 -79.9162
   -79.9133 -79.9128 -79.9125 -79.9125 -79.9092 -79.9089 -79.9085 -79.9062
   -79.9062 -79.9060 -79.9049 -79.9047 -79.9018 -79.8893 -79.8682 -79.8676
   -12.9065  -7.4433  -7.3918  -7.2921  -7.2376  -7.2255  -7.1765  -7.1703
    -7.1474  -7.1296  -7.0951  -7.0932  -7.0882  -7.0630  -7.0061  -6.9920
    -6.9771  -6.9383  -6.9135  -6.9015  -6.8846  -6.8775  -6.8568  -6.8485
    -6.8354  -6.8076  -6.7615  -6.7513  -6.7394  -6.7213  -6.7202  -6.6960
    -6.6906  -6.6801  -6.6461  -6.6168  -6.6037  -6.5916  -6.5794  -6.5705
    -6.5632  -6.5623  -6.5546  -6.5231  -6.5169  -6.5051  -6.4940  -6.4779
    -6.4511  -6.4404  -6.4305  -6.4280  -6.4228  -6.3915  -6.3585  -6.3487
    -6.3256  -6.3066  -6.2812  -6.2792  -6.2713  -6.2624  -6.2435  -5.5924
    -4.9710  -4.0413  -3.1613  -2.9696  -2.8238  -2.3934  -1.7957  -1.1021
    -0.8301  -0.8293   0.9754   1.4635   1.7261   2.1142   3.4158   3.4633
     3.5434   3.6480   4.3912   4.5434   4.6546

     the Fermi energy is     0.8546 ev

!    total energy              =   -5578.90889344 Ry
     Harris-Foulkes estimate   =   -5578.90889339 Ry
     estimated scf accuracy    <       0.00000002 Ry

     The total energy is the sum of the following terms:

     one-electron contribution =  -35275.55458652 Ry
     hartree contribution      =   17621.80817985 Ry
     xc contribution           =    -530.36935333 Ry
     ewald contribution        =   12605.23086963 Ry
     electric field correction =       0.00000695 Ry
     smearing contrib. (-TS)   =      -0.02401002 Ry

     convergence has been achieved in   8 iterations

 BEEF-vdW xc energy contributions
           1 :   -470.824354645809
           2 :    426.314909035555
           3 :   -351.760572282017
           4 :    268.854075695803
           5 :   -196.685439681974
           6 :    144.655894165180
           7 :   -111.275090342870
           8 :    88.5048542305099
           9 :   -68.3176387182174
          10 :    47.3593796938920
          11 :   -27.4157896406622
          12 :    12.3464029077619
          13 :   -4.27920361140212
          14 :    1.83235402595687
          15 :   -1.26312443398649
          16 :  -0.759643613362186
          17 :    5.01956095717503
          18 :   -9.73384835960144
          19 :    12.3941194171342
          20 :   -11.8867762114335
          21 :    9.29404070851353
          22 :   -6.93286324035637
          23 :    6.54119059049049
          24 :   -8.06651440720009
          25 :    9.91357466040074
          26 :   -10.3297603158377
          27 :    8.77662159518752
          28 :   -6.25144934403340
          29 :    4.40638517189473
          30 :   -4.23834712254904
          31 :   -36.7613835331351
          32 :   -25.0402727806583

     Forces acting on atoms (Ry/au):

     negative rho (up, down):  8.530E-04 0.000E+00
     atom    1 type  1   force =     0.00257088    0.00148427   -0.00896288
     atom    2 type  1   force =    -0.00257085    0.00148430   -0.00896298
     atom    3 type  1   force =     0.00000004   -0.00296856   -0.00896293
     atom    4 type  1   force =    -0.00000002    0.00000000   -0.00949834
     atom    5 type  1   force =     0.00000012    0.00159208    0.00467404
     atom    6 type  1   force =    -0.00000015   -0.00000008    0.02195767
     atom    7 type  1   force =    -0.00137892   -0.00079609    0.00467371
     atom    8 type  1   force =     0.00137889   -0.00079595    0.00467424
     atom    9 type  1   force =     0.00000079    0.00000025   -0.00070968
     atom   10 type  1   force =    -0.00000105    0.00075439    0.00020665
     atom   11 type  1   force =     0.00065413   -0.00037836    0.00020705
     atom   12 type  1   force =    -0.00065273   -0.00037633    0.00020654
     atom   13 type  2   force =    -0.00000142    0.00000017    0.00038468
     atom   14 type  3   force =     0.00000030   -0.00000011    0.00011222

     Total force =     0.001581     Total SCF correction =     0.000439
     SCF correction compared to forces is large: reduce conv_thr to get better values

     entering subroutine stress ...

     negative rho (up, down):  8.530E-04 0.000E+00
          total   stress  (Ry/bohr**3)                   (kbar)     P=  -14.69
  -0.00014074   0.00000000  -0.00000000        -20.70      0.00     -0.00
   0.00000000  -0.00014074   0.00000000          0.00    -20.70      0.00
  -0.00000000   0.00000000  -0.00001809         -0.00      0.00     -2.66

     bfgs converged in  18 scf cycles and  17 bfgs steps
     (criteria: energy <  1.0E+00, force <  1.9E-03)

     End of BFGS Geometry Optimization

     Final energy   =   -5578.9088934422 Ry
Begin final coordinates

ATOMIC_POSITIONS (crystal)
Zn1      0.166666667   0.166666667   0.406869400    0   0   0
Zn1      0.666666667   0.166666667   0.406869400    0   0   0
Zn1      0.166666667   0.666666667   0.406869400    0   0   0
Zn1      0.666666667   0.666666667   0.406869400    0   0   0
Zn1      0.833333333   0.333333333   0.500000000    0   0   0
Zn1      0.333333333   0.333333333   0.500000000    0   0   0
Zn1      0.833333333   0.833333333   0.500000000    0   0   0
Zn1      0.333333333   0.833333333   0.500000000    0   0   0
Zn1     -0.000000195  -0.000000610   0.591942750
Zn1      0.511211834  -0.022422645   0.601262571
Zn1     -0.022423674   0.511211916   0.601262350
Zn1      0.511211205   0.511210472   0.601262529
S1       0.333334569   0.333333183   0.676940269
H1       0.333333653   0.333332988   0.732658487
End final coordinates

     Writing output data file calc.save

     General routines

     Parallel routines

   This run was terminated on:   6:27:54  25Apr2018

   JOB DONE.
Job  /afs/slac/g/suncat/bin/suncat-tsmpirun -x LD_LIBRARY_PATH -wdir /scratch/qe318407_7Riwg pw.x -npool 4 -in pw.inp

TID   HOST_NAME   COMMAND_LINE            STATUS            TERMINATION_TIME
00000 suncat0166 pw.x -npool 4 -i  Done                     04/25/2018 06:27:54
00001 suncat0166 pw.x -npool 4 -i  Done                     04/25/2018 06:27:54
00002 suncat0166 pw.x -npool 4 -i  Done                     04/25/2018 06:27:54
00003 suncat0166 pw.x -npool 4 -i  Done                     04/25/2018 06:27:54
00004 suncat0166 pw.x -npool 4 -i  Done                     04/25/2018 06:27:54
00005 suncat0166 pw.x -npool 4 -i  Done                     04/25/2018 06:27:54
00006 suncat0166 pw.x -npool 4 -i  Done                     04/25/2018 06:27:54
00007 suncat0166 pw.x -npool 4 -i  Done                     04/25/2018 06:27:54
00008 suncat0155 pw.x -npool 4 -i  Done                     04/25/2018 06:27:54
00009 suncat0155 pw.x -npool 4 -i  Done                     04/25/2018 06:27:54
00010 suncat0155 pw.x -npool 4 -i  Done                     04/25/2018 06:27:54
00011 suncat0155 pw.x -npool 4 -i  Done                     04/25/2018 06:27:54
00012 suncat0155 pw.x -npool 4 -i  Done                     04/25/2018 06:27:54
00013 suncat0155 pw.x -npool 4 -i  Done                     04/25/2018 06:27:54
00014 suncat0155 pw.x -npool 4 -i  Done                     04/25/2018 06:27:54
00015 suncat0155 pw.x -npool 4 -i  Done                     04/25/2018 06:27:54
00016 suncat0146 pw.x -npool 4 -i  Done                     04/25/2018 06:27:54
00017 suncat0146 pw.x -npool 4 -i  Done                     04/25/2018 06:27:54
00018 suncat0146 pw.x -npool 4 -i  Done                     04/25/2018 06:27:54
00019 suncat0146 pw.x -npool 4 -i  Done                     04/25/2018 06:27:54
00020 suncat0146 pw.x -npool 4 -i  Done                     04/25/2018 06:27:54
00021 suncat0146 pw.x -npool 4 -i  Done                     04/25/2018 06:27:54
00022 suncat0146 pw.x -npool 4 -i  Done                     04/25/2018 06:27:54
00023 suncat0146 pw.x -npool 4 -i  Done                     04/25/2018 06:27:54
00024 suncat0108 pw.x -npool 4 -i  Done                     04/25/2018 06:27:54
00025 suncat0108 pw.x -npool 4 -i  Done                     04/25/2018 06:27:54
00026 suncat0108 pw.x -npool 4 -i  Done                     04/25/2018 06:27:54
00027 suncat0108 pw.x -npool 4 -i  Done                     04/25/2018 06:27:54
00028 suncat0108 pw.x -npool 4 -i  Done                     04/25/2018 06:27:54
00029 suncat0108 pw.x -npool 4 -i  Done                     04/25/2018 06:27:54
00030 suncat0108 pw.x -npool 4 -i  Done                     04/25/2018 06:27:54
00031 suncat0108 pw.x -npool 4 -i  Done                     04/25/2018 06:27:54