     Program PWSCF v.5.1rc2 (svn rev. 11289) starts on 16Apr2018 at 10: 6: 9

     Current dimensions of program PWSCF are:
     Max number of different atomic species (ntypx) = 10
     Max number of k-points (npk) =  40000
     Max angular momentum in pseudopotentials (lmaxx) =  3
     Presently stress not available with electric field

     IMPORTANT: XC functional enforced from input :
     Exchange-correlation      = BEEF-VDW ( 1  4 27 13 2)
     Any further DFT definition will be discarded
     Please, verify this is what you really want

     Subspace diagonalization in iterative solution of the eigenvalue problem:
     a serial algorithm will be used

     bravais-lattice index     =            0
     lattice parameter (alat)  =       1.8897  a.u.
     unit-cell volume          =    5174.6160 (a.u.)^3
     number of atoms/cell      =           15
     number of atomic types    =            3
     number of electrons       =       234.00
     number of Kohn-Sham states=          127
     kinetic-energy cutoff     =      36.7493  Ry
     charge density cutoff     =     367.4932  Ry
     convergence threshold     =      1.0E-05
     mixing beta               =       0.3000
     number of iterations used =           10  plain     mixing
     Exchange-correlation      = BEEF-VDW ( 1  4 27 13 2)
     nstep                     =           50

     celldm(1)=   1.889726  celldm(2)=   0.000000  celldm(3)=   0.000000
     celldm(4)=   0.000000  celldm(5)=   0.000000  celldm(6)=   0.000000

     crystal axes: (cart. coord. in units of alat)
               a(1) = (   5.966546   0.000000   0.000000 )
               a(2) = (   2.983273   5.167181   0.000000 )
               a(3) = (   0.000000   0.000000  24.871665 )

     reciprocal axes: (cart. coord. in units 2 pi/alat)
               b(1) = (  0.167601 -0.096765  0.000000 )
               b(2) = (  0.000000  0.193529  0.000000 )
               b(3) = (  0.000000  0.000000  0.040206 )

     PseudoPot. # 1 for Ag read from file:
     /u/if/mamunm/psp/gbrv1.5pbe/Ag.UPF
     MD5 check sum: d66d668201baa78d5eb5b04ef7011058
     Pseudo is Ultrasoft + core correction, Zval = 19.0
     Generated by new atomic code, or converted to UPF format
     Using radial grid of  887 points,  6 beta functions with:
                l(1) =   0
                l(2) =   0
                l(3) =   1
                l(4) =   1
                l(5) =   2
                l(6) =   2
     Q(r) pseudized with  6 coefficients,  rinner =    1.300   1.300   1.300
                                                       1.300   1.300

     PseudoPot. # 2 for C  read from file:
     /u/if/mamunm/psp/gbrv1.5pbe/C.UPF
     MD5 check sum: d1aef80898a10debaa0f26306b886e00
     Pseudo is Ultrasoft + core correction, Zval =  4.0
     Generated by new atomic code, or converted to UPF format
     Using radial grid of  721 points,  4 beta functions with:
                l(1) =   0
                l(2) =   0
                l(3) =   1
                l(4) =   1
     Q(r) pseudized with  8 coefficients,  rinner =    1.100   1.100   1.100

     PseudoPot. # 3 for H  read from file:
     /u/if/mamunm/psp/gbrv1.5pbe/H.UPF
     MD5 check sum: 761ae9a214b05c3daf00ab9f6b793d6f
     Pseudo is Ultrasoft, Zval =  1.0
     Generated by new atomic code, or converted to UPF format
     Using radial grid of  615 points,  2 beta functions with:
                l(1) =   0
                l(2) =   0
     Q(r) pseudized with  8 coefficients,  rinner =    0.700

     vdW kernel table read from file vdW_kernel_table
     MD5 check sum: 095c7af220d748ca6e76c0b4c6cfb241

     atomic species   valence    mass     pseudopotential
        Ag1           19.00   107.86820     Ag( 1.00)
        C1             4.00    12.01100     C ( 1.00)
        H1             1.00     1.00800     H ( 1.00)

     No symmetry found

   Cartesian axes

     site n.     atom                  positions (alat units)
         1           Ag1 tau(   1) = (   1.4916366   0.8611968  10.0000000  )
         2           Ag1 tau(   2) = (   4.4749098   0.8611968  10.0000000  )
         3           Ag1 tau(   3) = (   2.9832732   3.4447871  10.0000000  )
         4           Ag1 tau(   4) = (   5.9665464   3.4447871  10.0000000  )
         5           Ag1 tau(   5) = (   5.9665464   1.7223936  12.4358324  )
         6           Ag1 tau(   6) = (   2.9832732   1.7223936  12.4358324  )
         7           Ag1 tau(   7) = (   7.4581830   4.3059839  12.4358324  )
         8           Ag1 tau(   8) = (   4.4749098   4.3059839  12.4358324  )
         9           Ag1 tau(   9) = (   0.0000000   0.0000000  14.8716647  )
        10           Ag1 tau(  10) = (   2.9832732   0.0000000  14.8716647  )
        11           Ag1 tau(  11) = (   1.4916366   2.5835904  14.8716647  )
        12           Ag1 tau(  12) = (   4.4749098   2.5835904  14.8716647  )
        13           C1  tau(  13) = (   0.0000000   0.0000000  16.7501647  )
        14           H1  tau(  14) = (   0.6300000   0.6300000  17.3801647  )
        15           H1  tau(  15) = (   8.3198195   4.5371807  17.3801647  )

     number of k points=    20  Fermi-Dirac smearing, width (Ry)=  0.0110
                       cart. coord. in units 2pi/alat
        k(    1) = (   0.0000000   0.0000000   0.0000000), wk =   0.0555556
        k(    2) = (   0.0000000   0.0322549   0.0000000), wk =   0.1111111
        k(    3) = (   0.0000000   0.0645097   0.0000000), wk =   0.1111111
        k(    4) = (   0.0000000  -0.0967646   0.0000000), wk =   0.0555556
        k(    5) = (   0.0279335  -0.0161274   0.0000000), wk =   0.1111111
        k(    6) = (   0.0279335   0.0161274   0.0000000), wk =   0.1111111
        k(    7) = (   0.0279335   0.0483823   0.0000000), wk =   0.1111111
        k(    8) = (   0.0279335  -0.1128920   0.0000000), wk =   0.1111111
        k(    9) = (   0.0279335  -0.0806371   0.0000000), wk =   0.1111111
        k(   10) = (   0.0279335  -0.0483823   0.0000000), wk =   0.1111111
        k(   11) = (   0.0558670  -0.0322549   0.0000000), wk =   0.1111111
        k(   12) = (   0.0558670   0.0000000   0.0000000), wk =   0.1111111
        k(   13) = (   0.0558670   0.0322549   0.0000000), wk =   0.1111111
        k(   14) = (   0.0558670  -0.1290194   0.0000000), wk =   0.1111111
        k(   15) = (   0.0558670  -0.0967646   0.0000000), wk =   0.1111111
        k(   16) = (   0.0558670  -0.0645097   0.0000000), wk =   0.1111111
        k(   17) = (  -0.0838006   0.0483823   0.0000000), wk =   0.0555556
        k(   18) = (  -0.0838006   0.0806371   0.0000000), wk =   0.1111111
        k(   19) = (  -0.0838006   0.1128920   0.0000000), wk =   0.1111111
        k(   20) = (  -0.0838006  -0.0483823   0.0000000), wk =   0.0555556

     Largest allocated arrays     est. size (Mb)     dimensions
     Largest temporary arrays     est. size (Mb)     dimensions

     Initial potential from superposition of free atoms
     Check: negative starting charge=   -0.001939

     starting charge  227.99937, renormalised to  234.00000

     negative rho (up, down):  1.990E-03 0.000E+00

     *
     * You are using vdW-DF for exchange-correlation in this calculation.
     * Please cite the following three references that made this development
     * possible:
     *
     *   M. Dion, H. Rydberg, E. Schroder, D. C. Langreth, and
     *   B. I. Lundqvist, Phys. Rev. Lett. 92, 246401 (2004).
     *
     *   T. Thonhauser, V. R. Cooper, S. Li, A. Puzder, P. Hyldgaard, and
     *   D. C. Langreth, Phys. Rev. B 76, 125112 (2007).
     *
     *   G. Roman-Perez and J. M. Soler, Phys. Rev. Lett. 103, 096102 (2009).
     *
     *
     * If you are using vdW-DF2, please also cite:
     *
     *   K. Lee, E. D. Murray, L. Kong, B. I. Lundqvist, and
     *   D. C. Langreth, Phys. Rev. B 82, 081101(R) (2010).
     *
     *
     * If you are calculating the stress with vdW-DF, please also cite:
     *
     *   R. Sabatini, E. Kucukbenli, B. Kolb, T. Thonhauser, and
     *   S. de Gironcoli, J. Phys.: Condens. Matter 24, 424209 (2012).
     *

     Carrying out vdW-DF run using the following parameters:

     Nqs =      20    Nr_points =    1024   r_max =   100.000
     q_mesh =
               0.00001000     0.04494208     0.09755937     0.15916263
               0.23128650     0.31572767     0.41458969     0.53033537
               0.66584808     0.82450364     1.01025438     1.22772762
               1.48234092     1.78043706     2.12944203     2.53805004
               3.01644009     3.57652955     4.23227104     5.00000000

     Gradients computed in reciprocal space

     Adding external electric field

     Computed dipole along edir(3) :
        Dipole               -1.3496 Ry au,         -3.4303 Debye
        Dipole field         -0.0033 Ry au

        Potential amp.        0.3004 Ry
        Total length         45.8256 bohr

     Starting wfc are  162 randomized atomic wfcs

     Self-consistent Calculation

     iteration #  1     ecut=    36.75 Ry     beta=0.30
     Davidson diagonalization with overlap
     ethr =  1.00E-02,  avg # of iterations =  5.6

[...]

     total energy              =   -3562.67491739 Ry
     Harris-Foulkes estimate   =   -3577.07866177 Ry
     estimated scf accuracy    <      31.08623824 Ry

[...]

     End of self-consistent calculation

          k = 0.0000 0.0000 0.0000 ( 19435 PWs)   bands (ev):

   -91.2650 -90.6126 -90.5996 -90.5955 -90.5927 -90.4419 -90.4022 -90.3960
   -90.3909 -90.3907 -90.3808 -90.3722 -54.9387 -54.6703 -54.6209 -54.1438
   -54.1420 -54.1342 -54.1142 -54.0983 -54.0923 -54.0873 -54.0791 -54.0786
   -54.0749 -54.0556 -54.0544 -53.9669 -53.9640 -53.9475 -53.9407 -53.9237
   -53.9057 -53.8998 -53.8978 -53.8950 -53.8850 -53.8802 -53.8725 -53.8676
   -53.8673 -53.8661 -53.8646 -53.8626 -53.8616 -53.8606 -53.8594 -53.8553
   -10.6796  -5.1611  -5.0200  -4.9606  -4.4104  -4.3579  -4.3386  -4.2885
    -4.2847  -4.2466  -4.2416  -4.1919  -4.1182  -4.0730  -4.0134  -4.0110
    -3.9991  -3.8939  -3.7329  -3.3491  -3.3006  -3.2942  -3.2302  -3.1964
    -3.1658  -3.1645  -3.0909  -3.0888  -3.0806  -3.0148  -3.0016  -2.9543
    -2.9360  -2.9357  -2.5783  -2.4661  -2.4209  -2.4184  -2.4154  -2.3428
    -2.3400  -2.2965  -2.1740  -2.1315  -2.1234  -2.0786  -2.0459  -1.9546
    -1.9023  -1.8970  -1.8372  -1.8098  -1.8086  -1.7728  -1.7697  -1.7074
    -1.7062  -1.6776  -1.6463  -1.6432  -1.5102  -1.5079  -1.5048  -1.4851
    -0.3623   0.9344   1.2223   1.9032   1.9521   2.1006   2.5064   2.6607
     2.7230   2.8894   3.0798   3.1626   3.6810   4.8702   5.0477

[...]

          k =-0.0838 0.0484 0.0000 ( 19500 PWs)   bands (ev):

[...]

     the Fermi energy is     1.4339 ev

!    total energy              =   -3573.63811778 Ry
     Harris-Foulkes estimate   =   -3573.63811714 Ry
     estimated scf accuracy    <       0.00000085 Ry

     The total energy is the sum of the following terms:

     one-electron contribution =  -26063.00678878 Ry
     hartree contribution      =   13025.38459907 Ry
     xc contribution           =    -366.13170255 Ry
     ewald contribution        =    9830.14206509 Ry
     electric field correction =       0.00000194 Ry
     smearing contrib. (-TS)   =      -0.02629254 Ry

     convergence has been achieved in  16 iterations

 BEEF-vdW xc energy contributions
           1 :   -317.111277968919
           2 :    286.953494488921
           3 :   -236.733784289464
           4 :    181.671985839673
           5 :   -135.489650863238
           6 :    105.514577547511
           7 :   -91.3768618800922
           8 :    87.2260590208168
           9 :   -85.8081972086542
          10 :    82.1065627074549
          11 :   -74.8965639624822
          12 :    65.9361028766647
          13 :   -57.8360145717519
          14 :    52.1397620814708
          15 :   -48.6619059184196
          16 :    46.1277139691854
          17 :   -43.3542271504136
          18 :    40.0428851766814
          19 :   -36.7346051445871
          20 :    34.1462979920670
          21 :   -32.5010802126538
          22 :    31.3510030588641
          23 :   -29.9574929695536
          24 :    27.8794736870419
          25 :   -25.3146324909677
          26 :    22.9555406789145
          27 :   -21.4896746398355
          28 :    21.1148067818527
          29 :   -21.4120879664879
          30 :    21.6464706198922
          31 :   -31.7799815581164
          32 :   -23.0964952342764

     Forces acting on atoms (Ry/au):

     negative rho (up, down):  1.983E-03 0.000E+00
     atom    1 type  1   force =    -0.00107336   -0.00077422   -0.00021940
     atom    2 type  1   force =     0.00104737   -0.00026214   -0.00001059
     atom    3 type  1   force =     0.00042845    0.00114297   -0.00018393
     atom    4 type  1   force =    -0.00042906   -0.00008655    0.00170772
     atom    5 type  1   force =    -0.00012295   -0.00236232    0.00043876
     atom    6 type  1   force =    -0.00009057   -0.00006418    0.00185327
     atom    7 type  1   force =     0.00177343    0.00116334   -0.00006487
     atom    8 type  1   force =    -0.00218475    0.00126120    0.00080387
     atom    9 type  1   force =     0.00072508    0.00003176   -0.11387042
     atom   10 type  1   force =    -0.00025530    0.00018864   -0.00204765
     atom   11 type  1   force =     0.00015450   -0.00025616   -0.00843884
     atom   12 type  1   force =    -0.00014994    0.00004562    0.00383088
     atom   13 type  2   force =     0.00017490   -0.00004607    0.12203218
     atom   14 type  3   force =     0.00211577    0.00195473   -0.00292783
     atom   15 type  3   force =    -0.00211358   -0.00193663   -0.00290314

     Total force =     0.167280     Total SCF correction =     0.002351

     entering subroutine stress ...

     negative rho (up, down):  1.983E-03 0.000E+00
          total   stress  (Ry/bohr**3)                   (kbar)     P=   -2.11
  -0.00005107   0.00000783   0.00000074         -7.51      1.15      0.11
   0.00000783  -0.00005135  -0.00000005          1.15     -7.55     -0.01
   0.00000074  -0.00000005   0.00005936          0.11     -0.01      8.73

     BFGS Geometry Optimization

     number of scf cycles    =   1
     number of bfgs steps    =   0

     energy   new            =   -3573.6381177788 Ry

     new trust radius        =       0.1220323177 bohr
     new conv_thr            =       0.0000099958 Ry

ATOMIC_POSITIONS (crystal)
Ag1      0.166666667   0.166666667   0.402063960    0   0   0
Ag1      0.666666667   0.166666667   0.402063960    0   0   0
Ag1      0.166666667   0.666666667   0.402063960    0   0   0
Ag1      0.666666667   0.666666667   0.402063960    0   0   0
Ag1      0.833333333   0.333333333   0.500000000    0   0   0
Ag1      0.333333333   0.333333333   0.500000000    0   0   0
Ag1      0.833333333   0.833333333   0.500000000    0   0   0
Ag1      0.333333333   0.833333333   0.500000000    0   0   0
Ag1      0.000062681   0.000003253   0.595513298
Ag1      0.499967698   0.000019319   0.597892474
Ag1      0.000026819   0.499973766   0.597756493
Ag1      0.499984366   0.500004672   0.598017547
C1       0.000017871  -0.000004718   0.676060149
H1       0.044714601   0.122123539   0.698731491
H1       0.955284667   0.877878315   0.698732016

     Writing output data file calc.save
     Check: negative starting charge=   -0.001939
     NEW-OLD atomic charge density approx. for the potential
     Check: negative starting charge=   -0.001945

[...]

     energy   old            =   -3573.6381177788 Ry
     energy   new            =   -3573.6510489346 Ry

     CASE: energy  _new < energy  _old

[...]

     Total force =     0.011282     Total SCF correction =     0.001249
     SCF correction compared to forces is large: reduce conv_thr to get better values

[...]

     Threshold (ethr) on eigenvalues was too large:
     Diagonalizing with lowered threshold

     Davidson diagonalization with overlap
     ethr =  6.36E-08,  avg # of iterations =  1.0

[...]

     Threshold (ethr) on eigenvalues was too large:
     Diagonalizing with lowered threshold

     Davidson diagonalization with overlap
     ethr =  2.09E-08,  avg # of iterations =  2.0

[...]

     Total force =     0.003472     Total SCF correction =     0.000275

[...]

     number of scf cycles    =  15
     number of bfgs steps    =  14

     energy   old            =   -3573.6566580870 Ry
     energy   new            =   -3573.6566743156 Ry

     CASE: energy  _new < energy  _old

     new trust radius        =       0.0092487798 bohr
     new conv_thr            =       0.0000001000 Ry

ATOMIC_POSITIONS (crystal)
Ag1      0.166666667   0.166666667   0.402063960    0   0   0
Ag1      0.666666667   0.166666667   0.402063960    0   0   0
Ag1      0.166666667   0.666666667   0.402063960    0   0   0
Ag1      0.666666667   0.666666667   0.402063960    0   0   0
Ag1      0.833333333   0.333333333   0.500000000    0   0   0
Ag1      0.333333333   0.333333333   0.500000000    0   0   0
Ag1      0.833333333   0.833333333   0.500000000    0   0   0
Ag1      0.333333333   0.833333333   0.500000000    0   0   0
Ag1      0.000872405   0.000007827   0.595248931
Ag1      0.500072353   0.000252362   0.597388362
Ag1      0.000456780   0.499834403   0.594414770
Ag1      0.500135466   0.499916726   0.601201019
C1       0.000523443  -0.000116849   0.678254763
H1       0.046512623   0.124420655   0.702328618
H1       0.953826530   0.875682482   0.702272892

     Writing output data file calc.save
     Check: negative starting charge=   -0.001945
     NEW-OLD atomic charge density approx. for the potential
     Check: negative starting charge=   -0.001943

[...]

     Self-consistent Calculation

[...]

     total energy              =   -3573.65669916 Ry
     Harris-Foulkes estimate   =   -3573.65669912 Ry
     estimated scf accuracy    <       0.00000023 Ry

     iteration #  7     ecut=    36.75 Ry     beta=0.30
     Davidson diagonalization with overlap
     ethr =  9.64E-11,  avg # of iterations =  2.0

[...]

     negative rho (up, down):  1.976E-03 0.000E+00

     Adding external electric field

     Computed dipole along edir(3) :
        Dipole               -0.0113 Ry au,         -0.0286 Debye
        Dipole field         -0.0000 Ry au

        Potential amp.        0.0025 Ry
        Total length         45.8256 bohr

     End of self-consistent calculation

[...]

          k = 0.0559-0.0645 0.0000 ( 19479 PWs)   bands (ev):

[...]

          k =-0.0838-0.0484 0.0000 ( 19500 PWs)   bands (ev):

   -90.9121 -90.6693 -90.6602 -90.6490 -90.6379 -90.4911 -90.4464 -90.4455
   -90.4435 -90.4414 -90.4142 -90.3774 -54.4688 -54.3614 -54.3327 -54.1910
   -54.1712 -54.1682 -54.1629 -54.1597 -54.1513 -54.1472 -54.1448 -54.1355
   -54.1327 -54.1315 -54.1092 -54.0064 -53.9912 -53.9753 -53.9735 -53.9725
   -53.9512 -53.9481 -53.9466 -53.9394 -53.9386 -53.9357 -53.9242 -53.9221
   -53.9198 -53.9194 -53.9165 -53.9071 -53.9018 -53.8972 -53.8654 -53.8510
   -10.3805  -4.7038  -4.3766  -4.1679  -4.0623  -4.0085  -3.9860  -3.9762
    -3.9159  -3.8968  -3.8671  -3.7720  -3.7176  -3.6998  -3.6795  -3.6122
    -3.5630  -3.5527  -3.5343  -3.3612  -3.3242  -3.2769  -3.2707  -3.2529
    -3.1970  -3.1517  -3.0792  -3.0294  -2.9888  -2.9443  -2.8984  -2.8596
    -2.8564  -2.8403  -2.7580  -2.6770  -2.6684  -2.6419  -2.6295  -2.6151
    -2.6133  -2.5988  -2.5782  -2.4631  -2.4536  -2.4268  -2.4151  -2.3808
    -2.3379  -2.3163  -2.3010  -2.2798  -2.2703  -2.2661  -2.1751  -2.1600
    -2.1235  -2.0948  -1.9601  -1.8541  -1.7998  -1.7933  -1.7206  -1.6563
    -1.2254  -0.8126   0.3698   0.8273   1.0984   1.4834   1.7410   2.1648
     2.8626   2.9633   4.2624   4.3680   4.8853   5.5420   5.7931

     the Fermi energy is     1.3797 ev

!    total energy              =   -3573.65669917 Ry
     Harris-Foulkes estimate   =   -3573.65669918 Ry
     estimated scf accuracy    <       0.00000002 Ry

     The total energy is the sum of the following terms:

     one-electron contribution =  -26090.37878886 Ry
     hartree contribution      =   13039.00226128 Ry
     xc contribution           =    -366.08786760 Ry
     ewald contribution        =    9843.83507980 Ry
     electric field correction =       0.00000031 Ry
     smearing contrib. (-TS)   =      -0.02738409 Ry

     convergence has been achieved in   7 iterations

 BEEF-vdW xc energy contributions
           1 :   -317.060712901342
           2 :    286.870816118463
           3 :   -236.614685721621
           4 :    181.541258452207
           5 :   -135.382054029392
           6 :    105.454199979983
           7 :   -91.3661346333117
           8 :    87.2470237560860
           9 :   -85.8327402569285
          10 :    82.1098562095463
          11 :   -74.8682379138941
          12 :    65.8846040238484
          13 :   -57.7843304999711
          14 :    52.1138627886660
          15 :   -48.6774337265372
          16 :    46.1820148796892
          17 :   -43.4271204455787
          18 :    40.1055492917689
          19 :   -36.7626285939664
          20 :    34.1310669310895
          21 :   -32.4533788853957
          22 :    31.2945505912464
          23 :   -29.9161870553081
          24 :    27.8655130140058
          25 :   -25.3235944815066
          26 :    22.9708873863993
          27 :   -21.4936364592088
          28 :    21.0987088463526
          29 :   -21.3797273895926
          30 :    21.6097272532305
          31 :   -31.7761630075509
          32 :   -23.0854998080840

     Forces acting on atoms (Ry/au):

     negative rho (up, down):  1.976E-03 0.000E+00
     atom    1 type  1   force =    -0.00100742   -0.00074780   -0.00056264
     atom    2 type  1   force =     0.00099324   -0.00026870    0.00012972
     atom    3 type  1   force =     0.00040672    0.00109266   -0.00018664
     atom    4 type  1   force =    -0.00041130   -0.00006317    0.00194805
     atom    5 type  1   force =    -0.00318748   -0.00128697   -0.00201789
     atom    6 type  1   force =     0.00303731   -0.00017301    0.00066054
     atom    7 type  1   force =     0.00088322    0.00251470   -0.00457189
     atom    8 type  1   force =    -0.00103088   -0.00107182    0.00064522
     atom    9 type  1   force =     0.00004475    0.00000496    0.00178711
     atom   10 type  1   force =     0.00003447    0.00002248    0.00007666
     atom   11 type  1   force =     0.00007822   -0.00002690    0.00157143
     atom   12 type  1   force =     0.00005874    0.00000754   -0.00015137
     atom   13 type  2   force =    -0.00005708   -0.00007448   -0.00068922
     atom   14 type  3   force =    -0.00123379   -0.00149381    0.00071031
     atom   15 type  3   force =     0.00139128    0.00156432    0.00065062

     Total force =     0.003906     Total SCF correction =     0.000455
     SCF correction compared to forces is large: reduce conv_thr to get better values

     entering subroutine stress ...

     negative rho (up, down):  1.976E-03 0.000E+00
          total   stress  (Ry/bohr**3)                   (kbar)     P=   -6.47
  -0.00005636   0.00000555   0.00000041         -8.29      0.82      0.06
   0.00000555  -0.00005747  -0.00000001          0.82     -8.45     -0.00
   0.00000041  -0.00000001  -0.00001808          0.06     -0.00     -2.66

     bfgs converged in  16 scf cycles and  15 bfgs steps
     (criteria: energy <  1.0E+00, force <  1.9E-03)

     End of BFGS Geometry Optimization

     Final energy   =   -3573.6566991680 Ry
Begin final coordinates

ATOMIC_POSITIONS (crystal)
Ag1      0.166666667   0.166666667   0.402063960    0   0   0
Ag1      0.666666667   0.166666667   0.402063960    0   0   0
Ag1      0.166666667   0.666666667   0.402063960    0   0   0
Ag1      0.666666667   0.666666667   0.402063960    0   0   0
Ag1      0.833333333   0.333333333   0.500000000    0   0   0
Ag1      0.333333333   0.333333333   0.500000000    0   0   0
Ag1      0.833333333   0.833333333   0.500000000    0   0   0
Ag1      0.333333333   0.833333333   0.500000000    0   0   0
Ag1      0.000872405   0.000007827   0.595248931
Ag1      0.500072353   0.000252362   0.597388362
Ag1      0.000456780   0.499834403   0.594414770
Ag1      0.500135466   0.499916726   0.601201019
C1       0.000523443  -0.000116849   0.678254763
H1       0.046512623   0.124420655   0.702328618
H1       0.953826530   0.875682482   0.702272892
End final coordinates

     Writing output data file calc.save

     General routines

     Parallel routines

   This run was terminated on:  11:37:42  16Apr2018

   JOB DONE.
Job  /afs/slac/g/suncat/bin/suncat-tsmpirun -x LD_LIBRARY_PATH -wdir /scratch/qe103561_NGkLz pw.x -npool 4 -in pw.inp

TID   HOST_NAME   COMMAND_LINE            STATUS            TERMINATION_TIME
00000 suncat0079 pw.x -npool 4 -i  Done                     04/16/2018 11:37:42
00001 suncat0079 pw.x -npool 4 -i  Done                     04/16/2018 11:37:42
00002 suncat0079 pw.x -npool 4 -i  Done                     04/16/2018 11:37:42
00003 suncat0079 pw.x -npool 4 -i  Done                     04/16/2018 11:37:42
00004 suncat0079 pw.x -npool 4 -i  Done                     04/16/2018 11:37:42
00005 suncat0079 pw.x -npool 4 -i  Done                     04/16/2018 11:37:42
00006 suncat0079 pw.x -npool 4 -i  Done                     04/16/2018 11:37:42
00007 suncat0079 pw.x -npool 4 -i  Done                     04/16/2018 11:37:42
00008 suncat0078 pw.x -npool 4 -i  Done                     04/16/2018 11:37:42
00009 suncat0078 pw.x -npool 4 -i  Done                     04/16/2018 11:37:42
00010 suncat0078 pw.x -npool 4 -i  Done                     04/16/2018 11:37:42
00011 suncat0078 pw.x -npool 4 -i  Done                     04/16/2018 11:37:42
00012 suncat0078 pw.x -npool 4 -i  Done                     04/16/2018 11:37:42
00013 suncat0078 pw.x -npool 4 -i  Done                     04/16/2018 11:37:42
00014 suncat0078 pw.x -npool 4 -i  Done                     04/16/2018 11:37:42
00015 suncat0078 pw.x -npool 4 -i  Done                     04/16/2018 11:37:42
00016 suncat0048 pw.x -npool 4 -i  Done                     04/16/2018 11:37:42
00017 suncat0048 pw.x -npool 4 -i  Done                     04/16/2018 11:37:42
00018 suncat0048 pw.x -npool 4 -i  Done                     04/16/2018 11:37:42
00019 suncat0048 pw.x -npool 4 -i  Done                     04/16/2018 11:37:42
00020 suncat0048 pw.x -npool 4 -i  Done                     04/16/2018 11:37:42
00021 suncat0048 pw.x -npool 4 -i  Done                     04/16/2018 11:37:42
00022 suncat0048 pw.x -npool 4 -i  Done                     04/16/2018 11:37:42
00023 suncat0048 pw.x -npool 4 -i  Done                     04/16/2018 11:37:42
00024 suncat0029 pw.x -npool 4 -i  Done                     04/16/2018 11:37:42
00025 suncat0029 pw.x -npool 4 -i  Done                     04/16/2018 11:37:42
00026 suncat0029 pw.x -npool 4 -i  Done                     04/16/2018 11:37:42
00027 suncat0029 pw.x -npool 4 -i  Done                     04/16/2018 11:37:42
00028 suncat0029 pw.x -npool 4 -i  Done                     04/16/2018 11:37:42
00029 suncat0029 pw.x -npool 4 -i  Done                     04/16/2018 11:37:42
00030 suncat0029 pw.x -npool 4 -i  Done                     04/16/2018 11:37:42
00031 suncat0029 pw.x -npool 4 -i  Done                     04/16/2018 11:37:42