     Program PWSCF v.5.1rc2 (svn rev. 11289) starts on  2May2018 at 22:10:11

     Current dimensions of program PWSCF are:
     Max number of different atomic species (ntypx) = 10
     Max number of k-points (npk) =  40000
     Max angular momentum in pseudopotentials (lmaxx) =  3
     Presently stress not available with electric field

     IMPORTANT: XC functional enforced from input :
     Exchange-correlation      = BEEF-VDW ( 1  4 27 13 2)
     Any further DFT definition will be discarded
     Please, verify this is what you really want

     Subspace diagonalization in iterative solution of the eigenvalue problem:
     a serial algorithm will be used

     bravais-lattice index     =            0
     lattice parameter (alat)  =       1.8897  a.u.
     unit-cell volume          =    4515.4205 (a.u.)^3
     number of atoms/cell      =           13
     number of atomic types    =            2
     number of electrons       =       241.00
     number of Kohn-Sham states=          130
     kinetic-energy cutoff     =      36.7493  Ry
     charge density cutoff     =     367.4932  Ry
     convergence threshold     =      1.0E-05
     mixing beta               =       0.3000
     number of iterations used =           10  plain     mixing
     Exchange-correlation      = BEEF-VDW ( 1  4 27 13 2)
     nstep                     =           50

     celldm(1)=   1.889726  celldm(2)=   0.000000  celldm(3)=   0.000000
     celldm(4)=   0.000000  celldm(5)=   0.000000  celldm(6)=   0.000000

     crystal axes: (cart. coord. in units of alat)
               a(1) = (   5.606773   0.000000   0.000000 )
               a(2) = (   2.803387   4.855608   0.000000 )
               a(3) = (   0.000000   0.000000  24.577911 )

     reciprocal axes: (cart. coord. in units 2 pi/alat)
               b(1) = (  0.178356 -0.102974  0.000000 )
               b(2) = (  0.000000  0.205947  0.000000 )
               b(3) = (  0.000000  0.000000  0.040687 )

     PseudoPot. # 1 for Zn read from file:
     /u/if/mamunm/psp/gbrv1.5pbe/Zn.UPF
     MD5 check sum: df62231357ef9e81f77b2b3087fa5675
     Pseudo is Ultrasoft, Zval = 20.0
     Generated by new atomic code, or converted to UPF format
     Using radial grid of  943 points,  6 beta functions with:
                l(1) =   0
                l(2) =   0
                l(3) =   1
                l(4) =   1
                l(5) =   2
                l(6) =   2
     Q(r) pseudized with  8 coefficients,  rinner =    1.100   1.100   1.100
                                                       1.100   1.100

     PseudoPot. # 2 for H  read from file:
     /u/if/mamunm/psp/gbrv1.5pbe/H.UPF
     MD5 check sum: 761ae9a214b05c3daf00ab9f6b793d6f
     Pseudo is Ultrasoft, Zval =  1.0
     Generated by new atomic code, or converted to UPF format
     Using radial grid of  615 points,  2 beta functions with:
                l(1) =   0
                l(2) =   0
     Q(r) pseudized with  8 coefficients,  rinner =    0.700

     vdW kernel table read from file vdW_kernel_table
     MD5 check sum: 095c7af220d748ca6e76c0b4c6cfb241

     atomic species   valence    mass     pseudopotential
        Zn1           20.00    65.38000     Zn( 1.00)
        H1             1.00     1.00800     H ( 1.00)

     No symmetry found

   Cartesian axes

     site n.     atom                  positions (alat units)
         1           Zn1 tau(   1) = (   1.4016933   0.8092680  10.0000000  )
         2           Zn1 tau(   2) = (   4.2050800   0.8092680  10.0000000  )
         3           Zn1 tau(   3) = (   2.8033867   3.2370721  10.0000000  )
         4           Zn1 tau(   4) = (   5.6067733   3.2370721  10.0000000  )
         5           Zn1 tau(   5) = (   5.6067733   1.6185360  12.2889556  )
         6           Zn1 tau(   6) = (   2.8033867   1.6185360  12.2889556  )
         7           Zn1 tau(   7) = (   7.0084667   4.0463401  12.2889556  )
         8           Zn1 tau(   8) = (   4.2050800   4.0463401  12.2889556  )
         9           Zn1 tau(   9) = (   0.0000000   0.0000000  14.5779113  )
        10           Zn1 tau(  10) = (   2.8033867   0.0000000  14.5779113  )
        11           Zn1 tau(  11) = (   1.4016933   2.4278041  14.5779113  )
        12           Zn1 tau(  12) = (   4.2050800   2.4278041  14.5779113  )
        13           H1  tau(  13) = (   2.8033867   1.6185360  15.5724113  )

     number of k points=    20  Fermi-Dirac smearing, width (Ry)=  0.0110
                       cart. coord. in units 2pi/alat
        k(    1) = (   0.0000000   0.0000000   0.0000000), wk =   0.0555556
        k(    2) = (   0.0000000   0.0343246   0.0000000), wk =   0.1111111
        k(    3) = (   0.0000000   0.0686491   0.0000000), wk =   0.1111111
        k(    4) = (   0.0000000  -0.1029737   0.0000000), wk =   0.0555556
        k(    5) = (   0.0297260  -0.0171623   0.0000000), wk =   0.1111111
        k(    6) = (   0.0297260   0.0171623   0.0000000), wk =   0.1111111
        k(    7) = (   0.0297260   0.0514869   0.0000000), wk =   0.1111111
        k(    8) = (   0.0297260  -0.1201360   0.0000000), wk =   0.1111111
        k(    9) = (   0.0297260  -0.0858114   0.0000000), wk =   0.1111111
        k(   10) = (   0.0297260  -0.0514869   0.0000000), wk =   0.1111111
        k(   11) = (   0.0594519  -0.0343246   0.0000000), wk =   0.1111111
        k(   12) = (   0.0594519   0.0000000   0.0000000), wk =   0.1111111
        k(   13) = (   0.0594519   0.0343246   0.0000000), wk =   0.1111111
        k(   14) = (   0.0594519  -0.1372983   0.0000000), wk =   0.1111111
        k(   15) = (   0.0594519  -0.1029737   0.0000000), wk =   0.1111111
        k(   16) = (   0.0594519  -0.0686491   0.0000000), wk =   0.1111111
        k(   17) = (  -0.0891779   0.0514869   0.0000000), wk =   0.0555556
        k(   18) = (  -0.0891779   0.0858114   0.0000000), wk =   0.1111111
        k(   19) = (  -0.0891779   0.1201360   0.0000000), wk =   0.1111111
        k(   20) = (  -0.0891779  -0.0514869   0.0000000), wk =   0.0555556

     Largest allocated arrays     est. size (Mb)     dimensions
     Largest temporary arrays     est. size (Mb)     dimensions

     Initial potential from superposition of free atoms
     Check: negative starting charge=   -0.000863

     starting charge  240.99830, renormalised to  241.00000

     negative rho (up, down):  8.630E-04 0.000E+00

     *
     * You are using vdW-DF for exchange-correlation in this calculation.
     * Please cite the following three references that made this development
     * possible:
     *
     *   M. Dion, H. Rydberg, E. Schroder, D. C. Langreth, and
     *   B. I. Lundqvist, Phys. Rev. Lett. 92, 246401 (2004).
     *
     *   T. Thonhauser, V. R. Cooper, S. Li, A. Puzder, P. Hyldgaard, and
     *   D. C. Langreth, Phys. Rev. B 76, 125112 (2007).
     *
     *   G. Roman-Perez and J. M. Soler, Phys. Rev. Lett. 103, 096102 (2009).
     *
     *
     * If you are using vdW-DF2, please also cite:
     *
     *   K. Lee, E. D. Murray, L. Kong, B. I. Lundqvist, and
     *   D. C. Langreth, Phys. Rev. B 82, 081101(R) (2010).
     *
     *
     * If you are calculating the stress with vdW-DF, please also cite:
     *
     *   R. Sabatini, E. Kucukbenli, B. Kolb, T. Thonhauser, and
     *   S. de Gironcoli, J. Phys.: Condens. Matter 24, 424209 (2012).
     *

     Carrying out vdW-DF run using the following parameters:

     Nqs =      20    Nr_points =    1024   r_max =   100.000
     q_mesh =
               0.00001000     0.04494208     0.09755937     0.15916263
               0.23128650     0.31572767     0.41458969     0.53033537
               0.66584808     0.82450364     1.01025438     1.22772762
               1.48234092     1.78043706     2.12944203     2.53805004
               3.01644009     3.57652955     4.23227104     5.00000000

     Gradients computed in reciprocal space

     Adding external electric field

     Computed dipole along edir(3) :
        Dipole                0.0000 Ry au,          0.0000 Debye
        Dipole field          0.0000 Ry au

        Potential amp.       -0.0000 Ry
        Total length         45.2844 bohr

     Starting wfc are  157 randomized atomic wfcs

     Self-consistent Calculation

     iteration #  1     ecut=    36.75 Ry     beta=0.30
     Davidson diagonalization with overlap
     ethr =  1.00E-02,  avg # of iterations =  2.0

     Threshold (ethr) on eigenvalues was too large:
     Diagonalizing with lowered threshold

     Davidson diagonalization with overlap
     ethr =  8.49E-05,  avg # of iterations =  3.8

[...]

     total energy              =   -5554.39476777 Ry
     Harris-Foulkes estimate   =   -5554.44730354 Ry
     estimated scf accuracy    <       0.22009136 Ry

[...]

     End of self-consistent calculation

          k = 0.0000 0.0000 0.0000 ( 16931 PWs)   bands (ev):

  -126.3285-126.3276-126.3276-126.3006-126.2879-126.2870-126.2870-126.1708
  -126.0939-126.0796-126.0787-126.0787 -80.5112 -80.5098 -80.5097 -80.5083
   -80.5079 -80.5079 -80.5009 -80.4961 -80.4961 -80.4791 -80.4750 -80.4744
   -80.4744 -80.4680 -80.4680 -80.4678 -80.4675 -80.4675 -80.4598 -80.4598
   -80.4566 -80.3591 -80.3416 -80.3416 -80.2826 -80.2695 -80.2695 -80.2666
   -80.2657 -80.2657 -80.2565 -80.2544 -80.2544 -80.2517 -80.2443 -80.2442
    -9.1924  -8.3218  -7.8920  -7.8771  -7.8771  -7.8708  -7.8281  -7.8100
    -7.8100  -7.7723  -7.7541  -7.7541  -7.6311  -7.5921  -7.5921  -7.4666
    -7.3754  -7.3754  -7.3353  -7.3353  -7.3214  -7.3060  -7.3060  -7.2923
    -7.2716  -7.2716  -7.2557  -7.2377  -7.2377  -7.1115  -7.1115  -6.9858
    -6.9858  -6.9799  -6.9799  -6.9556  -6.9519  -6.9300  -6.9300  -6.8781
    -6.8601  -6.8601  -6.8302  -6.8302  -6.7622  -6.7516  -6.7516  -6.7464
    -6.7278  -6.7126  -6.7126  -6.7001  -6.6895  -6.6894  -6.6866  -6.6866
    -6.6739  -6.6542  -6.6542  -6.5017  -6.5017  -6.4961  -4.6785  -2.8507
    -2.1553  -2.1553  -2.1146  -1.7699  -1.7699  -1.4567  -0.8999  -0.7310
    -0.7310   0.2184   0.2184   0.3208   1.3014   2.0777   2.0777   2.2364
     2.6341   2.6780

[...]

          k =-0.0892 0.0515 0.0000 ( 17028 PWs)   bands (ev):

[...]

     the Fermi energy is     0.4670 ev

!    total energy              =   -5554.41892512 Ry
     Harris-Foulkes estimate   =   -5554.41891977 Ry
     estimated scf accuracy    <       0.00000744 Ry

     The total energy is the sum of the following terms:

     one-electron contribution =  -35534.72800532 Ry
     hartree contribution      =   17745.93834374 Ry
     xc contribution           =    -521.59896610 Ry
     ewald contribution        =   12755.99359557 Ry
     electric field correction =       0.00000126 Ry
     smearing contrib. (-TS)   =      -0.02389425 Ry

     convergence has been achieved in   8 iterations

 BEEF-vdW xc energy contributions
           1 :   -463.476930414677
           2 :    420.063006624581
           3 :   -347.256181622886
           4 :    266.203215887392
           5 :   -195.598633761456
           6 :    144.646236190395
           7 :   -111.832685333467
           8 :    89.2227128186399
           9 :   -68.9529800285458
          10 :    47.8304079584148
          11 :   -27.7525951799405
          12 :    12.6286290788670
          13 :   -4.58450865569853
          14 :    2.20072707397458
          15 :   -1.67705558863815
          16 :  -0.372622505325580
          17 :    4.75634266188104
          18 :   -9.66623931721415
          19 :    12.5248924827456
          20 :   -12.1394167621314
          21 :    9.54889360634797
          22 :   -7.09285423648299
          23 :    6.58593290160303
          24 :   -8.05753097085284
          25 :    9.94536244426212
          26 :   -10.4599480471878
          27 :    8.98342925103736
          28 :   -6.44681200812465
          29 :    4.49423086920297
          30 :   -4.17668957370216
          31 :   -35.8202318683045
          32 :   -24.4275498130389

     Forces acting on atoms (Ry/au):

     atom    1 type  1   force =     0.00322539    0.00186232   -0.00759551
     atom    2 type  1   force =    -0.00322378    0.00186319   -0.00760010
     atom    3 type  1   force =     0.00000072   -0.00372559   -0.00760086
     atom    4 type  1   force =     0.00000047    0.00000087   -0.00760368
     atom    5 type  1   force =    -0.00000497   -0.00062308    0.00162626
     atom    6 type  1   force =     0.00000258    0.00000011    0.00125255
     atom    7 type  1   force =     0.00054169    0.00031269    0.00162579
     atom    8 type  1   force =    -0.00054106    0.00030769    0.00162494
     atom    9 type  1   force =     0.00000011    0.00000059    0.00599091
     atom   10 type  1   force =    -0.00000103   -0.01797822    0.00689939
     atom   11 type  1   force =    -0.01557033    0.00898921    0.00690266
     atom   12 type  1   force =     0.01557045    0.00899015    0.00689334
     atom   13 type  2   force =    -0.00000023    0.00000010   -0.00241568

     Total force =     0.033974     Total SCF correction =     0.015123
     SCF correction compared to forces is large: reduce conv_thr to get better values

     entering subroutine stress ...

          total   stress  (Ry/bohr**3)                   (kbar)     P=   -9.81
  -0.00011894   0.00000000   0.00000000        -17.50      0.00      0.00
   0.00000000  -0.00011894  -0.00000000          0.00    -17.50     -0.00
   0.00000000  -0.00000000   0.00003783          0.00     -0.00      5.57

     BFGS Geometry Optimization

     number of scf cycles    =   1
     number of bfgs steps    =   0

     energy   new            =   -5554.4189251196 Ry

     new trust radius        =       0.0192584497 bohr
     new conv_thr            =       0.0000099958 Ry

ATOMIC_POSITIONS (crystal)
Zn1      0.166666667   0.166666667   0.406869400    0   0   0
Zn1      0.666666667   0.166666667   0.406869400    0   0   0
Zn1      0.166666667   0.666666667   0.406869400    0   0   0
Zn1      0.666666667   0.666666667   0.406869400    0   0   0
Zn1      0.833333333   0.333333333   0.500000000    0   0   0
Zn1      0.333333333   0.333333333   0.500000000    0   0   0
Zn1      0.833333333   0.833333333   0.500000000    0   0   0
Zn1      0.333333333   0.833333333   0.500000000    0   0   0
Zn1     -0.000000022   0.000000064   0.593259588
Zn1      0.500979560  -0.001959315   0.593279148
Zn1     -0.001959390   0.500979668   0.593279219
Zn1      0.500979682   0.500979770   0.593279018
H1       0.333333306   0.333333344   0.633541751

     Writing output data file calc.save
     Check: negative starting charge=   -0.000863
     NEW-OLD atomic charge density approx. for the potential
     Check: negative starting charge=   -0.000866

[...]

     energy   old            =   -5554.4189251196 Ry
     energy   new            =   -5554.4198024256 Ry

     CASE: energy  _new < energy  _old

[...]

     Total force =     0.022967     Total SCF correction =     0.000401

[...]

     WARNING: bfgs curvature condition failed, Theta= 0.526
     uphill step: resetting bfgs history

[...]

     WARNING: bfgs curvature condition failed, Theta= 0.904
     new trust radius        =       0.0196137026 bohr
     new conv_thr            =       0.0000001000 Ry

[...]

     Total force =     0.010492     Total SCF correction =     0.000918

[...]

     number of scf cycles    =  11
     number of bfgs steps    =  10

     energy   old            =   -5554.4253636680 Ry
     energy   new            =   -5554.4257303289 Ry

     CASE: energy  _new < energy  _old

     new trust radius        =       0.0317747081 bohr
     new conv_thr            =       0.0000001000 Ry

ATOMIC_POSITIONS (crystal)
Zn1      0.166666667   0.166666667   0.406869400    0   0   0
Zn1      0.666666667   0.166666667   0.406869400    0   0   0
Zn1      0.166666667   0.666666667   0.406869400    0   0   0
Zn1      0.666666667   0.666666667   0.406869400    0   0   0
Zn1      0.833333333   0.333333333   0.500000000    0   0   0
Zn1      0.333333333   0.333333333   0.500000000    0   0   0
Zn1      0.833333333   0.833333333   0.500000000    0   0   0
Zn1      0.333333333   0.833333333   0.500000000    0   0   0
Zn1      0.000000017   0.000000020   0.594179533
Zn1      0.510075306  -0.020150850   0.599060825
Zn1     -0.020150785   0.510075327   0.599060811
Zn1      0.510075373   0.510075510   0.599060831
H1       0.333333266   0.333333347   0.630170061

     Writing output data file calc.save
     Check: negative starting charge=   -0.000836
     NEW-OLD atomic charge density approx. for the potential
     Check: negative starting charge=   -0.000839

[...]

     Self-consistent Calculation

[...]

     Threshold (ethr) on eigenvalues was too large:
     Diagonalizing with lowered threshold

     Davidson diagonalization with overlap
     ethr =  1.67E-08,  avg # of iterations =  1.0

[...]

     total energy              =   -5554.42603319 Ry
     Harris-Foulkes estimate   =   -5554.42603284 Ry
     estimated scf accuracy    <       0.00000083 Ry

     iteration #  6     ecut=    36.75 Ry     beta=0.30
     Davidson diagonalization with overlap
     ethr =  3.46E-10,  avg # of iterations =  2.2

[...]

     negative rho (up, down):  1.010E-03 0.000E+00

     Adding external electric field

     Computed dipole along edir(3) :
        Dipole                0.0475 Ry au,          0.1207 Debye
        Dipole field          0.0001 Ry au

        Potential amp.       -0.0120 Ry
        Total length         45.2844 bohr

     End of self-consistent calculation

[...]

          k = 0.0595-0.0686 0.0000 ( 16986 PWs)   bands (ev):

[...]

          k =-0.0892-0.0515 0.0000 ( 17028 PWs)   bands (ev):

  -126.2708-126.2705-126.2701-126.2383-126.2373-126.2371-126.2269-126.1213
  -126.0537-126.0502-126.0499-126.0496 -80.4524 -80.4519 -80.4514 -80.4500
   -80.4479 -80.4466 -80.4455 -80.4428 -80.4384 -80.4298 -80.4209 -80.4201
   -80.4196 -80.4186 -80.4174 -80.4090 -80.4081 -80.4054 -80.4049 -80.4018
   -80.4011 -80.3066 -80.2945 -80.2941 -80.2410 -80.2382 -80.2377 -80.2374
   -80.2314 -80.2281 -80.2273 -80.2249 -80.2225 -80.2215 -80.2196 -80.2153
    -8.0804  -7.7899  -7.7109  -7.6085  -7.5899  -7.5508  -7.5482  -7.5273
    -7.5004  -7.4773  -7.4666  -7.4588  -7.4375  -7.4224  -7.4023  -7.3670
    -7.3600  -7.3020  -7.2809  -7.2701  -7.2491  -7.2398  -7.2273  -7.2207
    -7.1785  -7.1591  -7.1413  -7.1228  -7.1200  -7.0776  -7.0726  -7.0721
    -7.0552  -7.0454  -7.0144  -7.0007  -6.9810  -6.9774  -6.9614  -6.9548
    -6.9245  -6.9076  -6.9054  -6.8820  -6.8818  -6.8792  -6.8673  -6.8524
    -6.8352  -6.8160  -6.7817  -6.7778  -6.7461  -6.7439  -6.7098  -6.6938
    -6.6633  -6.6618  -6.6592  -6.6436  -6.5923  -6.5892  -5.6464  -5.2251
    -3.8068  -3.4158  -3.1126  -2.5657  -2.0843  -1.8577  -0.1226   0.6358
     0.7091   0.8696   2.8565   3.0118   3.0961   3.2536   3.6763   3.9477
     3.9592   4.1579

     the Fermi energy is     0.5124 ev

!    total energy              =   -5554.42603329 Ry
     Harris-Foulkes estimate   =   -5554.42603337 Ry
     estimated scf accuracy    <       0.00000009 Ry

     The total energy is the sum of the following terms:

     one-electron contribution =  -35031.70803442 Ry
     hartree contribution      =   17494.71259271 Ry
     xc contribution           =    -521.54919874 Ry
     ewald contribution        =   12504.14316541 Ry
     electric field correction =       0.00000627 Ry
     smearing contrib. (-TS)   =      -0.02456452 Ry

     convergence has been achieved in   6 iterations

 BEEF-vdW xc energy contributions
           1 :   -463.422897144550
           2 :    419.963316917762
           3 :   -347.098061610191
           4 :    266.015412709970
           5 :   -195.426841166434
           6 :    144.515979354548
           7 :   -111.731922760482
           8 :    89.1183138132226
           9 :   -68.8259637610711
          10 :    47.6988387607013
          11 :   -27.6609649543510
          12 :    12.6112785916665
          13 :   -4.63319701991361
          14 :    2.26444944407382
          15 :   -1.69683305736618
          16 :  -0.419911643942498
          17 :    4.84005981400020
          18 :   -9.72595930098157
          19 :    12.5182854161233
          20 :   -12.0763927713247
          21 :    9.48453004643494
          22 :   -7.08323016285050
          23 :    6.64127639852819
          24 :   -8.13047097218185
          25 :    9.96566279760856
          26 :   -10.3896188558455
          27 :    8.84930413859860
          28 :   -6.32502910439740
          29 :    4.45800095653425
          30 :   -4.24697344352586
          31 :   -35.8151360606935
          32 :   -24.4103243680340

     Forces acting on atoms (Ry/au):

     atom    1 type  1   force =     0.00200562    0.00115795   -0.00878396
     atom    2 type  1   force =    -0.00200561    0.00115796   -0.00878456
     atom    3 type  1   force =     0.00000002   -0.00231590   -0.00878425
     atom    4 type  1   force =    -0.00000000    0.00000000   -0.00847678
     atom    5 type  1   force =    -0.00000006    0.00072624    0.00835890
     atom    6 type  1   force =     0.00000002   -0.00000001    0.00595281
     atom    7 type  1   force =    -0.00062896   -0.00036308    0.00835884
     atom    8 type  1   force =     0.00062895   -0.00036316    0.00835899
     atom    9 type  1   force =     0.00000000   -0.00000001    0.00031962
     atom   10 type  1   force =     0.00000011    0.00179582    0.00075195
     atom   11 type  1   force =     0.00155514   -0.00089781    0.00075210
     atom   12 type  1   force =    -0.00155525   -0.00089799    0.00075175
     atom   13 type  2   force =     0.00000002   -0.00000001    0.00122459

     Total force =     0.003602     Total SCF correction =     0.001001
     SCF correction compared to forces is large: reduce conv_thr to get better values

     entering subroutine stress ...

          total   stress  (Ry/bohr**3)                   (kbar)     P=  -17.89
  -0.00017337   0.00000000   0.00000000        -25.50      0.00      0.00
   0.00000000  -0.00017337  -0.00000000          0.00    -25.50     -0.00
   0.00000000  -0.00000000  -0.00001816          0.00     -0.00     -2.67

     bfgs converged in  12 scf cycles and  11 bfgs steps
     (criteria: energy <  1.0E+00, force <  1.9E-03)

     End of BFGS Geometry Optimization

     Final energy   =   -5554.4260332935 Ry
Begin final coordinates

ATOMIC_POSITIONS (crystal)
Zn1      0.166666667   0.166666667   0.406869400    0   0   0
Zn1      0.666666667   0.166666667   0.406869400    0   0   0
Zn1      0.166666667   0.666666667   0.406869400    0   0   0
Zn1      0.666666667   0.666666667   0.406869400    0   0   0
Zn1      0.833333333   0.333333333   0.500000000    0   0   0
Zn1      0.333333333   0.333333333   0.500000000    0   0   0
Zn1      0.833333333   0.833333333   0.500000000    0   0   0
Zn1      0.333333333   0.833333333   0.500000000    0   0   0
Zn1      0.000000017   0.000000020   0.594179533
Zn1      0.510075306  -0.020150850   0.599060825
Zn1     -0.020150785   0.510075327   0.599060811
Zn1      0.510075373   0.510075510   0.599060831
H1       0.333333266   0.333333347   0.630170061
End final coordinates

     Writing output data file calc.save

     General routines

     Parallel routines

   This run was terminated on:  23: 0:42   2May2018

   JOB DONE.
Job  /afs/slac/g/suncat/bin/suncat-tsmpirun -x LD_LIBRARY_PATH -wdir /scratch/qe277304_ec5uN pw.x -npool 4 -in pw.inp

TID   HOST_NAME   COMMAND_LINE            STATUS            TERMINATION_TIME
00000 suncat0058 pw.x -npool 4 -i  Done                     05/02/2018 23:00:42
00001 suncat0058 pw.x -npool 4 -i  Done                     05/02/2018 23:00:42
00002 suncat0058 pw.x -npool 4 -i  Done                     05/02/2018 23:00:42
00003 suncat0058 pw.x -npool 4 -i  Done                     05/02/2018 23:00:42
00004 suncat0058 pw.x -npool 4 -i  Done                     05/02/2018 23:00:42
00005 suncat0058 pw.x -npool 4 -i  Done                     05/02/2018 23:00:42
00006 suncat0058 pw.x -npool 4 -i  Done                     05/02/2018 23:00:42
00007 suncat0058 pw.x -npool 4 -i  Done                     05/02/2018 23:00:42
00008 suncat0052 pw.x -npool 4 -i  Done                     05/02/2018 23:00:42
00009 suncat0052 pw.x -npool 4 -i  Done                     05/02/2018 23:00:42
00010 suncat0052 pw.x -npool 4 -i  Done                     05/02/2018 23:00:42
00011 suncat0052 pw.x -npool 4 -i  Done                     05/02/2018 23:00:42
00012 suncat0052 pw.x -npool 4 -i  Done                     05/02/2018 23:00:42
00013 suncat0052 pw.x -npool 4 -i  Done                     05/02/2018 23:00:42
00014 suncat0052 pw.x -npool 4 -i  Done                     05/02/2018 23:00:42
00015 suncat0052 pw.x -npool 4 -i  Done                     05/02/2018 23:00:42
00016 suncat0238 pw.x -npool 4 -i  Done                     05/02/2018 23:00:42
00017 suncat0238 pw.x -npool 4 -i  Done                     05/02/2018 23:00:42
00018 suncat0238 pw.x -npool 4 -i  Done                     05/02/2018 23:00:42
00019 suncat0238 pw.x -npool 4 -i  Done                     05/02/2018 23:00:42
00020 suncat0238 pw.x -npool 4 -i  Done                     05/02/2018 23:00:42
00021 suncat0238 pw.x -npool 4 -i  Done                     05/02/2018 23:00:42
00022 suncat0238 pw.x -npool 4 -i  Done                     05/02/2018 23:00:42
00023 suncat0238 pw.x -npool 4 -i  Done                     05/02/2018 23:00:42
00024 suncat0218 pw.x -npool 4 -i  Done                     05/02/2018 23:00:42
00025 suncat0218 pw.x -npool 4 -i  Done                     05/02/2018 23:00:42
00026 suncat0218 pw.x -npool 4 -i  Done                     05/02/2018 23:00:42
00027 suncat0218 pw.x -npool 4 -i  Done                     05/02/2018 23:00:42
00028 suncat0218 pw.x -npool 4 -i  Done                     05/02/2018 23:00:42
00029 suncat0218 pw.x -npool 4 -i  Done                     05/02/2018 23:00:42
00030 suncat0218 pw.x -npool 4 -i  Done                     05/02/2018 23:00:42
00031 suncat0218 pw.x -npool 4 -i  Done                     05/02/2018 23:00:42