     Program PWSCF v.5.1rc2 (svn rev. 11289) starts on  3May2018 at  8:36:44

     Current dimensions of program PWSCF are:
     Max number of different atomic species (ntypx) = 10
     Max number of k-points (npk) =  40000
     Max angular momentum in pseudopotentials (lmaxx) =  3
     Presently stress not available with electric field

     IMPORTANT: XC functional enforced from input :
     Exchange-correlation      = BEEF-VDW ( 1  4 27 13 2)
     Any further DFT definition will be discarded
     Please, verify this is what you really want

     Subspace diagonalization in iterative solution of the eigenvalue problem:
     a serial algorithm will be used

     bravais-lattice index     =            0
     lattice parameter (alat)  =       1.8897  a.u.
     unit-cell volume          =    4569.9960 (a.u.)^3
     number of atoms/cell      =           13
     number of atomic types    =            2
     number of electrons       =       197.00
     number of Kohn-Sham states=          108
     kinetic-energy cutoff     =      36.7493  Ry
     charge density cutoff     =     367.4932  Ry
     convergence threshold     =      1.0E-05
     mixing beta               =       0.3000
     number of iterations used =           10  plain     mixing
     Exchange-correlation      = BEEF-VDW ( 1  4 27 13 2)
     nstep                     =           50

     celldm(1)=   1.889726  celldm(2)=   0.000000  celldm(3)=   0.000000
     celldm(4)=   0.000000  celldm(5)=   0.000000  celldm(6)=   0.000000

     crystal axes: (cart. coord. in units of alat)
               a(1) = (   5.637663   0.000000   0.000000 )
               a(2) = (   2.818831   4.882359   0.000000 )
               a(3) = (   0.000000   0.000000  24.603132 )

     reciprocal axes: (cart. coord. in units 2 pi/alat)
               b(1) = (  0.177378 -0.102410  0.000000 )
               b(2) = (  0.000000  0.204819  0.000000 )
               b(3) = (  0.000000  0.000000  0.040645 )

     PseudoPot. # 1 for Pd read from file:
     /u/if/mamunm/psp/gbrv1.5pbe/Pd.UPF
     MD5 check sum: 2d733d2bc2cbfd217af676df1668a4bc
     Pseudo is Ultrasoft + core correction, Zval = 16.0
     Generated by new atomic code, or converted to UPF format
     Using radial grid of  887 points,  6 beta functions with:
                l(1) =   0
                l(2) =   0
                l(3) =   1
                l(4) =   1
                l(5) =   2
                l(6) =   2
     Q(r) pseudized with  8 coefficients,  rinner =    1.130   1.130   1.130
                                                       1.130   1.130

     PseudoPot. # 2 for N  read from file:
     /u/if/mamunm/psp/gbrv1.5pbe/N.UPF
     MD5 check sum: 95339753478d7afb44899504a8723017
     Pseudo is Ultrasoft + core correction, Zval =  5.0
     Generated by new atomic code, or converted to UPF format
     Using radial grid of  729 points,  4 beta functions with:
                l(1) =   0
                l(2) =   0
                l(3) =   1
                l(4) =   1
     Q(r) pseudized with  8 coefficients,  rinner =    0.900   0.900   0.900

     vdW kernel table read from file vdW_kernel_table
     MD5 check sum: 095c7af220d748ca6e76c0b4c6cfb241

     atomic species   valence    mass     pseudopotential
        Pd1           16.00   106.42000     Pd( 1.00)
        N1             5.00    14.00700     N ( 1.00)

     No symmetry found

   Cartesian axes

     site n.     atom                  positions (alat units)
         1           Pd1 tau(   1) = (   1.4094157   0.8137265  10.0000000  )
         2           Pd1 tau(   2) = (   4.2282471   0.8137265  10.0000000  )
         3           Pd1 tau(   3) = (   2.8188314   3.2549061  10.0000000  )
         4           Pd1 tau(   4) = (   5.6376627   3.2549061  10.0000000  )
         5           Pd1 tau(   5) = (   5.6376627   1.6274531  12.3015662  )
         6           Pd1 tau(   6) = (   2.8188314   1.6274531  12.3015662  )
         7           Pd1 tau(   7) = (   7.0470784   4.0686326  12.3015662  )
         8           Pd1 tau(   8) = (   4.2282471   4.0686326  12.3015662  )
         9           Pd1 tau(   9) = (   0.0000000   0.0000000  14.6031324  )
        10           Pd1 tau(  10) = (   2.8188314   0.0000000  14.6031324  )
        11           Pd1 tau(  11) = (   1.4094157   2.4411796  14.6031324  )
        12           Pd1 tau(  12) = (   4.2282471   2.4411796  14.6031324  )
        13           N1  tau(  13) = (   2.8188314   1.6274531  15.9681324  )

     number of k points=    20  Fermi-Dirac smearing, width (Ry)=  0.0110
                       cart. coord. in units 2pi/alat
        k(    1) = (   0.0000000   0.0000000   0.0000000), wk =   0.0555556
        k(    2) = (   0.0000000   0.0341365   0.0000000), wk =   0.1111111
        k(    3) = (   0.0000000   0.0682730   0.0000000), wk =   0.1111111
        k(    4) = (   0.0000000  -0.1024095   0.0000000), wk =   0.0555556
        k(    5) = (   0.0295631  -0.0170683   0.0000000), wk =   0.1111111
        k(    6) = (   0.0295631   0.0170683   0.0000000), wk =   0.1111111
        k(    7) = (   0.0295631   0.0512048   0.0000000), wk =   0.1111111
        k(    8) = (   0.0295631  -0.1194778   0.0000000), wk =   0.1111111
        k(    9) = (   0.0295631  -0.0853413   0.0000000), wk =   0.1111111
        k(   10) = (   0.0295631  -0.0512048   0.0000000), wk =   0.1111111
        k(   11) = (   0.0591262  -0.0341365   0.0000000), wk =   0.1111111
        k(   12) = (   0.0591262  -0.0000000   0.0000000), wk =   0.1111111
        k(   13) = (   0.0591262   0.0341365   0.0000000), wk =   0.1111111
        k(   14) = (   0.0591262  -0.1365460   0.0000000), wk =   0.1111111
        k(   15) = (   0.0591262  -0.1024095   0.0000000), wk =   0.1111111
        k(   16) = (   0.0591262  -0.0682730   0.0000000), wk =   0.1111111
        k(   17) = (  -0.0886892   0.0512048   0.0000000), wk =   0.0555556
        k(   18) = (  -0.0886892   0.0853413   0.0000000), wk =   0.1111111
        k(   19) = (  -0.0886892   0.1194778   0.0000000), wk =   0.1111111
        k(   20) = (  -0.0886892  -0.0512048   0.0000000), wk =   0.0555556

     Largest allocated arrays     est. size (Mb)     dimensions
     Largest temporary arrays     est. size (Mb)     dimensions

     Initial potential from superposition of free atoms
     Check: negative starting charge=   -0.904173

     starting charge  190.99991, renormalised to  197.00000

     negative rho (up, down):  9.326E-01 0.000E+00

     *
     * You are using vdW-DF for exchange-correlation in this calculation.
     * Please cite the following three references that made this development
     * possible:
     *
     *   M. Dion, H. Rydberg, E. Schroder, D. C. Langreth, and
     *   B. I. Lundqvist, Phys. Rev. Lett. 92, 246401 (2004).
     *
     *   T. Thonhauser, V. R. Cooper, S. Li, A. Puzder, P. Hyldgaard, and
     *   D. C. Langreth, Phys. Rev. B 76, 125112 (2007).
     *
     *   G. Roman-Perez and J. M. Soler, Phys. Rev. Lett. 103, 096102 (2009).
     *
     *
     * If you are using vdW-DF2, please also cite:
     *
     *   K. Lee, E. D. Murray, L. Kong, B. I. Lundqvist, and
     *   D. C. Langreth, Phys. Rev. B 82, 081101(R) (2010).
     *
     *
     * If you are calculating the stress with vdW-DF, please also cite:
     *
     *   R. Sabatini, E. Kucukbenli, B. Kolb, T. Thonhauser, and
     *   S. de Gironcoli, J. Phys.: Condens. Matter 24, 424209 (2012).
     *

     Carrying out vdW-DF run using the following parameters:

     Nqs =      20    Nr_points =    1024   r_max =   100.000
     q_mesh =
               0.00001000     0.04494208     0.09755937     0.15916263
               0.23128650     0.31572767     0.41458969     0.53033537
               0.66584808     0.82450364     1.01025438     1.22772762
               1.48234092     1.78043706     2.12944203     2.53805004
               3.01644009     3.57652955     4.23227104     5.00000000

     Gradients computed in reciprocal space

     Adding external electric field

     Computed dipole along edir(3) :
        Dipole               -1.0882 Ry au,         -2.7661 Debye
        Dipole field         -0.0030 Ry au

        Potential amp.        0.2713 Ry
        Total length         45.3309 bohr

     Starting wfc are  148 randomized atomic wfcs

     Self-consistent Calculation

     iteration #  1     ecut=    36.75 Ry     beta=0.30
     Davidson diagonalization with overlap
     ethr =  1.00E-02,  avg # of iterations =  3.4

[...]

     total energy              =   -2384.77344591 Ry
     Harris-Foulkes estimate   =   -2421.19807089 Ry
     estimated scf accuracy    <      77.10805425 Ry

[...]

     End of self-consistent calculation

          k = 0.0000 0.0000 0.0000 ( 17231 PWs)   bands (ev):

   -49.8702 -49.7403 -49.7402 -49.4485 -49.4485 -49.3684 -49.3526 -49.2807
   -49.2806 -49.2407 -49.2019 -49.2019 -49.1297 -49.1133 -49.1131 -49.0518
   -49.0471 -49.0470 -49.0432 -48.9849 -48.9848 -48.9695 -48.9695 -48.9501
   -48.8072 -48.8072 -48.7802 -48.7720 -48.7720 -48.7374 -48.7374 -48.7108
   -48.6287 -48.6205 -48.6129 -48.6128 -12.9806  -5.0603  -4.2642  -4.0252
    -4.0251  -3.9187  -3.7799  -3.7798  -3.7588  -3.6701  -3.5158  -3.5158
    -3.4666  -3.3153  -3.2544  -3.2543  -2.9073  -2.9073  -2.5667  -2.2066
    -2.2066  -2.0932  -2.0200  -2.0200  -1.8981  -1.7313  -1.7313  -1.6950
    -1.6950  -1.5934  -1.4593  -1.4593  -1.3421  -1.3421  -1.3250  -0.8937
    -0.8937  -0.8151  -0.6552  -0.5652  -0.4599  -0.4599  -0.2975  -0.2974
    -0.1762  -0.1762   0.0656   0.0656   0.3023   0.3023   0.3057   0.3178
     0.4167   0.4221   0.4221   0.5274   0.5274   0.5822   0.6709   0.7002
     0.7003   0.8858   0.8858   0.8985   1.2340   1.2340   1.2663   2.7001
     2.9985   2.9985   3.5090   4.2851

[...]

          k =-0.0887 0.0512 0.0000 ( 17240 PWs)   bands (ev):

[...]

     the Fermi energy is     0.6657 ev

!    total energy              =   -2417.59871539 Ry
     Harris-Foulkes estimate   =   -2417.59871381 Ry
     estimated scf accuracy    <       0.00000106 Ry

     The total energy is the sum of the following terms:

     one-electron contribution =  -20646.96205293 Ry
     hartree contribution      =   10372.24896150 Ry
     xc contribution           =    -395.37443511 Ry
     ewald contribution        =    8252.59749044 Ry
     electric field correction =       0.00018877 Ry
     smearing contrib. (-TS)   =      -0.10886806 Ry

     convergence has been achieved in  19 iterations

 BEEF-vdW xc energy contributions
           1 :   -344.138270541065
           2 :    314.357456846879
           3 :   -263.590968603034
           4 :    205.513259773696
           5 :   -153.320820581889
           6 :    115.403875181201
           7 :   -93.5549303292180
           8 :    83.9914835156036
           9 :   -80.3195924595524
          10 :    76.8502976969867
          11 :   -70.7762652972496
          12 :    62.4694560416788
          13 :   -54.1850489918214
          14 :    48.1743333174055
          15 :   -45.3063444554013
          16 :    44.7883707446380
          17 :   -44.8872421702314
          18 :    44.0468886277876
          19 :   -41.7026243497709
          20 :    38.3849871816379
          21 :   -35.1841663849635
          22 :    32.9922338476894
          23 :   -31.9999640832195
          24 :    31.6942458068461
          25 :   -31.2753133801405
          26 :    30.1820010298138
          27 :   -28.3985079657660
          28 :    26.3838937513940
          29 :   -24.7158248572505
          30 :    23.7036766641501
          31 :   -33.6192707710662
          32 :   -24.8178641259885

     Forces acting on atoms (Ry/au):

     negative rho (up, down):  9.425E-01 0.000E+00
     atom    1 type  1   force =     0.00056859    0.00030733   -0.00255676
     atom    2 type  1   force =    -0.00056843    0.00030905   -0.00255781
     atom    3 type  1   force =     0.00000078   -0.00063739   -0.00253951
     atom    4 type  1   force =    -0.00000128    0.00002273    0.00119418
     atom    5 type  1   force =     0.00000113    0.00064437    0.00299902
     atom    6 type  1   force =    -0.00000131    0.00001364   -0.01678626
     atom    7 type  1   force =    -0.00054648   -0.00032757    0.00299916
     atom    8 type  1   force =     0.00054609   -0.00032528    0.00300006
     atom    9 type  1   force =     0.00000161   -0.00002617   -0.00432215
     atom   10 type  1   force =    -0.00000107    0.03169847    0.04599854
     atom   11 type  1   force =     0.02747491   -0.01583942    0.04599554
     atom   12 type  1   force =    -0.02747328   -0.01583788    0.04599452
     atom   13 type  2   force =    -0.00000125   -0.00000186   -0.11941853

     Total force =     0.153761     Total SCF correction =     0.003596

     entering subroutine stress ...

     negative rho (up, down):  9.425E-01 0.000E+00
          total   stress  (Ry/bohr**3)                   (kbar)     P=  -13.39
  -0.00010436   0.00000000   0.00000000        -15.35      0.00      0.00
   0.00000000  -0.00010437   0.00000000          0.00    -15.35      0.00
   0.00000000   0.00000000  -0.00006425          0.00      0.00     -9.45

     BFGS Geometry Optimization

     number of scf cycles    =   1
     number of bfgs steps    =   0

     energy   new            =   -2417.5987153929 Ry

     new trust radius        =       0.1194185295 bohr
     new conv_thr            =       0.0000099958 Ry

ATOMIC_POSITIONS (crystal)
Pd1      0.166666667   0.166666667   0.406452311    0   0   0
Pd1      0.666666667   0.166666667   0.406452311    0   0   0
Pd1      0.166666667   0.666666667   0.406452311    0   0   0
Pd1      0.666666667   0.666666667   0.406452311    0   0   0
Pd1      0.833333333   0.333333333   0.500000000    0   0   0
Pd1      0.333333333   0.333333333   0.500000000    0   0   0
Pd1      0.833333333   0.833333333   0.500000000    0   0   0
Pd1      0.333333333   0.833333333   0.500000000    0   0   0
Pd1      0.000001569  -0.000002836   0.593454726
Pd1      0.498282071   0.003435656   0.594537050
Pd1      0.003437305   0.498283235   0.594536986
Pd1      0.498279529   0.498283402   0.594536964
N1       0.333333317   0.333333131   0.646459913

     Writing output data file calc.save
     Check: negative starting charge=   -0.904173
     NEW-OLD atomic charge density approx. for the potential
     Check: negative starting charge=   -0.905217

[...]

     energy   old            =   -2417.5987153929 Ry
     energy   new            =   -2417.6193575407 Ry

     CASE: energy  _new < energy  _old

[...]

     Total force =     0.005963     Total SCF correction =     0.000243

[...]

     Total force =     0.005803     Total SCF correction =     0.000597
     SCF correction compared to forces is large: reduce conv_thr to get better values

[...]

     number of scf cycles    =  10
     number of bfgs steps    =   9

     energy   old            =   -2417.6428457857 Ry
     energy   new            =   -2417.6429325084 Ry

     CASE: energy  _new < energy  _old

     new trust radius        =       0.0191583887 bohr
     new conv_thr            =       0.0000001000 Ry

ATOMIC_POSITIONS (crystal)
Pd1      0.166666667   0.166666667   0.406452311    0   0   0
Pd1      0.666666667   0.166666667   0.406452311    0   0   0
Pd1      0.166666667   0.666666667   0.406452311    0   0   0
Pd1      0.666666667   0.666666667   0.406452311    0   0   0
Pd1      0.833333333   0.333333333   0.500000000    0   0   0
Pd1      0.333333333   0.333333333   0.500000000    0   0   0
Pd1      0.833333333   0.833333333   0.500000000    0   0   0
Pd1      0.333333333   0.833333333   0.500000000    0   0   0
Pd1      0.000000244  -0.000000685   0.592013902
Pd1      0.501778366  -0.003556819   0.596388090
Pd1     -0.003557202   0.501778853   0.596387947
Pd1      0.501778153   0.501778885   0.596388198
N1       0.333337909   0.333326185   0.637245774

     Writing output data file calc.save
     Check: negative starting charge=   -0.906191
     NEW-OLD atomic charge density approx. for the potential
     Check: negative starting charge=   -0.908209

[...]

     Self-consistent Calculation

[...]

     total energy              =   -2417.64302074 Ry
     Harris-Foulkes estimate   =   -2417.64302075 Ry
     estimated scf accuracy    <       0.00000020 Ry

     iteration # 12     ecut=    36.75 Ry     beta=0.30
     Davidson diagonalization with overlap
     ethr =  1.02E-10,  avg # of iterations =  1.0

[...]

     negative rho (up, down):  9.480E-01 0.000E+00

     Adding external electric field

     Computed dipole along edir(3) :
        Dipole               -0.1154 Ry au,         -0.2932 Debye
        Dipole field         -0.0003 Ry au

        Potential amp.        0.0288 Ry
        Total length         45.3309 bohr

     End of self-consistent calculation

[...]

          k = 0.0591-0.0683 0.0000 ( 17183 PWs)   bands (ev):

[...]

          k =-0.0887-0.0512 0.0000 ( 17240 PWs)   bands (ev):

   -50.0925 -50.0351 -49.9822 -49.4835 -49.4642 -49.4306 -49.3560 -49.3352
   -49.3092 -48.9805 -48.9354 -48.9102 -48.9055 -48.8943 -48.8926 -48.8920
   -48.8794 -48.8161 -48.8131 -48.7679 -48.7608 -48.7314 -48.6964 -48.6807
   -48.6328 -48.6265 -48.6192 -48.5801 -48.5722 -48.5687 -48.5494 -48.4974
   -48.4400 -48.4146 -48.4093 -48.4051 -14.1641  -5.1391  -4.6319  -4.1916
    -3.5772  -3.4241  -3.1469  -3.0599  -2.9121  -2.8892  -2.7886  -2.7195
    -2.6636  -2.6474  -2.5592  -2.5276  -2.5041  -2.3677  -2.3631  -2.2464
    -2.0371  -2.0273  -1.9624  -1.9110  -1.8736  -1.7809  -1.7770  -1.7461
    -1.6889  -1.5200  -1.4648  -1.3998  -1.3022  -1.2212  -1.2058  -1.1421
    -1.0768  -1.0608  -0.9958  -0.9616  -0.8703  -0.8627  -0.7570  -0.6327
    -0.6199  -0.5932  -0.5023  -0.4961  -0.4285  -0.3525  -0.3171  -0.3107
    -0.1708  -0.0050   0.0221   0.0751   0.1415   0.1950   0.3685   0.5927
     0.6279   0.6506   0.8120   0.8530   0.8918   1.4277   1.5110   2.4350
     3.2711   3.4836   3.7833   3.8036

     the Fermi energy is     0.8709 ev

!    total energy              =   -2417.64302068 Ry
     Harris-Foulkes estimate   =   -2417.64302159 Ry
     estimated scf accuracy    <       0.00000007 Ry

     The total energy is the sum of the following terms:

     one-electron contribution =  -20621.45386146 Ry
     hartree contribution      =   10360.17562907 Ry
     xc contribution           =    -395.55519995 Ry
     ewald contribution        =    8239.29221930 Ry
     electric field correction =       0.00003659 Ry
     smearing contrib. (-TS)   =      -0.10184423 Ry

     convergence has been achieved in  12 iterations

 BEEF-vdW xc energy contributions
           1 :   -344.328762844964
           2 :    314.611056520372
           3 :   -263.913340853429
           4 :    205.852349279726
           5 :   -153.601679389664
           6 :    115.561845972649
           7 :   -93.5579782306444
           8 :    83.8503009193167
           9 :   -80.0849849397127
          10 :    76.5976610933831
          11 :   -70.5793022354271
          12 :    62.3732634409059
          13 :   -54.1914078917878
          14 :    48.2447975054412
          15 :   -45.3810976229029
          16 :    44.8147310273915
          17 :   -44.8455082495260
          18 :    43.9599319882501
          19 :   -41.6232695316858
          20 :    38.3653803763925
          21 :   -35.2435572214818
          22 :    33.1025365831456
          23 :   -32.0974294627692
          24 :    31.7120787709401
          25 :   -31.1806586799540
          26 :    29.9960618713032
          27 :   -28.1869728913106
          28 :    26.2236091975277
          29 :   -24.6564001725837
          30 :    23.7440698739709
          31 :   -33.6302620349660
          32 :   -24.8413288351888

     Forces acting on atoms (Ry/au):

     negative rho (up, down):  9.480E-01 0.000E+00
     atom    1 type  1   force =     0.00002007    0.00001948   -0.00253305
     atom    2 type  1   force =    -0.00001997    0.00001950   -0.00253325
     atom    3 type  1   force =    -0.00000001   -0.00003172   -0.00253221
     atom    4 type  1   force =     0.00000008   -0.00000877    0.00112697
     atom    5 type  1   force =     0.00000051    0.00393051    0.00621270
     atom    6 type  1   force =    -0.00000046   -0.00000317   -0.00920275
     atom    7 type  1   force =    -0.00340588   -0.00196440    0.00621318
     atom    8 type  1   force =     0.00340585   -0.00196374    0.00621271
     atom    9 type  1   force =     0.00000015    0.00001109    0.00083301
     atom   10 type  1   force =     0.00000026    0.00156554   -0.00086000
     atom   11 type  1   force =     0.00136918   -0.00080158   -0.00085604
     atom   12 type  1   force =    -0.00136461   -0.00079948   -0.00086119
     atom   13 type  2   force =    -0.00000518    0.00002672   -0.00122008

     Total force =     0.003445     Total SCF correction =     0.000633
     SCF correction compared to forces is large: reduce conv_thr to get better values

     entering subroutine stress ...

     negative rho (up, down):  9.480E-01 0.000E+00
          total   stress  (Ry/bohr**3)                   (kbar)     P=   -5.86
  -0.00005272   0.00000000  -0.00000000         -7.76      0.00     -0.00
   0.00000000  -0.00005272  -0.00000000          0.00     -7.76     -0.00
  -0.00000000  -0.00000000  -0.00001402         -0.00     -0.00     -2.06

     bfgs converged in  11 scf cycles and  10 bfgs steps
     (criteria: energy <  1.0E+00, force <  1.9E-03)

     End of BFGS Geometry Optimization

     Final energy   =   -2417.6430206786 Ry
Begin final coordinates

ATOMIC_POSITIONS (crystal)
Pd1      0.166666667   0.166666667   0.406452311    0   0   0
Pd1      0.666666667   0.166666667   0.406452311    0   0   0
Pd1      0.166666667   0.666666667   0.406452311    0   0   0
Pd1      0.666666667   0.666666667   0.406452311    0   0   0
Pd1      0.833333333   0.333333333   0.500000000    0   0   0
Pd1      0.333333333   0.333333333   0.500000000    0   0   0
Pd1      0.833333333   0.833333333   0.500000000    0   0   0
Pd1      0.333333333   0.833333333   0.500000000    0   0   0
Pd1      0.000000244  -0.000000685   0.592013902
Pd1      0.501778366  -0.003556819   0.596388090
Pd1     -0.003557202   0.501778853   0.596387947
Pd1      0.501778153   0.501778885   0.596388198
N1       0.333337909   0.333326185   0.637245774
End final coordinates

     Writing output data file calc.save

     General routines

     Parallel routines

   This run was terminated on:   9:43:13   3May2018

   JOB DONE.
Job  /afs/slac/g/suncat/bin/suncat-tsmpirun -x LD_LIBRARY_PATH -wdir /scratch/qe686399_p4ayT pw.x -npool 4 -in pw.inp

TID   HOST_NAME   COMMAND_LINE            STATUS            TERMINATION_TIME
00000 suncat0251 pw.x -npool 4 -i  Done                     05/03/2018 09:43:13
00001 suncat0251 pw.x -npool 4 -i  Done                     05/03/2018 09:43:13
00002 suncat0251 pw.x -npool 4 -i  Done                     05/03/2018 09:43:13
00003 suncat0251 pw.x -npool 4 -i  Done                     05/03/2018 09:43:13
00004 suncat0251 pw.x -npool 4 -i  Done                     05/03/2018 09:43:13
00005 suncat0251 pw.x -npool 4 -i  Done                     05/03/2018 09:43:13
00006 suncat0251 pw.x -npool 4 -i  Done                     05/03/2018 09:43:13
00007 suncat0251 pw.x -npool 4 -i  Done                     05/03/2018 09:43:13
00008 suncat0249 pw.x -npool 4 -i  Done                     05/03/2018 09:43:13
00009 suncat0249 pw.x -npool 4 -i  Done                     05/03/2018 09:43:13
00010 suncat0249 pw.x -npool 4 -i  Done                     05/03/2018 09:43:13
00011 suncat0249 pw.x -npool 4 -i  Done                     05/03/2018 09:43:13
00012 suncat0249 pw.x -npool 4 -i  Done                     05/03/2018 09:43:13
00013 suncat0249 pw.x -npool 4 -i  Done                     05/03/2018 09:43:13
00014 suncat0249 pw.x -npool 4 -i  Done                     05/03/2018 09:43:13
00015 suncat0249 pw.x -npool 4 -i  Done                     05/03/2018 09:43:13
00016 suncat0233 pw.x -npool 4 -i  Done                     05/03/2018 09:43:13
00017 suncat0233 pw.x -npool 4 -i  Done                     05/03/2018 09:43:13
00018 suncat0233 pw.x -npool 4 -i  Done                     05/03/2018 09:43:13
00019 suncat0233 pw.x -npool 4 -i  Done                     05/03/2018 09:43:13
00020 suncat0233 pw.x -npool 4 -i  Done                     05/03/2018 09:43:13
00021 suncat0233 pw.x -npool 4 -i  Done                     05/03/2018 09:43:13
00022 suncat0233 pw.x -npool 4 -i  Done                     05/03/2018 09:43:13
00023 suncat0233 pw.x -npool 4 -i  Done                     05/03/2018 09:43:13
00024 suncat0223 pw.x -npool 4 -i  Done                     05/03/2018 09:43:13
00025 suncat0223 pw.x -npool 4 -i  Done                     05/03/2018 09:43:13
00026 suncat0223 pw.x -npool 4 -i  Done                     05/03/2018 09:43:13
00027 suncat0223 pw.x -npool 4 -i  Done                     05/03/2018 09:43:13
00028 suncat0223 pw.x -npool 4 -i  Done                     05/03/2018 09:43:13
00029 suncat0223 pw.x -npool 4 -i  Done                     05/03/2018 09:43:13
00030 suncat0223 pw.x -npool 4 -i  Done                     05/03/2018 09:43:13
00031 suncat0223 pw.x -npool 4 -i  Done                     05/03/2018 09:43:13