     Program PWSCF v.5.1rc2 (svn rev. 11289) starts on  4May2018 at  8:35: 6

     Current dimensions of program PWSCF are:
     Max number of different atomic species (ntypx) = 10
     Max number of k-points (npk) =  40000
     Max angular momentum in pseudopotentials (lmaxx) =  3
     Presently stress not available with electric field

     IMPORTANT: XC functional enforced from input :
     Exchange-correlation      = BEEF-VDW ( 1  4 27 13 2)
     Any further DFT definition will be discarded
     Please, verify this is what you really want

     Subspace diagonalization in iterative solution of the eigenvalue problem:
     a serial algorithm will be used

     bravais-lattice index     =            0
     lattice parameter (alat)  =       1.8897  a.u.
     unit-cell volume          =    5144.9564 (a.u.)^3
     number of atoms/cell      =           13
     number of atomic types    =            2
     number of electrons       =       133.00
     number of Kohn-Sham states=           76
     kinetic-energy cutoff     =      36.7493  Ry
     charge density cutoff     =     367.4932  Ry
     convergence threshold     =      1.0E-05
     mixing beta               =       0.3000
     number of iterations used =           10  plain     mixing
     Exchange-correlation      = BEEF-VDW ( 1  4 27 13 2)
     nstep                     =           50

     celldm(1)=   1.889726  celldm(2)=   0.000000  celldm(3)=   0.000000
     celldm(4)=   0.000000  celldm(5)=   0.000000  celldm(6)=   0.000000

     crystal axes: (cart. coord. in units of alat)
               a(1) = (   5.950946   0.000000   0.000000 )
               a(2) = (   2.975473   5.153671   0.000000 )
               a(3) = (   0.000000   0.000000  24.858927 )

     reciprocal axes: (cart. coord. in units 2 pi/alat)
               b(1) = (  0.168040 -0.097018  0.000000 )
               b(2) = (  0.000000  0.194036  0.000000 )
               b(3) = (  0.000000  0.000000  0.040227 )

     PseudoPot. # 1 for Au read from file:
     /u/if/mamunm/psp/gbrv1.5pbe/Au.UPF
     MD5 check sum: 9d7f43293ad2c663164586bc4b293ffc
     Pseudo is Ultrasoft + core correction, Zval = 11.0
     Generated by new atomic code, or converted to UPF format
     Using radial grid of  985 points,  7 beta functions with:
                l(1) =   0
                l(2) =   0
                l(3) =   1
                l(4) =   1
                l(5) =   2
                l(6) =   2
                l(7) =   3
     Q(r) pseudized with  6 coefficients,  rinner =    1.900   1.900   1.900
                                                       1.900   1.900   1.900
                                                       1.900

     PseudoPot. # 2 for H  read from file:
     /u/if/mamunm/psp/gbrv1.5pbe/H.UPF
     MD5 check sum: 761ae9a214b05c3daf00ab9f6b793d6f
     Pseudo is Ultrasoft, Zval =  1.0
     Generated by new atomic code, or converted to UPF format
     Using radial grid of  615 points,  2 beta functions with:
                l(1) =   0
                l(2) =   0
     Q(r) pseudized with  8 coefficients,  rinner =    0.700

     vdW kernel table read from file vdW_kernel_table
     MD5 check sum: 095c7af220d748ca6e76c0b4c6cfb241

     atomic species   valence    mass     pseudopotential
        Au1           11.00   196.96657     Au( 1.00)
        H1             1.00     1.00800     H ( 1.00)

     No symmetry found

   Cartesian axes

     site n.     atom                  positions (alat units)
         1           Au1 tau(   1) = (   1.4877366   0.8589451  10.0000000  )
         2           Au1 tau(   2) = (   4.4632098   0.8589451  10.0000000  )
         3           Au1 tau(   3) = (   2.9754732   3.4357805  10.0000000  )
         4           Au1 tau(   4) = (   5.9509464   3.4357805  10.0000000  )
         5           Au1 tau(   5) = (   5.9509464   1.7178903  12.4294637  )
         6           Au1 tau(   6) = (   2.9754732   1.7178903  12.4294637  )
         7           Au1 tau(   7) = (   7.4386830   4.2947256  12.4294637  )
         8           Au1 tau(   8) = (   4.4632098   4.2947256  12.4294637  )
         9           Au1 tau(   9) = (   0.0000000   0.0000000  14.8589274  )
        10           Au1 tau(  10) = (   2.9754732   0.0000000  14.8589274  )
        11           Au1 tau(  11) = (   1.4877366   2.5768354  14.8589274  )
        12           Au1 tau(  12) = (   4.4632098   2.5768354  14.8589274  )
        13           H1  tau(  13) = (   2.9754732   1.7178903  15.9444274  )

     number of k points=    20  Fermi-Dirac smearing, width (Ry)=  0.0110
                       cart. coord. in units 2pi/alat
        k(    1) = (   0.0000000   0.0000000   0.0000000), wk =   0.0555556
        k(    2) = (   0.0000000   0.0323394   0.0000000), wk =   0.1111111
        k(    3) = (   0.0000000   0.0646788   0.0000000), wk =   0.1111111
        k(    4) = (   0.0000000  -0.0970182   0.0000000), wk =   0.0555556
        k(    5) = (   0.0280067  -0.0161697   0.0000000), wk =   0.1111111
        k(    6) = (   0.0280067   0.0161697   0.0000000), wk =   0.1111111
        k(    7) = (   0.0280067   0.0485091   0.0000000), wk =   0.1111111
        k(    8) = (   0.0280067  -0.1131879   0.0000000), wk =   0.1111111
        k(    9) = (   0.0280067  -0.0808485   0.0000000), wk =   0.1111111
        k(   10) = (   0.0280067  -0.0485091   0.0000000), wk =   0.1111111
        k(   11) = (   0.0560135  -0.0323394   0.0000000), wk =   0.1111111
        k(   12) = (   0.0560135   0.0000000   0.0000000), wk =   0.1111111
        k(   13) = (   0.0560135   0.0323394   0.0000000), wk =   0.1111111
        k(   14) = (   0.0560135  -0.1293576   0.0000000), wk =   0.1111111
        k(   15) = (   0.0560135  -0.0970182   0.0000000), wk =   0.1111111
        k(   16) = (   0.0560135  -0.0646788   0.0000000), wk =   0.1111111
        k(   17) = (  -0.0840202   0.0485091   0.0000000), wk =   0.0555556
        k(   18) = (  -0.0840202   0.0808485   0.0000000), wk =   0.1111111
        k(   19) = (  -0.0840202   0.1131879   0.0000000), wk =   0.1111111
        k(   20) = (  -0.0840202  -0.0485091   0.0000000), wk =   0.0555556

     Largest allocated arrays     est. size (Mb)     dimensions
     Largest temporary arrays     est. size (Mb)     dimensions

     Check: negative/imaginary core charge=   -0.000002    0.000000

     Initial potential from superposition of free atoms

     starting charge  132.99852, renormalised to  133.00000

     negative rho (up, down):  7.599E-05 0.000E+00

     *
     * You are using vdW-DF for exchange-correlation in this calculation.
     * Please cite the following three references that made this development
     * possible:
     *
     *   M. Dion, H. Rydberg, E. Schroder, D. C. Langreth, and
     *   B. I. Lundqvist, Phys. Rev. Lett. 92, 246401 (2004).
     *
     *   T. Thonhauser, V. R. Cooper, S. Li, A. Puzder, P. Hyldgaard, and
     *   D. C. Langreth, Phys. Rev. B 76, 125112 (2007).
     *
     *   G. Roman-Perez and J. M. Soler, Phys. Rev. Lett. 103, 096102 (2009).
     *
     *
     * If you are using vdW-DF2, please also cite:
     *
     *   K. Lee, E. D. Murray, L. Kong, B. I. Lundqvist, and
     *   D. C. Langreth, Phys. Rev. B 82, 081101(R) (2010).
     *
     *
     * If you are calculating the stress with vdW-DF, please also cite:
     *
     *   R. Sabatini, E. Kucukbenli, B. Kolb, T. Thonhauser, and
     *   S. de Gironcoli, J. Phys.: Condens. Matter 24, 424209 (2012).
     *

     Carrying out vdW-DF run using the following parameters:

     Nqs =      20    Nr_points =    1024   r_max =   100.000
     q_mesh =
               0.00001000     0.04494208     0.09755937     0.15916263
               0.23128650     0.31572767     0.41458969     0.53033537
               0.66584808     0.82450364     1.01025438     1.22772762
               1.48234092     1.78043706     2.12944203     2.53805004
               3.01644009     3.57652955     4.23227104     5.00000000

     Gradients computed in reciprocal space

     Adding external electric field

     Computed dipole along edir(3) :
        Dipole               -0.0000 Ry au,         -0.0000 Debye
        Dipole field         -0.0000 Ry au

        Potential amp.        0.0000 Ry
        Total length         45.8022 bohr

     Starting wfc are  109 randomized atomic wfcs

     Self-consistent Calculation

     iteration #  1     ecut=    36.75 Ry     beta=0.30
     Davidson diagonalization with overlap
     ethr =  1.00E-02,  avg # of iterations =  2.3

     Threshold (ethr) on eigenvalues was too large:
     Diagonalizing with lowered threshold

     Davidson diagonalization with overlap
     ethr =  1.99E-04,  avg # of iterations =  4.0

[...]

     total energy              =   -1401.59928629 Ry
     Harris-Foulkes estimate   =   -1401.69212976 Ry
     estimated scf accuracy    <       0.32095713 Ry

[...]

     End of self-consistent calculation

          k = 0.0000 0.0000 0.0000 ( 19315 PWs)   bands (ev):

    -8.0556  -7.0744  -6.2032  -5.9482  -5.8632  -5.8632  -5.8625  -5.6839
    -5.6839  -5.4266  -5.4068  -5.4068  -5.3840  -5.2554  -5.2554  -4.7298
    -4.3038  -4.3038  -4.1540  -4.1439  -4.1439  -4.0602  -4.0025  -4.0025
    -3.8491  -3.8491  -3.7419  -3.6983  -3.6983  -3.6851  -3.6250  -3.6250
    -3.1958  -3.1958  -3.0843  -2.8780  -2.8442  -2.8442  -2.7913  -2.7237
    -2.7237  -2.4761  -2.4761  -2.3774  -2.3774  -2.0409  -2.0201  -2.0201
    -1.9500  -1.9500  -1.9236  -1.9208  -1.9208  -1.8067  -1.7877  -1.7633
    -1.7633  -1.7135  -1.5973  -1.5973  -1.4663  -1.4661  -1.4661  -0.4540
     0.7070   0.7070   0.7749   1.1637   1.4168   1.4168   1.6685   1.7448
     1.7448   3.2207   3.2207   3.3531

[...]

          k =-0.0840 0.0485 0.0000 ( 19380 PWs)   bands (ev):

[...]

     the Fermi energy is     0.1536 ev

!    total energy              =   -1401.63943777 Ry
     Harris-Foulkes estimate   =   -1401.63943712 Ry
     estimated scf accuracy    <       0.00000189 Ry

     The total energy is the sum of the following terms:

     one-electron contribution =   -8038.77500830 Ry
     hartree contribution      =    4115.63614606 Ry
     xc contribution           =    -768.82260573 Ry
     ewald contribution        =    3290.34403562 Ry
     electric field correction =       0.00000057 Ry
     smearing contrib. (-TS)   =      -0.02200600 Ry

     convergence has been achieved in   9 iterations

 BEEF-vdW xc energy contributions
           1 :   -687.326067127893
           2 :    638.995873358358
           3 :   -552.510511801101
           4 :    444.594313872648
           5 :   -333.371950035791
           6 :    233.664507621173
           7 :   -154.156277175999
           8 :    96.9280028931157
           9 :   -59.0588158688574
          10 :    35.2831796498087
          11 :   -20.4992177491616
          12 :    11.2041339990765
          13 :   -5.62804759506116
          14 :    2.96136554145664
          15 :   -2.41103229760199
          16 :    2.69458644307917
          17 :   -2.20594024130128
          18 :  -0.349725229653359
          19 :    5.29226612536524
          20 :   -11.7138156067786
          21 :    17.8191577740600
          22 :   -21.7196030525907
          23 :    22.2787502139561
          24 :   -19.5943028388103
          25 :    14.8943466449813
          26 :   -9.93346534324587
          27 :    6.21020197884798
          28 :   -4.39733563953325
          29 :    4.23185575352181
          30 :   -4.86476534512803
          31 :   -54.2552532756974
          32 :   -39.5356699332144

     Forces acting on atoms (Ry/au):

     negative rho (up, down):  1.821E-04 0.000E+00
     atom    1 type  1   force =     0.00218024    0.00125512   -0.00225363
     atom    2 type  1   force =    -0.00217698    0.00125750   -0.00225773
     atom    3 type  1   force =     0.00000657   -0.00250987   -0.00225209
     atom    4 type  1   force =     0.00000281    0.00000135   -0.00439457
     atom    5 type  1   force =     0.00000761    0.00065245    0.00163809
     atom    6 type  1   force =    -0.00001075    0.00000645   -0.00873782
     atom    7 type  1   force =    -0.00057944   -0.00032859    0.00164641
     atom    8 type  1   force =     0.00056803   -0.00034014    0.00163252
     atom    9 type  1   force =    -0.00000140    0.00000150    0.00159053
     atom   10 type  1   force =     0.00000388   -0.00043948    0.01352918
     atom   11 type  1   force =    -0.00039050    0.00022688    0.01353158
     atom   12 type  1   force =     0.00038881    0.00021610    0.01352731
     atom   13 type  2   force =     0.00000111    0.00000075   -0.02719979

     Total force =     0.035946     Total SCF correction =     0.004443
     SCF correction compared to forces is large: reduce conv_thr to get better values

     entering subroutine stress ...

     negative rho (up, down):  1.821E-04 0.000E+00
          total   stress  (Ry/bohr**3)                   (kbar)     P=   -9.38
  -0.00010354  -0.00000000  -0.00000000        -15.23     -0.00     -0.00
  -0.00000000  -0.00010355  -0.00000000         -0.00    -15.23     -0.00
  -0.00000000  -0.00000000   0.00001580         -0.00     -0.00      2.32

     BFGS Geometry Optimization

     number of scf cycles    =   1
     number of bfgs steps    =   0

     energy   new            =   -1401.6394377715 Ry

     new trust radius        =       0.0271997879 bohr
     new conv_thr            =       0.0000099958 Ry

ATOMIC_POSITIONS (crystal)
Au1      0.166666667   0.166666667   0.402269971    0   0   0
Au1      0.666666667   0.166666667   0.402269971    0   0   0
Au1      0.166666667   0.666666667   0.402269971    0   0   0
Au1      0.666666667   0.666666667   0.402269971    0   0   0
Au1      0.833333333   0.333333333   0.500000000    0   0   0
Au1      0.333333333   0.333333333   0.500000000    0   0   0
Au1      0.833333333   0.833333333   0.500000000    0   0   0
Au1      0.333333333   0.833333333   0.500000000    0   0   0
Au1     -0.000000202   0.000000154   0.597763887
Au1      0.500022908  -0.000045126   0.598018028
Au1     -0.000046373   0.500023296   0.598018079
Au1      0.500023480   0.500022189   0.598017988
H1       0.333333394   0.333333410   0.640817427

     Writing output data file calc.save
     NEW-OLD atomic charge density approx. for the potential

[...]

     Total force =     0.033792     Total SCF correction =     0.001717

[...]

     energy   old            =   -1401.6394377716 Ry
     energy   new            =   -1401.6406840398 Ry

     CASE: energy  _new < energy  _old

     WARNING: bfgs curvature condition failed, Theta= 0.853
     new trust radius        =       0.0299197667 bohr
     new conv_thr            =       0.0000001000 Ry

[...]

     Total force =     0.010544     Total SCF correction =     0.000273

[...]

     number of scf cycles    =   9
     number of bfgs steps    =   8

     energy   old            =   -1401.6497671728 Ry
     energy   new            =   -1401.6499323080 Ry

     CASE: energy  _new < energy  _old

     new trust radius        =       0.0082798145 bohr
     new conv_thr            =       0.0000001000 Ry

ATOMIC_POSITIONS (crystal)
Au1      0.166666667   0.166666667   0.402269971    0   0   0
Au1      0.666666667   0.166666667   0.402269971    0   0   0
Au1      0.166666667   0.666666667   0.402269971    0   0   0
Au1      0.666666667   0.666666667   0.402269971    0   0   0
Au1      0.833333333   0.333333333   0.500000000    0   0   0
Au1      0.333333333   0.333333333   0.500000000    0   0   0
Au1      0.833333333   0.833333333   0.500000000    0   0   0
Au1      0.333333333   0.833333333   0.500000000    0   0   0
Au1      0.000001377  -0.000000759   0.598260139
Au1      0.504676354  -0.009350919   0.602625773
Au1     -0.009357483   0.504679981   0.602625547
Au1      0.504679916   0.504675310   0.602625451
H1       0.333333002   0.333334785   0.630719508

     Writing output data file calc.save
     NEW-OLD atomic charge density approx. for the potential

     Check: negative/imaginary core charge=   -0.000002    0.000000

[...]

     Self-consistent Calculation

[...]

     Threshold (ethr) on eigenvalues was too large:
     Diagonalizing with lowered threshold

     Davidson diagonalization with overlap
     ethr =  2.37E-09,  avg # of iterations =  2.0

[...]

     total energy              =   -1401.64998353 Ry
     Harris-Foulkes estimate   =   -1401.64998366 Ry
     estimated scf accuracy    <       0.00000078 Ry

     iteration #  5     ecut=    36.75 Ry     beta=0.30
     Davidson diagonalization with overlap
     ethr =  5.88E-10,  avg # of iterations =  2.9

[...]

     negative rho (up, down):  1.742E-04 0.000E+00

     Adding external electric field

     Computed dipole along edir(3) :
        Dipole                0.0142 Ry au,          0.0361 Debye
        Dipole field          0.0000 Ry au

        Potential amp.       -0.0032 Ry
        Total length         45.8022 bohr

     End of self-consistent calculation

[...]

          k = 0.0560-0.0647 0.0000 ( 19376 PWs)   bands (ev):

[...]

          k =-0.0840-0.0485 0.0000 ( 19380 PWs)   bands (ev):

    -7.3786  -6.3664  -6.1715  -5.3497  -5.2477  -5.1184  -5.0863  -5.0798
    -5.0650  -4.9924  -4.9044  -4.7452  -4.6962  -4.6588  -4.6096  -4.4475
    -4.4369  -4.2751  -4.2410  -4.2281  -4.2052  -4.1788  -4.1774  -3.9974
    -3.9404  -3.7752  -3.7109  -3.6835  -3.6660  -3.6275  -3.5651  -3.5273
    -3.5029  -3.4191  -3.3673  -3.3611  -3.3594  -3.3133  -3.3069  -3.2548
    -3.1252  -3.0221  -3.0025  -2.9873  -2.9285  -2.9241  -2.8427  -2.7969
    -2.7427  -2.6966  -2.6461  -2.6051  -2.4607  -2.3963  -2.3686  -2.3125
    -2.0724  -2.0241  -2.0016  -1.9390  -1.9113  -1.9016  -1.7354  -1.6817
    -0.2893   0.0605   0.0877   0.1611   0.8985   1.0593   2.6422   2.9475
     3.2452   3.4373   5.0012   5.4154

     the Fermi energy is     0.1418 ev

!    total energy              =   -1401.64998364 Ry
     Harris-Foulkes estimate   =   -1401.64998365 Ry
     estimated scf accuracy    <       0.00000005 Ry

     The total energy is the sum of the following terms:

     one-electron contribution =   -7938.27838615 Ry
     hartree contribution      =    4065.38976480 Ry
     xc contribution           =    -768.80183287 Ry
     ewald contribution        =    3240.06230179 Ry
     electric field correction =       0.00000049 Ry
     smearing contrib. (-TS)   =      -0.02183170 Ry

     convergence has been achieved in   5 iterations

 BEEF-vdW xc energy contributions
           1 :   -687.296484276036
           2 :    638.910011849994
           3 :   -552.350194173608
           4 :    444.393835835187
           5 :   -333.196140615390
           6 :    233.566172257192
           7 :   -154.141129223235
           8 :    96.9496883981278
           9 :   -59.0464155229008
          10 :    35.1864944357189
          11 :   -20.3245472094484
          12 :    11.0175220882882
          13 :   -5.52019579958665
          14 :    2.99414197273359
          15 :   -2.57798966638438
          16 :    2.91934416800632
          17 :   -2.38179731653702
          18 :  -0.301236214112578
          19 :    5.37764113653725
          20 :   -11.8642938381720
          21 :    17.9316347727317
          22 :   -21.7170952380441
          23 :    22.1557794164455
          24 :   -19.4212179807957
          25 :    14.7758532647796
          26 :   -9.94521152619336
          27 :    6.35168151593848
          28 :   -4.58913889988457
          29 :    4.35995418476455
          30 :   -4.84662962903849
          31 :   -54.2524802878888
          32 :   -39.5174593367344

     Forces acting on atoms (Ry/au):

     negative rho (up, down):  1.742E-04 0.000E+00
     atom    1 type  1   force =     0.00140881    0.00081347   -0.00349201
     atom    2 type  1   force =    -0.00140875    0.00081333   -0.00349232
     atom    3 type  1   force =    -0.00000008   -0.00162677   -0.00349219
     atom    4 type  1   force =    -0.00000001    0.00000001   -0.00363483
     atom    5 type  1   force =     0.00000006    0.00106197    0.00604264
     atom    6 type  1   force =    -0.00000028    0.00000012    0.00160773
     atom    7 type  1   force =    -0.00091984   -0.00053084    0.00604292
     atom    8 type  1   force =     0.00091998   -0.00053103    0.00604322
     atom    9 type  1   force =     0.00000078   -0.00000022   -0.00044251
     atom   10 type  1   force =    -0.00000121   -0.00093905   -0.00155988
     atom   11 type  1   force =    -0.00080944    0.00046750   -0.00155927
     atom   12 type  1   force =     0.00081048    0.00047099   -0.00155934
     atom   13 type  2   force =    -0.00000049    0.00000051   -0.00050418

     Total force =     0.003222     Total SCF correction =     0.000858
     SCF correction compared to forces is large: reduce conv_thr to get better values

     entering subroutine stress ...

     negative rho (up, down):  1.742E-04 0.000E+00
          total   stress  (Ry/bohr**3)                   (kbar)     P=  -11.04
  -0.00011513  -0.00000000  -0.00000000        -16.94     -0.00     -0.00
  -0.00000000  -0.00011513   0.00000000         -0.00    -16.94      0.00
  -0.00000000   0.00000000   0.00000517         -0.00      0.00      0.76

     bfgs converged in  10 scf cycles and   9 bfgs steps
     (criteria: energy <  1.0E+00, force <  1.9E-03)

     End of BFGS Geometry Optimization

     Final energy   =   -1401.6499836391 Ry
Begin final coordinates

ATOMIC_POSITIONS (crystal)
Au1      0.166666667   0.166666667   0.402269971    0   0   0
Au1      0.666666667   0.166666667   0.402269971    0   0   0
Au1      0.166666667   0.666666667   0.402269971    0   0   0
Au1      0.666666667   0.666666667   0.402269971    0   0   0
Au1      0.833333333   0.333333333   0.500000000    0   0   0
Au1      0.333333333   0.333333333   0.500000000    0   0   0
Au1      0.833333333   0.833333333   0.500000000    0   0   0
Au1      0.333333333   0.833333333   0.500000000    0   0   0
Au1      0.000001377  -0.000000759   0.598260139
Au1      0.504676354  -0.009350919   0.602625773
Au1     -0.009357483   0.504679981   0.602625547
Au1      0.504679916   0.504675310   0.602625451
H1       0.333333002   0.333334785   0.630719508
End final coordinates

     Writing output data file calc.save

     General routines

     Parallel routines

   This run was terminated on:   9:35:14   4May2018

   JOB DONE.
Job  /afs/slac/g/suncat/bin/suncat-tsmpirun -x LD_LIBRARY_PATH -wdir /scratch/qe921376_vsxHX pw.x -npool 4 -in pw.inp

TID   HOST_NAME   COMMAND_LINE            STATUS            TERMINATION_TIME
00000 suncat0036 pw.x -npool 4 -i  Done                     05/04/2018 09:35:14
00001 suncat0036 pw.x -npool 4 -i  Done                     05/04/2018 09:35:14
00002 suncat0036 pw.x -npool 4 -i  Done                     05/04/2018 09:35:14
00003 suncat0036 pw.x -npool 4 -i  Done                     05/04/2018 09:35:14
00004 suncat0036 pw.x -npool 4 -i  Done                     05/04/2018 09:35:14
00005 suncat0036 pw.x -npool 4 -i  Done                     05/04/2018 09:35:14
00006 suncat0036 pw.x -npool 4 -i  Done                     05/04/2018 09:35:14
00007 suncat0036 pw.x -npool 4 -i  Done                     05/04/2018 09:35:14
00008 suncat0028 pw.x -npool 4 -i  Done                     05/04/2018 09:35:14
00009 suncat0028 pw.x -npool 4 -i  Done                     05/04/2018 09:35:14
00010 suncat0028 pw.x -npool 4 -i  Done                     05/04/2018 09:35:14
00011 suncat0028 pw.x -npool 4 -i  Done                     05/04/2018 09:35:14
00012 suncat0028 pw.x -npool 4 -i  Done                     05/04/2018 09:35:14
00013 suncat0028 pw.x -npool 4 -i  Done                     05/04/2018 09:35:14
00014 suncat0028 pw.x -npool 4 -i  Done                     05/04/2018 09:35:14
00015 suncat0028 pw.x -npool 4 -i  Done                     05/04/2018 09:35:14
00016 suncat0280 pw.x -npool 4 -i  Done                     05/04/2018 09:35:14
00017 suncat0280 pw.x -npool 4 -i  Done                     05/04/2018 09:35:14
00018 suncat0280 pw.x -npool 4 -i  Done                     05/04/2018 09:35:14
00019 suncat0280 pw.x -npool 4 -i  Done                     05/04/2018 09:35:14
00020 suncat0280 pw.x -npool 4 -i  Done                     05/04/2018 09:35:14
00021 suncat0280 pw.x -npool 4 -i  Done                     05/04/2018 09:35:14
00022 suncat0280 pw.x -npool 4 -i  Done                     05/04/2018 09:35:14
00023 suncat0280 pw.x -npool 4 -i  Done                     05/04/2018 09:35:14
00024 suncat0204 pw.x -npool 4 -i  Done                     05/04/2018 09:35:14
00025 suncat0204 pw.x -npool 4 -i  Done                     05/04/2018 09:35:14
00026 suncat0204 pw.x -npool 4 -i  Done                     05/04/2018 09:35:14
00027 suncat0204 pw.x -npool 4 -i  Done                     05/04/2018 09:35:14
00028 suncat0204 pw.x -npool 4 -i  Done                     05/04/2018 09:35:14
00029 suncat0204 pw.x -npool 4 -i  Done                     05/04/2018 09:35:14
00030 suncat0204 pw.x -npool 4 -i  Done                     05/04/2018 09:35:14
00031 suncat0204 pw.x -npool 4 -i  Done                     05/04/2018 09:35:14