     Program PWSCF v.5.1rc2 (svn rev. 11289) starts on  3May2018 at  4: 6:28

     Current dimensions of program PWSCF are:
     Max number of different atomic species (ntypx) = 10
     Max number of k-points (npk) =  40000
     Max angular momentum in pseudopotentials (lmaxx) =  3
     Presently stress not available with electric field

     IMPORTANT: XC functional enforced from input :
     Exchange-correlation      = BEEF-VDW ( 1  4 27 13 2)
     Any further DFT definition will be discarded
     Please, verify this is what you really want

     Subspace diagonalization in iterative solution of the eigenvalue problem:
     a serial algorithm will be used

     bravais-lattice index     =            0
     lattice parameter (alat)  =       1.8897  a.u.
     unit-cell volume          =    4704.3541 (a.u.)^3
     number of atoms/cell      =           13
     number of atomic types    =            2
     number of electrons       =       169.00
     number of Kohn-Sham states=           94
     kinetic-energy cutoff     =      36.7493  Ry
     charge density cutoff     =     367.4932  Ry
     convergence threshold     =      1.0E-05
     mixing beta               =       0.3000
     number of iterations used =           10  plain     mixing
     Exchange-correlation      = BEEF-VDW ( 1  4 27 13 2)
     nstep                     =           50

     celldm(1)=   1.889726  celldm(2)=   0.000000  celldm(3)=   0.000000
     celldm(4)=   0.000000  celldm(5)=   0.000000  celldm(6)=   0.000000

     crystal axes: (cart. coord. in units of alat)
               a(1) = (   5.712816   0.000000   0.000000 )
               a(2) = (   2.856408   4.947444   0.000000 )
               a(3) = (   0.000000   0.000000  24.664495 )

     reciprocal axes: (cart. coord. in units 2 pi/alat)
               b(1) = (  0.175045 -0.101062  0.000000 )
               b(2) = (  0.000000  0.202125  0.000000 )
               b(3) = (  0.000000  0.000000  0.040544 )

     PseudoPot. # 1 for W  read from file:
     /u/if/mamunm/psp/gbrv1.5pbe/W.UPF
     MD5 check sum: 9c083fa34c2a2ea0f02f1f893e16e1c8
     Pseudo is Ultrasoft + core correction, Zval = 14.0
     Generated by new atomic code, or converted to UPF format
     Using radial grid of  923 points,  8 beta functions with:
                l(1) =   0
                l(2) =   0
                l(3) =   0
                l(4) =   1
                l(5) =   1
                l(6) =   2
                l(7) =   2
                l(8) =   3
     Q(r) pseudized with  6 coefficients,  rinner =    1.350   1.350   1.350
                                                       1.350   1.350   1.350
                                                       1.350

     PseudoPot. # 2 for H  read from file:
     /u/if/mamunm/psp/gbrv1.5pbe/H.UPF
     MD5 check sum: 761ae9a214b05c3daf00ab9f6b793d6f
     Pseudo is Ultrasoft, Zval =  1.0
     Generated by new atomic code, or converted to UPF format
     Using radial grid of  615 points,  2 beta functions with:
                l(1) =   0
                l(2) =   0
     Q(r) pseudized with  8 coefficients,  rinner =    0.700

     vdW kernel table read from file vdW_kernel_table
     MD5 check sum: 095c7af220d748ca6e76c0b4c6cfb241

     atomic species   valence    mass     pseudopotential
        W1            14.00   183.84000     W ( 1.00)
        H1             1.00     1.00800     H ( 1.00)

     No symmetry found

   Cartesian axes

     site n.     atom                  positions (alat units)
         1           W1  tau(   1) = (   1.4282041   0.8245740  10.0000000  )
         2           W1  tau(   2) = (   4.2846123   0.8245740  10.0000000  )
         3           W1  tau(   3) = (   2.8564082   3.2982961  10.0000000  )
         4           W1  tau(   4) = (   5.7128165   3.2982961  10.0000000  )
         5           W1  tau(   5) = (   5.7128165   1.6491481  12.3322476  )
         6           W1  tau(   6) = (   2.8564082   1.6491481  12.3322476  )
         7           W1  tau(   7) = (   7.1410206   4.1228701  12.3322476  )
         8           W1  tau(   8) = (   4.2846123   4.1228701  12.3322476  )
         9           W1  tau(   9) = (   0.0000000   0.0000000  14.6644951  )
        10           W1  tau(  10) = (   2.8564082   0.0000000  14.6644951  )
        11           W1  tau(  11) = (   1.4282041   2.4737221  14.6644951  )
        12           W1  tau(  12) = (   4.2846123   2.4737221  14.6644951  )
        13           H1  tau(  13) = (   1.4282041   0.8245740  15.9189951  )

     number of k points=    20  Fermi-Dirac smearing, width (Ry)=  0.0110
                       cart. coord. in units 2pi/alat
        k(    1) = (   0.0000000   0.0000000   0.0000000), wk =   0.0555556
        k(    2) = (   0.0000000   0.0336874   0.0000000), wk =   0.1111111
        k(    3) = (   0.0000000   0.0673749   0.0000000), wk =   0.1111111
        k(    4) = (   0.0000000  -0.1010623   0.0000000), wk =   0.0555556
        k(    5) = (   0.0291742  -0.0168437   0.0000000), wk =   0.1111111
        k(    6) = (   0.0291742   0.0168437   0.0000000), wk =   0.1111111
        k(    7) = (   0.0291742   0.0505311   0.0000000), wk =   0.1111111
        k(    8) = (   0.0291742  -0.1179060   0.0000000), wk =   0.1111111
        k(    9) = (   0.0291742  -0.0842186   0.0000000), wk =   0.1111111
        k(   10) = (   0.0291742  -0.0505311   0.0000000), wk =   0.1111111
        k(   11) = (   0.0583483  -0.0336874   0.0000000), wk =   0.1111111
        k(   12) = (   0.0583483  -0.0000000   0.0000000), wk =   0.1111111
        k(   13) = (   0.0583483   0.0336874   0.0000000), wk =   0.1111111
        k(   14) = (   0.0583483  -0.1347497   0.0000000), wk =   0.1111111
        k(   15) = (   0.0583483  -0.1010623   0.0000000), wk =   0.1111111
        k(   16) = (   0.0583483  -0.0673749   0.0000000), wk =   0.1111111
        k(   17) = (  -0.0875225   0.0505311   0.0000000), wk =   0.0555556
        k(   18) = (  -0.0875225   0.0842186   0.0000000), wk =   0.1111111
        k(   19) = (  -0.0875225   0.1179060   0.0000000), wk =   0.1111111
        k(   20) = (  -0.0875225  -0.0505311   0.0000000), wk =   0.0555556

     Largest allocated arrays     est. size (Mb)     dimensions
     Largest temporary arrays     est. size (Mb)     dimensions

     Initial potential from superposition of free atoms
     Check: negative starting charge=   -0.760430

     starting charge  167.79591, renormalised to  169.00000

     negative rho (up, down):  7.659E-01 0.000E+00

     *
     * You are using vdW-DF for exchange-correlation in this calculation.
     * Please cite the following three references that made this development
     * possible:
     *
     *   M. Dion, H. Rydberg, E. Schroder, D. C. Langreth, and
     *   B. I. Lundqvist, Phys. Rev. Lett. 92, 246401 (2004).
     *
     *   T. Thonhauser, V. R. Cooper, S. Li, A. Puzder, P. Hyldgaard, and
     *   D. C. Langreth, Phys. Rev. B 76, 125112 (2007).
     *
     *   G. Roman-Perez and J. M. Soler, Phys. Rev. Lett. 103, 096102 (2009).
     *
     *
     * If you are using vdW-DF2, please also cite:
     *
     *   K. Lee, E. D. Murray, L. Kong, B. I. Lundqvist, and
     *   D. C. Langreth, Phys. Rev. B 82, 081101(R) (2010).
     *
     *
     * If you are calculating the stress with vdW-DF, please also cite:
     *
     *   R. Sabatini, E. Kucukbenli, B. Kolb, T. Thonhauser, and
     *   S. de Gironcoli, J. Phys.: Condens. Matter 24, 424209 (2012).
     *

     Carrying out vdW-DF run using the following parameters:

     Nqs =      20    Nr_points =    1024   r_max =   100.000
     q_mesh =
               0.00001000     0.04494208     0.09755937     0.15916263
               0.23128650     0.31572767     0.41458969     0.53033537
               0.66584808     0.82450364     1.01025438     1.22772762
               1.48234092     1.78043706     2.12944203     2.53805004
               3.01644009     3.57652955     4.23227104     5.00000000

     Gradients computed in reciprocal space

     Adding external electric field

     Computed dipole along edir(3) :
        Dipole               -0.0486 Ry au,         -0.1235 Debye
        Dipole field         -0.0001 Ry au

        Potential amp.        0.0118 Ry
        Total length         45.4439 bohr

     Starting wfc are  157 randomized atomic wfcs

     Self-consistent Calculation

     iteration #  1     ecut=    36.75 Ry     beta=0.30
     Davidson diagonalization with overlap
     ethr =  1.00E-02,  avg # of iterations =  2.0

[...]

     total energy              =   -1925.00232425 Ry
     Harris-Foulkes estimate   =   -1926.29075188 Ry
     estimated scf accuracy    <       2.88923547 Ry

[...]

     End of self-consistent calculation

          k = 0.0000 0.0000 0.0000 ( 17753 PWs)   bands (ev):

   -71.8425 -71.7970 -71.7690 -71.7687 -71.7502 -71.7374 -71.7369 -71.7365
   -71.7093 -71.6941 -71.6936 -71.6931 -36.4050 -36.3910 -36.3908 -36.3452
   -36.3253 -36.2874 -36.2872 -36.1999 -36.1924 -36.1921 -35.9997 -35.8968
   -35.8965 -35.8809 -35.8356 -35.8353 -35.8323 -35.7186 -35.7185 -35.7184
   -35.6425 -35.6423 -35.6224 -35.5965 -35.5964 -35.5789 -35.5641 -35.5133
   -35.5132 -35.5107 -35.4837 -35.4837 -35.3972 -35.3971 -35.3376 -35.3376
    -5.8876  -4.4696  -3.3878  -2.8097  -2.6090  -2.6090  -2.5339  -2.3954
    -2.3954  -2.0927  -1.6055  -1.6054  -1.5806  -1.5797  -1.5796  -0.8236
    -0.1170  -0.1168   0.5426   1.0343   1.0583   1.0583   1.1976   1.3939
     1.8228   1.8228   1.9120   1.9122   1.9225   2.1562   2.1563   2.2281
     2.2282   2.2374   2.3486   2.4137   2.4137   2.9791   3.1744   3.1746
     3.9896   4.0205   4.0206   4.0695   4.2325   4.2326

[...]

          k =-0.0875 0.0505 0.0000 ( 17668 PWs)   bands (ev):

[...]

     the Fermi energy is     2.4058 ev

!    total energy              =   -1925.96699011 Ry
     Harris-Foulkes estimate   =   -1925.96699300 Ry
     estimated scf accuracy    <       0.00000350 Ry

     The total energy is the sum of the following terms:

     one-electron contribution =  -14691.82160620 Ry
     hartree contribution      =    7329.07989815 Ry
     xc contribution           =    -510.99470675 Ry
     ewald contribution        =    5947.86325240 Ry
     electric field correction =       0.00000055 Ry
     smearing contrib. (-TS)   =      -0.09382826 Ry

     convergence has been achieved in  13 iterations

 BEEF-vdW xc energy contributions
           1 :   -449.660256298146
           2 :    416.103536020497
           3 :   -356.948177099515
           4 :    285.125821508351
           5 :   -214.164322382957
           6 :    154.228876177928
           7 :   -109.914923361544
           8 :    80.3364466435626
           9 :   -61.0882392636006
          10 :    46.9703321879933
          11 :   -34.2383156655667
          12 :    21.5787659498213
          13 :   -9.72776563522700
          14 :   0.259803461467072
          15 :    5.68553163588450
          16 :   -8.12752264103847
          17 :    8.19860605746328
          18 :   -7.51206011296142
          19 :    7.36362962934754
          20 :   -8.19537193275380
          21 :    9.56382770008611
          22 :   -10.5706697829986
          23 :    10.4769651511348
          24 :   -9.15557693494770
          25 :    7.15615193150677
          26 :   -5.38161370676494
          27 :    4.58159137222225
          28 :   -4.95226365580811
          29 :    6.05621292562421
          30 :   -7.08990686954320
          31 :   -40.6663651941976
          32 :   -30.4698396948644

     Forces acting on atoms (Ry/au):

     negative rho (up, down):  7.926E-01 0.000E+00
     atom    1 type  1   force =     0.00003233   -0.00002654   -0.00197495
     atom    2 type  1   force =    -0.00002834   -0.00021501   -0.00435748
     atom    3 type  1   force =    -0.00016869    0.00009857   -0.00432153
     atom    4 type  1   force =     0.00017383    0.00014099   -0.00431670
     atom    5 type  1   force =     0.00189715   -0.00113450    0.00371185
     atom    6 type  1   force =    -0.00190650   -0.00112266    0.00366809
     atom    7 type  1   force =     0.00003123    0.00003011   -0.01097151
     atom    8 type  1   force =    -0.00002369    0.00223319    0.00370460
     atom    9 type  1   force =    -0.01127728   -0.00653916    0.01771747
     atom   10 type  1   force =     0.01127695   -0.00650087    0.01766953
     atom   11 type  1   force =     0.00003271    0.01302836    0.01771102
     atom   12 type  1   force =    -0.00004105    0.00001053   -0.00806872
     atom   13 type  2   force =     0.00000134   -0.00000299   -0.03017168

     Total force =     0.049238     Total SCF correction =     0.002173

     entering subroutine stress ...

     negative rho (up, down):  7.926E-01 0.000E+00
          total   stress  (Ry/bohr**3)                   (kbar)     P=  -48.79
  -0.00046488  -0.00000001   0.00000000        -68.39     -0.00      0.00
  -0.00000001  -0.00046489   0.00000000         -0.00    -68.39      0.00
   0.00000000   0.00000000  -0.00006523          0.00      0.00     -9.60

     BFGS Geometry Optimization

     number of scf cycles    =   1
     number of bfgs steps    =   0

     energy   new            =   -1925.9669901137 Ry

     new trust radius        =       0.0301716773 bohr
     new conv_thr            =       0.0000099958 Ry

ATOMIC_POSITIONS (crystal)
W1       0.166666667   0.166666667   0.405441099    0   0   0
W1       0.666666667   0.166666667   0.405441099    0   0   0
W1       0.166666667   0.666666667   0.405441099    0   0   0
W1       0.666666667   0.666666667   0.405441099    0   0   0
W1       0.833333333   0.333333333   0.500000000    0   0   0
W1       0.333333333   0.333333333   0.500000000    0   0   0
W1       0.833333333   0.833333333   0.500000000    0   0   0
W1       0.333333333   0.833333333   0.500000000    0   0   0
W1      -0.000694899  -0.000699427   0.594939030
W1       0.501392248  -0.000695331   0.594938001
W1      -0.000693725   0.501393510   0.594938891
W1       0.499995635   0.500001126   0.594385786
H1       0.166666951   0.166666346   0.644774153

     Writing output data file calc.save
     Check: negative starting charge=   -0.760430
     NEW-OLD atomic charge density approx. for the potential
     Check: negative starting charge=   -0.760154

[...]

     Total force =     0.041867     Total SCF correction =     0.005902
     SCF correction compared to forces is large: reduce conv_thr to get better values

[...]

     energy   old            =   -1925.9669901137 Ry
     energy   new            =   -1925.9692437103 Ry

     CASE: energy  _new < energy  _old

     WARNING: bfgs curvature condition failed, Theta= 0.943
     new trust radius        =       0.0452575160 bohr
     new conv_thr            =       0.0000001000 Ry

[...]

     Threshold (ethr) on eigenvalues was too large:
     Diagonalizing with lowered threshold

     Davidson diagonalization with overlap
     ethr =  2.96E-08,  avg # of iterations =  2.4

[...]

     WARNING: bfgs curvature condition failed, Theta= 0.925
     new trust radius        =       0.0231936332 bohr
     new conv_thr            =       0.0000001000 Ry

[...]

     Threshold (ethr) on eigenvalues was too large:
     Diagonalizing with lowered threshold

     Davidson diagonalization with overlap
     ethr =  8.67E-08,  avg # of iterations =  1.0

[...]

     number of scf cycles    =   9
     number of bfgs steps    =   8

     energy   old            =   -1925.9760123673 Ry
     energy   new            =   -1925.9764006400 Ry

     CASE: energy  _new < energy  _old

     new trust radius        =       0.0551067208 bohr
     new conv_thr            =       0.0000001000 Ry

ATOMIC_POSITIONS (crystal)
W1       0.166666667   0.166666667   0.405441099    0   0   0
W1       0.666666667   0.166666667   0.405441099    0   0   0
W1       0.166666667   0.666666667   0.405441099    0   0   0
W1       0.666666667   0.666666667   0.405441099    0   0   0
W1       0.833333333   0.333333333   0.500000000    0   0   0
W1       0.333333333   0.333333333   0.500000000    0   0   0
W1       0.833333333   0.833333333   0.500000000    0   0   0
W1       0.333333333   0.833333333   0.500000000    0   0   0
W1      -0.004366656  -0.004375979   0.595493913
W1       0.508734782  -0.004367224   0.595492833
W1      -0.004365652   0.508741132   0.595493963
W1       0.499991924   0.500002622   0.593012104
H1       0.166665429   0.166666897   0.636416896

     Writing output data file calc.save
     Check: negative starting charge=   -0.760122
     NEW-OLD atomic charge density approx. for the potential
     Check: negative starting charge=   -0.760845

[...]

     Self-consistent Calculation

[...]

     total energy              =   -1925.97655201 Ry
     Harris-Foulkes estimate   =   -1925.97655200 Ry
     estimated scf accuracy    <       0.00000010 Ry

     iteration # 10     ecut=    36.75 Ry     beta=0.30
     Davidson diagonalization with overlap
     ethr =  6.07E-11,  avg # of iterations =  3.6

[...]

     negative rho (up, down):  7.934E-01 0.000E+00

     Adding external electric field

     Computed dipole along edir(3) :
        Dipole                0.0208 Ry au,          0.0529 Debye
        Dipole field          0.0001 Ry au

        Potential amp.       -0.0051 Ry
        Total length         45.4439 bohr

     End of self-consistent calculation

[...]

          k = 0.0583-0.0674 0.0000 ( 17692 PWs)   bands (ev):

[...]

          k =-0.0875-0.0505 0.0000 ( 17668 PWs)   bands (ev):

   -71.8087 -71.7975 -71.7715 -71.7684 -71.7655 -71.7435 -71.7297 -71.7258
   -71.7150 -71.6984 -71.6943 -71.6931 -36.2515 -36.2416 -36.2333 -36.2077
   -36.1868 -36.1576 -36.0687 -36.0669 -36.0578 -36.0352 -36.0085 -36.0039
   -35.8957 -35.8478 -35.8222 -35.8220 -35.7911 -35.7898 -35.7784 -35.7643
   -35.7515 -35.7434 -35.7336 -35.7207 -35.7106 -35.6956 -35.6092 -35.6057
   -35.5898 -35.5737 -35.5502 -35.5446 -35.5043 -35.4619 -35.4251 -35.4217
    -4.3592  -3.8493  -3.4553  -2.3373  -1.9069  -1.6291  -1.6018  -1.4453
    -1.4450  -1.4117  -1.1387  -0.5925  -0.5801  -0.3093  -0.2306  -0.2067
    -0.1370   0.1848   0.2085   0.2945   0.3369   0.5663   0.5695   0.9753
     1.0935   1.1413   1.2259   1.2821   1.3235   1.4216   1.4321   1.5127
     1.6963   1.8967   1.9442   1.9835   2.0208   2.0263   2.7557   2.7801
     3.1221   3.1840   3.5089   3.5353   3.5843   3.6303

     the Fermi energy is     2.4072 ev

!    total energy              =   -1925.97655200 Ry
     Harris-Foulkes estimate   =   -1925.97655209 Ry
     estimated scf accuracy    <       0.00000006 Ry

     The total energy is the sum of the following terms:

     one-electron contribution =  -14687.17980934 Ry
     hartree contribution      =    7326.72902663 Ry
     xc contribution           =    -511.03360108 Ry
     ewald contribution        =    5945.60053475 Ry
     electric field correction =       0.00000116 Ry
     smearing contrib. (-TS)   =      -0.09270413 Ry

     convergence has been achieved in  10 iterations

 BEEF-vdW xc energy contributions
           1 :   -449.698271916220
           2 :    416.143590610695
           3 :   -356.985221679151
           4 :    285.149815269731
           5 :   -214.165711818956
           6 :    154.201980096339
           7 :   -109.859907278845
           8 :    80.2597410001026
           9 :   -61.0008556406223
          10 :    46.8841665268671
          11 :   -34.1619465568244
          12 :    21.5148932794048
          13 :   -9.67354079472318
          14 :   0.209651095228878
          15 :    5.73638545643041
          16 :   -8.18063458897382
          17 :    8.25195345595398
          18 :   -7.56169152595209
          19 :    7.40604484784092
          20 :   -8.22895496637256
          21 :    9.58895474758168
          22 :   -10.5892911749863
          23 :    10.4919254178826
          24 :   -9.16956553988308
          25 :    7.17043575937748
          26 :   -5.39490618729030
          27 :    4.58978396946759
          28 :   -4.94972643430685
          29 :    6.03854364632036
          30 :   -7.05694684036666
          31 :   -40.6689141094299
          32 :   -30.4719892892994

     Forces acting on atoms (Ry/au):

     negative rho (up, down):  7.934E-01 0.000E+00
     atom    1 type  1   force =    -0.00000112    0.00000155   -0.00123865
     atom    2 type  1   force =     0.00000137   -0.00044475   -0.00556421
     atom    3 type  1   force =    -0.00038596    0.00022223   -0.00556926
     atom    4 type  1   force =     0.00038666    0.00022079   -0.00556562
     atom    5 type  1   force =     0.00590450   -0.00341157    0.00651530
     atom    6 type  1   force =    -0.00590400   -0.00342174    0.00651123
     atom    7 type  1   force =    -0.00000823    0.00000769   -0.00257448
     atom    8 type  1   force =     0.00000909    0.00682574    0.00651511
     atom    9 type  1   force =    -0.00094774   -0.00052036   -0.00042130
     atom   10 type  1   force =     0.00094910   -0.00054986   -0.00041036
     atom   11 type  1   force =    -0.00002498    0.00108177   -0.00042239
     atom   12 type  1   force =     0.00002165   -0.00001137    0.00186450
     atom   13 type  2   force =    -0.00000033   -0.00000011    0.00036014

     Total force =     0.002770     Total SCF correction =     0.000109

     entering subroutine stress ...

     negative rho (up, down):  7.934E-01 0.000E+00
          total   stress  (Ry/bohr**3)                   (kbar)     P=  -47.06
  -0.00044774  -0.00000000  -0.00000000        -65.86     -0.00     -0.00
  -0.00000000  -0.00044774   0.00000000         -0.00    -65.87      0.00
  -0.00000000   0.00000000  -0.00006431         -0.00      0.00     -9.46

     bfgs converged in  10 scf cycles and   9 bfgs steps
     (criteria: energy <  1.0E+00, force <  1.9E-03)

     End of BFGS Geometry Optimization

     Final energy   =   -1925.9765520031 Ry
Begin final coordinates

ATOMIC_POSITIONS (crystal)
W1       0.166666667   0.166666667   0.405441099    0   0   0
W1       0.666666667   0.166666667   0.405441099    0   0   0
W1       0.166666667   0.666666667   0.405441099    0   0   0
W1       0.666666667   0.666666667   0.405441099    0   0   0
W1       0.833333333   0.333333333   0.500000000    0   0   0
W1       0.333333333   0.333333333   0.500000000    0   0   0
W1       0.833333333   0.833333333   0.500000000    0   0   0
W1       0.333333333   0.833333333   0.500000000    0   0   0
W1      -0.004366656  -0.004375979   0.595493913
W1       0.508734782  -0.004367224   0.595492833
W1      -0.004365652   0.508741132   0.595493963
W1       0.499991924   0.500002622   0.593012104
H1       0.166665429   0.166666897   0.636416896
End final coordinates

     Writing output data file calc.save

     General routines

     Parallel routines

   This run was terminated on:   5:24: 6   3May2018

   JOB DONE.
Job  /afs/slac/g/suncat/bin/suncat-tsmpirun -x LD_LIBRARY_PATH -wdir /scratch/qe610646_7r4gY pw.x -npool 4 -in pw.inp

TID   HOST_NAME   COMMAND_LINE            STATUS            TERMINATION_TIME
00000 suncat0159 pw.x -npool 4 -i  Done                     05/03/2018 05:24:06
00001 suncat0159 pw.x -npool 4 -i  Done                     05/03/2018 05:24:06
00002 suncat0159 pw.x -npool 4 -i  Done                     05/03/2018 05:24:06
00003 suncat0159 pw.x -npool 4 -i  Done                     05/03/2018 05:24:06
00004 suncat0159 pw.x -npool 4 -i  Done                     05/03/2018 05:24:06
00005 suncat0159 pw.x -npool 4 -i  Done                     05/03/2018 05:24:06
00006 suncat0159 pw.x -npool 4 -i  Done                     05/03/2018 05:24:06
00007 suncat0159 pw.x -npool 4 -i  Done                     05/03/2018 05:24:06
00008 suncat0151 pw.x -npool 4 -i  Done                     05/03/2018 05:24:06
00009 suncat0151 pw.x -npool 4 -i  Done                     05/03/2018 05:24:06
00010 suncat0151 pw.x -npool 4 -i  Done                     05/03/2018 05:24:06
00011 suncat0151 pw.x -npool 4 -i  Done                     05/03/2018 05:24:06
00012 suncat0151 pw.x -npool 4 -i  Done                     05/03/2018 05:24:06
00013 suncat0151 pw.x -npool 4 -i  Done                     05/03/2018 05:24:06
00014 suncat0151 pw.x -npool 4 -i  Done                     05/03/2018 05:24:06
00015 suncat0151 pw.x -npool 4 -i  Done                     05/03/2018 05:24:06
00016 suncat0278 pw.x -npool 4 -i  Done                     05/03/2018 05:24:06
00017 suncat0278 pw.x -npool 4 -i  Done                     05/03/2018 05:24:06
00018 suncat0278 pw.x -npool 4 -i  Done                     05/03/2018 05:24:06
00019 suncat0278 pw.x -npool 4 -i  Done                     05/03/2018 05:24:06
00020 suncat0278 pw.x -npool 4 -i  Done                     05/03/2018 05:24:06
00021 suncat0278 pw.x -npool 4 -i  Done                     05/03/2018 05:24:06
00022 suncat0278 pw.x -npool 4 -i  Done                     05/03/2018 05:24:06
00023 suncat0278 pw.x -npool 4 -i  Done                     05/03/2018 05:24:06
00024 suncat0264 pw.x -npool 4 -i  Done                     05/03/2018 05:24:06
00025 suncat0264 pw.x -npool 4 -i  Done                     05/03/2018 05:24:06
00026 suncat0264 pw.x -npool 4 -i  Done                     05/03/2018 05:24:06
00027 suncat0264 pw.x -npool 4 -i  Done                     05/03/2018 05:24:06
00028 suncat0264 pw.x -npool 4 -i  Done                     05/03/2018 05:24:06
00029 suncat0264 pw.x -npool 4 -i  Done                     05/03/2018 05:24:06
00030 suncat0264 pw.x -npool 4 -i  Done                     05/03/2018 05:24:06
00031 suncat0264 pw.x -npool 4 -i  Done                     05/03/2018 05:24:06