     Program PWSCF v.5.1rc2 (svn rev. 11289) starts on 22Apr2018 at 23:14: 9

     Current dimensions of program PWSCF are:
     Max number of different atomic species (ntypx) = 10
     Max number of k-points (npk) =  40000
     Max angular momentum in pseudopotentials (lmaxx) =  3
     Presently stress not available with electric field

     IMPORTANT: XC functional enforced from input :
     Exchange-correlation      = BEEF-VDW ( 1  4 27 13 2)
     Any further DFT definition will be discarded
     Please, verify this is what you really want

     Subspace diagonalization in iterative solution of the eigenvalue problem:
     a serial algorithm will be used

     bravais-lattice index     =            0
     lattice parameter (alat)  =       1.8897  a.u.
     unit-cell volume          =    6116.8020 (a.u.)^3
     number of atoms/cell      =           15
     number of atomic types    =            3
     number of electrons       =       138.00
     number of Kohn-Sham states=           79
     kinetic-energy cutoff     =      36.7493  Ry
     charge density cutoff     =     367.4932  Ry
     convergence threshold     =      1.0E-05
     mixing beta               =       0.3000
     number of iterations used =           10  plain     mixing
     Exchange-correlation      = BEEF-VDW ( 1  4 27 13 2)
     nstep                     =           50

     celldm(1)=   1.889726  celldm(2)=   0.000000  celldm(3)=   0.000000
     celldm(4)=   0.000000  celldm(5)=   0.000000  celldm(6)=   0.000000

     crystal axes: (cart. coord. in units of alat)
               a(1) = (   6.437465   0.000000   0.000000 )
               a(2) = (   3.218732   5.575008   0.000000 )
               a(3) = (   0.000000   0.000000  25.256168 )

     reciprocal axes: (cart. coord. in units 2 pi/alat)
               b(1) = (  0.155341 -0.089686  0.000000 )
               b(2) = (  0.000000  0.179372  0.000000 )
               b(3) = (  0.000000  0.000000  0.039594 )

     PseudoPot. # 1 for Sc read from file:
     /u/if/mamunm/psp/gbrv1.5pbe/Sc.UPF
     MD5 check sum: db30a2753ba66ef00f23801d899b7e7f
     Pseudo is Ultrasoft + core correction, Zval = 11.0
     Generated by new atomic code, or converted to UPF format
     Using radial grid of  849 points,  6 beta functions with:
                l(1) =   0
                l(2) =   0
                l(3) =   1
                l(4) =   1
                l(5) =   2
                l(6) =   2
     Q(r) pseudized with  6 coefficients,  rinner =    1.200   1.200   1.200
                                                       1.200   1.200

     PseudoPot. # 2 for C  read from file:
     /u/if/mamunm/psp/gbrv1.5pbe/C.UPF
     MD5 check sum: d1aef80898a10debaa0f26306b886e00
     Pseudo is Ultrasoft + core correction, Zval =  4.0
     Generated by new atomic code, or converted to UPF format
     Using radial grid of  721 points,  4 beta functions with:
                l(1) =   0
                l(2) =   0
                l(3) =   1
                l(4) =   1
     Q(r) pseudized with  8 coefficients,  rinner =    1.100   1.100   1.100

     PseudoPot. # 3 for H  read from file:
     /u/if/mamunm/psp/gbrv1.5pbe/H.UPF
     MD5 check sum: 761ae9a214b05c3daf00ab9f6b793d6f
     Pseudo is Ultrasoft, Zval =  1.0
     Generated by new atomic code, or converted to UPF format
     Using radial grid of  615 points,  2 beta functions with:
                l(1) =   0
                l(2) =   0
     Q(r) pseudized with  8 coefficients,  rinner =    0.700

     vdW kernel table read from file vdW_kernel_table
     MD5 check sum: 095c7af220d748ca6e76c0b4c6cfb241

     atomic species   valence    mass     pseudopotential
        Sc1           11.00    44.95591     Sc( 1.00)
        C1             4.00    12.01100     C ( 1.00)
        H1             1.00     1.00800     H ( 1.00)

     No symmetry found

   Cartesian axes

     site n.     atom                  positions (alat units)
         1           Sc1 tau(   1) = (   1.6093662   0.9291680  10.0000000  )
         2           Sc1 tau(   2) = (   4.8280986   0.9291680  10.0000000  )
         3           Sc1 tau(   3) = (   3.2187324   3.7166720  10.0000000  )
         4           Sc1 tau(   4) = (   6.4374648   3.7166720  10.0000000  )
         5           Sc1 tau(   5) = (   6.4374648   1.8583360  12.6280840  )
         6           Sc1 tau(   6) = (   3.2187324   1.8583360  12.6280840  )
         7           Sc1 tau(   7) = (   8.0468310   4.6458400  12.6280840  )
         8           Sc1 tau(   8) = (   4.8280986   4.6458400  12.6280840  )
         9           Sc1 tau(   9) = (   0.0000000   0.0000000  15.2561680  )
        10           Sc1 tau(  10) = (   3.2187324   0.0000000  15.2561680  )
        11           Sc1 tau(  11) = (   1.6093662   2.7875040  15.2561680  )
        12           Sc1 tau(  12) = (   4.8280986   2.7875040  15.2561680  )
        13           C1  tau(  13) = (   1.6093662   0.9291680  16.8551680  )
        14           H1  tau(  14) = (   2.2393662   1.5591680  17.4851680  )
        15           H1  tau(  15) = (   0.9793662   0.2991680  17.4851680  )

     number of k points=    20  Fermi-Dirac smearing, width (Ry)=  0.0110
                       cart. coord. in units 2pi/alat
        k(    1) = (   0.0000000   0.0000000   0.0000000), wk =   0.0555556
        k(    2) = (   0.0000000   0.0298953   0.0000000), wk =   0.1111111
        k(    3) = (   0.0000000   0.0597906   0.0000000), wk =   0.1111111
        k(    4) = (   0.0000000  -0.0896860   0.0000000), wk =   0.0555556
        k(    5) = (   0.0258901  -0.0149477   0.0000000), wk =   0.1111111
        k(    6) = (   0.0258901   0.0149477   0.0000000), wk =   0.1111111
        k(    7) = (   0.0258901   0.0448430   0.0000000), wk =   0.1111111
        k(    8) = (   0.0258901  -0.1046336   0.0000000), wk =   0.1111111
        k(    9) = (   0.0258901  -0.0747383   0.0000000), wk =   0.1111111
        k(   10) = (   0.0258901  -0.0448430   0.0000000), wk =   0.1111111
        k(   11) = (   0.0517802  -0.0298953   0.0000000), wk =   0.1111111
        k(   12) = (   0.0517802   0.0000000   0.0000000), wk =   0.1111111
        k(   13) = (   0.0517802   0.0298953   0.0000000), wk =   0.1111111
        k(   14) = (   0.0517802  -0.1195813   0.0000000), wk =   0.1111111
        k(   15) = (   0.0517802  -0.0896860   0.0000000), wk =   0.1111111
        k(   16) = (   0.0517802  -0.0597906   0.0000000), wk =   0.1111111
        k(   17) = (  -0.0776703   0.0448430   0.0000000), wk =   0.0555556
        k(   18) = (  -0.0776703   0.0747383   0.0000000), wk =   0.1111111
        k(   19) = (  -0.0776703   0.1046336   0.0000000), wk =   0.1111111
        k(   20) = (  -0.0776703  -0.0448430   0.0000000), wk =   0.0555556

     Largest allocated arrays     est. size (Mb)     dimensions
     Largest temporary arrays     est. size (Mb)     dimensions

     Initial potential from superposition of free atoms
     Check: negative starting charge=   -0.000270

     starting charge  137.97111, renormalised to  138.00000

     negative rho (up, down):  2.700E-04 0.000E+00

     *
     * You are using vdW-DF for exchange-correlation in this calculation.
     * Please cite the following three references that made this development
     * possible:
     *
     *   M. Dion, H. Rydberg, E. Schroder, D. C. Langreth, and
     *   B. I. Lundqvist, Phys. Rev. Lett. 92, 246401 (2004).
     *
     *   T. Thonhauser, V. R. Cooper, S. Li, A. Puzder, P. Hyldgaard, and
     *   D. C. Langreth, Phys. Rev. B 76, 125112 (2007).
     *
     *   G. Roman-Perez and J. M. Soler, Phys. Rev. Lett. 103, 096102 (2009).
     *
     *
     * If you are using vdW-DF2, please also cite:
     *
     *   K. Lee, E. D. Murray, L. Kong, B. I. Lundqvist, and
     *   D. C. Langreth, Phys. Rev. B 82, 081101(R) (2010).
     *
     *
     * If you are calculating the stress with vdW-DF, please also cite:
     *
     *   R. Sabatini, E. Kucukbenli, B. Kolb, T. Thonhauser, and
     *   S. de Gironcoli, J. Phys.: Condens. Matter 24, 424209 (2012).
     *

     Carrying out vdW-DF run using the following parameters:

     Nqs =      20    Nr_points =    1024   r_max =   100.000
     q_mesh =
               0.00001000     0.04494208     0.09755937     0.15916263
               0.23128650     0.31572767     0.41458969     0.53033537
               0.66584808     0.82450364     1.01025438     1.22772762
               1.48234092     1.78043706     2.12944203     2.53805004
               3.01644009     3.57652955     4.23227104     5.00000000

     Gradients computed in reciprocal space

     Adding external electric field

     Computed dipole along edir(3) :
        Dipole               -0.0100 Ry au,         -0.0255 Debye
        Dipole field         -0.0000 Ry au

        Potential amp.        0.0019 Ry
        Total length         46.5341 bohr

     Starting wfc are  162 randomized atomic wfcs

     Self-consistent Calculation

     iteration #  1     ecut=    36.75 Ry     beta=0.30
     Davidson diagonalization with overlap
     ethr =  1.00E-02,  avg # of iterations =  2.0

[...]

     total energy              =   -1149.11995297 Ry
     Harris-Foulkes estimate   =   -1152.39065584 Ry
     estimated scf accuracy    <       7.02967228 Ry

[...]

     End of self-consistent calculation

          k = 0.0000 0.0000 0.0000 ( 23031 PWs)   bands (ev):

   -49.3943 -49.3720 -49.3271 -49.3260 -49.3253 -49.2814 -49.2437 -49.2054
   -48.9146 -48.8744 -48.8671 -48.8662 -28.1228 -28.0861 -28.0853 -28.0852
   -28.0604 -28.0578 -28.0507 -28.0041 -27.9947 -27.9946 -27.9920 -27.9405
   -27.9061 -27.8680 -27.8265 -27.8261 -27.8232 -27.7904 -27.7721 -27.7467
   -27.7466 -27.7449 -27.6568 -27.6480 -27.6355 -27.6318 -27.6157 -27.4730
   -27.4559 -27.4476 -27.4467 -27.4003 -27.3995 -27.3956 -27.3221 -27.3216
   -11.4506  -5.7839  -4.1981  -3.3144  -2.4125  -1.5829  -1.2878  -0.9105
    -0.9016  -0.8707  -0.7663  -0.7435  -0.6952  -0.4611  -0.3105  -0.0907
     0.0133   0.0276   0.0833   0.3036   0.3572   0.5249   0.6716   1.0027
     1.1743   1.2094   1.2142   1.2330   1.3091   1.4208   1.7120

[...]

          k =-0.0777 0.0448 0.0000 ( 23032 PWs)   bands (ev):

[...]

     the Fermi energy is     0.5776 ev

!    total energy              =   -1151.68198385 Ry
     Harris-Foulkes estimate   =   -1151.68198790 Ry
     estimated scf accuracy    <       0.00000457 Ry

     The total energy is the sum of the following terms:

     one-electron contribution =   -7371.35864182 Ry
     hartree contribution      =    3670.17759588 Ry
     xc contribution           =    -171.65343867 Ry
     ewald contribution        =    2721.28444941 Ry
     electric field correction =       0.00000071 Ry
     smearing contrib. (-TS)   =      -0.13194936 Ry

     convergence has been achieved in  20 iterations

 BEEF-vdW xc energy contributions
           1 :   -145.399626405573
           2 :    127.908103913039
           3 :   -100.670670755215
           4 :    74.2193444067798
           5 :   -55.9176373648747
           6 :    47.0239734493186
           7 :   -43.9900978492203
           8 :    42.1829228679312
           9 :   -39.0500721063335
          10 :    34.8601433241343
          11 :   -31.2660556246387
          12 :    29.3435504167381
          13 :   -28.6933474246620
          14 :    28.0298798821434
          15 :   -26.4489738457517
          16 :    24.1688340386426
          17 :   -22.1747634018280
          18 :    21.2207797772229
          19 :   -21.1540036444304
          20 :    21.1279439881212
          21 :   -20.4139506299925
          22 :    19.0207153014328
          23 :   -17.5977248094953
          24 :    16.7899181636142
          25 :   -16.6711495276859
          26 :    16.7410216634468
          27 :   -16.4261561546830
          28 :    15.5926888367629
          29 :   -14.6171498746928
          30 :    13.9945705478175
          31 :   -17.2499481617223
          32 :   -12.3607048483777

     Forces acting on atoms (Ry/au):

     negative rho (up, down):  2.018E-04 0.000E+00
     atom    1 type  1   force =    -0.00020779    0.00000279    0.00117120
     atom    2 type  1   force =     0.00018399   -0.00068580    0.00168202
     atom    3 type  1   force =    -0.00059319    0.00045056    0.00167250
     atom    4 type  1   force =     0.00061232    0.00025244    0.00167948
     atom    5 type  1   force =    -0.00238668    0.00117811    0.00004519
     atom    6 type  1   force =     0.00260092    0.00159347    0.00154662
     atom    7 type  1   force =     0.00039496   -0.00000012   -0.01169950
     atom    8 type  1   force =    -0.00027009   -0.00283838    0.00078055
     atom    9 type  1   force =     0.04415861    0.02682998    0.02961916
     atom   10 type  1   force =    -0.02602500    0.01349154    0.01460084
     atom   11 type  1   force =    -0.00258357   -0.04015772    0.02274659
     atom   12 type  1   force =     0.00699793    0.00013580   -0.00898490
     atom   13 type  2   force =    -0.02134730   -0.00139305   -0.08407370
     atom   14 type  3   force =     0.00509992    0.00646205    0.01445016
     atom   15 type  3   force =    -0.00663501   -0.00532166    0.01476380

     Total force =     0.122389     Total SCF correction =     0.003234

     entering subroutine stress ...

     negative rho (up, down):  2.018E-04 0.000E+00
          total   stress  (Ry/bohr**3)                   (kbar)     P=    0.33
   0.00001595  -0.00000227  -0.00001184          2.35     -0.33     -1.74
  -0.00000227   0.00001569   0.00000014         -0.33      2.31      0.02
  -0.00001184   0.00000014  -0.00002483         -1.74      0.02     -3.65

     BFGS Geometry Optimization

     number of scf cycles    =   1
     number of bfgs steps    =   0

     energy   new            =   -1151.6819838451 Ry

     new trust radius        =       0.0867527250 bohr
     new conv_thr            =       0.0000099958 Ry

ATOMIC_POSITIONS (crystal)
Sc1      0.166666667   0.166666667   0.395942884    0   0   0
Sc1      0.666666667   0.166666667   0.395942884    0   0   0
Sc1      0.166666667   0.666666667   0.395942884    0   0   0
Sc1      0.666666667   0.666666667   0.395942884    0   0   0
Sc1      0.833333333   0.333333333   0.500000000    0   0   0
Sc1      0.333333333   0.333333333   0.500000000    0   0   0
Sc1      0.833333333   0.833333333   0.500000000    0   0   0
Sc1      0.333333333   0.833333333   0.500000000    0   0   0
Sc1      0.002356614   0.002546689   0.604677708
Sc1      0.497220368   0.001280611   0.604363038
Sc1      0.001693500   0.496188248   0.604533711
Sc1      0.500568804   0.500012890   0.603868860
C1       0.164977974   0.166534439   0.665606837
H1       0.208141659   0.280284363   0.692615550
H1       0.125011363   0.053157216   0.692622121

     Writing output data file calc.save
     Check: negative starting charge=   -0.000270
     NEW-OLD atomic charge density approx. for the potential
     Check: negative starting charge=   -0.000269

[...]

     energy   old            =   -1151.6819838451 Ry
     energy   new            =   -1151.6928134013 Ry

     CASE: energy  _new < energy  _old

[...]

     iteration #  1     ecut=    36.75 Ry     beta=0.30
     Davidson diagonalization with overlap
     c_bands:  1 eigenvalues not converged
     ethr =  1.00E-06,  avg # of iterations = 15.1

[...]

     Threshold (ethr) on eigenvalues was too large:
     Diagonalizing with lowered threshold

     Davidson diagonalization with overlap
     ethr =  5.21E-08,  avg # of iterations =  8.6

[...]

     Davidson diagonalization with overlap
     c_bands:  1 eigenvalues not converged
     ethr =  2.99E-08,  avg # of iterations =  9.2

[...]

     Total force =     0.006000     Total SCF correction =     0.000814
     SCF correction compared to forces is large: reduce conv_thr to get better values

[...]

     iteration #  9     ecut=    36.75 Ry     beta=0.30
     Davidson diagonalization with overlap
     c_bands:  1 eigenvalues not converged
     ethr =  9.81E-09,  avg # of iterations =  4.3

[...]

     number of scf cycles    =  29
     number of bfgs steps    =  28

     energy   old            =   -1151.7119653065 Ry
     energy   new            =   -1151.7120270264 Ry

     CASE: energy  _new < energy  _old

     new trust radius        =       0.0129985844 bohr
     new conv_thr            =       0.0000001000 Ry

ATOMIC_POSITIONS (crystal)
Sc1      0.166666667   0.166666667   0.395942884    0   0   0
Sc1      0.666666667   0.166666667   0.395942884    0   0   0
Sc1      0.166666667   0.666666667   0.395942884    0   0   0
Sc1      0.666666667   0.666666667   0.395942884    0   0   0
Sc1      0.833333333   0.333333333   0.500000000    0   0   0
Sc1      0.333333333   0.333333333   0.500000000    0   0   0
Sc1      0.833333333   0.833333333   0.500000000    0   0   0
Sc1      0.333333333   0.833333333   0.500000000    0   0   0
Sc1      0.012658230   0.000034779   0.605424373
Sc1      0.488933186   0.003256298   0.605879043
Sc1      0.012893251   0.482294235   0.605126171
Sc1      0.517736521   0.488516606   0.600577306
C1       0.113696612   0.189969960   0.662096054
H1       0.125804481   0.319233956   0.689084051
H1       0.122884182   0.048027047   0.688509191

     Writing output data file calc.save
     Check: negative starting charge=   -0.000266
     NEW-OLD atomic charge density approx. for the potential
     Check: negative starting charge=   -0.000266

[...]

     Self-consistent Calculation

[...]

     Threshold (ethr) on eigenvalues was too large:
     Diagonalizing with lowered threshold

     Davidson diagonalization with overlap
     ethr =  9.39E-08,  avg # of iterations =  4.5

[...]

     total energy              =   -1151.71206042 Ry
     Harris-Foulkes estimate   =   -1151.71206043 Ry
     estimated scf accuracy    <       0.00000015 Ry

     iteration # 11     ecut=    36.75 Ry     beta=0.30
     Davidson diagonalization with overlap
     ethr =  1.09E-10,  avg # of iterations =  5.5

[...]

     negative rho (up, down):  1.958E-04 0.000E+00

     Adding external electric field

     Computed dipole along edir(3) :
        Dipole                0.0868 Ry au,          0.2206 Debye
        Dipole field          0.0002 Ry au

        Potential amp.       -0.0166 Ry
        Total length         46.5341 bohr

     End of self-consistent calculation

[...]

          k = 0.0518-0.0598 0.0000 ( 23012 PWs)   bands (ev):

[...]

          k =-0.0777-0.0448 0.0000 ( 23032 PWs)   bands (ev):

   -49.2605 -49.2404 -49.2325 -49.2137 -49.2094 -49.2068 -49.0779 -49.0665
   -48.8409 -48.7632 -48.7543 -48.7295 -27.9425 -27.9389 -27.9111 -27.9107
   -27.9062 -27.9040 -27.8874 -27.8785 -27.8746 -27.8484 -27.8214 -27.8077
   -27.8028 -27.7809 -27.7767 -27.7680 -27.7517 -27.7485 -27.6752 -27.6696
   -27.6656 -27.6153 -27.5999 -27.5537 -27.4969 -27.4457 -27.4262 -27.4147
   -27.3572 -27.3431 -27.3333 -27.3286 -27.3269 -27.3003 -27.2698 -27.2265
   -11.8985  -6.1556  -3.5190  -2.7304  -2.6178  -1.9146  -1.5427  -1.3772
    -0.8254  -0.7886  -0.4694  -0.4079  -0.2309  -0.2238   0.4238   0.4383
     0.4710   0.4985   0.5153   0.5578   0.7500   0.7597   0.7976   0.8445
     0.8553   0.9031   1.0712   1.1296   1.1452   1.1835   1.2307

     the Fermi energy is     0.6912 ev

!    total energy              =   -1151.71206044 Ry
     Harris-Foulkes estimate   =   -1151.71206049 Ry
     estimated scf accuracy    <       0.00000002 Ry

     The total energy is the sum of the following terms:

     one-electron contribution =   -7393.85700587 Ry
     hartree contribution      =    3681.79748752 Ry
     xc contribution           =    -171.73121993 Ry
     ewald contribution        =    2732.21012332 Ry
     electric field correction =       0.00001548 Ry
     smearing contrib. (-TS)   =      -0.13146096 Ry

     convergence has been achieved in  11 iterations

 BEEF-vdW xc energy contributions
           1 :   -145.483386918666
           2 :    128.033369387942
           3 :   -100.835907484454
           4 :    74.3834322004538
           5 :   -56.0360667024236
           6 :    47.0778161708074
           7 :   -43.9880469665225
           8 :    42.1464879699155
           9 :   -39.0006240566146
          10 :    34.8117910694233
          11 :   -31.2205916355209
          12 :    29.2913102617225
          13 :   -28.6255624294924
          14 :    27.9541323986317
          15 :   -26.3896822111383
          16 :    24.1473357485231
          17 :   -22.1866706181762
          18 :    21.2344093342517
          19 :   -21.1338695949703
          20 :    21.0626666233292
          21 :   -20.3241239232191
          22 :    18.9406170248306
          23 :   -17.5470429871827
          24 :    16.7595679337466
          25 :   -16.6349943739917
          26 :    16.6823572379694
          27 :   -16.3537619694766
          28 :    15.5305518405314
          29 :   -14.5776927119878
          30 :    13.9623520956301
          31 :   -17.2557479279756
          32 :   -12.3757155323057

     Forces acting on atoms (Ry/au):

     negative rho (up, down):  1.958E-04 0.000E+00
     atom    1 type  1   force =    -0.00018796    0.00006951    0.00085169
     atom    2 type  1   force =    -0.00000455   -0.00163543    0.00189029
     atom    3 type  1   force =    -0.00135633    0.00088192    0.00183231
     atom    4 type  1   force =     0.00136623    0.00088642    0.00189596
     atom    5 type  1   force =     0.00132282   -0.00109386   -0.00532933
     atom    6 type  1   force =     0.00209522   -0.00111949    0.00058349
     atom    7 type  1   force =    -0.00245644    0.00108347   -0.00587600
     atom    8 type  1   force =     0.00161263   -0.00203847    0.00089520
     atom    9 type  1   force =    -0.00066207    0.00133244   -0.00064858
     atom   10 type  1   force =     0.00050840   -0.00024335   -0.00000675
     atom   11 type  1   force =    -0.00185182   -0.00046863    0.00159903
     atom   12 type  1   force =     0.00014270    0.00063034   -0.00053657
     atom   13 type  2   force =    -0.00014752    0.00100819    0.00147225
     atom   14 type  3   force =    -0.00055188   -0.00009882    0.00039314
     atom   15 type  3   force =     0.00017057    0.00080579    0.00098387

     Total force =     0.003897     Total SCF correction =     0.000173

     entering subroutine stress ...

     negative rho (up, down):  1.958E-04 0.000E+00
          total   stress  (Ry/bohr**3)                   (kbar)     P=    2.30
   0.00002708  -0.00000015  -0.00000213          3.98     -0.02     -0.31
  -0.00000015   0.00002467   0.00000313         -0.02      3.63      0.46
  -0.00000213   0.00000313  -0.00000481         -0.31      0.46     -0.71

     bfgs converged in  30 scf cycles and  29 bfgs steps
     (criteria: energy <  1.0E+00, force <  1.9E-03)

     End of BFGS Geometry Optimization

     Final energy   =   -1151.7120604373 Ry
Begin final coordinates

ATOMIC_POSITIONS (crystal)
Sc1      0.166666667   0.166666667   0.395942884    0   0   0
Sc1      0.666666667   0.166666667   0.395942884    0   0   0
Sc1      0.166666667   0.666666667   0.395942884    0   0   0
Sc1      0.666666667   0.666666667   0.395942884    0   0   0
Sc1      0.833333333   0.333333333   0.500000000    0   0   0
Sc1      0.333333333   0.333333333   0.500000000    0   0   0
Sc1      0.833333333   0.833333333   0.500000000    0   0   0
Sc1      0.333333333   0.833333333   0.500000000    0   0   0
Sc1      0.012658230   0.000034779   0.605424373
Sc1      0.488933186   0.003256298   0.605879043
Sc1      0.012893251   0.482294235   0.605126171
Sc1      0.517736521   0.488516606   0.600577306
C1       0.113696612   0.189969960   0.662096054
H1       0.125804481   0.319233956   0.689084051
H1       0.122884182   0.048027047   0.688509191
End final coordinates

     Writing output data file calc.save

     General routines

     Parallel routines

   This run was terminated on:   3:23:20  23Apr2018

   JOB DONE.
Job  /afs/slac/g/suncat/bin/suncat-tsmpirun -x LD_LIBRARY_PATH -wdir /scratch/qe345902_u2dUL pw.x -npool 4 -in pw.inp

TID   HOST_NAME   COMMAND_LINE            STATUS            TERMINATION_TIME
00000 suncat0191 pw.x -npool 4 -i  Done                     04/23/2018 03:23:20
00001 suncat0191 pw.x -npool 4 -i  Done                     04/23/2018 03:23:20
00002 suncat0191 pw.x -npool 4 -i  Done                     04/23/2018 03:23:20
00003 suncat0191 pw.x -npool 4 -i  Done                     04/23/2018 03:23:20
00004 suncat0191 pw.x -npool 4 -i  Done                     04/23/2018 03:23:20
00005 suncat0191 pw.x -npool 4 -i  Done                     04/23/2018 03:23:20
00006 suncat0191 pw.x -npool 4 -i  Done                     04/23/2018 03:23:20
00007 suncat0191 pw.x -npool 4 -i  Done                     04/23/2018 03:23:20
00008 suncat0175 pw.x -npool 4 -i  Done                     04/23/2018 03:23:20
00009 suncat0175 pw.x -npool 4 -i  Done                     04/23/2018 03:23:20
00010 suncat0175 pw.x -npool 4 -i  Done                     04/23/2018 03:23:20
00011 suncat0175 pw.x -npool 4 -i  Done                     04/23/2018 03:23:20
00012 suncat0175 pw.x -npool 4 -i  Done                     04/23/2018 03:23:20
00013 suncat0175 pw.x -npool 4 -i  Done                     04/23/2018 03:23:20
00014 suncat0175 pw.x -npool 4 -i  Done                     04/23/2018 03:23:20
00015 suncat0175 pw.x -npool 4 -i  Done                     04/23/2018 03:23:20
00016 suncat0130 pw.x -npool 4 -i  Done                     04/23/2018 03:23:20
00017 suncat0130 pw.x -npool 4 -i  Done                     04/23/2018 03:23:20
00018 suncat0130 pw.x -npool 4 -i  Done                     04/23/2018 03:23:20
00019 suncat0130 pw.x -npool 4 -i  Done                     04/23/2018 03:23:20
00020 suncat0130 pw.x -npool 4 -i  Done                     04/23/2018 03:23:20
00021 suncat0130 pw.x -npool 4 -i  Done                     04/23/2018 03:23:20
00022 suncat0130 pw.x -npool 4 -i  Done                     04/23/2018 03:23:20
00023 suncat0130 pw.x -npool 4 -i  Done                     04/23/2018 03:23:20
00024 suncat0268 pw.x -npool 4 -i  Done                     04/23/2018 03:23:20
00025 suncat0268 pw.x -npool 4 -i  Done                     04/23/2018 03:23:20
00026 suncat0268 pw.x -npool 4 -i  Done                     04/23/2018 03:23:20
00027 suncat0268 pw.x -npool 4 -i  Done                     04/23/2018 03:23:20
00028 suncat0268 pw.x -npool 4 -i  Done                     04/23/2018 03:23:20
00029 suncat0268 pw.x -npool 4 -i  Done                     04/23/2018 03:23:20
00030 suncat0268 pw.x -npool 4 -i  Done                     04/23/2018 03:23:20
00031 suncat0268 pw.x -npool 4 -i  Done                     04/23/2018 03:23:20