     Program PWSCF v.5.1rc2 (svn rev. ) starts on 16Apr2018 at 11:16:30

     Current dimensions of program PWSCF are:
     Max number of different atomic species (ntypx) = 10
     Max number of k-points (npk) =  40000
     Max angular momentum in pseudopotentials (lmaxx) =  3
     Presently stress not available with electric field

     IMPORTANT: XC functional enforced from input :
     Exchange-correlation      = BEEF-VDW ( 1  4 27 13 2)
     Any further DFT definition will be discarded
     Please, verify this is what you really want

     Subspace diagonalization in iterative solution of the eigenvalue problem:
     a serial algorithm will be used

     bravais-lattice index     =            0
     lattice parameter (alat)  =       1.8897  a.u.
     unit-cell volume          =    4650.5773 (a.u.)^3
     number of atoms/cell      =           14
     number of atomic types    =            3
     number of electrons       =        43.00
     number of Kohn-Sham states=           31
     kinetic-energy cutoff     =      36.7493  Ry
     charge density cutoff     =     367.4932  Ry
     convergence threshold     =      1.0E-05
     mixing beta               =       0.3000
     number of iterations used =           10  plain     mixing
     Exchange-correlation      = BEEF-VDW ( 1  4 27 13 2)
     nstep                     =           50

     celldm(1)=   1.889726  celldm(2)=   0.000000  celldm(3)=   0.000000
     celldm(4)=   0.000000  celldm(5)=   0.000000  celldm(6)=   0.000000

     crystal axes: (cart. coord. in units of alat)
               a(1) = (   5.682886   0.000000   0.000000 )
               a(2) = (   2.841443   4.921524   0.000000 )
               a(3) = (   0.000000   0.000000  24.640057 )

     reciprocal axes: (cart. coord. in units 2 pi/alat)
               b(1) = (  0.175967 -0.101595  0.000000 )
               b(2) = (  0.000000  0.203189  0.000000 )
               b(3) = (  0.000000  0.000000  0.040584 )

     PseudoPot. # 1 for Al read from file:
     /home/mamunm/src/pseudo/gbrv1.5pbe/Al.UPF
     MD5 check sum: 0a6289f5291fc8f409219462bc851e1f
     Pseudo is Ultrasoft + core correction, Zval =  3.0
     Generated by new atomic code, or converted to UPF format
     Using radial grid of  893 points,  3 beta functions with:
                l(1) =   0
                l(2) =   1
                l(3) =   2
     Q(r) pseudized with  8 coefficients,  rinner =    0.900   0.900   0.900
                                                       0.900   0.900

     PseudoPot. # 2 for O  read from file:
     /home/mamunm/src/pseudo/gbrv1.5pbe/O.UPF
     MD5 check sum: 734c27235a0248c51dbae37a1fbe46ec
     Pseudo is Ultrasoft + core correction, Zval =  6.0
     Generated by new atomic code, or converted to UPF format
     Using radial grid of  737 points,  5 beta functions with:
                l(1) =   0
                l(2) =   0
                l(3) =   1
                l(4) =   1
                l(5) =   2
     Q(r) pseudized with  8 coefficients,  rinner =    0.900   0.900   0.900
                                                       0.900   0.900

     PseudoPot. # 3 for H  read from file:
     /home/mamunm/src/pseudo/gbrv1.5pbe/H.UPF
     MD5 check sum: 761ae9a214b05c3daf00ab9f6b793d6f
     Pseudo is Ultrasoft, Zval =  1.0
     Generated by new atomic code, or converted to UPF format
     Using radial grid of  615 points,  2 beta functions with:
                l(1) =   0
                l(2) =   0
     Q(r) pseudized with  8 coefficients,  rinner =    0.700

     vdW kernel table read from file vdW_kernel_table
     MD5 check sum: 095c7af220d748ca6e76c0b4c6cfb241

     atomic species   valence    mass     pseudopotential
        Al1            3.00    26.98154     Al( 1.00)
        O1             6.00    15.99900     O ( 1.00)
        H1             1.00     1.00800     H ( 1.00)

     No symmetry found

   Cartesian axes

     site n.     atom                  positions (alat units)
         1           Al1 tau(   1) = (   1.4207216   0.8202540  10.0000000  )
         2           Al1 tau(   2) = (   4.2621647   0.8202540  10.0000000  )
         3           Al1 tau(   3) = (   2.8414431   3.2810159  10.0000000  )
         4           Al1 tau(   4) = (   5.6828862   3.2810159  10.0000000  )
         5           Al1 tau(   5) = (   5.6828862   1.6405079  12.3200286  )
         6           Al1 tau(   6) = (   2.8414431   1.6405079  12.3200286  )
         7           Al1 tau(   7) = (   7.1036078   4.1012699  12.3200286  )
         8           Al1 tau(   8) = (   4.2621647   4.1012699  12.3200286  )
         9           Al1 tau(   9) = (   0.0000000   0.0000000  14.6400572  )
        10           Al1 tau(  10) = (   2.8414431   0.0000000  14.6400572  )
        11           Al1 tau(  11) = (   1.4207216   2.4607619  14.6400572  )
        12           Al1 tau(  12) = (   4.2621647   2.4607619  14.6400572  )
        13           O1  tau(  13) = (   1.4207216   0.8202540  15.8555572  )
        14           H1  tau(  14) = (   1.4207216   0.8202540  16.8055572  )

     number of k points=    20  Fermi-Dirac smearing, width (Ry)=  0.0110
                       cart. coord. in units 2pi/alat
        k(    1) = (   0.0000000   0.0000000   0.0000000), wk =   0.0555556
        k(    2) = (   0.0000000   0.0338648   0.0000000), wk =   0.1111111
        k(    3) = (   0.0000000   0.0677297   0.0000000), wk =   0.1111111
        k(    4) = (   0.0000000  -0.1015945   0.0000000), wk =   0.0555556
        k(    5) = (   0.0293278  -0.0169324   0.0000000), wk =   0.1111111
        k(    6) = (   0.0293278   0.0169324   0.0000000), wk =   0.1111111
        k(    7) = (   0.0293278   0.0507973   0.0000000), wk =   0.1111111
        k(    8) = (   0.0293278  -0.1185270   0.0000000), wk =   0.1111111
        k(    9) = (   0.0293278  -0.0846621   0.0000000), wk =   0.1111111
        k(   10) = (   0.0293278  -0.0507973   0.0000000), wk =   0.1111111
        k(   11) = (   0.0586556  -0.0338648   0.0000000), wk =   0.1111111
        k(   12) = (   0.0586556   0.0000000   0.0000000), wk =   0.1111111
        k(   13) = (   0.0586556   0.0338648   0.0000000), wk =   0.1111111
        k(   14) = (   0.0586556  -0.1354594   0.0000000), wk =   0.1111111
        k(   15) = (   0.0586556  -0.1015945   0.0000000), wk =   0.1111111
        k(   16) = (   0.0586556  -0.0677297   0.0000000), wk =   0.1111111
        k(   17) = (  -0.0879835   0.0507973   0.0000000), wk =   0.0555556
        k(   18) = (  -0.0879835   0.0846621   0.0000000), wk =   0.1111111
        k(   19) = (  -0.0879835   0.1185270   0.0000000), wk =   0.1111111
        k(   20) = (  -0.0879835  -0.0507973   0.0000000), wk =   0.0555556

     Largest allocated arrays     est. size (Mb)     dimensions
     Largest temporary arrays     est. size (Mb)     dimensions

     Initial potential from superposition of free atoms
     Check: negative starting charge=   -0.000281

     starting charge   42.97041, renormalised to   43.00000

     negative rho (up, down):  2.807E-04 0.000E+00

     *
     * You are using vdW-DF for exchange-correlation in this calculation.
     * Please cite the following three references that made this development
     * possible:
     *
     *   M. Dion, H. Rydberg, E. Schroder, D. C. Langreth, and
     *   B. I. Lundqvist, Phys. Rev. Lett. 92, 246401 (2004).
     *
     *   T. Thonhauser, V. R. Cooper, S. Li, A. Puzder, P. Hyldgaard, and
     *   D. C. Langreth, Phys. Rev. B 76, 125112 (2007).
     *
     *   G. Roman-Perez and J. M. Soler, Phys. Rev. Lett. 103, 096102 (2009).
     *
     *
     * If you are using vdW-DF2, please also cite:
     *
     *   K. Lee, E. D. Murray, L. Kong, B. I. Lundqvist, and
     *   D. C. Langreth, Phys. Rev. B 82, 081101(R) (2010).
     *
     *
     * If you are calculating the stress with vdW-DF, please also cite:
     *
     *   R. Sabatini, E. Kucukbenli, B. Kolb, T. Thonhauser, and
     *   S. de Gironcoli, J. Phys.: Condens. Matter 24, 424209 (2012).
     *

     Carrying out vdW-DF run using the following parameters:

     Nqs =      20    Nr_points =    1024   r_max =   100.000
     q_mesh =
               0.00001000     0.04494208     0.09755937     0.15916263
               0.23128650     0.31572767     0.41458969     0.53033537
               0.66584808     0.82450364     1.01025438     1.22772762
               1.48234092     1.78043706     2.12944203     2.53805004
               3.01644009     3.57652955     4.23227104     5.00000000

     Gradients computed in reciprocal space

     Adding external electric field

     Computed dipole along edir(3) :
        Dipole               -0.0334 Ry au,         -0.0848 Debye
        Dipole field         -0.0001 Ry au

        Potential amp.        0.0082 Ry
        Total length         45.3989 bohr

     Starting wfc are   53 randomized atomic wfcs

     Self-consistent Calculation

     iteration #  1     ecut=    36.75 Ry     beta=0.30
     Davidson diagonalization with overlap
     ethr =  1.00E-02,  avg # of iterations =  3.0

[...]

     total energy              =    -115.95486556 Ry
     Harris-Foulkes estimate   =    -116.54141672 Ry
     estimated scf accuracy    <       1.38076444 Ry

[...]

     End of self-consistent calculation

          k = 0.0000 0.0000 0.0000 ( 17579 PWs)   bands (ev):

   -22.7788 -11.4132 -10.3768  -8.5934  -7.3250  -7.3250  -6.0457  -4.7344
    -4.7344  -4.6868  -4.5459  -4.5386  -4.5386  -3.3258  -3.1886  -3.1886
    -3.1043  -2.6796  -2.6796  -2.0324  -0.4540  -0.4540  -0.3087   0.1835
     0.3934   0.3934   0.4869   1.5744   2.4643   2.4643   2.5146

[...]

          k =-0.0880 0.0508 0.0000 ( 17464 PWs)   bands (ev):

[...]

     the Fermi energy is     0.0386 ev

!    total energy              =    -116.23905348 Ry
     Harris-Foulkes estimate   =    -116.23908437 Ry
     estimated scf accuracy    <       0.00000236 Ry

     The total energy is the sum of the following terms:

     one-electron contribution =    -835.16916062 Ry
     hartree contribution      =     427.42161158 Ry
     xc contribution           =     -61.65027442 Ry
     ewald contribution        =     353.18781049 Ry
     electric field correction =       0.00038773 Ry
     smearing contrib. (-TS)   =      -0.02942824 Ry

     convergence has been achieved in  10 iterations

 BEEF-vdW xc energy contributions
           1 :   -50.7969010904445
           2 :    43.6301771112418
           3 :   -32.6036279116577
           4 :    22.0375572159636
           5 :   -14.7183021385462
           6 :    10.8754861037100
           7 :   -8.99037033442731
           8 :    7.43938321915206
           9 :   -5.64632829115760
          10 :    4.04555561002953
          11 :   -3.21961217957814
          12 :    3.15397179265552
          13 :   -3.24708396494971
          14 :    2.90914853102480
          15 :   -2.08467570232257
          16 :    1.21396305935402
          17 :  -0.746087092250548
          18 :   0.716379164219816
          19 :  -0.775485095582965
          20 :   0.578534000812652
          21 :  -0.116292040627116
          22 :  -0.321638368217592
          23 :   0.466776957974929
          24 :  -0.332960317966510
          25 :   0.175503487593090
          26 :  -0.223073451741136
          27 :   0.462041646899991
          28 :  -0.675036359027978
          29 :   0.671644405400009
          30 :  -0.472011605619059
          31 :   -7.39270439008720
          32 :   -5.34610192507020

     Forces acting on atoms (Ry/au):

     negative rho (up, down):  4.534E-04 0.000E+00
     atom    1 type  1   force =    -0.00000014    0.00000003    0.00399490
     atom    2 type  1   force =    -0.00000001    0.00066844    0.00021538
     atom    3 type  1   force =     0.00057891   -0.00033411    0.00021573
     atom    4 type  1   force =    -0.00057892   -0.00033412    0.00021556
     atom    5 type  1   force =    -0.00043517    0.00025143    0.00890216
     atom    6 type  1   force =     0.00043533    0.00025144    0.00890219
     atom    7 type  1   force =    -0.00000006   -0.00000013   -0.00513619
     atom    8 type  1   force =    -0.00000000   -0.00050269    0.00890242
     atom    9 type  1   force =    -0.03081154   -0.01778892   -0.00773116
     atom   10 type  1   force =     0.03081170   -0.01778895   -0.00773111
     atom   11 type  1   force =    -0.00000013    0.03557812   -0.00773119
     atom   12 type  1   force =     0.00000015   -0.00000019   -0.01315557
     atom   13 type  2   force =    -0.00000013   -0.00000031   -0.06056889
     atom   14 type  3   force =    -0.00000000   -0.00000003    0.07070577

     Total force =     0.113215     Total SCF correction =     0.001636

     entering subroutine stress ...

     negative rho (up, down):  4.534E-04 0.000E+00
          total   stress  (Ry/bohr**3)                   (kbar)     P=   -3.28
  -0.00003501  -0.00000000  -0.00000000         -5.15     -0.00     -0.00
  -0.00000000  -0.00003501  -0.00000000         -0.00     -5.15     -0.00
  -0.00000000  -0.00000000   0.00000319         -0.00     -0.00      0.47

     BFGS Geometry Optimization

     number of scf cycles    =   1
     number of bfgs steps    =   0

     energy   new            =    -116.2390534803 Ry

     new trust radius        =       0.0707057725 bohr
     new conv_thr            =       0.0000099958 Ry

ATOMIC_POSITIONS (crystal)
Al1      0.166666667   0.166666667   0.405843214    0   0   0
Al1      0.666666667   0.166666667   0.405843214    0   0   0
Al1      0.166666667   0.666666667   0.405843214    0   0   0
Al1      0.666666667   0.666666667   0.405843214    0   0   0
Al1      0.833333333   0.333333333   0.500000000    0   0   0
Al1      0.333333333   0.333333333   0.500000000    0   0   0
Al1      0.833333333   0.833333333   0.500000000    0   0   0
Al1      0.333333333   0.833333333   0.500000000    0   0   0
Al1     -0.001912740  -0.001912719   0.593990749
Al1      0.503825475  -0.001912722   0.593990750
Al1     -0.001912746   0.503825468   0.593990749
Al1      0.500000025   0.499999979   0.593874253
O1       0.166666671   0.166666634   0.642186233
H1       0.166666668   0.166666664   0.683560632

     Writing output data file calc.save
     Check: negative starting charge=   -0.000281
     NEW-OLD atomic charge density approx. for the potential
     Check: negative starting charge=   -0.000279

[...]

     energy   old            =    -116.2390534803 Ry
     energy   new            =    -116.2426603325 Ry

     CASE: energy  _new < energy  _old

[...]

     Threshold (ethr) on eigenvalues was too large:
     Diagonalizing with lowered threshold

     Davidson diagonalization with overlap
     ethr =  8.67E-08,  avg # of iterations =  1.6

[...]

     WARNING: bfgs curvature condition failed, Theta= 0.984
     new trust radius        =       0.0056342650 bohr
     new conv_thr            =       0.0000001000 Ry

[...]

     Threshold (ethr) on eigenvalues was too large:
     Diagonalizing with lowered threshold

     Davidson diagonalization with overlap
     ethr =  5.40E-08,  avg # of iterations =  1.2

[...]

     Total force =     0.005062     Total SCF correction =     0.000603
     SCF correction compared to forces is large: reduce conv_thr to get better values

[...]

     number of scf cycles    =  13
     number of bfgs steps    =  12

     energy   old            =    -116.2511946058 Ry
     energy   new            =    -116.2512732495 Ry

     CASE: energy  _new < energy  _old

     new trust radius        =       0.0190156442 bohr
     new conv_thr            =       0.0000001000 Ry

ATOMIC_POSITIONS (crystal)
Al1      0.166666667   0.166666667   0.405843214    0   0   0
Al1      0.666666667   0.166666667   0.405843214    0   0   0
Al1      0.166666667   0.666666667   0.405843214    0   0   0
Al1      0.666666667   0.666666667   0.405843214    0   0   0
Al1      0.833333333   0.333333333   0.500000000    0   0   0
Al1      0.333333333   0.333333333   0.500000000    0   0   0
Al1      0.833333333   0.833333333   0.500000000    0   0   0
Al1      0.333333333   0.833333333   0.500000000    0   0   0
Al1     -0.008353425  -0.008353413   0.593354799
Al1      0.516706842  -0.008353421   0.593354797
Al1     -0.008353422   0.516706826   0.593354797
Al1      0.500000012   0.499999989   0.589781694
O1       0.166666665   0.166666658   0.640067371
H1       0.166666669   0.166666636   0.679991909

     Writing output data file calc.save
     Check: negative starting charge=   -0.000274
     NEW-OLD atomic charge density approx. for the potential
     Check: negative starting charge=   -0.000275

[...]

     Self-consistent Calculation

[...]

     total energy              =    -116.25137298 Ry
     Harris-Foulkes estimate   =    -116.25137278 Ry
     estimated scf accuracy    <       0.00000031 Ry

     iteration #  7     ecut=    36.75 Ry     beta=0.30
     Davidson diagonalization with overlap
     ethr =  7.24E-10,  avg # of iterations =  2.2

[...]

     negative rho (up, down):  4.614E-04 0.000E+00

     Adding external electric field

     Computed dipole along edir(3) :
        Dipole                0.3700 Ry au,          0.9405 Debye
        Dipole field          0.0010 Ry au

        Potential amp.       -0.0908 Ry
        Total length         45.3989 bohr

     End of self-consistent calculation

[...]

          k = 0.0587-0.0677 0.0000 ( 17495 PWs)   bands (ev):

[...]

          k =-0.0880-0.0508 0.0000 ( 17464 PWs)   bands (ev):

   -22.4132 -10.7585  -9.3686  -8.9775  -7.9778  -7.3587  -7.1511  -6.5677
    -6.1094  -6.0004  -4.8013  -4.4218  -4.2147  -3.8077  -2.0492  -1.6562
    -1.6237  -1.1192  -0.5470  -0.4131  -0.2954   0.1389   0.8329   1.0795
     1.3487   1.4382   1.4710   1.6957   1.8218   2.2365   2.5921

     the Fermi energy is     0.0179 ev

!    total energy              =    -116.25137293 Ry
     Harris-Foulkes estimate   =    -116.25137307 Ry
     estimated scf accuracy    <       0.00000009 Ry

     The total energy is the sum of the following terms:

     one-electron contribution =    -842.75026101 Ry
     hartree contribution      =     431.25100324 Ry
     xc contribution           =     -61.66157003 Ry
     ewald contribution        =     356.93766946 Ry
     electric field correction =       0.00036993 Ry
     smearing contrib. (-TS)   =      -0.02858452 Ry

     convergence has been achieved in   7 iterations

 BEEF-vdW xc energy contributions
           1 :   -50.8072427866416
           2 :    43.6436436683798
           3 :   -32.6143148662901
           4 :    22.0354316825425
           5 :   -14.7021464665188
           6 :    10.8586528350757
           7 :   -8.99352388683589
           8 :    7.47608564504132
           9 :   -5.71131789548620
          10 :    4.11600959999902
          11 :   -3.27119217455238
          12 :    3.18012167682708
          13 :   -3.26505053897146
          14 :    2.94598621423806
          15 :   -2.15368385459691
          16 :    1.30235249761860
          17 :  -0.826460627271345
          18 :   0.772292764722764
          19 :  -0.815459209019480
          20 :   0.623804010261679
          21 :  -0.176275227400815
          22 :  -0.259104835285171
          23 :   0.421121077231774
          24 :  -0.309132313588961
          25 :   0.158001770333598
          26 :  -0.192281064422929
          27 :   0.416549717262569
          28 :  -0.635245807779782
          29 :   0.658647080602933
          30 :  -0.483814278049664
          31 :   -7.39484272056599
          32 :   -5.34764100524043

     Forces acting on atoms (Ry/au):

     negative rho (up, down):  4.614E-04 0.000E+00
     atom    1 type  1   force =    -0.00000000    0.00000000    0.00402983
     atom    2 type  1   force =     0.00000000    0.00143528    0.00069993
     atom    3 type  1   force =     0.00124299   -0.00071764    0.00069994
     atom    4 type  1   force =    -0.00124299   -0.00071764    0.00069993
     atom    5 type  1   force =     0.00343937   -0.00198572    0.00436858
     atom    6 type  1   force =    -0.00343937   -0.00198572    0.00436858
     atom    7 type  1   force =     0.00000000   -0.00000000   -0.01419202
     atom    8 type  1   force =    -0.00000000    0.00397144    0.00436858
     atom    9 type  1   force =    -0.00157511   -0.00090941   -0.00161783
     atom   10 type  1   force =     0.00157510   -0.00090939   -0.00161782
     atom   11 type  1   force =     0.00000002    0.00181880   -0.00161783
     atom   12 type  1   force =    -0.00000001    0.00000001    0.00132933
     atom   13 type  2   force =     0.00000000   -0.00000001   -0.00141686
     atom   14 type  3   force =     0.00000000    0.00000000   -0.00010234

     Total force =     0.004643     Total SCF correction =     0.000278

     entering subroutine stress ...

     negative rho (up, down):  4.614E-04 0.000E+00
          total   stress  (Ry/bohr**3)                   (kbar)     P=   -3.37
  -0.00002849  -0.00000000   0.00000000         -4.19     -0.00      0.00
  -0.00000000  -0.00002849   0.00000000         -0.00     -4.19      0.00
   0.00000000   0.00000000  -0.00001180          0.00      0.00     -1.74

     bfgs converged in  14 scf cycles and  13 bfgs steps
     (criteria: energy <  1.0E+00, force <  1.9E-03)

     End of BFGS Geometry Optimization

     Final energy   =    -116.2513729257 Ry
Begin final coordinates

ATOMIC_POSITIONS (crystal)
Al1      0.166666667   0.166666667   0.405843214    0   0   0
Al1      0.666666667   0.166666667   0.405843214    0   0   0
Al1      0.166666667   0.666666667   0.405843214    0   0   0
Al1      0.666666667   0.666666667   0.405843214    0   0   0
Al1      0.833333333   0.333333333   0.500000000    0   0   0
Al1      0.333333333   0.333333333   0.500000000    0   0   0
Al1      0.833333333   0.833333333   0.500000000    0   0   0
Al1      0.333333333   0.833333333   0.500000000    0   0   0
Al1     -0.008353425  -0.008353413   0.593354799
Al1      0.516706842  -0.008353421   0.593354797
Al1     -0.008353422   0.516706826   0.593354797
Al1      0.500000012   0.499999989   0.589781694
O1       0.166666665   0.166666658   0.640067371
H1       0.166666669   0.166666636   0.679991909
End final coordinates

     Writing output data file calc.save

     General routines

     Parallel routines

   This run was terminated on:  11:31:26  16Apr2018

   JOB DONE.