     Program PWSCF v.5.1rc2 (svn rev. 11289) starts on 20Jan2018 at  7:21:42

     Current dimensions of program PWSCF are:
     Max number of different atomic species (ntypx) = 10
     Max number of k-points (npk) =  40000
     Max angular momentum in pseudopotentials (lmaxx) =  3
     Presently stress not available with electric field

     IMPORTANT: XC functional enforced from input :
     Exchange-correlation      = BEEF-VDW ( 1  4 27 13 2)
     Any further DFT definition will be discarded
     Please, verify this is what you really want

     Subspace diagonalization in iterative solution of the eigenvalue problem:
     a serial algorithm will be used

     bravais-lattice index     =            0
     lattice parameter (alat)  =       1.8897  a.u.
     unit-cell volume          =    4806.0858 (a.u.)^3
     number of atoms/cell      =           13
     number of atomic types    =            2
     number of electrons       =       149.00
     number of Kohn-Sham states=           84
     kinetic-energy cutoff     =      36.7493  Ry
     charge density cutoff     =     367.4932  Ry
     convergence threshold     =      1.0E-05
     mixing beta               =       0.3000
     number of iterations used =           10  plain     mixing
     Exchange-correlation      = BEEF-VDW ( 1  4 27 13 2)
     nstep                     =           50

     celldm(1)=   1.889726  celldm(2)=   0.000000  celldm(3)=   0.000000
     celldm(4)=   0.000000  celldm(5)=   0.000000  celldm(6)=   0.000000

     crystal axes: (cart. coord. in units of alat)
               a(1) = (   5.768903   0.000000   0.000000 )
               a(2) = (   2.884451   4.996016   0.000000 )
               a(3) = (   0.000000   0.000000  24.710289 )

     reciprocal axes: (cart. coord. in units 2 pi/alat)
               b(1) = (  0.173343 -0.100080  0.000000 )
               b(2) = (  0.000000  0.200159  0.000000 )
               b(3) = (  0.000000  0.000000  0.040469 )

     PseudoPot. # 1 for Ti read from file:
     /afs/slac.stanford.edu/u/if/mamunm/psp/gbrv1.5pbe/Ti.UPF
     MD5 check sum: 88a00a6731bd790ddea75d31a80cb452
     Pseudo is Ultrasoft + core correction, Zval = 12.0
     Generated by new atomic code, or converted to UPF format
     Using radial grid of  851 points,  6 beta functions with:
                l(1) =   0
                l(2) =   0
                l(3) =   1
                l(4) =   1
                l(5) =   2
                l(6) =   2
     Q(r) pseudized with  6 coefficients,  rinner =    1.000   1.000   1.000
                                                       1.000   1.000

     PseudoPot. # 2 for N  read from file:
     /afs/slac.stanford.edu/u/if/mamunm/psp/gbrv1.5pbe/N.UPF
     MD5 check sum: 95339753478d7afb44899504a8723017
     Pseudo is Ultrasoft + core correction, Zval =  5.0
     Generated by new atomic code, or converted to UPF format
     Using radial grid of  729 points,  4 beta functions with:
                l(1) =   0
                l(2) =   0
                l(3) =   1
                l(4) =   1
     Q(r) pseudized with  8 coefficients,  rinner =    0.900   0.900   0.900

     vdW kernel table read from file vdW_kernel_table
     MD5 check sum: 095c7af220d748ca6e76c0b4c6cfb241

     atomic species   valence    mass     pseudopotential
        Ti1           12.00    47.86700     Ti( 1.00)
        N1             5.00    14.00700     N ( 1.00)

     No symmetry found

   Cartesian axes

     site n.     atom                  positions (alat units)
         1           Ti1 tau(   1) = (   1.4422257   0.8326694  10.0000000  )
         2           Ti1 tau(   2) = (   4.3266771   0.8326694  10.0000000  )
         3           Ti1 tau(   3) = (   2.8844514   3.3306776  10.0000000  )
         4           Ti1 tau(   4) = (   5.7689029   3.3306776  10.0000000  )
         5           Ti1 tau(   5) = (   5.7689029   1.6653388  12.3551447  )
         6           Ti1 tau(   6) = (   2.8844514   1.6653388  12.3551447  )
         7           Ti1 tau(   7) = (   7.2111286   4.1633470  12.3551447  )
         8           Ti1 tau(   8) = (   4.3266771   4.1633470  12.3551447  )
         9           Ti1 tau(   9) = (   0.0000000   0.0000000  14.7102895  )
        10           Ti1 tau(  10) = (   2.8844514   0.0000000  14.7102895  )
        11           Ti1 tau(  11) = (   1.4422257   2.4980082  14.7102895  )
        12           Ti1 tau(  12) = (   4.3266771   2.4980082  14.7102895  )
        13           N1  tau(  13) = (   1.4422257   0.8326694  17.0202895  )

     number of k points=    20  Fermi-Dirac smearing, width (Ry)=  0.0110
                       cart. coord. in units 2pi/alat
        k(    1) = (   0.0000000   0.0000000   0.0000000), wk =   0.0555556
        k(    2) = (   0.0000000   0.0333599   0.0000000), wk =   0.1111111
        k(    3) = (   0.0000000   0.0667198   0.0000000), wk =   0.1111111
        k(    4) = (   0.0000000  -0.1000797   0.0000000), wk =   0.0555556
        k(    5) = (   0.0288905  -0.0166800   0.0000000), wk =   0.1111111
        k(    6) = (   0.0288905   0.0166800   0.0000000), wk =   0.1111111
        k(    7) = (   0.0288905   0.0500399   0.0000000), wk =   0.1111111
        k(    8) = (   0.0288905  -0.1167597   0.0000000), wk =   0.1111111
        k(    9) = (   0.0288905  -0.0833998   0.0000000), wk =   0.1111111
        k(   10) = (   0.0288905  -0.0500399   0.0000000), wk =   0.1111111
        k(   11) = (   0.0577811  -0.0333599   0.0000000), wk =   0.1111111
        k(   12) = (   0.0577811  -0.0000000   0.0000000), wk =   0.1111111
        k(   13) = (   0.0577811   0.0333599   0.0000000), wk =   0.1111111
        k(   14) = (   0.0577811  -0.1334396   0.0000000), wk =   0.1111111
        k(   15) = (   0.0577811  -0.1000797   0.0000000), wk =   0.1111111
        k(   16) = (   0.0577811  -0.0667198   0.0000000), wk =   0.1111111
        k(   17) = (  -0.0866716   0.0500399   0.0000000), wk =   0.0555556
        k(   18) = (  -0.0866716   0.0833998   0.0000000), wk =   0.1111111
        k(   19) = (  -0.0866716   0.1167597   0.0000000), wk =   0.1111111
        k(   20) = (  -0.0866716  -0.0500399   0.0000000), wk =   0.0555556

     Largest allocated arrays     est. size (Mb)     dimensions
     Largest temporary arrays     est. size (Mb)     dimensions

     Check: negative/imaginary core charge=   -0.000006    0.000000

     Initial potential from superposition of free atoms
     Check: negative starting charge=   -0.012712

     starting charge  136.99946, renormalised to  149.00000

     negative rho (up, down):  1.383E-02 0.000E+00

     *
     * You are using vdW-DF for exchange-correlation in this calculation.
     * Please cite the following three references that made this development
     * possible:
     *
     *   M. Dion, H. Rydberg, E. Schroder, D. C. Langreth, and
     *   B. I. Lundqvist, Phys. Rev. Lett. 92, 246401 (2004).
     *
     *   T. Thonhauser, V. R. Cooper, S. Li, A. Puzder, P. Hyldgaard, and
     *   D. C. Langreth, Phys. Rev. B 76, 125112 (2007).
     *
     *   G. Roman-Perez and J. M. Soler, Phys. Rev. Lett. 103, 096102 (2009).
     *
     *
     * If you are using vdW-DF2, please also cite:
     *
     *   K. Lee, E. D. Murray, L. Kong, B. I. Lundqvist, and
     *   D. C. Langreth, Phys. Rev. B 82, 081101(R) (2010).
     *
     *
     * If you are calculating the stress with vdW-DF, please also cite:
     *
     *   R. Sabatini, E. Kucukbenli, B. Kolb, T. Thonhauser, and
     *   S. de Gironcoli, J. Phys.: Condens. Matter 24, 424209 (2012).
     *

     Carrying out vdW-DF run using the following parameters:

     Nqs =      20    Nr_points =    1024   r_max =   100.000
     q_mesh =
               0.00001000     0.04494208     0.09755937     0.15916263
               0.23128650     0.31572767     0.41458969     0.53033537
               0.66584808     0.82450364     1.01025438     1.22772762
               1.48234092     1.78043706     2.12944203     2.53805004
               3.01644009     3.57652955     4.23227104     5.00000000

     Gradients computed in reciprocal space

     Adding external electric field

     Computed dipole along edir(3) :
        Dipole               -3.8611 Ry au,         -9.8138 Debye
        Dipole field         -0.0101 Ry au

        Potential amp.        0.9193 Ry
        Total length         45.5283 bohr

     Starting wfc are  124 randomized atomic wfcs

     Self-consistent Calculation

     iteration #  1     ecut=    36.75 Ry     beta=0.30
     Davidson diagonalization with overlap
     ethr =  1.00E-02,  avg # of iterations =  6.2

[...]

     total energy              =   -1339.66958893 Ry
     Harris-Foulkes estimate   =   -1461.46326630 Ry
     estimated scf accuracy    <     252.25920903 Ry

     iteration #  2     ecut=    36.75 Ry     beta=0.30
     Davidson diagonalization with overlap
     c_bands:  1 eigenvalues not converged
     ethr =  1.00E-02,  avg # of iterations = 17.3

[...]

     End of self-consistent calculation

          k = 0.0000 0.0000 0.0000 ( 18103 PWs)   bands (ev):

   -57.0725 -56.9910 -56.9831 -56.9760 -56.9755 -56.8925 -56.8913 -56.8899
   -56.7899 -56.7157 -56.7151 -56.6998 -33.5139 -33.5138 -33.5086 -33.4522
   -33.4321 -33.4317 -33.4286 -33.3830 -33.3649 -33.3649 -33.2817 -33.2270
   -33.2059 -33.2056 -33.0909 -33.0905 -33.0903 -33.0875 -33.0757 -33.0756
   -33.0148 -33.0126 -33.0119 -32.9565 -32.9564 -32.9107 -32.9102 -32.9032
   -32.8854 -32.8854 -32.8777 -32.8176 -32.8135 -32.8133 -32.7005 -32.7004
   -11.3553  -5.4365  -4.0844  -2.8772  -2.3124  -2.3009  -2.3007  -2.1919
    -2.1918  -2.1752  -1.7776  -1.7775  -1.7729  -1.5331  -1.5324  -1.5324
    -1.0162  -0.9195  -0.9194  -0.3237  -0.2329  -0.2328  -0.0734   0.2124
     0.3097   0.3098   0.3503   0.5305   0.5931   0.5932   0.6092   0.7917
     0.7918   0.9708   0.9755   0.9961

[...]

          k =-0.0867 0.0500 0.0000 ( 18044 PWs)   bands (ev):

[...]

     the Fermi energy is     0.0165 ev

!    total energy              =   -1458.61459820 Ry
     Harris-Foulkes estimate   =   -1458.61459800 Ry
     estimated scf accuracy    <       0.00000278 Ry

     The total energy is the sum of the following terms:

     one-electron contribution =  -11031.40620635 Ry
     hartree contribution      =    5499.68104544 Ry
     xc contribution           =    -229.91657482 Ry
     ewald contribution        =    4303.15871022 Ry
     electric field correction =       0.00115023 Ry
     smearing contrib. (-TS)   =      -0.13272292 Ry

     convergence has been achieved in  32 iterations

 BEEF-vdW xc energy contributions
           1 :   -197.523375051134
           2 :    176.305758317666
           3 :   -141.609576604098
           4 :    104.564430454020
           5 :   -74.1989378657624
           6 :    53.9941765914168
           7 :   -41.9685429645470
           8 :    33.4854801445007
           9 :   -24.6386120355524
          10 :    14.1935015129341
          11 :   -3.39335055241821
          12 :   -5.68434723027937
          13 :    11.8409991935987
          14 :   -15.4444944904555
          15 :    17.8530922660898
          16 :   -20.2282692060535
[...]

[...]

     Total force =     0.166048     Total SCF correction =     0.014100

[...]

     Total force =     0.048542     Total SCF correction =     0.012651
     SCF correction compared to forces is large: reduce conv_thr to get better values

[...]

     Program PWSCF v.5.1rc2 (svn rev. 11289) starts on 20Jan2018 at 11: 2:54

[...]

   This run was terminated on:  11:46:18  20Jan2018

[...]

     Program PWSCF v.5.1rc2 (svn rev. 11289) starts on 20Jan2018 at 11:46:24

     Current dimensions of program PWSCF are:
     Max number of different atomic species (ntypx) = 10
     Max number of k-points (npk) =  40000
     Max angular momentum in pseudopotentials (lmaxx) =  3
     Presently stress not available with electric field

     IMPORTANT: XC functional enforced from input :
     Exchange-correlation      = BEEF-VDW ( 1  4 27 13 2)
     Any further DFT definition will be discarded
     Please, verify this is what you really want

     Subspace diagonalization in iterative solution of the eigenvalue problem:
     a serial algorithm will be used

     bravais-lattice index     =            0
     lattice parameter (alat)  =       1.8897  a.u.
     unit-cell volume          =    4806.0858 (a.u.)^3
     number of atoms/cell      =           13
     number of atomic types    =            2
     number of electrons       =       149.00
     number of Kohn-Sham states=           84
     kinetic-energy cutoff     =      36.7493  Ry
     charge density cutoff     =     367.4932  Ry
     convergence threshold     =      1.0E-05
     mixing beta               =       0.3000
     number of iterations used =           10  plain     mixing
     Exchange-correlation      = BEEF-VDW ( 1  4 27 13 2)
     nstep                     =           50

     celldm(1)=   1.889726  celldm(2)=   0.000000  celldm(3)=   0.000000
     celldm(4)=   0.000000  celldm(5)=   0.000000  celldm(6)=   0.000000

     crystal axes: (cart. coord. in units of alat)
               a(1) = (   5.768903   0.000000   0.000000 )
               a(2) = (   2.884451   4.996016   0.000000 )
               a(3) = (   0.000000   0.000000  24.710289 )

     reciprocal axes: (cart. coord. in units 2 pi/alat)
               b(1) = (  0.173343 -0.100080  0.000000 )
               b(2) = (  0.000000  0.200159  0.000000 )
               b(3) = (  0.000000  0.000000  0.040469 )

     PseudoPot. # 1 for Ti read from file:
     /afs/slac.stanford.edu/u/if/mamunm/psp/gbrv1.5pbe/Ti.UPF
     MD5 check sum: 88a00a6731bd790ddea75d31a80cb452
     Pseudo is Ultrasoft + core correction, Zval = 12.0
     Generated by new atomic code, or converted to UPF format
     Using radial grid of  851 points,  6 beta functions with:
                l(1) =   0
                l(2) =   0
                l(3) =   1
                l(4) =   1
                l(5) =   2
                l(6) =   2
     Q(r) pseudized with  6 coefficients,  rinner =    1.000   1.000   1.000
                                                       1.000   1.000

     PseudoPot. # 2 for N  read from file:
     /afs/slac.stanford.edu/u/if/mamunm/psp/gbrv1.5pbe/N.UPF
     MD5 check sum: 95339753478d7afb44899504a8723017
     Pseudo is Ultrasoft + core correction, Zval =  5.0
     Generated by new atomic code, or converted to UPF format
     Using radial grid of  729 points,  4 beta functions with:
                l(1) =   0
                l(2) =   0
                l(3) =   1
                l(4) =   1
     Q(r) pseudized with  8 coefficients,  rinner =    0.900   0.900   0.900

     vdW kernel table read from file vdW_kernel_table
     MD5 check sum: 095c7af220d748ca6e76c0b4c6cfb241

     atomic species   valence    mass     pseudopotential
        Ti1           12.00    47.86700     Ti( 1.00)
        N1             5.00    14.00700     N ( 1.00)

     No symmetry found

   Cartesian axes

     site n.     atom                  positions (alat units)
         1           Ti1 tau(   1) = (   1.4422257   0.8326694  10.0000000  )
         2           Ti1 tau(   2) = (   4.3266771   0.8326694  10.0000000  )
         3           Ti1 tau(   3) = (   2.8844514   3.3306776  10.0000000  )
         4           Ti1 tau(   4) = (   5.7689029   3.3306776  10.0000000  )
         5           Ti1 tau(   5) = (   5.7689029   1.6653388  12.3551447  )
         6           Ti1 tau(   6) = (   2.8844514   1.6653388  12.3551447  )
         7           Ti1 tau(   7) = (   7.2111286   4.1633470  12.3551447  )
         8           Ti1 tau(   8) = (   4.3266771   4.1633470  12.3551447  )
         9           Ti1 tau(   9) = (   0.0045122   0.0026844  14.7507993  )
        10           Ti1 tau(  10) = (   2.8801971   0.0025718  14.7507549  )
        11           Ti1 tau(  11) = (   1.4422394   2.4921327  14.7508764  )
        12           Ti1 tau(  12) = (   4.3267607   2.4979369  14.5545421  )
        13           N1  tau(  13) = (   1.4418736   0.8331806  15.6754438  )

     number of k points=    20  Fermi-Dirac smearing, width (Ry)=  0.0110
                       cart. coord. in units 2pi/alat
        k(    1) = (   0.0000000   0.0000000   0.0000000), wk =   0.0555556
        k(    2) = (   0.0000000   0.0333599   0.0000000), wk =   0.1111111
        k(    3) = (   0.0000000   0.0667198   0.0000000), wk =   0.1111111
        k(    4) = (   0.0000000  -0.1000797   0.0000000), wk =   0.0555556
        k(    5) = (   0.0288905  -0.0166800   0.0000000), wk =   0.1111111
        k(    6) = (   0.0288905   0.0166800   0.0000000), wk =   0.1111111
        k(    7) = (   0.0288905   0.0500399   0.0000000), wk =   0.1111111
        k(    8) = (   0.0288905  -0.1167597   0.0000000), wk =   0.1111111
        k(    9) = (   0.0288905  -0.0833998   0.0000000), wk =   0.1111111
        k(   10) = (   0.0288905  -0.0500399   0.0000000), wk =   0.1111111
        k(   11) = (   0.0577811  -0.0333599   0.0000000), wk =   0.1111111
        k(   12) = (   0.0577811  -0.0000000   0.0000000), wk =   0.1111111
        k(   13) = (   0.0577811   0.0333599   0.0000000), wk =   0.1111111
        k(   14) = (   0.0577811  -0.1334396   0.0000000), wk =   0.1111111
        k(   15) = (   0.0577811  -0.1000797   0.0000000), wk =   0.1111111
        k(   16) = (   0.0577811  -0.0667198   0.0000000), wk =   0.1111111
        k(   17) = (  -0.0866716   0.0500399   0.0000000), wk =   0.0555556
        k(   18) = (  -0.0866716   0.0833998   0.0000000), wk =   0.1111111
        k(   19) = (  -0.0866716   0.1167597   0.0000000), wk =   0.1111111
        k(   20) = (  -0.0866716  -0.0500399   0.0000000), wk =   0.0555556

     Largest allocated arrays     est. size (Mb)     dimensions
     Largest temporary arrays     est. size (Mb)     dimensions

     Check: negative/imaginary core charge=   -0.000006    0.000000

     Initial potential from superposition of free atoms
     Check: negative starting charge=   -0.012728

     starting charge  136.99946, renormalised to  149.00000

[...]

     *
     * You are using vdW-DF for exchange-correlation in this calculation.
     * Please cite the following three references that made this development
     * possible:
     *
     *   M. Dion, H. Rydberg, E. Schroder, D. C. Langreth, and
     *   B. I. Lundqvist, Phys. Rev. Lett. 92, 246401 (2004).
     *
     *   T. Thonhauser, V. R. Cooper, S. Li, A. Puzder, P. Hyldgaard, and
     *   D. C. Langreth, Phys. Rev. B 76, 125112 (2007).
     *
     *   G. Roman-Perez and J. M. Soler, Phys. Rev. Lett. 103, 096102 (2009).
     *
     *
     * If you are using vdW-DF2, please also cite:
     *
     *   K. Lee, E. D. Murray, L. Kong, B. I. Lundqvist, and
     *   D. C. Langreth, Phys. Rev. B 82, 081101(R) (2010).
     *
     *
     * If you are calculating the stress with vdW-DF, please also cite:
     *
     *   R. Sabatini, E. Kucukbenli, B. Kolb, T. Thonhauser, and
     *   S. de Gironcoli, J. Phys.: Condens. Matter 24, 424209 (2012).
     *

     Carrying out vdW-DF run using the following parameters:

     Nqs =      20    Nr_points =    1024   r_max =   100.000
     q_mesh =
               0.00001000     0.04494208     0.09755937     0.15916263
               0.23128650     0.31572767     0.41458969     0.53033537
               0.66584808     0.82450364     1.01025438     1.22772762
               1.48234092     1.78043706     2.12944203     2.53805004
               3.01644009     3.57652955     4.23227104     5.00000000

     Gradients computed in reciprocal space

[...]

     Starting wfc are  124 randomized atomic wfcs

     Self-consistent Calculation

[...]

     iteration # 25     ecut=    36.75 Ry     beta=0.30
     Davidson diagonalization with overlap
     c_bands:  1 eigenvalues not converged
     c_bands:  1 eigenvalues not converged
     ethr =  5.58E-07,  avg # of iterations =  6.7

[...]

     total energy              =   -1459.04757213 Ry
     Harris-Foulkes estimate   =   -1459.04757247 Ry
     estimated scf accuracy    <       0.00001563 Ry

     iteration # 32     ecut=    36.75 Ry     beta=0.30
     Davidson diagonalization with overlap
     ethr =  1.05E-08,  avg # of iterations =  4.2

[...]

     negative rho (up, down):  8.372E-03 0.000E+00

     Adding external electric field

     Computed dipole along edir(3) :
        Dipole               -0.0841 Ry au,         -0.2138 Debye
        Dipole field         -0.0002 Ry au

        Potential amp.        0.0200 Ry
        Total length         45.5283 bohr

     End of self-consistent calculation

[...]

          k = 0.0578-0.0667 0.0000 ( 18031 PWs)   bands (ev):

[...]

          k =-0.0867-0.0500 0.0000 ( 18044 PWs)   bands (ev):

   -56.2606 -56.2585 -56.2147 -56.2122 -56.1929 -56.1755 -56.1368 -56.1256
   -56.0265 -56.0220 -55.9868 -55.9855 -32.6648 -32.6625 -32.6443 -32.6311
   -32.6150 -32.5946 -32.5827 -32.5614 -32.5445 -32.5243 -32.5002 -32.4859
   -32.4762 -32.4738 -32.4495 -32.4309 -32.4290 -32.4178 -32.3802 -32.3741
   -32.3038 -32.2938 -32.2720 -32.2693 -32.2244 -32.2229 -32.2133 -32.1989
   -32.1880 -32.1743 -32.1579 -32.1467 -32.1356 -32.1284 -32.0409 -32.0276
   -12.7719  -3.5524  -3.1664  -2.8158  -2.7855  -2.5072  -1.8565  -1.5836
    -1.1721  -1.1318  -0.9017  -0.8933  -0.7726  -0.6340  -0.2427  -0.2036
    -0.1508  -0.0731  -0.0439  -0.0270   0.2811   0.3019   0.3388   0.3586
     0.3843   0.4267   0.5266   0.6513   0.6646   0.7365   0.7543   0.8546
     0.9534   1.0846   1.1862   1.3664

     the Fermi energy is     0.6981 ev

!    total energy              =   -1459.04757180 Ry
     Harris-Foulkes estimate   =   -1459.04757520 Ry
     estimated scf accuracy    <       0.00000249 Ry

     The total energy is the sum of the following terms:

     one-electron contribution =  -11342.75081943 Ry
     hartree contribution      =    5658.51453465 Ry
     xc contribution           =    -230.56861958 Ry
     ewald contribution        =    4455.88052306 Ry
     electric field correction =       0.00001851 Ry
     smearing contrib. (-TS)   =      -0.12320901 Ry

     convergence has been achieved in  32 iterations

 BEEF-vdW xc energy contributions
           1 :   -198.192324940255
           2 :    177.182400824491
           3 :   -142.655218112534
           4 :    105.519891110521
           5 :   -74.7921831395456
           6 :    54.1100815185646
           7 :   -41.6843758127041
           8 :    32.9931510150341
           9 :   -24.1354631199657
          10 :    13.8094285493445
          11 :   -3.17182739610632
          12 :   -5.76804484655185
          13 :    11.8412141631935
          14 :   -15.4052895875483
          15 :    17.7927531157751
          16 :   -20.1524917974929
          17 :    22.6083832422307
          18 :   -24.3106018089197
          19 :    24.2301316688643
          20 :   -22.0239276997916
          21 :    18.3101996686627
          22 :   -14.2104430510009
          23 :    10.5731433579370
          24 :   -7.49305339640699
          25 :    4.44394296924094
          26 :  -0.855173039971930
          27 :   -3.34788476182342
          28 :    7.63147582079870
          29 :   -11.2097045891484
          30 :    13.5619666549744
          31 :   -21.1031809896935
          32 :   -15.0455156931069

     Forces acting on atoms (Ry/au):

     negative rho (up, down):  8.372E-03 0.000E+00
     atom    1 type  1   force =    -0.00003373    0.00002529    0.00774049
     atom    2 type  1   force =     0.00003220    0.00080102    0.01031833
     atom    3 type  1   force =     0.00067838   -0.00039254    0.01028779
     atom    4 type  1   force =    -0.00067568   -0.00043099    0.01033713
     atom    5 type  1   force =    -0.00152699    0.00085417   -0.00952226
     atom    6 type  1   force =     0.00152698    0.00086843   -0.00951639
     atom    7 type  1   force =     0.00001802   -0.00000450   -0.01210124
     atom    8 type  1   force =    -0.00000884   -0.00174400   -0.00948092
     atom    9 type  1   force =     0.00029637    0.00011995   -0.00014974
     atom   10 type  1   force =    -0.00055016    0.00025572   -0.00003452
     atom   11 type  1   force =    -0.00000743    0.00012380   -0.00029528
     atom   12 type  1   force =     0.00002653   -0.00003382    0.00069543
     atom   13 type  2   force =     0.00022435   -0.00044252    0.00172118

     Total force =     0.028496     Total SCF correction =     0.005767
     SCF correction compared to forces is large: reduce conv_thr to get better values

     entering subroutine stress ...

     negative rho (up, down):  8.372E-03 0.000E+00
          total   stress  (Ry/bohr**3)                   (kbar)     P=    2.42
   0.00004178   0.00000007   0.00000007          6.15      0.01      0.01
   0.00000007   0.00004204  -0.00000013          0.01      6.18     -0.02
   0.00000007  -0.00000013  -0.00003447          0.01     -0.02     -5.07

 !ASE

     Writing output data file calc.save

     General routines

     Parallel routines

   This run was terminated on:  12: 7:57  20Jan2018

   JOB DONE.
Job  /afs/slac/g/suncat/bin/suncat-tsmpirun -x LD_LIBRARY_PATH -wdir /scratch/qe870136_5bVEn pw.x -in pw.inp

TID   HOST_NAME   COMMAND_LINE            STATUS            TERMINATION_TIME
00000 suncat1042 pw.x -in pw.inp   Done                     01/20/2018 12:07:57
00001 suncat1042 pw.x -in pw.inp   Done                     01/20/2018 12:07:57
00002 suncat1042 pw.x -in pw.inp   Done                     01/20/2018 12:07:57
00003 suncat1042 pw.x -in pw.inp   Done                     01/20/2018 12:07:57
00004 suncat1042 pw.x -in pw.inp   Done                     01/20/2018 12:07:57
00005 suncat1042 pw.x -in pw.inp   Done                     01/20/2018 12:07:57
00006 suncat1042 pw.x -in pw.inp   Done                     01/20/2018 12:07:57
00007 suncat1042 pw.x -in pw.inp   Done                     01/20/2018 12:07:57
00008 suncat1033 pw.x -in pw.inp   Done                     01/20/2018 12:07:57
00009 suncat1033 pw.x -in pw.inp   Done                     01/20/2018 12:07:57
00010 suncat1033 pw.x -in pw.inp   Done                     01/20/2018 12:07:57
00011 suncat1033 pw.x -in pw.inp   Done                     01/20/2018 12:07:57
00012 suncat1033 pw.x -in pw.inp   Done                     01/20/2018 12:07:57
00013 suncat1033 pw.x -in pw.inp   Done                     01/20/2018 12:07:57
00014 suncat1033 pw.x -in pw.inp   Done                     01/20/2018 12:07:57
00015 suncat1033 pw.x -in pw.inp   Done                     01/20/2018 12:07:57
00016 suncat1033 pw.x -in pw.inp   Done                     01/20/2018 12:07:57
00017 suncat1033 pw.x -in pw.inp   Done                     01/20/2018 12:07:57
00018 suncat1033 pw.x -in pw.inp   Done                     01/20/2018 12:07:57
00019 suncat1033 pw.x -in pw.inp   Done                     01/20/2018 12:07:57
00020 suncat1006 pw.x -in pw.inp   Done                     01/20/2018 12:07:57
00021 suncat1006 pw.x -in pw.inp   Done                     01/20/2018 12:07:57
00022 suncat1006 pw.x -in pw.inp   Done                     01/20/2018 12:07:57
00023 suncat1006 pw.x -in pw.inp   Done                     01/20/2018 12:07:57
00024 suncat1006 pw.x -in pw.inp   Done                     01/20/2018 12:07:57
00025 suncat1006 pw.x -in pw.inp   Done                     01/20/2018 12:07:57
00026 suncat1006 pw.x -in pw.inp   Done                     01/20/2018 12:07:57
00027 suncat1006 pw.x -in pw.inp   Done                     01/20/2018 12:07:57
00028 suncat1006 pw.x -in pw.inp   Done                     01/20/2018 12:07:57
00029 suncat1006 pw.x -in pw.inp   Done                     01/20/2018 12:07:57
00030 suncat1006 pw.x -in pw.inp   Done                     01/20/2018 12:07:57
00031 suncat1006 pw.x -in pw.inp   Done                     01/20/2018 12:07:57