     Program PWSCF v.5.1rc2 (svn rev. 11289) starts on  5Jul2018 at 23:26:40

     Current dimensions of program PWSCF are:
     Max number of different atomic species (ntypx) = 10
     Max number of k-points (npk) =  40000
     Max angular momentum in pseudopotentials (lmaxx) =  3
     Presently stress not available with electric field

     IMPORTANT: XC functional enforced from input :
     Exchange-correlation      = BEEF-VDW ( 1  4 27 13 2)
     Any further DFT definition will be discarded
     Please, verify this is what you really want

     Subspace diagonalization in iterative solution of the eigenvalue problem:
     a serial algorithm will be used

     Generating pointlists ...
     new r_m :   0.4125 (alat units)  0.7795 (a.u.) for type    1
     new r_m :   0.4125 (alat units)  0.7795 (a.u.) for type    2
     new r_m :   0.4125 (alat units)  0.7795 (a.u.) for type    3

     bravais-lattice index     =            0
     lattice parameter (alat)  =       1.8897  a.u.
     unit-cell volume          =    3747.1846 (a.u.)^3
     number of atoms/cell      =           16
     number of atomic types    =            3
     number of electrons       =       187.00
     number of Kohn-Sham states=          103
     kinetic-energy cutoff     =      36.7493  Ry
     charge density cutoff     =     367.4932  Ry
     convergence threshold     =      1.0E-05
     mixing beta               =       0.3000
     number of iterations used =           10  plain     mixing
     Exchange-correlation      = BEEF-VDW ( 1  4 27 13 2)
     nstep                     =           50

     celldm(1)=   1.889726  celldm(2)=   0.000000  celldm(3)=   0.000000
     celldm(4)=   0.000000  celldm(5)=   0.000000  celldm(6)=   0.000000

     crystal axes: (cart. coord. in units of alat)
               a(1) = (   5.147050   0.000000   0.000000 )
               a(2) = (   2.573525   4.457476   0.000000 )
               a(3) = (   0.000000   0.000000  24.202549 )

     reciprocal axes: (cart. coord. in units 2 pi/alat)
               b(1) = (  0.194286 -0.112171  0.000000 )
               b(2) = (  0.000000  0.224342  0.000000 )
               b(3) = (  0.000000  0.000000  0.041318 )

     PseudoPot. # 1 for Mn read from file:
     /u/if/mamunm/psp/gbrv1.5pbe/Mn.UPF
     MD5 check sum: 82ef2b46521d7a7d9e736dc3972e4928
     Pseudo is Ultrasoft + core correction, Zval = 15.0
     Generated by new atomic code, or converted to UPF format
     Using radial grid of  859 points,  6 beta functions with:
                l(1) =   0
                l(2) =   0
                l(3) =   1
                l(4) =   1
                l(5) =   2
                l(6) =   2
     Q(r) pseudized with  8 coefficients,  rinner =    0.950   0.950   0.950
                                                       0.950   0.950

     PseudoPot. # 2 for C  read from file:
     /u/if/mamunm/psp/gbrv1.5pbe/C.UPF
     MD5 check sum: d1aef80898a10debaa0f26306b886e00
     Pseudo is Ultrasoft + core correction, Zval =  4.0
     Generated by new atomic code, or converted to UPF format
     Using radial grid of  721 points,  4 beta functions with:
                l(1) =   0
                l(2) =   0
                l(3) =   1
                l(4) =   1
     Q(r) pseudized with  8 coefficients,  rinner =    1.100   1.100   1.100

     PseudoPot. # 3 for H  read from file:
     /u/if/mamunm/psp/gbrv1.5pbe/H.UPF
     MD5 check sum: 761ae9a214b05c3daf00ab9f6b793d6f
     Pseudo is Ultrasoft, Zval =  1.0
     Generated by new atomic code, or converted to UPF format
     Using radial grid of  615 points,  2 beta functions with:
                l(1) =   0
                l(2) =   0
     Q(r) pseudized with  8 coefficients,  rinner =    0.700

     vdW kernel table read from file vdW_kernel_table
     MD5 check sum: 095c7af220d748ca6e76c0b4c6cfb241

     atomic species   valence    mass     pseudopotential
        Mn1           15.00    54.93804     Mn( 1.00)
        C1             4.00    12.01100     C ( 1.00)
        H1             1.00     1.00800     H ( 1.00)

     Starting magnetic structure
     atomic species   magnetization
        Mn1          0.133
        C1           0.000
        H1           0.000

     No symmetry found

   Cartesian axes

     site n.     atom                  positions (alat units)
         1           Mn1 tau(   1) = (   1.2867625   0.7429127  10.0000000  )
         2           Mn1 tau(   2) = (   3.8602874   0.7429127  10.0000000  )
         3           Mn1 tau(   3) = (   2.5735249   2.9716506  10.0000000  )
         4           Mn1 tau(   4) = (   5.1470499   2.9716506  10.0000000  )
         5           Mn1 tau(   5) = (   5.1470499   1.4858253  12.1012743  )
         6           Mn1 tau(   6) = (   2.5735249   1.4858253  12.1012743  )
         7           Mn1 tau(   7) = (   6.4338123   3.7145633  12.1012743  )
         8           Mn1 tau(   8) = (   3.8602874   3.7145633  12.1012743  )
         9           Mn1 tau(   9) = (   0.0000000   0.0000000  14.2025486  )
        10           Mn1 tau(  10) = (   2.5735249   0.0000000  14.2025486  )
        11           Mn1 tau(  11) = (   1.2867625   2.2287380  14.2025486  )
        12           Mn1 tau(  12) = (   3.8602874   2.2287380  14.2025486  )
        13           C1  tau(  13) = (   0.0000000   0.0000000  16.0300486  )
        14           H1  tau(  14) = (   1.0900000   0.0000000  16.6600486  )
        15           H1  tau(  15) = (   4.6970499   0.8895000  16.6600486  )
        16           H1  tau(  16) = (   2.1235249   3.5679759  16.6600486  )

     number of k points=    40  Fermi-Dirac smearing, width (Ry)=  0.0110
                       cart. coord. in units 2pi/alat
        k(    1) = (   0.0000000   0.0000000   0.0000000), wk =   0.0277778
        k(    2) = (   0.0000000   0.0373904   0.0000000), wk =   0.0555556
        k(    3) = (   0.0000000   0.0747807   0.0000000), wk =   0.0555556
        k(    4) = (   0.0000000  -0.1121711   0.0000000), wk =   0.0277778
        k(    5) = (   0.0323810  -0.0186952   0.0000000), wk =   0.0555556
        k(    6) = (   0.0323810   0.0186952   0.0000000), wk =   0.0555556
        k(    7) = (   0.0323810   0.0560856   0.0000000), wk =   0.0555556
        k(    8) = (   0.0323810  -0.1308663   0.0000000), wk =   0.0555556
        k(    9) = (   0.0323810  -0.0934759   0.0000000), wk =   0.0555556
        k(   10) = (   0.0323810  -0.0560856   0.0000000), wk =   0.0555556
        k(   11) = (   0.0647620  -0.0373904   0.0000000), wk =   0.0555556
        k(   12) = (   0.0647620   0.0000000   0.0000000), wk =   0.0555556
        k(   13) = (   0.0647620   0.0373904   0.0000000), wk =   0.0555556
        k(   14) = (   0.0647620  -0.1495615   0.0000000), wk =   0.0555556
        k(   15) = (   0.0647620  -0.1121711   0.0000000), wk =   0.0555556
        k(   16) = (   0.0647620  -0.0747807   0.0000000), wk =   0.0555556
        k(   17) = (  -0.0971430   0.0560856   0.0000000), wk =   0.0277778
        k(   18) = (  -0.0971430   0.0934759   0.0000000), wk =   0.0555556
        k(   19) = (  -0.0971430   0.1308663   0.0000000), wk =   0.0555556
        k(   20) = (  -0.0971430  -0.0560856   0.0000000), wk =   0.0277778
        k(   21) = (   0.0000000   0.0000000   0.0000000), wk =   0.0277778
        k(   22) = (   0.0000000   0.0373904   0.0000000), wk =   0.0555556
        k(   23) = (   0.0000000   0.0747807   0.0000000), wk =   0.0555556
        k(   24) = (   0.0000000  -0.1121711   0.0000000), wk =   0.0277778
        k(   25) = (   0.0323810  -0.0186952   0.0000000), wk =   0.0555556
        k(   26) = (   0.0323810   0.0186952   0.0000000), wk =   0.0555556
        k(   27) = (   0.0323810   0.0560856   0.0000000), wk =   0.0555556
        k(   28) = (   0.0323810  -0.1308663   0.0000000), wk =   0.0555556
        k(   29) = (   0.0323810  -0.0934759   0.0000000), wk =   0.0555556
        k(   30) = (   0.0323810  -0.0560856   0.0000000), wk =   0.0555556
        k(   31) = (   0.0647620  -0.0373904   0.0000000), wk =   0.0555556
        k(   32) = (   0.0647620   0.0000000   0.0000000), wk =   0.0555556
        k(   33) = (   0.0647620   0.0373904   0.0000000), wk =   0.0555556
        k(   34) = (   0.0647620  -0.1495615   0.0000000), wk =   0.0555556
        k(   35) = (   0.0647620  -0.1121711   0.0000000), wk =   0.0555556
        k(   36) = (   0.0647620  -0.0747807   0.0000000), wk =   0.0555556
        k(   37) = (  -0.0971430   0.0560856   0.0000000), wk =   0.0277778
        k(   38) = (  -0.0971430   0.0934759   0.0000000), wk =   0.0555556
        k(   39) = (  -0.0971430   0.1308663   0.0000000), wk =   0.0555556
        k(   40) = (  -0.0971430  -0.0560856   0.0000000), wk =   0.0277778

     Largest allocated arrays     est. size (Mb)     dimensions
     Largest temporary arrays     est. size (Mb)     dimensions

     Check: negative/imaginary core charge=   -0.000010    0.000000

     Initial potential from superposition of free atoms
     Check: negative starting charge=(component1):   -0.001387
     Check: negative starting charge=(component2):   -0.001050

     starting charge  180.99891, renormalised to  187.00000

     negative rho (up, down):  1.433E-03 1.084E-03

     *
     * You are using vdW-DF for exchange-correlation in this calculation.
     * Please cite the following three references that made this development
     * possible:
     *
     *   M. Dion, H. Rydberg, E. Schroder, D. C. Langreth, and
     *   B. I. Lundqvist, Phys. Rev. Lett. 92, 246401 (2004).
     *
     *   T. Thonhauser, V. R. Cooper, S. Li, A. Puzder, P. Hyldgaard, and
     *   D. C. Langreth, Phys. Rev. B 76, 125112 (2007).
     *
     *   G. Roman-Perez and J. M. Soler, Phys. Rev. Lett. 103, 096102 (2009).
     *
     *
     * If you are using vdW-DF2, please also cite:
     *
     *   K. Lee, E. D. Murray, L. Kong, B. I. Lundqvist, and
     *   D. C. Langreth, Phys. Rev. B 82, 081101(R) (2010).
     *
     *
     * If you are calculating the stress with vdW-DF, please also cite:
     *
     *   R. Sabatini, E. Kucukbenli, B. Kolb, T. Thonhauser, and
     *   S. de Gironcoli, J. Phys.: Condens. Matter 24, 424209 (2012).
     *

     Carrying out vdW-DF run using the following parameters:

     Nqs =      20    Nr_points =    1024   r_max =   100.000
     q_mesh =
               0.00001000     0.04494208     0.09755937     0.15916263
               0.23128650     0.31572767     0.41458969     0.53033537
               0.66584808     0.82450364     1.01025438     1.22772762
               1.48234092     1.78043706     2.12944203     2.53805004
               3.01644009     3.57652955     4.23227104     5.00000000

     Gradients computed in reciprocal space

     Adding external electric field

     Computed dipole along edir(3) :
        Dipole               -1.8410 Ry au,         -4.6792 Debye
        Dipole field         -0.0062 Ry au

        Potential amp.        0.5506 Ry
        Total length         44.5928 bohr

[...]

     Starting wfc are  163 randomized atomic wfcs

     Self-consistent Calculation

     iteration #  1     ecut=    36.75 Ry     beta=0.30
     Davidson diagonalization with overlap
[...]
          22 :   -3.00087472798953
          23 :    3.03856161076681
          24 :   -2.66068614696525
          25 :    2.23765776903957
          26 :   -2.13271454277884
          27 :    2.51951589719249
          28 :   -3.26843153907049
          29 :    4.00287499610727
          30 :   -4.32399094245511
          31 :   -27.1028761683796
          32 :   -19.2444282574847

     Forces acting on atoms (Ry/au):

     negative rho (up, down):  1.791E-03 1.661E-03
     atom    1 type  1   force =     0.00131616    0.00088590    0.00601839
     atom    2 type  1   force =    -0.00142291    0.00076689    0.00618932
     atom    3 type  1   force =     0.00016191   -0.00160750    0.00616294
     atom    4 type  1   force =     0.00001837   -0.00000991   -0.00994051
     atom    5 type  1   force =    -0.00011963   -0.00298334    0.01340588
     atom    6 type  1   force =     0.00004307   -0.00007158    0.00080679
     atom    7 type  1   force =     0.00244832    0.00141814    0.01365710
     atom    8 type  1   force =    -0.00238657    0.00171522    0.01336270
     atom    9 type  1   force =    -0.00065804    0.00008481   -0.11329366
     atom   10 type  1   force =    -0.00240379    0.00224989   -0.01691921
     atom   11 type  1   force =     0.00319003    0.00134947   -0.01862229
     atom   12 type  1   force =    -0.00055375   -0.00373992   -0.01870983
     atom   13 type  2   force =     0.04328243   -0.00006467    0.27698024
     atom   14 type  3   force =    -0.07226574    0.00005790   -0.06527120
     atom   15 type  3   force =     0.01468069   -0.04021630   -0.04692260
     atom   16 type  3   force =     0.01466944    0.04016500   -0.04690406

     Total force =     0.331652     Total SCF correction =     0.004163

     entering subroutine stress ...

     negative rho (up, down):  1.791E-03 1.661E-03
          total   stress  (Ry/bohr**3)                   (kbar)     P=  -12.71
  -0.00012341  -0.00000017  -0.00001344        -18.15     -0.02     -1.98
  -0.00000017  -0.00011233  -0.00000020         -0.02    -16.52     -0.03
  -0.00001344  -0.00000020  -0.00002344         -1.98     -0.03     -3.45

     BFGS Geometry Optimization

     number of scf cycles    =   1
     number of bfgs steps    =   0

     energy   new            =   -2560.4381039713 Ry

     new trust radius        =       0.2803416268 bohr
     new conv_thr            =       0.0000099958 Ry

ATOMIC_POSITIONS (crystal)
Mn1      0.166666667   0.166666667   0.413179627    0   0   0
Mn1      0.666666667   0.166666667   0.413179627    0   0   0
Mn1      0.166666667   0.666666667   0.413179627    0   0   0
Mn1      0.666666667   0.666666667   0.413179627    0   0   0
Mn1      0.833333333   0.333333333   0.500000000    0   0   0
Mn1      0.333333333   0.333333333   0.500000000    0   0   0
Mn1      0.833333333   0.833333333   0.500000000    0   0   0
Mn1      0.333333333   0.833333333   0.500000000    0   0   0
Mn1     -0.000072688   0.000010068   0.584343261
Mn1      0.499619312   0.000267099   0.586450443
Mn1      0.000247871   0.500160204   0.586413206
Mn1      0.500165064   0.499556008   0.586411292
C1       0.004453782  -0.000007678   0.668384991
H1       0.204338593   0.000006873   0.686932143
H1       0.816691601   0.194778046   0.687333326
H1       0.011471535   0.805215864   0.687333732

     Writing output data file calc.save
     Check: negative starting charge=(component1):   -0.002436
     NEW-OLD atomic charge density approx. for the potential

     Check: negative/imaginary core charge=   -0.000010    0.000000
     Check: negative starting charge=(component1):   -0.002447

[...]

     energy   old            =   -2560.4381039712 Ry
     energy   new            =   -2560.4974907956 Ry

     CASE: energy  _new < energy  _old

[...]

     Total force =     0.006169     Total SCF correction =     0.001411
     SCF correction compared to forces is large: reduce conv_thr to get better values

[...]

     Total force =     0.003311     Total SCF correction =     0.000683
     SCF correction compared to forces is large: reduce conv_thr to get better values

[...]

     number of scf cycles    =  20
     number of bfgs steps    =  19

     energy   old            =   -2560.5074790890 Ry
     energy   new            =   -2560.5075436391 Ry

     CASE: energy  _new < energy  _old

     new trust radius        =       0.0044564818 bohr
     new conv_thr            =       0.0000001000 Ry

ATOMIC_POSITIONS (crystal)
Mn1      0.166666667   0.166666667   0.413179627    0   0   0
Mn1      0.666666667   0.166666667   0.413179627    0   0   0
Mn1      0.166666667   0.666666667   0.413179627    0   0   0
Mn1      0.666666667   0.666666667   0.413179627    0   0   0
Mn1      0.833333333   0.333333333   0.500000000    0   0   0
Mn1      0.333333333   0.333333333   0.500000000    0   0   0
Mn1      0.833333333   0.833333333   0.500000000    0   0   0
Mn1      0.333333333   0.833333333   0.500000000    0   0   0
Mn1     -0.000548087   0.000039441   0.589273669
Mn1      0.498560493  -0.001020702   0.581143905
Mn1     -0.002380402   0.501154711   0.580988769
Mn1      0.499714579   0.500043570   0.581116039
C1       0.013268406  -0.000120370   0.674128771
H1       0.211347019   0.000073740   0.690834329
H1       0.813638026   0.198383834   0.690397112
H1       0.012203689   0.801438045   0.690442912

     Writing output data file calc.save
     Check: negative starting charge=(component1):   -0.002453
     NEW-OLD atomic charge density approx. for the potential

     Check: negative/imaginary core charge=   -0.000010    0.000000
     Check: negative starting charge=(component1):   -0.002455

[...]

     Self-consistent Calculation

[...]

     iteration #  8     ecut=    36.75 Ry     beta=0.30
     Davidson diagonalization with overlap
     c_bands:  1 eigenvalues not converged
     ethr =  2.12E-08,  avg # of iterations =  4.6

[...]

     total energy              =   -2560.50755701 Ry
     Harris-Foulkes estimate   =   -2560.50755703 Ry
     estimated scf accuracy    <       0.00000024 Ry

[...]

     iteration # 26     ecut=    36.75 Ry     beta=0.30
     Davidson diagonalization with overlap
     ethr =  6.81E-11,  avg # of iterations =  5.6

[...]

     negative rho (up, down):  1.810E-03 1.706E-03

[...]

     Adding external electric field

     Computed dipole along edir(3) :
        Dipole                0.0365 Ry au,          0.0929 Debye
        Dipole field          0.0001 Ry au

        Potential amp.       -0.0109 Ry
        Total length         44.5928 bohr

     Magnetic moment per site:
     atom:    1    charge:    6.0039    magn:    1.1310    constr:    0.0000
     atom:    2    charge:    6.0039    magn:    1.1315    constr:    0.0000
     atom:    3    charge:    6.0039    magn:    1.1313    constr:    0.0000
     atom:    4    charge:    6.0020    magn:   -1.2172    constr:    0.0000
     atom:    5    charge:    5.9879    magn:   -0.6660    constr:    0.0000
     atom:    6    charge:    5.9901    magn:   -0.8078    constr:    0.0000
     atom:    7    charge:    5.9878    magn:   -0.6604    constr:    0.0000
     atom:    8    charge:    5.9880    magn:   -0.6715    constr:    0.0000
     atom:    9    charge:    5.8995    magn:    0.8312    constr:    0.0000
     atom:   10    charge:    5.5341    magn:    0.8720    constr:    0.0000
     atom:   11    charge:    5.5101    magn:    0.8660    constr:    0.0000
     atom:   12    charge:    5.5327    magn:    0.8762    constr:    0.0000
     atom:   13    charge:    0.5756    magn:   -0.0119    constr:    0.0000
     atom:   14    charge:    0.4232    magn:    0.0060    constr:    0.0000
     atom:   15    charge:    0.4203    magn:    0.0065    constr:    0.0000
     atom:   16    charge:    0.4206    magn:    0.0065    constr:    0.0000

     End of self-consistent calculation

 ------ SPIN UP ------------

[...]

 ------ SPIN DOWN ----------

[...]

          k = 0.0648-0.0748 0.0000 ( 14076 PWs)   bands (ev):

[...]

          k =-0.0971-0.0561 0.0000 ( 14098 PWs)   bands (ev):

   -79.5261 -78.9942 -78.7300 -78.6970 -78.6966 -76.4012 -76.3638 -76.3338
   -76.3296 -76.1045 -76.0881 -76.0705 -48.2359 -48.2293 -48.2237 -47.8123
   -47.7114 -47.6543 -47.5915 -47.5253 -47.5154 -47.4693 -47.3836 -47.3742
   -47.3393 -47.3043 -47.2188 -45.3104 -45.2851 -45.2034 -45.1670 -45.1339
   -45.1280 -45.0843 -45.0827 -45.0579 -45.0561 -45.0315 -45.0272 -44.9970
   -44.9096 -44.8918 -44.8838 -44.8788 -44.8362 -44.8223 -44.8080 -44.7392
   -10.8414  -4.2361  -4.0433  -3.9747  -3.8972  -2.6271  -2.5097  -2.1456
    -2.0495  -1.9640  -1.9499  -1.7645  -1.7264  -1.5631  -1.5198  -1.2701
    -1.1853  -1.1244  -0.9714  -0.8493  -0.8166  -0.8131  -0.7087  -0.4669
    -0.4288  -0.3393  -0.1402  -0.1164   0.1708   0.3510   0.4684   0.6004
     0.6111   0.7121   0.7621   0.7813   0.8450   0.9306   1.0160   1.1221
     1.1560   1.2768   1.3807   1.4350   1.4977   1.5111   1.7448   2.0877
     2.1504   2.1986   2.3205   2.3466   2.4229   2.4955   2.5720

     the Fermi energy is     1.4471 ev

!    total energy              =   -2560.50755704 Ry
     Harris-Foulkes estimate   =   -2560.50755702 Ry
     estimated scf accuracy    <       0.00000003 Ry

     The total energy is the sum of the following terms:

     one-electron contribution =  -23095.59594270 Ry
     hartree contribution      =   11547.79154072 Ry
     xc contribution           =    -336.76054103 Ry
     ewald contribution        =    9324.16071469 Ry
     electric field correction =       0.00000448 Ry
     smearing contrib. (-TS)   =      -0.10333320 Ry

     total magnetization       =     7.89 Bohr mag/cell
     absolute magnetization    =    28.62 Bohr mag/cell

     convergence has been achieved in  26 iterations

 BEEF-vdW xc energy contributions
           1 :   -293.510230181544
           2 :    264.999574768015
           3 :   -217.470606032949
           4 :    164.978358671762
           5 :   -119.828827165012
           6 :    88.3320989901618
           7 :   -70.0826573458584
           8 :    60.2431321636565
           9 :   -53.0900362672601
          10 :    44.8902258092049
          11 :   -34.9379146219430
          12 :    24.7360225275535
          13 :   -16.2781059500450
          14 :    10.6336444236288
          15 :   -7.53571898543044
          16 :    5.87108070197974
          17 :   -4.49240967263552
          18 :    2.79119924788120
          19 :  -0.803957918590186
          20 :   -1.05319873216263
          21 :    2.35766037420763
          22 :   -2.93227713201912
          23 :    2.89304581400665
          24 :   -2.55211493401259
          25 :    2.26877199633208
          26 :   -2.30972133069019
          27 :    2.74540218381094
          28 :   -3.41955361250967
          29 :    4.02368920266576
          30 :   -4.26312347958901
          31 :   -27.1331430706945
          32 :   -19.2665379064553

     Forces acting on atoms (Ry/au):

     negative rho (up, down):  1.810E-03 1.706E-03
     atom    1 type  1   force =     0.00124963    0.00082470    0.00390560
     atom    2 type  1   force =    -0.00144852    0.00073122    0.00394794
     atom    3 type  1   force =    -0.00008183   -0.00154665    0.00391670
     atom    4 type  1   force =     0.00020678    0.00000086   -0.00959723
     atom    5 type  1   force =    -0.00031783   -0.00709939    0.00511357
     atom    6 type  1   force =    -0.00001982   -0.00012801   -0.01774682
     atom    7 type  1   force =     0.00562166    0.00355664    0.00466791
     atom    8 type  1   force =    -0.00649586    0.00367981    0.00582770
     atom    9 type  1   force =     0.00016723   -0.00005718   -0.00028420
     atom   10 type  1   force =    -0.00064641   -0.00017910    0.00008559
     atom   11 type  1   force =     0.00025327    0.00071233    0.00004466
     atom   12 type  1   force =     0.00050796   -0.00048212    0.00002442
     atom   13 type  2   force =     0.00021822    0.00000530   -0.00017545
     atom   14 type  3   force =    -0.00053971    0.00000181   -0.00018850
     atom   15 type  3   force =     0.00064280    0.00023936    0.00023705
     atom   16 type  3   force =     0.00068244   -0.00025959    0.00022105

     Total force =     0.001774     Total SCF correction =     0.000086

     entering subroutine stress ...

     negative rho (up, down):  1.810E-03 1.706E-03
          total   stress  (Ry/bohr**3)                   (kbar)     P=   -9.03
  -0.00008349   0.00000086   0.00000258        -12.28      0.13      0.38
   0.00000086  -0.00008220  -0.00000006          0.13    -12.09     -0.01
   0.00000258  -0.00000006  -0.00001855          0.38     -0.01     -2.73

     bfgs converged in  21 scf cycles and  20 bfgs steps
     (criteria: energy <  1.0E+00, force <  1.9E-03)

     End of BFGS Geometry Optimization

     Final energy   =   -2560.5075570447 Ry
Begin final coordinates

ATOMIC_POSITIONS (crystal)
Mn1      0.166666667   0.166666667   0.413179627    0   0   0
Mn1      0.666666667   0.166666667   0.413179627    0   0   0
Mn1      0.166666667   0.666666667   0.413179627    0   0   0
Mn1      0.666666667   0.666666667   0.413179627    0   0   0
Mn1      0.833333333   0.333333333   0.500000000    0   0   0
Mn1      0.333333333   0.333333333   0.500000000    0   0   0
Mn1      0.833333333   0.833333333   0.500000000    0   0   0
Mn1      0.333333333   0.833333333   0.500000000    0   0   0
Mn1     -0.000548087   0.000039441   0.589273669
Mn1      0.498560493  -0.001020702   0.581143905
Mn1     -0.002380402   0.501154711   0.580988769
Mn1      0.499714579   0.500043570   0.581116039
C1       0.013268406  -0.000120370   0.674128771
H1       0.211347019   0.000073740   0.690834329
H1       0.813638026   0.198383834   0.690397112
H1       0.012203689   0.801438045   0.690442912
End final coordinates

     Writing output data file calc.save

     General routines

     Parallel routines

   This run was terminated on:   6:58:16   6Jul2018

   JOB DONE.
Job  /afs/slac/g/suncat/bin/suncat-tsmpirun -x LD_LIBRARY_PATH -wdir /scratch/qe287392_iDQfQ pw.x -npool 4 -in pw.inp

TID   HOST_NAME   COMMAND_LINE            STATUS            TERMINATION_TIME
00000 suncat0087 pw.x -npool 4 -i  Done                     07/06/2018 06:58:16
00001 suncat0087 pw.x -npool 4 -i  Done                     07/06/2018 06:58:16
00002 suncat0087 pw.x -npool 4 -i  Done                     07/06/2018 06:58:16
00003 suncat0087 pw.x -npool 4 -i  Done                     07/06/2018 06:58:16
00004 suncat0087 pw.x -npool 4 -i  Done                     07/06/2018 06:58:16
00005 suncat0087 pw.x -npool 4 -i  Done                     07/06/2018 06:58:16
00006 suncat0087 pw.x -npool 4 -i  Done                     07/06/2018 06:58:16
00007 suncat0087 pw.x -npool 4 -i  Done                     07/06/2018 06:58:16
00008 suncat0086 pw.x -npool 4 -i  Done                     07/06/2018 06:58:16
00009 suncat0086 pw.x -npool 4 -i  Done                     07/06/2018 06:58:16
00010 suncat0086 pw.x -npool 4 -i  Done                     07/06/2018 06:58:16
00011 suncat0086 pw.x -npool 4 -i  Done                     07/06/2018 06:58:16
00012 suncat0086 pw.x -npool 4 -i  Done                     07/06/2018 06:58:16
00013 suncat0086 pw.x -npool 4 -i  Done                     07/06/2018 06:58:16
00014 suncat0086 pw.x -npool 4 -i  Done                     07/06/2018 06:58:16
00015 suncat0086 pw.x -npool 4 -i  Done                     07/06/2018 06:58:16
00016 suncat0031 pw.x -npool 4 -i  Done                     07/06/2018 06:58:16
00017 suncat0031 pw.x -npool 4 -i  Done                     07/06/2018 06:58:16
00018 suncat0031 pw.x -npool 4 -i  Done                     07/06/2018 06:58:16
00019 suncat0031 pw.x -npool 4 -i  Done                     07/06/2018 06:58:16
00020 suncat0031 pw.x -npool 4 -i  Done                     07/06/2018 06:58:16
00021 suncat0031 pw.x -npool 4 -i  Done                     07/06/2018 06:58:16
00022 suncat0031 pw.x -npool 4 -i  Done                     07/06/2018 06:58:16
00023 suncat0031 pw.x -npool 4 -i  Done                     07/06/2018 06:58:16
00024 suncat0028 pw.x -npool 4 -i  Done                     07/06/2018 06:58:16
00025 suncat0028 pw.x -npool 4 -i  Done                     07/06/2018 06:58:16
00026 suncat0028 pw.x -npool 4 -i  Done                     07/06/2018 06:58:16
00027 suncat0028 pw.x -npool 4 -i  Done                     07/06/2018 06:58:16
00028 suncat0028 pw.x -npool 4 -i  Done                     07/06/2018 06:58:16
00029 suncat0028 pw.x -npool 4 -i  Done                     07/06/2018 06:58:16
00030 suncat0028 pw.x -npool 4 -i  Done                     07/06/2018 06:58:16
00031 suncat0028 pw.x -npool 4 -i  Done                     07/06/2018 06:58:16