     Program PWSCF v.5.1rc2 (svn rev. ) starts on  4Feb2018 at 11:48:42

     Current dimensions of program PWSCF are:
     Max number of different atomic species (ntypx) = 10
     Max number of k-points (npk) =  40000
     Max angular momentum in pseudopotentials (lmaxx) =  3
     Presently stress not available with electric field

     IMPORTANT: XC functional enforced from input :
     Exchange-correlation      = BEEF-VDW ( 1  4 27 13 2)
     Any further DFT definition will be discarded
     Please, verify this is what you really want

     Subspace diagonalization in iterative solution of the eigenvalue problem:
     a serial algorithm will be used

     bravais-lattice index     =            0
     lattice parameter (alat)  =       1.8897  a.u.
     unit-cell volume          =    8507.0471 (a.u.)^3
     number of atoms/cell      =           13
     number of atomic types    =            2
     number of electrons       =       136.00
     number of Kohn-Sham states=           78
     kinetic-energy cutoff     =      36.7493  Ry
     charge density cutoff     =     367.4932  Ry
     convergence threshold     =      1.0E-05
     mixing beta               =       0.3000
     number of iterations used =           10  plain     mixing
     Exchange-correlation      = BEEF-VDW ( 1  4 27 13 2)
     nstep                     =           50

     celldm(1)=   1.889726  celldm(2)=   0.000000  celldm(3)=   0.000000
     celldm(4)=   0.000000  celldm(5)=   0.000000  celldm(6)=   0.000000

     crystal axes: (cart. coord. in units of alat)
               a(1) = (   7.468327   0.000000   0.000000 )
               a(2) = (   3.734164   6.467761   0.000000 )
               a(3) = (   0.000000   0.000000  26.097863 )

     reciprocal axes: (cart. coord. in units 2 pi/alat)
               b(1) = (  0.133899 -0.077307  0.000000 )
               b(2) = (  0.000000  0.154613  0.000000 )
               b(3) = (  0.000000  0.000000  0.038317 )

     PseudoPot. # 1 for La read from file:
     /home/mamunm/src/pseudo/gbrv1.5pbe/La.UPF
     MD5 check sum: 5937b0c7494ba0601a847275249473aa
     Pseudo is Ultrasoft + core correction, Zval = 11.0
     Generated by new atomic code, or converted to UPF format
     Using radial grid of  995 points,  8 beta functions with:
                l(1) =   0
                l(2) =   0
                l(3) =   1
                l(4) =   1
                l(5) =   2
                l(6) =   2
                l(7) =   3
                l(8) =   3
     Q(r) pseudized with  8 coefficients,  rinner =    1.700   1.700   1.700
                                                       1.700   1.700   1.700
                                                       1.700

     PseudoPot. # 2 for C  read from file:
     /home/mamunm/src/pseudo/gbrv1.5pbe/C.UPF
     MD5 check sum: d1aef80898a10debaa0f26306b886e00
     Pseudo is Ultrasoft + core correction, Zval =  4.0
     Generated by new atomic code, or converted to UPF format
     Using radial grid of  721 points,  4 beta functions with:
                l(1) =   0
                l(2) =   0
                l(3) =   1
                l(4) =   1
     Q(r) pseudized with  8 coefficients,  rinner =    1.100   1.100   1.100

     vdW kernel table read from file vdW_kernel_table
     MD5 check sum: 095c7af220d748ca6e76c0b4c6cfb241

     atomic species   valence    mass     pseudopotential
        La1           11.00   138.90547     La( 1.00)
        C1             4.00    12.01100     C ( 1.00)

     No symmetry found

   Cartesian axes

     site n.     atom                  positions (alat units)
         1           La1 tau(   1) = (   1.8670818   1.0779602  10.0000000  )
         2           La1 tau(   2) = (   5.6012453   1.0779602  10.0000000  )
         3           La1 tau(   3) = (   3.7341635   4.3118406  10.0000000  )
         4           La1 tau(   4) = (   7.4683270   4.3118406  10.0000000  )
         5           La1 tau(   5) = (   7.4683270   2.1559203  13.0489317  )
         6           La1 tau(   6) = (   3.7341635   2.1559203  13.0489317  )
         7           La1 tau(   7) = (   9.3354088   5.3898008  13.0489317  )
         8           La1 tau(   8) = (   5.6012453   5.3898008  13.0489317  )
         9           La1 tau(   9) = (   0.0000000   0.0000000  16.0978635  )
        10           La1 tau(  10) = (   3.7341635   0.0000000  16.0978635  )
        11           La1 tau(  11) = (   1.8670818   3.2338805  16.0978635  )
        12           La1 tau(  12) = (   5.6012453   3.2338805  16.0978635  )
        13           C1  tau(  13) = (   0.0000000   0.0000000  18.5033635  )

     number of k points=    20  Fermi-Dirac smearing, width (Ry)=  0.0110
                       cart. coord. in units 2pi/alat
        k(    1) = (   0.0000000   0.0000000   0.0000000), wk =   0.0555556
        k(    2) = (   0.0000000   0.0257688   0.0000000), wk =   0.1111111
        k(    3) = (   0.0000000   0.0515377   0.0000000), wk =   0.1111111
        k(    4) = (   0.0000000  -0.0773065   0.0000000), wk =   0.0555556
        k(    5) = (   0.0223165  -0.0128844   0.0000000), wk =   0.1111111
        k(    6) = (   0.0223165   0.0128844   0.0000000), wk =   0.1111111
        k(    7) = (   0.0223165   0.0386533   0.0000000), wk =   0.1111111
        k(    8) = (   0.0223165  -0.0901909   0.0000000), wk =   0.1111111
        k(    9) = (   0.0223165  -0.0644221   0.0000000), wk =   0.1111111
        k(   10) = (   0.0223165  -0.0386533   0.0000000), wk =   0.1111111
        k(   11) = (   0.0446329  -0.0257688   0.0000000), wk =   0.1111111
        k(   12) = (   0.0446329   0.0000000   0.0000000), wk =   0.1111111
        k(   13) = (   0.0446329   0.0257688   0.0000000), wk =   0.1111111
        k(   14) = (   0.0446329  -0.1030753   0.0000000), wk =   0.1111111
        k(   15) = (   0.0446329  -0.0773065   0.0000000), wk =   0.1111111
        k(   16) = (   0.0446329  -0.0515377   0.0000000), wk =   0.1111111
        k(   17) = (  -0.0669494   0.0386533   0.0000000), wk =   0.0555556
        k(   18) = (  -0.0669494   0.0644221   0.0000000), wk =   0.1111111
        k(   19) = (  -0.0669494   0.0901909   0.0000000), wk =   0.1111111
        k(   20) = (  -0.0669494  -0.0386533   0.0000000), wk =   0.0555556

     Largest allocated arrays     est. size (Mb)     dimensions
     Largest temporary arrays     est. size (Mb)     dimensions

     Initial potential from superposition of free atoms
     Check: negative starting charge=   -0.830958

     starting charge  135.61514, renormalised to  136.00000

     negative rho (up, down):  8.333E-01 0.000E+00

     *
     * You are using vdW-DF for exchange-correlation in this calculation.
     * Please cite the following three references that made this development
     * possible:
     *
     *   M. Dion, H. Rydberg, E. Schroder, D. C. Langreth, and
     *   B. I. Lundqvist, Phys. Rev. Lett. 92, 246401 (2004).
     *
     *   T. Thonhauser, V. R. Cooper, S. Li, A. Puzder, P. Hyldgaard, and
     *   D. C. Langreth, Phys. Rev. B 76, 125112 (2007).
     *
     *   G. Roman-Perez and J. M. Soler, Phys. Rev. Lett. 103, 096102 (2009).
     *
     *
     * If you are using vdW-DF2, please also cite:
     *
     *   K. Lee, E. D. Murray, L. Kong, B. I. Lundqvist, and
     *   D. C. Langreth, Phys. Rev. B 82, 081101(R) (2010).
     *
     *
     * If you are calculating the stress with vdW-DF, please also cite:
     *
     *   R. Sabatini, E. Kucukbenli, B. Kolb, T. Thonhauser, and
     *   S. de Gironcoli, J. Phys.: Condens. Matter 24, 424209 (2012).
     *

     Carrying out vdW-DF run using the following parameters:

     Nqs =      20    Nr_points =    1024   r_max =   100.000
     q_mesh =
               0.00001000     0.04494208     0.09755937     0.15916263
               0.23128650     0.31572767     0.41458969     0.53033537
               0.66584808     0.82450364     1.01025438     1.22772762
               1.48234092     1.78043706     2.12944203     2.53805004
               3.01644009     3.57652955     4.23227104     5.00000000

     Gradients computed in reciprocal space

     Adding external electric field

     Computed dipole along edir(3) :
        Dipole               -0.1166 Ry au,         -0.2963 Debye
        Dipole field         -0.0002 Ry au

        Potential amp.        0.0166 Ry
        Total length         48.0849 bohr

     Starting wfc are  244 randomized atomic wfcs

     Self-consistent Calculation

     iteration #  1     ecut=    36.75 Ry     beta=0.30
     Davidson diagonalization with overlap
     ethr =  1.00E-02,  avg # of iterations =  2.0

[...]

     total energy              =   -1256.49479911 Ry
     Harris-Foulkes estimate   =   -1260.13314470 Ry
     estimated scf accuracy    <       7.55834445 Ry

[...]

     iteration # 11     ecut=    36.75 Ry     beta=0.30
     Davidson diagonalization with overlap
     c_bands:  1 eigenvalues not converged
     ethr =  3.70E-05,  avg # of iterations =  5.3

[...]

     End of self-consistent calculation

          k = 0.0000 0.0000 0.0000 ( 31997 PWs)   bands (ev):

   -32.0695 -31.9816 -31.9682 -31.9680 -31.8518 -31.8517 -31.8446 -31.5406
   -31.4233 -31.4231 -31.3965 -31.0220 -16.1480 -16.0689 -16.0688 -16.0410
   -15.9720 -15.9720 -15.9620 -15.8664 -15.8663 -15.8091 -15.6747 -15.5463
   -15.5462 -15.3746 -15.3500 -15.3344 -15.3344 -15.2391 -15.2384 -15.2384
   -15.1982 -15.1981 -15.0233 -14.9857 -14.9857 -14.9377 -14.9376 -14.8932
   -14.8254 -14.8253 -14.8206 -14.6375 -14.6022 -14.6022 -14.5350 -14.5350
    -6.3114  -1.3917  -0.6569  -0.3220  -0.2694  -0.2694  -0.2606   0.0165
     0.0165   0.0234   0.2401   0.2666   0.2666   0.3085   0.3184   0.3184
     0.8248   0.8248   1.0788   1.3126   1.6001   1.6419   1.6419   1.9650
     2.1863   2.2173   2.2174   2.2688   2.4810   2.5595

[...]

          k =-0.0669 0.0387 0.0000 ( 31970 PWs)   bands (ev):

[...]

     the Fermi energy is     1.3746 ev

!    total energy              =   -1259.42692862 Ry
     Harris-Foulkes estimate   =   -1259.42690156 Ry
     estimated scf accuracy    <       0.00000224 Ry

     The total energy is the sum of the following terms:

     one-electron contribution =   -4691.76705151 Ry
     hartree contribution      =    2356.95494981 Ry
     xc contribution           =    -611.83259973 Ry
     ewald contribution        =    1687.34447107 Ry
     electric field correction =       0.00101273 Ry
     smearing contrib. (-TS)   =      -0.12771099 Ry

     convergence has been achieved in  21 iterations

 BEEF-vdW xc energy contributions
           1 :   -542.055552743351
           2 :    498.651607269581
           3 :   -421.876579101135
           4 :    328.074933420770
           5 :   -234.623938392226
           6 :    155.321594547807
           7 :   -97.7707328794514
           8 :    63.0338881028521
           9 :   -47.0843176615741
          10 :    43.1897607767668
          11 :   -44.3204956357541
          12 :    44.8831007187663
          13 :   -41.5233393271250
          14 :    33.1625356856915
          15 :   -20.6167703533253
          16 :    6.04259935395305
          17 :    7.72527832926710
          18 :   -17.9451830321181
          19 :    22.7555284782931
          20 :   -21.7733854598890
          21 :    16.2632472765546
          22 :   -8.73981728880494
          23 :    2.08855594121997
          24 :    1.47078821682760
          25 :   -1.14825695775789
          26 :   -2.25466440412981
          27 :    6.84136991062473
          28 :   -10.5257345905985
          29 :    11.9179493272344
          30 :   -10.8037355595529
          31 :   -46.1428755465591
          32 :   -33.1205392479217

     Forces acting on atoms (Ry/au):

     negative rho (up, down):  5.852E-01 0.000E+00
     atom    1 type  1   force =    -0.00035280   -0.00019552    0.00427254
     atom    2 type  1   force =     0.00035177   -0.00020034    0.00427231
     atom    3 type  1   force =    -0.00000453    0.00040002    0.00427321
     atom    4 type  1   force =    -0.00000284   -0.00000496    0.00572520
     atom    5 type  1   force =     0.00001343    0.00195289   -0.00435999
     atom    6 type  1   force =    -0.00000764    0.00000983   -0.00432824
     atom    7 type  1   force =    -0.00168060   -0.00099032   -0.00435824
     atom    8 type  1   force =     0.00167802   -0.00097108   -0.00436468
     atom    9 type  1   force =    -0.00000285   -0.00001655    0.04947292
     atom   10 type  1   force =     0.00000439   -0.00272728    0.01175227
     atom   11 type  1   force =    -0.00234477    0.00137240    0.01174187
     atom   12 type  1   force =     0.00234929    0.00136962    0.01174934
     atom   13 type  2   force =    -0.00000087    0.00000129   -0.08584851

     Total force =     0.101261     Total SCF correction =     0.001174

     entering subroutine stress ...

     negative rho (up, down):  5.852E-01 0.000E+00
          total   stress  (Ry/bohr**3)                   (kbar)     P=   -3.97
  -0.00001121  -0.00000001   0.00000000         -1.65     -0.00      0.00
  -0.00000001  -0.00001120  -0.00000000         -0.00     -1.65     -0.00
   0.00000000  -0.00000000  -0.00005861          0.00     -0.00     -8.62

     BFGS Geometry Optimization

     number of scf cycles    =   1
     number of bfgs steps    =   0

     energy   new            =   -1259.4269286173 Ry

     new trust radius        =       0.0858485086 bohr
     new conv_thr            =       0.0000099958 Ry

ATOMIC_POSITIONS (crystal)
La1      0.166666667   0.166666667   0.383173129    0   0   0
La1      0.666666667   0.166666667   0.383173129    0   0   0
La1      0.166666667   0.666666667   0.383173129    0   0   0
La1      0.666666667   0.666666667   0.383173129    0   0   0
La1      0.833333333   0.333333333   0.500000000    0   0   0
La1      0.333333333   0.333333333   0.500000000    0   0   0
La1      0.833333333   0.833333333   0.500000000    0   0   0
La1      0.333333333   0.833333333   0.500000000    0   0   0
La1      0.000000475  -0.000001354   0.617830016
La1      0.500111881  -0.000223139   0.617065168
La1     -0.000222285   0.500112286   0.617064957
La1      0.500110432   0.500112059   0.617065108
C1      -0.000000114   0.000000105   0.707258447

     Writing output data file calc.save
     Check: negative starting charge=   -0.830958
     NEW-OLD atomic charge density approx. for the potential
     Check: negative starting charge=   -0.831430

[...]

     energy   old            =   -1259.4269286173 Ry
     energy   new            =   -1259.4367743623 Ry

     CASE: energy  _new < energy  _old

     WARNING: bfgs curvature condition failed, Theta= 0.877
     new trust radius        =       0.1287727629 bohr
     new conv_thr            =       0.0000001000 Ry

[...]

     iteration # 10     ecut=    36.75 Ry     beta=0.30
     Davidson diagonalization with overlap
     c_bands:  1 eigenvalues not converged
     ethr =  1.75E-10,  avg # of iterations =  8.1

[...]

     Total force =     0.006187     Total SCF correction =     0.000434

[...]

     Total force =     0.005263     Total SCF correction =     0.000704
     SCF correction compared to forces is large: reduce conv_thr to get better values

[...]

     number of scf cycles    =  16
     number of bfgs steps    =  15

     energy   old            =   -1259.4853829499 Ry
     energy   new            =   -1259.4854304090 Ry

     CASE: energy  _new < energy  _old

     new trust radius        =       0.0079448499 bohr
     new conv_thr            =       0.0000001000 Ry

ATOMIC_POSITIONS (crystal)
La1      0.166666667   0.166666667   0.383173129    0   0   0
La1      0.666666667   0.166666667   0.383173129    0   0   0
La1      0.166666667   0.666666667   0.383173129    0   0   0
La1      0.666666667   0.666666667   0.383173129    0   0   0
La1      0.833333333   0.333333333   0.500000000    0   0   0
La1      0.333333333   0.333333333   0.500000000    0   0   0
La1      0.833333333   0.833333333   0.500000000    0   0   0
La1      0.333333333   0.833333333   0.500000000    0   0   0
La1     -0.000000506   0.000001015   0.603267644
La1      0.500631351  -0.001260181   0.627495221
La1     -0.001261223   0.500632598   0.627494952
La1      0.500628990   0.500631022   0.627494204
C1      -0.000000526  -0.000005284   0.682692282

     Writing output data file calc.save
     Check: negative starting charge=   -0.832651
     NEW-OLD atomic charge density approx. for the potential
     Check: negative starting charge=   -0.832746

[...]

     Self-consistent Calculation

[...]

     Threshold (ethr) on eigenvalues was too large:
     Diagonalizing with lowered threshold

     Davidson diagonalization with overlap
     ethr =  3.64E-08,  avg # of iterations =  3.6

[...]

     total energy              =   -1259.48543894 Ry
     Harris-Foulkes estimate   =   -1259.48543894 Ry
     estimated scf accuracy    <       0.00000021 Ry

     iteration #  8     ecut=    36.75 Ry     beta=0.30
     Davidson diagonalization with overlap
     ethr =  1.54E-10,  avg # of iterations =  6.0

[...]

     negative rho (up, down):  5.754E-01 0.000E+00

     Adding external electric field

     Computed dipole along edir(3) :
        Dipole               -0.3214 Ry au,         -0.8169 Debye
        Dipole field         -0.0005 Ry au

        Potential amp.        0.0457 Ry
        Total length         48.0849 bohr

     End of self-consistent calculation

[...]

          k = 0.0446-0.0515 0.0000 ( 31991 PWs)   bands (ev):

[...]

          k =-0.0669-0.0387 0.0000 ( 31970 PWs)   bands (ev):

   -31.8945 -31.8632 -31.8311 -31.5823 -31.5777 -31.5151 -31.5097 -31.2199
   -31.2074 -31.1528 -31.1409 -30.2762 -15.7553 -15.5825 -15.5558 -15.5368
   -15.5337 -15.5093 -15.4820 -15.4711 -15.4463 -15.4081 -15.3976 -15.3633
   -15.3412 -15.3102 -15.2464 -15.2125 -15.1907 -15.1507 -15.0936 -15.0321
   -14.9827 -14.9332 -14.8201 -14.8044 -14.7811 -14.7789 -14.7757 -14.7267
   -14.6937 -14.6645 -14.6380 -14.4478 -14.4345 -14.3613 -13.9249 -13.8534
    -5.4292   0.0692   0.1525   0.3015   0.4854   0.5463   0.6716   0.8337
     0.8581   0.8814   0.9845   1.0758   1.2306   1.3348   1.3985   1.4691
     1.5149   1.6468   1.6786   1.6925   1.7951   1.8773   1.8969   1.9373
     2.0199   2.1066   2.1810   2.2007   2.2712   2.3163

     the Fermi energy is     1.7020 ev

!    total energy              =   -1259.48543893 Ry
     Harris-Foulkes estimate   =   -1259.48543881 Ry
     estimated scf accuracy    <       0.00000006 Ry

     The total energy is the sum of the following terms:

     one-electron contribution =   -4666.78841036 Ry
     hartree contribution      =    2345.76330644 Ry
     xc contribution           =    -612.00563441 Ry
     ewald contribution        =    1673.66747366 Ry
     electric field correction =       0.00015260 Ry
     smearing contrib. (-TS)   =      -0.12232686 Ry

     convergence has been achieved in   8 iterations

 BEEF-vdW xc energy contributions
           1 :   -542.218594280684
           2 :    498.820472040341
           3 :   -422.059281490397
           4 :    328.291386117024
           5 :   -234.888688740668
           6 :    155.611014705717
           7 :   -98.0179156679749
           8 :    63.1589215573725
           9 :   -47.0404874647052
          10 :    42.9978558797606
          11 :   -44.0644961708016
          12 :    44.6628192374242
          13 :   -41.3951974020846
          14 :    33.1118227363064
          15 :   -20.5787315057865
          16 :    5.95297538658656
          17 :    7.88327755273474
          18 :   -18.1254360671909
          19 :    22.8793597223985
          20 :   -21.7883183673404
          21 :    16.1861724289247
          22 :   -8.65107064465963
          23 :    2.08074482608242
          24 :    1.35352093065944
          25 :  -0.939971956697605
          26 :   -2.46184807089696
          27 :    6.95381502216571
          28 :   -10.5052066983764
          29 :    11.8018503291875
          30 :   -10.6759187948600
          31 :   -46.1507697338961
          32 :   -33.1324893127436

     Forces acting on atoms (Ry/au):

     negative rho (up, down):  5.754E-01 0.000E+00
     atom    1 type  1   force =    -0.00052570   -0.00030353    0.00503277
     atom    2 type  1   force =     0.00052555   -0.00030340    0.00503257
     atom    3 type  1   force =     0.00000016    0.00060673    0.00503249
     atom    4 type  1   force =     0.00000006   -0.00000018    0.00552656
     atom    5 type  1   force =     0.00000016    0.01426265   -0.00913558
     atom    6 type  1   force =    -0.00000053    0.00000029    0.00988681
     atom    7 type  1   force =    -0.01235122   -0.00713116   -0.00913440
     atom    8 type  1   force =     0.01235140   -0.00713073   -0.00913469
     atom    9 type  1   force =     0.00000076   -0.00000033   -0.00029785
     atom   10 type  1   force =     0.00000029   -0.00061558   -0.00062521
     atom   11 type  1   force =    -0.00053148    0.00030897   -0.00062452
     atom   12 type  1   force =     0.00053216    0.00030847   -0.00062415
     atom   13 type  2   force =    -0.00000161   -0.00000220   -0.00093479

     Total force =     0.001808     Total SCF correction =     0.000377
     SCF correction compared to forces is large: reduce conv_thr to get better values

     entering subroutine stress ...

     negative rho (up, down):  5.754E-01 0.000E+00
          total   stress  (Ry/bohr**3)                   (kbar)     P=   -3.51
  -0.00002708  -0.00000000  -0.00000000         -3.98     -0.00     -0.00
  -0.00000000  -0.00002708  -0.00000000         -0.00     -3.98     -0.00
  -0.00000000  -0.00000000  -0.00001750         -0.00     -0.00     -2.57

     bfgs converged in  17 scf cycles and  16 bfgs steps
     (criteria: energy <  1.0E+00, force <  1.9E-03)

     End of BFGS Geometry Optimization

     Final energy   =   -1259.4854389279 Ry
Begin final coordinates

ATOMIC_POSITIONS (crystal)
La1      0.166666667   0.166666667   0.383173129    0   0   0
La1      0.666666667   0.166666667   0.383173129    0   0   0
La1      0.166666667   0.666666667   0.383173129    0   0   0
La1      0.666666667   0.666666667   0.383173129    0   0   0
La1      0.833333333   0.333333333   0.500000000    0   0   0
La1      0.333333333   0.333333333   0.500000000    0   0   0
La1      0.833333333   0.833333333   0.500000000    0   0   0
La1      0.333333333   0.833333333   0.500000000    0   0   0
La1     -0.000000506   0.000001015   0.603267644
La1      0.500631351  -0.001260181   0.627495221
La1     -0.001261223   0.500632598   0.627494952
La1      0.500628990   0.500631022   0.627494204
C1      -0.000000526  -0.000005284   0.682692282
End final coordinates

     Writing output data file calc.save

     General routines

     Parallel routines

   This run was terminated on:  15:28: 0   4Feb2018

   JOB DONE.