     Program PWSCF v.5.1rc2 (svn rev. 11289) starts on  2May2018 at 13:55: 1

     Current dimensions of program PWSCF are:
     Max number of different atomic species (ntypx) = 10
     Max number of k-points (npk) =  40000
     Max angular momentum in pseudopotentials (lmaxx) =  3
     Presently stress not available with electric field

     IMPORTANT: XC functional enforced from input :
     Exchange-correlation      = BEEF-VDW ( 1  4 27 13 2)
     Any further DFT definition will be discarded
     Please, verify this is what you really want

     Subspace diagonalization in iterative solution of the eigenvalue problem:
     a serial algorithm will be used

     bravais-lattice index     =            0
     lattice parameter (alat)  =       1.8897  a.u.
     unit-cell volume          =    3724.3394 (a.u.)^3
     number of atoms/cell      =           13
     number of atomic types    =            2
     number of electrons       =       174.00
     number of Kohn-Sham states=           97
     kinetic-energy cutoff     =      36.7493  Ry
     charge density cutoff     =     367.4932  Ry
     convergence threshold     =      1.0E-05
     mixing beta               =       0.3000
     number of iterations used =           10  plain     mixing
     Exchange-correlation      = BEEF-VDW ( 1  4 27 13 2)
     nstep                     =           50

     celldm(1)=   1.889726  celldm(2)=   0.000000  celldm(3)=   0.000000
     celldm(4)=   0.000000  celldm(5)=   0.000000  celldm(6)=   0.000000

     crystal axes: (cart. coord. in units of alat)
               a(1) = (   5.132588   0.000000   0.000000 )
               a(2) = (   2.566294   4.444952   0.000000 )
               a(3) = (   0.000000   0.000000  24.190741 )

     reciprocal axes: (cart. coord. in units 2 pi/alat)
               b(1) = (  0.194833 -0.112487  0.000000 )
               b(2) = (  0.000000  0.224974  0.000000 )
               b(3) = (  0.000000  0.000000  0.041338 )

     PseudoPot. # 1 for Cr read from file:
     /u/if/mamunm/psp/gbrv1.5pbe/Cr.UPF
     MD5 check sum: 0d52af634a40206e4dee301ad30da4bf
     Pseudo is Ultrasoft + core correction, Zval = 14.0
     Generated by new atomic code, or converted to UPF format
     Using radial grid of  857 points,  6 beta functions with:
                l(1) =   0
                l(2) =   0
                l(3) =   1
                l(4) =   1
                l(5) =   2
                l(6) =   2
     Q(r) pseudized with  8 coefficients,  rinner =    0.950   0.950   0.950
                                                       0.950   0.950

     PseudoPot. # 2 for O  read from file:
     /u/if/mamunm/psp/gbrv1.5pbe/O.UPF
     MD5 check sum: 734c27235a0248c51dbae37a1fbe46ec
     Pseudo is Ultrasoft + core correction, Zval =  6.0
     Generated by new atomic code, or converted to UPF format
     Using radial grid of  737 points,  5 beta functions with:
                l(1) =   0
                l(2) =   0
                l(3) =   1
                l(4) =   1
                l(5) =   2
     Q(r) pseudized with  8 coefficients,  rinner =    0.900   0.900   0.900
                                                       0.900   0.900

     vdW kernel table read from file vdW_kernel_table
     MD5 check sum: 095c7af220d748ca6e76c0b4c6cfb241

     atomic species   valence    mass     pseudopotential
        Cr1           14.00    51.99610     Cr( 1.00)
        O1             6.00    15.99900     O ( 1.00)

     No symmetry found

   Cartesian axes

     site n.     atom                  positions (alat units)
         1           Cr1 tau(   1) = (   1.2831471   0.7408253  10.0000000  )
         2           Cr1 tau(   2) = (   3.8494412   0.7408253  10.0000000  )
         3           Cr1 tau(   3) = (   2.5662941   2.9633012  10.0000000  )
         4           Cr1 tau(   4) = (   5.1325882   2.9633012  10.0000000  )
         5           Cr1 tau(   5) = (   5.1325882   1.4816506  12.0953704  )
         6           Cr1 tau(   6) = (   2.5662941   1.4816506  12.0953704  )
         7           Cr1 tau(   7) = (   6.4157353   3.7041265  12.0953704  )
         8           Cr1 tau(   8) = (   3.8494412   3.7041265  12.0953704  )
         9           Cr1 tau(   9) = (   0.0000000   0.0000000  14.1907408  )
        10           Cr1 tau(  10) = (   2.5662941   0.0000000  14.1907408  )
        11           Cr1 tau(  11) = (   1.2831471   2.2224759  14.1907408  )
        12           Cr1 tau(  12) = (   3.8494412   2.2224759  14.1907408  )
        13           O1  tau(  13) = (   2.5662941   1.4816506  15.5232408  )

     number of k points=    20  Fermi-Dirac smearing, width (Ry)=  0.0110
                       cart. coord. in units 2pi/alat
        k(    1) = (   0.0000000   0.0000000   0.0000000), wk =   0.0555556
        k(    2) = (   0.0000000   0.0374957   0.0000000), wk =   0.1111111
        k(    3) = (   0.0000000   0.0749914   0.0000000), wk =   0.1111111
        k(    4) = (   0.0000000  -0.1124872   0.0000000), wk =   0.0555556
        k(    5) = (   0.0324722  -0.0187479   0.0000000), wk =   0.1111111
        k(    6) = (   0.0324722   0.0187479   0.0000000), wk =   0.1111111
        k(    7) = (   0.0324722   0.0562436   0.0000000), wk =   0.1111111
        k(    8) = (   0.0324722  -0.1312350   0.0000000), wk =   0.1111111
        k(    9) = (   0.0324722  -0.0937393   0.0000000), wk =   0.1111111
        k(   10) = (   0.0324722  -0.0562436   0.0000000), wk =   0.1111111
        k(   11) = (   0.0649445  -0.0374957   0.0000000), wk =   0.1111111
        k(   12) = (   0.0649445   0.0000000   0.0000000), wk =   0.1111111
        k(   13) = (   0.0649445   0.0374957   0.0000000), wk =   0.1111111
        k(   14) = (   0.0649445  -0.1499829   0.0000000), wk =   0.1111111
        k(   15) = (   0.0649445  -0.1124872   0.0000000), wk =   0.1111111
        k(   16) = (   0.0649445  -0.0749914   0.0000000), wk =   0.1111111
        k(   17) = (  -0.0974167   0.0562436   0.0000000), wk =   0.0555556
        k(   18) = (  -0.0974167   0.0937393   0.0000000), wk =   0.1111111
        k(   19) = (  -0.0974167   0.1312350   0.0000000), wk =   0.1111111
        k(   20) = (  -0.0974167  -0.0562436   0.0000000), wk =   0.0555556

     Largest allocated arrays     est. size (Mb)     dimensions
     Largest temporary arrays     est. size (Mb)     dimensions

     Check: negative/imaginary core charge=   -0.000004    0.000000

     Initial potential from superposition of free atoms
     Check: negative starting charge=   -0.015069

     starting charge  161.99981, renormalised to  174.00000

     negative rho (up, down):  1.618E-02 0.000E+00

     *
     * You are using vdW-DF for exchange-correlation in this calculation.
     * Please cite the following three references that made this development
     * possible:
     *
     *   M. Dion, H. Rydberg, E. Schroder, D. C. Langreth, and
     *   B. I. Lundqvist, Phys. Rev. Lett. 92, 246401 (2004).
     *
     *   T. Thonhauser, V. R. Cooper, S. Li, A. Puzder, P. Hyldgaard, and
     *   D. C. Langreth, Phys. Rev. B 76, 125112 (2007).
     *
     *   G. Roman-Perez and J. M. Soler, Phys. Rev. Lett. 103, 096102 (2009).
     *
     *
     * If you are using vdW-DF2, please also cite:
     *
     *   K. Lee, E. D. Murray, L. Kong, B. I. Lundqvist, and
     *   D. C. Langreth, Phys. Rev. B 82, 081101(R) (2010).
     *
     *
     * If you are calculating the stress with vdW-DF, please also cite:
     *
     *   R. Sabatini, E. Kucukbenli, B. Kolb, T. Thonhauser, and
     *   S. de Gironcoli, J. Phys.: Condens. Matter 24, 424209 (2012).
     *

     Carrying out vdW-DF run using the following parameters:

     Nqs =      20    Nr_points =    1024   r_max =   100.000
     q_mesh =
               0.00001000     0.04494208     0.09755937     0.15916263
               0.23128650     0.31572767     0.41458969     0.53033537
               0.66584808     0.82450364     1.01025438     1.22772762
               1.48234092     1.78043706     2.12944203     2.53805004
               3.01644009     3.57652955     4.23227104     5.00000000

     Gradients computed in reciprocal space

     Adding external electric field

     Computed dipole along edir(3) :
        Dipole               -2.8790 Ry au,         -7.3178 Debye
        Dipole field         -0.0097 Ry au

        Potential amp.        0.8659 Ry
        Total length         44.5710 bohr

     Starting wfc are  124 randomized atomic wfcs

     Self-consistent Calculation

     iteration #  1     ecut=    36.75 Ry     beta=0.30
     Davidson diagonalization with overlap
     ethr =  1.00E-02,  avg # of iterations =  8.1

[...]

     total energy              =   -1910.71285036 Ry
     Harris-Foulkes estimate   =   -2148.90096782 Ry
     estimated scf accuracy    <     495.69618659 Ry

     iteration #  2     ecut=    36.75 Ry     beta=0.30
     Davidson diagonalization with overlap
     c_bands:  1 eigenvalues not converged
     c_bands:  1 eigenvalues not converged
     c_bands:  2 eigenvalues not converged
     ethr =  1.00E-02,  avg # of iterations = 18.8

[...]

     End of self-consistent calculation

          k = 0.0000 0.0000 0.0000 ( 14081 PWs)   bands (ev):

   -70.7707 -70.6772 -70.6592 -70.6587 -70.5716 -70.5710 -70.5693 -70.5586
   -70.5148 -70.4630 -70.4622 -70.4621 -42.4131 -42.3170 -42.3168 -42.2918
   -42.2769 -42.2651 -42.2651 -42.1366 -42.1293 -42.1291 -42.0217 -41.9984
   -41.9981 -41.8881 -41.8584 -41.8579 -41.8573 -41.8323 -41.8319 -41.8211
   -41.7571 -41.7567 -41.7334 -41.7303 -41.7290 -41.7286 -41.6842 -41.6421
   -41.6420 -41.6103 -41.6075 -41.6071 -41.5919 -41.5918 -41.4743 -41.4743
   -17.3709  -5.6666  -4.1361  -3.6107  -3.6107  -3.4731  -2.8512  -2.6448
    -2.6446  -2.5214  -2.1702  -2.1701  -2.1689  -1.8790  -1.8524  -1.8523
    -1.6721  -1.6721  -1.3085  -0.7960  -0.7959  -0.5997   0.0579   0.1082
     0.1082   0.2856   0.5465   0.5827   0.5828   0.7275   0.7275   0.8292
     0.8295   0.8309   0.9098   0.9098   0.9141   1.0036   1.1037   1.1039
     1.6671   1.6672   1.8669   1.8853   2.0389   2.0391   2.2304   2.2305
     2.3362

[...]

          k =-0.0974 0.0562 0.0000 ( 14010 PWs)   bands (ev):

[...]

     the Fermi energy is     1.0142 ev

!    total energy              =   -2147.59524839 Ry
     Harris-Foulkes estimate   =   -2147.59525324 Ry
     estimated scf accuracy    <       0.00000437 Ry

     The total energy is the sum of the following terms:

     one-electron contribution =  -20164.31537674 Ry
     hartree contribution      =   10074.87779644 Ry
     xc contribution           =    -286.67628171 Ry
     ewald contribution        =    8228.65300525 Ry
     electric field correction =       0.00004814 Ry
     smearing contrib. (-TS)   =      -0.13443976 Ry

     convergence has been achieved in  61 iterations

 BEEF-vdW xc energy contributions
           1 :   -248.121882170584
           2 :    223.248007673014
           3 :   -181.748756618077
           4 :    136.122980507798
           5 :   -97.6831543376373
           6 :    72.4667877898023
           7 :   -60.1454767151650
           8 :    55.9127269315295
           9 :   -53.9117505903167
          10 :    50.2473505905350
          11 :   -44.2131270602821
          12 :    37.5363970946934
          13 :   -32.5167177941354
          14 :    30.3319002694272
          15 :   -30.4222390861316
          16 :    31.0743774931115
          17 :   -30.6381328276896
          18 :    28.5375386776519
          19 :   -25.4795698335020
          20 :    22.8252889827792
          21 :   -21.6159408645237
          22 :    21.9098512769636
          23 :   -22.8252176540374
          24 :    23.1897038706249
          25 :   -22.3205961140031
          26 :    20.4201717371223
          27 :   -18.3654948935831
          28 :    17.0814323894241
          29 :   -16.9390821684286
          30 :    17.5605932522074
          31 :   -24.5911679533238
          32 :   -17.6413580343713

     Forces acting on atoms (Ry/au):

     negative rho (up, down):  1.473E-02 0.000E+00
     atom    1 type  1   force =    -0.00155903   -0.00089027    0.00065293
     atom    2 type  1   force =     0.00153437   -0.00088852    0.00065579
     atom    3 type  1   force =     0.00000520    0.00178215    0.00056002
     atom    4 type  1   force =    -0.00001076   -0.00001224    0.00168118
     atom    5 type  1   force =    -0.00001124   -0.00162192   -0.00169525
     atom    6 type  1   force =    -0.00000889    0.00001233    0.01441525
     atom    7 type  1   force =     0.00139761    0.00080372   -0.00170154
     atom    8 type  1   force =    -0.00142279    0.00081648   -0.00172291
     atom    9 type  1   force =    -0.00001495    0.00002105   -0.03428341
     atom   10 type  1   force =     0.00000676   -0.00401256    0.04330787
     atom   11 type  1   force =    -0.00349590    0.00199919    0.04333289
     atom   12 type  1   force =     0.00349748    0.00200178    0.04325323
     atom   13 type  2   force =     0.00008214   -0.00001120   -0.10845606

     Total force =     0.136421     Total SCF correction =     0.001894

     entering subroutine stress ...

     negative rho (up, down):  1.473E-02 0.000E+00
          total   stress  (Ry/bohr**3)                   (kbar)     P=  -28.01
  -0.00023624   0.00000005  -0.00000010        -34.75      0.01     -0.01
   0.00000005  -0.00023618   0.00000003          0.01    -34.74      0.00
  -0.00000010   0.00000003  -0.00009890         -0.01      0.00    -14.55

     BFGS Geometry Optimization

     number of scf cycles    =   1
     number of bfgs steps    =   0

     energy   new            =   -2147.5952483881 Ry

     new trust radius        =       0.1084560909 bohr
     new conv_thr            =       0.0000099958 Ry

ATOMIC_POSITIONS (crystal)
Cr1      0.166666667   0.166666667   0.413381306    0   0   0
Cr1      0.666666667   0.166666667   0.413381306    0   0   0
Cr1      0.166666667   0.666666667   0.413381306    0   0   0
Cr1      0.666666667   0.666666667   0.413381306    0   0   0
Cr1      0.833333333   0.333333333   0.500000000    0   0   0
Cr1      0.333333333   0.333333333   0.500000000    0   0   0
Cr1      0.833333333   0.833333333   0.500000000    0   0   0
Cr1      0.333333333   0.833333333   0.500000000    0   0   0
Cr1     -0.000002795   0.000002506   0.585868738
Cr1      0.500239547  -0.000477700   0.587566062
Cr1     -0.000479436   0.500238006   0.587566610
Cr1      0.500241438   0.500238314   0.587564867
O1       0.333342469   0.333332000   0.639329256

     Writing output data file calc.save
     Check: negative starting charge=   -0.015069
     NEW-OLD atomic charge density approx. for the potential

     Check: negative/imaginary core charge=   -0.000004    0.000000
     Check: negative starting charge=   -0.014671

[...]

     energy   old            =   -2147.5952483881 Ry
     energy   new            =   -2147.6110294242 Ry

     CASE: energy  _new < energy  _old

[...]

     iteration #  1     ecut=    36.75 Ry     beta=0.30
     Davidson diagonalization with overlap
     c_bands:  1 eigenvalues not converged
     ethr =  1.00E-06,  avg # of iterations = 15.2

[...]

     Total force =     0.013438     Total SCF correction =     0.000280

[...]

     number of scf cycles    =  10
     number of bfgs steps    =   9

     energy   old            =   -2147.6424284118 Ry
     energy   new            =   -2147.6431378137 Ry

     CASE: energy  _new < energy  _old

     new trust radius        =       0.0144225668 bohr
     new conv_thr            =       0.0000001000 Ry

ATOMIC_POSITIONS (crystal)
Cr1      0.166666667   0.166666667   0.413381306    0   0   0
Cr1      0.666666667   0.166666667   0.413381306    0   0   0
Cr1      0.166666667   0.666666667   0.413381306    0   0   0
Cr1      0.666666667   0.666666667   0.413381306    0   0   0
Cr1      0.833333333   0.333333333   0.500000000    0   0   0
Cr1      0.333333333   0.333333333   0.500000000    0   0   0
Cr1      0.833333333   0.833333333   0.500000000    0   0   0
Cr1      0.333333333   0.833333333   0.500000000    0   0   0
Cr1     -0.000000843   0.000002861   0.570246022
Cr1      0.505171274  -0.010339076   0.589441932
Cr1     -0.010335012   0.505170766   0.589441774
Cr1      0.505169815   0.505173171   0.589440405
O1       0.333338246   0.333335014   0.634471898

     Writing output data file calc.save
     Check: negative starting charge=   -0.014218
     NEW-OLD atomic charge density approx. for the potential

     Check: negative/imaginary core charge=   -0.000004    0.000000
     Check: negative starting charge=   -0.014167

[...]

     Self-consistent Calculation

[...]

     total energy              =   -2147.64332377 Ry
     Harris-Foulkes estimate   =   -2147.64332379 Ry
     estimated scf accuracy    <       0.00000024 Ry

     iteration # 29     ecut=    36.75 Ry     beta=0.30
     Davidson diagonalization with overlap
     ethr =  1.32E-10,  avg # of iterations =  3.9

[...]

     negative rho (up, down):  1.387E-02 0.000E+00

     Adding external electric field

     Computed dipole along edir(3) :
        Dipole               -0.0008 Ry au,         -0.0020 Debye
        Dipole field         -0.0000 Ry au

        Potential amp.        0.0002 Ry
        Total length         44.5710 bohr

     End of self-consistent calculation

[...]

          k = 0.0649-0.0750 0.0000 ( 13990 PWs)   bands (ev):

[...]

          k =-0.0974-0.0562 0.0000 ( 14010 PWs)   bands (ev):

   -70.5813 -70.5556 -70.5109 -70.5007 -70.4897 -70.4122 -70.3790 -70.3357
   -70.3236 -70.2983 -70.2747 -70.2714 -42.2383 -42.1972 -42.1086 -42.0745
   -42.0628 -42.0271 -41.9631 -41.9265 -41.9069 -41.8911 -41.8871 -41.8261
   -41.8177 -41.7986 -41.7544 -41.7308 -41.7297 -41.7023 -41.6966 -41.6822
   -41.6479 -41.6081 -41.6049 -41.5971 -41.5924 -41.5616 -41.5578 -41.5522
   -41.5357 -41.5167 -41.4977 -41.4117 -41.3884 -41.3502 -41.3441 -41.3072
   -18.1734  -4.7178  -4.3147  -4.1642  -3.5580  -3.4525  -2.2960  -2.0756
    -1.7557  -1.6877  -1.6705  -1.6675  -1.5979  -1.2806  -1.1560  -1.0830
    -0.9295  -0.8963  -0.6794  -0.5723  -0.5251  -0.2714  -0.2404  -0.2290
    -0.1798  -0.1572   0.0039   0.0398   0.2532   0.2866   0.4577   0.4642
     0.5396   0.6025   0.7144   0.8030   0.8802   0.8993   0.9631   0.9720
     1.1624   1.4704   1.5241   1.5956   1.7376   1.8097   1.8405   2.0123
     2.0867

     the Fermi energy is     1.2192 ev

!    total energy              =   -2147.64332373 Ry
     Harris-Foulkes estimate   =   -2147.64332378 Ry
     estimated scf accuracy    <       0.00000005 Ry

     The total energy is the sum of the following terms:

     one-electron contribution =  -20343.20104560 Ry
     hartree contribution      =   10165.05896902 Ry
     xc contribution           =    -286.93416320 Ry
     ewald contribution        =    8317.55486783 Ry
     electric field correction =       0.00000000 Ry
     smearing contrib. (-TS)   =      -0.12195177 Ry

     convergence has been achieved in  29 iterations

 BEEF-vdW xc energy contributions
           1 :   -248.389882511745
           2 :    223.590303914401
           3 :   -182.157819840945
           4 :    136.500509302620
           5 :   -97.8963793384993
           6 :    72.4236233282917
           7 :   -59.8484617028763
           8 :    55.4647685756491
           9 :   -53.4700009543585
          10 :    49.9458964387442
          11 :   -44.0935255257297
          12 :    37.5275213934474
          13 :   -32.4810445949967
          14 :    30.1527732804183
          15 :   -30.0782385364280
          16 :    30.6529215228144
          17 :   -30.2781511764749
          18 :    28.3391632816367
          19 :   -25.4416898737829
          20 :    22.8498338170556
          21 :   -21.5717546024212
          22 :    21.7137444843549
          23 :   -22.4918281059665
          24 :    22.8226251823813
          25 :   -22.0504527674179
          26 :    20.3248696209018
          27 :   -18.4203078867419
          28 :    17.1707757817644
          29 :   -16.9251343303957
          30 :    17.3681172541122
          31 :   -24.6066838945431
          32 :   -17.6675260748253

     Forces acting on atoms (Ry/au):

     negative rho (up, down):  1.387E-02 0.000E+00
     atom    1 type  1   force =    -0.00115725   -0.00066795    0.00015883
     atom    2 type  1   force =     0.00115560   -0.00066894    0.00016176
     atom    3 type  1   force =    -0.00000176    0.00133566    0.00016171
     atom    4 type  1   force =     0.00000060    0.00000031    0.00686583
     atom    5 type  1   force =     0.00000161    0.01948880   -0.01613591
     atom    6 type  1   force =    -0.00000245   -0.00000152    0.04096395
     atom    7 type  1   force =    -0.01687824   -0.00974508   -0.01613480
     atom    8 type  1   force =     0.01687713   -0.00974259   -0.01613519
     atom    9 type  1   force =    -0.00000065   -0.00000092   -0.00141936
     atom   10 type  1   force =     0.00000230    0.00072780    0.00092696
     atom   11 type  1   force =     0.00062792   -0.00036247    0.00092682
     atom   12 type  1   force =    -0.00062871   -0.00036516    0.00093131
     atom   13 type  2   force =     0.00000391    0.00000206   -0.00127191

     Total force =     0.002793     Total SCF correction =     0.000803
     SCF correction compared to forces is large: reduce conv_thr to get better values

     entering subroutine stress ...

     negative rho (up, down):  1.387E-02 0.000E+00
          total   stress  (Ry/bohr**3)                   (kbar)     P=  -15.22
  -0.00014568  -0.00000000  -0.00000000        -21.43     -0.00     -0.00
  -0.00000000  -0.00014569  -0.00000000         -0.00    -21.43     -0.00
  -0.00000000  -0.00000000  -0.00001908         -0.00     -0.00     -2.81

     bfgs converged in  11 scf cycles and  10 bfgs steps
     (criteria: energy <  1.0E+00, force <  1.9E-03)

     End of BFGS Geometry Optimization

     Final energy   =   -2147.6433237299 Ry
Begin final coordinates

ATOMIC_POSITIONS (crystal)
Cr1      0.166666667   0.166666667   0.413381306    0   0   0
Cr1      0.666666667   0.166666667   0.413381306    0   0   0
Cr1      0.166666667   0.666666667   0.413381306    0   0   0
Cr1      0.666666667   0.666666667   0.413381306    0   0   0
Cr1      0.833333333   0.333333333   0.500000000    0   0   0
Cr1      0.333333333   0.333333333   0.500000000    0   0   0
Cr1      0.833333333   0.833333333   0.500000000    0   0   0
Cr1      0.333333333   0.833333333   0.500000000    0   0   0
Cr1     -0.000000843   0.000002861   0.570246022
Cr1      0.505171274  -0.010339076   0.589441932
Cr1     -0.010335012   0.505170766   0.589441774
Cr1      0.505169815   0.505173171   0.589440405
O1       0.333338246   0.333335014   0.634471898
End final coordinates

     Writing output data file calc.save

     General routines

     Parallel routines

   This run was terminated on:  15:43:12   2May2018

   JOB DONE.
Job  /afs/slac/g/suncat/bin/suncat-tsmpirun -x LD_LIBRARY_PATH -wdir /scratch/qe684439_gSiby pw.x -npool 4 -in pw.inp

TID   HOST_NAME   COMMAND_LINE            STATUS            TERMINATION_TIME
00000 suncat0050 pw.x -npool 4 -i  Done                     05/02/2018 15:43:12
00001 suncat0050 pw.x -npool 4 -i  Done                     05/02/2018 15:43:12
00002 suncat0050 pw.x -npool 4 -i  Done                     05/02/2018 15:43:12
00003 suncat0050 pw.x -npool 4 -i  Done                     05/02/2018 15:43:12
00004 suncat0050 pw.x -npool 4 -i  Done                     05/02/2018 15:43:12
00005 suncat0050 pw.x -npool 4 -i  Done                     05/02/2018 15:43:12
00006 suncat0050 pw.x -npool 4 -i  Done                     05/02/2018 15:43:12
00007 suncat0050 pw.x -npool 4 -i  Done                     05/02/2018 15:43:12
00008 suncat0178 pw.x -npool 4 -i  Done                     05/02/2018 15:43:12
00009 suncat0178 pw.x -npool 4 -i  Done                     05/02/2018 15:43:12
00010 suncat0178 pw.x -npool 4 -i  Done                     05/02/2018 15:43:12
00011 suncat0178 pw.x -npool 4 -i  Done                     05/02/2018 15:43:12
00012 suncat0178 pw.x -npool 4 -i  Done                     05/02/2018 15:43:12
00013 suncat0178 pw.x -npool 4 -i  Done                     05/02/2018 15:43:12
00014 suncat0178 pw.x -npool 4 -i  Done                     05/02/2018 15:43:12
00015 suncat0178 pw.x -npool 4 -i  Done                     05/02/2018 15:43:12
00016 suncat0176 pw.x -npool 4 -i  Done                     05/02/2018 15:43:12
00017 suncat0176 pw.x -npool 4 -i  Done                     05/02/2018 15:43:12
00018 suncat0176 pw.x -npool 4 -i  Done                     05/02/2018 15:43:12
00019 suncat0176 pw.x -npool 4 -i  Done                     05/02/2018 15:43:12
00020 suncat0176 pw.x -npool 4 -i  Done                     05/02/2018 15:43:12
00021 suncat0176 pw.x -npool 4 -i  Done                     05/02/2018 15:43:12
00022 suncat0176 pw.x -npool 4 -i  Done                     05/02/2018 15:43:12
00023 suncat0176 pw.x -npool 4 -i  Done                     05/02/2018 15:43:12
00024 suncat0241 pw.x -npool 4 -i  Done                     05/02/2018 15:43:12
00025 suncat0241 pw.x -npool 4 -i  Done                     05/02/2018 15:43:12
00026 suncat0241 pw.x -npool 4 -i  Done                     05/02/2018 15:43:12
00027 suncat0241 pw.x -npool 4 -i  Done                     05/02/2018 15:43:12
00028 suncat0241 pw.x -npool 4 -i  Done                     05/02/2018 15:43:12
00029 suncat0241 pw.x -npool 4 -i  Done                     05/02/2018 15:43:12
00030 suncat0241 pw.x -npool 4 -i  Done                     05/02/2018 15:43:12
00031 suncat0241 pw.x -npool 4 -i  Done                     05/02/2018 15:43:12