     Program PWSCF v.5.1rc2 (svn rev. 11289) starts on 14Jan2018 at  8:27:38

     Current dimensions of program PWSCF are:
     Max number of different atomic species (ntypx) = 10
     Max number of k-points (npk) =  40000
     Max angular momentum in pseudopotentials (lmaxx) =  3
     Presently stress not available with electric field

     IMPORTANT: XC functional enforced from input :
     Exchange-correlation      = BEEF-VDW ( 1  4 27 13 2)
     Any further DFT definition will be discarded
     Please, verify this is what you really want

     Subspace diagonalization in iterative solution of the eigenvalue problem:
     a serial algorithm will be used

     bravais-lattice index     =            0
     lattice parameter (alat)  =       1.8897  a.u.
     unit-cell volume          =    4552.2840 (a.u.)^3
     number of atoms/cell      =           13
     number of atomic types    =            2
     number of electrons       =       174.00
     number of Kohn-Sham states=           97
     kinetic-energy cutoff     =      36.7493  Ry
     charge density cutoff     =     367.4932  Ry
     convergence threshold     =      1.0E-05
     mixing beta               =       0.3000
     number of iterations used =           10  plain     mixing
     Exchange-correlation      = BEEF-VDW ( 1  4 27 13 2)
     nstep                     =           50

     celldm(1)=   1.889726  celldm(2)=   0.000000  celldm(3)=   0.000000
     celldm(4)=   0.000000  celldm(5)=   0.000000  celldm(6)=   0.000000

     crystal axes: (cart. coord. in units of alat)
               a(1) = (   5.627661   0.000000   0.000000 )
               a(2) = (   2.813831   4.873698   0.000000 )
               a(3) = (   0.000000   0.000000  24.594966 )

     reciprocal axes: (cart. coord. in units 2 pi/alat)
               b(1) = (  0.177694 -0.102592  0.000000 )
               b(2) = (  0.000000  0.205183  0.000000 )
               b(3) = (  0.000000  0.000000  0.040659 )

     PseudoPot. # 1 for Mo read from file:
     /afs/slac.stanford.edu/u/if/mamunm/psp/gbrv1.5pbe/Mo.UPF
     MD5 check sum: 30c4dcd161f5d35cd49bb5239c51a633
     Pseudo is Ultrasoft + core correction, Zval = 14.0
     Generated by new atomic code, or converted to UPF format
     Using radial grid of  889 points,  6 beta functions with:
                l(1) =   0
                l(2) =   0
                l(3) =   1
                l(4) =   1
                l(5) =   2
                l(6) =   2
     Q(r) pseudized with  6 coefficients,  rinner =    1.000   1.000   1.000
                                                       1.000   1.000

     PseudoPot. # 2 for O  read from file:
     /afs/slac.stanford.edu/u/if/mamunm/psp/gbrv1.5pbe/O.UPF
     MD5 check sum: 734c27235a0248c51dbae37a1fbe46ec
     Pseudo is Ultrasoft + core correction, Zval =  6.0
     Generated by new atomic code, or converted to UPF format
     Using radial grid of  737 points,  5 beta functions with:
                l(1) =   0
                l(2) =   0
                l(3) =   1
                l(4) =   1
                l(5) =   2
     Q(r) pseudized with  8 coefficients,  rinner =    0.900   0.900   0.900
                                                       0.900   0.900

     vdW kernel table read from file vdW_kernel_table
     MD5 check sum: 095c7af220d748ca6e76c0b4c6cfb241

     atomic species   valence    mass     pseudopotential
        Mo1           14.00    95.95000     Mo( 1.00)
        O1             6.00    15.99900     O ( 1.00)

     No symmetry found

   Cartesian axes

     site n.     atom                  positions (alat units)
         1           Mo1 tau(   1) = (   1.4069153   0.8122829  10.0000000  )
         2           Mo1 tau(   2) = (   4.2207459   0.8122829  10.0000000  )
         3           Mo1 tau(   3) = (   2.8138306   3.2491317  10.0000000  )
         4           Mo1 tau(   4) = (   5.6276612   3.2491317  10.0000000  )
         5           Mo1 tau(   5) = (   5.6276612   1.6245658  12.2974831  )
         6           Mo1 tau(   6) = (   2.8138306   1.6245658  12.2974831  )
         7           Mo1 tau(   7) = (   7.0345765   4.0614146  12.2974831  )
         8           Mo1 tau(   8) = (   4.2207459   4.0614146  12.2974831  )
         9           Mo1 tau(   9) = (   0.0000000   0.0000000  14.5949661  )
        10           Mo1 tau(  10) = (   2.8138306   0.0000000  14.5949661  )
        11           Mo1 tau(  11) = (   1.4069153   2.4368488  14.5949661  )
        12           Mo1 tau(  12) = (   4.2207459   2.4368488  14.5949661  )
        13           O1  tau(  13) = (   1.4069153   0.0000000  16.7949661  )

     number of k points=    20  Fermi-Dirac smearing, width (Ry)=  0.0110
                       cart. coord. in units 2pi/alat
        k(    1) = (   0.0000000   0.0000000   0.0000000), wk =   0.0555556
        k(    2) = (   0.0000000   0.0341972   0.0000000), wk =   0.1111111
        k(    3) = (   0.0000000   0.0683943   0.0000000), wk =   0.1111111
        k(    4) = (   0.0000000  -0.1025915   0.0000000), wk =   0.0555556
        k(    5) = (   0.0296156  -0.0170986   0.0000000), wk =   0.1111111
        k(    6) = (   0.0296156   0.0170986   0.0000000), wk =   0.1111111
        k(    7) = (   0.0296156   0.0512958   0.0000000), wk =   0.1111111
        k(    8) = (   0.0296156  -0.1196901   0.0000000), wk =   0.1111111
        k(    9) = (   0.0296156  -0.0854929   0.0000000), wk =   0.1111111
        k(   10) = (   0.0296156  -0.0512958   0.0000000), wk =   0.1111111
        k(   11) = (   0.0592312  -0.0341972   0.0000000), wk =   0.1111111
        k(   12) = (   0.0592312   0.0000000   0.0000000), wk =   0.1111111
        k(   13) = (   0.0592312   0.0341972   0.0000000), wk =   0.1111111
        k(   14) = (   0.0592312  -0.1367887   0.0000000), wk =   0.1111111
        k(   15) = (   0.0592312  -0.1025915   0.0000000), wk =   0.1111111
        k(   16) = (   0.0592312  -0.0683943   0.0000000), wk =   0.1111111
        k(   17) = (  -0.0888469   0.0512958   0.0000000), wk =   0.0555556
        k(   18) = (  -0.0888469   0.0854929   0.0000000), wk =   0.1111111
        k(   19) = (  -0.0888469   0.1196901   0.0000000), wk =   0.1111111
        k(   20) = (  -0.0888469  -0.0512958   0.0000000), wk =   0.0555556

     Largest allocated arrays     est. size (Mb)     dimensions
     Largest temporary arrays     est. size (Mb)     dimensions

     Initial potential from superposition of free atoms
     Check: negative starting charge=   -0.005001

     starting charge  173.98724, renormalised to  174.00000

     negative rho (up, down):  5.001E-03 0.000E+00

     *
     * You are using vdW-DF for exchange-correlation in this calculation.
     * Please cite the following three references that made this development
     * possible:
     *
     *   M. Dion, H. Rydberg, E. Schroder, D. C. Langreth, and
     *   B. I. Lundqvist, Phys. Rev. Lett. 92, 246401 (2004).
     *
     *   T. Thonhauser, V. R. Cooper, S. Li, A. Puzder, P. Hyldgaard, and
     *   D. C. Langreth, Phys. Rev. B 76, 125112 (2007).
     *
     *   G. Roman-Perez and J. M. Soler, Phys. Rev. Lett. 103, 096102 (2009).
     *
     *
     * If you are using vdW-DF2, please also cite:
     *
     *   K. Lee, E. D. Murray, L. Kong, B. I. Lundqvist, and
     *   D. C. Langreth, Phys. Rev. B 82, 081101(R) (2010).
     *
     *
     * If you are calculating the stress with vdW-DF, please also cite:
     *
     *   R. Sabatini, E. Kucukbenli, B. Kolb, T. Thonhauser, and
     *   S. de Gironcoli, J. Phys.: Condens. Matter 24, 424209 (2012).
     *

     Carrying out vdW-DF run using the following parameters:

     Nqs =      20    Nr_points =    1024   r_max =   100.000
     q_mesh =
               0.00001000     0.04494208     0.09755937     0.15916263
               0.23128650     0.31572767     0.41458969     0.53033537
               0.66584808     0.82450364     1.01025438     1.22772762
               1.48234092     1.78043706     2.12944203     2.53805004
               3.01644009     3.57652955     4.23227104     5.00000000

     Gradients computed in reciprocal space

     Adding external electric field

     Computed dipole along edir(3) :
        Dipole               -0.0037 Ry au,         -0.0095 Debye
        Dipole field         -0.0000 Ry au

        Potential amp.        0.0009 Ry
        Total length         45.3158 bohr

     Starting wfc are  160 randomized atomic wfcs

     Self-consistent Calculation

     iteration #  1     ecut=    36.75 Ry     beta=0.30
     Davidson diagonalization with overlap
     ethr =  1.00E-02,  avg # of iterations =  2.0

[...]

     total energy              =   -1709.08280439 Ry
     Harris-Foulkes estimate   =   -1712.24749989 Ry
     estimated scf accuracy    <       6.68733343 Ry

[...]

     End of self-consistent calculation

          k = 0.0000 0.0000 0.0000 ( 17111 PWs)   bands (ev):

   -59.5646 -59.4377 -59.4269 -59.3693 -59.3311 -59.3218 -59.2599 -59.2563
   -59.2458 -59.2216 -59.2188 -59.2085 -34.0716 -34.0496 -34.0356 -33.9771
   -33.9675 -33.9621 -33.9569 -33.8637 -33.8587 -33.8537 -33.5543 -33.4559
   -33.4297 -33.4061 -33.3324 -33.3299 -33.3231 -33.2520 -33.2456 -33.2350
   -33.1239 -33.1209 -33.1149 -33.1023 -33.0976 -33.0866 -33.0138 -32.9952
   -32.9902 -32.9872 -32.9781 -32.9569 -32.8745 -32.8740 -32.7907 -32.7890
   -14.0810  -4.4133  -3.1020  -2.9528  -2.9452  -2.9378  -2.9119  -2.5071
    -2.5016  -2.4955  -2.2977  -2.2864  -2.2851  -2.0733  -2.0616  -2.0497
    -0.9971  -0.9114  -0.8335  -0.0639   0.0903   0.0917   0.2590   0.3286
     0.4563   0.6513   0.7592   0.8346   0.8480   1.0851   1.0939   1.2101
     1.2252   1.2289   1.2791   1.2859   1.5342   1.5790   1.7728   1.9410
     2.6536   2.7490   2.7988   2.8043   2.8324   2.8331   3.3560   3.3630
     3.4368

[...]

          k =-0.0888 0.0513 0.0000 ( 17160 PWs)   bands (ev):

[...]

     the Fermi energy is     1.5503 ev

!    total energy              =   -1711.67928728 Ry
     Harris-Foulkes estimate   =   -1711.67933007 Ry
     estimated scf accuracy    <       0.00000457 Ry

     The total energy is the sum of the following terms:

     one-electron contribution =  -15496.75548882 Ry
     hartree contribution      =    7742.04462853 Ry
     xc contribution           =    -247.38573354 Ry
     ewald contribution        =    6290.52114149 Ry
     electric field correction =       0.00114831 Ry
     smearing contrib. (-TS)   =      -0.10498326 Ry

     convergence has been achieved in  18 iterations

 BEEF-vdW xc energy contributions
           1 :   -212.366747479165
           2 :    193.623070542508
           3 :   -161.705139390934
           4 :    125.212375260013
           5 :   -92.5269149196794
           6 :    69.2079351850583
           7 :   -56.8208894887904
           8 :    53.3144361876065
           9 :   -54.5667078734245
          10 :    56.3129123591449
          11 :   -55.6915269444539
          12 :    51.8961399098459
          13 :   -45.8950009685527
          14 :    39.5295716161762
          15 :   -34.4775756216268
          16 :    31.4977383021105
          17 :   -30.2268962987762
          18 :    29.5277948244509
[...]
     Davidson diagonalization with overlap
     c_bands:  1 eigenvalues not converged
     c_bands:  1 eigenvalues not converged
     ethr =  1.39E-06,  avg # of iterations =  6.6

[...]

     Program PWSCF v.5.1rc2 (svn rev. 11289) starts on 14Jan2018 at 14:38:33

[...]

   This run was terminated on:  14:51: 1  14Jan2018

[...]

     Program PWSCF v.5.1rc2 (svn rev. 11289) starts on 14Jan2018 at 14:51: 7

[...]

     Total force =     0.056106     Total SCF correction =     0.005422

[...]

   This run was terminated on:  15: 3:28  14Jan2018

[...]

     Program PWSCF v.5.1rc2 (svn rev. 11289) starts on 14Jan2018 at 15: 3:33

     Current dimensions of program PWSCF are:
     Max number of different atomic species (ntypx) = 10
     Max number of k-points (npk) =  40000
     Max angular momentum in pseudopotentials (lmaxx) =  3
     Presently stress not available with electric field

     IMPORTANT: XC functional enforced from input :
     Exchange-correlation      = BEEF-VDW ( 1  4 27 13 2)
     Any further DFT definition will be discarded
     Please, verify this is what you really want

     Subspace diagonalization in iterative solution of the eigenvalue problem:
     a serial algorithm will be used

     bravais-lattice index     =            0
     lattice parameter (alat)  =       1.8897  a.u.
     unit-cell volume          =    4552.2840 (a.u.)^3
     number of atoms/cell      =           13
     number of atomic types    =            2
     number of electrons       =       174.00
     number of Kohn-Sham states=           97
     kinetic-energy cutoff     =      36.7493  Ry
     charge density cutoff     =     367.4932  Ry
     convergence threshold     =      1.0E-05
     mixing beta               =       0.3000
     number of iterations used =           10  plain     mixing
     Exchange-correlation      = BEEF-VDW ( 1  4 27 13 2)
     nstep                     =           50

     celldm(1)=   1.889726  celldm(2)=   0.000000  celldm(3)=   0.000000
     celldm(4)=   0.000000  celldm(5)=   0.000000  celldm(6)=   0.000000

     crystal axes: (cart. coord. in units of alat)
               a(1) = (   5.627661   0.000000   0.000000 )
               a(2) = (   2.813831   4.873698   0.000000 )
               a(3) = (   0.000000   0.000000  24.594966 )

     reciprocal axes: (cart. coord. in units 2 pi/alat)
               b(1) = (  0.177694 -0.102592  0.000000 )
               b(2) = (  0.000000  0.205183  0.000000 )
               b(3) = (  0.000000  0.000000  0.040659 )

     PseudoPot. # 1 for Mo read from file:
     /afs/slac.stanford.edu/u/if/mamunm/psp/gbrv1.5pbe/Mo.UPF
     MD5 check sum: 30c4dcd161f5d35cd49bb5239c51a633
     Pseudo is Ultrasoft + core correction, Zval = 14.0
     Generated by new atomic code, or converted to UPF format
     Using radial grid of  889 points,  6 beta functions with:
                l(1) =   0
                l(2) =   0
                l(3) =   1
                l(4) =   1
                l(5) =   2
                l(6) =   2
     Q(r) pseudized with  6 coefficients,  rinner =    1.000   1.000   1.000
                                                       1.000   1.000

     PseudoPot. # 2 for O  read from file:
     /afs/slac.stanford.edu/u/if/mamunm/psp/gbrv1.5pbe/O.UPF
     MD5 check sum: 734c27235a0248c51dbae37a1fbe46ec
     Pseudo is Ultrasoft + core correction, Zval =  6.0
     Generated by new atomic code, or converted to UPF format
     Using radial grid of  737 points,  5 beta functions with:
                l(1) =   0
                l(2) =   0
                l(3) =   1
                l(4) =   1
                l(5) =   2
     Q(r) pseudized with  8 coefficients,  rinner =    0.900   0.900   0.900
                                                       0.900   0.900

     vdW kernel table read from file vdW_kernel_table
     MD5 check sum: 095c7af220d748ca6e76c0b4c6cfb241

     atomic species   valence    mass     pseudopotential
        Mo1           14.00    95.95000     Mo( 1.00)
        O1             6.00    15.99900     O ( 1.00)

     No symmetry found

   Cartesian axes

     site n.     atom                  positions (alat units)
         1           Mo1 tau(   1) = (   1.4069153   0.8122829  10.0000000  )
         2           Mo1 tau(   2) = (   4.2207459   0.8122829  10.0000000  )
         3           Mo1 tau(   3) = (   2.8138306   3.2491317  10.0000000  )
         4           Mo1 tau(   4) = (   5.6276612   3.2491317  10.0000000  )
         5           Mo1 tau(   5) = (   5.6276612   1.6245658  12.2974831  )
         6           Mo1 tau(   6) = (   2.8138306   1.6245658  12.2974831  )
         7           Mo1 tau(   7) = (   7.0345765   4.0614146  12.2974831  )
         8           Mo1 tau(   8) = (   4.2207459   4.0614146  12.2974831  )
         9           Mo1 tau(   9) = (   5.5951306   0.3797585  14.6106072  )
        10           Mo1 tau(  10) = (   2.8462632   0.3797886  14.6106080  )
        11           Mo1 tau(  11) = (   7.0345366   2.8470449  14.4035586  )
        12           Mo1 tau(  12) = (   4.2206646   2.7757102  14.6535462  )
        13           O1  tau(  13) = (   4.2206815   4.4824077  15.8040308  )

     number of k points=    20  Fermi-Dirac smearing, width (Ry)=  0.0110
                       cart. coord. in units 2pi/alat
        k(    1) = (   0.0000000   0.0000000   0.0000000), wk =   0.0555556
        k(    2) = (   0.0000000   0.0341972   0.0000000), wk =   0.1111111
        k(    3) = (   0.0000000   0.0683943   0.0000000), wk =   0.1111111
        k(    4) = (   0.0000000  -0.1025915   0.0000000), wk =   0.0555556
        k(    5) = (   0.0296156  -0.0170986   0.0000000), wk =   0.1111111
        k(    6) = (   0.0296156   0.0170986   0.0000000), wk =   0.1111111
        k(    7) = (   0.0296156   0.0512958   0.0000000), wk =   0.1111111
        k(    8) = (   0.0296156  -0.1196901   0.0000000), wk =   0.1111111
        k(    9) = (   0.0296156  -0.0854929   0.0000000), wk =   0.1111111
        k(   10) = (   0.0296156  -0.0512958   0.0000000), wk =   0.1111111
        k(   11) = (   0.0592312  -0.0341972   0.0000000), wk =   0.1111111
        k(   12) = (   0.0592312   0.0000000   0.0000000), wk =   0.1111111
        k(   13) = (   0.0592312   0.0341972   0.0000000), wk =   0.1111111
        k(   14) = (   0.0592312  -0.1367887   0.0000000), wk =   0.1111111
        k(   15) = (   0.0592312  -0.1025915   0.0000000), wk =   0.1111111
        k(   16) = (   0.0592312  -0.0683943   0.0000000), wk =   0.1111111
        k(   17) = (  -0.0888469   0.0512958   0.0000000), wk =   0.0555556
        k(   18) = (  -0.0888469   0.0854929   0.0000000), wk =   0.1111111
        k(   19) = (  -0.0888469   0.1196901   0.0000000), wk =   0.1111111
        k(   20) = (  -0.0888469  -0.0512958   0.0000000), wk =   0.0555556

     Largest allocated arrays     est. size (Mb)     dimensions
     Largest temporary arrays     est. size (Mb)     dimensions

     Initial potential from superposition of free atoms
     Check: negative starting charge=   -0.005156

     starting charge  173.98724, renormalised to  174.00000

[...]

     *
     * You are using vdW-DF for exchange-correlation in this calculation.
     * Please cite the following three references that made this development
     * possible:
     *
     *   M. Dion, H. Rydberg, E. Schroder, D. C. Langreth, and
     *   B. I. Lundqvist, Phys. Rev. Lett. 92, 246401 (2004).
     *
     *   T. Thonhauser, V. R. Cooper, S. Li, A. Puzder, P. Hyldgaard, and
     *   D. C. Langreth, Phys. Rev. B 76, 125112 (2007).
     *
     *   G. Roman-Perez and J. M. Soler, Phys. Rev. Lett. 103, 096102 (2009).
     *
     *
     * If you are using vdW-DF2, please also cite:
     *
     *   K. Lee, E. D. Murray, L. Kong, B. I. Lundqvist, and
     *   D. C. Langreth, Phys. Rev. B 82, 081101(R) (2010).
     *
     *
     * If you are calculating the stress with vdW-DF, please also cite:
     *
     *   R. Sabatini, E. Kucukbenli, B. Kolb, T. Thonhauser, and
     *   S. de Gironcoli, J. Phys.: Condens. Matter 24, 424209 (2012).
     *

     Carrying out vdW-DF run using the following parameters:

     Nqs =      20    Nr_points =    1024   r_max =   100.000
     q_mesh =
               0.00001000     0.04494208     0.09755937     0.15916263
               0.23128650     0.31572767     0.41458969     0.53033537
               0.66584808     0.82450364     1.01025438     1.22772762
               1.48234092     1.78043706     2.12944203     2.53805004
               3.01644009     3.57652955     4.23227104     5.00000000

     Gradients computed in reciprocal space

[...]

     Starting wfc are  160 randomized atomic wfcs

     Self-consistent Calculation

[...]

     total energy              =   -1711.97706042 Ry
     Harris-Foulkes estimate   =   -1711.97706143 Ry
     estimated scf accuracy    <       0.00002645 Ry

     iteration # 15     ecut=    36.75 Ry     beta=0.30
     Davidson diagonalization with overlap
     ethr =  1.52E-08,  avg # of iterations =  3.9

[...]

     negative rho (up, down):  5.251E-03 0.000E+00

     Adding external electric field

     Computed dipole along edir(3) :
        Dipole               -0.0301 Ry au,         -0.0766 Debye
        Dipole field         -0.0001 Ry au

        Potential amp.        0.0075 Ry
        Total length         45.3158 bohr

     End of self-consistent calculation

[...]

          k = 0.0592-0.0684 0.0000 ( 17122 PWs)   bands (ev):

[...]

          k =-0.0888-0.0513 0.0000 ( 17160 PWs)   bands (ev):

   -58.7979 -58.7700 -58.6955 -58.6295 -58.6126 -58.5437 -58.5190 -58.4921
   -58.4897 -58.4379 -58.4304 -58.4119 -33.3366 -33.2843 -33.1811 -33.1464
   -33.1226 -33.1044 -32.9301 -32.9031 -32.8872 -32.8683 -32.8415 -32.8197
   -32.7966 -32.7494 -32.6845 -32.6520 -32.6211 -32.5988 -32.5852 -32.5411
   -32.4774 -32.4590 -32.4522 -32.4435 -32.4383 -32.4171 -32.3847 -32.3447
   -32.3031 -32.2722 -32.2664 -32.2440 -32.2036 -32.1159 -32.1096 -31.9602
   -16.7125  -3.4977  -3.0739  -2.8560  -2.0445  -1.9309  -1.3874  -1.1903
    -1.1566  -1.0557  -0.9501  -0.9267  -0.7683  -0.6188  -0.4526  -0.4286
    -0.3069  -0.2154  -0.1798   0.2258   0.2889   0.4102   0.4567   0.4838
     0.6948   0.8827   0.9856   1.0600   1.2036   1.2401   1.3896   1.5384
     1.5661   1.6533   1.6749   1.7302   1.8545   1.8629   1.9436   2.1153
     2.2230   2.6845   2.7257   2.9145   3.0657   3.1795   3.3180   3.3783
     3.4750

     the Fermi energy is     2.3870 ev

!    total energy              =   -1711.97706181 Ry
     Harris-Foulkes estimate   =   -1711.97706368 Ry
     estimated scf accuracy    <       0.00000276 Ry

     The total energy is the sum of the following terms:

     one-electron contribution =  -15873.42534783 Ry
     hartree contribution      =    7933.77272587 Ry
     xc contribution           =    -247.93338444 Ry
     ewald contribution        =    6475.69913865 Ry
     electric field correction =       0.00000251 Ry
     smearing contrib. (-TS)   =      -0.09019656 Ry

     convergence has been achieved in  15 iterations

 BEEF-vdW xc energy contributions
           1 :   -212.940049990988
           2 :    194.409729200719
           3 :   -162.697462731577
           4 :    126.188171943587
           5 :   -93.2123424892507
           6 :    69.4295381008440
           7 :   -56.5748564107429
           8 :    52.7467553178912
           9 :   -53.8970717934790
          10 :    55.7483029527886
          11 :   -55.3636673858239
          12 :    51.8376041892579
          13 :   -46.0521395232969
          14 :    39.7946635179659
          15 :   -34.7267305801213
          16 :    31.6295434482660
          17 :   -30.1922332718045
          18 :    29.3414331292545
          19 :   -27.8897629925401
          20 :    25.1485355800764
          21 :   -21.2185679075224
          22 :    16.8523909515325
          23 :   -13.0084556317165
          24 :    10.3465105662058
          25 :   -8.92500760493164
          26 :    8.22671111354600
          27 :   -7.46699998548320
          28 :    6.00026930780024
          29 :   -3.62024968529647
          30 :   0.618965598358329
          31 :   -24.2686752771435
          32 :   -18.5690841687582

     Forces acting on atoms (Ry/au):

     negative rho (up, down):  5.251E-03 0.000E+00
     atom    1 type  1   force =     0.00000078   -0.00013078   -0.00821301
     atom    2 type  1   force =    -0.00000045    0.00021813   -0.00635467
     atom    3 type  1   force =     0.00131988   -0.00561866   -0.00867181
     atom    4 type  1   force =    -0.00132166   -0.00562065   -0.00867246
     atom    5 type  1   force =    -0.01290178    0.00274258    0.00175006
     atom    6 type  1   force =     0.01290355    0.00274220    0.00174484
     atom    7 type  1   force =    -0.00000236    0.01182961   -0.01584969
     atom    8 type  1   force =     0.00000283   -0.00621823    0.04421130
     atom    9 type  1   force =     0.00009819    0.00009089   -0.00010644
     atom   10 type  1   force =    -0.00010780    0.00007394   -0.00010445
     atom   11 type  1   force =    -0.00001332    0.00009775    0.00015119
     atom   12 type  1   force =     0.00001920   -0.00053170   -0.00040413
     atom   13 type  2   force =     0.00000292    0.00032492    0.00051927

     Total force =     0.055357     Total SCF correction =     0.005643
     SCF correction compared to forces is large: reduce conv_thr to get better values

     entering subroutine stress ...

     negative rho (up, down):  5.251E-03 0.000E+00
          total   stress  (Ry/bohr**3)                   (kbar)     P=   -8.34
  -0.00008851   0.00000001   0.00000001        -13.02      0.00      0.00
   0.00000001  -0.00011002   0.00001081          0.00    -16.18      1.59
   0.00000001   0.00001081   0.00002848          0.00      1.59      4.19

 !ASE

     Writing output data file calc.save

     General routines

     Parallel routines

   This run was terminated on:  15:15:56  14Jan2018

   JOB DONE.
Job  /afs/slac/g/suncat/bin/suncat-tsmpirun -x LD_LIBRARY_PATH -wdir /scratch/qe842458_3eWSp pw.x -in pw.inp

TID   HOST_NAME   COMMAND_LINE            STATUS            TERMINATION_TIME
00000 suncat1058 pw.x -in pw.inp   Done                     01/14/2018 15:15:56
00001 suncat1058 pw.x -in pw.inp   Done                     01/14/2018 15:15:56
00002 suncat1058 pw.x -in pw.inp   Done                     01/14/2018 15:15:56
00003 suncat1058 pw.x -in pw.inp   Done                     01/14/2018 15:15:56
00004 suncat1058 pw.x -in pw.inp   Done                     01/14/2018 15:15:56
00005 suncat1058 pw.x -in pw.inp   Done                     01/14/2018 15:15:56
00006 suncat1058 pw.x -in pw.inp   Done                     01/14/2018 15:15:56
00007 suncat1058 pw.x -in pw.inp   Done                     01/14/2018 15:15:56
00008 suncat1037 pw.x -in pw.inp   Done                     01/14/2018 15:15:56
00009 suncat1037 pw.x -in pw.inp   Done                     01/14/2018 15:15:56
00010 suncat1037 pw.x -in pw.inp   Done                     01/14/2018 15:15:56
00011 suncat1037 pw.x -in pw.inp   Done                     01/14/2018 15:15:56
00012 suncat1037 pw.x -in pw.inp   Done                     01/14/2018 15:15:56
00013 suncat1037 pw.x -in pw.inp   Done                     01/14/2018 15:15:56
00014 suncat1037 pw.x -in pw.inp   Done                     01/14/2018 15:15:56
00015 suncat1037 pw.x -in pw.inp   Done                     01/14/2018 15:15:56
00016 suncat1037 pw.x -in pw.inp   Done                     01/14/2018 15:15:56
00017 suncat1037 pw.x -in pw.inp   Done                     01/14/2018 15:15:56
00018 suncat1037 pw.x -in pw.inp   Done                     01/14/2018 15:15:56
00019 suncat1037 pw.x -in pw.inp   Done                     01/14/2018 15:15:56
00020 suncat1036 pw.x -in pw.inp   Done                     01/14/2018 15:15:56
00021 suncat1036 pw.x -in pw.inp   Done                     01/14/2018 15:15:56
00022 suncat1036 pw.x -in pw.inp   Done                     01/14/2018 15:15:56
00023 suncat1036 pw.x -in pw.inp   Done                     01/14/2018 15:15:56
00024 suncat1036 pw.x -in pw.inp   Done                     01/14/2018 15:15:56
00025 suncat1036 pw.x -in pw.inp   Done                     01/14/2018 15:15:56
00026 suncat1036 pw.x -in pw.inp   Done                     01/14/2018 15:15:56
00027 suncat1036 pw.x -in pw.inp   Done                     01/14/2018 15:15:56
00028 suncat1036 pw.x -in pw.inp   Done                     01/14/2018 15:15:56
00029 suncat1036 pw.x -in pw.inp   Done                     01/14/2018 15:15:56
00030 suncat1036 pw.x -in pw.inp   Done                     01/14/2018 15:15:56
00031 suncat1036 pw.x -in pw.inp   Done                     01/14/2018 15:15:56