     Program PWSCF v.5.1rc2 (svn rev. 11289) starts on  3May2018 at 11: 8:53

     Current dimensions of program PWSCF are:
     Max number of different atomic species (ntypx) = 10
     Max number of k-points (npk) =  40000
     Max angular momentum in pseudopotentials (lmaxx) =  3
     Presently stress not available with electric field

     IMPORTANT: XC functional enforced from input :
     Exchange-correlation      = BEEF-VDW ( 1  4 27 13 2)
     Any further DFT definition will be discarded
     Please, verify this is what you really want

     Subspace diagonalization in iterative solution of the eigenvalue problem:
     a serial algorithm will be used

     bravais-lattice index     =            0
     lattice parameter (alat)  =       1.8897  a.u.
     unit-cell volume          =    8507.0471 (a.u.)^3
     number of atoms/cell      =           13
     number of atomic types    =            2
     number of electrons       =       137.00
     number of Kohn-Sham states=           78
     kinetic-energy cutoff     =      36.7493  Ry
     charge density cutoff     =     367.4932  Ry
     convergence threshold     =      1.0E-05
     mixing beta               =       0.3000
     number of iterations used =           10  plain     mixing
     Exchange-correlation      = BEEF-VDW ( 1  4 27 13 2)
     nstep                     =           50

     celldm(1)=   1.889726  celldm(2)=   0.000000  celldm(3)=   0.000000
     celldm(4)=   0.000000  celldm(5)=   0.000000  celldm(6)=   0.000000

     crystal axes: (cart. coord. in units of alat)
               a(1) = (   7.468327   0.000000   0.000000 )
               a(2) = (   3.734164   6.467761   0.000000 )
               a(3) = (   0.000000   0.000000  26.097863 )

     reciprocal axes: (cart. coord. in units 2 pi/alat)
               b(1) = (  0.133899 -0.077307  0.000000 )
               b(2) = (  0.000000  0.154613  0.000000 )
               b(3) = (  0.000000  0.000000  0.038317 )

     PseudoPot. # 1 for La read from file:
     /u/if/mamunm/psp/gbrv1.5pbe/La.UPF
     MD5 check sum: 5937b0c7494ba0601a847275249473aa
     Pseudo is Ultrasoft + core correction, Zval = 11.0
     Generated by new atomic code, or converted to UPF format
     Using radial grid of  995 points,  8 beta functions with:
                l(1) =   0
                l(2) =   0
                l(3) =   1
                l(4) =   1
                l(5) =   2
                l(6) =   2
                l(7) =   3
                l(8) =   3
     Q(r) pseudized with  8 coefficients,  rinner =    1.700   1.700   1.700
                                                       1.700   1.700   1.700
                                                       1.700

     PseudoPot. # 2 for N  read from file:
     /u/if/mamunm/psp/gbrv1.5pbe/N.UPF
     MD5 check sum: 95339753478d7afb44899504a8723017
     Pseudo is Ultrasoft + core correction, Zval =  5.0
     Generated by new atomic code, or converted to UPF format
     Using radial grid of  729 points,  4 beta functions with:
                l(1) =   0
                l(2) =   0
                l(3) =   1
                l(4) =   1
     Q(r) pseudized with  8 coefficients,  rinner =    0.900   0.900   0.900

     vdW kernel table read from file vdW_kernel_table
     MD5 check sum: 095c7af220d748ca6e76c0b4c6cfb241

     atomic species   valence    mass     pseudopotential
        La1           11.00   138.90547     La( 1.00)
        N1             5.00    14.00700     N ( 1.00)

     No symmetry found

   Cartesian axes

     site n.     atom                  positions (alat units)
         1           La1 tau(   1) = (   1.8670818   1.0779602  10.0000000  )
         2           La1 tau(   2) = (   5.6012453   1.0779602  10.0000000  )
         3           La1 tau(   3) = (   3.7341635   4.3118406  10.0000000  )
         4           La1 tau(   4) = (   7.4683270   4.3118406  10.0000000  )
         5           La1 tau(   5) = (   7.4683270   2.1559203  13.0489317  )
         6           La1 tau(   6) = (   3.7341635   2.1559203  13.0489317  )
         7           La1 tau(   7) = (   9.3354088   5.3898008  13.0489317  )
         8           La1 tau(   8) = (   5.6012453   5.3898008  13.0489317  )
         9           La1 tau(   9) = (   0.0000000   0.0000000  16.0978635  )
        10           La1 tau(  10) = (   3.7341635   0.0000000  16.0978635  )
        11           La1 tau(  11) = (   1.8670818   3.2338805  16.0978635  )
        12           La1 tau(  12) = (   5.6012453   3.2338805  16.0978635  )
        13           N1  tau(  13) = (   3.7341635   2.1559203  17.9048635  )

     number of k points=    20  Fermi-Dirac smearing, width (Ry)=  0.0110
                       cart. coord. in units 2pi/alat
        k(    1) = (   0.0000000   0.0000000   0.0000000), wk =   0.0555556
        k(    2) = (   0.0000000   0.0257688   0.0000000), wk =   0.1111111
        k(    3) = (   0.0000000   0.0515377   0.0000000), wk =   0.1111111
        k(    4) = (   0.0000000  -0.0773065   0.0000000), wk =   0.0555556
        k(    5) = (   0.0223165  -0.0128844   0.0000000), wk =   0.1111111
        k(    6) = (   0.0223165   0.0128844   0.0000000), wk =   0.1111111
        k(    7) = (   0.0223165   0.0386533   0.0000000), wk =   0.1111111
        k(    8) = (   0.0223165  -0.0901909   0.0000000), wk =   0.1111111
        k(    9) = (   0.0223165  -0.0644221   0.0000000), wk =   0.1111111
        k(   10) = (   0.0223165  -0.0386533   0.0000000), wk =   0.1111111
        k(   11) = (   0.0446329  -0.0257688   0.0000000), wk =   0.1111111
        k(   12) = (   0.0446329   0.0000000   0.0000000), wk =   0.1111111
        k(   13) = (   0.0446329   0.0257688   0.0000000), wk =   0.1111111
        k(   14) = (   0.0446329  -0.1030753   0.0000000), wk =   0.1111111
        k(   15) = (   0.0446329  -0.0773065   0.0000000), wk =   0.1111111
        k(   16) = (   0.0446329  -0.0515377   0.0000000), wk =   0.1111111
        k(   17) = (  -0.0669494   0.0386533   0.0000000), wk =   0.0555556
        k(   18) = (  -0.0669494   0.0644221   0.0000000), wk =   0.1111111
        k(   19) = (  -0.0669494   0.0901909   0.0000000), wk =   0.1111111
        k(   20) = (  -0.0669494  -0.0386533   0.0000000), wk =   0.0555556

     Largest allocated arrays     est. size (Mb)     dimensions
     Largest temporary arrays     est. size (Mb)     dimensions

     Initial potential from superposition of free atoms
     Check: negative starting charge=   -0.831242

     starting charge  136.61517, renormalised to  137.00000

     negative rho (up, down):  8.336E-01 0.000E+00

     *
     * You are using vdW-DF for exchange-correlation in this calculation.
     * Please cite the following three references that made this development
     * possible:
     *
     *   M. Dion, H. Rydberg, E. Schroder, D. C. Langreth, and
     *   B. I. Lundqvist, Phys. Rev. Lett. 92, 246401 (2004).
     *
     *   T. Thonhauser, V. R. Cooper, S. Li, A. Puzder, P. Hyldgaard, and
     *   D. C. Langreth, Phys. Rev. B 76, 125112 (2007).
     *
     *   G. Roman-Perez and J. M. Soler, Phys. Rev. Lett. 103, 096102 (2009).
     *
     *
     * If you are using vdW-DF2, please also cite:
     *
     *   K. Lee, E. D. Murray, L. Kong, B. I. Lundqvist, and
     *   D. C. Langreth, Phys. Rev. B 82, 081101(R) (2010).
     *
     *
     * If you are calculating the stress with vdW-DF, please also cite:
     *
     *   R. Sabatini, E. Kucukbenli, B. Kolb, T. Thonhauser, and
     *   S. de Gironcoli, J. Phys.: Condens. Matter 24, 424209 (2012).
     *

     Carrying out vdW-DF run using the following parameters:

     Nqs =      20    Nr_points =    1024   r_max =   100.000
     q_mesh =
               0.00001000     0.04494208     0.09755937     0.15916263
               0.23128650     0.31572767     0.41458969     0.53033537
               0.66584808     0.82450364     1.01025438     1.22772762
               1.48234092     1.78043706     2.12944203     2.53805004
               3.01644009     3.57652955     4.23227104     5.00000000

     Gradients computed in reciprocal space

     Adding external electric field

     Computed dipole along edir(3) :
        Dipole               -0.1292 Ry au,         -0.3283 Debye
        Dipole field         -0.0002 Ry au

        Potential amp.        0.0183 Ry
        Total length         48.0849 bohr

     Starting wfc are  244 randomized atomic wfcs

     Self-consistent Calculation

     iteration #  1     ecut=    36.75 Ry     beta=0.30
     Davidson diagonalization with overlap
     ethr =  1.00E-02,  avg # of iterations =  2.0

[...]

     total energy              =   -1265.64242338 Ry
     Harris-Foulkes estimate   =   -1269.23283928 Ry
     estimated scf accuracy    <       7.65646086 Ry

[...]

     iteration # 14     ecut=    36.75 Ry     beta=0.30
     Davidson diagonalization with overlap
     c_bands:  1 eigenvalues not converged
     c_bands:  1 eigenvalues not converged
     c_bands:  1 eigenvalues not converged
     ethr =  3.86E-06,  avg # of iterations = 15.8

[...]

     End of self-consistent calculation

          k = 0.0000 0.0000 0.0000 ( 31997 PWs)   bands (ev):

   -31.9450 -31.8812 -31.7514 -31.7481 -31.7477 -31.6584 -31.5679 -31.5677
   -31.4166 -31.3001 -31.2955 -31.2953 -15.9825 -15.9824 -15.9613 -15.9118
   -15.9118 -15.8449 -15.7951 -15.7439 -15.7045 -15.7044 -15.5495 -15.3682
   -15.3092 -15.3090 -15.2056 -15.1405 -15.1403 -15.1377 -15.1182 -15.1182
   -15.0786 -15.0786 -15.0121 -14.8855 -14.8855 -14.8110 -14.7900 -14.7898
   -14.7551 -14.7498 -14.7497 -14.6897 -14.6821 -14.6820 -14.4658 -14.4658
    -9.7887  -1.2937  -0.5631  -0.2348  -0.2104  -0.1769  -0.1769  -0.0266
    -0.0265   0.0993   0.1992   0.2740   0.2740   0.4507   0.4508   0.4579
     0.8059   0.8060   1.0892   1.4705   1.4706   1.5241   1.6888   2.0669
     2.0669   2.2769   2.3887   2.4981   2.6036   2.6970

[...]

          k =-0.0669 0.0387 0.0000 ( 31970 PWs)   bands (ev):

[...]

     the Fermi energy is     1.4844 ev

!    total energy              =   -1268.42314127 Ry
     Harris-Foulkes estimate   =   -1268.42310223 Ry
     estimated scf accuracy    <       0.00000930 Ry

     The total energy is the sum of the following terms:

     one-electron contribution =   -4779.90910604 Ry
     hartree contribution      =    2402.26127939 Ry
     xc contribution           =    -613.84864343 Ry
     ewald contribution        =    1723.19963100 Ry
     electric field correction =       0.00066623 Ry
     smearing contrib. (-TS)   =      -0.12696842 Ry

     convergence has been achieved in  21 iterations

 BEEF-vdW xc energy contributions
           1 :   -543.785214102480
           2 :    500.131778647701
           3 :   -422.941449508977
           4 :    328.693334658608
           5 :   -234.882198581878
           6 :    155.351628535523
           7 :   -97.6865439999922
           8 :    62.9087396988020
           9 :   -46.9575199119058
          10 :    43.0746965054284
          11 :   -44.2050921269768
          12 :    44.7359729291210
          13 :   -41.3129826088673
          14 :    32.8762768415170
          15 :   -20.2656903043385
          16 :    5.65425069485514
          17 :    8.11455609456289
          18 :   -18.2967234855311
          19 :    23.0397512267841
          20 :   -21.9808779626330
          21 :    16.4033880908141
          22 :   -8.82968386229186
          23 :    2.14458942669160
          24 :    1.43447825039584
          25 :   -1.12024326628386
          26 :   -2.28240358298342
          27 :    6.87423242080763
          28 :   -10.5689493227060
          29 :    11.9770407751548
          30 :   -10.8808408260758
          31 :   -46.3138241173492
          32 :   -33.2188497642318

     Forces acting on atoms (Ry/au):

     negative rho (up, down):  5.841E-01 0.000E+00
     atom    1 type  1   force =    -0.00063237   -0.00035814    0.00468682
     atom    2 type  1   force =     0.00062697   -0.00035232    0.00465322
     atom    3 type  1   force =     0.00000816    0.00071749    0.00465423
     atom    4 type  1   force =    -0.00000921   -0.00000331    0.00617724
     atom    5 type  1   force =     0.00000483   -0.00145005   -0.00599972
     atom    6 type  1   force =    -0.00000421   -0.00000043   -0.01361483
     atom    7 type  1   force =     0.00125593    0.00072312   -0.00598383
     atom    8 type  1   force =    -0.00125309    0.00072775   -0.00598991
     atom    9 type  1   force =     0.00000299   -0.00000449    0.00270688
     atom   10 type  1   force =    -0.00000093    0.05616347    0.05049378
     atom   11 type  1   force =     0.04863824   -0.02808136    0.05049920
     atom   12 type  1   force =    -0.04863873   -0.02808087    0.05049135
     atom   13 type  2   force =     0.00000142   -0.00000086   -0.14277442

     Total force =     0.193659     Total SCF correction =     0.002146

     entering subroutine stress ...

     negative rho (up, down):  5.841E-01 0.000E+00
          total   stress  (Ry/bohr**3)                   (kbar)     P=   -5.60
  -0.00002565   0.00000000  -0.00000000         -3.77      0.00     -0.00
   0.00000000  -0.00002565   0.00000000          0.00     -3.77      0.00
  -0.00000000   0.00000000  -0.00006287         -0.00      0.00     -9.25

     BFGS Geometry Optimization

     number of scf cycles    =   1
     number of bfgs steps    =   0

     energy   new            =   -1268.4231412669 Ry

     new trust radius        =       0.1427744195 bohr
     new conv_thr            =       0.0000099958 Ry

ATOMIC_POSITIONS (crystal)
La1      0.166666667   0.166666667   0.383173129    0   0   0
La1      0.666666667   0.166666667   0.383173129    0   0   0
La1      0.166666667   0.666666667   0.383173129    0   0   0
La1      0.666666667   0.666666667   0.383173129    0   0   0
La1      0.833333333   0.333333333   0.500000000    0   0   0
La1      0.333333333   0.333333333   0.500000000    0   0   0
La1      0.833333333   0.833333333   0.500000000    0   0   0
La1      0.333333333   0.833333333   0.500000000    0   0   0
La1      0.000000396  -0.000000368   0.616881757
La1      0.497702352   0.004595165   0.617850716
La1      0.004595096   0.497702448   0.617850826
La1      0.497702400   0.497702489   0.617850666
N1       0.333333469   0.333333263   0.683171269

     Writing output data file calc.save
     Check: negative starting charge=   -0.831242
     NEW-OLD atomic charge density approx. for the potential
     Check: negative starting charge=   -0.832693

[...]

     energy   old            =   -1268.4231412669 Ry
     energy   new            =   -1268.4606299003 Ry

     CASE: energy  _new < energy  _old

     WARNING: bfgs curvature condition failed, Theta= 0.807
     new trust radius        =       0.2141616293 bohr
     new conv_thr            =       0.0000001000 Ry

[...]

     WARNING: bfgs curvature condition failed, Theta= 0.855
     new trust radius        =       0.0771148080 bohr
     new conv_thr            =       0.0000001000 Ry

[...]

     iteration #  6     ecut=    36.75 Ry     beta=0.30
     Davidson diagonalization with overlap
     c_bands:  1 eigenvalues not converged
     ethr =  1.76E-08,  avg # of iterations = 12.1

[...]

     Total force =     0.006092     Total SCF correction =     0.000356

[...]

     number of scf cycles    =  28
     number of bfgs steps    =  27

     energy   old            =   -1268.6599364018 Ry
     energy   new            =   -1268.6604802111 Ry

     CASE: energy  _new < energy  _old

     new trust radius        =       0.0198615991 bohr
     new conv_thr            =       0.0000001000 Ry

ATOMIC_POSITIONS (crystal)
La1      0.166666667   0.166666667   0.383173129    0   0   0
La1      0.666666667   0.166666667   0.383173129    0   0   0
La1      0.166666667   0.666666667   0.383173129    0   0   0
La1      0.666666667   0.666666667   0.383173129    0   0   0
La1      0.833333333   0.333333333   0.500000000    0   0   0
La1      0.333333333   0.333333333   0.500000000    0   0   0
La1      0.833333333   0.833333333   0.500000000    0   0   0
La1      0.333333333   0.833333333   0.500000000    0   0   0
La1      0.000001186  -0.000001028   0.612349680
La1      0.502914151  -0.005830143   0.618305270
La1     -0.005833332   0.502916011   0.618304719
La1      0.502916849   0.502915354   0.618305259
N1       0.333335333   0.333331565   0.608888573

     Writing output data file calc.save
     Check: negative starting charge=   -0.832909
     NEW-OLD atomic charge density approx. for the potential
     Check: negative starting charge=   -0.832859

[...]

     Self-consistent Calculation

[...]

     total energy              =   -1268.66059706 Ry
     Harris-Foulkes estimate   =   -1268.66059714 Ry
     estimated scf accuracy    <       0.00000041 Ry

     iteration # 11     ecut=    36.75 Ry     beta=0.30
     Davidson diagonalization with overlap
     ethr =  3.00E-10,  avg # of iterations =  4.5

[...]

     negative rho (up, down):  5.723E-01 0.000E+00

     Adding external electric field

     Computed dipole along edir(3) :
        Dipole               -0.0009 Ry au,         -0.0023 Debye
        Dipole field         -0.0000 Ry au

        Potential amp.        0.0001 Ry
        Total length         48.0849 bohr

     End of self-consistent calculation

[...]

          k = 0.0446-0.0515 0.0000 ( 31991 PWs)   bands (ev):

[...]

          k =-0.0669-0.0387 0.0000 ( 31970 PWs)   bands (ev):

   -31.3401 -31.3329 -31.2723 -31.2661 -31.2258 -31.0515 -31.0012 -30.9600
   -30.9267 -30.8404 -30.8037 -30.7808 -16.3099 -15.2993 -15.2826 -15.1844
   -15.1759 -15.1501 -15.1080 -15.0880 -15.0651 -15.0217 -14.9811 -14.9563
   -14.9154 -14.9114 -14.8774 -14.8184 -14.8141 -14.8080 -14.7729 -14.7392
   -14.5722 -14.5502 -14.5391 -14.5296 -14.4972 -14.4264 -14.4092 -14.3953
   -14.3827 -14.3558 -14.3184 -14.2339 -14.2190 -14.2038 -14.1160 -14.0660
    -9.5396  -1.4995  -1.4031  -0.9107   0.3893   0.4967   0.8198   0.9827
     1.1449   1.1747   1.1865   1.2562   1.4152   1.4869   1.6801   1.7567
     1.7568   1.8134   1.8268   1.9434   2.0148   2.1099   2.1631   2.1748
     2.2037   2.2926   2.2949   2.4616   2.4955   2.5245

     the Fermi energy is     1.9447 ev

!    total energy              =   -1268.66059696 Ry
     Harris-Foulkes estimate   =   -1268.66059710 Ry
     estimated scf accuracy    <       0.00000006 Ry

     The total energy is the sum of the following terms:

     one-electron contribution =   -4980.43162964 Ry
     hartree contribution      =    2504.62453736 Ry
     xc contribution           =    -614.45238540 Ry
     ewald contribution        =    1821.72505109 Ry
     electric field correction =       0.00000000 Ry
     smearing contrib. (-TS)   =      -0.12617037 Ry

     convergence has been achieved in  11 iterations

 BEEF-vdW xc energy contributions
           1 :   -544.395130898648
           2 :    500.898343806452
           3 :   -423.831104228697
           4 :    329.511286424183
           5 :   -235.426237279082
           6 :    155.510425050768
           7 :   -97.4481417168726
           8 :    62.3417575616486
           9 :   -46.2005150340407
          10 :    42.3117177540902
          11 :   -43.6067720461159
          12 :    44.3914213732945
          13 :   -41.2008779213292
          14 :    32.8946165042536
          15 :   -20.2970610292299
          16 :    5.62556858931248
          17 :    8.20891999729304
          18 :   -18.4155590715994
          19 :    23.1428198929270
          20 :   -22.0717841852053
          21 :    16.5355813237239
          22 :   -9.06820376093117
          23 :    2.51136190532009
          24 :   0.989376358833056
          25 :  -0.699422246662266
          26 :   -2.57678690304226
          27 :    6.99263053073230
          28 :   -10.5347743374773
          29 :    11.8660319558925
          30 :   -10.7761144798520
          31 :   -46.3513659396494
          32 :   -33.2859836168083

     Forces acting on atoms (Ry/au):

     negative rho (up, down):  5.723E-01 0.000E+00
     atom    1 type  1   force =    -0.00207964   -0.00120124    0.00148539
     atom    2 type  1   force =     0.00207994   -0.00120117    0.00148585
     atom    3 type  1   force =    -0.00000003    0.00240157    0.00148584
     atom    4 type  1   force =    -0.00000007    0.00000042    0.00265979
     atom    5 type  1   force =    -0.00000072    0.00219005   -0.00754658
     atom    6 type  1   force =     0.00000087   -0.00000015    0.01669364
     atom    7 type  1   force =    -0.00189719   -0.00109531   -0.00754662
     atom    8 type  1   force =     0.00189737   -0.00109541   -0.00754657
     atom    9 type  1   force =    -0.00000109    0.00000057   -0.00128610
     atom   10 type  1   force =     0.00000048   -0.00003619    0.00021478
     atom   11 type  1   force =    -0.00002188    0.00001371    0.00021402
     atom   12 type  1   force =     0.00002570    0.00001567    0.00021400
     atom   13 type  2   force =    -0.00000375    0.00000748   -0.00052744

     Total force =     0.001440     Total SCF correction =     0.000673
     SCF correction compared to forces is large: reduce conv_thr to get better values

     entering subroutine stress ...

     negative rho (up, down):  5.723E-01 0.000E+00
          total   stress  (Ry/bohr**3)                   (kbar)     P=    2.02
   0.00002402   0.00000000   0.00000000          3.53      0.00      0.00
   0.00000000   0.00002402  -0.00000000          0.00      3.53     -0.00
   0.00000000  -0.00000000  -0.00000695          0.00     -0.00     -1.02

     bfgs converged in  29 scf cycles and  28 bfgs steps
     (criteria: energy <  1.0E+00, force <  1.9E-03)

     End of BFGS Geometry Optimization

     Final energy   =   -1268.6605969564 Ry
Begin final coordinates

ATOMIC_POSITIONS (crystal)
La1      0.166666667   0.166666667   0.383173129    0   0   0
La1      0.666666667   0.166666667   0.383173129    0   0   0
La1      0.166666667   0.666666667   0.383173129    0   0   0
La1      0.666666667   0.666666667   0.383173129    0   0   0
La1      0.833333333   0.333333333   0.500000000    0   0   0
La1      0.333333333   0.333333333   0.500000000    0   0   0
La1      0.833333333   0.833333333   0.500000000    0   0   0
La1      0.333333333   0.833333333   0.500000000    0   0   0
La1      0.000001186  -0.000001028   0.612349680
La1      0.502914151  -0.005830143   0.618305270
La1     -0.005833332   0.502916011   0.618304719
La1      0.502916849   0.502915354   0.618305259
N1       0.333335333   0.333331565   0.608888573
End final coordinates

     Writing output data file calc.save

     General routines

     Parallel routines

   This run was terminated on:  23:49:46   3May2018

   JOB DONE.
Job  /afs/slac/g/suncat/bin/suncat-tsmpirun -x LD_LIBRARY_PATH -wdir /scratch/qe746676_MtA6J pw.x -npool 4 -in pw.inp

TID   HOST_NAME   COMMAND_LINE            STATUS            TERMINATION_TIME
00000 suncat0080 pw.x -npool 4 -i  Done                     05/03/2018 23:49:46
00001 suncat0080 pw.x -npool 4 -i  Done                     05/03/2018 23:49:46
00002 suncat0080 pw.x -npool 4 -i  Done                     05/03/2018 23:49:46
00003 suncat0080 pw.x -npool 4 -i  Done                     05/03/2018 23:49:46
00004 suncat0080 pw.x -npool 4 -i  Done                     05/03/2018 23:49:46
00005 suncat0080 pw.x -npool 4 -i  Done                     05/03/2018 23:49:46
00006 suncat0080 pw.x -npool 4 -i  Done                     05/03/2018 23:49:46
00007 suncat0080 pw.x -npool 4 -i  Done                     05/03/2018 23:49:46
00008 suncat0078 pw.x -npool 4 -i  Done                     05/03/2018 23:49:46
00009 suncat0078 pw.x -npool 4 -i  Done                     05/03/2018 23:49:46
00010 suncat0078 pw.x -npool 4 -i  Done                     05/03/2018 23:49:46
00011 suncat0078 pw.x -npool 4 -i  Done                     05/03/2018 23:49:46
00012 suncat0078 pw.x -npool 4 -i  Done                     05/03/2018 23:49:46
00013 suncat0078 pw.x -npool 4 -i  Done                     05/03/2018 23:49:46
00014 suncat0078 pw.x -npool 4 -i  Done                     05/03/2018 23:49:46
00015 suncat0078 pw.x -npool 4 -i  Done                     05/03/2018 23:49:46
00016 suncat0245 pw.x -npool 4 -i  Done                     05/03/2018 23:49:46
00017 suncat0245 pw.x -npool 4 -i  Done                     05/03/2018 23:49:46
00018 suncat0245 pw.x -npool 4 -i  Done                     05/03/2018 23:49:46
00019 suncat0245 pw.x -npool 4 -i  Done                     05/03/2018 23:49:46
00020 suncat0245 pw.x -npool 4 -i  Done                     05/03/2018 23:49:46
00021 suncat0245 pw.x -npool 4 -i  Done                     05/03/2018 23:49:46
00022 suncat0245 pw.x -npool 4 -i  Done                     05/03/2018 23:49:46
00023 suncat0245 pw.x -npool 4 -i  Done                     05/03/2018 23:49:46
00024 suncat0234 pw.x -npool 4 -i  Done                     05/03/2018 23:49:46
00025 suncat0234 pw.x -npool 4 -i  Done                     05/03/2018 23:49:46
00026 suncat0234 pw.x -npool 4 -i  Done                     05/03/2018 23:49:46
00027 suncat0234 pw.x -npool 4 -i  Done                     05/03/2018 23:49:46
00028 suncat0234 pw.x -npool 4 -i  Done                     05/03/2018 23:49:46
00029 suncat0234 pw.x -npool 4 -i  Done                     05/03/2018 23:49:46
00030 suncat0234 pw.x -npool 4 -i  Done                     05/03/2018 23:49:46
00031 suncat0234 pw.x -npool 4 -i  Done                     05/03/2018 23:49:46