     Program PWSCF v.5.1rc2 (svn rev. 11289) starts on 14Jan2018 at  5:22:23

     Current dimensions of program PWSCF are:
     Max number of different atomic species (ntypx) = 10
     Max number of k-points (npk) =  40000
     Max angular momentum in pseudopotentials (lmaxx) =  3
     Presently stress not available with electric field

     IMPORTANT: XC functional enforced from input :
     Exchange-correlation      = BEEF-VDW ( 1  4 27 13 2)
     Any further DFT definition will be discarded
     Please, verify this is what you really want

     Subspace diagonalization in iterative solution of the eigenvalue problem:
     a serial algorithm will be used

     bravais-lattice index     =            0
     lattice parameter (alat)  =       1.8897  a.u.
     unit-cell volume          =    4306.9643 (a.u.)^3
     number of atoms/cell      =           13
     number of atomic types    =            2
     number of electrons       =       181.00
     number of Kohn-Sham states=          100
     kinetic-energy cutoff     =      36.7493  Ry
     charge density cutoff     =     367.4932  Ry
     convergence threshold     =      1.0E-05
     mixing beta               =       0.3000
     number of iterations used =           10  plain     mixing
     Exchange-correlation      = BEEF-VDW ( 1  4 27 13 2)
     nstep                     =           50

     celldm(1)=   1.889726  celldm(2)=   0.000000  celldm(3)=   0.000000
     celldm(4)=   0.000000  celldm(5)=   0.000000  celldm(6)=   0.000000

     crystal axes: (cart. coord. in units of alat)
               a(1) = (   5.486772   0.000000   0.000000 )
               a(2) = (   2.743386   4.751684   0.000000 )
               a(3) = (   0.000000   0.000000  24.479931 )

     reciprocal axes: (cart. coord. in units 2 pi/alat)
               b(1) = (  0.182257 -0.105226  0.000000 )
               b(2) = (  0.000000  0.210452  0.000000 )
               b(3) = (  0.000000  0.000000  0.040850 )

     PseudoPot. # 1 for Re read from file:
     /afs/slac.stanford.edu/u/if/mamunm/psp/gbrv1.5pbe/Re.UPF
     MD5 check sum: 85f993410f3e006da9d71c142b4ad953
     Pseudo is Ultrasoft + core correction, Zval = 15.0
     Generated by new atomic code, or converted to UPF format
     Using radial grid of  981 points,  8 beta functions with:
                l(1) =   0
                l(2) =   0
                l(3) =   1
                l(4) =   1
                l(5) =   2
                l(6) =   2
                l(7) =   3
                l(8) =   3
     Q(r) pseudized with  8 coefficients,  rinner =    1.150   1.150   1.150
                                                       1.150   1.150   1.150
                                                       1.150

     PseudoPot. # 2 for H  read from file:
     /afs/slac.stanford.edu/u/if/mamunm/psp/gbrv1.5pbe/H.UPF
     MD5 check sum: 761ae9a214b05c3daf00ab9f6b793d6f
     Pseudo is Ultrasoft, Zval =  1.0
     Generated by new atomic code, or converted to UPF format
     Using radial grid of  615 points,  2 beta functions with:
                l(1) =   0
                l(2) =   0
     Q(r) pseudized with  8 coefficients,  rinner =    0.700

     vdW kernel table read from file vdW_kernel_table
     MD5 check sum: 095c7af220d748ca6e76c0b4c6cfb241

     atomic species   valence    mass     pseudopotential
        Re1           15.00   186.20700     Re( 1.00)
        H1             1.00     1.00800     H ( 1.00)

     No symmetry found

   Cartesian axes

     site n.     atom                  positions (alat units)
         1           Re1 tau(   1) = (   1.3716930   0.7919474  10.0000000  )
         2           Re1 tau(   2) = (   4.1150791   0.7919474  10.0000000  )
         3           Re1 tau(   3) = (   2.7433861   3.1677894  10.0000000  )
         4           Re1 tau(   4) = (   5.4867722   3.1677894  10.0000000  )
         5           Re1 tau(   5) = (   5.4867722   1.5838947  12.2399654  )
         6           Re1 tau(   6) = (   2.7433861   1.5838947  12.2399654  )
         7           Re1 tau(   7) = (   6.8584652   3.9597368  12.2399654  )
         8           Re1 tau(   8) = (   4.1150791   3.9597368  12.2399654  )
         9           Re1 tau(   9) = (   0.0000000   0.0000000  14.4799307  )
        10           Re1 tau(  10) = (   2.7433861   0.0000000  14.4799307  )
        11           Re1 tau(  11) = (   1.3716930   2.3758421  14.4799307  )
        12           Re1 tau(  12) = (   4.1150791   2.3758421  14.4799307  )
        13           H1  tau(  13) = (   1.3716930   0.7919474  16.2999307  )

     number of k points=    20  Fermi-Dirac smearing, width (Ry)=  0.0110
                       cart. coord. in units 2pi/alat
        k(    1) = (   0.0000000   0.0000000   0.0000000), wk =   0.0555556
        k(    2) = (   0.0000000   0.0350753   0.0000000), wk =   0.1111111
        k(    3) = (   0.0000000   0.0701506   0.0000000), wk =   0.1111111
        k(    4) = (   0.0000000  -0.1052259   0.0000000), wk =   0.0555556
        k(    5) = (   0.0303761  -0.0175376   0.0000000), wk =   0.1111111
        k(    6) = (   0.0303761   0.0175376   0.0000000), wk =   0.1111111
        k(    7) = (   0.0303761   0.0526129   0.0000000), wk =   0.1111111
        k(    8) = (   0.0303761  -0.1227635   0.0000000), wk =   0.1111111
        k(    9) = (   0.0303761  -0.0876882   0.0000000), wk =   0.1111111
        k(   10) = (   0.0303761  -0.0526129   0.0000000), wk =   0.1111111
        k(   11) = (   0.0607522  -0.0350753   0.0000000), wk =   0.1111111
        k(   12) = (   0.0607522   0.0000000   0.0000000), wk =   0.1111111
        k(   13) = (   0.0607522   0.0350753   0.0000000), wk =   0.1111111
        k(   14) = (   0.0607522  -0.1403011   0.0000000), wk =   0.1111111
        k(   15) = (   0.0607522  -0.1052259   0.0000000), wk =   0.1111111
        k(   16) = (   0.0607522  -0.0701506   0.0000000), wk =   0.1111111
        k(   17) = (  -0.0911283   0.0526129   0.0000000), wk =   0.0555556
        k(   18) = (  -0.0911283   0.0876882   0.0000000), wk =   0.1111111
        k(   19) = (  -0.0911283   0.1227635   0.0000000), wk =   0.1111111
        k(   20) = (  -0.0911283  -0.0526129   0.0000000), wk =   0.0555556

     Largest allocated arrays     est. size (Mb)     dimensions
     Largest temporary arrays     est. size (Mb)     dimensions

     Initial potential from superposition of free atoms
     Check: negative starting charge=   -1.539600

     starting charge  174.99945, renormalised to  181.00000

     negative rho (up, down):  1.592E+00 0.000E+00

     *
     * You are using vdW-DF for exchange-correlation in this calculation.
     * Please cite the following three references that made this development
     * possible:
     *
     *   M. Dion, H. Rydberg, E. Schroder, D. C. Langreth, and
     *   B. I. Lundqvist, Phys. Rev. Lett. 92, 246401 (2004).
     *
     *   T. Thonhauser, V. R. Cooper, S. Li, A. Puzder, P. Hyldgaard, and
     *   D. C. Langreth, Phys. Rev. B 76, 125112 (2007).
     *
     *   G. Roman-Perez and J. M. Soler, Phys. Rev. Lett. 103, 096102 (2009).
     *
     *
     * If you are using vdW-DF2, please also cite:
     *
     *   K. Lee, E. D. Murray, L. Kong, B. I. Lundqvist, and
     *   D. C. Langreth, Phys. Rev. B 82, 081101(R) (2010).
     *
     *
     * If you are calculating the stress with vdW-DF, please also cite:
     *
     *   R. Sabatini, E. Kucukbenli, B. Kolb, T. Thonhauser, and
     *   S. de Gironcoli, J. Phys.: Condens. Matter 24, 424209 (2012).
     *

     Carrying out vdW-DF run using the following parameters:

     Nqs =      20    Nr_points =    1024   r_max =   100.000
     q_mesh =
               0.00001000     0.04494208     0.09755937     0.15916263
               0.23128650     0.31572767     0.41458969     0.53033537
               0.66584808     0.82450364     1.01025438     1.22772762
               1.48234092     1.78043706     2.12944203     2.53805004
               3.01644009     3.57652955     4.23227104     5.00000000

     Gradients computed in reciprocal space

     Adding external electric field

     Computed dipole along edir(3) :
        Dipole               -0.2630 Ry au,         -0.6685 Debye
        Dipole field         -0.0008 Ry au

        Potential amp.        0.0692 Ry
        Total length         45.1039 bohr

     Starting wfc are  157 randomized atomic wfcs

     Self-consistent Calculation

     iteration #  1     ecut=    36.75 Ry     beta=0.30
     Davidson diagonalization with overlap
     ethr =  1.00E-02,  avg # of iterations =  2.0

[...]

     total energy              =   -2306.25178122 Ry
     Harris-Foulkes estimate   =   -2307.77521228 Ry
     estimated scf accuracy    <       3.58382449 Ry

[...]

     End of self-consistent calculation

          k = 0.0000 0.0000 0.0000 ( 16091 PWs)   bands (ev):

   -77.7098 -77.6291 -77.6256 -77.6253 -77.5876 -77.5705 -77.5700 -77.5500
   -77.4898 -77.4802 -77.4799 -77.4794 -39.9628 -39.9555 -39.9554 -39.8525
   -39.7961 -39.7596 -39.7594 -39.6464 -39.6317 -39.6315 -39.4269 -39.3361
   -39.3357 -39.2814 -39.2725 -39.2724 -39.2643 -39.2062 -39.1964 -39.1963
   -39.0838 -39.0837 -39.0579 -38.9913 -38.9797 -38.9794 -38.9754 -38.9513
   -38.9513 -38.8985 -38.8969 -38.8968 -38.7575 -38.7574 -38.6958 -38.6958
    -6.3170  -4.4169  -3.8004  -3.4018  -3.3799  -3.3799  -3.0934  -3.0650
    -3.0649  -2.4863  -2.3808  -2.3808  -2.2158  -2.1852  -2.1851  -1.0545
    -0.6485  -0.6484  -0.0249   0.4074   0.4074   0.4421   0.7215   0.9140
     1.0744   1.0744   1.5269   1.5269   1.5661   1.5668   1.5668   1.5890
     1.5891   1.6502   1.8408   1.8408   2.6284   3.1558   3.1559   3.2152
     3.5717   3.5718   3.5795   4.1473   4.1473   4.3610   4.6365   4.6365
     4.7063   4.7063   4.9260   5.0164

[...]

          k =-0.0911 0.0526 0.0000 ( 16164 PWs)   bands (ev):

[...]

     the Fermi energy is     2.9375 ev

!    total energy              =   -2306.99607381 Ry
     Harris-Foulkes estimate   =   -2306.99608216 Ry
     estimated scf accuracy    <       0.00000897 Ry

     The total energy is the sum of the following terms:

     one-electron contribution =  -18481.14830353 Ry
     hartree contribution      =    9225.39453553 Ry
     xc contribution           =    -649.96583346 Ry
     ewald contribution        =    7598.79123209 Ry
     electric field correction =       0.00000043 Ry
     smearing contrib. (-TS)   =      -0.06770486 Ry

     convergence has been achieved in  14 iterations

 BEEF-vdW xc energy contributions
           1 :   -577.985945926662
           2 :    537.464115116176
           3 :   -464.662149869886
           4 :    373.348812469848
           5 :   -278.779659724274
           6 :    193.794566832348
           7 :   -126.186190380381
           8 :    77.9642572278634
           9 :   -46.4549505834527
          10 :    26.5379873522400
          11 :   -13.0367242814750
          12 :    2.40215711730616
          13 :    6.72330089854108
          14 :   -13.9721434117785
          15 :    18.2947473343802
          16 :   -19.0223531059980
          17 :    16.5059421464168
          18 :   -12.1363201391987
          19 :    7.82542358664136
[...]
00029 suncat0240 pw.x -in pw.inp   Done                     01/14/2018 05:34:34
00030 suncat0240 pw.x -in pw.inp   Done                     01/14/2018 05:34:34
00031 suncat0240 pw.x -in pw.inp   Done                     01/14/2018 05:34:34

[...]

   This run was terminated on:   5:48: 5  14Jan2018

[...]

   This run was terminated on:   6: 1: 8  14Jan2018

[...]

     Program PWSCF v.5.1rc2 (svn rev. 11289) starts on 14Jan2018 at  6: 1:16

[...]

     Program PWSCF v.5.1rc2 (svn rev. 11289) starts on 14Jan2018 at  6:26: 0

[...]

     Program PWSCF v.5.1rc2 (svn rev. 11289) starts on 14Jan2018 at  6:37:48

     Current dimensions of program PWSCF are:
     Max number of different atomic species (ntypx) = 10
     Max number of k-points (npk) =  40000
     Max angular momentum in pseudopotentials (lmaxx) =  3
     Presently stress not available with electric field

     IMPORTANT: XC functional enforced from input :
     Exchange-correlation      = BEEF-VDW ( 1  4 27 13 2)
     Any further DFT definition will be discarded
     Please, verify this is what you really want

     Subspace diagonalization in iterative solution of the eigenvalue problem:
     a serial algorithm will be used

     bravais-lattice index     =            0
     lattice parameter (alat)  =       1.8897  a.u.
     unit-cell volume          =    4306.9643 (a.u.)^3
     number of atoms/cell      =           13
     number of atomic types    =            2
     number of electrons       =       181.00
     number of Kohn-Sham states=          100
     kinetic-energy cutoff     =      36.7493  Ry
     charge density cutoff     =     367.4932  Ry
     convergence threshold     =      1.0E-05
     mixing beta               =       0.3000
     number of iterations used =           10  plain     mixing
     Exchange-correlation      = BEEF-VDW ( 1  4 27 13 2)
     nstep                     =           50

     celldm(1)=   1.889726  celldm(2)=   0.000000  celldm(3)=   0.000000
     celldm(4)=   0.000000  celldm(5)=   0.000000  celldm(6)=   0.000000

     crystal axes: (cart. coord. in units of alat)
               a(1) = (   5.486772   0.000000   0.000000 )
               a(2) = (   2.743386   4.751684   0.000000 )
               a(3) = (   0.000000   0.000000  24.479931 )

     reciprocal axes: (cart. coord. in units 2 pi/alat)
               b(1) = (  0.182257 -0.105226  0.000000 )
               b(2) = (  0.000000  0.210452  0.000000 )
               b(3) = (  0.000000  0.000000  0.040850 )

     PseudoPot. # 1 for Re read from file:
     /afs/slac.stanford.edu/u/if/mamunm/psp/gbrv1.5pbe/Re.UPF
     MD5 check sum: 85f993410f3e006da9d71c142b4ad953
     Pseudo is Ultrasoft + core correction, Zval = 15.0
     Generated by new atomic code, or converted to UPF format
     Using radial grid of  981 points,  8 beta functions with:
                l(1) =   0
                l(2) =   0
                l(3) =   1
                l(4) =   1
                l(5) =   2
                l(6) =   2
                l(7) =   3
                l(8) =   3
     Q(r) pseudized with  8 coefficients,  rinner =    1.150   1.150   1.150
                                                       1.150   1.150   1.150
                                                       1.150

     PseudoPot. # 2 for H  read from file:
     /afs/slac.stanford.edu/u/if/mamunm/psp/gbrv1.5pbe/H.UPF
     MD5 check sum: 761ae9a214b05c3daf00ab9f6b793d6f
     Pseudo is Ultrasoft, Zval =  1.0
     Generated by new atomic code, or converted to UPF format
     Using radial grid of  615 points,  2 beta functions with:
                l(1) =   0
                l(2) =   0
     Q(r) pseudized with  8 coefficients,  rinner =    0.700

     vdW kernel table read from file vdW_kernel_table
     MD5 check sum: 095c7af220d748ca6e76c0b4c6cfb241

     atomic species   valence    mass     pseudopotential
        Re1           15.00   186.20700     Re( 1.00)
        H1             1.00     1.00800     H ( 1.00)

     No symmetry found

   Cartesian axes

     site n.     atom                  positions (alat units)
         1           Re1 tau(   1) = (   1.3716930   0.7919474  10.0000000  )
         2           Re1 tau(   2) = (   4.1150791   0.7919474  10.0000000  )
         3           Re1 tau(   3) = (   2.7433861   3.1677894  10.0000000  )
         4           Re1 tau(   4) = (   5.4867722   3.1677894  10.0000000  )
         5           Re1 tau(   5) = (   5.4867722   1.5838947  12.2399654  )
         6           Re1 tau(   6) = (   2.7433861   1.5838947  12.2399654  )
         7           Re1 tau(   7) = (   6.8584652   3.9597368  12.2399654  )
         8           Re1 tau(   8) = (   4.1150791   3.9597368  12.2399654  )
         9           Re1 tau(   9) = (   8.2063029   4.7379318  14.4419772  )
        10           Re1 tau(  10) = (   5.5106593   4.7379564  14.4418528  )
        11           Re1 tau(  11) = (   6.8585035   2.4034378  14.4418701  )
        12           Re1 tau(  12) = (   4.1150607   2.3758684  14.3961375  )
        13           H1  tau(  13) = (   1.3717307   0.7919578  15.5069739  )

     number of k points=    20  Fermi-Dirac smearing, width (Ry)=  0.0110
                       cart. coord. in units 2pi/alat
        k(    1) = (   0.0000000   0.0000000   0.0000000), wk =   0.0555556
        k(    2) = (   0.0000000   0.0350753   0.0000000), wk =   0.1111111
        k(    3) = (   0.0000000   0.0701506   0.0000000), wk =   0.1111111
        k(    4) = (   0.0000000  -0.1052259   0.0000000), wk =   0.0555556
        k(    5) = (   0.0303761  -0.0175376   0.0000000), wk =   0.1111111
        k(    6) = (   0.0303761   0.0175376   0.0000000), wk =   0.1111111
        k(    7) = (   0.0303761   0.0526129   0.0000000), wk =   0.1111111
        k(    8) = (   0.0303761  -0.1227635   0.0000000), wk =   0.1111111
        k(    9) = (   0.0303761  -0.0876882   0.0000000), wk =   0.1111111
        k(   10) = (   0.0303761  -0.0526129   0.0000000), wk =   0.1111111
        k(   11) = (   0.0607522  -0.0350753   0.0000000), wk =   0.1111111
        k(   12) = (   0.0607522   0.0000000   0.0000000), wk =   0.1111111
        k(   13) = (   0.0607522   0.0350753   0.0000000), wk =   0.1111111
        k(   14) = (   0.0607522  -0.1403011   0.0000000), wk =   0.1111111
        k(   15) = (   0.0607522  -0.1052259   0.0000000), wk =   0.1111111
        k(   16) = (   0.0607522  -0.0701506   0.0000000), wk =   0.1111111
        k(   17) = (  -0.0911283   0.0526129   0.0000000), wk =   0.0555556
        k(   18) = (  -0.0911283   0.0876882   0.0000000), wk =   0.1111111
        k(   19) = (  -0.0911283   0.1227635   0.0000000), wk =   0.1111111
        k(   20) = (  -0.0911283  -0.0526129   0.0000000), wk =   0.0555556

     Largest allocated arrays     est. size (Mb)     dimensions
     Largest temporary arrays     est. size (Mb)     dimensions

     Initial potential from superposition of free atoms
     Check: negative starting charge=   -1.539605

     starting charge  174.99945, renormalised to  181.00000

[...]

     *
     * You are using vdW-DF for exchange-correlation in this calculation.
     * Please cite the following three references that made this development
     * possible:
     *
     *   M. Dion, H. Rydberg, E. Schroder, D. C. Langreth, and
     *   B. I. Lundqvist, Phys. Rev. Lett. 92, 246401 (2004).
     *
     *   T. Thonhauser, V. R. Cooper, S. Li, A. Puzder, P. Hyldgaard, and
     *   D. C. Langreth, Phys. Rev. B 76, 125112 (2007).
     *
     *   G. Roman-Perez and J. M. Soler, Phys. Rev. Lett. 103, 096102 (2009).
     *
     *
     * If you are using vdW-DF2, please also cite:
     *
     *   K. Lee, E. D. Murray, L. Kong, B. I. Lundqvist, and
     *   D. C. Langreth, Phys. Rev. B 82, 081101(R) (2010).
     *
     *
     * If you are calculating the stress with vdW-DF, please also cite:
     *
     *   R. Sabatini, E. Kucukbenli, B. Kolb, T. Thonhauser, and
     *   S. de Gironcoli, J. Phys.: Condens. Matter 24, 424209 (2012).
     *

     Carrying out vdW-DF run using the following parameters:

     Nqs =      20    Nr_points =    1024   r_max =   100.000
     q_mesh =
               0.00001000     0.04494208     0.09755937     0.15916263
               0.23128650     0.31572767     0.41458969     0.53033537
               0.66584808     0.82450364     1.01025438     1.22772762
               1.48234092     1.78043706     2.12944203     2.53805004
               3.01644009     3.57652955     4.23227104     5.00000000

     Gradients computed in reciprocal space

[...]

     Starting wfc are  157 randomized atomic wfcs

     Self-consistent Calculation

[...]

     total energy              =   -2307.06628283 Ry
     Harris-Foulkes estimate   =   -2307.06628842 Ry
     estimated scf accuracy    <       0.00005313 Ry

     iteration # 13     ecut=    36.75 Ry     beta=0.30
     Davidson diagonalization with overlap
     ethr =  2.77E-08,  avg # of iterations =  3.9

[...]

     negative rho (up, down):  1.622E+00 0.000E+00

     Adding external electric field

     Computed dipole along edir(3) :
        Dipole                0.0611 Ry au,          0.1554 Debye
        Dipole field          0.0002 Ry au

        Potential amp.       -0.0161 Ry
        Total length         45.1039 bohr

     End of self-consistent calculation

[...]

          k = 0.0608-0.0702 0.0000 ( 16218 PWs)   bands (ev):

[...]

          k =-0.0911-0.0526 0.0000 ( 16164 PWs)   bands (ev):

   -77.6038 -77.5883 -77.5505 -77.5411 -77.5010 -77.4836 -77.4642 -77.4608
   -77.4547 -77.4248 -77.4194 -77.4135 -39.7406 -39.7366 -39.7062 -39.6582
   -39.6191 -39.5793 -39.5161 -39.4938 -39.4570 -39.4208 -39.4201 -39.3886
   -39.2364 -39.2070 -39.1753 -39.1596 -39.1535 -39.1303 -39.1296 -39.1273
   -39.1264 -39.1010 -39.0902 -39.0796 -39.0466 -39.0313 -39.0249 -39.0158
   -38.9345 -38.9158 -38.8817 -38.8658 -38.8269 -38.7613 -38.7397 -38.7292
    -4.6181  -4.2557  -3.7481  -2.6703  -2.3049  -2.1696  -2.1587  -2.1027
    -2.0855  -2.0126  -1.7164  -1.3042  -1.2994  -0.9663  -0.8539  -0.8065
    -0.7670  -0.3969  -0.3918  -0.3349  -0.2730   0.1231   0.1327   0.6324
     0.7532   0.8772   0.9085   1.0063   1.0416   1.0740   1.1137   1.1872
     1.3431   1.4542   1.5231   1.6019   1.6262   1.6545   2.0348   2.0752
     2.7992   2.8649   2.9617   3.0015   3.1442   3.1696   3.5073   3.5501
     3.7656   3.8806   3.9594   4.0231

     the Fermi energy is     3.0121 ev

!    total energy              =   -2307.06628507 Ry
     Harris-Foulkes estimate   =   -2307.06628668 Ry
     estimated scf accuracy    <       0.00000330 Ry

     The total energy is the sum of the following terms:

     one-electron contribution =  -18660.64483097 Ry
     hartree contribution      =    9315.48168399 Ry
     xc contribution           =    -650.29371288 Ry
     ewald contribution        =    7688.45788131 Ry
     electric field correction =       0.00001091 Ry
     smearing contrib. (-TS)   =      -0.06731742 Ry

     convergence has been achieved in  13 iterations

 BEEF-vdW xc energy contributions
           1 :   -578.313208924559
           2 :    537.879763710741
           3 :   -465.184397475761
           4 :    373.912178977544
           5 :   -279.271449232475
           6 :    194.112945804061
           7 :   -126.293078345554
           8 :    77.9050418296749
           9 :   -46.3353017494862
          10 :    26.4715996504094
          11 :   -13.0924796709439
          12 :    2.57755234585829
          13 :    6.49185433767661
          14 :   -13.7719826730154
          15 :    18.1942118651192
          16 :   -19.0424155897557
          17 :    16.6163931992533
          18 :   -12.2750837490190
          19 :    7.92845243027136
          20 :   -5.27036729340830
          21 :    5.12351147027118
          22 :   -7.18350323760342
          23 :    10.2474327334689
          24 :   -12.7977585583144
          25 :    13.6681951388466
          26 :   -12.5024845674891
          27 :    9.82444678259765
          28 :   -6.72229425222076
          29 :    4.31982257089635
          30 :   -3.28968911420952
          31 :   -48.0273306470019
          32 :   -35.6772321098919

     Forces acting on atoms (Ry/au):

     negative rho (up, down):  1.622E+00 0.000E+00
     atom    1 type  1   force =     0.00003605   -0.00001813    0.01374652
     atom    2 type  1   force =    -0.00003345    0.00010405    0.01253749
     atom    3 type  1   force =     0.00010549   -0.00007485    0.01259074
     atom    4 type  1   force =    -0.00010440   -0.00001455    0.01258532
     atom    5 type  1   force =     0.00180706   -0.00093416   -0.00871404
     atom    6 type  1   force =    -0.00181888   -0.00107648   -0.00861081
     atom    7 type  1   force =    -0.00012240   -0.00003243   -0.02443460
     atom    8 type  1   force =     0.00014635    0.00206573   -0.00866503
     atom    9 type  1   force =     0.00011293    0.00003461   -0.00101088
     atom   10 type  1   force =    -0.00012449    0.00003256   -0.00102825
     atom   11 type  1   force =    -0.00000888   -0.00012334   -0.00097634
     atom   12 type  1   force =    -0.00000128    0.00003155    0.00138779
     atom   13 type  2   force =     0.00000591    0.00000544    0.00059209

     Total force =     0.038776     Total SCF correction =     0.009271
     SCF correction compared to forces is large: reduce conv_thr to get better values

     entering subroutine stress ...

     negative rho (up, down):  1.622E+00 0.000E+00
          total   stress  (Ry/bohr**3)                   (kbar)     P=  -16.26
  -0.00012082  -0.00000001  -0.00000000        -17.77     -0.00     -0.00
  -0.00000001  -0.00012080  -0.00000001         -0.00    -17.77     -0.00
  -0.00000000  -0.00000001  -0.00008992         -0.00     -0.00    -13.23

 !ASE

     Writing output data file calc.save

     General routines

     Parallel routines

   This run was terminated on:   6:49:26  14Jan2018

   JOB DONE.
Job  /afs/slac/g/suncat/bin/suncat-tsmpirun -x LD_LIBRARY_PATH -wdir /scratch/qe842473_uOuG7 pw.x -in pw.inp

TID   HOST_NAME   COMMAND_LINE            STATUS            TERMINATION_TIME
00000 suncat0050 pw.x -in pw.inp   Done                     01/14/2018 06:49:26
00001 suncat0050 pw.x -in pw.inp   Done                     01/14/2018 06:49:26
00002 suncat0050 pw.x -in pw.inp   Done                     01/14/2018 06:49:26
00003 suncat0050 pw.x -in pw.inp   Done                     01/14/2018 06:49:26
00004 suncat0050 pw.x -in pw.inp   Done                     01/14/2018 06:49:26
00005 suncat0050 pw.x -in pw.inp   Done                     01/14/2018 06:49:26
00006 suncat0050 pw.x -in pw.inp   Done                     01/14/2018 06:49:26
00007 suncat0050 pw.x -in pw.inp   Done                     01/14/2018 06:49:26
00008 suncat0242 pw.x -in pw.inp   Done                     01/14/2018 06:49:26
00009 suncat0242 pw.x -in pw.inp   Done                     01/14/2018 06:49:26
00010 suncat0242 pw.x -in pw.inp   Done                     01/14/2018 06:49:26
00011 suncat0242 pw.x -in pw.inp   Done                     01/14/2018 06:49:26
00012 suncat0242 pw.x -in pw.inp   Done                     01/14/2018 06:49:26
00013 suncat0242 pw.x -in pw.inp   Done                     01/14/2018 06:49:26
00014 suncat0242 pw.x -in pw.inp   Done                     01/14/2018 06:49:26
00015 suncat0242 pw.x -in pw.inp   Done                     01/14/2018 06:49:26
00016 suncat0241 pw.x -in pw.inp   Done                     01/14/2018 06:49:26
00017 suncat0241 pw.x -in pw.inp   Done                     01/14/2018 06:49:26
00018 suncat0241 pw.x -in pw.inp   Done                     01/14/2018 06:49:26
00019 suncat0241 pw.x -in pw.inp   Done                     01/14/2018 06:49:26
00020 suncat0241 pw.x -in pw.inp   Done                     01/14/2018 06:49:26
00021 suncat0241 pw.x -in pw.inp   Done                     01/14/2018 06:49:26
00022 suncat0241 pw.x -in pw.inp   Done                     01/14/2018 06:49:26
00023 suncat0241 pw.x -in pw.inp   Done                     01/14/2018 06:49:26
00024 suncat0240 pw.x -in pw.inp   Done                     01/14/2018 06:49:26
00025 suncat0240 pw.x -in pw.inp   Done                     01/14/2018 06:49:26
00026 suncat0240 pw.x -in pw.inp   Done                     01/14/2018 06:49:26
00027 suncat0240 pw.x -in pw.inp   Done                     01/14/2018 06:49:26
00028 suncat0240 pw.x -in pw.inp   Done                     01/14/2018 06:49:26
00029 suncat0240 pw.x -in pw.inp   Done                     01/14/2018 06:49:26
00030 suncat0240 pw.x -in pw.inp   Done                     01/14/2018 06:49:26
00031 suncat0240 pw.x -in pw.inp   Done                     01/14/2018 06:49:26