     Program PWSCF v.5.1rc2 (svn rev. 11289) starts on  2May2018 at 16:22:50

     Current dimensions of program PWSCF are:
     Max number of different atomic species (ntypx) = 10
     Max number of k-points (npk) =  40000
     Max angular momentum in pseudopotentials (lmaxx) =  3
     Presently stress not available with electric field

     IMPORTANT: XC functional enforced from input :
     Exchange-correlation      = BEEF-VDW ( 1  4 27 13 2)
     Any further DFT definition will be discarded
     Please, verify this is what you really want

     Subspace diagonalization in iterative solution of the eigenvalue problem:
     a serial algorithm will be used

     bravais-lattice index     =            0
     lattice parameter (alat)  =       1.8897  a.u.
     unit-cell volume          =    4301.6107 (a.u.)^3
     number of atoms/cell      =           13
     number of atomic types    =            2
     number of electrons       =       181.00
     number of Kohn-Sham states=          100
     kinetic-energy cutoff     =      36.7493  Ry
     charge density cutoff     =     367.4932  Ry
     convergence threshold     =      1.0E-05
     mixing beta               =       0.3000
     number of iterations used =           10  plain     mixing
     Exchange-correlation      = BEEF-VDW ( 1  4 27 13 2)
     nstep                     =           50

     celldm(1)=   1.889726  celldm(2)=   0.000000  celldm(3)=   0.000000
     celldm(4)=   0.000000  celldm(5)=   0.000000  celldm(6)=   0.000000

     crystal axes: (cart. coord. in units of alat)
               a(1) = (   5.483647   0.000000   0.000000 )
               a(2) = (   2.741823   4.748977   0.000000 )
               a(3) = (   0.000000   0.000000  24.477379 )

     reciprocal axes: (cart. coord. in units 2 pi/alat)
               b(1) = (  0.182360 -0.105286  0.000000 )
               b(2) = (  0.000000  0.210572  0.000000 )
               b(3) = (  0.000000  0.000000  0.040854 )

     PseudoPot. # 1 for Tc read from file:
     /u/if/mamunm/psp/gbrv1.5pbe/Tc.UPF
     MD5 check sum: 9eb49e5b028550b2339a02317eb7b844
     Pseudo is Ultrasoft + core correction, Zval = 15.0
     Generated by new atomic code, or converted to UPF format
     Using radial grid of  965 points,  6 beta functions with:
                l(1) =   0
                l(2) =   0
                l(3) =   1
                l(4) =   1
                l(5) =   2
                l(6) =   2
     Q(r) pseudized with  8 coefficients,  rinner =    1.300   1.300   1.300
                                                       1.300   1.300

     PseudoPot. # 2 for H  read from file:
     /u/if/mamunm/psp/gbrv1.5pbe/H.UPF
     MD5 check sum: 761ae9a214b05c3daf00ab9f6b793d6f
     Pseudo is Ultrasoft, Zval =  1.0
     Generated by new atomic code, or converted to UPF format
     Using radial grid of  615 points,  2 beta functions with:
                l(1) =   0
                l(2) =   0
     Q(r) pseudized with  8 coefficients,  rinner =    0.700

     vdW kernel table read from file vdW_kernel_table
     MD5 check sum: 095c7af220d748ca6e76c0b4c6cfb241

     atomic species   valence    mass     pseudopotential
        Tc1           15.00    97.90721     Tc( 1.00)
        H1             1.00     1.00800     H ( 1.00)

     No symmetry found

   Cartesian axes

     site n.     atom                  positions (alat units)
         1           Tc1 tau(   1) = (   1.3709117   0.7914962  10.0000000  )
         2           Tc1 tau(   2) = (   4.1127351   0.7914962  10.0000000  )
         3           Tc1 tau(   3) = (   2.7418234   3.1659850  10.0000000  )
         4           Tc1 tau(   4) = (   5.4836469   3.1659850  10.0000000  )
         5           Tc1 tau(   5) = (   5.4836469   1.5829925  12.2386895  )
         6           Tc1 tau(   6) = (   2.7418234   1.5829925  12.2386895  )
         7           Tc1 tau(   7) = (   6.8545586   3.9574812  12.2386895  )
         8           Tc1 tau(   8) = (   4.1127351   3.9574812  12.2386895  )
         9           Tc1 tau(   9) = (   0.0000000   0.0000000  14.4773789  )
        10           Tc1 tau(  10) = (   2.7418234   0.0000000  14.4773789  )
        11           Tc1 tau(  11) = (   1.3709117   2.3744887  14.4773789  )
        12           Tc1 tau(  12) = (   4.1127351   2.3744887  14.4773789  )
        13           H1  tau(  13) = (   1.3709117   0.7914962  15.6343789  )

     number of k points=    20  Fermi-Dirac smearing, width (Ry)=  0.0110
                       cart. coord. in units 2pi/alat
        k(    1) = (   0.0000000   0.0000000   0.0000000), wk =   0.0555556
        k(    2) = (   0.0000000   0.0350953   0.0000000), wk =   0.1111111
        k(    3) = (   0.0000000   0.0701905   0.0000000), wk =   0.1111111
        k(    4) = (   0.0000000  -0.1052858   0.0000000), wk =   0.0555556
        k(    5) = (   0.0303934  -0.0175476   0.0000000), wk =   0.1111111
        k(    6) = (   0.0303934   0.0175476   0.0000000), wk =   0.1111111
        k(    7) = (   0.0303934   0.0526429   0.0000000), wk =   0.1111111
        k(    8) = (   0.0303934  -0.1228335   0.0000000), wk =   0.1111111
        k(    9) = (   0.0303934  -0.0877382   0.0000000), wk =   0.1111111
        k(   10) = (   0.0303934  -0.0526429   0.0000000), wk =   0.1111111
        k(   11) = (   0.0607868  -0.0350953   0.0000000), wk =   0.1111111
        k(   12) = (   0.0607868   0.0000000   0.0000000), wk =   0.1111111
        k(   13) = (   0.0607868   0.0350953   0.0000000), wk =   0.1111111
        k(   14) = (   0.0607868  -0.1403811   0.0000000), wk =   0.1111111
        k(   15) = (   0.0607868  -0.1052858   0.0000000), wk =   0.1111111
        k(   16) = (   0.0607868  -0.0701905   0.0000000), wk =   0.1111111
        k(   17) = (  -0.0911802   0.0526429   0.0000000), wk =   0.0555556
        k(   18) = (  -0.0911802   0.0877382   0.0000000), wk =   0.1111111
        k(   19) = (  -0.0911802   0.1228335   0.0000000), wk =   0.1111111
        k(   20) = (  -0.0911802  -0.0526429   0.0000000), wk =   0.0555556

     Largest allocated arrays     est. size (Mb)     dimensions
     Largest temporary arrays     est. size (Mb)     dimensions

     Check: negative/imaginary core charge=   -0.000022    0.000000

     Initial potential from superposition of free atoms
     Check: negative starting charge=   -1.504967

     starting charge  168.99966, renormalised to  181.00000

     negative rho (up, down):  1.612E+00 0.000E+00

     *
     * You are using vdW-DF for exchange-correlation in this calculation.
     * Please cite the following three references that made this development
     * possible:
     *
     *   M. Dion, H. Rydberg, E. Schroder, D. C. Langreth, and
     *   B. I. Lundqvist, Phys. Rev. Lett. 92, 246401 (2004).
     *
     *   T. Thonhauser, V. R. Cooper, S. Li, A. Puzder, P. Hyldgaard, and
     *   D. C. Langreth, Phys. Rev. B 76, 125112 (2007).
     *
     *   G. Roman-Perez and J. M. Soler, Phys. Rev. Lett. 103, 096102 (2009).
     *
     *
     * If you are using vdW-DF2, please also cite:
     *
     *   K. Lee, E. D. Murray, L. Kong, B. I. Lundqvist, and
     *   D. C. Langreth, Phys. Rev. B 82, 081101(R) (2010).
     *
     *
     * If you are calculating the stress with vdW-DF, please also cite:
     *
     *   R. Sabatini, E. Kucukbenli, B. Kolb, T. Thonhauser, and
     *   S. de Gironcoli, J. Phys.: Condens. Matter 24, 424209 (2012).
     *

     Carrying out vdW-DF run using the following parameters:

     Nqs =      20    Nr_points =    1024   r_max =   100.000
     q_mesh =
               0.00001000     0.04494208     0.09755937     0.15916263
               0.23128650     0.31572767     0.41458969     0.53033537
               0.66584808     0.82450364     1.01025438     1.22772762
               1.48234092     1.78043706     2.12944203     2.53805004
               3.01644009     3.57652955     4.23227104     5.00000000

     Gradients computed in reciprocal space

     Adding external electric field

     Computed dipole along edir(3) :
        Dipole               -0.4556 Ry au,         -1.1580 Debye
        Dipole field         -0.0013 Ry au

        Potential amp.        0.1200 Ry
        Total length         45.0992 bohr

     Starting wfc are  157 randomized atomic wfcs

     Self-consistent Calculation

     iteration #  1     ecut=    36.75 Ry     beta=0.30
     Davidson diagonalization with overlap
     ethr =  1.00E-02,  avg # of iterations =  2.4

[...]

     total energy              =   -2099.03407774 Ry
     Harris-Foulkes estimate   =   -2109.30109255 Ry
     estimated scf accuracy    <      23.41834715 Ry

[...]

     End of self-consistent calculation

          k = 0.0000 0.0000 0.0000 ( 16073 PWs)   bands (ev):

   -64.8634 -64.7164 -64.7155 -64.6903 -64.6645 -64.5975 -64.5526 -64.5524
   -64.5040 -64.4787 -64.4737 -64.4730 -37.2998 -37.2892 -37.2888 -37.1851
   -37.1562 -37.1181 -37.1179 -36.9985 -36.9826 -36.9823 -36.6806 -36.6504
   -36.6500 -36.6255 -36.5689 -36.5688 -36.5685 -36.5548 -36.5544 -36.5374
   -36.4089 -36.4084 -36.3951 -36.3491 -36.3488 -36.3342 -36.3296 -36.3295
   -36.3269 -36.2643 -36.2640 -36.2631 -36.1304 -36.1303 -36.0680 -36.0680
    -4.4104  -3.6254  -2.7965  -2.7880  -2.7878  -2.6763  -2.4859  -2.3449
    -2.3448  -2.3083  -2.1516  -2.1515  -1.9067  -1.8205  -1.8204  -1.1460
    -0.6409  -0.6408   0.0703   0.1724   0.1724   0.3083   0.4459   0.7376
     0.7376   0.9853   1.0359   1.0360   1.1290   1.1293   1.1369   1.2909
     1.2909   1.6697   1.6699   1.7451   2.4612   2.7323   2.7325   2.7767
     2.8179   2.8181   3.1344   3.1344   3.2295   3.6068   3.6069   3.9805
     4.1379   4.1381   4.4435   4.4437

[...]

          k =-0.0912 0.0526 0.0000 ( 16164 PWs)   bands (ev):

[...]

     the Fermi energy is     2.4242 ev

!    total energy              =   -2104.56729344 Ry
     Harris-Foulkes estimate   =   -2104.56729570 Ry
     estimated scf accuracy    <       0.00000275 Ry

     The total energy is the sum of the following terms:

     one-electron contribution =  -18673.12691589 Ry
     hartree contribution      =    9335.24786448 Ry
     xc contribution           =    -397.67636430 Ry
     ewald contribution        =    7631.08229402 Ry
     electric field correction =       0.00000034 Ry
     smearing contrib. (-TS)   =      -0.09417209 Ry

     convergence has been achieved in  22 iterations

 BEEF-vdW xc energy contributions
           1 :   -348.486088450639
           2 :    320.455833596390
           3 :   -270.564207195770
           4 :    208.800762751234
           5 :   -145.878552475647
           6 :    90.2419345041737
           7 :   -46.3891376993957
           8 :    14.7579578321862
           9 :    7.00397864176489
          10 :   -22.1867758000327
          11 :    33.3465867193526
          12 :   -41.4582599313834
          13 :    45.9953060334021
          14 :   -45.7464774178134
          15 :    39.8643312795264
          16 :   -28.6762176278463
          17 :    13.9130671484712
          18 :    1.68501382059424
          19 :   -15.1917984465981
          20 :    24.3680056927595
          21 :   -28.2368692372065
          22 :    27.1513616712106
          23 :   -22.3967827528077
          24 :    15.5563336472239
          25 :   -7.95206379922342
          26 :   0.379452257214496
          27 :    6.81010433886161
          28 :   -13.4118710197322
          29 :    19.0679593524421
          30 :   -23.1523673150183
          31 :   -33.1221247972956
          32 :   -24.3067331278269

     Forces acting on atoms (Ry/au):

     negative rho (up, down):  1.589E+00 0.000E+00
     atom    1 type  1   force =     0.00002633    0.00002376    0.02716040
     atom    2 type  1   force =    -0.00001742   -0.00189679    0.02849341
     atom    3 type  1   force =    -0.00164808    0.00093053    0.02848609
     atom    4 type  1   force =     0.00164502    0.00094868    0.02847400
     atom    5 type  1   force =     0.00052513   -0.00030111    0.00511804
     atom    6 type  1   force =    -0.00052976   -0.00027189    0.00502562
     atom    7 type  1   force =     0.00002758   -0.00001968   -0.02688766
     atom    8 type  1   force =    -0.00002619    0.00058881    0.00510303
     atom    9 type  1   force =    -0.00822929   -0.00474707   -0.01807469
     atom   10 type  1   force =     0.00822852   -0.00472805   -0.01809904
     atom   11 type  1   force =     0.00001593    0.00948635   -0.01813122
     atom   12 type  1   force =    -0.00001914   -0.00001155   -0.03490371
     atom   13 type  2   force =     0.00000138   -0.00000200   -0.01176428

     Total force =     0.051088     Total SCF correction =     0.001704

     entering subroutine stress ...

     negative rho (up, down):  1.589E+00 0.000E+00
          total   stress  (Ry/bohr**3)                   (kbar)     P=  -33.94
  -0.00022958   0.00000001  -0.00000000        -33.77      0.00     -0.00
   0.00000001  -0.00022958   0.00000000          0.00    -33.77      0.00
  -0.00000000   0.00000000  -0.00023309         -0.00      0.00    -34.29

     BFGS Geometry Optimization

     number of scf cycles    =   1
     number of bfgs steps    =   0

     energy   new            =   -2104.5672934411 Ry

     new trust radius        =       0.0349037138 bohr
     new conv_thr            =       0.0000099958 Ry

ATOMIC_POSITIONS (crystal)
Tc1      0.166666667   0.166666667   0.408540475    0   0   0
Tc1      0.666666667   0.166666667   0.408540475    0   0   0
Tc1      0.166666667   0.666666667   0.408540475    0   0   0
Tc1      0.666666667   0.666666667   0.408540475    0   0   0
Tc1      0.833333333   0.333333333   0.500000000    0   0   0
Tc1      0.333333333   0.333333333   0.500000000    0   0   0
Tc1      0.833333333   0.833333333   0.500000000    0   0   0
Tc1      0.333333333   0.833333333   0.500000000    0   0   0
Tc1     -0.000529652  -0.000528965   0.591068768
Tc1      0.501057483  -0.000526845   0.591068242
Tc1     -0.000526994   0.501057061   0.591067546
Tc1      0.499998796   0.499998714   0.590704941
H1       0.166666911   0.166666444   0.638473326

     Writing output data file calc.save
     Check: negative starting charge=   -1.504967
     NEW-OLD atomic charge density approx. for the potential

     Check: negative/imaginary core charge=   -0.000022    0.000000
     Check: negative starting charge=   -1.508198

[...]

     iteration #  1     ecut=    36.75 Ry     beta=0.30
     Davidson diagonalization with overlap
     c_bands:  1 eigenvalues not converged
     ethr =  1.00E-06,  avg # of iterations = 11.8

[...]

     energy   old            =   -2104.5672934411 Ry
     energy   new            =   -2104.5697561353 Ry

     CASE: energy  _new < energy  _old

     WARNING: bfgs curvature condition failed, Theta= 0.911
     new trust radius        =       0.0383940852 bohr
     new conv_thr            =       0.0000001000 Ry

[...]

     WARNING: bfgs curvature condition failed, Theta= 0.955
     new trust radius        =       0.0307737484 bohr
     new conv_thr            =       0.0000001000 Ry

[...]

     Threshold (ethr) on eigenvalues was too large:
     Diagonalizing with lowered threshold

     Davidson diagonalization with overlap
     ethr =  7.74E-08,  avg # of iterations =  1.8

[...]

     Threshold (ethr) on eigenvalues was too large:
     Diagonalizing with lowered threshold

     Davidson diagonalization with overlap
     ethr =  6.33E-08,  avg # of iterations =  1.9

[...]

     Total force =     0.006833     Total SCF correction =     0.000563

[...]

     number of scf cycles    =  11
     number of bfgs steps    =  10

     energy   old            =   -2104.5795671482 Ry
     energy   new            =   -2104.5796294704 Ry

     CASE: energy  _new < energy  _old

     new trust radius        =       0.0170838480 bohr
     new conv_thr            =       0.0000001000 Ry

ATOMIC_POSITIONS (crystal)
Tc1      0.166666667   0.166666667   0.408540475    0   0   0
Tc1      0.666666667   0.166666667   0.408540475    0   0   0
Tc1      0.166666667   0.666666667   0.408540475    0   0   0
Tc1      0.666666667   0.666666667   0.408540475    0   0   0
Tc1      0.833333333   0.333333333   0.500000000    0   0   0
Tc1      0.333333333   0.333333333   0.500000000    0   0   0
Tc1      0.833333333   0.833333333   0.500000000    0   0   0
Tc1      0.333333333   0.833333333   0.500000000    0   0   0
Tc1     -0.002501651  -0.002500545   0.587991261
Tc1      0.505003601  -0.002503337   0.587992005
Tc1     -0.002504051   0.505004428   0.587992632
Tc1      0.500001766   0.500001111   0.586189824
H1       0.166667452   0.166665756   0.631037777

     Writing output data file calc.save
     Check: negative starting charge=   -1.504826
     NEW-OLD atomic charge density approx. for the potential

     Check: negative/imaginary core charge=   -0.000022    0.000000
     Check: negative starting charge=   -1.503114

[...]

     Self-consistent Calculation

[...]

     total energy              =   -2104.57970385 Ry
     Harris-Foulkes estimate   =   -2104.57970383 Ry
     estimated scf accuracy    <       0.00000042 Ry

     iteration # 10     ecut=    36.75 Ry     beta=0.30
     Davidson diagonalization with overlap
     ethr =  2.30E-10,  avg # of iterations =  4.6

[...]

     negative rho (up, down):  1.587E+00 0.000E+00

     Adding external electric field

     Computed dipole along edir(3) :
        Dipole                0.0318 Ry au,          0.0807 Debye
        Dipole field          0.0001 Ry au

        Potential amp.       -0.0084 Ry
        Total length         45.0992 bohr

     End of self-consistent calculation

[...]

          k = 0.0608-0.0702 0.0000 ( 16203 PWs)   bands (ev):

[...]

          k =-0.0912-0.0526 0.0000 ( 16164 PWs)   bands (ev):

   -64.7988 -64.7924 -64.7167 -64.7086 -64.5762 -64.5593 -64.5400 -64.5355
   -64.5133 -64.4879 -64.4796 -64.4753 -37.1699 -37.1566 -37.1206 -37.1047
   -37.0649 -37.0420 -36.9187 -36.9080 -36.8668 -36.8455 -36.8220 -36.8027
   -36.6119 -36.5836 -36.5642 -36.5639 -36.5448 -36.5350 -36.5213 -36.5153
   -36.4807 -36.4806 -36.4750 -36.4685 -36.4648 -36.4597 -36.4342 -36.4200
   -36.3303 -36.3301 -36.2817 -36.2666 -36.2320 -36.1910 -36.1660 -36.1595
    -3.6339  -2.5602  -2.4804  -1.9299  -1.8999  -1.8636  -1.7944  -1.5844
    -1.5620  -1.3741  -1.2594  -1.2036  -1.1969  -0.9339  -0.8497  -0.8332
    -0.7812  -0.3881  -0.3613  -0.1816  -0.1667  -0.0248   0.0498   0.4756
     0.5605   0.7277   0.7321   0.8699   0.8737   1.0404   1.0530   1.0901
     1.1510   1.1583   1.2280   1.2999   1.3539   1.3710   1.3860   1.4171
     2.2081   2.2351   2.2678   2.3247   2.4538   2.4568   2.8249   2.8634
     2.9392   3.0380   3.0911   3.1345

     the Fermi energy is     2.4377 ev

!    total energy              =   -2104.57970386 Ry
     Harris-Foulkes estimate   =   -2104.57970395 Ry
     estimated scf accuracy    <       0.00000006 Ry

     The total energy is the sum of the following terms:

     one-electron contribution =  -18937.70944142 Ry
     hartree contribution      =    9467.54603257 Ry
     xc contribution           =    -397.92726031 Ry
     ewald contribution        =    7763.60385078 Ry
     electric field correction =       0.00000295 Ry
     smearing contrib. (-TS)   =      -0.09288843 Ry

     convergence has been achieved in  10 iterations

 BEEF-vdW xc energy contributions
           1 :   -348.741810330049
           2 :    320.800286011645
           3 :   -271.027582505884
           4 :    209.328694369426
           5 :   -146.352853334016
           6 :    90.5374498834771
           7 :   -46.4371227513911
           8 :    14.5867884153834
           9 :    7.27423529726985
          10 :   -22.3975982581470
          11 :    33.3768332808037
          12 :   -41.2807158389069
          13 :    45.6894858014392
          14 :   -45.4595378950550
          15 :    39.7381180527038
          16 :   -28.7780853425792
          17 :    14.2022984443768
          18 :    1.33704623283387
          19 :   -14.9400591756815
          20 :    24.3192051299355
          21 :   -28.3986961170415
          22 :    27.4298175825572
          23 :   -22.6437112924510
          24 :    15.6422391021075
          25 :   -7.82786927571777
          26 :   9.868190476271366E-002
          27 :    7.11807300400159
          28 :   -13.6039343611594
          29 :    19.0548314539117
          30 :   -22.9389211463234
          31 :   -33.1390956341992
          32 :   -24.3436418849698

     Forces acting on atoms (Ry/au):

     negative rho (up, down):  1.587E+00 0.000E+00
     atom    1 type  1   force =     0.00000133    0.00000193    0.01718128
     atom    2 type  1   force =    -0.00000141   -0.00097813    0.01735507
     atom    3 type  1   force =    -0.00084888    0.00048659    0.01735476
     atom    4 type  1   force =     0.00084862    0.00048813    0.01735301
     atom    5 type  1   force =     0.00001892   -0.00001465   -0.00991118
     atom    6 type  1   force =    -0.00001910   -0.00001432   -0.00991180
     atom    7 type  1   force =     0.00000057    0.00000410   -0.03970755
     atom    8 type  1   force =    -0.00000025    0.00002515   -0.00990641
     atom    9 type  1   force =    -0.00117082   -0.00067509   -0.00005024
     atom   10 type  1   force =     0.00117229   -0.00066831   -0.00005742
     atom   11 type  1   force =     0.00000666    0.00135076   -0.00006403
     atom   12 type  1   force =    -0.00000749   -0.00000568   -0.00013461
     atom   13 type  2   force =    -0.00000044   -0.00000050    0.00049913

     Total force =     0.002398     Total SCF correction =     0.000612
     SCF correction compared to forces is large: reduce conv_thr to get better values

     entering subroutine stress ...

     negative rho (up, down):  1.587E+00 0.000E+00
          total   stress  (Ry/bohr**3)                   (kbar)     P=  -20.97
  -0.00017127  -0.00000000  -0.00000000        -25.20     -0.00     -0.00
  -0.00000000  -0.00017127  -0.00000000         -0.00    -25.20     -0.00
  -0.00000000  -0.00000000  -0.00008520         -0.00     -0.00    -12.53

     bfgs converged in  12 scf cycles and  11 bfgs steps
     (criteria: energy <  1.0E+00, force <  1.9E-03)

     End of BFGS Geometry Optimization

     Final energy   =   -2104.5797038608 Ry
Begin final coordinates

ATOMIC_POSITIONS (crystal)
Tc1      0.166666667   0.166666667   0.408540475    0   0   0
Tc1      0.666666667   0.166666667   0.408540475    0   0   0
Tc1      0.166666667   0.666666667   0.408540475    0   0   0
Tc1      0.666666667   0.666666667   0.408540475    0   0   0
Tc1      0.833333333   0.333333333   0.500000000    0   0   0
Tc1      0.333333333   0.333333333   0.500000000    0   0   0
Tc1      0.833333333   0.833333333   0.500000000    0   0   0
Tc1      0.333333333   0.833333333   0.500000000    0   0   0
Tc1     -0.002501651  -0.002500545   0.587991261
Tc1      0.505003601  -0.002503337   0.587992005
Tc1     -0.002504051   0.505004428   0.587992632
Tc1      0.500001766   0.500001111   0.586189824
H1       0.166667452   0.166665756   0.631037777
End final coordinates

     Writing output data file calc.save

     General routines

     Parallel routines

   This run was terminated on:  17:40:45   2May2018

   JOB DONE.
Job  /afs/slac/g/suncat/bin/suncat-tsmpirun -x LD_LIBRARY_PATH -wdir /scratch/qe797784_8Aguo pw.x -npool 4 -in pw.inp

TID   HOST_NAME   COMMAND_LINE            STATUS            TERMINATION_TIME
00000 suncat0082 pw.x -npool 4 -i  Done                     05/02/2018 17:40:45
00001 suncat0082 pw.x -npool 4 -i  Done                     05/02/2018 17:40:45
00002 suncat0082 pw.x -npool 4 -i  Done                     05/02/2018 17:40:45
00003 suncat0082 pw.x -npool 4 -i  Done                     05/02/2018 17:40:45
00004 suncat0082 pw.x -npool 4 -i  Done                     05/02/2018 17:40:45
00005 suncat0082 pw.x -npool 4 -i  Done                     05/02/2018 17:40:45
00006 suncat0082 pw.x -npool 4 -i  Done                     05/02/2018 17:40:45
00007 suncat0082 pw.x -npool 4 -i  Done                     05/02/2018 17:40:45
00008 suncat0081 pw.x -npool 4 -i  Done                     05/02/2018 17:40:45
00009 suncat0081 pw.x -npool 4 -i  Done                     05/02/2018 17:40:45
00010 suncat0081 pw.x -npool 4 -i  Done                     05/02/2018 17:40:45
00011 suncat0081 pw.x -npool 4 -i  Done                     05/02/2018 17:40:45
00012 suncat0081 pw.x -npool 4 -i  Done                     05/02/2018 17:40:45
00013 suncat0081 pw.x -npool 4 -i  Done                     05/02/2018 17:40:45
00014 suncat0081 pw.x -npool 4 -i  Done                     05/02/2018 17:40:45
00015 suncat0081 pw.x -npool 4 -i  Done                     05/02/2018 17:40:45
00016 suncat0080 pw.x -npool 4 -i  Done                     05/02/2018 17:40:45
00017 suncat0080 pw.x -npool 4 -i  Done                     05/02/2018 17:40:45
00018 suncat0080 pw.x -npool 4 -i  Done                     05/02/2018 17:40:45
00019 suncat0080 pw.x -npool 4 -i  Done                     05/02/2018 17:40:45
00020 suncat0080 pw.x -npool 4 -i  Done                     05/02/2018 17:40:45
00021 suncat0080 pw.x -npool 4 -i  Done                     05/02/2018 17:40:45
00022 suncat0080 pw.x -npool 4 -i  Done                     05/02/2018 17:40:45
00023 suncat0080 pw.x -npool 4 -i  Done                     05/02/2018 17:40:45
00024 suncat0039 pw.x -npool 4 -i  Done                     05/02/2018 17:40:45
00025 suncat0039 pw.x -npool 4 -i  Done                     05/02/2018 17:40:45
00026 suncat0039 pw.x -npool 4 -i  Done                     05/02/2018 17:40:45
00027 suncat0039 pw.x -npool 4 -i  Done                     05/02/2018 17:40:45
00028 suncat0039 pw.x -npool 4 -i  Done                     05/02/2018 17:40:45
00029 suncat0039 pw.x -npool 4 -i  Done                     05/02/2018 17:40:45
00030 suncat0039 pw.x -npool 4 -i  Done                     05/02/2018 17:40:45
00031 suncat0039 pw.x -npool 4 -i  Done                     05/02/2018 17:40:45