     Program PWSCF v.5.1rc2 (svn rev. 11289) starts on  3May2018 at  9:44: 6

     Current dimensions of program PWSCF are:
     Max number of different atomic species (ntypx) = 10
     Max number of k-points (npk) =  40000
     Max angular momentum in pseudopotentials (lmaxx) =  3
     Presently stress not available with electric field

     IMPORTANT: XC functional enforced from input :
     Exchange-correlation      = BEEF-VDW ( 1  4 27 13 2)
     Any further DFT definition will be discarded
     Please, verify this is what you really want

     Subspace diagonalization in iterative solution of the eigenvalue problem:
     a serial algorithm will be used

     bravais-lattice index     =            0
     lattice parameter (alat)  =       1.8897  a.u.
     unit-cell volume          =    5182.3421 (a.u.)^3
     number of atoms/cell      =           13
     number of atomic types    =            2
     number of electrons       =       162.00
     number of Kohn-Sham states=           91
     kinetic-energy cutoff     =      36.7493  Ry
     charge density cutoff     =     367.4932  Ry
     convergence threshold     =      1.0E-05
     mixing beta               =       0.3000
     number of iterations used =           10  plain     mixing
     Exchange-correlation      = BEEF-VDW ( 1  4 27 13 2)
     nstep                     =           50

     celldm(1)=   1.889726  celldm(2)=   0.000000  celldm(3)=   0.000000
     celldm(4)=   0.000000  celldm(5)=   0.000000  celldm(6)=   0.000000

     crystal axes: (cart. coord. in units of alat)
               a(1) = (   5.970602   0.000000   0.000000 )
               a(2) = (   2.985301   5.170693   0.000000 )
               a(3) = (   0.000000   0.000000  24.874976 )

     reciprocal axes: (cart. coord. in units 2 pi/alat)
               b(1) = (  0.167487 -0.096699  0.000000 )
               b(2) = (  0.000000  0.193398  0.000000 )
               b(3) = (  0.000000  0.000000  0.040201 )

     PseudoPot. # 1 for Nb read from file:
     /u/if/mamunm/psp/gbrv1.5pbe/Nb.UPF
     MD5 check sum: 573aab8a2fa660278ed4a62cd769473f
     Pseudo is Ultrasoft + core correction, Zval = 13.0
     Generated by new atomic code, or converted to UPF format
     Using radial grid of  887 points,  6 beta functions with:
                l(1) =   0
                l(2) =   0
                l(3) =   1
                l(4) =   1
                l(5) =   2
                l(6) =   2
     Q(r) pseudized with  6 coefficients,  rinner =    1.000   1.000   1.000
                                                       1.000   1.000

     PseudoPot. # 2 for S  read from file:
     /u/if/mamunm/psp/gbrv1.5pbe/S.UPF
     MD5 check sum: 88d86576ff6df21479756cfb9bdac1df
     Pseudo is Ultrasoft + core correction, Zval =  6.0
     Generated by new atomic code, or converted to UPF format
     Using radial grid of  907 points,  6 beta functions with:
                l(1) =   0
                l(2) =   0
                l(3) =   1
                l(4) =   1
                l(5) =   2
                l(6) =   2
     Q(r) pseudized with  8 coefficients,  rinner =    1.300   1.300   1.300
                                                       1.300   1.300

     vdW kernel table read from file vdW_kernel_table
     MD5 check sum: 095c7af220d748ca6e76c0b4c6cfb241

     atomic species   valence    mass     pseudopotential
        Nb1           13.00    92.90637     Nb( 1.00)
        S1             6.00    32.06000     S ( 1.00)

     No symmetry found

   Cartesian axes

     site n.     atom                  positions (alat units)
         1           Nb1 tau(   1) = (   1.4926504   0.8617821  10.0000000  )
         2           Nb1 tau(   2) = (   4.4779512   0.8617821  10.0000000  )
         3           Nb1 tau(   3) = (   2.9853008   3.4471284  10.0000000  )
         4           Nb1 tau(   4) = (   5.9706016   3.4471284  10.0000000  )
         5           Nb1 tau(   5) = (   5.9706016   1.7235642  12.4374879  )
         6           Nb1 tau(   6) = (   2.9853008   1.7235642  12.4374879  )
         7           Nb1 tau(   7) = (   7.4632520   4.3089105  12.4374879  )
         8           Nb1 tau(   8) = (   4.4779512   4.3089105  12.4374879  )
         9           Nb1 tau(   9) = (   0.0000000   0.0000000  14.8749758  )
        10           Nb1 tau(  10) = (   2.9853008   0.0000000  14.8749758  )
        11           Nb1 tau(  11) = (   1.4926504   2.5853463  14.8749758  )
        12           Nb1 tau(  12) = (   4.4779512   2.5853463  14.8749758  )
        13           S1  tau(  13) = (   1.4926504   0.8617821  16.6234758  )

     number of k points=    20  Fermi-Dirac smearing, width (Ry)=  0.0110
                       cart. coord. in units 2pi/alat
        k(    1) = (   0.0000000   0.0000000   0.0000000), wk =   0.0555556
        k(    2) = (   0.0000000   0.0322329   0.0000000), wk =   0.1111111
        k(    3) = (   0.0000000   0.0644659   0.0000000), wk =   0.1111111
        k(    4) = (   0.0000000  -0.0966988   0.0000000), wk =   0.0555556
        k(    5) = (   0.0279146  -0.0161165   0.0000000), wk =   0.1111111
        k(    6) = (   0.0279146   0.0161165   0.0000000), wk =   0.1111111
        k(    7) = (   0.0279146   0.0483494   0.0000000), wk =   0.1111111
        k(    8) = (   0.0279146  -0.1128153   0.0000000), wk =   0.1111111
        k(    9) = (   0.0279146  -0.0805824   0.0000000), wk =   0.1111111
        k(   10) = (   0.0279146  -0.0483494   0.0000000), wk =   0.1111111
        k(   11) = (   0.0558291  -0.0322329   0.0000000), wk =   0.1111111
        k(   12) = (   0.0558291   0.0000000   0.0000000), wk =   0.1111111
        k(   13) = (   0.0558291   0.0322329   0.0000000), wk =   0.1111111
        k(   14) = (   0.0558291  -0.1289318   0.0000000), wk =   0.1111111
        k(   15) = (   0.0558291  -0.0966988   0.0000000), wk =   0.1111111
        k(   16) = (   0.0558291  -0.0644659   0.0000000), wk =   0.1111111
        k(   17) = (  -0.0837437   0.0483494   0.0000000), wk =   0.0555556
        k(   18) = (  -0.0837437   0.0805824   0.0000000), wk =   0.1111111
        k(   19) = (  -0.0837437   0.1128153   0.0000000), wk =   0.1111111
        k(   20) = (  -0.0837437  -0.0483494   0.0000000), wk =   0.0555556

     Largest allocated arrays     est. size (Mb)     dimensions
     Largest temporary arrays     est. size (Mb)     dimensions

     Initial potential from superposition of free atoms
     Check: negative starting charge=   -0.005082

     starting charge  161.96717, renormalised to  162.00000

     negative rho (up, down):  5.083E-03 0.000E+00

     *
     * You are using vdW-DF for exchange-correlation in this calculation.
     * Please cite the following three references that made this development
     * possible:
     *
     *   M. Dion, H. Rydberg, E. Schroder, D. C. Langreth, and
     *   B. I. Lundqvist, Phys. Rev. Lett. 92, 246401 (2004).
     *
     *   T. Thonhauser, V. R. Cooper, S. Li, A. Puzder, P. Hyldgaard, and
     *   D. C. Langreth, Phys. Rev. B 76, 125112 (2007).
     *
     *   G. Roman-Perez and J. M. Soler, Phys. Rev. Lett. 103, 096102 (2009).
     *
     *
     * If you are using vdW-DF2, please also cite:
     *
     *   K. Lee, E. D. Murray, L. Kong, B. I. Lundqvist, and
     *   D. C. Langreth, Phys. Rev. B 82, 081101(R) (2010).
     *
     *
     * If you are calculating the stress with vdW-DF, please also cite:
     *
     *   R. Sabatini, E. Kucukbenli, B. Kolb, T. Thonhauser, and
     *   S. de Gironcoli, J. Phys.: Condens. Matter 24, 424209 (2012).
     *

     Carrying out vdW-DF run using the following parameters:

     Nqs =      20    Nr_points =    1024   r_max =   100.000
     q_mesh =
               0.00001000     0.04494208     0.09755937     0.15916263
               0.23128650     0.31572767     0.41458969     0.53033537
               0.66584808     0.82450364     1.01025438     1.22772762
               1.48234092     1.78043706     2.12944203     2.53805004
               3.01644009     3.57652955     4.23227104     5.00000000

     Gradients computed in reciprocal space

     Adding external electric field

     Computed dipole along edir(3) :
        Dipole               -0.0093 Ry au,         -0.0238 Debye
        Dipole field         -0.0000 Ry au

        Potential amp.        0.0021 Ry
        Total length         45.8317 bohr

     Starting wfc are  160 randomized atomic wfcs

     Self-consistent Calculation

     iteration #  1     ecut=    36.75 Ry     beta=0.30
     Davidson diagonalization with overlap
     ethr =  1.00E-02,  avg # of iterations =  2.0

[...]

     total energy              =   -1444.76208043 Ry
     Harris-Foulkes estimate   =   -1447.22366476 Ry
     estimated scf accuracy    <       5.46224610 Ry

[...]

     End of self-consistent calculation

          k = 0.0000 0.0000 0.0000 ( 19435 PWs)   bands (ev):

   -53.1617 -53.1018 -53.0340 -52.9765 -52.9699 -52.9694 -52.9636 -52.9632
   -52.9597 -52.8899 -52.8894 -52.8749 -29.5827 -29.5825 -29.5823 -29.5229
   -29.5187 -29.4980 -29.4978 -29.4598 -29.4597 -29.4569 -29.2049 -29.0976
   -29.0493 -29.0488 -28.9965 -28.9963 -28.9956 -28.8874 -28.8873 -28.8634
   -28.8104 -28.8103 -28.7909 -28.7682 -28.7676 -28.7674 -28.7050 -28.6836
   -28.6834 -28.6770 -28.6399 -28.6398 -28.5948 -28.5947 -28.5134 -28.5133
   -10.8909  -3.4549  -2.5055  -2.1254  -2.1254  -1.9511  -1.6220  -1.5246
    -1.4047  -1.4047  -1.0846  -1.0846  -1.0629  -0.8402  -0.8402  -0.7873
    -0.4480  -0.4479  -0.1091   0.5665   0.5666   1.2359   1.3715   1.4022
     1.4022   1.5878   1.7685   2.1113   2.1113   2.2369   2.3262   2.3263
     2.4049   2.4049   2.4590   2.4788   2.4789   2.4930   2.5703   2.5703
     3.1810   3.3604   3.3605

[...]

          k =-0.0837 0.0483 0.0000 ( 19524 PWs)   bands (ev):

[...]

     the Fermi energy is     2.0258 ev

!    total energy              =   -1446.75221727 Ry
     Harris-Foulkes estimate   =   -1446.75223865 Ry
     estimated scf accuracy    <       0.00000913 Ry

     The total energy is the sum of the following terms:

     one-electron contribution =  -11750.64397003 Ry
     hartree contribution      =    5870.02377747 Ry
     xc contribution           =    -237.13388203 Ry
     ewald contribution        =    4671.11994444 Ry
     electric field correction =       0.00002805 Ry
     smearing contrib. (-TS)   =      -0.11811517 Ry

     convergence has been achieved in  17 iterations

 BEEF-vdW xc energy contributions
           1 :   -203.257862875866
           2 :    184.656034428557
           3 :   -152.948429305803
           4 :    116.619606585370
           5 :   -83.8275341883311
           6 :    59.7109574467669
           7 :   -45.2981182507644
           8 :    38.1466687458124
           9 :   -34.1875285489343
          10 :    29.7796484095309
          11 :   -23.0989000241296
          12 :    14.4098282509350
          13 :   -5.35857618378287
          14 :   -2.20003721877384
          15 :    7.20433877736917
          16 :   -9.79417193025083
          17 :    11.0314552758573
          18 :   -12.1902728945336
          19 :    14.0352653907950
          20 :   -16.4729615300990
          21 :    18.7096168327025
          22 :   -19.7761484142064
          23 :    19.0952551998655
          24 :   -16.7885101775362
          25 :    13.5876434626737
          26 :   -10.4436953188067
          27 :    8.06797834106635
          28 :   -6.65189461635754
          29 :    5.88434820843403
          30 :   -5.22376583289036
          31 :   -23.4877698111369
          32 :   -17.7100155398723

     Forces acting on atoms (Ry/au):

     negative rho (up, down):  4.758E-03 0.000E+00
     atom    1 type  1   force =     0.00002000    0.00000656   -0.00792265
     atom    2 type  1   force =    -0.00002456    0.00251994   -0.00459332
     atom    3 type  1   force =     0.00217314   -0.00127716   -0.00458948
     atom    4 type  1   force =    -0.00217804   -0.00125193   -0.00460631
     atom    5 type  1   force =    -0.00001232    0.00002819    0.00049788
     atom    6 type  1   force =     0.00000648   -0.00000260    0.00053678
     atom    7 type  1   force =    -0.00002601   -0.00000968   -0.00321608
     atom    8 type  1   force =     0.00002539   -0.00001818    0.00050835
     atom    9 type  1   force =    -0.03316419   -0.01915283    0.01373344
     atom   10 type  1   force =     0.03315524   -0.01913026    0.01369198
     atom   11 type  1   force =     0.00001513    0.03828456    0.01370126
     atom   12 type  1   force =    -0.00002293   -0.00000689   -0.02371827
     atom   13 type  2   force =     0.00003268    0.00001029    0.00597641

     Total force =     0.074564     Total SCF correction =     0.005100

     entering subroutine stress ...

     negative rho (up, down):  4.758E-03 0.000E+00
          total   stress  (Ry/bohr**3)                   (kbar)     P=  -14.84
  -0.00017318   0.00000002   0.00000005        -25.48      0.00      0.01
   0.00000002  -0.00017320   0.00000002          0.00    -25.48      0.00
   0.00000005   0.00000002   0.00004367          0.01      0.00      6.42

     BFGS Geometry Optimization

     number of scf cycles    =   1
     number of bfgs steps    =   0

     energy   new            =   -1446.7522172732 Ry

     new trust radius        =       0.0406853995 bohr
     new conv_thr            =       0.0000099958 Ry

ATOMIC_POSITIONS (crystal)
Nb1      0.166666667   0.166666667   0.402010442    0   0   0
Nb1      0.666666667   0.166666667   0.402010442    0   0   0
Nb1      0.166666667   0.666666667   0.402010442    0   0   0
Nb1      0.666666667   0.666666667   0.402010442    0   0   0
Nb1      0.833333333   0.333333333   0.500000000    0   0   0
Nb1      0.333333333   0.333333333   0.500000000    0   0   0
Nb1      0.833333333   0.833333333   0.500000000    0   0   0
Nb1      0.333333333   0.833333333   0.500000000    0   0   0
Nb1     -0.001959291  -0.001960133   0.598281716
Nb1      0.503917475  -0.001957823   0.598280834
Nb1     -0.001957711   0.503918105   0.598281032
Nb1      0.499998321   0.499999295   0.597484988
S1       0.166669036   0.166667720   0.668408223

     Writing output data file calc.save
     Check: negative starting charge=   -0.005082
     NEW-OLD atomic charge density approx. for the potential
     Check: negative starting charge=   -0.005092

[...]

     energy   old            =   -1446.7522172732 Ry
     energy   new            =   -1446.7571546703 Ry

     CASE: energy  _new < energy  _old

[...]

     Total force =     0.012429     Total SCF correction =     0.000121

[...]

     number of scf cycles    =  11
     number of bfgs steps    =  10

     energy   old            =   -1446.7738517461 Ry
     energy   new            =   -1446.7742272922 Ry

     CASE: energy  _new < energy  _old

     new trust radius        =       0.0182484919 bohr
     new conv_thr            =       0.0000001000 Ry

ATOMIC_POSITIONS (crystal)
Nb1      0.166666667   0.166666667   0.402010442    0   0   0
Nb1      0.666666667   0.166666667   0.402010442    0   0   0
Nb1      0.166666667   0.666666667   0.402010442    0   0   0
Nb1      0.666666667   0.666666667   0.402010442    0   0   0
Nb1      0.833333333   0.333333333   0.500000000    0   0   0
Nb1      0.333333333   0.333333333   0.500000000    0   0   0
Nb1      0.833333333   0.833333333   0.500000000    0   0   0
Nb1      0.333333333   0.833333333   0.500000000    0   0   0
Nb1     -0.005814491  -0.005813454   0.602422651
Nb1      0.511629112  -0.005814167   0.602421656
Nb1     -0.005815192   0.511629533   0.602421965
Nb1      0.500000563   0.500000404   0.583751665
S1       0.166670008   0.166668597   0.671294478

     Writing output data file calc.save
     Check: negative starting charge=   -0.005111
     NEW-OLD atomic charge density approx. for the potential
     Check: negative starting charge=   -0.005107

[...]

     Self-consistent Calculation

[...]

     total energy              =   -1446.77440273 Ry
     Harris-Foulkes estimate   =   -1446.77440273 Ry
     estimated scf accuracy    <       0.00000010 Ry

     iteration # 10     ecut=    36.75 Ry     beta=0.30
     Davidson diagonalization with overlap
     ethr =  6.20E-11,  avg # of iterations =  4.3

[...]

     negative rho (up, down):  4.792E-03 0.000E+00

     Adding external electric field

     Computed dipole along edir(3) :
        Dipole               -0.1901 Ry au,         -0.4831 Debye
        Dipole field         -0.0005 Ry au

        Potential amp.        0.0422 Ry
        Total length         45.8317 bohr

     End of self-consistent calculation

[...]

          k = 0.0558-0.0645 0.0000 ( 19505 PWs)   bands (ev):

[...]

          k =-0.0837-0.0483 0.0000 ( 19524 PWs)   bands (ev):

   -53.1535 -53.1149 -53.1088 -53.1007 -53.0738 -53.0393 -53.0392 -53.0071
   -52.9926 -52.9369 -52.9124 -52.8224 -29.5693 -29.4785 -29.4710 -29.4590
   -29.4244 -29.3986 -29.3858 -29.3287 -29.3171 -29.2772 -29.2625 -29.2120
   -29.2118 -29.1250 -29.1131 -29.1047 -29.0676 -29.0657 -29.0464 -29.0356
   -28.9975 -28.9519 -28.9476 -28.9430 -28.9060 -28.8672 -28.8384 -28.8015
   -28.7970 -28.7852 -28.7671 -28.6985 -28.6559 -28.6369 -28.5494 -28.5065
   -10.7546  -2.3269  -2.0122  -1.7241  -1.6446  -1.6240  -0.9445  -0.7857
    -0.6887  -0.6304  -0.5485  -0.4840  -0.4703  -0.0639   0.0202   0.1473
     0.1543   0.2205   0.2742   0.4425   0.6016   0.7506   0.8655   0.9337
     0.9747   0.9923   1.1738   1.3531   1.3739   1.4908   1.5774   1.5964
     1.6365   1.7347   1.8566   2.0569   2.0651   2.1052   2.2826   2.4958
     2.6814   2.7328   3.0595

     the Fermi energy is     1.9425 ev

!    total energy              =   -1446.77440270 Ry
     Harris-Foulkes estimate   =   -1446.77440282 Ry
     estimated scf accuracy    <       0.00000007 Ry

     The total energy is the sum of the following terms:

     one-electron contribution =  -11732.28399883 Ry
     hartree contribution      =    5860.64724567 Ry
     xc contribution           =    -237.16701324 Ry
     ewald contribution        =    4662.13983534 Ry
     electric field correction =       0.00008760 Ry
     smearing contrib. (-TS)   =      -0.11055925 Ry

     convergence has been achieved in  10 iterations

 BEEF-vdW xc energy contributions
           1 :   -203.290300158073
           2 :    184.675299122869
           3 :   -152.946881270375
           4 :    116.593040473334
           5 :   -83.7701074763573
           6 :    59.6118388880972
           7 :   -45.1426926290657
           8 :    37.9264724433016
           9 :   -33.9148122085597
          10 :    29.4938052815876
          11 :   -22.8547213008427
          12 :    14.2481400991222
          13 :   -5.27706042134878
          14 :   -2.25197164074586
          15 :    7.29880661925668
          16 :   -9.98224050533187
          17 :    11.3130877535016
          18 :   -12.5143734993253
          19 :    14.3274256976911
          20 :   -16.6732652671597
          21 :    18.8012231842414
          22 :   -19.7925931246335
          23 :    19.1038157822598
          24 :   -16.8571673008893
          25 :    13.7500594581130
          26 :   -10.6794752197886
          27 :    8.30962002040610
          28 :   -6.81748000393213
          29 :    5.92148730571907
          30 :   -5.13927280592083
          31 :   -23.4892227822507
          32 :   -17.7054382926919

     Forces acting on atoms (Ry/au):

     negative rho (up, down):  4.792E-03 0.000E+00
     atom    1 type  1   force =     0.00000042   -0.00000259   -0.00000365
     atom    2 type  1   force =    -0.00000023    0.00082776   -0.00348054
     atom    3 type  1   force =     0.00071907   -0.00041381   -0.00347424
     atom    4 type  1   force =    -0.00071819   -0.00041296   -0.00347517
     atom    5 type  1   force =     0.02851404   -0.01645726   -0.00443780
     atom    6 type  1   force =    -0.02851419   -0.01645300   -0.00444234
     atom    7 type  1   force =     0.00000319   -0.00000749    0.02844361
     atom    8 type  1   force =    -0.00000395    0.03291819   -0.00444504
     atom    9 type  1   force =    -0.00154139   -0.00089542   -0.00130736
     atom   10 type  1   force =     0.00154308   -0.00089288   -0.00130403
     atom   11 type  1   force =     0.00000326    0.00178475   -0.00130364
     atom   12 type  1   force =    -0.00000252    0.00000566   -0.00086395
     atom   13 type  2   force =    -0.00000258   -0.00000094    0.00009415

     Total force =     0.003925     Total SCF correction =     0.000427
     SCF correction compared to forces is large: reduce conv_thr to get better values

     entering subroutine stress ...

     negative rho (up, down):  4.792E-03 0.000E+00
          total   stress  (Ry/bohr**3)                   (kbar)     P=  -14.96
  -0.00015493  -0.00000000  -0.00000000        -22.79     -0.00     -0.00
  -0.00000000  -0.00015493   0.00000000         -0.00    -22.79      0.00
  -0.00000000   0.00000000   0.00000478         -0.00      0.00      0.70

     bfgs converged in  12 scf cycles and  11 bfgs steps
     (criteria: energy <  1.0E+00, force <  1.9E-03)

     End of BFGS Geometry Optimization

     Final energy   =   -1446.7744027021 Ry
Begin final coordinates

ATOMIC_POSITIONS (crystal)
Nb1      0.166666667   0.166666667   0.402010442    0   0   0
Nb1      0.666666667   0.166666667   0.402010442    0   0   0
Nb1      0.166666667   0.666666667   0.402010442    0   0   0
Nb1      0.666666667   0.666666667   0.402010442    0   0   0
Nb1      0.833333333   0.333333333   0.500000000    0   0   0
Nb1      0.333333333   0.333333333   0.500000000    0   0   0
Nb1      0.833333333   0.833333333   0.500000000    0   0   0
Nb1      0.333333333   0.833333333   0.500000000    0   0   0
Nb1     -0.005814491  -0.005813454   0.602422651
Nb1      0.511629112  -0.005814167   0.602421656
Nb1     -0.005815192   0.511629533   0.602421965
Nb1      0.500000563   0.500000404   0.583751665
S1       0.166670008   0.166668597   0.671294478
End final coordinates

     Writing output data file calc.save

     General routines

     Parallel routines

   This run was terminated on:  11: 8:23   3May2018

   JOB DONE.
Job  /afs/slac/g/suncat/bin/suncat-tsmpirun -x LD_LIBRARY_PATH -wdir /scratch/qe712077_25jzD pw.x -npool 4 -in pw.inp

TID   HOST_NAME   COMMAND_LINE            STATUS            TERMINATION_TIME
00000 suncat0080 pw.x -npool 4 -i  Done                     05/03/2018 11:08:23
00001 suncat0080 pw.x -npool 4 -i  Done                     05/03/2018 11:08:23
00002 suncat0080 pw.x -npool 4 -i  Done                     05/03/2018 11:08:23
00003 suncat0080 pw.x -npool 4 -i  Done                     05/03/2018 11:08:23
00004 suncat0080 pw.x -npool 4 -i  Done                     05/03/2018 11:08:23
00005 suncat0080 pw.x -npool 4 -i  Done                     05/03/2018 11:08:23
00006 suncat0080 pw.x -npool 4 -i  Done                     05/03/2018 11:08:23
00007 suncat0080 pw.x -npool 4 -i  Done                     05/03/2018 11:08:23
00008 suncat0078 pw.x -npool 4 -i  Done                     05/03/2018 11:08:23
00009 suncat0078 pw.x -npool 4 -i  Done                     05/03/2018 11:08:23
00010 suncat0078 pw.x -npool 4 -i  Done                     05/03/2018 11:08:23
00011 suncat0078 pw.x -npool 4 -i  Done                     05/03/2018 11:08:23
00012 suncat0078 pw.x -npool 4 -i  Done                     05/03/2018 11:08:23
00013 suncat0078 pw.x -npool 4 -i  Done                     05/03/2018 11:08:23
00014 suncat0078 pw.x -npool 4 -i  Done                     05/03/2018 11:08:23
00015 suncat0078 pw.x -npool 4 -i  Done                     05/03/2018 11:08:23
00016 suncat0233 pw.x -npool 4 -i  Done                     05/03/2018 11:08:23
00017 suncat0233 pw.x -npool 4 -i  Done                     05/03/2018 11:08:23
00018 suncat0233 pw.x -npool 4 -i  Done                     05/03/2018 11:08:23
00019 suncat0233 pw.x -npool 4 -i  Done                     05/03/2018 11:08:23
00020 suncat0233 pw.x -npool 4 -i  Done                     05/03/2018 11:08:23
00021 suncat0233 pw.x -npool 4 -i  Done                     05/03/2018 11:08:23
00022 suncat0233 pw.x -npool 4 -i  Done                     05/03/2018 11:08:23
00023 suncat0233 pw.x -npool 4 -i  Done                     05/03/2018 11:08:23
00024 suncat0223 pw.x -npool 4 -i  Done                     05/03/2018 11:08:23
00025 suncat0223 pw.x -npool 4 -i  Done                     05/03/2018 11:08:23
00026 suncat0223 pw.x -npool 4 -i  Done                     05/03/2018 11:08:23
00027 suncat0223 pw.x -npool 4 -i  Done                     05/03/2018 11:08:23
00028 suncat0223 pw.x -npool 4 -i  Done                     05/03/2018 11:08:23
00029 suncat0223 pw.x -npool 4 -i  Done                     05/03/2018 11:08:23
00030 suncat0223 pw.x -npool 4 -i  Done                     05/03/2018 11:08:23
00031 suncat0223 pw.x -npool 4 -i  Done                     05/03/2018 11:08:23