     Program PWSCF v.5.1rc2 (svn rev. 11289) starts on 21Apr2018 at 22:19:35

     Current dimensions of program PWSCF are:
     Max number of different atomic species (ntypx) = 10
     Max number of k-points (npk) =  40000
     Max angular momentum in pseudopotentials (lmaxx) =  3
     Presently stress not available with electric field

     IMPORTANT: XC functional enforced from input :
     Exchange-correlation      = BEEF-VDW ( 1  4 27 13 2)
     Any further DFT definition will be discarded
     Please, verify this is what you really want

     Subspace diagonalization in iterative solution of the eigenvalue problem:
     a serial algorithm will be used

     bravais-lattice index     =            0
     lattice parameter (alat)  =       1.8897  a.u.
     unit-cell volume          =    4569.9960 (a.u.)^3
     number of atoms/cell      =           14
     number of atomic types    =            3
     number of electrons       =       199.00
     number of Kohn-Sham states=          109
     kinetic-energy cutoff     =      36.7493  Ry
     charge density cutoff     =     367.4932  Ry
     convergence threshold     =      1.0E-05
     mixing beta               =       0.3000
     number of iterations used =           10  plain     mixing
     Exchange-correlation      = BEEF-VDW ( 1  4 27 13 2)
     nstep                     =           50

     celldm(1)=   1.889726  celldm(2)=   0.000000  celldm(3)=   0.000000
     celldm(4)=   0.000000  celldm(5)=   0.000000  celldm(6)=   0.000000

     crystal axes: (cart. coord. in units of alat)
               a(1) = (   5.637663   0.000000   0.000000 )
               a(2) = (   2.818831   4.882359   0.000000 )
               a(3) = (   0.000000   0.000000  24.603132 )

     reciprocal axes: (cart. coord. in units 2 pi/alat)
               b(1) = (  0.177378 -0.102410  0.000000 )
               b(2) = (  0.000000  0.204819  0.000000 )
               b(3) = (  0.000000  0.000000  0.040645 )

     PseudoPot. # 1 for Pd read from file:
     /u/if/mamunm/psp/gbrv1.5pbe/Pd.UPF
     MD5 check sum: 2d733d2bc2cbfd217af676df1668a4bc
     Pseudo is Ultrasoft + core correction, Zval = 16.0
     Generated by new atomic code, or converted to UPF format
     Using radial grid of  887 points,  6 beta functions with:
                l(1) =   0
                l(2) =   0
                l(3) =   1
                l(4) =   1
                l(5) =   2
                l(6) =   2
     Q(r) pseudized with  8 coefficients,  rinner =    1.130   1.130   1.130
                                                       1.130   1.130

     PseudoPot. # 2 for S  read from file:
     /u/if/mamunm/psp/gbrv1.5pbe/S.UPF
     MD5 check sum: 88d86576ff6df21479756cfb9bdac1df
     Pseudo is Ultrasoft + core correction, Zval =  6.0
     Generated by new atomic code, or converted to UPF format
     Using radial grid of  907 points,  6 beta functions with:
                l(1) =   0
                l(2) =   0
                l(3) =   1
                l(4) =   1
                l(5) =   2
                l(6) =   2
     Q(r) pseudized with  8 coefficients,  rinner =    1.300   1.300   1.300
                                                       1.300   1.300

     PseudoPot. # 3 for H  read from file:
     /u/if/mamunm/psp/gbrv1.5pbe/H.UPF
     MD5 check sum: 761ae9a214b05c3daf00ab9f6b793d6f
     Pseudo is Ultrasoft, Zval =  1.0
     Generated by new atomic code, or converted to UPF format
     Using radial grid of  615 points,  2 beta functions with:
                l(1) =   0
                l(2) =   0
     Q(r) pseudized with  8 coefficients,  rinner =    0.700

     vdW kernel table read from file vdW_kernel_table
     MD5 check sum: 095c7af220d748ca6e76c0b4c6cfb241

     atomic species   valence    mass     pseudopotential
        Pd1           16.00   106.42000     Pd( 1.00)
        S1             6.00    32.06000     S ( 1.00)
        H1             1.00     1.00800     H ( 1.00)

     No symmetry found

   Cartesian axes

     site n.     atom                  positions (alat units)
         1           Pd1 tau(   1) = (   1.4094157   0.8137265  10.0000000  )
         2           Pd1 tau(   2) = (   4.2282471   0.8137265  10.0000000  )
         3           Pd1 tau(   3) = (   2.8188314   3.2549061  10.0000000  )
         4           Pd1 tau(   4) = (   5.6376627   3.2549061  10.0000000  )
         5           Pd1 tau(   5) = (   5.6376627   1.6274531  12.3015662  )
         6           Pd1 tau(   6) = (   2.8188314   1.6274531  12.3015662  )
         7           Pd1 tau(   7) = (   7.0470784   4.0686326  12.3015662  )
         8           Pd1 tau(   8) = (   4.2282471   4.0686326  12.3015662  )
         9           Pd1 tau(   9) = (   0.0000000   0.0000000  14.6031324  )
        10           Pd1 tau(  10) = (   2.8188314   0.0000000  14.6031324  )
        11           Pd1 tau(  11) = (   1.4094157   2.4411796  14.6031324  )
        12           Pd1 tau(  12) = (   4.2282471   2.4411796  14.6031324  )
        13           S1  tau(  13) = (   0.0000000   0.0000000  16.6771324  )
        14           H1  tau(  14) = (   0.0000000   0.0000000  17.9271324  )

     number of k points=    20  Fermi-Dirac smearing, width (Ry)=  0.0110
                       cart. coord. in units 2pi/alat
        k(    1) = (   0.0000000   0.0000000   0.0000000), wk =   0.0555556
        k(    2) = (   0.0000000   0.0341365   0.0000000), wk =   0.1111111
        k(    3) = (   0.0000000   0.0682730   0.0000000), wk =   0.1111111
        k(    4) = (   0.0000000  -0.1024095   0.0000000), wk =   0.0555556
        k(    5) = (   0.0295631  -0.0170683   0.0000000), wk =   0.1111111
        k(    6) = (   0.0295631   0.0170683   0.0000000), wk =   0.1111111
        k(    7) = (   0.0295631   0.0512048   0.0000000), wk =   0.1111111
        k(    8) = (   0.0295631  -0.1194778   0.0000000), wk =   0.1111111
        k(    9) = (   0.0295631  -0.0853413   0.0000000), wk =   0.1111111
        k(   10) = (   0.0295631  -0.0512048   0.0000000), wk =   0.1111111
        k(   11) = (   0.0591262  -0.0341365   0.0000000), wk =   0.1111111
        k(   12) = (   0.0591262  -0.0000000   0.0000000), wk =   0.1111111
        k(   13) = (   0.0591262   0.0341365   0.0000000), wk =   0.1111111
        k(   14) = (   0.0591262  -0.1365460   0.0000000), wk =   0.1111111
        k(   15) = (   0.0591262  -0.1024095   0.0000000), wk =   0.1111111
        k(   16) = (   0.0591262  -0.0682730   0.0000000), wk =   0.1111111
        k(   17) = (  -0.0886892   0.0512048   0.0000000), wk =   0.0555556
        k(   18) = (  -0.0886892   0.0853413   0.0000000), wk =   0.1111111
        k(   19) = (  -0.0886892   0.1194778   0.0000000), wk =   0.1111111
        k(   20) = (  -0.0886892  -0.0512048   0.0000000), wk =   0.0555556

     Largest allocated arrays     est. size (Mb)     dimensions
     Largest temporary arrays     est. size (Mb)     dimensions

     Initial potential from superposition of free atoms
     Check: negative starting charge=   -0.903924

     starting charge  192.99987, renormalised to  199.00000

     negative rho (up, down):  9.320E-01 0.000E+00

     *
     * You are using vdW-DF for exchange-correlation in this calculation.
     * Please cite the following three references that made this development
     * possible:
     *
     *   M. Dion, H. Rydberg, E. Schroder, D. C. Langreth, and
     *   B. I. Lundqvist, Phys. Rev. Lett. 92, 246401 (2004).
     *
     *   T. Thonhauser, V. R. Cooper, S. Li, A. Puzder, P. Hyldgaard, and
     *   D. C. Langreth, Phys. Rev. B 76, 125112 (2007).
     *
     *   G. Roman-Perez and J. M. Soler, Phys. Rev. Lett. 103, 096102 (2009).
     *
     *
     * If you are using vdW-DF2, please also cite:
     *
     *   K. Lee, E. D. Murray, L. Kong, B. I. Lundqvist, and
     *   D. C. Langreth, Phys. Rev. B 82, 081101(R) (2010).
     *
     *
     * If you are calculating the stress with vdW-DF, please also cite:
     *
     *   R. Sabatini, E. Kucukbenli, B. Kolb, T. Thonhauser, and
     *   S. de Gironcoli, J. Phys.: Condens. Matter 24, 424209 (2012).
     *

     Carrying out vdW-DF run using the following parameters:

     Nqs =      20    Nr_points =    1024   r_max =   100.000
     q_mesh =
               0.00001000     0.04494208     0.09755937     0.15916263
               0.23128650     0.31572767     0.41458969     0.53033537
               0.66584808     0.82450364     1.01025438     1.22772762
               1.48234092     1.78043706     2.12944203     2.53805004
               3.01644009     3.57652955     4.23227104     5.00000000

     Gradients computed in reciprocal space

     Adding external electric field

     Computed dipole along edir(3) :
        Dipole               -1.8725 Ry au,         -4.7593 Debye
        Dipole field         -0.0051 Ry au

        Potential amp.        0.4668 Ry
        Total length         45.3309 bohr

     Starting wfc are  149 randomized atomic wfcs

     Self-consistent Calculation

     iteration #  1     ecut=    36.75 Ry     beta=0.30
     Davidson diagonalization with overlap
     ethr =  1.00E-02,  avg # of iterations =  4.7

[...]

     total energy              =   -2362.86171565 Ry
     Harris-Foulkes estimate   =   -2425.19326888 Ry
     estimated scf accuracy    <     131.18787067 Ry

[...]

     End of self-consistent calculation

          k = 0.0000 0.0000 0.0000 ( 17231 PWs)   bands (ev):

   -49.2071 -48.8538 -48.8538 -48.6351 -48.6151 -48.6148 -48.5412 -48.5133
   -48.5126 -48.4903 -48.4464 -48.4459 -48.4409 -48.3800 -48.3798 -48.3632
   -48.3518 -48.3517 -48.3280 -48.2131 -48.2130 -48.1944 -48.1853 -48.1852
   -48.1288 -48.1288 -48.1085 -48.1083 -48.1039 -48.0555 -48.0349 -48.0347
   -48.0120 -48.0092 -47.9982 -47.9970 -12.2427  -5.7743  -4.3410  -3.3122
    -3.2011  -3.2008  -3.1285  -3.0925  -2.9728  -2.9727  -2.9030  -2.9029
    -2.8669  -2.7301  -2.5975  -2.5974  -2.5511  -2.2340  -2.2339  -1.5997
    -1.3856  -1.3855  -1.3439  -1.1810  -1.1321  -1.1321  -0.9991  -0.9990
    -0.8937  -0.8936  -0.8134  -0.8134  -0.8038  -0.5507  -0.4902  -0.4901
    -0.1317  -0.1314  -0.1030   0.1839   0.1840   0.2324   0.2326   0.2532
     0.4346   0.6024   0.6024   0.8347   0.8348   0.9741   1.0022   1.0024
     1.0253   1.0897   1.0898   1.1003   1.1005   1.2609   1.2612   1.2764
     1.3698   1.3702   1.4896   1.5090   1.5091   1.5375   2.0361   3.4918
     3.7030   3.7451   3.7452   4.8457   4.9562

[...]

          k =-0.0887 0.0512 0.0000 ( 17240 PWs)   bands (ev):

[...]

     the Fermi energy is     1.2832 ev

!    total energy              =   -2422.95864124 Ry
     Harris-Foulkes estimate   =   -2422.95865176 Ry
     estimated scf accuracy    <       0.00000725 Ry

     The total energy is the sum of the following terms:

     one-electron contribution =  -20510.11858700 Ry
     hartree contribution      =   10308.77018430 Ry
     xc contribution           =    -399.78100339 Ry
     ewald contribution        =    8178.29788442 Ry
     electric field correction =       0.00001781 Ry
     smearing contrib. (-TS)   =      -0.12713738 Ry

     convergence has been achieved in  21 iterations

 BEEF-vdW xc energy contributions
           1 :   -347.824653758361
           2 :    317.459092374488
           3 :   -265.746355390958
           4 :    206.665285247150
           5 :   -153.658317512093
           6 :    115.238831666592
           7 :   -93.1965226249197
           8 :    83.6636796766455
           9 :   -80.1321451681717
          10 :    76.8078246371972
          11 :   -70.8093442970832
          12 :    62.4783242938925
          13 :   -54.0889286396024
          14 :    47.9517874405468
          15 :   -45.0063904815886
          16 :    44.5083969372528
          17 :   -44.7302675760635
          18 :    44.0766164705073
          19 :   -41.9163349380834
          20 :    38.7176695044560
          21 :   -35.5412410212177
          22 :    33.2934159549480
          23 :   -32.2093499414710
          24 :    31.8216937348894
          25 :   -31.3553088341975
          26 :    30.2476342274866
          27 :   -28.4652055871007
          28 :    26.4496238122044
          29 :   -24.7725871998610
          30 :    23.7477987421896
          31 :   -34.0767963495246
          32 :   -25.1051929087532

     Forces acting on atoms (Ry/au):

     negative rho (up, down):  9.415E-01 0.000E+00
     atom    1 type  1   force =    -0.00013072   -0.00007561    0.00089820
     atom    2 type  1   force =     0.00013055   -0.00009739    0.00090425
     atom    3 type  1   force =    -0.00001454    0.00015730    0.00085545
     atom    4 type  1   force =     0.00001358   -0.00000500   -0.00111253
     atom    5 type  1   force =    -0.00000475   -0.00038408   -0.00021406
     atom    6 type  1   force =     0.00000427   -0.00004395   -0.00170250
     atom    7 type  1   force =     0.00028223    0.00022387   -0.00016466
     atom    8 type  1   force =    -0.00028075    0.00021651   -0.00014262
     atom    9 type  1   force =    -0.00000722    0.00001478   -0.11342589
     atom   10 type  1   force =     0.00000633   -0.00168656    0.00221832
     atom   11 type  1   force =    -0.00148529    0.00084195    0.00213004
     atom   12 type  1   force =     0.00148570    0.00083929    0.00214796
     atom   13 type  2   force =     0.00000033   -0.00000096   -0.02127824
     atom   14 type  3   force =     0.00000029   -0.00000016    0.12888630

     Total force =     0.173068     Total SCF correction =     0.007327

     entering subroutine stress ...

     negative rho (up, down):  9.415E-01 0.000E+00
          total   stress  (Ry/bohr**3)                   (kbar)     P=   -0.86
  -0.00007736   0.00000000  -0.00000000        -11.38      0.00     -0.00
   0.00000000  -0.00007740   0.00000001          0.00    -11.39      0.00
  -0.00000000   0.00000001   0.00013713         -0.00      0.00     20.17

     BFGS Geometry Optimization

     number of scf cycles    =   1
     number of bfgs steps    =   0

     energy   new            =   -2422.9586412368 Ry

     new trust radius        =       0.1288863032 bohr
     new conv_thr            =       0.0000099958 Ry

ATOMIC_POSITIONS (crystal)
Pd1      0.166666667   0.166666667   0.406452311    0   0   0
Pd1      0.666666667   0.166666667   0.406452311    0   0   0
Pd1      0.166666667   0.666666667   0.406452311    0   0   0
Pd1      0.666666667   0.666666667   0.406452311    0   0   0
Pd1      0.833333333   0.333333333   0.500000000    0   0   0
Pd1      0.333333333   0.333333333   0.500000000    0   0   0
Pd1      0.833333333   0.833333333   0.500000000    0   0   0
Pd1      0.333333333   0.833333333   0.500000000    0   0   0
Pd1     -0.000001479   0.000001602   0.591108065
Pd1      0.500091993  -0.000182799   0.593595402
Pd1     -0.000185044   0.500091256   0.593593503
Pd1      0.500093971   0.500090967   0.593593888
S1       0.000000083  -0.000000104   0.677388235
H1       0.000000036  -0.000000018   0.731424592

     Writing output data file calc.save
     Check: negative starting charge=   -0.903924
     NEW-OLD atomic charge density approx. for the potential
     Check: negative starting charge=   -0.904092

[...]

     energy   old            =   -2422.9586412368 Ry
     energy   new            =   -2422.9783717727 Ry

     CASE: energy  _new < energy  _old

[...]

     Total force =     0.006650     Total SCF correction =     0.000896
     SCF correction compared to forces is large: reduce conv_thr to get better values

[...]

     Total force =     0.004472     Total SCF correction =     0.000125

[...]

     number of scf cycles    =  11
     number of bfgs steps    =  10

     energy   old            =   -2422.9898366650 Ry
     energy   new            =   -2422.9898714573 Ry

     CASE: energy  _new < energy  _old

     new trust radius        =       0.0075844704 bohr
     new conv_thr            =       0.0000001000 Ry

ATOMIC_POSITIONS (crystal)
Pd1      0.166666667   0.166666667   0.406452311    0   0   0
Pd1      0.666666667   0.166666667   0.406452311    0   0   0
Pd1      0.166666667   0.666666667   0.406452311    0   0   0
Pd1      0.666666667   0.666666667   0.406452311    0   0   0
Pd1      0.833333333   0.333333333   0.500000000    0   0   0
Pd1      0.333333333   0.333333333   0.500000000    0   0   0
Pd1      0.833333333   0.833333333   0.500000000    0   0   0
Pd1      0.333333333   0.833333333   0.500000000    0   0   0
Pd1     -0.000002437   0.000003434   0.590038634
Pd1      0.500256210  -0.000512892   0.595173502
Pd1     -0.000512934   0.500256737   0.595173306
Pd1      0.500256178   0.500256644   0.595173213
S1       0.000008846  -0.000010066   0.683199134
H1      -0.000003328   0.000003882   0.738232978

     Writing output data file calc.save
     Check: negative starting charge=   -0.911818
     NEW-OLD atomic charge density approx. for the potential
     Check: negative starting charge=   -0.911237

[...]

     Self-consistent Calculation

[...]

     total energy              =   -2422.98990461 Ry
     Harris-Foulkes estimate   =   -2422.98990463 Ry
     estimated scf accuracy    <       0.00000017 Ry

     iteration # 10     ecut=    36.75 Ry     beta=0.30
     Davidson diagonalization with overlap
     ethr =  8.30E-11,  avg # of iterations =  2.2

[...]

     negative rho (up, down):  9.487E-01 0.000E+00

     Adding external electric field

     Computed dipole along edir(3) :
        Dipole                0.0197 Ry au,          0.0501 Debye
        Dipole field          0.0001 Ry au

        Potential amp.       -0.0049 Ry
        Total length         45.3309 bohr

     End of self-consistent calculation

[...]

          k = 0.0591-0.0683 0.0000 ( 17183 PWs)   bands (ev):

[...]

          k =-0.0887-0.0512 0.0000 ( 17240 PWs)   bands (ev):

   -48.9380 -48.7960 -48.7867 -48.7006 -48.6724 -48.6431 -48.6350 -48.6264
   -48.6195 -48.6180 -48.6042 -48.5689 -48.5670 -48.5393 -48.5028 -48.4273
   -48.4258 -48.3744 -48.3596 -48.3566 -48.3455 -48.3415 -48.3049 -48.2731
   -48.2712 -48.2704 -48.2692 -48.2440 -48.2046 -48.1519 -48.1515 -48.1413
   -48.1403 -48.0866 -48.0809 -48.0752 -11.4607  -4.8307  -3.1480  -3.1202
    -2.7262  -2.6016  -2.6005  -2.5434  -2.4971  -2.3639  -2.3324  -2.2639
    -2.1954  -2.1944  -2.1576  -2.0390  -2.0079  -1.8675  -1.8160  -1.7149
    -1.5882  -1.5286  -1.5035  -1.4894  -1.4288  -1.3240  -1.2472  -1.1892
    -0.9665  -0.9320  -0.8783  -0.8647  -0.7645  -0.7549  -0.7163  -0.6531
    -0.6388  -0.6194  -0.5858  -0.5674  -0.5581  -0.3919  -0.2905  -0.2395
    -0.1838  -0.1040  -0.1018   0.0280   0.0364   0.1173   0.1197   0.1444
     0.1527   0.2190   0.2590   0.4013   0.4693   0.5326   0.5342   0.8127
     0.9222   0.9773   1.0267   1.0798   1.2044   1.2138   1.4912   1.5278
     3.6353   3.7428   3.7563   3.8715   4.6892

     the Fermi energy is     1.1729 ev

!    total energy              =   -2422.98990459 Ry
     Harris-Foulkes estimate   =   -2422.98990474 Ry
     estimated scf accuracy    <       0.00000004 Ry

     The total energy is the sum of the following terms:

     one-electron contribution =  -20423.96001228 Ry
     hartree contribution      =   10265.31338860 Ry
     xc contribution           =    -399.61681418 Ry
     ewald contribution        =    8135.40322971 Ry
     electric field correction =       0.00000107 Ry
     smearing contrib. (-TS)   =      -0.12969750 Ry

     convergence has been achieved in  10 iterations

 BEEF-vdW xc energy contributions
           1 :   -347.656320904085
           2 :    317.232232550129
           3 :   -265.453374402657
           4 :    206.357401730776
           5 :   -153.411564737724
           6 :    115.107472312136
           7 :   -93.1830244282704
           8 :    83.7206163337509
           9 :   -80.1899049029633
          10 :    76.8109394202326
          11 :   -70.7430166918832
          12 :    62.3727616386275
          13 :   -54.0003842200374
          14 :    47.9309781122596
          15 :   -45.0720306745485
          16 :    44.6400381262216
          17 :   -44.8818661312966
          18 :    44.2010664988910
          19 :   -41.9871520471884
          20 :    38.7374297908387
          21 :   -35.5349446678937
          22 :    33.2920022777628
          23 :   -32.2329156968613
          24 :    31.8717193077095
          25 :   -31.4176690338056
          26 :    30.3031315233822
          27 :   -28.5004348039778
          28 :    26.4615184077304
          29 :   -24.7654441926447
          30 :    23.7264714859120
          31 :   -34.0653515992987
          32 :   -25.0802306528245

     Forces acting on atoms (Ry/au):

     negative rho (up, down):  9.487E-01 0.000E+00
     atom    1 type  1   force =     0.00010054    0.00005444    0.00049635
     atom    2 type  1   force =    -0.00010041    0.00005414    0.00049654
     atom    3 type  1   force =    -0.00000036   -0.00011045    0.00049973
     atom    4 type  1   force =     0.00000035    0.00000525    0.00011790
     atom    5 type  1   force =     0.00000034    0.00514183   -0.00113477
     atom    6 type  1   force =    -0.00000017    0.00000367    0.00537306
     atom    7 type  1   force =    -0.00445203   -0.00257338   -0.00113255
     atom    8 type  1   force =     0.00445136   -0.00257272   -0.00113209
     atom    9 type  1   force =    -0.00000123   -0.00000541   -0.00188378
     atom   10 type  1   force =    -0.00000009   -0.00010615   -0.00162232
     atom   11 type  1   force =    -0.00008832    0.00005655   -0.00161853
     atom   12 type  1   force =     0.00008781    0.00005682   -0.00161798
     atom   13 type  2   force =     0.00000488   -0.00001152    0.00134499
     atom   14 type  3   force =    -0.00000269    0.00000694    0.00181344

     Total force =     0.004068     Total SCF correction =     0.000956
     SCF correction compared to forces is large: reduce conv_thr to get better values

     entering subroutine stress ...

     negative rho (up, down):  9.487E-01 0.000E+00
          total   stress  (Ry/bohr**3)                   (kbar)     P=   -8.98
  -0.00008250   0.00000000   0.00000000        -12.14      0.00      0.00
   0.00000000  -0.00008251  -0.00000000          0.00    -12.14     -0.00
   0.00000000  -0.00000000  -0.00001821          0.00     -0.00     -2.68

     bfgs converged in  12 scf cycles and  11 bfgs steps
     (criteria: energy <  1.0E+00, force <  1.9E-03)

     End of BFGS Geometry Optimization

     Final energy   =   -2422.9899045887 Ry
Begin final coordinates

ATOMIC_POSITIONS (crystal)
Pd1      0.166666667   0.166666667   0.406452311    0   0   0
Pd1      0.666666667   0.166666667   0.406452311    0   0   0
Pd1      0.166666667   0.666666667   0.406452311    0   0   0
Pd1      0.666666667   0.666666667   0.406452311    0   0   0
Pd1      0.833333333   0.333333333   0.500000000    0   0   0
Pd1      0.333333333   0.333333333   0.500000000    0   0   0
Pd1      0.833333333   0.833333333   0.500000000    0   0   0
Pd1      0.333333333   0.833333333   0.500000000    0   0   0
Pd1     -0.000002437   0.000003434   0.590038634
Pd1      0.500256210  -0.000512892   0.595173502
Pd1     -0.000512934   0.500256737   0.595173306
Pd1      0.500256178   0.500256644   0.595173213
S1       0.000008846  -0.000010066   0.683199134
H1      -0.000003328   0.000003882   0.738232978
End final coordinates

     Writing output data file calc.save

     General routines

     Parallel routines

   This run was terminated on:  23:40: 1  21Apr2018

   JOB DONE.
Job  /afs/slac/g/suncat/bin/suncat-tsmpirun -x LD_LIBRARY_PATH -wdir /scratch/qe470078_W0m84 pw.x -npool 4 -in pw.inp

TID   HOST_NAME   COMMAND_LINE            STATUS            TERMINATION_TIME
00000 suncat0084 pw.x -npool 4 -i  Done                     04/21/2018 23:40:01
00001 suncat0084 pw.x -npool 4 -i  Done                     04/21/2018 23:40:01
00002 suncat0084 pw.x -npool 4 -i  Done                     04/21/2018 23:40:01
00003 suncat0084 pw.x -npool 4 -i  Done                     04/21/2018 23:40:01
00004 suncat0084 pw.x -npool 4 -i  Done                     04/21/2018 23:40:01
00005 suncat0084 pw.x -npool 4 -i  Done                     04/21/2018 23:40:01
00006 suncat0084 pw.x -npool 4 -i  Done                     04/21/2018 23:40:01
00007 suncat0084 pw.x -npool 4 -i  Done                     04/21/2018 23:40:01
00008 suncat0077 pw.x -npool 4 -i  Done                     04/21/2018 23:40:01
00009 suncat0077 pw.x -npool 4 -i  Done                     04/21/2018 23:40:01
00010 suncat0077 pw.x -npool 4 -i  Done                     04/21/2018 23:40:01
00011 suncat0077 pw.x -npool 4 -i  Done                     04/21/2018 23:40:01
00012 suncat0077 pw.x -npool 4 -i  Done                     04/21/2018 23:40:01
00013 suncat0077 pw.x -npool 4 -i  Done                     04/21/2018 23:40:01
00014 suncat0077 pw.x -npool 4 -i  Done                     04/21/2018 23:40:01
00015 suncat0077 pw.x -npool 4 -i  Done                     04/21/2018 23:40:01
00016 suncat0072 pw.x -npool 4 -i  Done                     04/21/2018 23:40:01
00017 suncat0072 pw.x -npool 4 -i  Done                     04/21/2018 23:40:01
00018 suncat0072 pw.x -npool 4 -i  Done                     04/21/2018 23:40:01
00019 suncat0072 pw.x -npool 4 -i  Done                     04/21/2018 23:40:01
00020 suncat0072 pw.x -npool 4 -i  Done                     04/21/2018 23:40:01
00021 suncat0072 pw.x -npool 4 -i  Done                     04/21/2018 23:40:01
00022 suncat0072 pw.x -npool 4 -i  Done                     04/21/2018 23:40:01
00023 suncat0072 pw.x -npool 4 -i  Done                     04/21/2018 23:40:01
00024 suncat0062 pw.x -npool 4 -i  Done                     04/21/2018 23:40:01
00025 suncat0062 pw.x -npool 4 -i  Done                     04/21/2018 23:40:01
00026 suncat0062 pw.x -npool 4 -i  Done                     04/21/2018 23:40:01
00027 suncat0062 pw.x -npool 4 -i  Done                     04/21/2018 23:40:01
00028 suncat0062 pw.x -npool 4 -i  Done                     04/21/2018 23:40:01
00029 suncat0062 pw.x -npool 4 -i  Done                     04/21/2018 23:40:01
00030 suncat0062 pw.x -npool 4 -i  Done                     04/21/2018 23:40:01
00031 suncat0062 pw.x -npool 4 -i  Done                     04/21/2018 23:40:01