     Program PWSCF v.5.1rc2 (svn rev. 11289) starts on  2May2018 at 13:44:16

     Current dimensions of program PWSCF are:
     Max number of different atomic species (ntypx) = 10
     Max number of k-points (npk) =  40000
     Max angular momentum in pseudopotentials (lmaxx) =  3
     Presently stress not available with electric field

     IMPORTANT: XC functional enforced from input :
     Exchange-correlation      = BEEF-VDW ( 1  4 27 13 2)
     Any further DFT definition will be discarded
     Please, verify this is what you really want

     Subspace diagonalization in iterative solution of the eigenvalue problem:
     a serial algorithm will be used

     bravais-lattice index     =            0
     lattice parameter (alat)  =       1.8897  a.u.
     unit-cell volume          =    3724.3394 (a.u.)^3
     number of atoms/cell      =           13
     number of atomic types    =            2
     number of electrons       =       173.00
     number of Kohn-Sham states=           96
     kinetic-energy cutoff     =      36.7493  Ry
     charge density cutoff     =     367.4932  Ry
     convergence threshold     =      1.0E-05
     mixing beta               =       0.3000
     number of iterations used =           10  plain     mixing
     Exchange-correlation      = BEEF-VDW ( 1  4 27 13 2)
     nstep                     =           50

     celldm(1)=   1.889726  celldm(2)=   0.000000  celldm(3)=   0.000000
     celldm(4)=   0.000000  celldm(5)=   0.000000  celldm(6)=   0.000000

     crystal axes: (cart. coord. in units of alat)
               a(1) = (   5.132588   0.000000   0.000000 )
               a(2) = (   2.566294   4.444952   0.000000 )
               a(3) = (   0.000000   0.000000  24.190741 )

     reciprocal axes: (cart. coord. in units 2 pi/alat)
               b(1) = (  0.194833 -0.112487  0.000000 )
               b(2) = (  0.000000  0.224974  0.000000 )
               b(3) = (  0.000000  0.000000  0.041338 )

     PseudoPot. # 1 for Cr read from file:
     /u/if/mamunm/psp/gbrv1.5pbe/Cr.UPF
     MD5 check sum: 0d52af634a40206e4dee301ad30da4bf
     Pseudo is Ultrasoft + core correction, Zval = 14.0
     Generated by new atomic code, or converted to UPF format
     Using radial grid of  857 points,  6 beta functions with:
                l(1) =   0
                l(2) =   0
                l(3) =   1
                l(4) =   1
                l(5) =   2
                l(6) =   2
     Q(r) pseudized with  8 coefficients,  rinner =    0.950   0.950   0.950
                                                       0.950   0.950

     PseudoPot. # 2 for N  read from file:
     /u/if/mamunm/psp/gbrv1.5pbe/N.UPF
     MD5 check sum: 95339753478d7afb44899504a8723017
     Pseudo is Ultrasoft + core correction, Zval =  5.0
     Generated by new atomic code, or converted to UPF format
     Using radial grid of  729 points,  4 beta functions with:
                l(1) =   0
                l(2) =   0
                l(3) =   1
                l(4) =   1
     Q(r) pseudized with  8 coefficients,  rinner =    0.900   0.900   0.900

     vdW kernel table read from file vdW_kernel_table
     MD5 check sum: 095c7af220d748ca6e76c0b4c6cfb241

     atomic species   valence    mass     pseudopotential
        Cr1           14.00    51.99610     Cr( 1.00)
        N1             5.00    14.00700     N ( 1.00)

     No symmetry found

   Cartesian axes

     site n.     atom                  positions (alat units)
         1           Cr1 tau(   1) = (   1.2831471   0.7408253  10.0000000  )
         2           Cr1 tau(   2) = (   3.8494412   0.7408253  10.0000000  )
         3           Cr1 tau(   3) = (   2.5662941   2.9633012  10.0000000  )
         4           Cr1 tau(   4) = (   5.1325882   2.9633012  10.0000000  )
         5           Cr1 tau(   5) = (   5.1325882   1.4816506  12.0953704  )
         6           Cr1 tau(   6) = (   2.5662941   1.4816506  12.0953704  )
         7           Cr1 tau(   7) = (   6.4157353   3.7041265  12.0953704  )
         8           Cr1 tau(   8) = (   3.8494412   3.7041265  12.0953704  )
         9           Cr1 tau(   9) = (   0.0000000   0.0000000  14.1907408  )
        10           Cr1 tau(  10) = (   2.5662941   0.0000000  14.1907408  )
        11           Cr1 tau(  11) = (   1.2831471   2.2224759  14.1907408  )
        12           Cr1 tau(  12) = (   3.8494412   2.2224759  14.1907408  )
        13           N1  tau(  13) = (   2.5662941   1.4816506  15.5557408  )

     number of k points=    20  Fermi-Dirac smearing, width (Ry)=  0.0110
                       cart. coord. in units 2pi/alat
        k(    1) = (   0.0000000   0.0000000   0.0000000), wk =   0.0555556
        k(    2) = (   0.0000000   0.0374957   0.0000000), wk =   0.1111111
        k(    3) = (   0.0000000   0.0749914   0.0000000), wk =   0.1111111
        k(    4) = (   0.0000000  -0.1124872   0.0000000), wk =   0.0555556
        k(    5) = (   0.0324722  -0.0187479   0.0000000), wk =   0.1111111
        k(    6) = (   0.0324722   0.0187479   0.0000000), wk =   0.1111111
        k(    7) = (   0.0324722   0.0562436   0.0000000), wk =   0.1111111
        k(    8) = (   0.0324722  -0.1312350   0.0000000), wk =   0.1111111
        k(    9) = (   0.0324722  -0.0937393   0.0000000), wk =   0.1111111
        k(   10) = (   0.0324722  -0.0562436   0.0000000), wk =   0.1111111
        k(   11) = (   0.0649445  -0.0374957   0.0000000), wk =   0.1111111
        k(   12) = (   0.0649445   0.0000000   0.0000000), wk =   0.1111111
        k(   13) = (   0.0649445   0.0374957   0.0000000), wk =   0.1111111
        k(   14) = (   0.0649445  -0.1499829   0.0000000), wk =   0.1111111
        k(   15) = (   0.0649445  -0.1124872   0.0000000), wk =   0.1111111
        k(   16) = (   0.0649445  -0.0749914   0.0000000), wk =   0.1111111
        k(   17) = (  -0.0974167   0.0562436   0.0000000), wk =   0.0555556
        k(   18) = (  -0.0974167   0.0937393   0.0000000), wk =   0.1111111
        k(   19) = (  -0.0974167   0.1312350   0.0000000), wk =   0.1111111
        k(   20) = (  -0.0974167  -0.0562436   0.0000000), wk =   0.0555556

     Largest allocated arrays     est. size (Mb)     dimensions
     Largest temporary arrays     est. size (Mb)     dimensions

     Check: negative/imaginary core charge=   -0.000004    0.000000

     Initial potential from superposition of free atoms
     Check: negative starting charge=   -0.015007

     starting charge  160.99981, renormalised to  173.00000

     negative rho (up, down):  1.613E-02 0.000E+00

     *
     * You are using vdW-DF for exchange-correlation in this calculation.
     * Please cite the following three references that made this development
     * possible:
     *
     *   M. Dion, H. Rydberg, E. Schroder, D. C. Langreth, and
     *   B. I. Lundqvist, Phys. Rev. Lett. 92, 246401 (2004).
     *
     *   T. Thonhauser, V. R. Cooper, S. Li, A. Puzder, P. Hyldgaard, and
     *   D. C. Langreth, Phys. Rev. B 76, 125112 (2007).
     *
     *   G. Roman-Perez and J. M. Soler, Phys. Rev. Lett. 103, 096102 (2009).
     *
     *
     * If you are using vdW-DF2, please also cite:
     *
     *   K. Lee, E. D. Murray, L. Kong, B. I. Lundqvist, and
     *   D. C. Langreth, Phys. Rev. B 82, 081101(R) (2010).
     *
     *
     * If you are calculating the stress with vdW-DF, please also cite:
     *
     *   R. Sabatini, E. Kucukbenli, B. Kolb, T. Thonhauser, and
     *   S. de Gironcoli, J. Phys.: Condens. Matter 24, 424209 (2012).
     *

     Carrying out vdW-DF run using the following parameters:

     Nqs =      20    Nr_points =    1024   r_max =   100.000
     q_mesh =
               0.00001000     0.04494208     0.09755937     0.15916263
               0.23128650     0.31572767     0.41458969     0.53033537
               0.66584808     0.82450364     1.01025438     1.22772762
               1.48234092     1.78043706     2.12944203     2.53805004
               3.01644009     3.57652955     4.23227104     5.00000000

     Gradients computed in reciprocal space

     Adding external electric field

     Computed dipole along edir(3) :
        Dipole               -2.4369 Ry au,         -6.1941 Debye
        Dipole field         -0.0082 Ry au

        Potential amp.        0.7330 Ry
        Total length         44.5710 bohr

     Starting wfc are  124 randomized atomic wfcs

     Self-consistent Calculation

     iteration #  1     ecut=    36.75 Ry     beta=0.30
     Davidson diagonalization with overlap
     ethr =  1.00E-02,  avg # of iterations =  7.7

[...]

     total energy              =   -1982.13334741 Ry
     Harris-Foulkes estimate   =   -2139.14691591 Ry
     estimated scf accuracy    <     327.09576839 Ry

[...]

     iteration #  3     ecut=    36.75 Ry     beta=0.30
     Davidson diagonalization with overlap
     c_bands:  1 eigenvalues not converged
     ethr =  1.00E-02,  avg # of iterations = 13.1

[...]

     End of self-consistent calculation

          k = 0.0000 0.0000 0.0000 ( 14081 PWs)   bands (ev):

   -70.8967 -70.8167 -70.7722 -70.7717 -70.7217 -70.7203 -70.7202 -70.7075
   -70.6945 -70.6138 -70.6135 -70.6115 -42.4970 -42.4662 -42.4661 -42.4329
   -42.4140 -42.4115 -42.4113 -42.2835 -42.2791 -42.2790 -42.1522 -42.1030
   -42.1025 -42.0511 -42.0062 -42.0061 -42.0055 -41.9724 -41.9666 -41.9665
   -41.8913 -41.8912 -41.8833 -41.8769 -41.8730 -41.8729 -41.8308 -41.7989
   -41.7989 -41.7603 -41.7571 -41.7570 -41.7482 -41.7481 -41.6245 -41.6244
   -12.4531  -5.7659  -3.9739  -3.0908  -2.9082  -2.8941  -2.8940  -2.7899
    -2.7899  -2.6207  -2.2326  -2.2004  -2.2004  -2.0039  -1.9901  -1.9901
    -1.5108  -1.5108  -1.2118  -0.7848  -0.7847  -0.5719  -0.0642  -0.0155
    -0.0155   0.1422   0.4363   0.4363   0.5641   0.5916   0.5916   0.6850
     0.6851   0.6865   0.7665   0.7665   0.8743   0.9645   1.0537   1.0537
     1.5469   1.5470   1.7502   1.9341   1.9343   1.9863   2.1155   2.1156

[...]

          k =-0.0974 0.0562 0.0000 ( 14010 PWs)   bands (ev):

[...]

     the Fermi energy is     0.8632 ev

!    total energy              =   -2135.27429654 Ry
     Harris-Foulkes estimate   =   -2135.27431697 Ry
     estimated scf accuracy    <       0.00000801 Ry

     The total energy is the sum of the following terms:

     one-electron contribution =  -20008.65464449 Ry
     hartree contribution      =    9995.51563048 Ry
     xc contribution           =    -284.52562742 Ry
     ewald contribution        =    8162.52423575 Ry
     electric field correction =       0.00014656 Ry
     smearing contrib. (-TS)   =      -0.13403741 Ry

     convergence has been achieved in  67 iterations

 BEEF-vdW xc energy contributions
           1 :   -246.267458705465
           2 :    221.685155062606
           3 :   -180.644481360046
           4 :    135.481045327331
           5 :   -97.3875766451449
           6 :    72.3548198852209
           7 :   -60.0715432871391
           8 :    55.7843395882558
           9 :   -53.6939422610003
          10 :    49.9454275916993
          11 :   -43.8518543497589
          12 :    37.1523610263307
          13 :   -32.1613409181399
          14 :    30.0645678202617
          15 :   -30.2883686732791
          16 :    31.0853085022200
          17 :   -30.7649745848276
          18 :    28.7194764395146
          19 :   -25.6441858846950
          20 :    22.9149161559563
          21 :   -21.6085007975683
          22 :    21.8235907892079
          23 :   -22.7051955187930
          24 :    23.0859273759717
          25 :   -22.2703135031427
          26 :    20.4380706338623
          27 :   -18.4432772264848
          28 :    17.1966300030700
          29 :   -17.0667000536298
          30 :    17.6809417640879
          31 :   -24.4343545981246
          32 :   -17.5610012050792

     Forces acting on atoms (Ry/au):

     negative rho (up, down):  1.484E-02 0.000E+00
     atom    1 type  1   force =    -0.00169267   -0.00095330    0.00095062
     atom    2 type  1   force =     0.00168938   -0.00094887    0.00092814
     atom    3 type  1   force =     0.00000071    0.00193522    0.00093148
     atom    4 type  1   force =    -0.00000273   -0.00002688    0.00007269
     atom    5 type  1   force =     0.00003680   -0.00187802   -0.00318238
     atom    6 type  1   force =    -0.00002603    0.00001081    0.01359213
     atom    7 type  1   force =     0.00163358    0.00092356   -0.00316453
     atom    8 type  1   force =    -0.00164665    0.00096566   -0.00320357
     atom    9 type  1   force =     0.00000217    0.00002099   -0.03078104
     atom   10 type  1   force =     0.00001433    0.01904617    0.06542894
     atom   11 type  1   force =     0.01648002   -0.00953521    0.06544160
     atom   12 type  1   force =    -0.01648697   -0.00956090    0.06537881
     atom   13 type  2   force =    -0.00000194    0.00000074   -0.17239288

     Total force =     0.211171     Total SCF correction =     0.005992

     entering subroutine stress ...

     negative rho (up, down):  1.484E-02 0.000E+00
          total   stress  (Ry/bohr**3)                   (kbar)     P=  -29.91
  -0.00023827   0.00000003  -0.00000002        -35.05      0.00     -0.00
   0.00000003  -0.00023822   0.00000002          0.00    -35.04      0.00
  -0.00000002   0.00000002  -0.00013359         -0.00      0.00    -19.65

     BFGS Geometry Optimization

     number of scf cycles    =   1
     number of bfgs steps    =   0

     energy   new            =   -2135.2742965375 Ry

     new trust radius        =       0.1723928845 bohr
     new conv_thr            =       0.0000099958 Ry

ATOMIC_POSITIONS (crystal)
Cr1      0.166666667   0.166666667   0.413381306    0   0   0
Cr1      0.666666667   0.166666667   0.413381306    0   0   0
Cr1      0.166666667   0.666666667   0.413381306    0   0   0
Cr1      0.666666667   0.666666667   0.413381306    0   0   0
Cr1      0.833333333   0.333333333   0.500000000    0   0   0
Cr1      0.333333333   0.333333333   0.500000000    0   0   0
Cr1      0.833333333   0.833333333   0.500000000    0   0   0
Cr1      0.333333333   0.833333333   0.500000000    0   0   0
Cr1     -0.000001026   0.000002499   0.585945353
Cr1      0.498867741   0.002267471   0.588049965
Cr1      0.002266704   0.498864821   0.588050242
Cr1      0.498869288   0.498861763   0.588048869
N1       0.333333089   0.333333422   0.639274114

     Writing output data file calc.save
     Check: negative starting charge=   -0.015007
     NEW-OLD atomic charge density approx. for the potential

     Check: negative/imaginary core charge=   -0.000004    0.000000
     Check: negative starting charge=   -0.014726

[...]

     energy   old            =   -2135.2742965375 Ry
     energy   new            =   -2135.3121494830 Ry

     CASE: energy  _new < energy  _old

[...]

     iteration #  1     ecut=    36.75 Ry     beta=0.30
     Davidson diagonalization with overlap
     c_bands:  1 eigenvalues not converged
     c_bands:  1 eigenvalues not converged
     c_bands:  1 eigenvalues not converged
     ethr =  1.00E-06,  avg # of iterations = 16.4

[...]

     Total force =     0.003112     Total SCF correction =     0.000271

[...]

     number of scf cycles    =  10
     number of bfgs steps    =   9

     energy   old            =   -2135.3578879257 Ry
     energy   new            =   -2135.3585961670 Ry

     CASE: energy  _new < energy  _old

     new trust radius        =       0.0072885495 bohr
     new conv_thr            =       0.0000001000 Ry

ATOMIC_POSITIONS (crystal)
Cr1      0.166666667   0.166666667   0.413381306    0   0   0
Cr1      0.666666667   0.166666667   0.413381306    0   0   0
Cr1      0.166666667   0.666666667   0.413381306    0   0   0
Cr1      0.666666667   0.666666667   0.413381306    0   0   0
Cr1      0.833333333   0.333333333   0.500000000    0   0   0
Cr1      0.333333333   0.333333333   0.500000000    0   0   0
Cr1      0.833333333   0.833333333   0.500000000    0   0   0
Cr1      0.333333333   0.833333333   0.500000000    0   0   0
Cr1      0.000001001  -0.000001534   0.570828019
Cr1      0.503694498  -0.007388108   0.590202556
Cr1     -0.007388542   0.503694208   0.590202599
Cr1      0.503693694   0.503690329   0.590201992
N1       0.333332254   0.333332359   0.632074698

     Writing output data file calc.save
     Check: negative starting charge=   -0.014569
     NEW-OLD atomic charge density approx. for the potential

     Check: negative/imaginary core charge=   -0.000004    0.000000
     Check: negative starting charge=   -0.014647

[...]

     Self-consistent Calculation

[...]

     Threshold (ethr) on eigenvalues was too large:
     Diagonalizing with lowered threshold

     Davidson diagonalization with overlap
     ethr =  7.38E-08,  avg # of iterations =  4.3

[...]

     total energy              =   -2135.35860776 Ry
     Harris-Foulkes estimate   =   -2135.35860780 Ry
     estimated scf accuracy    <       0.00000080 Ry

     iteration # 16     ecut=    36.75 Ry     beta=0.30
     Davidson diagonalization with overlap
     ethr =  3.65E-10,  avg # of iterations =  1.3

[...]

     negative rho (up, down):  1.480E-02 0.000E+00

     Adding external electric field

     Computed dipole along edir(3) :
        Dipole               -0.0931 Ry au,         -0.2365 Debye
        Dipole field         -0.0003 Ry au

        Potential amp.        0.0280 Ry
        Total length         44.5710 bohr

     End of self-consistent calculation

[...]

          k = 0.0649-0.0750 0.0000 ( 13990 PWs)   bands (ev):

[...]

          k =-0.0974-0.0562 0.0000 ( 14010 PWs)   bands (ev):

   -70.6780 -70.6751 -70.6270 -70.6186 -70.6076 -70.5520 -70.5184 -70.4812
   -70.4652 -70.4457 -70.4163 -70.4149 -42.3666 -42.2729 -42.2271 -42.1978
   -42.1606 -42.1466 -42.0856 -42.0272 -42.0229 -42.0090 -42.0010 -41.9670
   -41.9544 -41.9255 -41.8768 -41.8592 -41.8568 -41.8406 -41.8321 -41.8109
   -41.7886 -41.7501 -41.7392 -41.7357 -41.7270 -41.7035 -41.6995 -41.6954
   -41.6723 -41.6587 -41.6393 -41.5614 -41.5358 -41.4935 -41.4876 -41.4666
   -13.2340  -4.1464  -3.7890  -3.3082  -3.1569  -2.9199  -2.3659  -2.1130
    -1.8715  -1.8046  -1.7915  -1.7817  -1.5725  -1.3146  -1.2340  -1.2030
    -1.0345  -1.0119  -0.7928  -0.6862  -0.6182  -0.3639  -0.3540  -0.3402
    -0.2303  -0.1747  -0.1011  -0.0581   0.1676   0.1742   0.3188   0.3207
     0.4098   0.4897   0.5902   0.7238   0.7425   0.8004   0.8411   0.9013
     1.0699   1.3559   1.4506   1.5921   1.6181   1.6767   1.8824   1.8876

     the Fermi energy is     1.0736 ev

!    total energy              =   -2135.35860771 Ry
     Harris-Foulkes estimate   =   -2135.35860751 Ry
     estimated scf accuracy    <       0.00000008 Ry

     The total energy is the sum of the following terms:

     one-electron contribution =  -20163.52696665 Ry
     hartree contribution      =   10073.80439808 Ry
     xc contribution           =    -284.84849091 Ry
     ewald contribution        =    8239.33252005 Ry
     electric field correction =       0.00002922 Ry
     smearing contrib. (-TS)   =      -0.12009751 Ry

     convergence has been achieved in  16 iterations

 BEEF-vdW xc energy contributions
           1 :   -246.600240736266
           2 :    222.107795810595
           3 :   -181.153874604131
           4 :    135.971585654398
           5 :   -97.7138352879562
           6 :    72.4101768696895
           7 :   -59.8417871373809
           8 :    55.3548834664286
           9 :   -53.2115855564034
          10 :    49.5515565032583
          11 :   -43.6147546321891
          12 :    37.0337637427390
          13 :   -32.0435640228354
          14 :    29.8292535950773
          15 :   -29.8980068412214
          16 :    30.6129063141912
          17 :   -30.3516026928266
          18 :    28.4862932438382
          19 :   -25.6159401660659
          20 :    23.0030737801699
          21 :   -21.6622522509385
          22 :    21.7157897065306
          23 :   -22.4029275616770
          24 :    22.6660358010564
          25 :   -21.8717668322950
          26 :    20.1795574149860
          27 :   -18.3541039167515
          28 :    17.2019464227486
          29 :   -17.0373174931937
          30 :    17.5177215829055
          31 :   -24.4539755986106
          32 :   -17.5952161999519

     Forces acting on atoms (Ry/au):

     negative rho (up, down):  1.480E-02 0.000E+00
     atom    1 type  1   force =    -0.00124653   -0.00071925    0.00020409
     atom    2 type  1   force =     0.00124614   -0.00071779    0.00019110
     atom    3 type  1   force =    -0.00000076    0.00143700    0.00019685
     atom    4 type  1   force =     0.00000076   -0.00000067    0.00565511
     atom    5 type  1   force =    -0.00000227    0.01973613   -0.01650705
     atom    6 type  1   force =     0.00000054    0.00000119    0.04408001
     atom    7 type  1   force =    -0.01709025   -0.00986627   -0.01651023
     atom    8 type  1   force =     0.01709026   -0.00986705   -0.01650448
     atom    9 type  1   force =     0.00000021    0.00000155    0.00026648
     atom   10 type  1   force =    -0.00000117   -0.00017775   -0.00041063
     atom   11 type  1   force =    -0.00014996    0.00008593   -0.00040741
     atom   12 type  1   force =     0.00015403    0.00009011   -0.00041050
     atom   13 type  2   force =    -0.00000101   -0.00000312    0.00015667

     Total force =     0.000832     Total SCF correction =     0.000174
     SCF correction compared to forces is large: reduce conv_thr to get better values

     entering subroutine stress ...

     negative rho (up, down):  1.480E-02 0.000E+00
          total   stress  (Ry/bohr**3)                   (kbar)     P=  -13.91
  -0.00013304   0.00000001  -0.00000001        -19.57      0.00     -0.00
   0.00000001  -0.00013302   0.00000001          0.00    -19.57      0.00
  -0.00000001   0.00000001  -0.00001758         -0.00      0.00     -2.59

     bfgs converged in  11 scf cycles and  10 bfgs steps
     (criteria: energy <  1.0E+00, force <  1.9E-03)

     End of BFGS Geometry Optimization

     Final energy   =   -2135.3586077079 Ry
Begin final coordinates

ATOMIC_POSITIONS (crystal)
Cr1      0.166666667   0.166666667   0.413381306    0   0   0
Cr1      0.666666667   0.166666667   0.413381306    0   0   0
Cr1      0.166666667   0.666666667   0.413381306    0   0   0
Cr1      0.666666667   0.666666667   0.413381306    0   0   0
Cr1      0.833333333   0.333333333   0.500000000    0   0   0
Cr1      0.333333333   0.333333333   0.500000000    0   0   0
Cr1      0.833333333   0.833333333   0.500000000    0   0   0
Cr1      0.333333333   0.833333333   0.500000000    0   0   0
Cr1      0.000001001  -0.000001534   0.570828019
Cr1      0.503694498  -0.007388108   0.590202556
Cr1     -0.007388542   0.503694208   0.590202599
Cr1      0.503693694   0.503690329   0.590201992
N1       0.333332254   0.333332359   0.632074698
End final coordinates

     Writing output data file calc.save

     General routines

     Parallel routines

   This run was terminated on:  15:31:14   2May2018

   JOB DONE.
Job  /afs/slac/g/suncat/bin/suncat-tsmpirun -x LD_LIBRARY_PATH -wdir /scratch/qe665448_FTjTR pw.x -npool 4 -in pw.inp

TID   HOST_NAME   COMMAND_LINE            STATUS            TERMINATION_TIME
00000 suncat0059 pw.x -npool 4 -i  Done                     05/02/2018 15:31:14
00001 suncat0059 pw.x -npool 4 -i  Done                     05/02/2018 15:31:14
00002 suncat0059 pw.x -npool 4 -i  Done                     05/02/2018 15:31:14
00003 suncat0059 pw.x -npool 4 -i  Done                     05/02/2018 15:31:14
00004 suncat0059 pw.x -npool 4 -i  Done                     05/02/2018 15:31:14
00005 suncat0059 pw.x -npool 4 -i  Done                     05/02/2018 15:31:14
00006 suncat0059 pw.x -npool 4 -i  Done                     05/02/2018 15:31:14
00007 suncat0059 pw.x -npool 4 -i  Done                     05/02/2018 15:31:14
00008 suncat0184 pw.x -npool 4 -i  Done                     05/02/2018 15:31:14
00009 suncat0184 pw.x -npool 4 -i  Done                     05/02/2018 15:31:14
00010 suncat0184 pw.x -npool 4 -i  Done                     05/02/2018 15:31:14
00011 suncat0184 pw.x -npool 4 -i  Done                     05/02/2018 15:31:14
00012 suncat0184 pw.x -npool 4 -i  Done                     05/02/2018 15:31:14
00013 suncat0184 pw.x -npool 4 -i  Done                     05/02/2018 15:31:14
00014 suncat0184 pw.x -npool 4 -i  Done                     05/02/2018 15:31:14
00015 suncat0184 pw.x -npool 4 -i  Done                     05/02/2018 15:31:14
00016 suncat0148 pw.x -npool 4 -i  Done                     05/02/2018 15:31:14
00017 suncat0148 pw.x -npool 4 -i  Done                     05/02/2018 15:31:14
00018 suncat0148 pw.x -npool 4 -i  Done                     05/02/2018 15:31:14
00019 suncat0148 pw.x -npool 4 -i  Done                     05/02/2018 15:31:14
00020 suncat0148 pw.x -npool 4 -i  Done                     05/02/2018 15:31:14
00021 suncat0148 pw.x -npool 4 -i  Done                     05/02/2018 15:31:14
00022 suncat0148 pw.x -npool 4 -i  Done                     05/02/2018 15:31:14
00023 suncat0148 pw.x -npool 4 -i  Done                     05/02/2018 15:31:14
00024 suncat0274 pw.x -npool 4 -i  Done                     05/02/2018 15:31:14
00025 suncat0274 pw.x -npool 4 -i  Done                     05/02/2018 15:31:14
00026 suncat0274 pw.x -npool 4 -i  Done                     05/02/2018 15:31:14
00027 suncat0274 pw.x -npool 4 -i  Done                     05/02/2018 15:31:14
00028 suncat0274 pw.x -npool 4 -i  Done                     05/02/2018 15:31:14
00029 suncat0274 pw.x -npool 4 -i  Done                     05/02/2018 15:31:14
00030 suncat0274 pw.x -npool 4 -i  Done                     05/02/2018 15:31:14
00031 suncat0274 pw.x -npool 4 -i  Done                     05/02/2018 15:31:14