     Program PWSCF v.5.1rc2 (svn rev. 11289) starts on 20Jan2018 at 18:58:56

     Current dimensions of program PWSCF are:
     Max number of different atomic species (ntypx) = 10
     Max number of k-points (npk) =  40000
     Max angular momentum in pseudopotentials (lmaxx) =  3
     Presently stress not available with electric field

     IMPORTANT: XC functional enforced from input :
     Exchange-correlation      = BEEF-VDW ( 1  4 27 13 2)
     Any further DFT definition will be discarded
     Please, verify this is what you really want

     Subspace diagonalization in iterative solution of the eigenvalue problem:
     a serial algorithm will be used

     bravais-lattice index     =            0
     lattice parameter (alat)  =       1.8897  a.u.
     unit-cell volume          =    7171.5276 (a.u.)^3
     number of atoms/cell      =           13
     number of atomic types    =            2
     number of electrons       =       173.00
     number of Kohn-Sham states=           96
     kinetic-energy cutoff     =      36.7493  Ry
     charge density cutoff     =     367.4932  Ry
     convergence threshold     =      1.0E-05
     mixing beta               =       0.3000
     number of iterations used =           10  plain     mixing
     Exchange-correlation      = BEEF-VDW ( 1  4 27 13 2)
     nstep                     =           50

     celldm(1)=   1.889726  celldm(2)=   0.000000  celldm(3)=   0.000000
     celldm(4)=   0.000000  celldm(5)=   0.000000  celldm(6)=   0.000000

     crystal axes: (cart. coord. in units of alat)
               a(1) = (   6.917003   0.000000   0.000000 )
               a(2) = (   3.458501   5.990300   0.000000 )
               a(3) = (   0.000000   0.000000  25.647709 )

     reciprocal axes: (cart. coord. in units 2 pi/alat)
               b(1) = (  0.144571 -0.083468  0.000000 )
               b(2) = (  0.000000  0.166937  0.000000 )
               b(3) = (  0.000000  0.000000  0.038990 )

     PseudoPot. # 1 for Pb read from file:
     /afs/slac.stanford.edu/u/if/mamunm/psp/gbrv1.5pbe/Pb.UPF
     MD5 check sum: 3d1c1779aa92214d1e8f3a7db79003e2
     Pseudo is Ultrasoft + core correction, Zval = 14.0
     Generated by new atomic code, or converted to UPF format
     Using radial grid of  899 points,  6 beta functions with:
                l(1) =   0
                l(2) =   0
                l(3) =   1
                l(4) =   1
                l(5) =   2
                l(6) =   2
     Q(r) pseudized with  6 coefficients,  rinner =    1.000   1.000   1.000
                                                       1.000   1.000

     PseudoPot. # 2 for N  read from file:
     /afs/slac.stanford.edu/u/if/mamunm/psp/gbrv1.5pbe/N.UPF
     MD5 check sum: 95339753478d7afb44899504a8723017
     Pseudo is Ultrasoft + core correction, Zval =  5.0
     Generated by new atomic code, or converted to UPF format
     Using radial grid of  729 points,  4 beta functions with:
                l(1) =   0
                l(2) =   0
                l(3) =   1
                l(4) =   1
     Q(r) pseudized with  8 coefficients,  rinner =    0.900   0.900   0.900

     vdW kernel table read from file vdW_kernel_table
     MD5 check sum: 095c7af220d748ca6e76c0b4c6cfb241

     atomic species   valence    mass     pseudopotential
        Pb1           14.00   207.20000     Pb( 1.00)
        N1             5.00    14.00700     N ( 1.00)

     No symmetry found

   Cartesian axes

     site n.     atom                  positions (alat units)
         1           Pb1 tau(   1) = (   1.7292506   0.9983833  10.0000000  )
         2           Pb1 tau(   2) = (   5.1877519   0.9983833  10.0000000  )
         3           Pb1 tau(   3) = (   3.4585013   3.9935333  10.0000000  )
         4           Pb1 tau(   4) = (   6.9170025   3.9935333  10.0000000  )
         5           Pb1 tau(   5) = (   6.9170025   1.9967666  12.8238544  )
         6           Pb1 tau(   6) = (   3.4585013   1.9967666  12.8238544  )
         7           Pb1 tau(   7) = (   8.6462531   4.9919166  12.8238544  )
         8           Pb1 tau(   8) = (   5.1877519   4.9919166  12.8238544  )
         9           Pb1 tau(   9) = (   0.0000000   0.0000000  15.6477089  )
        10           Pb1 tau(  10) = (   3.4585013   0.0000000  15.6477089  )
        11           Pb1 tau(  11) = (   1.7292506   2.9951499  15.6477089  )
        12           Pb1 tau(  12) = (   5.1877519   2.9951499  15.6477089  )
        13           N1  tau(  13) = (   3.4585013   1.9967666  17.8177089  )

     number of k points=    20  Fermi-Dirac smearing, width (Ry)=  0.0110
                       cart. coord. in units 2pi/alat
        k(    1) = (   0.0000000   0.0000000   0.0000000), wk =   0.0555556
        k(    2) = (   0.0000000   0.0278228   0.0000000), wk =   0.1111111
        k(    3) = (   0.0000000   0.0556455   0.0000000), wk =   0.1111111
        k(    4) = (   0.0000000  -0.0834683   0.0000000), wk =   0.0555556
        k(    5) = (   0.0240952  -0.0139114   0.0000000), wk =   0.1111111
        k(    6) = (   0.0240952   0.0139114   0.0000000), wk =   0.1111111
        k(    7) = (   0.0240952   0.0417341   0.0000000), wk =   0.1111111
        k(    8) = (   0.0240952  -0.0973797   0.0000000), wk =   0.1111111
        k(    9) = (   0.0240952  -0.0695569   0.0000000), wk =   0.1111111
        k(   10) = (   0.0240952  -0.0417341   0.0000000), wk =   0.1111111
        k(   11) = (   0.0481904  -0.0278228   0.0000000), wk =   0.1111111
        k(   12) = (   0.0481904   0.0000000   0.0000000), wk =   0.1111111
        k(   13) = (   0.0481904   0.0278228   0.0000000), wk =   0.1111111
        k(   14) = (   0.0481904  -0.1112910   0.0000000), wk =   0.1111111
        k(   15) = (   0.0481904  -0.0834683   0.0000000), wk =   0.1111111
        k(   16) = (   0.0481904  -0.0556455   0.0000000), wk =   0.1111111
        k(   17) = (  -0.0722856   0.0417341   0.0000000), wk =   0.0555556
        k(   18) = (  -0.0722856   0.0695569   0.0000000), wk =   0.1111111
        k(   19) = (  -0.0722856   0.0973797   0.0000000), wk =   0.1111111
        k(   20) = (  -0.0722856  -0.0417341   0.0000000), wk =   0.0555556

     Largest allocated arrays     est. size (Mb)     dimensions
     Largest temporary arrays     est. size (Mb)     dimensions

     Check: negative/imaginary core charge=   -0.000001    0.000000

     Initial potential from superposition of free atoms
     Check: negative starting charge=   -0.198139

     starting charge  172.97177, renormalised to  173.00000

     negative rho (up, down):  1.982E-01 0.000E+00

     *
     * You are using vdW-DF for exchange-correlation in this calculation.
     * Please cite the following three references that made this development
     * possible:
     *
     *   M. Dion, H. Rydberg, E. Schroder, D. C. Langreth, and
     *   B. I. Lundqvist, Phys. Rev. Lett. 92, 246401 (2004).
     *
     *   T. Thonhauser, V. R. Cooper, S. Li, A. Puzder, P. Hyldgaard, and
     *   D. C. Langreth, Phys. Rev. B 76, 125112 (2007).
     *
     *   G. Roman-Perez and J. M. Soler, Phys. Rev. Lett. 103, 096102 (2009).
     *
     *
     * If you are using vdW-DF2, please also cite:
     *
     *   K. Lee, E. D. Murray, L. Kong, B. I. Lundqvist, and
     *   D. C. Langreth, Phys. Rev. B 82, 081101(R) (2010).
     *
     *
     * If you are calculating the stress with vdW-DF, please also cite:
     *
     *   R. Sabatini, E. Kucukbenli, B. Kolb, T. Thonhauser, and
     *   S. de Gironcoli, J. Phys.: Condens. Matter 24, 424209 (2012).
     *

     Carrying out vdW-DF run using the following parameters:

     Nqs =      20    Nr_points =    1024   r_max =   100.000
     q_mesh =
               0.00001000     0.04494208     0.09755937     0.15916263
               0.23128650     0.31572767     0.41458969     0.53033537
               0.66584808     0.82450364     1.01025438     1.22772762
               1.48234092     1.78043706     2.12944203     2.53805004
               3.01644009     3.57652955     4.23227104     5.00000000

     Gradients computed in reciprocal space

     Adding external electric field

     Computed dipole along edir(3) :
        Dipole               -0.0076 Ry au,         -0.0193 Debye
        Dipole field         -0.0000 Ry au

        Potential amp.        0.0013 Ry
        Total length         47.2555 bohr

     Starting wfc are  112 randomized atomic wfcs

     Self-consistent Calculation

     iteration #  1     ecut=    36.75 Ry     beta=0.30
     Davidson diagonalization with overlap
     ethr =  1.00E-02,  avg # of iterations =  2.0

[...]

     total energy              =   -2009.97355948 Ry
     Harris-Foulkes estimate   =   -2012.50410793 Ry
     estimated scf accuracy    <       5.39274862 Ry

[...]

     End of self-consistent calculation

          k = 0.0000 0.0000 0.0000 ( 27033 PWs)   bands (ev):

   -17.0491 -17.0467 -17.0467 -16.9991 -16.9954 -16.9954 -16.9647 -16.9647
   -16.9570 -16.9485 -16.9401 -16.9401 -16.9353 -16.9088 -16.9088 -16.9073
   -16.9001 -16.9001 -16.8903 -16.8857 -16.8857 -16.8728 -16.8728 -16.8599
   -16.8570 -16.8404 -16.8404 -16.8314 -16.8314 -16.7986 -16.7706 -16.7705
   -16.7468 -16.7468 -16.7400 -16.7094 -16.7094 -16.7078 -16.6991 -16.6991
   -16.6623 -16.6623 -16.6479 -16.6456 -16.6337 -16.6337 -16.6320 -16.6282
   -16.6282 -16.6110 -16.6101 -16.6101 -16.5967 -16.5921 -16.5921 -16.5817
   -16.5817 -16.5634 -16.5634 -16.5440 -11.2038 -10.8543  -9.7514  -8.2836
    -7.4633  -7.4633  -7.4369  -6.9962  -6.9770  -6.9769  -6.3728  -6.3561
    -6.3561  -3.1590  -3.1590  -3.1445  -2.5516  -2.1340  -2.1340  -2.1153
    -1.9750  -1.9690  -1.9690   0.0445   0.2321   0.2321   0.7649   1.7410
     1.7410   1.7881   2.2533   2.2533   2.3480   3.0836   3.1466   3.1675

[...]

          k =-0.0723 0.0417 0.0000 ( 26962 PWs)   bands (ev):

[...]

     the Fermi energy is     0.5860 ev

!    total energy              =   -2012.21677907 Ry
     Harris-Foulkes estimate   =   -2012.21671478 Ry
     estimated scf accuracy    <       0.00000687 Ry

     The total energy is the sum of the following terms:

     one-electron contribution =   -9537.97694011 Ry
     hartree contribution      =    4837.78282442 Ry
     xc contribution           =    -789.00374990 Ry
     ewald contribution        =    3477.02962088 Ry
     electric field correction =       0.00129500 Ry
     smearing contrib. (-TS)   =      -0.04982936 Ry

     convergence has been achieved in  13 iterations

 BEEF-vdW xc energy contributions
           1 :   -703.150973818578
           2 :    652.919368093375
           3 :   -564.584437108796
           4 :    457.594736542268
           5 :   -351.890909628270
           6 :    261.973884391271
           7 :   -193.823725795341
           8 :    145.357772949983
           9 :   -109.732406976255
          10 :    79.7022526912237
          11 :   -51.0223029988019
          12 :    23.5711132270482
          13 :  -0.132410144196911
          14 :   -16.1013208327654
          15 :    23.7861437926014
          16 :   -24.3154001867196
          17 :    21.0883354581520
          18 :   -17.7727317079829
          19 :    16.6068583715767
[...]

[...]

     Total force =     0.060450     Total SCF correction =     0.007807
     SCF correction compared to forces is large: reduce conv_thr to get better values

[...]

   This run was terminated on:  21: 2: 6  20Jan2018

[...]

     Program PWSCF v.5.1rc2 (svn rev. 11289) starts on 20Jan2018 at 21:32: 3

[...]

   This run was terminated on:  22: 2:12  20Jan2018

[...]

     Program PWSCF v.5.1rc2 (svn rev. 11289) starts on 20Jan2018 at 22: 2:17

[...]

     Program PWSCF v.5.1rc2 (svn rev. 11289) starts on 20Jan2018 at 22:18:19

[...]

     Program PWSCF v.5.1rc2 (svn rev. 11289) starts on 20Jan2018 at 22:33: 5

     Current dimensions of program PWSCF are:
     Max number of different atomic species (ntypx) = 10
     Max number of k-points (npk) =  40000
     Max angular momentum in pseudopotentials (lmaxx) =  3
     Presently stress not available with electric field

     IMPORTANT: XC functional enforced from input :
     Exchange-correlation      = BEEF-VDW ( 1  4 27 13 2)
     Any further DFT definition will be discarded
     Please, verify this is what you really want

     Subspace diagonalization in iterative solution of the eigenvalue problem:
     a serial algorithm will be used

     bravais-lattice index     =            0
     lattice parameter (alat)  =       1.8897  a.u.
     unit-cell volume          =    7171.5276 (a.u.)^3
     number of atoms/cell      =           13
     number of atomic types    =            2
     number of electrons       =       173.00
     number of Kohn-Sham states=           96
     kinetic-energy cutoff     =      36.7493  Ry
     charge density cutoff     =     367.4932  Ry
     convergence threshold     =      1.0E-05
     mixing beta               =       0.3000
     number of iterations used =           10  plain     mixing
     Exchange-correlation      = BEEF-VDW ( 1  4 27 13 2)
     nstep                     =           50

     celldm(1)=   1.889726  celldm(2)=   0.000000  celldm(3)=   0.000000
     celldm(4)=   0.000000  celldm(5)=   0.000000  celldm(6)=   0.000000

     crystal axes: (cart. coord. in units of alat)
               a(1) = (   6.917003   0.000000   0.000000 )
               a(2) = (   3.458501   5.990300   0.000000 )
               a(3) = (   0.000000   0.000000  25.647709 )

     reciprocal axes: (cart. coord. in units 2 pi/alat)
               b(1) = (  0.144571 -0.083468  0.000000 )
               b(2) = (  0.000000  0.166937  0.000000 )
               b(3) = (  0.000000  0.000000  0.038990 )

     PseudoPot. # 1 for Pb read from file:
     /afs/slac.stanford.edu/u/if/mamunm/psp/gbrv1.5pbe/Pb.UPF
     MD5 check sum: 3d1c1779aa92214d1e8f3a7db79003e2
     Pseudo is Ultrasoft + core correction, Zval = 14.0
     Generated by new atomic code, or converted to UPF format
     Using radial grid of  899 points,  6 beta functions with:
                l(1) =   0
                l(2) =   0
                l(3) =   1
                l(4) =   1
                l(5) =   2
                l(6) =   2
     Q(r) pseudized with  6 coefficients,  rinner =    1.000   1.000   1.000
                                                       1.000   1.000

     PseudoPot. # 2 for N  read from file:
     /afs/slac.stanford.edu/u/if/mamunm/psp/gbrv1.5pbe/N.UPF
     MD5 check sum: 95339753478d7afb44899504a8723017
     Pseudo is Ultrasoft + core correction, Zval =  5.0
     Generated by new atomic code, or converted to UPF format
     Using radial grid of  729 points,  4 beta functions with:
                l(1) =   0
                l(2) =   0
                l(3) =   1
                l(4) =   1
     Q(r) pseudized with  8 coefficients,  rinner =    0.900   0.900   0.900

     vdW kernel table read from file vdW_kernel_table
     MD5 check sum: 095c7af220d748ca6e76c0b4c6cfb241

     atomic species   valence    mass     pseudopotential
        Pb1           14.00   207.20000     Pb( 1.00)
        N1             5.00    14.00700     N ( 1.00)

     No symmetry found

   Cartesian axes

     site n.     atom                  positions (alat units)
         1           Pb1 tau(   1) = (   1.7292506   0.9983833  10.0000000  )
         2           Pb1 tau(   2) = (   5.1877519   0.9983833  10.0000000  )
         3           Pb1 tau(   3) = (   3.4585013   3.9935333  10.0000000  )
         4           Pb1 tau(   4) = (   6.9170025   3.9935333  10.0000000  )
         5           Pb1 tau(   5) = (   6.9170025   1.9967666  12.8238544  )
         6           Pb1 tau(   6) = (   3.4585013   1.9967666  12.8238544  )
         7           Pb1 tau(   7) = (   8.6462531   4.9919166  12.8238544  )
         8           Pb1 tau(   8) = (   5.1877519   4.9919166  12.8238544  )
         9           Pb1 tau(   9) = (   6.9169633   0.0001119  15.6183520  )
        10           Pb1 tau(  10) = (   6.9169350   5.9743690  16.1367114  )
        11           Pb1 tau(  11) = (   8.6324634   3.0030832  16.1368535  )
        12           Pb1 tau(  12) = (   5.2014974   3.0030856  16.1370185  )
        13           N1  tau(  13) = (   3.4583047   1.9966678  17.0715893  )

     number of k points=    20  Fermi-Dirac smearing, width (Ry)=  0.0110
                       cart. coord. in units 2pi/alat
        k(    1) = (   0.0000000   0.0000000   0.0000000), wk =   0.0555556
        k(    2) = (   0.0000000   0.0278228   0.0000000), wk =   0.1111111
        k(    3) = (   0.0000000   0.0556455   0.0000000), wk =   0.1111111
        k(    4) = (   0.0000000  -0.0834683   0.0000000), wk =   0.0555556
        k(    5) = (   0.0240952  -0.0139114   0.0000000), wk =   0.1111111
        k(    6) = (   0.0240952   0.0139114   0.0000000), wk =   0.1111111
        k(    7) = (   0.0240952   0.0417341   0.0000000), wk =   0.1111111
        k(    8) = (   0.0240952  -0.0973797   0.0000000), wk =   0.1111111
        k(    9) = (   0.0240952  -0.0695569   0.0000000), wk =   0.1111111
        k(   10) = (   0.0240952  -0.0417341   0.0000000), wk =   0.1111111
        k(   11) = (   0.0481904  -0.0278228   0.0000000), wk =   0.1111111
        k(   12) = (   0.0481904   0.0000000   0.0000000), wk =   0.1111111
        k(   13) = (   0.0481904   0.0278228   0.0000000), wk =   0.1111111
        k(   14) = (   0.0481904  -0.1112910   0.0000000), wk =   0.1111111
        k(   15) = (   0.0481904  -0.0834683   0.0000000), wk =   0.1111111
        k(   16) = (   0.0481904  -0.0556455   0.0000000), wk =   0.1111111
        k(   17) = (  -0.0722856   0.0417341   0.0000000), wk =   0.0555556
        k(   18) = (  -0.0722856   0.0695569   0.0000000), wk =   0.1111111
        k(   19) = (  -0.0722856   0.0973797   0.0000000), wk =   0.1111111
        k(   20) = (  -0.0722856  -0.0417341   0.0000000), wk =   0.0555556

     Largest allocated arrays     est. size (Mb)     dimensions
     Largest temporary arrays     est. size (Mb)     dimensions

     Check: negative/imaginary core charge=   -0.000001    0.000000

     Initial potential from superposition of free atoms
     Check: negative starting charge=   -0.196189

     starting charge  172.97177, renormalised to  173.00000

[...]

     *
     * You are using vdW-DF for exchange-correlation in this calculation.
     * Please cite the following three references that made this development
     * possible:
     *
     *   M. Dion, H. Rydberg, E. Schroder, D. C. Langreth, and
     *   B. I. Lundqvist, Phys. Rev. Lett. 92, 246401 (2004).
     *
     *   T. Thonhauser, V. R. Cooper, S. Li, A. Puzder, P. Hyldgaard, and
     *   D. C. Langreth, Phys. Rev. B 76, 125112 (2007).
     *
     *   G. Roman-Perez and J. M. Soler, Phys. Rev. Lett. 103, 096102 (2009).
     *
     *
     * If you are using vdW-DF2, please also cite:
     *
     *   K. Lee, E. D. Murray, L. Kong, B. I. Lundqvist, and
     *   D. C. Langreth, Phys. Rev. B 82, 081101(R) (2010).
     *
     *
     * If you are calculating the stress with vdW-DF, please also cite:
     *
     *   R. Sabatini, E. Kucukbenli, B. Kolb, T. Thonhauser, and
     *   S. de Gironcoli, J. Phys.: Condens. Matter 24, 424209 (2012).
     *

     Carrying out vdW-DF run using the following parameters:

     Nqs =      20    Nr_points =    1024   r_max =   100.000
     q_mesh =
               0.00001000     0.04494208     0.09755937     0.15916263
               0.23128650     0.31572767     0.41458969     0.53033537
               0.66584808     0.82450364     1.01025438     1.22772762
               1.48234092     1.78043706     2.12944203     2.53805004
               3.01644009     3.57652955     4.23227104     5.00000000

     Gradients computed in reciprocal space

[...]

     Starting wfc are  112 randomized atomic wfcs

     Self-consistent Calculation

[...]

     total energy              =   -2012.40221763 Ry
     Harris-Foulkes estimate   =   -2012.40222652 Ry
     estimated scf accuracy    <       0.00003178 Ry

     iteration # 12     ecut=    36.75 Ry     beta=0.30
     Davidson diagonalization with overlap
     ethr =  1.84E-08,  avg # of iterations =  5.0

[...]

     negative rho (up, down):  2.125E-01 0.000E+00

     Adding external electric field

     Computed dipole along edir(3) :
        Dipole               -0.2093 Ry au,         -0.5320 Debye
        Dipole field         -0.0004 Ry au

        Potential amp.        0.0347 Ry
        Total length         47.2555 bohr

     End of self-consistent calculation

[...]

          k = 0.0482-0.0556 0.0000 ( 26956 PWs)   bands (ev):

[...]

          k =-0.0723-0.0417 0.0000 ( 26962 PWs)   bands (ev):

   -16.6415 -16.4673 -16.4540 -16.4045 -16.4037 -16.3986 -16.3985 -16.3948
   -16.3864 -16.3722 -16.3668 -16.3531 -16.3453 -16.3345 -16.3336 -16.3265
   -16.3249 -16.3149 -16.3130 -16.3122 -16.3083 -16.3036 -16.2990 -16.2896
   -16.2711 -16.2665 -16.2636 -16.2597 -16.2581 -16.2527 -16.2498 -16.2452
   -16.2311 -16.2302 -16.2225 -16.2157 -16.2143 -16.2109 -16.2085 -16.2040
   -16.1982 -16.1976 -16.1777 -16.1770 -16.1706 -16.1651 -16.1570 -16.1518
   -16.1512 -16.1459 -16.1363 -16.1245 -16.1125 -16.1003 -16.0968 -16.0885
   -16.0762 -16.0639 -16.0510 -16.0121 -12.4190  -9.2339  -9.1148  -8.2829
    -7.6963  -7.2639  -7.2508  -7.1732  -6.7972  -6.7271  -6.0096  -5.9455
    -5.5129  -2.1234  -1.1444  -1.1173  -0.8913  -0.6818  -0.6584  -0.6322
    -0.5898  -0.3732  -0.0402   0.5361   0.8995   0.9906   1.0113   1.5955
     1.6470   1.8559   1.9570   2.1445   2.4317   2.4403   2.4566   2.8584

     the Fermi energy is     1.1116 ev

!    total energy              =   -2012.40221899 Ry
     Harris-Foulkes estimate   =   -2012.40223027 Ry
     estimated scf accuracy    <       0.00000137 Ry

     The total energy is the sum of the following terms:

     one-electron contribution =   -9213.18886253 Ry
     hartree contribution      =    4678.22939356 Ry
     xc contribution           =    -789.28963921 Ry
     ewald contribution        =    3311.89006990 Ry
     electric field correction =       0.00007677 Ry
     smearing contrib. (-TS)   =      -0.04325747 Ry

     convergence has been achieved in  12 iterations

 BEEF-vdW xc energy contributions
           1 :   -703.434865627741
           2 :    653.212221496928
           3 :   -564.844779863771
           4 :    457.779055135182
           5 :   -352.002941805876
           6 :    262.037006995996
           7 :   -193.827724433063
           8 :    145.248928624340
           9 :   -109.461422954398
          10 :    79.2907654642618
          11 :   -50.5887672721798
          12 :    23.2860938647264
          13 :  -0.126677214672668
          14 :   -15.8194292861538
          15 :    23.3534930046847
          16 :   -23.9554329062685
          17 :    20.9922461955466
          18 :   -17.9874867909282
          19 :    17.0040349201238
          20 :   -17.9924229765832
          21 :    19.3349664052661
          22 :   -19.1498588239515
          23 :    16.5513772159313
          24 :   -12.1738643874691
          25 :    7.74517171040225
          26 :   -5.04865072599182
          27 :    4.91711110185656
          28 :   -6.82581961320761
          29 :    9.26699192565184
          30 :   -10.6398185673421
          31 :   -56.3910172863064
          32 :   -41.3051138969123

     Forces acting on atoms (Ry/au):

     negative rho (up, down):  2.125E-01 0.000E+00
     atom    1 type  1   force =     0.00391390    0.00224820   -0.00344566
     atom    2 type  1   force =    -0.00392129    0.00225161   -0.00346548
     atom    3 type  1   force =    -0.00000164   -0.00449409   -0.00345227
     atom    4 type  1   force =    -0.00000442   -0.00000165   -0.00785864
     atom    5 type  1   force =     0.00000661   -0.00094994    0.00441672
     atom    6 type  1   force =     0.00000962    0.00000599    0.00070080
     atom    7 type  1   force =     0.00082259    0.00046389    0.00440599
     atom    8 type  1   force =    -0.00082039    0.00047004    0.00441297
     atom    9 type  1   force =    -0.00000761    0.00000011    0.00157335
     atom   10 type  1   force =    -0.00000334    0.00025907    0.00038816
     atom   11 type  1   force =     0.00019323   -0.00011554    0.00037943
     atom   12 type  1   force =    -0.00022929   -0.00014151    0.00038887
     atom   13 type  2   force =     0.00004201    0.00000382    0.00155577

     Total force =     0.015023     Total SCF correction =     0.006097
     SCF correction compared to forces is large: reduce conv_thr to get better values

     entering subroutine stress ...

     negative rho (up, down):  2.125E-01 0.000E+00
          total   stress  (Ry/bohr**3)                   (kbar)     P=    9.51
   0.00008620  -0.00000001   0.00000001         12.68     -0.00      0.00
  -0.00000001   0.00008620   0.00000000         -0.00     12.68      0.00
   0.00000001   0.00000000   0.00002164          0.00      0.00      3.18

 !ASE

     Writing output data file calc.save

     General routines

     Parallel routines

   This run was terminated on:  22:47:32  20Jan2018

   JOB DONE.
Job  /afs/slac/g/suncat/bin/suncat-tsmpirun -x LD_LIBRARY_PATH -wdir /scratch/qe864359_wkGY5 pw.x -in pw.inp

TID   HOST_NAME   COMMAND_LINE            STATUS            TERMINATION_TIME
00000 suncat1043 pw.x -in pw.inp   Done                     01/20/2018 22:47:32
00001 suncat1043 pw.x -in pw.inp   Done                     01/20/2018 22:47:32
00002 suncat1043 pw.x -in pw.inp   Done                     01/20/2018 22:47:32
00003 suncat1043 pw.x -in pw.inp   Done                     01/20/2018 22:47:32
00004 suncat1043 pw.x -in pw.inp   Done                     01/20/2018 22:47:32
00005 suncat1043 pw.x -in pw.inp   Done                     01/20/2018 22:47:32
00006 suncat1043 pw.x -in pw.inp   Done                     01/20/2018 22:47:32
00007 suncat1043 pw.x -in pw.inp   Done                     01/20/2018 22:47:32
00008 suncat1041 pw.x -in pw.inp   Done                     01/20/2018 22:47:32
00009 suncat1041 pw.x -in pw.inp   Done                     01/20/2018 22:47:32
00010 suncat1041 pw.x -in pw.inp   Done                     01/20/2018 22:47:32
00011 suncat1041 pw.x -in pw.inp   Done                     01/20/2018 22:47:32
00012 suncat1041 pw.x -in pw.inp   Done                     01/20/2018 22:47:32
00013 suncat1041 pw.x -in pw.inp   Done                     01/20/2018 22:47:32
00014 suncat1041 pw.x -in pw.inp   Done                     01/20/2018 22:47:32
00015 suncat1041 pw.x -in pw.inp   Done                     01/20/2018 22:47:32
00016 suncat1041 pw.x -in pw.inp   Done                     01/20/2018 22:47:32
00017 suncat1041 pw.x -in pw.inp   Done                     01/20/2018 22:47:32
00018 suncat1041 pw.x -in pw.inp   Done                     01/20/2018 22:47:32
00019 suncat1041 pw.x -in pw.inp   Done                     01/20/2018 22:47:32
00020 suncat1040 pw.x -in pw.inp   Done                     01/20/2018 22:47:32
00021 suncat1040 pw.x -in pw.inp   Done                     01/20/2018 22:47:32
00022 suncat1040 pw.x -in pw.inp   Done                     01/20/2018 22:47:32
00023 suncat1040 pw.x -in pw.inp   Done                     01/20/2018 22:47:32
00024 suncat1040 pw.x -in pw.inp   Done                     01/20/2018 22:47:32
00025 suncat1040 pw.x -in pw.inp   Done                     01/20/2018 22:47:32
00026 suncat1040 pw.x -in pw.inp   Done                     01/20/2018 22:47:32
00027 suncat1040 pw.x -in pw.inp   Done                     01/20/2018 22:47:32
00028 suncat1040 pw.x -in pw.inp   Done                     01/20/2018 22:47:32
00029 suncat1040 pw.x -in pw.inp   Done                     01/20/2018 22:47:32
00030 suncat1040 pw.x -in pw.inp   Done                     01/20/2018 22:47:32
00031 suncat1040 pw.x -in pw.inp   Done                     01/20/2018 22:47:32