     Program PWSCF v.5.1rc2 (svn rev. 11289) starts on 16Apr2018 at 21:44:28

     Current dimensions of program PWSCF are:
     Max number of different atomic species (ntypx) = 10
     Max number of k-points (npk) =  40000
     Max angular momentum in pseudopotentials (lmaxx) =  3
     Presently stress not available with electric field

     IMPORTANT: XC functional enforced from input :
     Exchange-correlation      = BEEF-VDW ( 1  4 27 13 2)
     Any further DFT definition will be discarded
     Please, verify this is what you really want

     Subspace diagonalization in iterative solution of the eigenvalue problem:
     a serial algorithm will be used

     bravais-lattice index     =            0
     lattice parameter (alat)  =       1.8897  a.u.
     unit-cell volume          =    3724.3394 (a.u.)^3
     number of atoms/cell      =           14
     number of atomic types    =            3
     number of electrons       =       173.00
     number of Kohn-Sham states=           96
     kinetic-energy cutoff     =      36.7493  Ry
     charge density cutoff     =     367.4932  Ry
     convergence threshold     =      1.0E-05
     mixing beta               =       0.3000
     number of iterations used =           10  plain     mixing
     Exchange-correlation      = BEEF-VDW ( 1  4 27 13 2)
     nstep                     =           50

     celldm(1)=   1.889726  celldm(2)=   0.000000  celldm(3)=   0.000000
     celldm(4)=   0.000000  celldm(5)=   0.000000  celldm(6)=   0.000000

     crystal axes: (cart. coord. in units of alat)
               a(1) = (   5.132588   0.000000   0.000000 )
               a(2) = (   2.566294   4.444952   0.000000 )
               a(3) = (   0.000000   0.000000  24.190741 )

     reciprocal axes: (cart. coord. in units 2 pi/alat)
               b(1) = (  0.194833 -0.112487  0.000000 )
               b(2) = (  0.000000  0.224974  0.000000 )
               b(3) = (  0.000000  0.000000  0.041338 )

     PseudoPot. # 1 for Cr read from file:
     /u/if/mamunm/psp/gbrv1.5pbe/Cr.UPF
     MD5 check sum: 0d52af634a40206e4dee301ad30da4bf
     Pseudo is Ultrasoft + core correction, Zval = 14.0
     Generated by new atomic code, or converted to UPF format
     Using radial grid of  857 points,  6 beta functions with:
                l(1) =   0
                l(2) =   0
                l(3) =   1
                l(4) =   1
                l(5) =   2
                l(6) =   2
     Q(r) pseudized with  8 coefficients,  rinner =    0.950   0.950   0.950
                                                       0.950   0.950

     PseudoPot. # 2 for C  read from file:
     /u/if/mamunm/psp/gbrv1.5pbe/C.UPF
     MD5 check sum: d1aef80898a10debaa0f26306b886e00
     Pseudo is Ultrasoft + core correction, Zval =  4.0
     Generated by new atomic code, or converted to UPF format
     Using radial grid of  721 points,  4 beta functions with:
                l(1) =   0
                l(2) =   0
                l(3) =   1
                l(4) =   1
     Q(r) pseudized with  8 coefficients,  rinner =    1.100   1.100   1.100

     PseudoPot. # 3 for H  read from file:
     /u/if/mamunm/psp/gbrv1.5pbe/H.UPF
     MD5 check sum: 761ae9a214b05c3daf00ab9f6b793d6f
     Pseudo is Ultrasoft, Zval =  1.0
     Generated by new atomic code, or converted to UPF format
     Using radial grid of  615 points,  2 beta functions with:
                l(1) =   0
                l(2) =   0
     Q(r) pseudized with  8 coefficients,  rinner =    0.700

     vdW kernel table read from file vdW_kernel_table
     MD5 check sum: 095c7af220d748ca6e76c0b4c6cfb241

     atomic species   valence    mass     pseudopotential
        Cr1           14.00    51.99610     Cr( 1.00)
        C1             4.00    12.01100     C ( 1.00)
        H1             1.00     1.00800     H ( 1.00)

     No symmetry found

   Cartesian axes

     site n.     atom                  positions (alat units)
         1           Cr1 tau(   1) = (   1.2831471   0.7408253  10.0000000  )
         2           Cr1 tau(   2) = (   3.8494412   0.7408253  10.0000000  )
         3           Cr1 tau(   3) = (   2.5662941   2.9633012  10.0000000  )
         4           Cr1 tau(   4) = (   5.1325882   2.9633012  10.0000000  )
         5           Cr1 tau(   5) = (   5.1325882   1.4816506  12.0953704  )
         6           Cr1 tau(   6) = (   2.5662941   1.4816506  12.0953704  )
         7           Cr1 tau(   7) = (   6.4157353   3.7041265  12.0953704  )
         8           Cr1 tau(   8) = (   3.8494412   3.7041265  12.0953704  )
         9           Cr1 tau(   9) = (   0.0000000   0.0000000  14.1907408  )
        10           Cr1 tau(  10) = (   2.5662941   0.0000000  14.1907408  )
        11           Cr1 tau(  11) = (   1.2831471   2.2224759  14.1907408  )
        12           Cr1 tau(  12) = (   3.8494412   2.2224759  14.1907408  )
        13           C1  tau(  13) = (   1.2831471   0.7408253  15.5882408  )
        14           H1  tau(  14) = (   1.2831471   0.7408253  16.6882408  )

     number of k points=    20  Fermi-Dirac smearing, width (Ry)=  0.0110
                       cart. coord. in units 2pi/alat
        k(    1) = (   0.0000000   0.0000000   0.0000000), wk =   0.0555556
        k(    2) = (   0.0000000   0.0374957   0.0000000), wk =   0.1111111
        k(    3) = (   0.0000000   0.0749914   0.0000000), wk =   0.1111111
        k(    4) = (   0.0000000  -0.1124872   0.0000000), wk =   0.0555556
        k(    5) = (   0.0324722  -0.0187479   0.0000000), wk =   0.1111111
        k(    6) = (   0.0324722   0.0187479   0.0000000), wk =   0.1111111
        k(    7) = (   0.0324722   0.0562436   0.0000000), wk =   0.1111111
        k(    8) = (   0.0324722  -0.1312350   0.0000000), wk =   0.1111111
        k(    9) = (   0.0324722  -0.0937393   0.0000000), wk =   0.1111111
        k(   10) = (   0.0324722  -0.0562436   0.0000000), wk =   0.1111111
        k(   11) = (   0.0649445  -0.0374957   0.0000000), wk =   0.1111111
        k(   12) = (   0.0649445   0.0000000   0.0000000), wk =   0.1111111
        k(   13) = (   0.0649445   0.0374957   0.0000000), wk =   0.1111111
        k(   14) = (   0.0649445  -0.1499829   0.0000000), wk =   0.1111111
        k(   15) = (   0.0649445  -0.1124872   0.0000000), wk =   0.1111111
        k(   16) = (   0.0649445  -0.0749914   0.0000000), wk =   0.1111111
        k(   17) = (  -0.0974167   0.0562436   0.0000000), wk =   0.0555556
        k(   18) = (  -0.0974167   0.0937393   0.0000000), wk =   0.1111111
        k(   19) = (  -0.0974167   0.1312350   0.0000000), wk =   0.1111111
        k(   20) = (  -0.0974167  -0.0562436   0.0000000), wk =   0.0555556

     Largest allocated arrays     est. size (Mb)     dimensions
     Largest temporary arrays     est. size (Mb)     dimensions

     Check: negative/imaginary core charge=   -0.000004    0.000000

     Initial potential from superposition of free atoms
     Check: negative starting charge=   -0.014830

     starting charge  160.99977, renormalised to  173.00000

     negative rho (up, down):  1.594E-02 0.000E+00

     *
     * You are using vdW-DF for exchange-correlation in this calculation.
     * Please cite the following three references that made this development
     * possible:
     *
     *   M. Dion, H. Rydberg, E. Schroder, D. C. Langreth, and
     *   B. I. Lundqvist, Phys. Rev. Lett. 92, 246401 (2004).
     *
     *   T. Thonhauser, V. R. Cooper, S. Li, A. Puzder, P. Hyldgaard, and
     *   D. C. Langreth, Phys. Rev. B 76, 125112 (2007).
     *
     *   G. Roman-Perez and J. M. Soler, Phys. Rev. Lett. 103, 096102 (2009).
     *
     *
     * If you are using vdW-DF2, please also cite:
     *
     *   K. Lee, E. D. Murray, L. Kong, B. I. Lundqvist, and
     *   D. C. Langreth, Phys. Rev. B 82, 081101(R) (2010).
     *
     *
     * If you are calculating the stress with vdW-DF, please also cite:
     *
     *   R. Sabatini, E. Kucukbenli, B. Kolb, T. Thonhauser, and
     *   S. de Gironcoli, J. Phys.: Condens. Matter 24, 424209 (2012).
     *

     Carrying out vdW-DF run using the following parameters:

     Nqs =      20    Nr_points =    1024   r_max =   100.000
     q_mesh =
               0.00001000     0.04494208     0.09755937     0.15916263
               0.23128650     0.31572767     0.41458969     0.53033537
               0.66584808     0.82450364     1.01025438     1.22772762
               1.48234092     1.78043706     2.12944203     2.53805004
               3.01644009     3.57652955     4.23227104     5.00000000

     Gradients computed in reciprocal space

     Adding external electric field

     Computed dipole along edir(3) :
        Dipole               -2.6145 Ry au,         -6.6453 Debye
        Dipole field         -0.0088 Ry au

        Potential amp.        0.7864 Ry
        Total length         44.5710 bohr

     Starting wfc are  125 randomized atomic wfcs

     Self-consistent Calculation

     iteration #  1     ecut=    36.75 Ry     beta=0.30
     Davidson diagonalization with overlap
     ethr =  1.00E-02,  avg # of iterations =  7.5

[...]

     total energy              =   -1982.97191565 Ry
     Harris-Foulkes estimate   =   -2132.02253612 Ry
     estimated scf accuracy    <     310.45127958 Ry

[...]

     End of self-consistent calculation

          k = 0.0000 0.0000 0.0000 ( 14081 PWs)   bands (ev):

   -70.3394 -70.2643 -70.2069 -70.1850 -70.1847 -70.1822 -70.1623 -70.1538
   -70.1532 -70.0678 -70.0674 -70.0619 -41.9285 -41.9217 -41.9216 -41.8745
   -41.8602 -41.8599 -41.8538 -41.7391 -41.7308 -41.7307 -41.5853 -41.5222
   -41.4905 -41.4899 -41.4649 -41.4626 -41.4623 -41.4247 -41.4246 -41.4042
   -41.3484 -41.3423 -41.3423 -41.3216 -41.3215 -41.3123 -41.2843 -41.2512
   -41.2511 -41.2145 -41.2143 -41.2068 -41.1926 -41.1925 -41.0775 -41.0774
    -9.5657  -5.3503  -4.3029  -3.0929  -2.3765  -2.3515  -2.3515  -2.2497
    -2.0544  -2.0544  -1.7986  -1.5614  -1.5613  -1.5062  -1.5062  -1.4361
    -1.0059  -0.7755  -0.7755   0.0675   0.0676   0.0981   0.4208   0.5488
     0.5669   0.5670   0.6998   0.9741   0.9741   1.1575   1.1575   1.1998
     1.2304   1.2304   1.2490   1.3072   1.3072   1.4686   1.4770   1.4771
     2.1499   2.1500   2.1624   2.3257   2.5340   2.5342   2.6062   2.6063

[...]

          k =-0.0974 0.0562 0.0000 ( 14010 PWs)   bands (ev):

[...]

     the Fermi energy is     1.4091 ev

!    total energy              =   -2127.70398802 Ry
     Harris-Foulkes estimate   =   -2127.70400017 Ry
     estimated scf accuracy    <       0.00000754 Ry

     The total energy is the sum of the following terms:

     one-electron contribution =  -19926.01131301 Ry
     hartree contribution      =    9956.82017316 Ry
     xc contribution           =    -283.51000205 Ry
     ewald contribution        =    8125.12812054 Ry
     electric field correction =       0.00002880 Ry
     smearing contrib. (-TS)   =      -0.13099545 Ry

     convergence has been achieved in  45 iterations

 BEEF-vdW xc energy contributions
           1 :   -245.365993181326
           2 :    220.925842816512
           3 :   -180.120981596676
           4 :    135.211092619123
           5 :   -97.3323839524759
           6 :    72.4603378571741
           7 :   -60.2843726435663
           8 :    56.0446438325021
           9 :   -53.9346134460541
          10 :    50.1123638933840
          11 :   -43.9285628309602
          12 :    37.1620662660362
          13 :   -32.1457391826279
          14 :    30.0594957061112
          15 :   -30.3113081746390
          16 :    31.1404960597057
          17 :   -30.8580141021919
          18 :    28.8635794088485
          19 :   -25.8503462777638
          20 :    23.1746694918062
          21 :   -21.8855501451459
          22 :    22.0646010555083
          23 :   -22.8643264994183
          24 :    23.1461541557041
          25 :   -22.2463275527856
          26 :    20.3606816062431
          27 :   -18.3382948930596
          28 :    17.0727650922530
          29 :   -16.9192112600264
          30 :    17.5058557144950
          31 :   -24.3802723198593
          32 :   -17.5472293219182

     Forces acting on atoms (Ry/au):

     negative rho (up, down):  1.471E-02 0.000E+00
     atom    1 type  1   force =     0.00000316   -0.00000840   -0.00028817
     atom    2 type  1   force =    -0.00000469    0.00101817   -0.00162103
     atom    3 type  1   force =     0.00088223   -0.00050338   -0.00163860
     atom    4 type  1   force =    -0.00088277   -0.00049945   -0.00161303
     atom    5 type  1   force =     0.00022076   -0.00014136    0.00348122
     atom    6 type  1   force =    -0.00023533   -0.00015739    0.00349199
     atom    7 type  1   force =    -0.00001293    0.00000861   -0.00272573
     atom    8 type  1   force =     0.00000713    0.00028226    0.00351196
     atom    9 type  1   force =    -0.01154628   -0.00668484    0.03476902
     atom   10 type  1   force =     0.01157989   -0.00667813    0.03475927
     atom   11 type  1   force =     0.00000968    0.01335005    0.03472708
     atom   12 type  1   force =    -0.00000980    0.00002306   -0.02400175
     atom   13 type  2   force =    -0.00001293   -0.00000597   -0.07369124
     atom   14 type  3   force =     0.00000187   -0.00000322   -0.00916099

     Total force =     0.101234     Total SCF correction =     0.004317

     entering subroutine stress ...

     negative rho (up, down):  1.471E-02 0.000E+00
          total   stress  (Ry/bohr**3)                   (kbar)     P=  -26.58
  -0.00023559  -0.00000003  -0.00000005        -34.66     -0.00     -0.01
  -0.00000003  -0.00023553  -0.00000004         -0.00    -34.65     -0.01
  -0.00000005  -0.00000004  -0.00007098         -0.01     -0.01    -10.44

     BFGS Geometry Optimization

     number of scf cycles    =   1
     number of bfgs steps    =   0

     energy   new            =   -2127.7039880163 Ry

     new trust radius        =       0.0736912430 bohr
     new conv_thr            =       0.0000099958 Ry

ATOMIC_POSITIONS (crystal)
Cr1      0.166666667   0.166666667   0.413381306    0   0   0
Cr1      0.666666667   0.166666667   0.413381306    0   0   0
Cr1      0.166666667   0.666666667   0.413381306    0   0   0
Cr1      0.666666667   0.666666667   0.413381306    0   0   0
Cr1      0.833333333   0.333333333   0.500000000    0   0   0
Cr1      0.333333333   0.333333333   0.500000000    0   0   0
Cr1      0.833333333   0.833333333   0.500000000    0   0   0
Cr1      0.333333333   0.833333333   0.500000000    0   0   0
Cr1     -0.000792518  -0.000795839   0.587379273
Cr1      0.501591424  -0.000795040   0.587379060
Cr1     -0.000793672   0.501589340   0.587378356
Cr1      0.499997617   0.500002745   0.586093651
C1       0.166665690   0.166665956   0.642776721
H1       0.166667050   0.166666284   0.689660277

     Writing output data file calc.save
     Check: negative starting charge=   -0.014830
     NEW-OLD atomic charge density approx. for the potential

     Check: negative/imaginary core charge=   -0.000004    0.000000
     Check: negative starting charge=   -0.014555

[...]

     energy   old            =   -2127.7039880163 Ry
     energy   new            =   -2127.7114751687 Ry

     CASE: energy  _new < energy  _old

[...]

     Total force =     0.009930     Total SCF correction =     0.000528

[...]

     number of scf cycles    =  10
     number of bfgs steps    =   9

     energy   old            =   -2127.7317897857 Ry
     energy   new            =   -2127.7320553229 Ry

     CASE: energy  _new < energy  _old

     new trust radius        =       0.0047140001 bohr
     new conv_thr            =       0.0000001000 Ry

ATOMIC_POSITIONS (crystal)
Cr1      0.166666667   0.166666667   0.413381306    0   0   0
Cr1      0.666666667   0.166666667   0.413381306    0   0   0
Cr1      0.166666667   0.666666667   0.413381306    0   0   0
Cr1      0.666666667   0.666666667   0.413381306    0   0   0
Cr1      0.833333333   0.333333333   0.500000000    0   0   0
Cr1      0.333333333   0.333333333   0.500000000    0   0   0
Cr1      0.833333333   0.833333333   0.500000000    0   0   0
Cr1      0.333333333   0.833333333   0.500000000    0   0   0
Cr1     -0.004790086  -0.004787287   0.588786641
Cr1      0.509582263  -0.004787553   0.588787472
Cr1     -0.004787845   0.509577954   0.588787826
Cr1      0.500002050   0.500005838   0.572619204
C1       0.166667571   0.166667209   0.639207379
H1       0.166667657   0.166667629   0.684534677

     Writing output data file calc.save
     Check: negative starting charge=   -0.012080
     NEW-OLD atomic charge density approx. for the potential

     Check: negative/imaginary core charge=   -0.000004    0.000000
     Check: negative starting charge=   -0.012123

[...]

     Self-consistent Calculation

[...]

     total energy              =   -2127.73209054 Ry
     Harris-Foulkes estimate   =   -2127.73209055 Ry
     estimated scf accuracy    <       0.00000011 Ry

     iteration # 19     ecut=    36.75 Ry     beta=0.30
     Davidson diagonalization with overlap
     ethr =  6.64E-11,  avg # of iterations =  4.8

[...]

     negative rho (up, down):  1.209E-02 0.000E+00

     Adding external electric field

     Computed dipole along edir(3) :
        Dipole                0.1023 Ry au,          0.2599 Debye
        Dipole field          0.0003 Ry au

        Potential amp.       -0.0308 Ry
        Total length         44.5710 bohr

     End of self-consistent calculation

[...]

          k = 0.0649-0.0750 0.0000 ( 13990 PWs)   bands (ev):

[...]

          k =-0.0974-0.0562 0.0000 ( 14010 PWs)   bands (ev):

   -70.3199 -70.2928 -70.2259 -70.2090 -70.1864 -70.1813 -70.1554 -70.1438
   -70.1353 -70.1051 -70.0870 -70.0864 -41.9648 -41.8512 -41.8441 -41.8122
   -41.8040 -41.7541 -41.7151 -41.6828 -41.6468 -41.6321 -41.6172 -41.5916
   -41.5542 -41.5012 -41.4945 -41.4859 -41.4610 -41.4554 -41.4434 -41.4315
   -41.4231 -41.4132 -41.4041 -41.3855 -41.3674 -41.3644 -41.3586 -41.3550
   -41.3238 -41.2952 -41.2626 -41.2306 -41.1983 -41.1669 -41.1558 -41.1365
    -9.6250  -4.2338  -3.5490  -3.2848  -2.3747  -1.8473  -1.6128  -1.6094
    -1.5076  -1.4638  -1.4200  -1.3695  -1.3524  -0.8956  -0.7052  -0.6749
    -0.6608  -0.6175  -0.4801  -0.4477  -0.2047  -0.1516  -0.0286   0.0185
     0.0727   0.1059   0.2292   0.4502   0.4530   0.5557   0.6661   0.6738
     0.7423   0.8261   0.8575   1.0556   1.0944   1.1033   1.2515   1.2940
     1.4780   1.7958   1.9183   1.9241   1.9351   2.0323   2.0552   2.1253

     the Fermi energy is     1.3998 ev

!    total energy              =   -2127.73209052 Ry
     Harris-Foulkes estimate   =   -2127.73209084 Ry
     estimated scf accuracy    <       0.00000003 Ry

     The total energy is the sum of the following terms:

     one-electron contribution =  -20073.07678243 Ry
     hartree contribution      =   10030.28126429 Ry
     xc contribution           =    -283.71976717 Ry
     ewald contribution        =    8198.90498744 Ry
     electric field correction =       0.00003529 Ry
     smearing contrib. (-TS)   =      -0.12182795 Ry

     convergence has been achieved in  19 iterations

 BEEF-vdW xc energy contributions
           1 :   -245.579314203965
           2 :    221.188794702417
           3 :   -180.429049906299
           4 :    135.496410514314
           5 :   -97.5009990664989
           6 :    72.4482399296253
           7 :   -60.0983392971760
           8 :    55.7638221175033
           9 :   -53.6718253780040
          10 :    49.9555887789064
          11 :   -43.8937078480909
          12 :    37.1841523151226
          13 :   -32.1163793176410
          14 :    29.8931534937855
          15 :   -30.0021643529651
          16 :    30.7716332760509
          17 :   -30.5537891711448
          18 :    28.7138757865609
          19 :   -25.8553601392119
          20 :    23.2469556799313
          21 :   -21.9077594482837
          22 :    21.9634896251221
          23 :   -22.6524513388193
          24 :    22.9072563878480
          25 :   -22.0780795668135
          26 :    20.3128219881611
          27 :   -18.3825238575519
          28 :    17.1195801334774
          29 :   -16.8700466965200
          30 :    17.3104536056733
          31 :   -24.3937829333540
          32 :   -17.5672072075382

     Forces acting on atoms (Ry/au):

     negative rho (up, down):  1.209E-02 0.000E+00
     atom    1 type  1   force =    -0.00000018    0.00000023    0.00785272
     atom    2 type  1   force =    -0.00000064    0.00106645   -0.00204809
     atom    3 type  1   force =     0.00092403   -0.00053358   -0.00204503
     atom    4 type  1   force =    -0.00092462   -0.00053280   -0.00204443
     atom    5 type  1   force =     0.01744776   -0.01007311   -0.00661386
     atom    6 type  1   force =    -0.01744785   -0.01007475   -0.00660409
     atom    7 type  1   force =    -0.00000366   -0.00000135    0.01723016
     atom    8 type  1   force =     0.00000161    0.02014681   -0.00660972
     atom    9 type  1   force =     0.00071647    0.00040983    0.00042268
     atom   10 type  1   force =    -0.00071225    0.00041087    0.00041829
     atom   11 type  1   force =     0.00000344   -0.00081833    0.00041574
     atom   12 type  1   force =    -0.00000183    0.00000169   -0.00034566
     atom   13 type  2   force =    -0.00000176   -0.00000110   -0.00171170
     atom   14 type  3   force =    -0.00000054   -0.00000088    0.00168299

     Total force =     0.002904     Total SCF correction =     0.000300
     SCF correction compared to forces is large: reduce conv_thr to get better values

     entering subroutine stress ...

     negative rho (up, down):  1.209E-02 0.000E+00
          total   stress  (Ry/bohr**3)                   (kbar)     P=  -15.60
  -0.00015427  -0.00000001  -0.00000000        -22.69     -0.00     -0.00
  -0.00000001  -0.00015426   0.00000000         -0.00    -22.69      0.00
  -0.00000000   0.00000000  -0.00000969         -0.00      0.00     -1.43

     bfgs converged in  11 scf cycles and  10 bfgs steps
     (criteria: energy <  1.0E+00, force <  1.9E-03)

     End of BFGS Geometry Optimization

     Final energy   =   -2127.7320905185 Ry
Begin final coordinates

ATOMIC_POSITIONS (crystal)
Cr1      0.166666667   0.166666667   0.413381306    0   0   0
Cr1      0.666666667   0.166666667   0.413381306    0   0   0
Cr1      0.166666667   0.666666667   0.413381306    0   0   0
Cr1      0.666666667   0.666666667   0.413381306    0   0   0
Cr1      0.833333333   0.333333333   0.500000000    0   0   0
Cr1      0.333333333   0.333333333   0.500000000    0   0   0
Cr1      0.833333333   0.833333333   0.500000000    0   0   0
Cr1      0.333333333   0.833333333   0.500000000    0   0   0
Cr1     -0.004790086  -0.004787287   0.588786641
Cr1      0.509582263  -0.004787553   0.588787472
Cr1     -0.004787845   0.509577954   0.588787826
Cr1      0.500002050   0.500005838   0.572619204
C1       0.166667571   0.166667209   0.639207379
H1       0.166667657   0.166667629   0.684534677
End final coordinates

     Writing output data file calc.save

     General routines

     Parallel routines

   This run was terminated on:  23:24:49  16Apr2018

   JOB DONE.
Job  /afs/slac/g/suncat/bin/suncat-tsmpirun -x LD_LIBRARY_PATH -wdir /scratch/qe150811_cxqfR pw.x -npool 4 -in pw.inp

TID   HOST_NAME   COMMAND_LINE            STATUS            TERMINATION_TIME
00000 suncat0161 pw.x -npool 4 -i  Done                     04/16/2018 23:24:49
00001 suncat0161 pw.x -npool 4 -i  Done                     04/16/2018 23:24:49
00002 suncat0161 pw.x -npool 4 -i  Done                     04/16/2018 23:24:49
00003 suncat0161 pw.x -npool 4 -i  Done                     04/16/2018 23:24:49
00004 suncat0161 pw.x -npool 4 -i  Done                     04/16/2018 23:24:49
00005 suncat0161 pw.x -npool 4 -i  Done                     04/16/2018 23:24:49
00006 suncat0161 pw.x -npool 4 -i  Done                     04/16/2018 23:24:49
00007 suncat0161 pw.x -npool 4 -i  Done                     04/16/2018 23:24:49
00008 suncat0160 pw.x -npool 4 -i  Done                     04/16/2018 23:24:49
00009 suncat0160 pw.x -npool 4 -i  Done                     04/16/2018 23:24:49
00010 suncat0160 pw.x -npool 4 -i  Done                     04/16/2018 23:24:49
00011 suncat0160 pw.x -npool 4 -i  Done                     04/16/2018 23:24:49
00012 suncat0160 pw.x -npool 4 -i  Done                     04/16/2018 23:24:49
00013 suncat0160 pw.x -npool 4 -i  Done                     04/16/2018 23:24:49
00014 suncat0160 pw.x -npool 4 -i  Done                     04/16/2018 23:24:49
00015 suncat0160 pw.x -npool 4 -i  Done                     04/16/2018 23:24:49
00016 suncat0156 pw.x -npool 4 -i  Done                     04/16/2018 23:24:49
00017 suncat0156 pw.x -npool 4 -i  Done                     04/16/2018 23:24:49
00018 suncat0156 pw.x -npool 4 -i  Done                     04/16/2018 23:24:49
00019 suncat0156 pw.x -npool 4 -i  Done                     04/16/2018 23:24:49
00020 suncat0156 pw.x -npool 4 -i  Done                     04/16/2018 23:24:49
00021 suncat0156 pw.x -npool 4 -i  Done                     04/16/2018 23:24:49
00022 suncat0156 pw.x -npool 4 -i  Done                     04/16/2018 23:24:49
00023 suncat0156 pw.x -npool 4 -i  Done                     04/16/2018 23:24:49
00024 suncat0153 pw.x -npool 4 -i  Done                     04/16/2018 23:24:49
00025 suncat0153 pw.x -npool 4 -i  Done                     04/16/2018 23:24:49
00026 suncat0153 pw.x -npool 4 -i  Done                     04/16/2018 23:24:49
00027 suncat0153 pw.x -npool 4 -i  Done                     04/16/2018 23:24:49
00028 suncat0153 pw.x -npool 4 -i  Done                     04/16/2018 23:24:49
00029 suncat0153 pw.x -npool 4 -i  Done                     04/16/2018 23:24:49
00030 suncat0153 pw.x -npool 4 -i  Done                     04/16/2018 23:24:49
00031 suncat0153 pw.x -npool 4 -i  Done                     04/16/2018 23:24:49