     Program PWSCF v.5.1rc2 (svn rev. 11289) starts on  3May2018 at 15:12:41

     Current dimensions of program PWSCF are:
     Max number of different atomic species (ntypx) = 10
     Max number of k-points (npk) =  40000
     Max angular momentum in pseudopotentials (lmaxx) =  3
     Presently stress not available with electric field

     IMPORTANT: XC functional enforced from input :
     Exchange-correlation      = BEEF-VDW ( 1  4 27 13 2)
     Any further DFT definition will be discarded
     Please, verify this is what you really want

     Subspace diagonalization in iterative solution of the eigenvalue problem:
     a serial algorithm will be used

     bravais-lattice index     =            0
     lattice parameter (alat)  =       1.8897  a.u.
     unit-cell volume          =    6024.3322 (a.u.)^3
     number of atoms/cell      =           13
     number of atomic types    =            2
     number of electrons       =       149.00
     number of Kohn-Sham states=           84
     kinetic-energy cutoff     =      36.7493  Ry
     charge density cutoff     =     367.4932  Ry
     convergence threshold     =      1.0E-05
     mixing beta               =       0.3000
     number of iterations used =           10  plain     mixing
     Exchange-correlation      = BEEF-VDW ( 1  4 27 13 2)
     nstep                     =           50

     celldm(1)=   1.889726  celldm(2)=   0.000000  celldm(3)=   0.000000
     celldm(4)=   0.000000  celldm(5)=   0.000000  celldm(6)=   0.000000

     crystal axes: (cart. coord. in units of alat)
               a(1) = (   6.393197   0.000000   0.000000 )
               a(2) = (   3.196599   5.536671   0.000000 )
               a(3) = (   0.000000   0.000000  25.220024 )

     reciprocal axes: (cart. coord. in units 2 pi/alat)
               b(1) = (  0.156416 -0.090307  0.000000 )
               b(2) = (  0.000000  0.180614  0.000000 )
               b(3) = (  0.000000  0.000000  0.039651 )

     PseudoPot. # 1 for Hf read from file:
     /u/if/mamunm/psp/gbrv1.5pbe/Hf.UPF
     MD5 check sum: 8ee9378dfe14276e333edf04c5e4aa26
     Pseudo is Ultrasoft + core correction, Zval = 12.0
     Generated by new atomic code, or converted to UPF format
     Using radial grid of  921 points,  8 beta functions with:
                l(1) =   0
                l(2) =   0
                l(3) =   0
                l(4) =   1
                l(5) =   1
                l(6) =   2
                l(7) =   2
                l(8) =   3
     Q(r) pseudized with  6 coefficients,  rinner =    1.200   1.200   1.200
                                                       1.200   1.200   1.200
                                                       1.200

     PseudoPot. # 2 for N  read from file:
     /u/if/mamunm/psp/gbrv1.5pbe/N.UPF
     MD5 check sum: 95339753478d7afb44899504a8723017
     Pseudo is Ultrasoft + core correction, Zval =  5.0
     Generated by new atomic code, or converted to UPF format
     Using radial grid of  729 points,  4 beta functions with:
                l(1) =   0
                l(2) =   0
                l(3) =   1
                l(4) =   1
     Q(r) pseudized with  8 coefficients,  rinner =    0.900   0.900   0.900

     vdW kernel table read from file vdW_kernel_table
     MD5 check sum: 095c7af220d748ca6e76c0b4c6cfb241

     atomic species   valence    mass     pseudopotential
        Hf1           12.00   178.49000     Hf( 1.00)
        N1             5.00    14.00700     N ( 1.00)

     No symmetry found

   Cartesian axes

     site n.     atom                  positions (alat units)
         1           Hf1 tau(   1) = (   1.5982993   0.9227785  10.0000000  )
         2           Hf1 tau(   2) = (   4.7948978   0.9227785  10.0000000  )
         3           Hf1 tau(   3) = (   3.1965986   3.6911141  10.0000000  )
         4           Hf1 tau(   4) = (   6.3931971   3.6911141  10.0000000  )
         5           Hf1 tau(   5) = (   6.3931971   1.8455570  12.6100118  )
         6           Hf1 tau(   6) = (   3.1965986   1.8455570  12.6100118  )
         7           Hf1 tau(   7) = (   7.9914964   4.6138926  12.6100118  )
         8           Hf1 tau(   8) = (   4.7948978   4.6138926  12.6100118  )
         9           Hf1 tau(   9) = (   0.0000000   0.0000000  15.2200236  )
        10           Hf1 tau(  10) = (   3.1965986   0.0000000  15.2200236  )
        11           Hf1 tau(  11) = (   1.5982993   2.7683356  15.2200236  )
        12           Hf1 tau(  12) = (   4.7948978   2.7683356  15.2200236  )
        13           N1  tau(  13) = (   3.1965986   1.8455570  16.8190236  )

     number of k points=    20  Fermi-Dirac smearing, width (Ry)=  0.0110
                       cart. coord. in units 2pi/alat
        k(    1) = (   0.0000000   0.0000000   0.0000000), wk =   0.0555556
        k(    2) = (   0.0000000   0.0301023   0.0000000), wk =   0.1111111
        k(    3) = (   0.0000000   0.0602046   0.0000000), wk =   0.1111111
        k(    4) = (   0.0000000  -0.0903070   0.0000000), wk =   0.0555556
        k(    5) = (   0.0260694  -0.0150512   0.0000000), wk =   0.1111111
        k(    6) = (   0.0260694   0.0150512   0.0000000), wk =   0.1111111
        k(    7) = (   0.0260694   0.0451535   0.0000000), wk =   0.1111111
        k(    8) = (   0.0260694  -0.1053581   0.0000000), wk =   0.1111111
        k(    9) = (   0.0260694  -0.0752558   0.0000000), wk =   0.1111111
        k(   10) = (   0.0260694  -0.0451535   0.0000000), wk =   0.1111111
        k(   11) = (   0.0521388  -0.0301023   0.0000000), wk =   0.1111111
        k(   12) = (   0.0521388   0.0000000   0.0000000), wk =   0.1111111
        k(   13) = (   0.0521388   0.0301023   0.0000000), wk =   0.1111111
        k(   14) = (   0.0521388  -0.1204093   0.0000000), wk =   0.1111111
        k(   15) = (   0.0521388  -0.0903070   0.0000000), wk =   0.1111111
        k(   16) = (   0.0521388  -0.0602046   0.0000000), wk =   0.1111111
        k(   17) = (  -0.0782081   0.0451535   0.0000000), wk =   0.0555556
        k(   18) = (  -0.0782081   0.0752558   0.0000000), wk =   0.1111111
        k(   19) = (  -0.0782081   0.1053581   0.0000000), wk =   0.1111111
        k(   20) = (  -0.0782081  -0.0451535   0.0000000), wk =   0.0555556

     Largest allocated arrays     est. size (Mb)     dimensions
     Largest temporary arrays     est. size (Mb)     dimensions

     Check: negative/imaginary core charge=   -0.000003    0.000000

     Initial potential from superposition of free atoms
     Check: negative starting charge=   -1.301380

     starting charge  124.99997, renormalised to  149.00000

     negative rho (up, down):  1.551E+00 0.000E+00

     *
     * You are using vdW-DF for exchange-correlation in this calculation.
     * Please cite the following three references that made this development
     * possible:
     *
     *   M. Dion, H. Rydberg, E. Schroder, D. C. Langreth, and
     *   B. I. Lundqvist, Phys. Rev. Lett. 92, 246401 (2004).
     *
     *   T. Thonhauser, V. R. Cooper, S. Li, A. Puzder, P. Hyldgaard, and
     *   D. C. Langreth, Phys. Rev. B 76, 125112 (2007).
     *
     *   G. Roman-Perez and J. M. Soler, Phys. Rev. Lett. 103, 096102 (2009).
     *
     *
     * If you are using vdW-DF2, please also cite:
     *
     *   K. Lee, E. D. Murray, L. Kong, B. I. Lundqvist, and
     *   D. C. Langreth, Phys. Rev. B 82, 081101(R) (2010).
     *
     *
     * If you are calculating the stress with vdW-DF, please also cite:
     *
     *   R. Sabatini, E. Kucukbenli, B. Kolb, T. Thonhauser, and
     *   S. de Gironcoli, J. Phys.: Condens. Matter 24, 424209 (2012).
     *

     Carrying out vdW-DF run using the following parameters:

     Nqs =      20    Nr_points =    1024   r_max =   100.000
     q_mesh =
               0.00001000     0.04494208     0.09755937     0.15916263
               0.23128650     0.31572767     0.41458969     0.53033537
               0.66584808     0.82450364     1.01025438     1.22772762
               1.48234092     1.78043706     2.12944203     2.53805004
               3.01644009     3.57652955     4.23227104     5.00000000

     Gradients computed in reciprocal space

     Adding external electric field

     Computed dipole along edir(3) :
        Dipole               -7.6357 Ry au,        -19.4079 Debye
        Dipole field         -0.0159 Ry au

        Potential amp.        1.4802 Ry
        Total length         46.4675 bohr

     Starting wfc are  160 randomized atomic wfcs

     Self-consistent Calculation

     iteration #  1     ecut=    36.75 Ry     beta=0.30
     Davidson diagonalization with overlap
     ethr =  1.00E-02,  avg # of iterations =  9.3

[...]

     total energy              =   -1317.72302957 Ry
     Harris-Foulkes estimate   =   -1933.31663045 Ry
     estimated scf accuracy    <    1325.40596787 Ry

[...]

     End of self-consistent calculation

          k = 0.0000 0.0000 0.0000 ( 22729 PWs)   bands (ev):

   -61.6912 -61.5616 -61.5305 -61.5299 -61.5176 -61.5062 -61.4819 -61.4814
   -61.1435 -61.1151 -61.1146 -61.0782 -30.3588 -30.3586 -30.3561 -30.3162
   -30.3023 -30.3020 -30.2527 -30.2073 -30.1362 -30.1357 -30.1118 -30.0676
   -30.0346 -30.0341 -29.9174 -29.9174 -29.9000 -29.8971 -29.8968 -29.8846
   -29.8387 -29.8292 -29.8289 -29.7697 -29.7697 -29.7282 -29.7280 -29.6079
   -29.6017 -29.6012 -29.5615 -29.5098 -29.4869 -29.4866 -29.3721 -29.3721
   -11.1197  -5.3820  -4.0225  -2.7814  -2.1016  -2.1016  -1.9955  -1.7268
    -1.7267  -1.7176  -1.4482  -1.4482  -1.4135  -0.6748  -0.6747  -0.6425
    -0.3397  -0.3397   0.0148   0.3503   0.3504   0.3991   1.0813   1.3135
     1.4716   1.4717   1.5012   1.7606   1.7606   1.8204   1.9703   2.2460
     2.2460   2.2681   2.3571   2.3957

[...]

          k =-0.0782 0.0452 0.0000 ( 22668 PWs)   bands (ev):

[...]

     the Fermi energy is     1.0810 ev

!    total energy              =   -1946.96600644 Ry
     Harris-Foulkes estimate   =   -1946.95478530 Ry
     estimated scf accuracy    <       0.00000946 Ry

     The total energy is the sum of the following terms:

     one-electron contribution =   -8554.31153752 Ry
     hartree contribution      =    4260.73180050 Ry
     xc contribution           =    -933.03450502 Ry
     ewald contribution        =    3279.75790751 Ry
     electric field correction =       0.00021688 Ry
     smearing contrib. (-TS)   =      -0.10988878 Ry

     convergence has been achieved in  41 iterations

 BEEF-vdW xc energy contributions
           1 :   -843.528082438942
           2 :    783.837197515430
           3 :   -678.114931847976
           4 :    548.278672714244
           5 :   -416.949743765784
           6 :    301.101269639761
           7 :   -209.319702205606
           8 :    142.755233925935
           9 :   -98.1749458657830
          10 :    70.9254477762133
          11 :   -56.4863972316560
          12 :    50.5693159871294
          13 :   -48.7229930465619
          14 :    46.4125960940592
          15 :   -39.9201371152434
          16 :    27.5730952327833
          17 :   -10.4618668183107
          18 :   -7.97035102074847
          19 :    23.3824297995168
          20 :   -32.3482527985778
          21 :    33.6289474860462
          22 :   -28.3698271377847
          23 :    19.2964367815605
          24 :   -9.50119748918780
          25 :    1.47749497965697
          26 :    3.25423761357933
          27 :   -4.05214784434770
          28 :   0.950738004940604
          29 :    5.37648667064468
          30 :   -13.5282726340504
          31 :   -60.7489787925967
          32 :   -43.6587779539581

     Forces acting on atoms (Ry/au):

     negative rho (up, down):  1.381E+00 0.000E+00
     atom    1 type  1   force =    -0.00022354   -0.00013729    0.02413380
     atom    2 type  1   force =     0.00022200   -0.00011155    0.02410281
     atom    3 type  1   force =     0.00002056    0.00025573    0.02409447
     atom    4 type  1   force =    -0.00002200   -0.00000473    0.02450470
     atom    5 type  1   force =     0.00000124   -0.00244393   -0.00527637
     atom    6 type  1   force =    -0.00000316   -0.00001918   -0.01835299
     atom    7 type  1   force =     0.00210554    0.00123279   -0.00526594
     atom    8 type  1   force =    -0.00210487    0.00122447   -0.00522945
     atom    9 type  1   force =     0.00005152    0.00000151   -0.03330351
     atom   10 type  1   force =    -0.00003955    0.05797403    0.05401095
     atom   11 type  1   force =     0.05018612   -0.02900507    0.05401399
     atom   12 type  1   force =    -0.05019830   -0.02895471    0.05398904
     atom   13 type  2   force =     0.00000444   -0.00001205   -0.19142149

     Total force =     0.237866     Total SCF correction =     0.003455

     entering subroutine stress ...

     negative rho (up, down):  1.381E+00 0.000E+00
          total   stress  (Ry/bohr**3)                   (kbar)     P=  -30.12
  -0.00018005  -0.00000001   0.00000000        -26.49     -0.00      0.00
  -0.00000001  -0.00018007  -0.00000001         -0.00    -26.49     -0.00
   0.00000000  -0.00000001  -0.00025423          0.00     -0.00    -37.40

     BFGS Geometry Optimization

     number of scf cycles    =   1
     number of bfgs steps    =   0

     energy   new            =   -1946.9660064398 Ry

     new trust radius        =       0.1914214946 bohr
     new conv_thr            =       0.0000099958 Ry

ATOMIC_POSITIONS (crystal)
Hf1      0.166666667   0.166666667   0.396510335    0   0   0
Hf1      0.666666667   0.166666667   0.396510335    0   0   0
Hf1      0.166666667   0.666666667   0.396510335    0   0   0
Hf1      0.666666667   0.666666667   0.396510335    0   0   0
Hf1      0.833333333   0.333333333   0.500000000    0   0   0
Hf1      0.333333333   0.333333333   0.500000000    0   0   0
Hf1      0.833333333   0.833333333   0.500000000    0   0   0
Hf1      0.333333333   0.833333333   0.500000000    0   0   0
Hf1      0.000004192   0.000000144   0.602790877
Hf1      0.497226241   0.005540971   0.604622946
Hf1      0.005540107   0.497227789   0.604623010
Hf1      0.497228689   0.497232602   0.604622486
N1       0.333334277   0.333332182   0.662875181

     Writing output data file calc.save
     Check: negative starting charge=   -1.301380
     NEW-OLD atomic charge density approx. for the potential

     Check: negative/imaginary core charge=   -0.000003    0.000000
     Check: negative starting charge=   -1.298328

[...]

     iteration #  1     ecut=    36.75 Ry     beta=0.30
     Davidson diagonalization with overlap
     c_bands:  1 eigenvalues not converged
     ethr =  1.00E-06,  avg # of iterations = 16.0

[...]

     energy   old            =   -1946.9660064398 Ry
     energy   new            =   -1947.0201590346 Ry

     CASE: energy  _new < energy  _old

     WARNING: bfgs curvature condition failed, Theta= 0.890
     new trust radius        =       0.2871322420 bohr
     new conv_thr            =       0.0000001000 Ry

[...]

     WARNING: bfgs curvature condition failed, Theta= 0.850
     new trust radius        =       0.0904701234 bohr
     new conv_thr            =       0.0000001000 Ry

[...]

     iteration #  1     ecut=    36.75 Ry     beta=0.30
     Davidson diagonalization with overlap
     c_bands:  1 eigenvalues not converged
     c_bands:  1 eigenvalues not converged
     c_bands:  1 eigenvalues not converged
     ethr =  1.00E-06,  avg # of iterations = 16.4

[...]

     Total force =     0.002884     Total SCF correction =     0.000256

[...]

     number of scf cycles    =  19
     number of bfgs steps    =  18

     energy   old            =   -1947.1566193795 Ry
     energy   new            =   -1947.1566347770 Ry

     CASE: energy  _new < energy  _old

     new trust radius        =       0.0062590815 bohr
     new conv_thr            =       0.0000001000 Ry

ATOMIC_POSITIONS (crystal)
Hf1      0.166666667   0.166666667   0.396510335    0   0   0
Hf1      0.666666667   0.166666667   0.396510335    0   0   0
Hf1      0.166666667   0.666666667   0.396510335    0   0   0
Hf1      0.666666667   0.666666667   0.396510335    0   0   0
Hf1      0.833333333   0.333333333   0.500000000    0   0   0
Hf1      0.333333333   0.333333333   0.500000000    0   0   0
Hf1      0.833333333   0.833333333   0.500000000    0   0   0
Hf1      0.333333333   0.833333333   0.500000000    0   0   0
Hf1     -0.000000497   0.000000245   0.593612447
Hf1      0.507845760  -0.015691642   0.601860660
Hf1     -0.015692128   0.507846076   0.601860749
Hf1      0.507845825   0.507845706   0.601860675
N1       0.333332999   0.333333379   0.625483983

     Writing output data file calc.save
     Check: negative starting charge=   -1.296087
     NEW-OLD atomic charge density approx. for the potential

     Check: negative/imaginary core charge=   -0.000003    0.000000
     Check: negative starting charge=   -1.296161

[...]

     Self-consistent Calculation

[...]

     total energy              =   -1947.15664932 Ry
     Harris-Foulkes estimate   =   -1947.15664937 Ry
     estimated scf accuracy    <       0.00000060 Ry

     iteration #  9     ecut=    36.75 Ry     beta=0.30
     Davidson diagonalization with overlap
     ethr =  4.03E-10,  avg # of iterations =  4.0

[...]

     negative rho (up, down):  1.374E+00 0.000E+00

     Adding external electric field

     Computed dipole along edir(3) :
        Dipole                0.0188 Ry au,          0.0477 Debye
        Dipole field          0.0000 Ry au

        Potential amp.       -0.0036 Ry
        Total length         46.4675 bohr

     End of self-consistent calculation

[...]

          k = 0.0521-0.0602 0.0000 ( 22643 PWs)   bands (ev):

[...]

          k =-0.0782-0.0452 0.0000 ( 22668 PWs)   bands (ev):

   -61.2209 -61.2182 -61.2037 -61.1998 -61.0091 -60.9588 -60.9210 -60.9015
   -60.8955 -60.6921 -60.6837 -60.6758 -29.8950 -29.8832 -29.8454 -29.8313
   -29.7816 -29.7792 -29.7744 -29.7405 -29.7283 -29.7226 -29.7126 -29.6808
   -29.6765 -29.6390 -29.6002 -29.5896 -29.5798 -29.5508 -29.5133 -29.5066
   -29.4992 -29.4770 -29.4153 -29.4077 -29.3823 -29.3116 -29.3066 -29.2699
   -29.2119 -29.1879 -29.1791 -29.1336 -29.1269 -29.1068 -29.0997 -29.0209
   -12.6144  -3.9198  -3.4855  -3.0471  -2.7506  -2.4791  -2.0619  -1.6310
    -1.2109  -1.0278  -0.8907  -0.5752  -0.5521  -0.4474   0.1973   0.2383
     0.3743   0.3995   0.5734   0.6284   0.7493   0.7651   0.8968   0.9256
     1.0496   1.1417   1.2340   1.2784   1.3391   1.4521   1.5450   1.6668
     1.7419   1.8735   2.2619   2.3405

     the Fermi energy is     1.3982 ev

!    total energy              =   -1947.15664936 Ry
     Harris-Foulkes estimate   =   -1947.15664935 Ry
     estimated scf accuracy    <       0.00000003 Ry

     The total energy is the sum of the following terms:

     one-electron contribution =   -8836.71008629 Ry
     hartree contribution      =    4403.70894504 Ry
     xc contribution           =    -933.72256676 Ry
     ewald contribution        =    3419.67060359 Ry
     electric field correction =       0.00000074 Ry
     smearing contrib. (-TS)   =      -0.10354568 Ry

     convergence has been achieved in   9 iterations

 BEEF-vdW xc energy contributions
           1 :   -844.221256584397
           2 :    784.703830267325
           3 :   -679.117395490634
           4 :    549.167205339651
           5 :   -417.438638517988
           6 :    301.053133950425
           7 :   -208.818244939553
           8 :    142.042625931880
           9 :   -97.5123002948657
          10 :    70.4675427573483
          11 :   -56.2365282848531
          12 :    50.4226806688858
          13 :   -48.5583102871526
          14 :    46.1723664628313
          15 :   -39.6356436804792
          16 :    27.3273879668822
          17 :   -10.3202008108716
          18 :   -8.01447610570551
          19 :    23.4075499620463
          20 :   -32.4515841047206
          21 :    33.8569981241927
          22 :   -28.6831937493490
          23 :    19.5954676769774
          24 :   -9.69522277839053
          25 :    1.54605824495718
          26 :    3.25623289601560
          27 :   -4.04921536551740
          28 :   0.914474516406585
          29 :    5.40441595441496
          30 :   -13.4788949523073
          31 :   -60.7927722512940
          32 :   -43.7284138240468

     Forces acting on atoms (Ry/au):

     negative rho (up, down):  1.374E+00 0.000E+00
     atom    1 type  1   force =     0.00432582    0.00249755    0.02537943
     atom    2 type  1   force =    -0.00432584    0.00249757    0.02537934
     atom    3 type  1   force =     0.00000001   -0.00499505    0.02537936
     atom    4 type  1   force =    -0.00000002   -0.00000003    0.01863124
     atom    5 type  1   force =     0.00000007    0.00625490   -0.02136893
     atom    6 type  1   force =    -0.00000016   -0.00000000   -0.02860455
     atom    7 type  1   force =    -0.00541694   -0.00312745   -0.02136895
     atom    8 type  1   force =     0.00541672   -0.00312732   -0.02136886
     atom    9 type  1   force =     0.00000056   -0.00000029   -0.00169540
     atom   10 type  1   force =    -0.00000036    0.00061199   -0.00001130
     atom   11 type  1   force =     0.00053026   -0.00030629   -0.00001172
     atom   12 type  1   force =    -0.00053035   -0.00030572   -0.00001132
     atom   13 type  2   force =     0.00000023    0.00000015   -0.00032835

     Total force =     0.002027     Total SCF correction =     0.000440
     SCF correction compared to forces is large: reduce conv_thr to get better values

     entering subroutine stress ...

     negative rho (up, down):  1.374E+00 0.000E+00
          total   stress  (Ry/bohr**3)                   (kbar)     P=  -11.96
  -0.00006995  -0.00000000   0.00000000        -10.29     -0.00      0.00
  -0.00000000  -0.00006995  -0.00000000         -0.00    -10.29     -0.00
   0.00000000  -0.00000000  -0.00010401          0.00     -0.00    -15.30

     bfgs converged in  20 scf cycles and  19 bfgs steps
     (criteria: energy <  1.0E+00, force <  1.9E-03)

     End of BFGS Geometry Optimization

     Final energy   =   -1947.1566493626 Ry
Begin final coordinates

ATOMIC_POSITIONS (crystal)
Hf1      0.166666667   0.166666667   0.396510335    0   0   0
Hf1      0.666666667   0.166666667   0.396510335    0   0   0
Hf1      0.166666667   0.666666667   0.396510335    0   0   0
Hf1      0.666666667   0.666666667   0.396510335    0   0   0
Hf1      0.833333333   0.333333333   0.500000000    0   0   0
Hf1      0.333333333   0.333333333   0.500000000    0   0   0
Hf1      0.833333333   0.833333333   0.500000000    0   0   0
Hf1      0.333333333   0.833333333   0.500000000    0   0   0
Hf1     -0.000000497   0.000000245   0.593612447
Hf1      0.507845760  -0.015691642   0.601860660
Hf1     -0.015692128   0.507846076   0.601860749
Hf1      0.507845825   0.507845706   0.601860675
N1       0.333332999   0.333333379   0.625483983
End final coordinates

     Writing output data file calc.save

     General routines

     Parallel routines

   This run was terminated on:  19:53:59   3May2018

   JOB DONE.
Job  /afs/slac/g/suncat/bin/suncat-tsmpirun -x LD_LIBRARY_PATH -wdir /scratch/qe777468_1bdqu pw.x -npool 4 -in pw.inp

TID   HOST_NAME   COMMAND_LINE            STATUS            TERMINATION_TIME
00000 suncat0037 pw.x -npool 4 -i  Done                     05/03/2018 19:53:59
00001 suncat0037 pw.x -npool 4 -i  Done                     05/03/2018 19:53:59
00002 suncat0037 pw.x -npool 4 -i  Done                     05/03/2018 19:53:59
00003 suncat0037 pw.x -npool 4 -i  Done                     05/03/2018 19:53:59
00004 suncat0037 pw.x -npool 4 -i  Done                     05/03/2018 19:53:59
00005 suncat0037 pw.x -npool 4 -i  Done                     05/03/2018 19:53:59
00006 suncat0037 pw.x -npool 4 -i  Done                     05/03/2018 19:53:59
00007 suncat0037 pw.x -npool 4 -i  Done                     05/03/2018 19:53:59
00008 suncat0025 pw.x -npool 4 -i  Done                     05/03/2018 19:53:59
00009 suncat0025 pw.x -npool 4 -i  Done                     05/03/2018 19:53:59
00010 suncat0025 pw.x -npool 4 -i  Done                     05/03/2018 19:53:59
00011 suncat0025 pw.x -npool 4 -i  Done                     05/03/2018 19:53:59
00012 suncat0025 pw.x -npool 4 -i  Done                     05/03/2018 19:53:59
00013 suncat0025 pw.x -npool 4 -i  Done                     05/03/2018 19:53:59
00014 suncat0025 pw.x -npool 4 -i  Done                     05/03/2018 19:53:59
00015 suncat0025 pw.x -npool 4 -i  Done                     05/03/2018 19:53:59
00016 suncat0199 pw.x -npool 4 -i  Done                     05/03/2018 19:53:59
00017 suncat0199 pw.x -npool 4 -i  Done                     05/03/2018 19:53:59
00018 suncat0199 pw.x -npool 4 -i  Done                     05/03/2018 19:53:59
00019 suncat0199 pw.x -npool 4 -i  Done                     05/03/2018 19:53:59
00020 suncat0199 pw.x -npool 4 -i  Done                     05/03/2018 19:53:59
00021 suncat0199 pw.x -npool 4 -i  Done                     05/03/2018 19:53:59
00022 suncat0199 pw.x -npool 4 -i  Done                     05/03/2018 19:53:59
00023 suncat0199 pw.x -npool 4 -i  Done                     05/03/2018 19:53:59
00024 suncat0162 pw.x -npool 4 -i  Done                     05/03/2018 19:53:59
00025 suncat0162 pw.x -npool 4 -i  Done                     05/03/2018 19:53:59
00026 suncat0162 pw.x -npool 4 -i  Done                     05/03/2018 19:53:59
00027 suncat0162 pw.x -npool 4 -i  Done                     05/03/2018 19:53:59
00028 suncat0162 pw.x -npool 4 -i  Done                     05/03/2018 19:53:59
00029 suncat0162 pw.x -npool 4 -i  Done                     05/03/2018 19:53:59
00030 suncat0162 pw.x -npool 4 -i  Done                     05/03/2018 19:53:59
00031 suncat0162 pw.x -npool 4 -i  Done                     05/03/2018 19:53:59