     Program PWSCF v.5.1rc2 (svn rev. 11289) starts on 22Apr2018 at 20:21:24

     Current dimensions of program PWSCF are:
     Max number of different atomic species (ntypx) = 10
     Max number of k-points (npk) =  40000
     Max angular momentum in pseudopotentials (lmaxx) =  3
     Presently stress not available with electric field

     IMPORTANT: XC functional enforced from input :
     Exchange-correlation      = BEEF-VDW ( 1  4 27 13 2)
     Any further DFT definition will be discarded
     Please, verify this is what you really want

     Subspace diagonalization in iterative solution of the eigenvalue problem:
     a serial algorithm will be used

     bravais-lattice index     =            0
     lattice parameter (alat)  =       1.8897  a.u.
     unit-cell volume          =    6116.8020 (a.u.)^3
     number of atoms/cell      =           14
     number of atomic types    =            3
     number of electrons       =       137.00
     number of Kohn-Sham states=           78
     kinetic-energy cutoff     =      36.7493  Ry
     charge density cutoff     =     367.4932  Ry
     convergence threshold     =      1.0E-05
     mixing beta               =       0.3000
     number of iterations used =           10  plain     mixing
     Exchange-correlation      = BEEF-VDW ( 1  4 27 13 2)
     nstep                     =           50

     celldm(1)=   1.889726  celldm(2)=   0.000000  celldm(3)=   0.000000
     celldm(4)=   0.000000  celldm(5)=   0.000000  celldm(6)=   0.000000

     crystal axes: (cart. coord. in units of alat)
               a(1) = (   6.437465   0.000000   0.000000 )
               a(2) = (   3.218732   5.575008   0.000000 )
               a(3) = (   0.000000   0.000000  25.256168 )

     reciprocal axes: (cart. coord. in units 2 pi/alat)
               b(1) = (  0.155341 -0.089686  0.000000 )
               b(2) = (  0.000000  0.179372  0.000000 )
               b(3) = (  0.000000  0.000000  0.039594 )

     PseudoPot. # 1 for Sc read from file:
     /u/if/mamunm/psp/gbrv1.5pbe/Sc.UPF
     MD5 check sum: db30a2753ba66ef00f23801d899b7e7f
     Pseudo is Ultrasoft + core correction, Zval = 11.0
     Generated by new atomic code, or converted to UPF format
     Using radial grid of  849 points,  6 beta functions with:
                l(1) =   0
                l(2) =   0
                l(3) =   1
                l(4) =   1
                l(5) =   2
                l(6) =   2
     Q(r) pseudized with  6 coefficients,  rinner =    1.200   1.200   1.200
                                                       1.200   1.200

     PseudoPot. # 2 for C  read from file:
     /u/if/mamunm/psp/gbrv1.5pbe/C.UPF
     MD5 check sum: d1aef80898a10debaa0f26306b886e00
     Pseudo is Ultrasoft + core correction, Zval =  4.0
     Generated by new atomic code, or converted to UPF format
     Using radial grid of  721 points,  4 beta functions with:
                l(1) =   0
                l(2) =   0
                l(3) =   1
                l(4) =   1
     Q(r) pseudized with  8 coefficients,  rinner =    1.100   1.100   1.100

     PseudoPot. # 3 for H  read from file:
     /u/if/mamunm/psp/gbrv1.5pbe/H.UPF
     MD5 check sum: 761ae9a214b05c3daf00ab9f6b793d6f
     Pseudo is Ultrasoft, Zval =  1.0
     Generated by new atomic code, or converted to UPF format
     Using radial grid of  615 points,  2 beta functions with:
                l(1) =   0
                l(2) =   0
     Q(r) pseudized with  8 coefficients,  rinner =    0.700

     vdW kernel table read from file vdW_kernel_table
     MD5 check sum: 095c7af220d748ca6e76c0b4c6cfb241

     atomic species   valence    mass     pseudopotential
        Sc1           11.00    44.95591     Sc( 1.00)
        C1             4.00    12.01100     C ( 1.00)
        H1             1.00     1.00800     H ( 1.00)

     No symmetry found

   Cartesian axes

     site n.     atom                  positions (alat units)
         1           Sc1 tau(   1) = (   1.6093662   0.9291680  10.0000000  )
         2           Sc1 tau(   2) = (   4.8280986   0.9291680  10.0000000  )
         3           Sc1 tau(   3) = (   3.2187324   3.7166720  10.0000000  )
         4           Sc1 tau(   4) = (   6.4374648   3.7166720  10.0000000  )
         5           Sc1 tau(   5) = (   6.4374648   1.8583360  12.6280840  )
         6           Sc1 tau(   6) = (   3.2187324   1.8583360  12.6280840  )
         7           Sc1 tau(   7) = (   8.0468310   4.6458400  12.6280840  )
         8           Sc1 tau(   8) = (   4.8280986   4.6458400  12.6280840  )
         9           Sc1 tau(   9) = (   0.0000000   0.0000000  15.2561680  )
        10           Sc1 tau(  10) = (   3.2187324   0.0000000  15.2561680  )
        11           Sc1 tau(  11) = (   1.6093662   2.7875040  15.2561680  )
        12           Sc1 tau(  12) = (   4.8280986   2.7875040  15.2561680  )
        13           C1  tau(  13) = (   0.0000000   0.0000000  17.3471680  )
        14           H1  tau(  14) = (   0.0000000   0.0000000  18.4471680  )

     number of k points=    20  Fermi-Dirac smearing, width (Ry)=  0.0110
                       cart. coord. in units 2pi/alat
        k(    1) = (   0.0000000   0.0000000   0.0000000), wk =   0.0555556
        k(    2) = (   0.0000000   0.0298953   0.0000000), wk =   0.1111111
        k(    3) = (   0.0000000   0.0597906   0.0000000), wk =   0.1111111
        k(    4) = (   0.0000000  -0.0896860   0.0000000), wk =   0.0555556
        k(    5) = (   0.0258901  -0.0149477   0.0000000), wk =   0.1111111
        k(    6) = (   0.0258901   0.0149477   0.0000000), wk =   0.1111111
        k(    7) = (   0.0258901   0.0448430   0.0000000), wk =   0.1111111
        k(    8) = (   0.0258901  -0.1046336   0.0000000), wk =   0.1111111
        k(    9) = (   0.0258901  -0.0747383   0.0000000), wk =   0.1111111
        k(   10) = (   0.0258901  -0.0448430   0.0000000), wk =   0.1111111
        k(   11) = (   0.0517802  -0.0298953   0.0000000), wk =   0.1111111
        k(   12) = (   0.0517802   0.0000000   0.0000000), wk =   0.1111111
        k(   13) = (   0.0517802   0.0298953   0.0000000), wk =   0.1111111
        k(   14) = (   0.0517802  -0.1195813   0.0000000), wk =   0.1111111
        k(   15) = (   0.0517802  -0.0896860   0.0000000), wk =   0.1111111
        k(   16) = (   0.0517802  -0.0597906   0.0000000), wk =   0.1111111
        k(   17) = (  -0.0776703   0.0448430   0.0000000), wk =   0.0555556
        k(   18) = (  -0.0776703   0.0747383   0.0000000), wk =   0.1111111
        k(   19) = (  -0.0776703   0.1046336   0.0000000), wk =   0.1111111
        k(   20) = (  -0.0776703  -0.0448430   0.0000000), wk =   0.0555556

     Largest allocated arrays     est. size (Mb)     dimensions
     Largest temporary arrays     est. size (Mb)     dimensions

     Initial potential from superposition of free atoms
     Check: negative starting charge=   -0.000249

     starting charge  136.97112, renormalised to  137.00000

     negative rho (up, down):  2.487E-04 0.000E+00

     *
     * You are using vdW-DF for exchange-correlation in this calculation.
     * Please cite the following three references that made this development
     * possible:
     *
     *   M. Dion, H. Rydberg, E. Schroder, D. C. Langreth, and
     *   B. I. Lundqvist, Phys. Rev. Lett. 92, 246401 (2004).
     *
     *   T. Thonhauser, V. R. Cooper, S. Li, A. Puzder, P. Hyldgaard, and
     *   D. C. Langreth, Phys. Rev. B 76, 125112 (2007).
     *
     *   G. Roman-Perez and J. M. Soler, Phys. Rev. Lett. 103, 096102 (2009).
     *
     *
     * If you are using vdW-DF2, please also cite:
     *
     *   K. Lee, E. D. Murray, L. Kong, B. I. Lundqvist, and
     *   D. C. Langreth, Phys. Rev. B 82, 081101(R) (2010).
     *
     *
     * If you are calculating the stress with vdW-DF, please also cite:
     *
     *   R. Sabatini, E. Kucukbenli, B. Kolb, T. Thonhauser, and
     *   S. de Gironcoli, J. Phys.: Condens. Matter 24, 424209 (2012).
     *

     Carrying out vdW-DF run using the following parameters:

     Nqs =      20    Nr_points =    1024   r_max =   100.000
     q_mesh =
               0.00001000     0.04494208     0.09755937     0.15916263
               0.23128650     0.31572767     0.41458969     0.53033537
               0.66584808     0.82450364     1.01025438     1.22772762
               1.48234092     1.78043706     2.12944203     2.53805004
               3.01644009     3.57652955     4.23227104     5.00000000

     Gradients computed in reciprocal space

     Adding external electric field

     Computed dipole along edir(3) :
        Dipole               -0.0094 Ry au,         -0.0238 Debye
        Dipole field         -0.0000 Ry au

        Potential amp.        0.0018 Ry
        Total length         46.5341 bohr

     Starting wfc are  161 randomized atomic wfcs

     Self-consistent Calculation

     iteration #  1     ecut=    36.75 Ry     beta=0.30
     Davidson diagonalization with overlap
     ethr =  1.00E-02,  avg # of iterations =  2.0

[...]

     total energy              =   -1147.27939932 Ry
     Harris-Foulkes estimate   =   -1150.84614882 Ry
     estimated scf accuracy    <       7.68492318 Ry

[...]

     End of self-consistent calculation

          k = 0.0000 0.0000 0.0000 ( 23031 PWs)   bands (ev):

   -49.8211 -49.7866 -49.7865 -49.7426 -49.6974 -49.6969 -49.6957 -49.2861
   -49.2432 -49.2431 -49.2348 -48.7277 -28.5206 -28.5119 -28.4764 -28.4763
   -28.4574 -28.4571 -28.4524 -28.4406 -28.4406 -28.4187 -28.3640 -28.3635
   -28.3616 -28.2755 -28.2094 -28.2093 -28.1972 -28.1946 -28.1944 -28.1168
   -28.1168 -28.0340 -28.0061 -28.0060 -27.8583 -27.8286 -27.8284 -27.8227
   -27.7744 -27.7744 -27.7661 -27.6928 -27.6928 -27.4111 -27.4111 -27.1797
    -9.6634  -4.5472  -3.5799  -2.8227  -2.0097  -1.2778  -1.2778  -1.2597
    -1.1461  -1.1460  -1.1223  -0.8319  -0.8319  -0.7822  -0.3982  -0.3982
    -0.3314  -0.2945  -0.2945  -0.0833   0.1665   0.1665   0.3038   0.7218
     0.8288   0.8367   0.8368   0.9433   1.2607   1.3371

[...]

          k =-0.0777 0.0448 0.0000 ( 23032 PWs)   bands (ev):

[...]

     the Fermi energy is     0.2117 ev

!    total energy              =   -1150.28501753 Ry
     Harris-Foulkes estimate   =   -1150.28501005 Ry
     estimated scf accuracy    <       0.00000134 Ry

     The total energy is the sum of the following terms:

     one-electron contribution =   -7249.03383365 Ry
     hartree contribution      =    3607.53308888 Ry
     xc contribution           =    -170.64668287 Ry
     ewald contribution        =    2661.99310173 Ry
     electric field correction =       0.00022644 Ry
     smearing contrib. (-TS)   =      -0.13091808 Ry

     convergence has been achieved in  19 iterations

 BEEF-vdW xc energy contributions
           1 :   -144.558312831098
           2 :    127.153004905297
           3 :   -100.070199156851
           4 :    73.7936826949462
           5 :   -55.6340800115269
           6 :    46.8276827776751
           7 :   -43.8415949187475
           8 :    42.0724094037276
           9 :   -38.9787634620714
          10 :    34.8140141101626
          11 :   -31.2102670411214
          12 :    29.2384308133669
          13 :   -28.5154471067260
          14 :    27.7844820002508
          15 :   -26.1684004387864
          16 :    23.8965832888067
          17 :   -21.9411985579901
          18 :    21.0243617471017
          19 :   -20.9658108948554
          20 :    20.9183355983008
          21 :   -20.1760007960307
          22 :    18.7706771100184
          23 :   -17.3568450355299
          24 :    16.5667887780849
          25 :   -16.4586311905695
          26 :    16.5268865567490
          27 :   -16.2069981439310
          28 :    15.3788786674594
          29 :   -14.4233075932366
          30 :    13.8240591819901
          31 :   -17.1317724910884
          32 :   -12.2708029584275

     Forces acting on atoms (Ry/au):

     negative rho (up, down):  1.855E-04 0.000E+00
     atom    1 type  1   force =    -0.00047286   -0.00026589    0.00246146
     atom    2 type  1   force =     0.00047622   -0.00026829    0.00243220
     atom    3 type  1   force =     0.00000133    0.00054648    0.00242050
     atom    4 type  1   force =    -0.00000238   -0.00000863    0.00290917
     atom    5 type  1   force =    -0.00003476    0.00726618   -0.00308929
     atom    6 type  1   force =     0.00003040    0.00002774    0.00649309
     atom    7 type  1   force =    -0.00625298   -0.00362323   -0.00313532
     atom    8 type  1   force =     0.00626041   -0.00367014   -0.00310414
     atom    9 type  1   force =    -0.00000148    0.00000304    0.01675917
     atom   10 type  1   force =    -0.00000108    0.00093150    0.01343467
     atom   11 type  1   force =     0.00080363   -0.00047185    0.01343646
     atom   12 type  1   force =    -0.00080583   -0.00046722    0.01345584
     atom   13 type  2   force =     0.00000048    0.00000098   -0.06179938
     atom   14 type  3   force =    -0.00000109   -0.00000069   -0.00267444

     Total force =     0.068205     Total SCF correction =     0.002326

     entering subroutine stress ...

     negative rho (up, down):  1.855E-04 0.000E+00
          total   stress  (Ry/bohr**3)                   (kbar)     P=   -2.50
   0.00000593  -0.00000000  -0.00000000          0.87     -0.00     -0.00
  -0.00000000   0.00000594   0.00000000         -0.00      0.87      0.00
  -0.00000000   0.00000000  -0.00006290         -0.00      0.00     -9.25

     BFGS Geometry Optimization

     number of scf cycles    =   1
     number of bfgs steps    =   0

     energy   new            =   -1150.2850175302 Ry

     new trust radius        =       0.0617993848 bohr
     new conv_thr            =       0.0000099958 Ry

ATOMIC_POSITIONS (crystal)
Sc1      0.166666667   0.166666667   0.395942884    0   0   0
Sc1      0.666666667   0.166666667   0.395942884    0   0   0
Sc1      0.166666667   0.666666667   0.395942884    0   0   0
Sc1      0.666666667   0.666666667   0.395942884    0   0   0
Sc1      0.833333333   0.333333333   0.500000000    0   0   0
Sc1      0.333333333   0.333333333   0.500000000    0   0   0
Sc1      0.833333333   0.833333333   0.500000000    0   0   0
Sc1      0.333333333   0.833333333   0.500000000    0   0   0
Sc1     -0.000000266   0.000000289   0.604408260
Sc1      0.499955702   0.000088418   0.604338604
Sc1      0.000088455   0.499955212   0.604338642
Sc1      0.499955932   0.499955652   0.604339048
C1      -0.000000007   0.000000093   0.685553928
H1      -0.000000057  -0.000000065   0.730346454

     Writing output data file calc.save
     Check: negative starting charge=   -0.000249
     NEW-OLD atomic charge density approx. for the potential
     Check: negative starting charge=   -0.000245

[...]

     energy   old            =   -1150.2850175302 Ry
     energy   new            =   -1150.2878679383 Ry

     CASE: energy  _new < energy  _old

[...]

     Threshold (ethr) on eigenvalues was too large:
     Diagonalizing with lowered threshold

     Davidson diagonalization with overlap
     ethr =  7.56E-08,  avg # of iterations =  8.3

[...]

     iteration # 11     ecut=    36.75 Ry     beta=0.30
     Davidson diagonalization with overlap
     c_bands:  1 eigenvalues not converged
     ethr =  3.16E-10,  avg # of iterations = 10.5

[...]

     iteration #  9     ecut=    36.75 Ry     beta=0.30
     Davidson diagonalization with overlap
     c_bands:  1 eigenvalues not converged
     ethr =  7.35E-10,  avg # of iterations = 10.1

[...]

     Total force =     0.003800     Total SCF correction =     0.000171

[...]

     number of scf cycles    =  16
     number of bfgs steps    =  15

     energy   old            =   -1150.3144012939 Ry
     energy   new            =   -1150.3144315368 Ry

     CASE: energy  _new < energy  _old

     new trust radius        =       0.0119195391 bohr
     new conv_thr            =       0.0000001000 Ry

ATOMIC_POSITIONS (crystal)
Sc1      0.166666667   0.166666667   0.395942884    0   0   0
Sc1      0.666666667   0.166666667   0.395942884    0   0   0
Sc1      0.166666667   0.666666667   0.395942884    0   0   0
Sc1      0.666666667   0.666666667   0.395942884    0   0   0
Sc1      0.833333333   0.333333333   0.500000000    0   0   0
Sc1      0.333333333   0.333333333   0.500000000    0   0   0
Sc1      0.833333333   0.833333333   0.500000000    0   0   0
Sc1      0.333333333   0.833333333   0.500000000    0   0   0
Sc1      0.000012475   0.000002436   0.592559264
Sc1      0.501191369  -0.002383349   0.612330207
Sc1     -0.002380138   0.501188013   0.612329953
Sc1      0.501196402   0.501194113   0.612333490
C1      -0.000011420  -0.000004007   0.670942265
H1      -0.000007726  -0.000001597   0.714408863

     Writing output data file calc.save
     Check: negative starting charge=   -0.000258
     NEW-OLD atomic charge density approx. for the potential
     Check: negative starting charge=   -0.000258

[...]

     Self-consistent Calculation

[...]

     total energy              =   -1150.31446131 Ry
     Harris-Foulkes estimate   =   -1150.31446134 Ry
     estimated scf accuracy    <       0.00000021 Ry

     iteration # 11     ecut=    36.75 Ry     beta=0.30
     Davidson diagonalization with overlap
     ethr =  1.56E-10,  avg # of iterations =  5.8

[...]

     negative rho (up, down):  1.879E-04 0.000E+00

     Adding external electric field

     Computed dipole along edir(3) :
        Dipole               -0.0873 Ry au,         -0.2220 Debye
        Dipole field         -0.0002 Ry au

        Potential amp.        0.0167 Ry
        Total length         46.5341 bohr

     End of self-consistent calculation

[...]

          k = 0.0518-0.0598 0.0000 ( 23012 PWs)   bands (ev):

[...]

          k =-0.0777-0.0448 0.0000 ( 23032 PWs)   bands (ev):

   -49.7277 -49.7164 -49.7053 -49.4533 -49.4444 -49.4264 -49.4214 -49.1267
   -49.0287 -49.0159 -49.0054 -48.2215 -28.4144 -28.4012 -28.3886 -28.3453
   -28.2841 -28.2575 -28.2512 -28.1993 -28.1265 -28.1230 -28.1194 -28.1133
   -28.0972 -28.0900 -28.0854 -28.0229 -28.0171 -27.9914 -27.9906 -27.8909
   -27.8805 -27.7733 -27.7448 -27.7066 -27.7012 -27.6462 -27.6253 -27.6140
   -27.6113 -27.5957 -27.5887 -27.5328 -27.5039 -26.9176 -26.9095 -26.7850
    -9.5298  -3.3295  -2.9416  -2.6716  -2.0636  -1.6651  -1.0923  -1.0152
    -0.9881  -0.7405  -0.6211  -0.4027  -0.3934  -0.1963   0.2485   0.2506
     0.2831   0.2902   0.3976   0.4382   0.5236   0.5720   0.5962   0.6171
     0.6938   0.8266   0.8677   0.9465   1.0283   1.0309

     the Fermi energy is     0.4761 ev

!    total energy              =   -1150.31446131 Ry
     Harris-Foulkes estimate   =   -1150.31446125 Ry
     estimated scf accuracy    <       0.00000004 Ry

     The total energy is the sum of the following terms:

     one-electron contribution =   -7224.39854404 Ry
     hartree contribution      =    3596.13956527 Ry
     xc contribution           =    -170.67585314 Ry
     ewald contribution        =    2648.75063547 Ry
     electric field correction =       0.00001567 Ry
     smearing contrib. (-TS)   =      -0.13028054 Ry

     convergence has been achieved in  11 iterations

 BEEF-vdW xc energy contributions
           1 :   -144.585779688685
           2 :    127.185224971541
           3 :   -100.119486447467
           4 :    73.8738031547524
           5 :   -55.7322740261330
           6 :    46.8937351529784
           7 :   -43.8224623439585
           8 :    41.9599718659514
           9 :   -38.8243375499582
          10 :    34.6956294626423
          11 :   -31.1756420235580
          12 :    29.2661006138658
          13 :   -28.5297003303776
          14 :    27.7197249483056
          15 :   -26.0266512062370
          16 :    23.7390483238765
          17 :   -21.8231806615281
          18 :    20.9436678089124
          19 :   -20.8734489743940
          20 :    20.7728041577804
          21 :   -19.9843287069114
          22 :    18.5788976019885
          23 :   -17.2026483812078
          24 :    16.4395489295106
          25 :   -16.3054977153388
          26 :    16.3020247747490
          27 :   -15.9166657919506
          28 :    15.0756451295530
          29 :   -14.1546746356199
          30 :    13.5890292130678
          31 :   -17.1335859325609
          32 :   -12.2759802291999

     Forces acting on atoms (Ry/au):

     negative rho (up, down):  1.879E-04 0.000E+00
     atom    1 type  1   force =     0.00111129    0.00064348    0.00364690
     atom    2 type  1   force =    -0.00111107    0.00064444    0.00364749
     atom    3 type  1   force =     0.00000095   -0.00128547    0.00364654
     atom    4 type  1   force =    -0.00000104   -0.00000297    0.00645767
     atom    5 type  1   force =     0.00000002    0.01771583   -0.01220928
     atom    6 type  1   force =    -0.00000209    0.00000056    0.02219178
     atom    7 type  1   force =    -0.01533844   -0.00885684   -0.01221046
     atom    8 type  1   force =     0.01534200   -0.00885889   -0.01221075
     atom    9 type  1   force =    -0.00001468    0.00000016   -0.00164554
     atom   10 type  1   force =     0.00001323    0.00167160   -0.00071054
     atom   11 type  1   force =     0.00145124   -0.00082868   -0.00071271
     atom   12 type  1   force =    -0.00144919   -0.00084304   -0.00071671
     atom   13 type  2   force =     0.00000264    0.00000135   -0.00045467
     atom   14 type  3   force =    -0.00000484   -0.00000155    0.00128029

     Total force =     0.003805     Total SCF correction =     0.000426
     SCF correction compared to forces is large: reduce conv_thr to get better values

     entering subroutine stress ...

     negative rho (up, down):  1.879E-04 0.000E+00
          total   stress  (Ry/bohr**3)                   (kbar)     P=   -2.86
  -0.00001932  -0.00000000  -0.00000000         -2.84     -0.00     -0.00
  -0.00000000  -0.00001932   0.00000000         -0.00     -2.84      0.00
  -0.00000000   0.00000000  -0.00001959         -0.00      0.00     -2.88

     bfgs converged in  17 scf cycles and  16 bfgs steps
     (criteria: energy <  1.0E+00, force <  1.9E-03)

     End of BFGS Geometry Optimization

     Final energy   =   -1150.3144613095 Ry
Begin final coordinates

ATOMIC_POSITIONS (crystal)
Sc1      0.166666667   0.166666667   0.395942884    0   0   0
Sc1      0.666666667   0.166666667   0.395942884    0   0   0
Sc1      0.166666667   0.666666667   0.395942884    0   0   0
Sc1      0.666666667   0.666666667   0.395942884    0   0   0
Sc1      0.833333333   0.333333333   0.500000000    0   0   0
Sc1      0.333333333   0.333333333   0.500000000    0   0   0
Sc1      0.833333333   0.833333333   0.500000000    0   0   0
Sc1      0.333333333   0.833333333   0.500000000    0   0   0
Sc1      0.000012475   0.000002436   0.592559264
Sc1      0.501191369  -0.002383349   0.612330207
Sc1     -0.002380138   0.501188013   0.612329953
Sc1      0.501196402   0.501194113   0.612333490
C1      -0.000011420  -0.000004007   0.670942265
H1      -0.000007726  -0.000001597   0.714408863
End final coordinates

     Writing output data file calc.save

     General routines

     Parallel routines

   This run was terminated on:  22:51:38  22Apr2018

   JOB DONE.
Job  /afs/slac/g/suncat/bin/suncat-tsmpirun -x LD_LIBRARY_PATH -wdir /scratch/qe303526_6I4w2 pw.x -npool 4 -in pw.inp

TID   HOST_NAME   COMMAND_LINE            STATUS            TERMINATION_TIME
00000 suncat0100 pw.x -npool 4 -i  Done                     04/22/2018 22:51:38
00001 suncat0100 pw.x -npool 4 -i  Done                     04/22/2018 22:51:38
00002 suncat0100 pw.x -npool 4 -i  Done                     04/22/2018 22:51:38
00003 suncat0100 pw.x -npool 4 -i  Done                     04/22/2018 22:51:38
00004 suncat0100 pw.x -npool 4 -i  Done                     04/22/2018 22:51:38
00005 suncat0100 pw.x -npool 4 -i  Done                     04/22/2018 22:51:38
00006 suncat0100 pw.x -npool 4 -i  Done                     04/22/2018 22:51:38
00007 suncat0100 pw.x -npool 4 -i  Done                     04/22/2018 22:51:38
00008 suncat0277 pw.x -npool 4 -i  Done                     04/22/2018 22:51:38
00009 suncat0277 pw.x -npool 4 -i  Done                     04/22/2018 22:51:38
00010 suncat0277 pw.x -npool 4 -i  Done                     04/22/2018 22:51:38
00011 suncat0277 pw.x -npool 4 -i  Done                     04/22/2018 22:51:38
00012 suncat0277 pw.x -npool 4 -i  Done                     04/22/2018 22:51:38
00013 suncat0277 pw.x -npool 4 -i  Done                     04/22/2018 22:51:38
00014 suncat0277 pw.x -npool 4 -i  Done                     04/22/2018 22:51:38
00015 suncat0277 pw.x -npool 4 -i  Done                     04/22/2018 22:51:38
00016 suncat0235 pw.x -npool 4 -i  Done                     04/22/2018 22:51:38
00017 suncat0235 pw.x -npool 4 -i  Done                     04/22/2018 22:51:38
00018 suncat0235 pw.x -npool 4 -i  Done                     04/22/2018 22:51:38
00019 suncat0235 pw.x -npool 4 -i  Done                     04/22/2018 22:51:38
00020 suncat0235 pw.x -npool 4 -i  Done                     04/22/2018 22:51:38
00021 suncat0235 pw.x -npool 4 -i  Done                     04/22/2018 22:51:38
00022 suncat0235 pw.x -npool 4 -i  Done                     04/22/2018 22:51:38
00023 suncat0235 pw.x -npool 4 -i  Done                     04/22/2018 22:51:38
00024 suncat0222 pw.x -npool 4 -i  Done                     04/22/2018 22:51:38
00025 suncat0222 pw.x -npool 4 -i  Done                     04/22/2018 22:51:38
00026 suncat0222 pw.x -npool 4 -i  Done                     04/22/2018 22:51:38
00027 suncat0222 pw.x -npool 4 -i  Done                     04/22/2018 22:51:38
00028 suncat0222 pw.x -npool 4 -i  Done                     04/22/2018 22:51:38
00029 suncat0222 pw.x -npool 4 -i  Done                     04/22/2018 22:51:38
00030 suncat0222 pw.x -npool 4 -i  Done                     04/22/2018 22:51:38
00031 suncat0222 pw.x -npool 4 -i  Done                     04/22/2018 22:51:38