     Program PWSCF v.5.1rc2 (svn rev. 11289) starts on 19Jan2018 at 10: 6:20

     Current dimensions of program PWSCF are:
     Max number of different atomic species (ntypx) = 10
     Max number of k-points (npk) =  40000
     Max angular momentum in pseudopotentials (lmaxx) =  3
     Presently stress not available with electric field

     IMPORTANT: XC functional enforced from input :
     Exchange-correlation      = BEEF-VDW ( 1  4 27 13 2)
     Any further DFT definition will be discarded
     Please, verify this is what you really want

     Subspace diagonalization in iterative solution of the eigenvalue problem:
     a serial algorithm will be used

     bravais-lattice index     =            0
     lattice parameter (alat)  =       1.8897  a.u.
     unit-cell volume          =    4306.9643 (a.u.)^3
     number of atoms/cell      =           13
     number of atomic types    =            2
     number of electrons       =       186.00
     number of Kohn-Sham states=          103
     kinetic-energy cutoff     =      36.7493  Ry
     charge density cutoff     =     367.4932  Ry
     convergence threshold     =      1.0E-05
     mixing beta               =       0.3000
     number of iterations used =           10  plain     mixing
     Exchange-correlation      = BEEF-VDW ( 1  4 27 13 2)
     nstep                     =           50

     celldm(1)=   1.889726  celldm(2)=   0.000000  celldm(3)=   0.000000
     celldm(4)=   0.000000  celldm(5)=   0.000000  celldm(6)=   0.000000

     crystal axes: (cart. coord. in units of alat)
               a(1) = (   5.486772   0.000000   0.000000 )
               a(2) = (   2.743386   4.751684   0.000000 )
               a(3) = (   0.000000   0.000000  24.479931 )

     reciprocal axes: (cart. coord. in units 2 pi/alat)
               b(1) = (  0.182257 -0.105226  0.000000 )
               b(2) = (  0.000000  0.210452  0.000000 )
               b(3) = (  0.000000  0.000000  0.040850 )

     PseudoPot. # 1 for Re read from file:
     /afs/slac.stanford.edu/u/if/mamunm/psp/gbrv1.5pbe/Re.UPF
     MD5 check sum: 85f993410f3e006da9d71c142b4ad953
     Pseudo is Ultrasoft + core correction, Zval = 15.0
     Generated by new atomic code, or converted to UPF format
     Using radial grid of  981 points,  8 beta functions with:
                l(1) =   0
                l(2) =   0
                l(3) =   1
                l(4) =   1
                l(5) =   2
                l(6) =   2
                l(7) =   3
                l(8) =   3
     Q(r) pseudized with  8 coefficients,  rinner =    1.150   1.150   1.150
                                                       1.150   1.150   1.150
                                                       1.150

     PseudoPot. # 2 for S  read from file:
     /afs/slac.stanford.edu/u/if/mamunm/psp/gbrv1.5pbe/S.UPF
     MD5 check sum: 88d86576ff6df21479756cfb9bdac1df
     Pseudo is Ultrasoft + core correction, Zval =  6.0
     Generated by new atomic code, or converted to UPF format
     Using radial grid of  907 points,  6 beta functions with:
                l(1) =   0
                l(2) =   0
                l(3) =   1
                l(4) =   1
                l(5) =   2
                l(6) =   2
     Q(r) pseudized with  8 coefficients,  rinner =    1.300   1.300   1.300
                                                       1.300   1.300

     vdW kernel table read from file vdW_kernel_table
     MD5 check sum: 095c7af220d748ca6e76c0b4c6cfb241

     atomic species   valence    mass     pseudopotential
        Re1           15.00   186.20700     Re( 1.00)
        S1             6.00    32.06000     S ( 1.00)

     No symmetry found

   Cartesian axes

     site n.     atom                  positions (alat units)
         1           Re1 tau(   1) = (   1.3716930   0.7919474  10.0000000  )
         2           Re1 tau(   2) = (   4.1150791   0.7919474  10.0000000  )
         3           Re1 tau(   3) = (   2.7433861   3.1677894  10.0000000  )
         4           Re1 tau(   4) = (   5.4867722   3.1677894  10.0000000  )
         5           Re1 tau(   5) = (   5.4867722   1.5838947  12.2399654  )
         6           Re1 tau(   6) = (   2.7433861   1.5838947  12.2399654  )
         7           Re1 tau(   7) = (   6.8584652   3.9597368  12.2399654  )
         8           Re1 tau(   8) = (   4.1150791   3.9597368  12.2399654  )
         9           Re1 tau(   9) = (   0.0000000   0.0000000  14.4799307  )
        10           Re1 tau(  10) = (   2.7433861   0.0000000  14.4799307  )
        11           Re1 tau(  11) = (   1.3716930   2.3758421  14.4799307  )
        12           Re1 tau(  12) = (   4.1150791   2.3758421  14.4799307  )
        13           S1  tau(  13) = (   0.0000000   0.0000000  17.0399307  )

     number of k points=    20  Fermi-Dirac smearing, width (Ry)=  0.0110
                       cart. coord. in units 2pi/alat
        k(    1) = (   0.0000000   0.0000000   0.0000000), wk =   0.0555556
        k(    2) = (   0.0000000   0.0350753   0.0000000), wk =   0.1111111
        k(    3) = (   0.0000000   0.0701506   0.0000000), wk =   0.1111111
        k(    4) = (   0.0000000  -0.1052259   0.0000000), wk =   0.0555556
        k(    5) = (   0.0303761  -0.0175376   0.0000000), wk =   0.1111111
        k(    6) = (   0.0303761   0.0175376   0.0000000), wk =   0.1111111
        k(    7) = (   0.0303761   0.0526129   0.0000000), wk =   0.1111111
        k(    8) = (   0.0303761  -0.1227635   0.0000000), wk =   0.1111111
        k(    9) = (   0.0303761  -0.0876882   0.0000000), wk =   0.1111111
        k(   10) = (   0.0303761  -0.0526129   0.0000000), wk =   0.1111111
        k(   11) = (   0.0607522  -0.0350753   0.0000000), wk =   0.1111111
        k(   12) = (   0.0607522   0.0000000   0.0000000), wk =   0.1111111
        k(   13) = (   0.0607522   0.0350753   0.0000000), wk =   0.1111111
        k(   14) = (   0.0607522  -0.1403011   0.0000000), wk =   0.1111111
        k(   15) = (   0.0607522  -0.1052259   0.0000000), wk =   0.1111111
        k(   16) = (   0.0607522  -0.0701506   0.0000000), wk =   0.1111111
        k(   17) = (  -0.0911283   0.0526129   0.0000000), wk =   0.0555556
        k(   18) = (  -0.0911283   0.0876882   0.0000000), wk =   0.1111111
        k(   19) = (  -0.0911283   0.1227635   0.0000000), wk =   0.1111111
        k(   20) = (  -0.0911283  -0.0526129   0.0000000), wk =   0.0555556

     Largest allocated arrays     est. size (Mb)     dimensions
     Largest temporary arrays     est. size (Mb)     dimensions

     Initial potential from superposition of free atoms
     Check: negative starting charge=   -1.539530

     starting charge  179.99942, renormalised to  186.00000

     negative rho (up, down):  1.591E+00 0.000E+00

     *
     * You are using vdW-DF for exchange-correlation in this calculation.
     * Please cite the following three references that made this development
     * possible:
     *
     *   M. Dion, H. Rydberg, E. Schroder, D. C. Langreth, and
     *   B. I. Lundqvist, Phys. Rev. Lett. 92, 246401 (2004).
     *
     *   T. Thonhauser, V. R. Cooper, S. Li, A. Puzder, P. Hyldgaard, and
     *   D. C. Langreth, Phys. Rev. B 76, 125112 (2007).
     *
     *   G. Roman-Perez and J. M. Soler, Phys. Rev. Lett. 103, 096102 (2009).
     *
     *
     * If you are using vdW-DF2, please also cite:
     *
     *   K. Lee, E. D. Murray, L. Kong, B. I. Lundqvist, and
     *   D. C. Langreth, Phys. Rev. B 82, 081101(R) (2010).
     *
     *
     * If you are calculating the stress with vdW-DF, please also cite:
     *
     *   R. Sabatini, E. Kucukbenli, B. Kolb, T. Thonhauser, and
     *   S. de Gironcoli, J. Phys.: Condens. Matter 24, 424209 (2012).
     *

     Carrying out vdW-DF run using the following parameters:

     Nqs =      20    Nr_points =    1024   r_max =   100.000
     q_mesh =
               0.00001000     0.04494208     0.09755937     0.15916263
               0.23128650     0.31572767     0.41458969     0.53033537
               0.66584808     0.82450364     1.01025438     1.22772762
               1.48234092     1.78043706     2.12944203     2.53805004
               3.01644009     3.57652955     4.23227104     5.00000000

     Gradients computed in reciprocal space

     Adding external electric field

     Computed dipole along edir(3) :
        Dipole               -1.8140 Ry au,         -4.6106 Debye
        Dipole field         -0.0053 Ry au

        Potential amp.        0.4774 Ry
        Total length         45.1039 bohr

     Starting wfc are  160 randomized atomic wfcs

     Self-consistent Calculation

     iteration #  1     ecut=    36.75 Ry     beta=0.30
     Davidson diagonalization with overlap
     ethr =  1.00E-02,  avg # of iterations =  2.0

[...]

     total energy              =   -2282.04049248 Ry
     Harris-Foulkes estimate   =   -2330.05891781 Ry
     estimated scf accuracy    <      99.61670506 Ry

[...]

     iteration # 16     ecut=    36.75 Ry     beta=0.30
     Davidson diagonalization with overlap
     c_bands:  1 eigenvalues not converged
     ethr =  2.05E-06,  avg # of iterations =  5.2

[...]

     End of self-consistent calculation

          k = 0.0000 0.0000 0.0000 ( 16091 PWs)   bands (ev):

   -77.7748 -77.7430 -77.6847 -77.6534 -77.6533 -77.6208 -77.5918 -77.5511
   -77.5511 -77.5487 -77.5446 -77.5445 -40.0213 -40.0212 -39.9931 -39.9060
   -39.8393 -39.8393 -39.8093 -39.7123 -39.7123 -39.6784 -39.5015 -39.3990
   -39.3380 -39.3379 -39.3364 -39.3330 -39.3329 -39.2547 -39.2547 -39.2483
   -39.1492 -39.1236 -39.1236 -39.0465 -39.0457 -39.0456 -39.0036 -39.0036
   -39.0018 -38.9632 -38.9632 -38.9614 -38.8013 -38.8013 -38.7658 -38.7658
    -8.4651  -6.3314  -4.3858  -3.8344  -3.4441  -3.4441  -3.4262  -3.1321
    -3.1321  -3.1230  -2.4600  -2.4599  -2.4400  -2.2646  -2.2646  -2.2471
    -0.8023  -0.8023  -0.7017  -0.0014   0.2982   0.2982   0.3762   0.6372
     0.9061   1.0211   1.0211   1.4354   1.4354   1.4663   1.4663   1.5175
     1.5251   1.5251   1.7722   1.7722   1.7780   1.8484   1.8484   2.7192
     3.1094   3.3998   3.3998   3.5246   3.5662   3.5662   3.8248   4.0905
     4.0905   4.6436   4.6436   4.6445   4.8249   4.8249   4.9971

[...]

          k =-0.0911 0.0526 0.0000 ( 16164 PWs)   bands (ev):

[...]

     the Fermi energy is     2.8844 ev

!    total energy              =   -2330.24772106 Ry
     Harris-Foulkes estimate   =   -2330.24769118 Ry
     estimated scf accuracy    <       0.00000639 Ry

     The total energy is the sum of the following terms:

     one-electron contribution =  -18645.72656510 Ry
     hartree contribution      =    9309.87729717 Ry
     xc contribution           =    -657.94565559 Ry
     ewald contribution        =    7663.62067668 Ry
     electric field correction =       0.00022387 Ry
     smearing contrib. (-TS)   =      -0.07369808 Ry

     convergence has been achieved in  22 iterations

 BEEF-vdW xc energy contributions
           1 :   -584.699211685597
           2 :    543.227424858342
           3 :   -468.881840599015
           4 :    375.882990412379
           5 :   -279.831721078605
           6 :    193.762407656657
[...]

[...]

     Program PWSCF v.5.1rc2 (svn rev. 11289) starts on 19Jan2018 at 13: 2:53

[...]

     Program PWSCF v.5.1rc2 (svn rev. 11289) starts on 19Jan2018 at 13:20:58

     Current dimensions of program PWSCF are:
     Max number of different atomic species (ntypx) = 10
     Max number of k-points (npk) =  40000
     Max angular momentum in pseudopotentials (lmaxx) =  3
     Presently stress not available with electric field

     IMPORTANT: XC functional enforced from input :
     Exchange-correlation      = BEEF-VDW ( 1  4 27 13 2)
     Any further DFT definition will be discarded
     Please, verify this is what you really want

     Subspace diagonalization in iterative solution of the eigenvalue problem:
     a serial algorithm will be used

     bravais-lattice index     =            0
     lattice parameter (alat)  =       1.8897  a.u.
     unit-cell volume          =    4306.9643 (a.u.)^3
     number of atoms/cell      =           13
     number of atomic types    =            2
     number of electrons       =       186.00
     number of Kohn-Sham states=          103
     kinetic-energy cutoff     =      36.7493  Ry
     charge density cutoff     =     367.4932  Ry
     convergence threshold     =      1.0E-05
     mixing beta               =       0.3000
     number of iterations used =           10  plain     mixing
     Exchange-correlation      = BEEF-VDW ( 1  4 27 13 2)
     nstep                     =           50

     celldm(1)=   1.889726  celldm(2)=   0.000000  celldm(3)=   0.000000
     celldm(4)=   0.000000  celldm(5)=   0.000000  celldm(6)=   0.000000

     crystal axes: (cart. coord. in units of alat)
               a(1) = (   5.486772   0.000000   0.000000 )
               a(2) = (   2.743386   4.751684   0.000000 )
               a(3) = (   0.000000   0.000000  24.479931 )

     reciprocal axes: (cart. coord. in units 2 pi/alat)
               b(1) = (  0.182257 -0.105226  0.000000 )
               b(2) = (  0.000000  0.210452  0.000000 )
               b(3) = (  0.000000  0.000000  0.040850 )

     PseudoPot. # 1 for Re read from file:
     /afs/slac.stanford.edu/u/if/mamunm/psp/gbrv1.5pbe/Re.UPF
     MD5 check sum: 85f993410f3e006da9d71c142b4ad953
     Pseudo is Ultrasoft + core correction, Zval = 15.0
     Generated by new atomic code, or converted to UPF format
     Using radial grid of  981 points,  8 beta functions with:
                l(1) =   0
                l(2) =   0
                l(3) =   1
                l(4) =   1
                l(5) =   2
                l(6) =   2
                l(7) =   3
                l(8) =   3
     Q(r) pseudized with  8 coefficients,  rinner =    1.150   1.150   1.150
                                                       1.150   1.150   1.150
                                                       1.150

     PseudoPot. # 2 for S  read from file:
     /afs/slac.stanford.edu/u/if/mamunm/psp/gbrv1.5pbe/S.UPF
     MD5 check sum: 88d86576ff6df21479756cfb9bdac1df
     Pseudo is Ultrasoft + core correction, Zval =  6.0
     Generated by new atomic code, or converted to UPF format
     Using radial grid of  907 points,  6 beta functions with:
                l(1) =   0
                l(2) =   0
                l(3) =   1
                l(4) =   1
                l(5) =   2
                l(6) =   2
     Q(r) pseudized with  8 coefficients,  rinner =    1.300   1.300   1.300
                                                       1.300   1.300

     vdW kernel table read from file vdW_kernel_table
     MD5 check sum: 095c7af220d748ca6e76c0b4c6cfb241

     atomic species   valence    mass     pseudopotential
        Re1           15.00   186.20700     Re( 1.00)
        S1             6.00    32.06000     S ( 1.00)

     No symmetry found

   Cartesian axes

     site n.     atom                  positions (alat units)
         1           Re1 tau(   1) = (   1.3716930   0.7919474  10.0000000  )
         2           Re1 tau(   2) = (   4.1150791   0.7919474  10.0000000  )
         3           Re1 tau(   3) = (   2.7433861   3.1677894  10.0000000  )
         4           Re1 tau(   4) = (   5.4867722   3.1677894  10.0000000  )
         5           Re1 tau(   5) = (   5.4867722   1.5838947  12.2399654  )
         6           Re1 tau(   6) = (   2.7433861   1.5838947  12.2399654  )
         7           Re1 tau(   7) = (   6.8584652   3.9597368  12.2399654  )
         8           Re1 tau(   8) = (   4.1150791   3.9597368  12.2399654  )
         9           Re1 tau(   9) = (   2.7434778   4.7516369  14.9853466  )
        10           Re1 tau(  10) = (   5.4865804   4.7368147  14.3999323  )
        11           Re1 tau(  11) = (   6.8456224   2.3832432  14.3998919  )
        12           Re1 tau(  12) = (   4.1279531   2.3833244  14.3998475  )
        13           S1  tau(  13) = (   2.7434123   4.7516426  17.0969484  )

     number of k points=    20  Fermi-Dirac smearing, width (Ry)=  0.0110
                       cart. coord. in units 2pi/alat
        k(    1) = (   0.0000000   0.0000000   0.0000000), wk =   0.0555556
        k(    2) = (   0.0000000   0.0350753   0.0000000), wk =   0.1111111
        k(    3) = (   0.0000000   0.0701506   0.0000000), wk =   0.1111111
        k(    4) = (   0.0000000  -0.1052259   0.0000000), wk =   0.0555556
        k(    5) = (   0.0303761  -0.0175376   0.0000000), wk =   0.1111111
        k(    6) = (   0.0303761   0.0175376   0.0000000), wk =   0.1111111
        k(    7) = (   0.0303761   0.0526129   0.0000000), wk =   0.1111111
        k(    8) = (   0.0303761  -0.1227635   0.0000000), wk =   0.1111111
        k(    9) = (   0.0303761  -0.0876882   0.0000000), wk =   0.1111111
        k(   10) = (   0.0303761  -0.0526129   0.0000000), wk =   0.1111111
        k(   11) = (   0.0607522  -0.0350753   0.0000000), wk =   0.1111111
        k(   12) = (   0.0607522   0.0000000   0.0000000), wk =   0.1111111
        k(   13) = (   0.0607522   0.0350753   0.0000000), wk =   0.1111111
        k(   14) = (   0.0607522  -0.1403011   0.0000000), wk =   0.1111111
        k(   15) = (   0.0607522  -0.1052259   0.0000000), wk =   0.1111111
        k(   16) = (   0.0607522  -0.0701506   0.0000000), wk =   0.1111111
        k(   17) = (  -0.0911283   0.0526129   0.0000000), wk =   0.0555556
        k(   18) = (  -0.0911283   0.0876882   0.0000000), wk =   0.1111111
        k(   19) = (  -0.0911283   0.1227635   0.0000000), wk =   0.1111111
        k(   20) = (  -0.0911283  -0.0526129   0.0000000), wk =   0.0555556

     Largest allocated arrays     est. size (Mb)     dimensions
     Largest temporary arrays     est. size (Mb)     dimensions

     Initial potential from superposition of free atoms
     Check: negative starting charge=   -1.538542

     starting charge  179.99942, renormalised to  186.00000

[...]

     *
     * You are using vdW-DF for exchange-correlation in this calculation.
     * Please cite the following three references that made this development
     * possible:
     *
     *   M. Dion, H. Rydberg, E. Schroder, D. C. Langreth, and
     *   B. I. Lundqvist, Phys. Rev. Lett. 92, 246401 (2004).
     *
     *   T. Thonhauser, V. R. Cooper, S. Li, A. Puzder, P. Hyldgaard, and
     *   D. C. Langreth, Phys. Rev. B 76, 125112 (2007).
     *
     *   G. Roman-Perez and J. M. Soler, Phys. Rev. Lett. 103, 096102 (2009).
     *
     *
     * If you are using vdW-DF2, please also cite:
     *
     *   K. Lee, E. D. Murray, L. Kong, B. I. Lundqvist, and
     *   D. C. Langreth, Phys. Rev. B 82, 081101(R) (2010).
     *
     *
     * If you are calculating the stress with vdW-DF, please also cite:
     *
     *   R. Sabatini, E. Kucukbenli, B. Kolb, T. Thonhauser, and
     *   S. de Gironcoli, J. Phys.: Condens. Matter 24, 424209 (2012).
     *

     Carrying out vdW-DF run using the following parameters:

     Nqs =      20    Nr_points =    1024   r_max =   100.000
     q_mesh =
               0.00001000     0.04494208     0.09755937     0.15916263
               0.23128650     0.31572767     0.41458969     0.53033537
               0.66584808     0.82450364     1.01025438     1.22772762
               1.48234092     1.78043706     2.12944203     2.53805004
               3.01644009     3.57652955     4.23227104     5.00000000

     Gradients computed in reciprocal space

[...]

     Starting wfc are  160 randomized atomic wfcs

     Self-consistent Calculation

[...]

     iteration # 17     ecut=    36.75 Ry     beta=0.30
     Davidson diagonalization with overlap
     c_bands:  1 eigenvalues not converged
     c_bands:  1 eigenvalues not converged
     ethr =  1.66E-06,  avg # of iterations =  8.7

[...]

     total energy              =   -2330.32633103 Ry
     Harris-Foulkes estimate   =   -2330.32633260 Ry
     estimated scf accuracy    <       0.00001158 Ry

     iteration # 22     ecut=    36.75 Ry     beta=0.30
     Davidson diagonalization with overlap
     ethr =  6.22E-09,  avg # of iterations =  1.3

[...]

     negative rho (up, down):  1.617E+00 0.000E+00

     Adding external electric field

     Computed dipole along edir(3) :
        Dipole                0.0089 Ry au,          0.0227 Debye
        Dipole field          0.0000 Ry au

        Potential amp.       -0.0024 Ry
        Total length         45.1039 bohr

     End of self-consistent calculation

[...]

          k = 0.0608-0.0702 0.0000 ( 16218 PWs)   bands (ev):

[...]

          k =-0.0911-0.0526 0.0000 ( 16164 PWs)   bands (ev):

   -77.5631 -77.3531 -77.3408 -77.3101 -77.2718 -77.1946 -77.1826 -77.1735
   -77.1653 -77.1597 -77.1461 -77.0341 -39.5642 -39.4820 -39.4800 -39.4000
   -39.3231 -39.3134 -39.3064 -39.2315 -39.2224 -39.2014 -39.1388 -39.1204
   -39.1052 -39.0684 -38.9274 -38.9274 -38.8748 -38.8725 -38.8612 -38.8488
   -38.8340 -38.8213 -38.7992 -38.7723 -38.7634 -38.7593 -38.7567 -38.7216
   -38.6801 -38.6367 -38.6310 -38.6028 -38.5820 -38.4984 -38.4617 -38.4184
    -9.3628  -3.9416  -3.8358  -2.4210  -2.2602  -1.8751  -1.8207  -1.7644
    -1.7565  -1.6843  -1.5496  -1.0377  -1.0295  -0.8250  -0.6946  -0.6228
    -0.4772  -0.3115  -0.2964  -0.2497  -0.0895   0.1267   0.2707   0.2717
     0.4674   0.4761   0.7032   0.9797   1.0053   1.1040   1.2141   1.3668
     1.4408   1.4749   1.5736   1.6185   1.6421   1.8166   1.8752   2.0334
     2.1554   2.3494   2.9561   3.0699   3.2411   3.2797   3.4311   3.4701
     3.5848   3.8458   3.8697   4.1576   4.1950   4.3446   4.4211

     the Fermi energy is     3.2550 ev

!    total energy              =   -2330.32632877 Ry
     Harris-Foulkes estimate   =   -2330.32633190 Ry
     estimated scf accuracy    <       0.00000290 Ry

     The total energy is the sum of the following terms:

     one-electron contribution =  -18449.89436297 Ry
     hartree contribution      =    9214.00414587 Ry
     xc contribution           =    -658.06058713 Ry
     ewald contribution        =    7563.69328539 Ry
     electric field correction =       0.00000023 Ry
     smearing contrib. (-TS)   =      -0.06881015 Ry

     convergence has been achieved in  22 iterations

 BEEF-vdW xc energy contributions
           1 :   -584.810066838314
           2 :    543.320706983142
           3 :   -468.950832532601
           4 :    375.915789763469
           5 :   -279.807292962598
           6 :    193.668850082977
           7 :   -125.371849562369
           8 :    76.8897037864112
           9 :   -45.4230178485634
          10 :    25.6864106436301
          11 :   -12.3616540458097
          12 :    1.82597958085671
          13 :    7.27798904097324
          14 :   -14.5332584972698
          15 :    18.8317575970203
          16 :   -19.4767574088934
          17 :    16.8372743562061
          18 :   -12.3499842966182
          19 :    7.96439659984912
          20 :   -5.35226077481661
          21 :    5.26601273930123
          22 :   -7.32540356451068
          23 :    10.2928441256618
          24 :   -12.6809918328664
          25 :    13.4036818913844
          26 :   -12.1878711933236
          27 :    9.59312819220133
          28 :   -6.67320698254593
          29 :    4.46553147036741
          30 :   -3.55149211700700
          31 :   -48.8527600700356
          32 :   -36.1897181277347

     Forces acting on atoms (Ry/au):

     negative rho (up, down):  1.617E+00 0.000E+00
     atom    1 type  1   force =     0.00309001    0.00176456    0.02251548
     atom    2 type  1   force =    -0.00308481    0.00175681    0.02256726
     atom    3 type  1   force =    -0.00002623   -0.00354627    0.02258432
     atom    4 type  1   force =     0.00001034   -0.00000191    0.03080109
     atom    5 type  1   force =    -0.00005802    0.00614513   -0.01966679
     atom    6 type  1   force =     0.00003292    0.00003173   -0.03527921
     atom    7 type  1   force =    -0.00527290   -0.00305112   -0.01969506
     atom    8 type  1   force =     0.00525528   -0.00311682   -0.01969471
     atom    9 type  1   force =    -0.00009380   -0.00000482   -0.00158208
     atom   10 type  1   force =     0.00013767    0.00054660   -0.00116571
     atom   11 type  1   force =     0.00046400   -0.00018532   -0.00115161
     atom   12 type  1   force =    -0.00044845   -0.00033252   -0.00108986
     atom   13 type  2   force =    -0.00000599   -0.00000605    0.00085688

     Total force =     0.070995     Total SCF correction =     0.010085
     SCF correction compared to forces is large: reduce conv_thr to get better values

     entering subroutine stress ...

     negative rho (up, down):  1.617E+00 0.000E+00
          total   stress  (Ry/bohr**3)                   (kbar)     P=  -26.88
  -0.00021095   0.00000002   0.00000001        -31.03      0.00      0.00
   0.00000002  -0.00021097   0.00000001          0.00    -31.04      0.00
   0.00000001   0.00000001  -0.00012634          0.00      0.00    -18.59

 !ASE

     Writing output data file calc.save

     General routines

     Parallel routines

   This run was terminated on:  13:38:58  19Jan2018

   JOB DONE.
Job  /afs/slac/g/suncat/bin/suncat-tsmpirun -x LD_LIBRARY_PATH -wdir /scratch/qe891277_NjgCf pw.x -in pw.inp

TID   HOST_NAME   COMMAND_LINE            STATUS            TERMINATION_TIME
00000 suncat0217 pw.x -in pw.inp   Done                     01/19/2018 13:38:58
00001 suncat0217 pw.x -in pw.inp   Done                     01/19/2018 13:38:58
00002 suncat0217 pw.x -in pw.inp   Done                     01/19/2018 13:38:58
00003 suncat0217 pw.x -in pw.inp   Done                     01/19/2018 13:38:58
00004 suncat0217 pw.x -in pw.inp   Done                     01/19/2018 13:38:58
00005 suncat0217 pw.x -in pw.inp   Done                     01/19/2018 13:38:58
00006 suncat0217 pw.x -in pw.inp   Done                     01/19/2018 13:38:58
00007 suncat0217 pw.x -in pw.inp   Done                     01/19/2018 13:38:58
00008 suncat0216 pw.x -in pw.inp   Done                     01/19/2018 13:38:58
00009 suncat0216 pw.x -in pw.inp   Done                     01/19/2018 13:38:58
00010 suncat0216 pw.x -in pw.inp   Done                     01/19/2018 13:38:58
00011 suncat0216 pw.x -in pw.inp   Done                     01/19/2018 13:38:58
00012 suncat0216 pw.x -in pw.inp   Done                     01/19/2018 13:38:58
00013 suncat0216 pw.x -in pw.inp   Done                     01/19/2018 13:38:58
00014 suncat0216 pw.x -in pw.inp   Done                     01/19/2018 13:38:58
00015 suncat0216 pw.x -in pw.inp   Done                     01/19/2018 13:38:58
00016 suncat0215 pw.x -in pw.inp   Done                     01/19/2018 13:38:58
00017 suncat0215 pw.x -in pw.inp   Done                     01/19/2018 13:38:58
00018 suncat0215 pw.x -in pw.inp   Done                     01/19/2018 13:38:58
00019 suncat0215 pw.x -in pw.inp   Done                     01/19/2018 13:38:58
00020 suncat0215 pw.x -in pw.inp   Done                     01/19/2018 13:38:58
00021 suncat0215 pw.x -in pw.inp   Done                     01/19/2018 13:38:58
00022 suncat0215 pw.x -in pw.inp   Done                     01/19/2018 13:38:58
00023 suncat0215 pw.x -in pw.inp   Done                     01/19/2018 13:38:58
00024 suncat0213 pw.x -in pw.inp   Done                     01/19/2018 13:38:58
00025 suncat0213 pw.x -in pw.inp   Done                     01/19/2018 13:38:58
00026 suncat0213 pw.x -in pw.inp   Done                     01/19/2018 13:38:58
00027 suncat0213 pw.x -in pw.inp   Done                     01/19/2018 13:38:58
00028 suncat0213 pw.x -in pw.inp   Done                     01/19/2018 13:38:58
00029 suncat0213 pw.x -in pw.inp   Done                     01/19/2018 13:38:58
00030 suncat0213 pw.x -in pw.inp   Done                     01/19/2018 13:38:58
00031 suncat0213 pw.x -in pw.inp   Done                     01/19/2018 13:38:58