     Program PWSCF v.5.1rc2 (svn rev. 11289) starts on 17Jan2019 at  1:23:27

     Current dimensions of program PWSCF are:
     Max number of different atomic species (ntypx) = 10
     Max number of k-points (npk) =  40000
     Max angular momentum in pseudopotentials (lmaxx) =  3

     IMPORTANT: XC functional enforced from input :
     Exchange-correlation      = BEEF-VDW ( 1  4 27 13 2)
     Any further DFT definition will be discarded
     Please, verify this is what you really want

     Subspace diagonalization in iterative solution of the eigenvalue problem:
     a serial algorithm will be used

     bravais-lattice index     =            0
     lattice parameter (alat)  =      12.7122  a.u.
     unit-cell volume          =    6741.9071 (a.u.)^3
     number of atoms/cell      =           13
     number of atomic types    =            2
     number of electrons       =       173.00
     number of Kohn-Sham states=           96
     kinetic-energy cutoff     =      36.7493  Ry
     charge density cutoff     =     367.4933  Ry
     convergence threshold     =      1.0E-04
     mixing beta               =       0.2000
     number of iterations used =            8  plain     mixing
     Exchange-correlation      = BEEF-VDW ( 1  4 27 13 2)
     nstep                     =           50

     celldm(1)=  12.712175  celldm(2)=   0.000000  celldm(3)=   0.000000
     celldm(4)=   0.000000  celldm(5)=   0.000000  celldm(6)=   0.000000

     crystal axes: (cart. coord. in units of alat)
               a(1) = (   1.000000   0.000000   0.000000 )
               a(2) = (   0.500000   0.866025   0.000000 )
               a(3) = (   0.000000   0.000000   3.789593 )

     reciprocal axes: (cart. coord. in units 2 pi/alat)
               b(1) = (  1.000000 -0.577350  0.000000 )
               b(2) = (  0.000000  1.154701  0.000000 )
               b(3) = (  0.000000  0.000000  0.263881 )

     PseudoPot. # 1 for Sn read from file:
     /nfs/slac/g/suncatfs/mamunm/src/decaf-espresso/gbrv15pbe/Sn.UPF
     MD5 check sum: 469debedee59599fedebd795477fea03
     Pseudo is Ultrasoft + core correction, Zval = 14.0
     Generated by new atomic code, or converted to UPF format
     Using radial grid of  891 points,  6 beta functions with:
                l(1) =   0
                l(2) =   0
                l(3) =   1
                l(4) =   1
                l(5) =   2
                l(6) =   2
     Q(r) pseudized with  8 coefficients,  rinner =    1.350   1.350   1.350
                                                       1.350   1.350

     PseudoPot. # 2 for N  read from file:
     /nfs/slac/g/suncatfs/mamunm/src/decaf-espresso/gbrv15pbe/N.UPF
     MD5 check sum: 95339753478d7afb44899504a8723017
     Pseudo is Ultrasoft + core correction, Zval =  5.0
     Generated by new atomic code, or converted to UPF format
     Using radial grid of  729 points,  4 beta functions with:
                l(1) =   0
                l(2) =   0
                l(3) =   1
                l(4) =   1
     Q(r) pseudized with  8 coefficients,  rinner =    0.900   0.900   0.900

     vdW kernel table read from file vdW_kernel_table
     MD5 check sum: 095c7af220d748ca6e76c0b4c6cfb241

     atomic species   valence    mass     pseudopotential
        Sn            14.00   118.71000     Sn( 1.00)
        N              5.00    14.00700     N ( 1.00)

     No symmetry found

   Cartesian axes

     site n.     atom                  positions (alat units)
         1           Sn  tau(   1) = (   0.2500000   0.1443376   1.4865483  )
         2           Sn  tau(   2) = (   0.7500000   0.1443376   1.4865483  )
         3           Sn  tau(   3) = (   0.5000000   0.5773503   1.4865483  )
         4           Sn  tau(   4) = (   1.0000000   0.5773503   1.4865483  )
         5           Sn  tau(   5) = (   1.0000000   0.2886751   1.8947966  )
         6           Sn  tau(   6) = (   0.5000000   0.2886751   1.8947966  )
         7           Sn  tau(   7) = (   1.2500000   0.7216878   1.8947966  )
         8           Sn  tau(   8) = (   0.7500000   0.7216878   1.8947966  )
         9           Sn  tau(   9) = (  -0.0000014   0.0000004   2.2812533  )
        10           Sn  tau(  10) = (   0.4999987  -0.0034883   2.3514961  )
        11           Sn  tau(  11) = (   0.2469787   0.4347579   2.3514953  )
        12           Sn  tau(  12) = (   0.7530212   0.4347564   2.3514940  )
        13           N   tau(  13) = (   0.4999976   0.2886748   2.4677761  )

     number of k points=    20  Fermi-Dirac smearing, width (Ry)=  0.0110
                       cart. coord. in units 2pi/alat
        k(    1) = (   0.0000000   0.0000000   0.0000000), wk =   0.0555556
        k(    2) = (   0.0000000   0.1924501   0.0000000), wk =   0.1111111
        k(    3) = (   0.0000000   0.3849002   0.0000000), wk =   0.1111111
        k(    4) = (   0.0000000  -0.5773503   0.0000000), wk =   0.0555556
        k(    5) = (   0.1666667  -0.0962250   0.0000000), wk =   0.1111111
        k(    6) = (   0.1666667   0.0962250   0.0000000), wk =   0.1111111
        k(    7) = (   0.1666667   0.2886751   0.0000000), wk =   0.1111111
        k(    8) = (   0.1666667  -0.6735753   0.0000000), wk =   0.1111111
        k(    9) = (   0.1666667  -0.4811252   0.0000000), wk =   0.1111111
        k(   10) = (   0.1666667  -0.2886751   0.0000000), wk =   0.1111111
        k(   11) = (   0.3333333  -0.1924501   0.0000000), wk =   0.1111111
        k(   12) = (   0.3333333   0.0000000   0.0000000), wk =   0.1111111
        k(   13) = (   0.3333333   0.1924501   0.0000000), wk =   0.1111111
        k(   14) = (   0.3333333  -0.7698004   0.0000000), wk =   0.1111111
        k(   15) = (   0.3333333  -0.5773503   0.0000000), wk =   0.1111111
        k(   16) = (   0.3333333  -0.3849002   0.0000000), wk =   0.1111111
        k(   17) = (  -0.5000000   0.2886751   0.0000000), wk =   0.0555556
        k(   18) = (  -0.5000000   0.4811252   0.0000000), wk =   0.1111111
        k(   19) = (  -0.5000000   0.6735753   0.0000000), wk =   0.1111111
        k(   20) = (  -0.5000000  -0.2886751   0.0000000), wk =   0.0555556

     Largest allocated arrays     est. size (Mb)     dimensions
     Largest temporary arrays     est. size (Mb)     dimensions

     Initial potential from superposition of free atoms
     Check: negative starting charge=   -0.001529

     starting charge  160.99945, renormalised to  173.00000

     negative rho (up, down):  1.643E-03 0.000E+00

     *
     * You are using vdW-DF for exchange-correlation in this calculation.
     * Please cite the following three references that made this development
     * possible:
     *
     *   M. Dion, H. Rydberg, E. Schroder, D. C. Langreth, and
     *   B. I. Lundqvist, Phys. Rev. Lett. 92, 246401 (2004).
     *
     *   T. Thonhauser, V. R. Cooper, S. Li, A. Puzder, P. Hyldgaard, and
     *   D. C. Langreth, Phys. Rev. B 76, 125112 (2007).
     *
     *   G. Roman-Perez and J. M. Soler, Phys. Rev. Lett. 103, 096102 (2009).
     *
     *
     * If you are using vdW-DF2, please also cite:
     *
     *   K. Lee, E. D. Murray, L. Kong, B. I. Lundqvist, and
     *   D. C. Langreth, Phys. Rev. B 82, 081101(R) (2010).
     *
     *
     * If you are calculating the stress with vdW-DF, please also cite:
     *
     *   R. Sabatini, E. Kucukbenli, B. Kolb, T. Thonhauser, and
     *   S. de Gironcoli, J. Phys.: Condens. Matter 24, 424209 (2012).
     *

     Carrying out vdW-DF run using the following parameters:

     Nqs =      20    Nr_points =    1024   r_max =   100.000
     q_mesh =
               0.00001000     0.04494208     0.09755937     0.15916263
               0.23128650     0.31572767     0.41458969     0.53033537
               0.66584808     0.82450364     1.01025438     1.22772762
               1.48234092     1.78043706     2.12944203     2.53805004
               3.01644009     3.57652955     4.23227104     5.00000000

     Gradients computed in reciprocal space

     Adding external electric field

     Computed dipole along edir(3) :
        Dipole               -2.6657 Ry au,         -6.7757 Debye
        Dipole field         -0.0050 Ry au

        Potential amp.        0.4309 Ry
        Total length         43.3566 bohr

     Starting wfc are  112 randomized atomic wfcs

     Self-consistent Calculation

     iteration #  1     ecut=    36.75 Ry     beta=0.20
     Davidson diagonalization with overlap
     ethr =  1.00E-02,  avg # of iterations =  7.3

[...]

     total energy              =   -1930.35625802 Ry
     Harris-Foulkes estimate   =   -1954.58948860 Ry
     estimated scf accuracy    <      71.31137242 Ry

[...]

     End of self-consistent calculation

          k = 0.0000 0.0000 0.0000 ( 25377 PWs)   bands (ev):

   -21.3596 -21.3169 -21.3153 -21.3152 -21.2763 -21.2734 -21.2734 -21.2685
   -21.2661 -21.2661 -21.2629 -21.2624 -21.2556 -21.2556 -21.2554 -21.2554
   -21.2403 -21.2403 -21.2343 -21.2335 -21.2335 -21.2292 -21.2212 -21.2211
   -21.2210 -21.2140 -21.2140 -21.2046 -21.1867 -21.1859 -21.1859 -21.1786
   -21.1786 -21.1542 -21.1541 -21.1443 -21.1384 -21.1383 -21.1337 -21.1300
   -21.1300 -21.1214 -21.1214 -21.1163 -21.1163 -21.1154 -21.1124 -21.1124
   -21.1038 -21.0924 -21.0881 -21.0881 -21.0817 -21.0817 -21.0486 -21.0405
   -21.0404 -21.0368 -21.0051 -21.0051 -13.5941  -9.7953  -8.2651  -6.7797
    -6.0470  -6.0470  -5.7785  -5.7784  -5.7565  -5.3071  -4.8861  -4.8861
    -4.4645  -3.1565  -3.1565  -3.0020  -2.6155  -2.5190  -2.5190  -2.0270
    -1.8795  -1.8795  -1.7594  -0.2052  -0.2052   0.5166   1.1776   1.5751
     1.5752   1.7995   2.2603   2.2603   2.8438   3.3130   3.5310   3.5330

[...]

          k =-0.5000 0.2887 0.0000 ( 25386 PWs)   bands (ev):

[...]

     the Fermi energy is     0.7683 ev

!    total energy              =   -1948.53603956 Ry
     Harris-Foulkes estimate   =   -1948.53609909 Ry
     estimated scf accuracy    <       0.00006196 Ry

     The total energy is the sum of the following terms:

     one-electron contribution =  -10407.69463295 Ry
     hartree contribution      =    5269.09936511 Ry
     xc contribution           =    -539.41209342 Ry
     ewald contribution        =    3729.51797627 Ry
     electric field correction =       0.00001165 Ry
     smearing contrib. (-TS)   =      -0.04666623 Ry

     convergence has been achieved in  13 iterations

     Forces acting on atoms (Ry/au):

     negative rho (up, down):  7.220E-04 0.000E+00
     atom    1 type  1   force =     0.00584291    0.00334777    0.00637391
     atom    2 type  1   force =    -0.00587288    0.00334522    0.00641502
     atom    3 type  1   force =    -0.00001074   -0.00676149    0.00639597
     atom    4 type  1   force =    -0.00001488    0.00005945    0.00054981
     atom    5 type  1   force =     0.00002127    0.00105954    0.00027867
     atom    6 type  1   force =     0.00001638    0.00000966   -0.01067295
     atom    7 type  1   force =    -0.00090716   -0.00053885    0.00028774
     atom    8 type  1   force =     0.00087464   -0.00050809    0.00029764
     atom    9 type  1   force =    -0.00000132    0.00000851   -0.00328040
     atom   10 type  1   force =     0.00002441    0.00265152   -0.00094817
     atom   11 type  1   force =     0.00232495   -0.00133146   -0.00094166
     atom   12 type  1   force =    -0.00231031   -0.00133919   -0.00097819
     atom   13 type  2   force =     0.00001273   -0.00000259   -0.00377739

     Total force =     0.007008     Total SCF correction =     0.003438
     SCF correction compared to forces is large: reduce conv_thr to get better values

     BFGS Geometry Optimization

     number of scf cycles    =   1
     number of bfgs steps    =   0

     energy   new            =   -1948.5360395621 Ry

     new trust radius        =       0.0037774079 bohr
     new conv_thr            =       0.0001000000 Ry

ATOMIC_POSITIONS (angstrom)
Sn       1.681748263   0.970957812  10.000000000    0   0   0
Sn       5.045244789   0.970957812  10.000000000    0   0   0
Sn       3.363496526   3.883831250  10.000000000    0   0   0
Sn       6.726993052   3.883831250  10.000000000    0   0   0
Sn       6.726993052   1.941915625  12.746283414    0   0   0
Sn       3.363496526   1.941915625  12.746283414    0   0   0
Sn       8.408741315   4.854789062  12.746283414    0   0   0
Sn       5.045244789   4.854789062  12.746283414    0   0   0
Sn      -0.000010216   0.000007015  15.344239469
Sn       3.363500448  -0.022062699  15.817996049
Sn       1.662654371   2.923908751  15.817994267
Sn       5.064345933   2.923894734  15.817966191
N        3.363487154   1.941912203  16.598713705

     Writing output data file calc.save
     Check: negative starting charge=   -0.001529
     NEW-OLD atomic charge density approx. for the potential
     Check: negative starting charge=   -0.001529

[...]

     Self-consistent Calculation

[...]

     total energy              =   -1948.53606502 Ry
     Harris-Foulkes estimate   =   -1948.53611854 Ry
     estimated scf accuracy    <       0.00032268 Ry

     iteration #  4     ecut=    36.75 Ry     beta=0.20
     Davidson diagonalization with overlap
     ethr =  1.87E-07,  avg # of iterations =  3.1

     negative rho (up, down):  7.255E-04 0.000E+00

     Adding external electric field

     Computed dipole along edir(3) :
        Dipole               -0.1186 Ry au,         -0.3014 Debye
        Dipole field         -0.0002 Ry au

        Potential amp.        0.0192 Ry
        Total length         43.3566 bohr

     End of self-consistent calculation

[...]

          k = 0.3333-0.3849 0.0000 ( 25368 PWs)   bands (ev):

[...]

          k =-0.5000-0.2887 0.0000 ( 25386 PWs)   bands (ev):

   -21.3491 -21.3136 -21.3094 -21.2899 -21.2890 -21.2856 -21.2830 -21.2826
   -21.2806 -21.2788 -21.2755 -21.2716 -21.2668 -21.2641 -21.2623 -21.2597
   -21.2552 -21.2524 -21.2522 -21.2477 -21.2416 -21.2387 -21.2374 -21.2365
   -21.2360 -21.2297 -21.2279 -21.2183 -21.2117 -21.2083 -21.2069 -21.2057
   -21.2035 -21.2022 -21.1951 -21.1936 -21.1922 -21.1890 -21.1876 -21.1817
   -21.1798 -21.1766 -21.1744 -21.1705 -21.1679 -21.1665 -21.1657 -21.1601
   -21.1555 -21.1503 -21.1495 -21.1426 -21.1348 -21.1330 -21.0931 -21.0899
   -21.0784 -21.0769 -21.0658 -21.0576 -13.6091  -8.8160  -8.6235  -7.7390
    -7.1216  -6.6319  -6.4915  -6.2808  -6.0546  -5.7135  -4.9127  -4.6377
    -4.1876  -2.9860  -1.8312  -1.7613  -1.4244  -1.2987  -1.1998  -1.1084
    -0.9984  -0.6946  -0.2421  -0.0344   0.4963   0.6951   0.7664   1.1065
     1.1421   1.2793   1.4122   1.7439   1.9175   2.0441   2.1134   2.4743

     the Fermi energy is     0.7445 ev

!    total energy              =   -1948.53609199 Ry
     Harris-Foulkes estimate   =   -1948.53609451 Ry
     estimated scf accuracy    <       0.00000487 Ry

     The total energy is the sum of the following terms:

     one-electron contribution =  -10409.32515449 Ry
     hartree contribution      =    5269.99740632 Ry
     xc contribution           =    -539.42802123 Ry
     ewald contribution        =    3730.26630165 Ry
     electric field correction =       0.00002620 Ry
     smearing contrib. (-TS)   =      -0.04665044 Ry

     convergence has been achieved in   4 iterations

     Forces acting on atoms (Ry/au):

     negative rho (up, down):  7.255E-04 0.000E+00
     atom    1 type  1   force =     0.00554956    0.00322053    0.00569161
     atom    2 type  1   force =    -0.00552285    0.00320360    0.00563694
     atom    3 type  1   force =    -0.00000638   -0.00638184    0.00564291
     atom    4 type  1   force =     0.00000597   -0.00001741    0.00204023
     atom    5 type  1   force =    -0.00001262    0.00224194   -0.00193678
     atom    6 type  1   force =    -0.00000685   -0.00000124   -0.01146957
     atom    7 type  1   force =    -0.00193659   -0.00111053   -0.00197867
     atom    8 type  1   force =     0.00194458   -0.00111890   -0.00195712
     atom    9 type  1   force =     0.00000288   -0.00001765    0.00008179
     atom   10 type  1   force =    -0.00001304    0.00067431   -0.00034011
     atom   11 type  1   force =     0.00057503   -0.00034879   -0.00033688
     atom   12 type  1   force =    -0.00058575   -0.00034645   -0.00030769
     atom   13 type  2   force =     0.00000607    0.00000243   -0.00076664

     Total force =     0.001513     Total SCF correction =     0.004394
     SCF correction compared to forces is large: reduce conv_thr to get better values

     bfgs converged in   2 scf cycles and   1 bfgs steps
     (criteria: energy <  1.0E+12, force <  1.9E-03)

     End of BFGS Geometry Optimization

     Final energy   =   -1948.5360919857 Ry
Begin final coordinates

ATOMIC_POSITIONS (angstrom)
Sn       1.681748263   0.970957812  10.000000000    0   0   0
Sn       5.045244789   0.970957812  10.000000000    0   0   0
Sn       3.363496526   3.883831250  10.000000000    0   0   0
Sn       6.726993052   3.883831250  10.000000000    0   0   0
Sn       6.726993052   1.941915625  12.746283414    0   0   0
Sn       3.363496526   1.941915625  12.746283414    0   0   0
Sn       8.408741315   4.854789062  12.746283414    0   0   0
Sn       5.045244789   4.854789062  12.746283414    0   0   0
Sn      -0.000010216   0.000007015  15.344239469
Sn       3.363500448  -0.022062699  15.817996049
Sn       1.662654371   2.923908751  15.817994267
Sn       5.064345933   2.923894734  15.817966191
N        3.363487154   1.941912203  16.598713705
End final coordinates

     Writing output data file calc.save

     General routines

     Parallel routines

   This run was terminated on:   1:33:13  17Jan2019

   JOB DONE.
Job  /afs/slac/g/suncat/bin/suncat-tsmpirun -x LD_LIBRARY_PATH -wdir /tmp/qe_379295v8ehd4rq_scratch pw.x -npool 3 -in pw.pwi

TID   HOST_NAME   COMMAND_LINE            STATUS            TERMINATION_TIME
00000 suncat1049 pw.x -npool 3 -i  Done                     01/17/2019 01:33:13
00001 suncat1049 pw.x -npool 3 -i  Done                     01/17/2019 01:33:13
00002 suncat1049 pw.x -npool 3 -i  Done                     01/17/2019 01:33:13
00003 suncat1049 pw.x -npool 3 -i  Done                     01/17/2019 01:33:13
00004 suncat1049 pw.x -npool 3 -i  Done                     01/17/2019 01:33:13
00005 suncat1049 pw.x -npool 3 -i  Done                     01/17/2019 01:33:13
00006 suncat1049 pw.x -npool 3 -i  Done                     01/17/2019 01:33:13
00007 suncat1049 pw.x -npool 3 -i  Done                     01/17/2019 01:33:13
00008 suncat1049 pw.x -npool 3 -i  Done                     01/17/2019 01:33:13
00009 suncat1049 pw.x -npool 3 -i  Done                     01/17/2019 01:33:13
00010 suncat1049 pw.x -npool 3 -i  Done                     01/17/2019 01:33:13
00011 suncat1049 pw.x -npool 3 -i  Done                     01/17/2019 01:33:13
00012 suncat1045 pw.x -npool 3 -i  Done                     01/17/2019 01:33:13
00013 suncat1045 pw.x -npool 3 -i  Done                     01/17/2019 01:33:13
00014 suncat1045 pw.x -npool 3 -i  Done                     01/17/2019 01:33:13
00015 suncat1045 pw.x -npool 3 -i  Done                     01/17/2019 01:33:13
00016 suncat1045 pw.x -npool 3 -i  Done                     01/17/2019 01:33:13
00017 suncat1045 pw.x -npool 3 -i  Done                     01/17/2019 01:33:13
00018 suncat1045 pw.x -npool 3 -i  Done                     01/17/2019 01:33:13
00019 suncat1045 pw.x -npool 3 -i  Done                     01/17/2019 01:33:13
00020 suncat1045 pw.x -npool 3 -i  Done                     01/17/2019 01:33:13
00021 suncat1045 pw.x -npool 3 -i  Done                     01/17/2019 01:33:13
00022 suncat1045 pw.x -npool 3 -i  Done                     01/17/2019 01:33:13
00023 suncat1045 pw.x -npool 3 -i  Done                     01/17/2019 01:33:13
00024 suncat1029 pw.x -npool 3 -i  Done                     01/17/2019 01:33:13
00025 suncat1029 pw.x -npool 3 -i  Done                     01/17/2019 01:33:13
00026 suncat1029 pw.x -npool 3 -i  Done                     01/17/2019 01:33:13
00027 suncat1029 pw.x -npool 3 -i  Done                     01/17/2019 01:33:13
00028 suncat1029 pw.x -npool 3 -i  Done                     01/17/2019 01:33:13
00029 suncat1029 pw.x -npool 3 -i  Done                     01/17/2019 01:33:13
00030 suncat1029 pw.x -npool 3 -i  Done                     01/17/2019 01:33:13
00031 suncat1029 pw.x -npool 3 -i  Done                     01/17/2019 01:33:13
00032 suncat1029 pw.x -npool 3 -i  Done                     01/17/2019 01:33:13
00033 suncat1029 pw.x -npool 3 -i  Done                     01/17/2019 01:33:13
00034 suncat1029 pw.x -npool 3 -i  Done                     01/17/2019 01:33:13
00035 suncat1029 pw.x -npool 3 -i  Done                     01/17/2019 01:33:13