     Program PWSCF v.5.1rc2 (svn rev. 11289) starts on  3May2018 at 11: 1:24

     Current dimensions of program PWSCF are:
     Max number of different atomic species (ntypx) = 10
     Max number of k-points (npk) =  40000
     Max angular momentum in pseudopotentials (lmaxx) =  3
     Presently stress not available with electric field

     IMPORTANT: XC functional enforced from input :
     Exchange-correlation      = BEEF-VDW ( 1  4 27 13 2)
     Any further DFT definition will be discarded
     Please, verify this is what you really want

     Subspace diagonalization in iterative solution of the eigenvalue problem:
     a serial algorithm will be used

     bravais-lattice index     =            0
     lattice parameter (alat)  =       1.8897  a.u.
     unit-cell volume          =    7725.1200 (a.u.)^3
     number of atoms/cell      =           13
     number of atomic types    =            2
     number of electrons       =       137.00
     number of Kohn-Sham states=           78
     kinetic-energy cutoff     =      36.7493  Ry
     charge density cutoff     =     367.4932  Ry
     convergence threshold     =      1.0E-05
     mixing beta               =       0.3000
     number of iterations used =           10  plain     mixing
     Exchange-correlation      = BEEF-VDW ( 1  4 27 13 2)
     nstep                     =           50

     celldm(1)=   1.889726  celldm(2)=   0.000000  celldm(3)=   0.000000
     celldm(4)=   0.000000  celldm(5)=   0.000000  celldm(6)=   0.000000

     crystal axes: (cart. coord. in units of alat)
               a(1) = (   7.152277   0.000000   0.000000 )
               a(2) = (   3.576139   6.194054   0.000000 )
               a(3) = (   0.000000   0.000000  25.839810 )

     reciprocal axes: (cart. coord. in units 2 pi/alat)
               b(1) = (  0.139816 -0.080723  0.000000 )
               b(2) = (  0.000000  0.161445  0.000000 )
               b(3) = (  0.000000  0.000000  0.038700 )

     PseudoPot. # 1 for Y  read from file:
     /u/if/mamunm/psp/gbrv1.5pbe/Y.UPF
     MD5 check sum: d034151ed7554c50b6e82763ed42c788
     Pseudo is Ultrasoft + core correction, Zval = 11.0
     Generated by new atomic code, or converted to UPF format
     Using radial grid of  885 points,  6 beta functions with:
                l(1) =   0
                l(2) =   0
                l(3) =   1
                l(4) =   1
                l(5) =   2
                l(6) =   2
     Q(r) pseudized with  8 coefficients,  rinner =    1.200   1.200   1.200
                                                       1.200   1.200

     PseudoPot. # 2 for N  read from file:
     /u/if/mamunm/psp/gbrv1.5pbe/N.UPF
     MD5 check sum: 95339753478d7afb44899504a8723017
     Pseudo is Ultrasoft + core correction, Zval =  5.0
     Generated by new atomic code, or converted to UPF format
     Using radial grid of  729 points,  4 beta functions with:
                l(1) =   0
                l(2) =   0
                l(3) =   1
                l(4) =   1
     Q(r) pseudized with  8 coefficients,  rinner =    0.900   0.900   0.900

     vdW kernel table read from file vdW_kernel_table
     MD5 check sum: 095c7af220d748ca6e76c0b4c6cfb241

     atomic species   valence    mass     pseudopotential
        Y1            11.00    88.90584     Y ( 1.00)
        N1             5.00    14.00700     N ( 1.00)

     No symmetry found

   Cartesian axes

     site n.     atom                  positions (alat units)
         1           Y1  tau(   1) = (   1.7880693   1.0323423  10.0000000  )
         2           Y1  tau(   2) = (   5.3642080   1.0323423  10.0000000  )
         3           Y1  tau(   3) = (   3.5761386   4.1293692  10.0000000  )
         4           Y1  tau(   4) = (   7.1522773   4.1293692  10.0000000  )
         5           Y1  tau(   5) = (   7.1522773   2.0646846  12.9199050  )
         6           Y1  tau(   6) = (   3.5761386   2.0646846  12.9199050  )
         7           Y1  tau(   7) = (   8.9403466   5.1617115  12.9199050  )
         8           Y1  tau(   8) = (   5.3642080   5.1617115  12.9199050  )
         9           Y1  tau(   9) = (   0.0000000   0.0000000  15.8398100  )
        10           Y1  tau(  10) = (   3.5761386   0.0000000  15.8398100  )
        11           Y1  tau(  11) = (   1.7880693   3.0970269  15.8398100  )
        12           Y1  tau(  12) = (   5.3642080   3.0970269  15.8398100  )
        13           N1  tau(  13) = (   1.7880693   0.0000000  17.7973100  )

     number of k points=    20  Fermi-Dirac smearing, width (Ry)=  0.0110
                       cart. coord. in units 2pi/alat
        k(    1) = (   0.0000000   0.0000000   0.0000000), wk =   0.0555556
        k(    2) = (   0.0000000   0.0269075   0.0000000), wk =   0.1111111
        k(    3) = (   0.0000000   0.0538151   0.0000000), wk =   0.1111111
        k(    4) = (   0.0000000  -0.0807226   0.0000000), wk =   0.0555556
        k(    5) = (   0.0233026  -0.0134538   0.0000000), wk =   0.1111111
        k(    6) = (   0.0233026   0.0134538   0.0000000), wk =   0.1111111
        k(    7) = (   0.0233026   0.0403613   0.0000000), wk =   0.1111111
        k(    8) = (   0.0233026  -0.0941763   0.0000000), wk =   0.1111111
        k(    9) = (   0.0233026  -0.0672688   0.0000000), wk =   0.1111111
        k(   10) = (   0.0233026  -0.0403613   0.0000000), wk =   0.1111111
        k(   11) = (   0.0466052  -0.0269075   0.0000000), wk =   0.1111111
        k(   12) = (   0.0466052   0.0000000   0.0000000), wk =   0.1111111
        k(   13) = (   0.0466052   0.0269075   0.0000000), wk =   0.1111111
        k(   14) = (   0.0466052  -0.1076301   0.0000000), wk =   0.1111111
        k(   15) = (   0.0466052  -0.0807226   0.0000000), wk =   0.1111111
        k(   16) = (   0.0466052  -0.0538151   0.0000000), wk =   0.1111111
        k(   17) = (  -0.0699078   0.0403613   0.0000000), wk =   0.0555556
        k(   18) = (  -0.0699078   0.0672688   0.0000000), wk =   0.1111111
        k(   19) = (  -0.0699078   0.0941763   0.0000000), wk =   0.1111111
        k(   20) = (  -0.0699078  -0.0403613   0.0000000), wk =   0.0555556

     Largest allocated arrays     est. size (Mb)     dimensions
     Largest temporary arrays     est. size (Mb)     dimensions

     Initial potential from superposition of free atoms
     Check: negative starting charge=   -0.000578

     starting charge  136.94636, renormalised to  137.00000

     negative rho (up, down):  5.782E-04 0.000E+00

     *
     * You are using vdW-DF for exchange-correlation in this calculation.
     * Please cite the following three references that made this development
     * possible:
     *
     *   M. Dion, H. Rydberg, E. Schroder, D. C. Langreth, and
     *   B. I. Lundqvist, Phys. Rev. Lett. 92, 246401 (2004).
     *
     *   T. Thonhauser, V. R. Cooper, S. Li, A. Puzder, P. Hyldgaard, and
     *   D. C. Langreth, Phys. Rev. B 76, 125112 (2007).
     *
     *   G. Roman-Perez and J. M. Soler, Phys. Rev. Lett. 103, 096102 (2009).
     *
     *
     * If you are using vdW-DF2, please also cite:
     *
     *   K. Lee, E. D. Murray, L. Kong, B. I. Lundqvist, and
     *   D. C. Langreth, Phys. Rev. B 82, 081101(R) (2010).
     *
     *
     * If you are calculating the stress with vdW-DF, please also cite:
     *
     *   R. Sabatini, E. Kucukbenli, B. Kolb, T. Thonhauser, and
     *   S. de Gironcoli, J. Phys.: Condens. Matter 24, 424209 (2012).
     *

     Carrying out vdW-DF run using the following parameters:

     Nqs =      20    Nr_points =    1024   r_max =   100.000
     q_mesh =
               0.00001000     0.04494208     0.09755937     0.15916263
               0.23128650     0.31572767     0.41458969     0.53033537
               0.66584808     0.82450364     1.01025438     1.22772762
               1.48234092     1.78043706     2.12944203     2.53805004
               3.01644009     3.57652955     4.23227104     5.00000000

     Gradients computed in reciprocal space

     Adding external electric field

     Computed dipole along edir(3) :
        Dipole               -0.0180 Ry au,         -0.0457 Debye
        Dipole field         -0.0000 Ry au

        Potential amp.        0.0028 Ry
        Total length         47.6094 bohr

     Starting wfc are  160 randomized atomic wfcs

     Self-consistent Calculation

     iteration #  1     ecut=    36.75 Ry     beta=0.30
     Davidson diagonalization with overlap
     ethr =  1.00E-02,  avg # of iterations =  2.0

[...]

     total energy              =   -1141.91543402 Ry
     Harris-Foulkes estimate   =   -1145.01315700 Ry
     estimated scf accuracy    <       6.74150199 Ry

[...]

     End of self-consistent calculation

          k = 0.0000 0.0000 0.0000 ( 28997 PWs)   bands (ev):

   -42.9961 -42.9613 -42.8791 -42.8395 -42.8357 -42.8329 -42.5090 -42.4880
   -42.3399 -42.3034 -42.2869 -42.2805 -23.0481 -23.0310 -22.9872 -22.9847
   -22.9833 -22.9815 -22.9656 -22.9089 -22.9006 -22.8419 -22.8381 -22.8357
   -22.7281 -22.6614 -22.6595 -22.6579 -22.5864 -22.5606 -22.5603 -22.5356
   -22.4779 -22.4423 -22.4262 -22.4033 -22.4019 -22.3817 -22.2278 -22.2188
   -22.2161 -22.2100 -22.1803 -22.1549 -22.1509 -22.1426 -22.0551 -22.0525
   -10.7215  -3.7908  -2.8240  -1.8035  -1.1767  -1.1721  -1.1505  -1.0503
    -1.0327  -1.0180  -0.8110  -0.7867  -0.7809  -0.2894  -0.2330  -0.2112
     0.0018   0.0797   0.0830   0.2321   0.4000   0.5751   0.6567   1.0738
     1.1627   1.1771   1.1813   1.3940   1.4105   1.6670

[...]

          k =-0.0699 0.0404 0.0000 ( 29048 PWs)   bands (ev):

[...]

     the Fermi energy is     0.4685 ev

!    total energy              =   -1144.47239262 Ry
     Harris-Foulkes estimate   =   -1144.47245115 Ry
     estimated scf accuracy    <       0.00000999 Ry

     The total energy is the sum of the following terms:

     one-electron contribution =   -5507.94706037 Ry
     hartree contribution      =    2746.12791022 Ry
     xc contribution           =    -344.08636635 Ry
     ewald contribution        =    1961.56125493 Ry
     electric field correction =       0.00088179 Ry
     smearing contrib. (-TS)   =      -0.12901284 Ry

     convergence has been achieved in  16 iterations

 BEEF-vdW xc energy contributions
           1 :   -300.016332343077
           2 :    269.293364749779
           3 :   -216.460335520179
           4 :    154.558317093417
           5 :   -95.6623715362188
           6 :    47.3108610000154
           7 :   -12.0180507490927
           8 :   -10.9343992489653
           9 :    23.2419190883377
          10 :   -26.3396024894831
          11 :    21.5295742204715
          12 :   -10.8104919998090
          13 :   -2.61453294782979
          14 :    14.7846831370182
          15 :   -22.2375575808102
          16 :    23.2877885308151
          17 :   -18.5060224862250
          18 :    10.1354552664465
          19 :  -0.900455007448329
          20 :   -7.03573321492439
          21 :    12.4744600014535
          22 :   -15.0022309303204
          23 :    14.6400325943180
          24 :   -11.6907900934305
          25 :    6.82844480966253
          26 :   -1.18708766909987
          27 :   -3.81309106364432
          28 :    6.92575412233776
          29 :   -7.57706570908937
          30 :    6.07732731552454
          31 :   -28.8001470334086
          32 :   -19.6777379377448

     Forces acting on atoms (Ry/au):

     negative rho (up, down):  4.826E-04 0.000E+00
     atom    1 type  1   force =    -0.00002661   -0.00028644    0.00433718
     atom    2 type  1   force =     0.00003395   -0.00085747    0.00481906
     atom    3 type  1   force =    -0.00031626    0.00057114    0.00516372
     atom    4 type  1   force =     0.00030897    0.00053983    0.00530631
     atom    5 type  1   force =     0.00034924    0.00432152    0.00162850
     atom    6 type  1   force =    -0.00035350    0.00431112    0.00157985
     atom    7 type  1   force =    -0.00003572   -0.00383896   -0.00622076
     atom    8 type  1   force =     0.00003879   -0.00447994   -0.00990621
     atom    9 type  1   force =     0.06361384    0.00346148    0.06598777
     atom   10 type  1   force =    -0.06361544    0.00339543    0.06601439
     atom   11 type  1   force =    -0.00003517   -0.02886583    0.00654579
     atom   12 type  1   force =     0.00004232    0.02369155    0.00723251
     atom   13 type  2   force =    -0.00000442   -0.00196344   -0.15248811

     Total force =     0.203901     Total SCF correction =     0.000646

     entering subroutine stress ...

     negative rho (up, down):  4.826E-04 0.000E+00
          total   stress  (Ry/bohr**3)                   (kbar)     P=   -8.07
  -0.00004480   0.00000000   0.00000001         -6.59      0.00      0.00
   0.00000000  -0.00002321  -0.00000114          0.00     -3.42     -0.17
   0.00000001  -0.00000114  -0.00009661          0.00     -0.17    -14.21

     BFGS Geometry Optimization

     number of scf cycles    =   1
     number of bfgs steps    =   0

     energy   new            =   -1144.4723926227 Ry

     new trust radius        =       0.1525007472 bohr
     new conv_thr            =       0.0000099958 Ry

ATOMIC_POSITIONS (crystal)
Y1       0.166666667   0.166666667   0.386999750    0   0   0
Y1       0.666666667   0.166666667   0.386999750    0   0   0
Y1       0.166666667   0.666666667   0.386999750    0   0   0
Y1       0.666666667   0.666666667   0.386999750    0   0   0
Y1       0.833333333   0.333333333   0.500000000    0   0   0
Y1       0.333333333   0.333333333   0.500000000    0   0   0
Y1       0.833333333   0.833333333   0.500000000    0   0   0
Y1       0.333333333   0.833333333   0.500000000    0   0   0
Y1       0.004558750   0.000295725   0.614351623
Y1       0.495148229   0.000290082   0.614352168
Y1       0.001230446   0.497533903   0.613134302
Y1       0.498991110   0.502024043   0.613148365
N1       0.250083544  -0.000167743   0.685632625

     Writing output data file calc.save
     Check: negative starting charge=   -0.000578
     NEW-OLD atomic charge density approx. for the potential
     Check: negative starting charge=   -0.000582

[...]

     iteration #  7     ecut=    36.75 Ry     beta=0.30
     Davidson diagonalization with overlap
     c_bands:  1 eigenvalues not converged
     ethr =  2.12E-06,  avg # of iterations = 10.2

[...]

     energy   old            =   -1144.4723926227 Ry
     energy   new            =   -1144.5140604251 Ry

     CASE: energy  _new < energy  _old

     WARNING: bfgs curvature condition failed, Theta= 0.805
     new trust radius        =       0.1677508220 bohr
     new conv_thr            =       0.0000001000 Ry

[...]

     iteration #  1     ecut=    36.75 Ry     beta=0.30
     Davidson diagonalization with overlap
     c_bands:  1 eigenvalues not converged
     c_bands:  2 eigenvalues not converged
     c_bands:  1 eigenvalues not converged
     c_bands:  1 eigenvalues not converged
     ethr =  1.00E-06,  avg # of iterations = 19.6

[...]

     Threshold (ethr) on eigenvalues was too large:
     Diagonalizing with lowered threshold

     Davidson diagonalization with overlap
     ethr =  5.90E-08,  avg # of iterations =  5.8

[...]

     Total force =     0.004438     Total SCF correction =     0.000371

[...]

     number of scf cycles    =  42
     number of bfgs steps    =  41

     energy   old            =   -1144.7699492398 Ry
     energy   new            =   -1144.7700601969 Ry

     CASE: energy  _new < energy  _old

     new trust radius        =       0.0080045089 bohr
     new conv_thr            =       0.0000001000 Ry

ATOMIC_POSITIONS (crystal)
Y1       0.166666667   0.166666667   0.386999750    0   0   0
Y1       0.666666667   0.166666667   0.386999750    0   0   0
Y1       0.166666667   0.666666667   0.386999750    0   0   0
Y1       0.666666667   0.666666667   0.386999750    0   0   0
Y1       0.833333333   0.333333333   0.500000000    0   0   0
Y1       0.333333333   0.333333333   0.500000000    0   0   0
Y1       0.833333333   0.833333333   0.500000000    0   0   0
Y1       0.333333333   0.833333333   0.500000000    0   0   0
Y1      -0.003444345   0.005294805   0.614306876
Y1       0.498149363   0.005294011   0.614306313
Y1      -0.002254808   0.504509672   0.605923640
Y1       0.498054706   0.503896769   0.613624970
N1       0.331117897  -0.162238599   0.629079983

     Writing output data file calc.save
     Check: negative starting charge=   -0.000607
     NEW-OLD atomic charge density approx. for the potential
     Check: negative starting charge=   -0.000607

[...]

     Self-consistent Calculation

[...]

     Threshold (ethr) on eigenvalues was too large:
     Diagonalizing with lowered threshold

     Davidson diagonalization with overlap
     ethr =  6.43E-08,  avg # of iterations =  2.4

[...]

     total energy              =   -1144.77007736 Ry
     Harris-Foulkes estimate   =   -1144.77007737 Ry
     estimated scf accuracy    <       0.00000011 Ry

     iteration #  9     ecut=    36.75 Ry     beta=0.30
     Davidson diagonalization with overlap
     ethr =  8.37E-11,  avg # of iterations =  1.4

[...]

     negative rho (up, down):  4.306E-04 0.000E+00

     Adding external electric field

     Computed dipole along edir(3) :
        Dipole               -0.0235 Ry au,         -0.0597 Debye
        Dipole field         -0.0000 Ry au

        Potential amp.        0.0036 Ry
        Total length         47.6094 bohr

     End of self-consistent calculation

[...]

          k = 0.0466-0.0538 0.0000 ( 29098 PWs)   bands (ev):

[...]

          k =-0.0699-0.0404 0.0000 ( 29048 PWs)   bands (ev):

   -42.3094 -42.2872 -42.2727 -42.2657 -42.2056 -41.9012 -41.8073 -41.7987
   -41.7784 -41.6907 -41.6795 -41.6699 -22.3496 -22.3348 -22.3277 -22.3111
   -22.2807 -22.2776 -22.2684 -22.2227 -22.2086 -22.1818 -22.1815 -22.1709
   -22.1340 -22.1215 -22.0537 -22.0384 -21.9470 -21.9393 -21.9297 -21.8551
   -21.8155 -21.8007 -21.7948 -21.7777 -21.7698 -21.7369 -21.7352 -21.6376
   -21.6242 -21.6142 -21.6059 -21.5890 -21.5819 -21.5773 -21.5396 -21.4821
   -11.5829  -2.4811  -2.1303  -1.8560  -1.8517  -1.7107  -1.0651  -0.7726
    -0.3165  -0.2051  -0.1333   0.1198   0.1569   0.2075   0.7373   0.7517
     0.8097   0.8539   0.9388   0.9444   1.0274   1.0435   1.1365   1.1781
     1.2648   1.3714   1.4273   1.4496   1.5704   1.6414

     the Fermi energy is     1.0244 ev

!    total energy              =   -1144.77007733 Ry
     Harris-Foulkes estimate   =   -1144.77007734 Ry
     estimated scf accuracy    <       0.00000005 Ry

     The total energy is the sum of the following terms:

     one-electron contribution =   -5712.61980868 Ry
     hartree contribution      =    2851.12899363 Ry
     xc contribution           =    -344.69859359 Ry
     ewald contribution        =    2061.54467041 Ry
     electric field correction =       0.00000090 Ry
     smearing contrib. (-TS)   =      -0.12534000 Ry

     convergence has been achieved in   9 iterations

 BEEF-vdW xc energy contributions
           1 :   -300.632942454334
           2 :    270.062648220024
           3 :   -217.342781765285
           4 :    155.346198220555
           5 :   -96.1335565102782
           6 :    47.3462146043005
           7 :   -11.6389792302202
           8 :   -11.5820439133996
           9 :    23.9413761744290
          10 :   -26.8913476690190
          11 :    21.8437896405299
          12 :   -10.9427694763580
          13 :   -2.52034419206217
          14 :    14.6079392314647
          15 :   -21.9602164568484
          16 :    22.9851735486354
          17 :   -18.2695809160678
          18 :    9.99784979397896
          19 :  -0.818073554626892
          20 :   -7.14057691620491
          21 :    12.6523773702407
          22 :   -15.2459795139812
          23 :    14.9045074483854
          24 :   -11.9400462599594
          25 :    7.06434980651721
          26 :   -1.43620827113062
          27 :   -3.53596531172644
          28 :    6.63982370285868
          29 :   -7.32271349789102
          30 :    5.87998961291271
          31 :   -28.8410308256095
          32 :   -19.7452090477621

     Forces acting on atoms (Ry/au):

     negative rho (up, down):  4.306E-04 0.000E+00
     atom    1 type  1   force =     0.00000003   -0.00133200    0.00524647
     atom    2 type  1   force =     0.00000016   -0.00009862    0.00477432
     atom    3 type  1   force =     0.00110513    0.00062549    0.00523417
     atom    4 type  1   force =    -0.00110503    0.00062560    0.00523391
     atom    5 type  1   force =     0.00083855    0.00102942   -0.00816955
     atom    6 type  1   force =    -0.00083786    0.00102928   -0.00816916
     atom    7 type  1   force =    -0.00000053    0.00029043   -0.00772986
     atom    8 type  1   force =     0.00000011    0.00077843    0.00284575
     atom    9 type  1   force =    -0.00034261   -0.00059049   -0.00002314
     atom   10 type  1   force =     0.00033969   -0.00059063   -0.00002199
     atom   11 type  1   force =     0.00000138   -0.00051872   -0.00053907
     atom   12 type  1   force =    -0.00000356   -0.00178491    0.00104460
     atom   13 type  2   force =     0.00000455    0.00053671    0.00027356

     Total force =     0.002476     Total SCF correction =     0.000664
     SCF correction compared to forces is large: reduce conv_thr to get better values

     entering subroutine stress ...

     negative rho (up, down):  4.306E-04 0.000E+00
          total   stress  (Ry/bohr**3)                   (kbar)     P=    2.37
   0.00003119  -0.00000000   0.00000000          4.59     -0.00      0.00
  -0.00000000   0.00003372  -0.00000194         -0.00      4.96     -0.29
   0.00000000  -0.00000194  -0.00001648          0.00     -0.29     -2.42

     bfgs converged in  43 scf cycles and  42 bfgs steps
     (criteria: energy <  1.0E+00, force <  1.9E-03)

     End of BFGS Geometry Optimization

     Final energy   =   -1144.7700773291 Ry
Begin final coordinates

ATOMIC_POSITIONS (crystal)
Y1       0.166666667   0.166666667   0.386999750    0   0   0
Y1       0.666666667   0.166666667   0.386999750    0   0   0
Y1       0.166666667   0.666666667   0.386999750    0   0   0
Y1       0.666666667   0.666666667   0.386999750    0   0   0
Y1       0.833333333   0.333333333   0.500000000    0   0   0
Y1       0.333333333   0.333333333   0.500000000    0   0   0
Y1       0.833333333   0.833333333   0.500000000    0   0   0
Y1       0.333333333   0.833333333   0.500000000    0   0   0
Y1      -0.003444345   0.005294805   0.614306876
Y1       0.498149363   0.005294011   0.614306313
Y1      -0.002254808   0.504509672   0.605923640
Y1       0.498054706   0.503896769   0.613624970
N1       0.331117897  -0.162238599   0.629079983
End final coordinates

     Writing output data file calc.save

     General routines

     Parallel routines

   This run was terminated on:  19:17:20   3May2018

   JOB DONE.
Job  /afs/slac/g/suncat/bin/suncat-tsmpirun -x LD_LIBRARY_PATH -wdir /scratch/qe741274_lEy7R pw.x -npool 4 -in pw.inp

TID   HOST_NAME   COMMAND_LINE            STATUS            TERMINATION_TIME
00000 suncat0062 pw.x -npool 4 -i  Done                     05/03/2018 19:17:20
00001 suncat0062 pw.x -npool 4 -i  Done                     05/03/2018 19:17:20
00002 suncat0062 pw.x -npool 4 -i  Done                     05/03/2018 19:17:20
00003 suncat0062 pw.x -npool 4 -i  Done                     05/03/2018 19:17:20
00004 suncat0062 pw.x -npool 4 -i  Done                     05/03/2018 19:17:20
00005 suncat0062 pw.x -npool 4 -i  Done                     05/03/2018 19:17:20
00006 suncat0062 pw.x -npool 4 -i  Done                     05/03/2018 19:17:20
00007 suncat0062 pw.x -npool 4 -i  Done                     05/03/2018 19:17:20
00008 suncat0055 pw.x -npool 4 -i  Done                     05/03/2018 19:17:20
00009 suncat0055 pw.x -npool 4 -i  Done                     05/03/2018 19:17:20
00010 suncat0055 pw.x -npool 4 -i  Done                     05/03/2018 19:17:20
00011 suncat0055 pw.x -npool 4 -i  Done                     05/03/2018 19:17:20
00012 suncat0055 pw.x -npool 4 -i  Done                     05/03/2018 19:17:20
00013 suncat0055 pw.x -npool 4 -i  Done                     05/03/2018 19:17:20
00014 suncat0055 pw.x -npool 4 -i  Done                     05/03/2018 19:17:20
00015 suncat0055 pw.x -npool 4 -i  Done                     05/03/2018 19:17:20
00016 suncat0014 pw.x -npool 4 -i  Done                     05/03/2018 19:17:20
00017 suncat0014 pw.x -npool 4 -i  Done                     05/03/2018 19:17:20
00018 suncat0014 pw.x -npool 4 -i  Done                     05/03/2018 19:17:20
00019 suncat0014 pw.x -npool 4 -i  Done                     05/03/2018 19:17:20
00020 suncat0014 pw.x -npool 4 -i  Done                     05/03/2018 19:17:20
00021 suncat0014 pw.x -npool 4 -i  Done                     05/03/2018 19:17:20
00022 suncat0014 pw.x -npool 4 -i  Done                     05/03/2018 19:17:20
00023 suncat0014 pw.x -npool 4 -i  Done                     05/03/2018 19:17:20
00024 suncat0196 pw.x -npool 4 -i  Done                     05/03/2018 19:17:20
00025 suncat0196 pw.x -npool 4 -i  Done                     05/03/2018 19:17:20
00026 suncat0196 pw.x -npool 4 -i  Done                     05/03/2018 19:17:20
00027 suncat0196 pw.x -npool 4 -i  Done                     05/03/2018 19:17:20
00028 suncat0196 pw.x -npool 4 -i  Done                     05/03/2018 19:17:20
00029 suncat0196 pw.x -npool 4 -i  Done                     05/03/2018 19:17:20
00030 suncat0196 pw.x -npool 4 -i  Done                     05/03/2018 19:17:20
00031 suncat0196 pw.x -npool 4 -i  Done                     05/03/2018 19:17:20