     Program PWSCF v.5.1rc2 (svn rev. 11289) starts on 17Jan2018 at  7:51:24

     Current dimensions of program PWSCF are:
     Max number of different atomic species (ntypx) = 10
     Max number of k-points (npk) =  40000
     Max angular momentum in pseudopotentials (lmaxx) =  3
     Presently stress not available with electric field

     IMPORTANT: XC functional enforced from input :
     Exchange-correlation      = BEEF-VDW ( 1  4 27 13 2)
     Any further DFT definition will be discarded
     Please, verify this is what you really want

     Subspace diagonalization in iterative solution of the eigenvalue problem:
     a serial algorithm will be used

     bravais-lattice index     =            0
     lattice parameter (alat)  =       1.8897  a.u.
     unit-cell volume          =    4204.8134 (a.u.)^3
     number of atoms/cell      =           13
     number of atomic types    =            2
     number of electrons       =       186.00
     number of Kohn-Sham states=          103
     kinetic-energy cutoff     =      36.7493  Ry
     charge density cutoff     =     367.4932  Ry
     convergence threshold     =      1.0E-05
     mixing beta               =       0.3000
     number of iterations used =           10  plain     mixing
     Exchange-correlation      = BEEF-VDW ( 1  4 27 13 2)
     nstep                     =           50

     celldm(1)=   1.889726  celldm(2)=   0.000000  celldm(3)=   0.000000
     celldm(4)=   0.000000  celldm(5)=   0.000000  celldm(6)=   0.000000

     crystal axes: (cart. coord. in units of alat)
               a(1) = (   5.426750   0.000000   0.000000 )
               a(2) = (   2.713375   4.699703   0.000000 )
               a(3) = (   0.000000   0.000000  24.430923 )

     reciprocal axes: (cart. coord. in units 2 pi/alat)
               b(1) = (  0.184272 -0.106390  0.000000 )
               b(2) = (  0.000000  0.212779  0.000000 )
               b(3) = (  0.000000  0.000000  0.040932 )

     PseudoPot. # 1 for Rh read from file:
     /afs/slac.stanford.edu/u/if/mamunm/psp/gbrv1.5pbe/Rh.UPF
     MD5 check sum: 761627e959a2e3a1f56b0b5fe687810e
     Pseudo is Ultrasoft + core correction, Zval = 15.0
     Generated by new atomic code, or converted to UPF format
     Using radial grid of  969 points,  7 beta functions with:
                l(1) =   0
                l(2) =   0
                l(3) =   1
                l(4) =   1
                l(5) =   2
                l(6) =   2
                l(7) =   2
     Q(r) pseudized with  8 coefficients,  rinner =    1.200   1.200   1.200
                                                       1.200   1.200

     PseudoPot. # 2 for O  read from file:
     /afs/slac.stanford.edu/u/if/mamunm/psp/gbrv1.5pbe/O.UPF
     MD5 check sum: 734c27235a0248c51dbae37a1fbe46ec
     Pseudo is Ultrasoft + core correction, Zval =  6.0
     Generated by new atomic code, or converted to UPF format
     Using radial grid of  737 points,  5 beta functions with:
                l(1) =   0
                l(2) =   0
                l(3) =   1
                l(4) =   1
                l(5) =   2
     Q(r) pseudized with  8 coefficients,  rinner =    0.900   0.900   0.900
                                                       0.900   0.900

     vdW kernel table read from file vdW_kernel_table
     MD5 check sum: 095c7af220d748ca6e76c0b4c6cfb241

     atomic species   valence    mass     pseudopotential
        Rh1           15.00   102.90550     Rh( 1.00)
        O1             6.00    15.99900     O ( 1.00)

     No symmetry found

   Cartesian axes

     site n.     atom                  positions (alat units)
         1           Rh1 tau(   1) = (   1.3566875   0.7832839  10.0000000  )
         2           Rh1 tau(   2) = (   4.0700625   0.7832839  10.0000000  )
         3           Rh1 tau(   3) = (   2.7133750   3.1331356  10.0000000  )
         4           Rh1 tau(   4) = (   5.4267500   3.1331356  10.0000000  )
         5           Rh1 tau(   5) = (   5.4267500   1.5665678  12.2154614  )
         6           Rh1 tau(   6) = (   2.7133750   1.5665678  12.2154614  )
         7           Rh1 tau(   7) = (   6.7834375   3.9164194  12.2154614  )
         8           Rh1 tau(   8) = (   4.0700625   3.9164194  12.2154614  )
         9           Rh1 tau(   9) = (   0.0000000   0.0000000  14.4309228  )
        10           Rh1 tau(  10) = (   2.7133750   0.0000000  14.4309228  )
        11           Rh1 tau(  11) = (   1.3566875   2.3498517  14.4309228  )
        12           Rh1 tau(  12) = (   4.0700625   2.3498517  14.4309228  )
        13           O1  tau(  13) = (   2.7133750   1.5665678  16.5109228  )

     number of k points=    20  Fermi-Dirac smearing, width (Ry)=  0.0110
                       cart. coord. in units 2pi/alat
        k(    1) = (   0.0000000   0.0000000   0.0000000), wk =   0.0555556
        k(    2) = (   0.0000000   0.0354632   0.0000000), wk =   0.1111111
        k(    3) = (   0.0000000   0.0709265   0.0000000), wk =   0.1111111
        k(    4) = (   0.0000000  -0.1063897   0.0000000), wk =   0.0555556
        k(    5) = (   0.0307121  -0.0177316   0.0000000), wk =   0.1111111
        k(    6) = (   0.0307121   0.0177316   0.0000000), wk =   0.1111111
        k(    7) = (   0.0307121   0.0531948   0.0000000), wk =   0.1111111
        k(    8) = (   0.0307121  -0.1241213   0.0000000), wk =   0.1111111
        k(    9) = (   0.0307121  -0.0886581   0.0000000), wk =   0.1111111
        k(   10) = (   0.0307121  -0.0531948   0.0000000), wk =   0.1111111
        k(   11) = (   0.0614241  -0.0354632   0.0000000), wk =   0.1111111
        k(   12) = (   0.0614241   0.0000000   0.0000000), wk =   0.1111111
        k(   13) = (   0.0614241   0.0354632   0.0000000), wk =   0.1111111
        k(   14) = (   0.0614241  -0.1418529   0.0000000), wk =   0.1111111
        k(   15) = (   0.0614241  -0.1063897   0.0000000), wk =   0.1111111
        k(   16) = (   0.0614241  -0.0709265   0.0000000), wk =   0.1111111
        k(   17) = (  -0.0921362   0.0531948   0.0000000), wk =   0.0555556
        k(   18) = (  -0.0921362   0.0886581   0.0000000), wk =   0.1111111
        k(   19) = (  -0.0921362   0.1241213   0.0000000), wk =   0.1111111
        k(   20) = (  -0.0921362  -0.0531948   0.0000000), wk =   0.0555556

     Largest allocated arrays     est. size (Mb)     dimensions
     Largest temporary arrays     est. size (Mb)     dimensions

     Initial potential from superposition of free atoms
     Check: negative starting charge=   -0.653012

     starting charge  179.99882, renormalised to  186.00000

     negative rho (up, down):  6.748E-01 0.000E+00

     *
     * You are using vdW-DF for exchange-correlation in this calculation.
     * Please cite the following three references that made this development
     * possible:
     *
     *   M. Dion, H. Rydberg, E. Schroder, D. C. Langreth, and
     *   B. I. Lundqvist, Phys. Rev. Lett. 92, 246401 (2004).
     *
     *   T. Thonhauser, V. R. Cooper, S. Li, A. Puzder, P. Hyldgaard, and
     *   D. C. Langreth, Phys. Rev. B 76, 125112 (2007).
     *
     *   G. Roman-Perez and J. M. Soler, Phys. Rev. Lett. 103, 096102 (2009).
     *
     *
     * If you are using vdW-DF2, please also cite:
     *
     *   K. Lee, E. D. Murray, L. Kong, B. I. Lundqvist, and
     *   D. C. Langreth, Phys. Rev. B 82, 081101(R) (2010).
     *
     *
     * If you are calculating the stress with vdW-DF, please also cite:
     *
     *   R. Sabatini, E. Kucukbenli, B. Kolb, T. Thonhauser, and
     *   S. de Gironcoli, J. Phys.: Condens. Matter 24, 424209 (2012).
     *

     Carrying out vdW-DF run using the following parameters:

     Nqs =      20    Nr_points =    1024   r_max =   100.000
     q_mesh =
               0.00001000     0.04494208     0.09755937     0.15916263
               0.23128650     0.31572767     0.41458969     0.53033537
               0.66584808     0.82450364     1.01025438     1.22772762
               1.48234092     1.78043706     2.12944203     2.53805004
               3.01644009     3.57652955     4.23227104     5.00000000

     Gradients computed in reciprocal space

     Adding external electric field

     Computed dipole along edir(3) :
        Dipole               -1.6238 Ry au,         -4.1272 Debye
        Dipole field         -0.0049 Ry au

        Potential amp.        0.4369 Ry
        Total length         45.0136 bohr

     Starting wfc are  148 randomized atomic wfcs

     Self-consistent Calculation

     iteration #  1     ecut=    36.75 Ry     beta=0.30
     Davidson diagonalization with overlap
     ethr =  1.00E-02,  avg # of iterations =  2.0

[...]

     total energy              =   -2048.96846454 Ry
     Harris-Foulkes estimate   =   -2099.84195929 Ry
     estimated scf accuracy    <     104.72068974 Ry

[...]

     End of self-consistent calculation

          k = 0.0000 0.0000 0.0000 ( 15785 PWs)   bands (ev):

   -46.1628 -46.1462 -46.1462 -46.0310 -45.9745 -45.9629 -45.9629 -45.8101
   -45.7737 -45.7737 -45.7662 -45.7661 -45.7419 -45.6666 -45.6606 -45.6606
   -45.6366 -45.6366 -45.4897 -45.4894 -45.4627 -45.4587 -45.3830 -45.3826
   -45.3349 -45.3349 -45.3250 -45.2993 -45.2916 -45.2915 -45.2544 -45.2470
   -45.2289 -45.2288 -45.2129 -45.2129 -14.7848  -5.7895  -4.5596  -4.5422
    -4.5422  -4.4996  -4.3659  -4.2599  -4.2543  -4.2543  -4.0270  -4.0270
    -4.0243  -3.7302  -3.7105  -3.7105  -2.6622  -2.5854  -2.5853  -2.1847
    -2.1491  -2.1491  -1.9474  -1.8536  -1.8536  -1.5450  -1.5450  -1.4619
    -1.4618  -1.4434  -1.4417  -1.3099  -1.3099  -0.8826  -0.8825  -0.6486
    -0.4745  -0.1610  -0.1610  -0.0006   0.0450   0.0450   0.1445   0.1445
     0.3290   0.3291   0.4840   0.6292   0.6292   1.1361   1.1361   1.1378
     1.1560   1.2674   1.2675   1.3564   1.4262   1.4263   1.5180   1.5202
     1.5203   1.8018   1.8383   1.8385   1.9216   1.9217   1.9217

[...]

          k =-0.0921 0.0532 0.0000 ( 15852 PWs)   bands (ev):

[...]

     the Fermi energy is     0.9156 ev

!    total energy              =   -2098.76315495 Ry
     Harris-Foulkes estimate   =   -2098.76313825 Ry
     estimated scf accuracy    <       0.00000688 Ry

     The total energy is the sum of the following terms:

     one-electron contribution =  -19477.34748538 Ry
     hartree contribution      =    9778.55481763 Ry
     xc contribution           =    -379.31118381 Ry
     ewald contribution        =    7979.46501683 Ry
     electric field correction =       0.00119531 Ry
     smearing contrib. (-TS)   =      -0.12551552 Ry

     convergence has been achieved in  23 iterations

 BEEF-vdW xc energy contributions
           1 :   -330.190620063790
           2 :    302.850994433105
           3 :   -255.758323577096
           4 :    200.791558143704
           5 :   -149.716133161309
           6 :    110.590327483568
           7 :   -86.0234270936641
           8 :    73.5996020419668
           9 :   -67.9847254873420
          10 :    63.6503798701242
          11 :   -57.0518538599001
          12 :    47.4818218833850
          13 :   -36.5303862609709
          14 :    26.6939199744172
          15 :   -19.9064687117298
[...]
     SCF correction compared to forces is large: reduce conv_thr to get better values

[...]

     Total force =     0.113936     Total SCF correction =     0.001523

[...]

     Program PWSCF v.5.1rc2 (svn rev. 11289) starts on 17Jan2018 at  9:44: 3

[...]

   This run was terminated on:  10: 0:31  17Jan2018

[...]

     Program PWSCF v.5.1rc2 (svn rev. 11289) starts on 17Jan2018 at 10: 0:37

[...]

   This run was terminated on:  10:17: 6  17Jan2018

[...]

     Program PWSCF v.5.1rc2 (svn rev. 11289) starts on 17Jan2018 at 10:33:28

     Current dimensions of program PWSCF are:
     Max number of different atomic species (ntypx) = 10
     Max number of k-points (npk) =  40000
     Max angular momentum in pseudopotentials (lmaxx) =  3
     Presently stress not available with electric field

     IMPORTANT: XC functional enforced from input :
     Exchange-correlation      = BEEF-VDW ( 1  4 27 13 2)
     Any further DFT definition will be discarded
     Please, verify this is what you really want

     Subspace diagonalization in iterative solution of the eigenvalue problem:
     a serial algorithm will be used

     bravais-lattice index     =            0
     lattice parameter (alat)  =       1.8897  a.u.
     unit-cell volume          =    4204.8134 (a.u.)^3
     number of atoms/cell      =           13
     number of atomic types    =            2
     number of electrons       =       186.00
     number of Kohn-Sham states=          103
     kinetic-energy cutoff     =      36.7493  Ry
     charge density cutoff     =     367.4932  Ry
     convergence threshold     =      1.0E-05
     mixing beta               =       0.3000
     number of iterations used =           10  plain     mixing
     Exchange-correlation      = BEEF-VDW ( 1  4 27 13 2)
     nstep                     =           50

     celldm(1)=   1.889726  celldm(2)=   0.000000  celldm(3)=   0.000000
     celldm(4)=   0.000000  celldm(5)=   0.000000  celldm(6)=   0.000000

     crystal axes: (cart. coord. in units of alat)
               a(1) = (   5.426750   0.000000   0.000000 )
               a(2) = (   2.713375   4.699703   0.000000 )
               a(3) = (   0.000000   0.000000  24.430923 )

     reciprocal axes: (cart. coord. in units 2 pi/alat)
               b(1) = (  0.184272 -0.106390  0.000000 )
               b(2) = (  0.000000  0.212779  0.000000 )
               b(3) = (  0.000000  0.000000  0.040932 )

     PseudoPot. # 1 for Rh read from file:
     /afs/slac.stanford.edu/u/if/mamunm/psp/gbrv1.5pbe/Rh.UPF
     MD5 check sum: 761627e959a2e3a1f56b0b5fe687810e
     Pseudo is Ultrasoft + core correction, Zval = 15.0
     Generated by new atomic code, or converted to UPF format
     Using radial grid of  969 points,  7 beta functions with:
                l(1) =   0
                l(2) =   0
                l(3) =   1
                l(4) =   1
                l(5) =   2
                l(6) =   2
                l(7) =   2
     Q(r) pseudized with  8 coefficients,  rinner =    1.200   1.200   1.200
                                                       1.200   1.200

     PseudoPot. # 2 for O  read from file:
     /afs/slac.stanford.edu/u/if/mamunm/psp/gbrv1.5pbe/O.UPF
     MD5 check sum: 734c27235a0248c51dbae37a1fbe46ec
     Pseudo is Ultrasoft + core correction, Zval =  6.0
     Generated by new atomic code, or converted to UPF format
     Using radial grid of  737 points,  5 beta functions with:
                l(1) =   0
                l(2) =   0
                l(3) =   1
                l(4) =   1
                l(5) =   2
     Q(r) pseudized with  8 coefficients,  rinner =    0.900   0.900   0.900
                                                       0.900   0.900

     vdW kernel table read from file vdW_kernel_table
     MD5 check sum: 095c7af220d748ca6e76c0b4c6cfb241

     atomic species   valence    mass     pseudopotential
        Rh1           15.00   102.90550     Rh( 1.00)
        O1             6.00    15.99900     O ( 1.00)

     No symmetry found

   Cartesian axes

     site n.     atom                  positions (alat units)
         1           Rh1 tau(   1) = (   1.3566875   0.7832839  10.0000000  )
         2           Rh1 tau(   2) = (   4.0700625   0.7832839  10.0000000  )
         3           Rh1 tau(   3) = (   2.7133750   3.1331356  10.0000000  )
         4           Rh1 tau(   4) = (   5.4267500   3.1331356  10.0000000  )
         5           Rh1 tau(   5) = (   5.4267500   1.5665678  12.2154614  )
         6           Rh1 tau(   6) = (   2.7133750   1.5665678  12.2154614  )
         7           Rh1 tau(   7) = (   6.7834375   3.9164194  12.2154614  )
         8           Rh1 tau(   8) = (   4.0700625   3.9164194  12.2154614  )
         9           Rh1 tau(   9) = (   0.0000607   0.0000375  14.3635684  )
        10           Rh1 tau(  10) = (   5.4266600   4.6561281  14.4774191  )
        11           Rh1 tau(  11) = (   6.7456582   2.3716202  14.4773810  )
        12           Rh1 tau(  12) = (   4.1079108   2.3717513  14.4774308  )
        13           O1  tau(  13) = (   2.7132940   1.5664296  15.6798571  )

     number of k points=    20  Fermi-Dirac smearing, width (Ry)=  0.0110
                       cart. coord. in units 2pi/alat
        k(    1) = (   0.0000000   0.0000000   0.0000000), wk =   0.0555556
        k(    2) = (   0.0000000   0.0354632   0.0000000), wk =   0.1111111
        k(    3) = (   0.0000000   0.0709265   0.0000000), wk =   0.1111111
        k(    4) = (   0.0000000  -0.1063897   0.0000000), wk =   0.0555556
        k(    5) = (   0.0307121  -0.0177316   0.0000000), wk =   0.1111111
        k(    6) = (   0.0307121   0.0177316   0.0000000), wk =   0.1111111
        k(    7) = (   0.0307121   0.0531948   0.0000000), wk =   0.1111111
        k(    8) = (   0.0307121  -0.1241213   0.0000000), wk =   0.1111111
        k(    9) = (   0.0307121  -0.0886581   0.0000000), wk =   0.1111111
        k(   10) = (   0.0307121  -0.0531948   0.0000000), wk =   0.1111111
        k(   11) = (   0.0614241  -0.0354632   0.0000000), wk =   0.1111111
        k(   12) = (   0.0614241   0.0000000   0.0000000), wk =   0.1111111
        k(   13) = (   0.0614241   0.0354632   0.0000000), wk =   0.1111111
        k(   14) = (   0.0614241  -0.1418529   0.0000000), wk =   0.1111111
        k(   15) = (   0.0614241  -0.1063897   0.0000000), wk =   0.1111111
        k(   16) = (   0.0614241  -0.0709265   0.0000000), wk =   0.1111111
        k(   17) = (  -0.0921362   0.0531948   0.0000000), wk =   0.0555556
        k(   18) = (  -0.0921362   0.0886581   0.0000000), wk =   0.1111111
        k(   19) = (  -0.0921362   0.1241213   0.0000000), wk =   0.1111111
        k(   20) = (  -0.0921362  -0.0531948   0.0000000), wk =   0.0555556

     Largest allocated arrays     est. size (Mb)     dimensions
     Largest temporary arrays     est. size (Mb)     dimensions

     Initial potential from superposition of free atoms
     Check: negative starting charge=   -0.659349

     starting charge  179.99882, renormalised to  186.00000

[...]

     *
     * You are using vdW-DF for exchange-correlation in this calculation.
     * Please cite the following three references that made this development
     * possible:
     *
     *   M. Dion, H. Rydberg, E. Schroder, D. C. Langreth, and
     *   B. I. Lundqvist, Phys. Rev. Lett. 92, 246401 (2004).
     *
     *   T. Thonhauser, V. R. Cooper, S. Li, A. Puzder, P. Hyldgaard, and
     *   D. C. Langreth, Phys. Rev. B 76, 125112 (2007).
     *
     *   G. Roman-Perez and J. M. Soler, Phys. Rev. Lett. 103, 096102 (2009).
     *
     *
     * If you are using vdW-DF2, please also cite:
     *
     *   K. Lee, E. D. Murray, L. Kong, B. I. Lundqvist, and
     *   D. C. Langreth, Phys. Rev. B 82, 081101(R) (2010).
     *
     *
     * If you are calculating the stress with vdW-DF, please also cite:
     *
     *   R. Sabatini, E. Kucukbenli, B. Kolb, T. Thonhauser, and
     *   S. de Gironcoli, J. Phys.: Condens. Matter 24, 424209 (2012).
     *

     Carrying out vdW-DF run using the following parameters:

     Nqs =      20    Nr_points =    1024   r_max =   100.000
     q_mesh =
               0.00001000     0.04494208     0.09755937     0.15916263
               0.23128650     0.31572767     0.41458969     0.53033537
               0.66584808     0.82450364     1.01025438     1.22772762
               1.48234092     1.78043706     2.12944203     2.53805004
               3.01644009     3.57652955     4.23227104     5.00000000

     Gradients computed in reciprocal space

[...]

     Starting wfc are  148 randomized atomic wfcs

     Self-consistent Calculation

[...]

     total energy              =   -2098.93170118 Ry
     Harris-Foulkes estimate   =   -2098.93170520 Ry
     estimated scf accuracy    <       0.00002465 Ry

     iteration # 23     ecut=    36.75 Ry     beta=0.30
     Davidson diagonalization with overlap
     ethr =  8.51E-09,  avg # of iterations =  1.9

[...]

     negative rho (up, down):  6.938E-01 0.000E+00

     Adding external electric field

     Computed dipole along edir(3) :
        Dipole               -0.1279 Ry au,         -0.3250 Debye
        Dipole field         -0.0004 Ry au

        Potential amp.        0.0344 Ry
        Total length         45.0136 bohr

     End of self-consistent calculation

[...]

          k = 0.0614-0.0709 0.0000 ( 15838 PWs)   bands (ev):

[...]

          k =-0.0921-0.0532 0.0000 ( 15852 PWs)   bands (ev):

   -45.5691 -45.4331 -45.3413 -45.3331 -45.2529 -45.2314 -45.2156 -45.2089
   -45.1789 -45.1497 -45.1069 -45.0846 -45.0743 -45.0666 -45.0516 -44.9851
   -44.9658 -44.8909 -44.8826 -44.8770 -44.8698 -44.8251 -44.8006 -44.7431
   -44.7380 -44.7118 -44.7086 -44.7036 -44.6381 -44.5747 -44.5600 -44.5587
   -44.5523 -44.5327 -44.5237 -44.5204 -17.4610  -4.5788  -3.9702  -3.8986
    -3.5876  -3.4652  -3.0760  -3.0047  -2.9096  -2.7875  -2.7187  -2.6620
    -2.5745  -2.5104  -2.4311  -2.4248  -2.2949  -2.1834  -2.1572  -1.8226
    -1.6790  -1.6341  -1.6232  -1.5562  -1.4696  -1.4568  -1.2995  -1.1881
    -1.0027  -0.9129  -0.7389  -0.6862  -0.6712  -0.5774  -0.5575  -0.4697
    -0.4565  -0.3708  -0.3638  -0.2920  -0.2700  -0.2191   0.0464   0.1733
     0.2267   0.2606   0.4182   0.4402   0.5312   0.5708   0.6216   0.7650
     0.8704   0.8756   1.0553   1.1952   1.2215   1.3191   1.6518   1.6965
     1.7993   1.8929   2.0103   2.1561   2.1908   2.3379   2.5340

     the Fermi energy is     1.6390 ev

!    total energy              =   -2098.93169541 Ry
     Harris-Foulkes estimate   =   -2098.93171539 Ry
     estimated scf accuracy    <       0.00000763 Ry

     The total energy is the sum of the following terms:

     one-electron contribution =  -19748.05692153 Ry
     hartree contribution      =    9917.18488240 Ry
     xc contribution           =    -379.68998620 Ry
     ewald contribution        =    8111.75275705 Ry
     electric field correction =       0.00004886 Ry
     smearing contrib. (-TS)   =      -0.12247598 Ry

     convergence has been achieved in  23 iterations

 BEEF-vdW xc energy contributions
           1 :   -330.602279426894
           2 :    303.449614858957
           3 :   -256.532379749833
           4 :    201.537736003306
           5 :   -150.192597315338
           6 :    110.666107825547
           7 :   -85.7421556643031
           8 :    73.1430854126902
           9 :   -67.5723523419704
          10 :    63.4354649198898
          11 :   -57.0671824764762
          12 :    47.6566509553971
          13 :   -36.7551815838144
          14 :    26.8820757551089
          15 :   -20.0231604602092
          16 :    16.7028109549203
          17 :   -15.9392430871419
          18 :    15.9431718607070
          19 :   -15.1027169187664
          20 :    12.7278756084187
          21 :   -9.21913062009918
          22 :    5.66311126892640
          23 :   -3.14741415568596
          24 :    2.17762409624015
          25 :   -2.47613776194203
          26 :    3.21311442988167
          27 :   -3.49617108492589
          28 :    2.83931159570295
          29 :   -1.37070161805832
          30 :  -0.305574714294039
          31 :   -32.7521267666192
          32 :   -24.5288610883633

     Forces acting on atoms (Ry/au):

     negative rho (up, down):  6.938E-01 0.000E+00
     atom    1 type  1   force =     0.00109137    0.00062495    0.00710655
     atom    2 type  1   force =    -0.00108307    0.00061787    0.00711038
     atom    3 type  1   force =     0.00000550   -0.00124611    0.00712597
     atom    4 type  1   force =    -0.00001394    0.00001575    0.00891477
     atom    5 type  1   force =    -0.00000983    0.00489211   -0.00266982
     atom    6 type  1   force =     0.00001622    0.00000322   -0.01924304
     atom    7 type  1   force =    -0.00424172   -0.00243786   -0.00264068
     atom    8 type  1   force =     0.00423168   -0.00245136   -0.00264607
     atom    9 type  1   force =    -0.00002205   -0.00004192   -0.00174654
     atom   10 type  1   force =     0.00002546   -0.00023859   -0.00046048
     atom   11 type  1   force =    -0.00015474    0.00013827   -0.00042166
     atom   12 type  1   force =     0.00011382    0.00005647   -0.00043478
     atom   13 type  2   force =     0.00004131    0.00006719    0.00000541

     Total force =     0.026513     Total SCF correction =     0.018140
     SCF correction compared to forces is large: reduce conv_thr to get better values

     entering subroutine stress ...

     negative rho (up, down):  6.938E-01 0.000E+00
          total   stress  (Ry/bohr**3)                   (kbar)     P=  -27.88
  -0.00018880   0.00000003   0.00000004        -27.77      0.00      0.01
   0.00000003  -0.00018882   0.00000001          0.00    -27.78      0.00
   0.00000004   0.00000001  -0.00019090          0.01      0.00    -28.08

 !ASE

     Writing output data file calc.save

     General routines

     Parallel routines

   This run was terminated on:  10:49:21  17Jan2018

   JOB DONE.
Job  /afs/slac/g/suncat/bin/suncat-tsmpirun -x LD_LIBRARY_PATH -wdir /scratch/qe842475_21721 pw.x -in pw.inp

TID   HOST_NAME   COMMAND_LINE            STATUS            TERMINATION_TIME
00000 suncat0273 pw.x -in pw.inp   Done                     01/17/2018 10:49:21
00001 suncat0273 pw.x -in pw.inp   Done                     01/17/2018 10:49:21
00002 suncat0273 pw.x -in pw.inp   Done                     01/17/2018 10:49:21
00003 suncat0273 pw.x -in pw.inp   Done                     01/17/2018 10:49:21
00004 suncat0273 pw.x -in pw.inp   Done                     01/17/2018 10:49:21
00005 suncat0273 pw.x -in pw.inp   Done                     01/17/2018 10:49:21
00006 suncat0273 pw.x -in pw.inp   Done                     01/17/2018 10:49:21
00007 suncat0273 pw.x -in pw.inp   Done                     01/17/2018 10:49:21
00008 suncat0268 pw.x -in pw.inp   Done                     01/17/2018 10:49:21
00009 suncat0268 pw.x -in pw.inp   Done                     01/17/2018 10:49:21
00010 suncat0268 pw.x -in pw.inp   Done                     01/17/2018 10:49:21
00011 suncat0268 pw.x -in pw.inp   Done                     01/17/2018 10:49:21
00012 suncat0268 pw.x -in pw.inp   Done                     01/17/2018 10:49:21
00013 suncat0268 pw.x -in pw.inp   Done                     01/17/2018 10:49:21
00014 suncat0268 pw.x -in pw.inp   Done                     01/17/2018 10:49:21
00015 suncat0268 pw.x -in pw.inp   Done                     01/17/2018 10:49:21
00016 suncat0266 pw.x -in pw.inp   Done                     01/17/2018 10:49:21
00017 suncat0266 pw.x -in pw.inp   Done                     01/17/2018 10:49:21
00018 suncat0266 pw.x -in pw.inp   Done                     01/17/2018 10:49:21
00019 suncat0266 pw.x -in pw.inp   Done                     01/17/2018 10:49:21
00020 suncat0266 pw.x -in pw.inp   Done                     01/17/2018 10:49:21
00021 suncat0266 pw.x -in pw.inp   Done                     01/17/2018 10:49:21
00022 suncat0266 pw.x -in pw.inp   Done                     01/17/2018 10:49:21
00023 suncat0266 pw.x -in pw.inp   Done                     01/17/2018 10:49:21
00024 suncat0233 pw.x -in pw.inp   Done                     01/17/2018 10:49:21
00025 suncat0233 pw.x -in pw.inp   Done                     01/17/2018 10:49:21
00026 suncat0233 pw.x -in pw.inp   Done                     01/17/2018 10:49:21
00027 suncat0233 pw.x -in pw.inp   Done                     01/17/2018 10:49:21
00028 suncat0233 pw.x -in pw.inp   Done                     01/17/2018 10:49:21
00029 suncat0233 pw.x -in pw.inp   Done                     01/17/2018 10:49:21
00030 suncat0233 pw.x -in pw.inp   Done                     01/17/2018 10:49:21
00031 suncat0233 pw.x -in pw.inp   Done                     01/17/2018 10:49:21