     Program PWSCF v.5.1rc2 (svn rev. 11289) starts on 11Jan2019 at 22:22:27

     Current dimensions of program PWSCF are:
     Max number of different atomic species (ntypx) = 10
     Max number of k-points (npk) =  40000
     Max angular momentum in pseudopotentials (lmaxx) =  3

     IMPORTANT: XC functional enforced from input :
     Exchange-correlation      = BEEF-VDW ( 1  4 27 13 2)
     Any further DFT definition will be discarded
     Please, verify this is what you really want

     Subspace diagonalization in iterative solution of the eigenvalue problem:
     a serial algorithm will be used

     bravais-lattice index     =            0
     lattice parameter (alat)  =      12.6383  a.u.
     unit-cell volume          =    6655.4372 (a.u.)^3
     number of atoms/cell      =           13
     number of atomic types    =            2
     number of electrons       =       160.00
     number of Kohn-Sham states=           90
     kinetic-energy cutoff     =      36.7493  Ry
     charge density cutoff     =     367.4933  Ry
     convergence threshold     =      1.0E-04
     mixing beta               =       0.2000
     number of iterations used =            8  plain     mixing
     Exchange-correlation      = BEEF-VDW ( 1  4 27 13 2)
     nstep                     =           50

     celldm(1)=  12.638304  celldm(2)=   0.000000  celldm(3)=   0.000000
     celldm(4)=   0.000000  celldm(5)=   0.000000  celldm(6)=   0.000000

     crystal axes: (cart. coord. in units of alat)
               a(1) = (   1.000000   0.000000   0.000000 )
               a(2) = (   0.500000   0.866025   0.000000 )
               a(3) = (   0.000000   0.000000   3.806971 )

     reciprocal axes: (cart. coord. in units 2 pi/alat)
               b(1) = (  1.000000 -0.577350  0.000000 )
               b(2) = (  0.000000  1.154701  0.000000 )
               b(3) = (  0.000000  0.000000  0.262676 )

     PseudoPot. # 1 for Tl read from file:
     /u/if/jboes/code/decaf-espresso/gbrv15pbe/Tl.UPF
     MD5 check sum: b76cf1f7e72655a2b2c53cf6385d7059
     Pseudo is Ultrasoft + core correction, Zval = 13.0
     Generated by new atomic code, or converted to UPF format
     Using radial grid of  899 points,  6 beta functions with:
                l(1) =   0
                l(2) =   0
                l(3) =   1
                l(4) =   1
                l(5) =   2
                l(6) =   2
     Q(r) pseudized with  6 coefficients,  rinner =    1.100   1.100   1.100
                                                       1.100   1.100

     PseudoPot. # 2 for C  read from file:
     /u/if/jboes/code/decaf-espresso/gbrv15pbe/C.UPF
     MD5 check sum: d1aef80898a10debaa0f26306b886e00
     Pseudo is Ultrasoft + core correction, Zval =  4.0
     Generated by new atomic code, or converted to UPF format
     Using radial grid of  721 points,  4 beta functions with:
                l(1) =   0
                l(2) =   0
                l(3) =   1
                l(4) =   1
     Q(r) pseudized with  8 coefficients,  rinner =    1.100   1.100   1.100

     vdW kernel table read from file vdW_kernel_table
     MD5 check sum: 095c7af220d748ca6e76c0b4c6cfb241

     atomic species   valence    mass     pseudopotential
        Tl            13.00   204.38000     Tl( 1.00)
        C              4.00    12.01100     C ( 1.00)

     No symmetry found

   Cartesian axes

     site n.     atom                  positions (alat units)
         1           Tl  tau(   1) = (   0.2500000   0.1443376   1.4952371  )
         2           Tl  tau(   2) = (   0.7500000   0.1443376   1.4952371  )
         3           Tl  tau(   3) = (   0.5000000   0.5773503   1.4952371  )
         4           Tl  tau(   4) = (   1.0000000   0.5773503   1.4952371  )
         5           Tl  tau(   5) = (   1.0000000   0.2886751   1.9034854  )
         6           Tl  tau(   6) = (   0.5000000   0.2886751   1.9034854  )
         7           Tl  tau(   7) = (   1.2500000   0.7216878   1.9034854  )
         8           Tl  tau(   8) = (   0.7500000   0.7216878   1.9034854  )
         9           Tl  tau(   9) = (  -0.0000141   0.0000096   2.2826087  )
        10           Tl  tau(  10) = (   0.4999890   0.0003602   2.5622120  )
        11           Tl  tau(  11) = (   0.2503443   0.4328271   2.5621692  )
        12           Tl  tau(  12) = (   0.7496697   0.4328237   2.5622027  )
        13           C   tau(  13) = (   0.0000064  -0.0000126   2.6052308  )

     number of k points=    20  Fermi-Dirac smearing, width (Ry)=  0.0110
                       cart. coord. in units 2pi/alat
        k(    1) = (   0.0000000   0.0000000   0.0000000), wk =   0.0555556
        k(    2) = (   0.0000000   0.1924501   0.0000000), wk =   0.1111111
        k(    3) = (   0.0000000   0.3849002   0.0000000), wk =   0.1111111
        k(    4) = (   0.0000000  -0.5773503   0.0000000), wk =   0.0555556
        k(    5) = (   0.1666667  -0.0962250   0.0000000), wk =   0.1111111
        k(    6) = (   0.1666667   0.0962250   0.0000000), wk =   0.1111111
        k(    7) = (   0.1666667   0.2886751   0.0000000), wk =   0.1111111
        k(    8) = (   0.1666667  -0.6735753   0.0000000), wk =   0.1111111
        k(    9) = (   0.1666667  -0.4811252   0.0000000), wk =   0.1111111
        k(   10) = (   0.1666667  -0.2886751   0.0000000), wk =   0.1111111
        k(   11) = (   0.3333333  -0.1924501   0.0000000), wk =   0.1111111
        k(   12) = (   0.3333333  -0.0000000   0.0000000), wk =   0.1111111
        k(   13) = (   0.3333333   0.1924501   0.0000000), wk =   0.1111111
        k(   14) = (   0.3333333  -0.7698004   0.0000000), wk =   0.1111111
        k(   15) = (   0.3333333  -0.5773503   0.0000000), wk =   0.1111111
        k(   16) = (   0.3333333  -0.3849002   0.0000000), wk =   0.1111111
        k(   17) = (  -0.5000000   0.2886751   0.0000000), wk =   0.0555556
        k(   18) = (  -0.5000000   0.4811252   0.0000000), wk =   0.1111111
        k(   19) = (  -0.5000000   0.6735753   0.0000000), wk =   0.1111111
        k(   20) = (  -0.5000000  -0.2886751   0.0000000), wk =   0.0555556

     Largest allocated arrays     est. size (Mb)     dimensions
     Largest temporary arrays     est. size (Mb)     dimensions

     Check: negative/imaginary core charge=   -0.000002    0.000000

     Initial potential from superposition of free atoms
     Check: negative starting charge=   -0.603470

     starting charge  159.94157, renormalised to  160.00000

     negative rho (up, down):  6.037E-01 0.000E+00

     *
     * You are using vdW-DF for exchange-correlation in this calculation.
     * Please cite the following three references that made this development
     * possible:
     *
     *   M. Dion, H. Rydberg, E. Schroder, D. C. Langreth, and
     *   B. I. Lundqvist, Phys. Rev. Lett. 92, 246401 (2004).
     *
     *   T. Thonhauser, V. R. Cooper, S. Li, A. Puzder, P. Hyldgaard, and
     *   D. C. Langreth, Phys. Rev. B 76, 125112 (2007).
     *
     *   G. Roman-Perez and J. M. Soler, Phys. Rev. Lett. 103, 096102 (2009).
     *
     *
     * If you are using vdW-DF2, please also cite:
     *
     *   K. Lee, E. D. Murray, L. Kong, B. I. Lundqvist, and
     *   D. C. Langreth, Phys. Rev. B 82, 081101(R) (2010).
     *
     *
     * If you are calculating the stress with vdW-DF, please also cite:
     *
     *   R. Sabatini, E. Kucukbenli, B. Kolb, T. Thonhauser, and
     *   S. de Gironcoli, J. Phys.: Condens. Matter 24, 424209 (2012).
     *

     Carrying out vdW-DF run using the following parameters:

     Nqs =      20    Nr_points =    1024   r_max =   100.000
     q_mesh =
               0.00001000     0.04494208     0.09755937     0.15916263
               0.23128650     0.31572767     0.41458969     0.53033537
               0.66584808     0.82450364     1.01025438     1.22772762
               1.48234092     1.78043706     2.12944203     2.53805004
               3.01644009     3.57652955     4.23227104     5.00000000

     Gradients computed in reciprocal space

     Adding external electric field

     Computed dipole along edir(3) :
        Dipole               -0.0115 Ry au,         -0.0293 Debye
        Dipole field         -0.0000 Ry au

        Potential amp.        0.0019 Ry
        Total length         43.3023 bohr

     Starting wfc are  112 randomized atomic wfcs

     Self-consistent Calculation

     iteration #  1     ecut=    36.75 Ry     beta=0.20
     Davidson diagonalization with overlap
     ethr =  1.00E-02,  avg # of iterations =  2.0

[...]

     total energy              =   -1772.00642511 Ry
     Harris-Foulkes estimate   =   -1772.92457994 Ry
     estimated scf accuracy    <       2.84815522 Ry

[...]

     total energy              =   -1772.75428587 Ry
     Harris-Foulkes estimate   =   -1772.75429827 Ry
     estimated scf accuracy    <       0.00016336 Ry

     iteration # 13     ecut=    36.75 Ry     beta=0.20
     Davidson diagonalization with overlap
     ethr =  1.02E-07,  avg # of iterations =  2.9

     negative rho (up, down):  6.300E-01 0.000E+00

     Adding external electric field

     Computed dipole along edir(3) :
        Dipole               -0.0984 Ry au,         -0.2500 Debye
        Dipole field         -0.0002 Ry au

        Potential amp.        0.0161 Ry
        Total length         43.3023 bohr

     End of self-consistent calculation

          k = 0.0000 0.0000 0.0000 ( 24957 PWs)   bands (ev):

   -11.2889 -11.1574 -11.1574 -11.1255 -11.0953 -11.0351 -11.0202 -11.0202
   -11.0057 -11.0057 -10.9958 -10.9414 -10.9411 -10.9411 -10.8949 -10.8675
   -10.8309 -10.8309 -10.8166 -10.8097 -10.8097 -10.8061 -10.8061 -10.7352
   -10.7352 -10.7109 -10.7109 -10.6890 -10.6689 -10.5884 -10.5884 -10.5513
   -10.5510 -10.5510 -10.5452 -10.5452 -10.5325 -10.5325 -10.4747 -10.4747
   -10.4302 -10.4009 -10.4009 -10.3828 -10.3828 -10.3822 -10.3410 -10.3410
   -10.3285 -10.3257 -10.3257 -10.2511 -10.2495 -10.2495 -10.2391 -10.2285
   -10.2285 -10.2118 -10.1833 -10.1833  -8.5872  -7.9794  -6.2373  -5.7004
    -4.0042  -3.9733  -3.9733  -3.7962  -3.2029  -3.2028  -3.0788  -3.0787
    -2.8641  -0.9754  -0.9754  -0.7969  -0.3888  -0.3694  -0.3694  -0.3508
    -0.1736   0.0918   0.0918   1.4828   2.0612   2.9317   2.9317   3.7010
     3.8084   3.9041

[...]

          k = 0.3333-0.3849 0.0000 ( 25036 PWs)   bands (ev):

[...]

          k =-0.5000 0.2887 0.0000 ( 25090 PWs)   bands (ev):

[...]

          k =-0.5000-0.2887 0.0000 ( 25090 PWs)   bands (ev):

   -11.2086 -11.0405 -11.0156 -10.9813 -10.9475 -10.9224 -10.9074 -10.9064
   -10.9045 -10.8967 -10.8658 -10.8573 -10.8105 -10.8038 -10.7958 -10.7881
   -10.7724 -10.7657 -10.7603 -10.7258 -10.7228 -10.7217 -10.7208 -10.6980
   -10.6923 -10.6620 -10.6604 -10.6598 -10.6588 -10.6458 -10.6450 -10.6366
   -10.6340 -10.6144 -10.6031 -10.5939 -10.5762 -10.5668 -10.5585 -10.5475
   -10.5383 -10.5170 -10.5051 -10.4910 -10.4902 -10.4785 -10.4753 -10.4672
   -10.4492 -10.4262 -10.3982 -10.3920 -10.3762 -10.3730 -10.3520 -10.3376
   -10.3330 -10.2749 -10.2195 -10.1978  -7.7863  -7.2983  -7.2205  -5.8452
    -5.3806  -4.9249  -4.7838  -4.7228  -4.6763  -3.5873  -3.3881  -2.9749
    -2.6808   0.2692   0.4589   0.6358   0.9549   1.0260   1.2671   1.3999
     1.6003   1.6456   1.7733   2.0808   2.3289   2.6788   3.1981   3.3863
     3.6202   3.8459

     the Fermi energy is     1.2430 ev

!    total energy              =   -1772.75430493 Ry
     Harris-Foulkes estimate   =   -1772.75430150 Ry
     estimated scf accuracy    <       0.00000380 Ry

     The total energy is the sum of the following terms:

     one-electron contribution =   -7365.54216056 Ry
     hartree contribution      =    3767.39426247 Ry
     xc contribution           =    -771.51231014 Ry
     ewald contribution        =    2596.94948897 Ry
     electric field correction =       0.00001827 Ry
     smearing contrib. (-TS)   =      -0.04360393 Ry

     convergence has been achieved in  13 iterations

     Forces acting on atoms (Ry/au):

     negative rho (up, down):  6.300E-01 0.000E+00
     atom    1 type  1   force =    -0.00165426   -0.00096579   -0.02225057
     atom    2 type  1   force =     0.00165269   -0.00092504   -0.02226554
     atom    3 type  1   force =     0.00001362    0.00188099   -0.02221303
     atom    4 type  1   force =    -0.00001167    0.00000450   -0.02527238
     atom    5 type  1   force =    -0.00000155    0.01170234    0.01995548
     atom    6 type  1   force =    -0.00001506    0.00001269    0.03196952
     atom    7 type  1   force =    -0.01016844   -0.00584700    0.01998757
     atom    8 type  1   force =     0.01015209   -0.00584697    0.01997775
     atom    9 type  1   force =    -0.00006458   -0.00003056    0.00067624
     atom   10 type  1   force =     0.00006705   -0.00001413   -0.00041857
     atom   11 type  1   force =     0.00000365    0.00005490   -0.00039924
     atom   12 type  1   force =     0.00002161   -0.00001476   -0.00035958
     atom   13 type  2   force =     0.00000486   -0.00001118    0.00061236

     Total force =     0.001144     Total SCF correction =     0.004046
     SCF correction compared to forces is large: reduce conv_thr to get better values

     BFGS Geometry Optimization

     bfgs converged in   1 scf cycles and   0 bfgs steps
     (criteria: energy <  1.0E+12, force <  1.9E-03)

     End of BFGS Geometry Optimization

     Final energy   =   -1772.7543049300 Ry
Begin final coordinates

ATOMIC_POSITIONS (angstrom)
Tl       1.671975640   0.965315586  10.000000000    0   0   0
Tl       5.015926920   0.965315586  10.000000000    0   0   0
Tl       3.343951280   3.861262344  10.000000000    0   0   0
Tl       6.687902560   3.861262344  10.000000000    0   0   0
Tl       6.687902560   1.930631172  12.730324787    0   0   0
Tl       3.343951280   1.930631172  12.730324787    0   0   0
Tl       8.359878201   4.826577929  12.730324787    0   0   0
Tl       5.015926920   4.826577929  12.730324787    0   0   0
Tl      -0.000094517   0.000064284  15.265864592
Tl       3.343877566   0.002408837  17.135824368
Tl       1.674278449   2.894705491  17.135537961
Tl       5.013718127   2.894682538  17.135761913
C        0.000042946  -0.000083953  17.423529479
End final coordinates

     Writing output data file calc.save

     General routines

     Parallel routines

   This run was terminated on:  22:28:35  11Jan2019

   JOB DONE.
Job  /afs/slac/g/suncat/bin/suncat-tsmpirun -x LD_LIBRARY_PATH -wdir /tmp/qe_673672jkhc74re_scratch pw.x -npool 4 -in pw.pwi

TID   HOST_NAME   COMMAND_LINE            STATUS            TERMINATION_TIME
00000 suncat0030 pw.x -npool 4 -i  Done                     01/11/2019 22:28:35
00001 suncat0030 pw.x -npool 4 -i  Done                     01/11/2019 22:28:35
00002 suncat0030 pw.x -npool 4 -i  Done                     01/11/2019 22:28:35
00003 suncat0030 pw.x -npool 4 -i  Done                     01/11/2019 22:28:35
00004 suncat0030 pw.x -npool 4 -i  Done                     01/11/2019 22:28:35
00005 suncat0030 pw.x -npool 4 -i  Done                     01/11/2019 22:28:35
00006 suncat0030 pw.x -npool 4 -i  Done                     01/11/2019 22:28:35
00007 suncat0030 pw.x -npool 4 -i  Done                     01/11/2019 22:28:35
00008 suncat0268 pw.x -npool 4 -i  Done                     01/11/2019 22:28:35
00009 suncat0268 pw.x -npool 4 -i  Done                     01/11/2019 22:28:35
00010 suncat0268 pw.x -npool 4 -i  Done                     01/11/2019 22:28:35
00011 suncat0268 pw.x -npool 4 -i  Done                     01/11/2019 22:28:35
00012 suncat0268 pw.x -npool 4 -i  Done                     01/11/2019 22:28:35
00013 suncat0268 pw.x -npool 4 -i  Done                     01/11/2019 22:28:35
00014 suncat0268 pw.x -npool 4 -i  Done                     01/11/2019 22:28:35
00015 suncat0268 pw.x -npool 4 -i  Done                     01/11/2019 22:28:35
00016 suncat0256 pw.x -npool 4 -i  Done                     01/11/2019 22:28:35
00017 suncat0256 pw.x -npool 4 -i  Done                     01/11/2019 22:28:35
00018 suncat0256 pw.x -npool 4 -i  Done                     01/11/2019 22:28:35
00019 suncat0256 pw.x -npool 4 -i  Done                     01/11/2019 22:28:35
00020 suncat0256 pw.x -npool 4 -i  Done                     01/11/2019 22:28:35
00021 suncat0256 pw.x -npool 4 -i  Done                     01/11/2019 22:28:35
00022 suncat0256 pw.x -npool 4 -i  Done                     01/11/2019 22:28:35
00023 suncat0256 pw.x -npool 4 -i  Done                     01/11/2019 22:28:35
00024 suncat0255 pw.x -npool 4 -i  Done                     01/11/2019 22:28:35
00025 suncat0255 pw.x -npool 4 -i  Done                     01/11/2019 22:28:35
00026 suncat0255 pw.x -npool 4 -i  Done                     01/11/2019 22:28:35
00027 suncat0255 pw.x -npool 4 -i  Done                     01/11/2019 22:28:35
00028 suncat0255 pw.x -npool 4 -i  Done                     01/11/2019 22:28:35
00029 suncat0255 pw.x -npool 4 -i  Done                     01/11/2019 22:28:35
00030 suncat0255 pw.x -npool 4 -i  Done                     01/11/2019 22:28:35
00031 suncat0255 pw.x -npool 4 -i  Done                     01/11/2019 22:28:35