     Program PWSCF v.5.1rc2 (svn rev. 11289) starts on  2May2018 at 17:54:37

     Current dimensions of program PWSCF are:
     Max number of different atomic species (ntypx) = 10
     Max number of k-points (npk) =  40000
     Max angular momentum in pseudopotentials (lmaxx) =  3
     Presently stress not available with electric field

     IMPORTANT: XC functional enforced from input :
     Exchange-correlation      = BEEF-VDW ( 1  4 27 13 2)
     Any further DFT definition will be discarded
     Please, verify this is what you really want

     Subspace diagonalization in iterative solution of the eigenvalue problem:
     a serial algorithm will be used

     bravais-lattice index     =            0
     lattice parameter (alat)  =       1.8897  a.u.
     unit-cell volume          =    4158.3597 (a.u.)^3
     number of atoms/cell      =           13
     number of atomic types    =            2
     number of electrons       =       162.00
     number of Kohn-Sham states=           91
     kinetic-energy cutoff     =      36.7493  Ry
     charge density cutoff     =     367.4932  Ry
     convergence threshold     =      1.0E-05
     mixing beta               =       0.3000
     number of iterations used =           10  plain     mixing
     Exchange-correlation      = BEEF-VDW ( 1  4 27 13 2)
     nstep                     =           50

     celldm(1)=   1.889726  celldm(2)=   0.000000  celldm(3)=   0.000000
     celldm(4)=   0.000000  celldm(5)=   0.000000  celldm(6)=   0.000000

     crystal axes: (cart. coord. in units of alat)
               a(1) = (   5.399178   0.000000   0.000000 )
               a(2) = (   2.699589   4.675825   0.000000 )
               a(3) = (   0.000000   0.000000  24.408411 )

     reciprocal axes: (cart. coord. in units 2 pi/alat)
               b(1) = (  0.185213 -0.106933  0.000000 )
               b(2) = (  0.000000  0.213866  0.000000 )
               b(3) = (  0.000000  0.000000  0.040969 )

     PseudoPot. # 1 for V  read from file:
     /u/if/mamunm/psp/gbrv1.5pbe/V.UPF
     MD5 check sum: 22b79981416ebb76fdaf5b1b8640f6fb
     Pseudo is Ultrasoft + core correction, Zval = 13.0
     Generated by new atomic code, or converted to UPF format
     Using radial grid of  853 points,  6 beta functions with:
                l(1) =   0
                l(2) =   0
                l(3) =   1
                l(4) =   1
                l(5) =   2
                l(6) =   2
     Q(r) pseudized with  8 coefficients,  rinner =    1.100   1.100   1.100
                                                       1.100   1.100

     PseudoPot. # 2 for O  read from file:
     /u/if/mamunm/psp/gbrv1.5pbe/O.UPF
     MD5 check sum: 734c27235a0248c51dbae37a1fbe46ec
     Pseudo is Ultrasoft + core correction, Zval =  6.0
     Generated by new atomic code, or converted to UPF format
     Using radial grid of  737 points,  5 beta functions with:
                l(1) =   0
                l(2) =   0
                l(3) =   1
                l(4) =   1
                l(5) =   2
     Q(r) pseudized with  8 coefficients,  rinner =    0.900   0.900   0.900
                                                       0.900   0.900

     vdW kernel table read from file vdW_kernel_table
     MD5 check sum: 095c7af220d748ca6e76c0b4c6cfb241

     atomic species   valence    mass     pseudopotential
        V1            13.00    50.94150     V ( 1.00)
        O1             6.00    15.99900     O ( 1.00)

     No symmetry found

   Cartesian axes

     site n.     atom                  positions (alat units)
         1           V1  tau(   1) = (   1.3497945   0.7793042  10.0000000  )
         2           V1  tau(   2) = (   4.0493836   0.7793042  10.0000000  )
         3           V1  tau(   3) = (   2.6995891   3.1172170  10.0000000  )
         4           V1  tau(   4) = (   5.3991782   3.1172170  10.0000000  )
         5           V1  tau(   5) = (   5.3991782   1.5586085  12.2042053  )
         6           V1  tau(   6) = (   2.6995891   1.5586085  12.2042053  )
         7           V1  tau(   7) = (   6.7489727   3.8965212  12.2042053  )
         8           V1  tau(   8) = (   4.0493836   3.8965212  12.2042053  )
         9           V1  tau(   9) = (   0.0000000   0.0000000  14.4084105  )
        10           V1  tau(  10) = (   2.6995891   0.0000000  14.4084105  )
        11           V1  tau(  11) = (   1.3497945   2.3379127  14.4084105  )
        12           V1  tau(  12) = (   4.0493836   2.3379127  14.4084105  )
        13           O1  tau(  13) = (   1.3497945   0.7793042  15.8319105  )

     number of k points=    20  Fermi-Dirac smearing, width (Ry)=  0.0110
                       cart. coord. in units 2pi/alat
        k(    1) = (   0.0000000   0.0000000   0.0000000), wk =   0.0555556
        k(    2) = (   0.0000000   0.0356443   0.0000000), wk =   0.1111111
        k(    3) = (   0.0000000   0.0712887   0.0000000), wk =   0.1111111
        k(    4) = (   0.0000000  -0.1069330   0.0000000), wk =   0.0555556
        k(    5) = (   0.0308689  -0.0178222   0.0000000), wk =   0.1111111
        k(    6) = (   0.0308689   0.0178222   0.0000000), wk =   0.1111111
        k(    7) = (   0.0308689   0.0534665   0.0000000), wk =   0.1111111
        k(    8) = (   0.0308689  -0.1247552   0.0000000), wk =   0.1111111
        k(    9) = (   0.0308689  -0.0891108   0.0000000), wk =   0.1111111
        k(   10) = (   0.0308689  -0.0534665   0.0000000), wk =   0.1111111
        k(   11) = (   0.0617378  -0.0356443   0.0000000), wk =   0.1111111
        k(   12) = (   0.0617378   0.0000000   0.0000000), wk =   0.1111111
        k(   13) = (   0.0617378   0.0356443   0.0000000), wk =   0.1111111
        k(   14) = (   0.0617378  -0.1425773   0.0000000), wk =   0.1111111
        k(   15) = (   0.0617378  -0.1069330   0.0000000), wk =   0.1111111
        k(   16) = (   0.0617378  -0.0712887   0.0000000), wk =   0.1111111
        k(   17) = (  -0.0926067   0.0534665   0.0000000), wk =   0.0555556
        k(   18) = (  -0.0926067   0.0891108   0.0000000), wk =   0.1111111
        k(   19) = (  -0.0926067   0.1247552   0.0000000), wk =   0.1111111
        k(   20) = (  -0.0926067  -0.0534665   0.0000000), wk =   0.0555556

     Largest allocated arrays     est. size (Mb)     dimensions
     Largest temporary arrays     est. size (Mb)     dimensions

     Check: negative/imaginary core charge=   -0.000001    0.000000

     Initial potential from superposition of free atoms
     Check: negative starting charge=   -0.011717

     starting charge  161.98527, renormalised to  162.00000

     negative rho (up, down):  1.172E-02 0.000E+00

     *
     * You are using vdW-DF for exchange-correlation in this calculation.
     * Please cite the following three references that made this development
     * possible:
     *
     *   M. Dion, H. Rydberg, E. Schroder, D. C. Langreth, and
     *   B. I. Lundqvist, Phys. Rev. Lett. 92, 246401 (2004).
     *
     *   T. Thonhauser, V. R. Cooper, S. Li, A. Puzder, P. Hyldgaard, and
     *   D. C. Langreth, Phys. Rev. B 76, 125112 (2007).
     *
     *   G. Roman-Perez and J. M. Soler, Phys. Rev. Lett. 103, 096102 (2009).
     *
     *
     * If you are using vdW-DF2, please also cite:
     *
     *   K. Lee, E. D. Murray, L. Kong, B. I. Lundqvist, and
     *   D. C. Langreth, Phys. Rev. B 82, 081101(R) (2010).
     *
     *
     * If you are calculating the stress with vdW-DF, please also cite:
     *
     *   R. Sabatini, E. Kucukbenli, B. Kolb, T. Thonhauser, and
     *   S. de Gironcoli, J. Phys.: Condens. Matter 24, 424209 (2012).
     *

     Carrying out vdW-DF run using the following parameters:

     Nqs =      20    Nr_points =    1024   r_max =   100.000
     q_mesh =
               0.00001000     0.04494208     0.09755937     0.15916263
               0.23128650     0.31572767     0.41458969     0.53033537
               0.66584808     0.82450364     1.01025438     1.22772762
               1.48234092     1.78043706     2.12944203     2.53805004
               3.01644009     3.57652955     4.23227104     5.00000000

     Gradients computed in reciprocal space

     Adding external electric field

     Computed dipole along edir(3) :
        Dipole               -0.0037 Ry au,         -0.0095 Debye
        Dipole field         -0.0000 Ry au

        Potential amp.        0.0010 Ry
        Total length         44.9721 bohr

     Starting wfc are  124 randomized atomic wfcs

     Self-consistent Calculation

     iteration #  1     ecut=    36.75 Ry     beta=0.30
     Davidson diagonalization with overlap
     ethr =  1.00E-02,  avg # of iterations =  2.4

[...]

     total energy              =   -1776.54523615 Ry
     Harris-Foulkes estimate   =   -1782.29944230 Ry
     estimated scf accuracy    <      11.88889208 Ry

[...]

     iteration # 28     ecut=    36.75 Ry     beta=0.30
     Davidson diagonalization with overlap
     c_bands:  1 eigenvalues not converged
     ethr =  2.77E-08,  avg # of iterations =  6.7

[...]

     End of self-consistent calculation

          k = 0.0000 0.0000 0.0000 ( 15569 PWs)   bands (ev):

   -63.5786 -63.4757 -63.4738 -63.4572 -63.4129 -63.3725 -63.3451 -63.3440
   -63.3266 -63.2903 -63.2900 -63.2890 -37.6720 -37.6155 -37.6149 -37.5842
   -37.5714 -37.5588 -37.5586 -37.4582 -37.4579 -37.4570 -37.3361 -37.3054
   -37.3041 -37.2618 -37.1699 -37.1692 -37.1656 -37.1447 -37.1437 -37.1407
   -37.0478 -37.0471 -37.0367 -37.0355 -37.0349 -37.0300 -36.9960 -36.9852
   -36.9848 -36.9426 -36.9421 -36.9393 -36.8958 -36.8957 -36.8176 -36.8176
   -17.0290  -5.2539  -3.8329  -3.2152  -3.2152  -3.1182  -2.5153  -2.2420
    -2.1789  -2.1787  -1.8819  -1.8818  -1.8431  -1.5187  -1.5186  -1.4812
    -1.3225  -1.3224  -1.0277  -0.5062  -0.5059  -0.0567   0.3089   0.4446
     0.4446   0.4525   0.6806   0.8684   0.9435   0.9435   1.0149   1.0153
     1.0693   1.1134   1.1135   1.1919   1.2200   1.2201   1.2717   1.2719
     1.7700   1.8044   1.8046

[...]

          k =-0.0926 0.0535 0.0000 ( 15660 PWs)   bands (ev):

[...]

     the Fermi energy is     0.8176 ev

!    total energy              =   -1781.57807456 Ry
     Harris-Foulkes estimate   =   -1781.57809795 Ry
     estimated scf accuracy    <       0.00000901 Ry

     The total energy is the sum of the following terms:

     one-electron contribution =  -15451.23140300 Ry
     hartree contribution      =    7714.42257173 Ry
     xc contribution           =    -251.73106669 Ry
     ewald contribution        =    6207.10130342 Ry
     electric field correction =       0.00008487 Ry
     smearing contrib. (-TS)   =      -0.13956488 Ry

     convergence has been achieved in  28 iterations

 BEEF-vdW xc energy contributions
           1 :   -216.853925243546
           2 :    194.430533243977
           3 :   -157.454472046043
           4 :    117.598525065438
           5 :   -84.9600848581412
           6 :    64.2849694027086
           7 :   -54.3837689591446
           8 :    50.4064642303806
           9 :   -47.2616963989430
          10 :    42.1938019803285
          11 :   -35.4066628998583
          12 :    28.8889968798095
          13 :   -24.5400813920172
          14 :    22.8362173579518
          15 :   -22.7148055163424
          16 :    22.4907117669109
          17 :   -21.0424118654247
          18 :    18.4553619542024
          19 :   -15.7718999756655
          20 :    14.1211749385934
          21 :   -13.8949855050506
          22 :    14.5289951721444
          23 :   -14.9751604269869
          24 :    14.4596136409228
          25 :   -12.9760664129532
          26 :    11.2079958805105
          27 :   -9.99497497139734
          28 :    9.74768630819037
          29 :   -10.2106559127800
          30 :    10.6971629577938
          31 :   -22.5037384011768
          32 :   -16.1849036047801

     Forces acting on atoms (Ry/au):

     negative rho (up, down):  1.563E-02 0.000E+00
     atom    1 type  1   force =    -0.00000145   -0.00001187   -0.00084834
     atom    2 type  1   force =     0.00003919    0.00145547   -0.00010675
     atom    3 type  1   force =     0.00126948   -0.00072719   -0.00010791
     atom    4 type  1   force =    -0.00124916   -0.00074083   -0.00007933
     atom    5 type  1   force =     0.00130849   -0.00075642    0.00323595
     atom    6 type  1   force =    -0.00127239   -0.00076537    0.00322209
     atom    7 type  1   force =     0.00001215    0.00000828    0.00191736
     atom    8 type  1   force =     0.00002404    0.00150254    0.00320728
     atom    9 type  1   force =     0.01022997    0.00588394    0.05930593
     atom   10 type  1   force =    -0.01024195    0.00590019    0.05943427
     atom   11 type  1   force =     0.00000124   -0.01181492    0.05927398
     atom   12 type  1   force =     0.00003002   -0.00001283   -0.03267334
     atom   13 type  2   force =    -0.00014963    0.00007902   -0.15578122

     Total force =     0.190570     Total SCF correction =     0.007157

     entering subroutine stress ...

     negative rho (up, down):  1.563E-02 0.000E+00
          total   stress  (Ry/bohr**3)                   (kbar)     P=  -22.88
  -0.00017752   0.00000006   0.00000012        -26.11      0.01      0.02
   0.00000006  -0.00017756  -0.00000005          0.01    -26.12     -0.01
   0.00000012  -0.00000005  -0.00011148          0.02     -0.01    -16.40

     BFGS Geometry Optimization

     number of scf cycles    =   1
     number of bfgs steps    =   0

     energy   new            =   -1781.5780745578 Ry

     new trust radius        =       0.1557813074 bohr
     new conv_thr            =       0.0000099958 Ry

ATOMIC_POSITIONS (crystal)
V1       0.166666667   0.166666667   0.409694847    0   0   0
V1       0.666666667   0.166666667   0.409694847    0   0   0
V1       0.166666667   0.666666667   0.409694847    0   0   0
V1       0.666666667   0.666666667   0.409694847    0   0   0
V1       0.833333333   0.333333333   0.500000000    0   0   0
V1       0.333333333   0.333333333   0.500000000    0   0   0
V1       0.833333333   0.833333333   0.500000000    0   0   0
V1       0.333333333   0.833333333   0.500000000    0   0   0
V1       0.000669695   0.000665903   0.591590913
V1       0.498662308   0.000667742   0.591593695
V1       0.000668687   0.498662870   0.591590220
V1       0.500003669   0.499998548   0.589596792
O1       0.166647530   0.166675610   0.645247860

     Writing output data file calc.save
     Check: negative starting charge=   -0.011717
     NEW-OLD atomic charge density approx. for the potential

     Check: negative/imaginary core charge=   -0.000001    0.000000
     Check: negative starting charge=   -0.011673

[...]

     energy   old            =   -1781.5780745578 Ry
     energy   new            =   -1781.6101830263 Ry

     CASE: energy  _new < energy  _old

[...]

     iteration #  1     ecut=    36.75 Ry     beta=0.30
     Davidson diagonalization with overlap
     c_bands:  1 eigenvalues not converged
     ethr =  1.00E-06,  avg # of iterations = 13.2

[...]

     Total force =     0.007350     Total SCF correction =     0.000683

[...]

     number of scf cycles    =  11
     number of bfgs steps    =  10

     energy   old            =   -1781.6596164613 Ry
     energy   new            =   -1781.6601143212 Ry

     CASE: energy  _new < energy  _old

     new trust radius        =       0.0099640641 bohr
     new conv_thr            =       0.0000001000 Ry

ATOMIC_POSITIONS (crystal)
V1       0.166666667   0.166666667   0.409694847    0   0   0
V1       0.666666667   0.166666667   0.409694847    0   0   0
V1       0.166666667   0.666666667   0.409694847    0   0   0
V1       0.666666667   0.666666667   0.409694847    0   0   0
V1       0.833333333   0.333333333   0.500000000    0   0   0
V1       0.333333333   0.333333333   0.500000000    0   0   0
V1       0.833333333   0.833333333   0.500000000    0   0   0
V1       0.333333333   0.833333333   0.500000000    0   0   0
V1      -0.003737355  -0.003727696   0.593438412
V1       0.507448034  -0.003728045   0.593439930
V1      -0.003738722   0.507458248   0.593438943
V1       0.499992203   0.500003391   0.573489281
O1       0.166657833   0.166667432   0.636123400

     Writing output data file calc.save
     Check: negative starting charge=   -0.011814
     NEW-OLD atomic charge density approx. for the potential

     Check: negative/imaginary core charge=   -0.000001    0.000000
     Check: negative starting charge=   -0.011620

[...]

     Self-consistent Calculation

[...]

     total energy              =   -1781.66016739 Ry
     Harris-Foulkes estimate   =   -1781.66016739 Ry
     estimated scf accuracy    <       0.00000010 Ry

     iteration # 18     ecut=    36.75 Ry     beta=0.30
     Davidson diagonalization with overlap
     ethr =  6.45E-11,  avg # of iterations =  1.4

[...]

     negative rho (up, down):  1.630E-02 0.000E+00

     Adding external electric field

     Computed dipole along edir(3) :
        Dipole               -0.0017 Ry au,         -0.0043 Debye
        Dipole field         -0.0000 Ry au

        Potential amp.        0.0005 Ry
        Total length         44.9721 bohr

     End of self-consistent calculation

[...]

          k = 0.0617-0.0713 0.0000 ( 15642 PWs)   bands (ev):

[...]

          k =-0.0926-0.0535 0.0000 ( 15660 PWs)   bands (ev):

   -63.3545 -63.3231 -63.2948 -63.1241 -63.1122 -63.0690 -63.0610 -63.0390
   -63.0388 -63.0182 -63.0009 -62.8006 -37.4258 -37.2889 -37.2774 -37.2578
   -37.2538 -37.1984 -37.1619 -37.1385 -37.1186 -37.1146 -37.0887 -37.0761
   -37.0594 -37.0576 -37.0441 -36.9315 -36.9242 -36.9172 -36.8962 -36.8760
   -36.8666 -36.8563 -36.8376 -36.8272 -36.8109 -36.7871 -36.7584 -36.7452
   -36.7300 -36.6895 -36.6819 -36.6177 -36.6105 -36.4913 -36.4443 -36.3532
   -18.2108  -4.6747  -4.3898  -4.1079  -3.1925  -3.1055  -1.9260  -1.7345
    -1.3403  -1.2964  -1.2485  -1.2190  -1.1486  -0.8647  -0.6602  -0.5506
    -0.4370  -0.4146  -0.2910  -0.2204  -0.0340   0.0576   0.1587   0.1790
     0.2165   0.2324   0.3570   0.4268   0.5528   0.6522   0.6877   0.6997
     0.8090   0.9422   1.0103   1.2322   1.2403   1.2596   1.4588   1.5125
     1.6215   1.8614   2.0418

     the Fermi energy is     1.0669 ev

!    total energy              =   -1781.66016737 Ry
     Harris-Foulkes estimate   =   -1781.66016739 Ry
     estimated scf accuracy    <       0.00000002 Ry

     The total energy is the sum of the following terms:

     one-electron contribution =  -15632.66773741 Ry
     hartree contribution      =    7806.34437327 Ry
     xc contribution           =    -252.03842069 Ry
     ewald contribution        =    6296.83050545 Ry
     electric field correction =       0.00000001 Ry
     smearing contrib. (-TS)   =      -0.12888799 Ry

     convergence has been achieved in  18 iterations

 BEEF-vdW xc energy contributions
           1 :   -217.173904905371
           2 :    194.847069953756
           3 :   -157.952649443933
           4 :    118.048273691968
           5 :   -85.2026636770636
           6 :    64.2341643804672
           7 :   -54.0811911837691
           8 :    50.0002180238993
           9 :   -46.9237754089926
          10 :    42.0264330334736
          11 :   -35.3927584993818
          12 :    28.9165652556392
          13 :   -24.4847057146750
          14 :    22.6443371470873
          15 :   -22.4325358158911
          16 :    22.2248943870624
          17 :   -20.8839429250000
          18 :    18.4173088716107
          19 :   -15.7826559504110
          20 :    14.0736892823998
          21 :   -13.7172438217693
          22 :    14.2305769395898
          23 :   -14.6425170097464
          24 :    14.2058076561283
          25 :   -12.8753892650535
          26 :    11.2532129653448
          27 :   -10.1029540912057
          28 :    9.81105665832152
          29 :   -10.1635428915809
          30 :    10.5524005204370
          31 :   -22.5227327237825
          32 :   -16.2187527316081

     Forces acting on atoms (Ry/au):

     negative rho (up, down):  1.630E-02 0.000E+00
     atom    1 type  1   force =     0.00000081   -0.00000012    0.00478469
     atom    2 type  1   force =     0.00000178    0.00126653   -0.00045578
     atom    3 type  1   force =     0.00109778   -0.00063304   -0.00045681
     atom    4 type  1   force =    -0.00109473   -0.00063425   -0.00045790
     atom    5 type  1   force =     0.02752976   -0.01589200   -0.00999627
     atom    6 type  1   force =    -0.02752563   -0.01589650   -0.00998804
     atom    7 type  1   force =    -0.00000082   -0.00000047    0.02962506
     atom    8 type  1   force =     0.00000504    0.03178804   -0.00999270
     atom    9 type  1   force =    -0.00008802   -0.00004794   -0.00077793
     atom   10 type  1   force =     0.00008494   -0.00004762   -0.00078152
     atom   11 type  1   force =     0.00000037    0.00009760   -0.00077740
     atom   12 type  1   force =     0.00000155   -0.00000270    0.00028459
     atom   13 type  2   force =    -0.00001281    0.00000247   -0.00100998

     Total force =     0.001718     Total SCF correction =     0.000254
     SCF correction compared to forces is large: reduce conv_thr to get better values

     entering subroutine stress ...

     negative rho (up, down):  1.630E-02 0.000E+00
          total   stress  (Ry/bohr**3)                   (kbar)     P=  -10.43
  -0.00009896   0.00000001   0.00000000        -14.56      0.00      0.00
   0.00000001  -0.00009896   0.00000000          0.00    -14.56      0.00
   0.00000000   0.00000000  -0.00001474          0.00      0.00     -2.17

     bfgs converged in  12 scf cycles and  11 bfgs steps
     (criteria: energy <  1.0E+00, force <  1.9E-03)

     End of BFGS Geometry Optimization

     Final energy   =   -1781.6601673678 Ry
Begin final coordinates

ATOMIC_POSITIONS (crystal)
V1       0.166666667   0.166666667   0.409694847    0   0   0
V1       0.666666667   0.166666667   0.409694847    0   0   0
V1       0.166666667   0.666666667   0.409694847    0   0   0
V1       0.666666667   0.666666667   0.409694847    0   0   0
V1       0.833333333   0.333333333   0.500000000    0   0   0
V1       0.333333333   0.333333333   0.500000000    0   0   0
V1       0.833333333   0.833333333   0.500000000    0   0   0
V1       0.333333333   0.833333333   0.500000000    0   0   0
V1      -0.003737355  -0.003727696   0.593438412
V1       0.507448034  -0.003728045   0.593439930
V1      -0.003738722   0.507458248   0.593438943
V1       0.499992203   0.500003391   0.573489281
O1       0.166657833   0.166667432   0.636123400
End final coordinates

     Writing output data file calc.save

     General routines

     Parallel routines

   This run was terminated on:  19:33: 9   2May2018

   JOB DONE.
Job  /afs/slac/g/suncat/bin/suncat-tsmpirun -x LD_LIBRARY_PATH -wdir /scratch/qe821271_aSYql pw.x -npool 4 -in pw.inp

TID   HOST_NAME   COMMAND_LINE            STATUS            TERMINATION_TIME
00000 suncat0043 pw.x -npool 4 -i  Done                     05/02/2018 19:33:09
00001 suncat0043 pw.x -npool 4 -i  Done                     05/02/2018 19:33:09
00002 suncat0043 pw.x -npool 4 -i  Done                     05/02/2018 19:33:09
00003 suncat0043 pw.x -npool 4 -i  Done                     05/02/2018 19:33:09
00004 suncat0043 pw.x -npool 4 -i  Done                     05/02/2018 19:33:09
00005 suncat0043 pw.x -npool 4 -i  Done                     05/02/2018 19:33:09
00006 suncat0043 pw.x -npool 4 -i  Done                     05/02/2018 19:33:09
00007 suncat0043 pw.x -npool 4 -i  Done                     05/02/2018 19:33:09
00008 suncat0038 pw.x -npool 4 -i  Done                     05/02/2018 19:33:09
00009 suncat0038 pw.x -npool 4 -i  Done                     05/02/2018 19:33:09
00010 suncat0038 pw.x -npool 4 -i  Done                     05/02/2018 19:33:09
00011 suncat0038 pw.x -npool 4 -i  Done                     05/02/2018 19:33:09
00012 suncat0038 pw.x -npool 4 -i  Done                     05/02/2018 19:33:09
00013 suncat0038 pw.x -npool 4 -i  Done                     05/02/2018 19:33:09
00014 suncat0038 pw.x -npool 4 -i  Done                     05/02/2018 19:33:09
00015 suncat0038 pw.x -npool 4 -i  Done                     05/02/2018 19:33:09
00016 suncat0027 pw.x -npool 4 -i  Done                     05/02/2018 19:33:09
00017 suncat0027 pw.x -npool 4 -i  Done                     05/02/2018 19:33:09
00018 suncat0027 pw.x -npool 4 -i  Done                     05/02/2018 19:33:09
00019 suncat0027 pw.x -npool 4 -i  Done                     05/02/2018 19:33:09
00020 suncat0027 pw.x -npool 4 -i  Done                     05/02/2018 19:33:09
00021 suncat0027 pw.x -npool 4 -i  Done                     05/02/2018 19:33:09
00022 suncat0027 pw.x -npool 4 -i  Done                     05/02/2018 19:33:09
00023 suncat0027 pw.x -npool 4 -i  Done                     05/02/2018 19:33:09
00024 suncat0153 pw.x -npool 4 -i  Done                     05/02/2018 19:33:09
00025 suncat0153 pw.x -npool 4 -i  Done                     05/02/2018 19:33:09
00026 suncat0153 pw.x -npool 4 -i  Done                     05/02/2018 19:33:09
00027 suncat0153 pw.x -npool 4 -i  Done                     05/02/2018 19:33:09
00028 suncat0153 pw.x -npool 4 -i  Done                     05/02/2018 19:33:09
00029 suncat0153 pw.x -npool 4 -i  Done                     05/02/2018 19:33:09
00030 suncat0153 pw.x -npool 4 -i  Done                     05/02/2018 19:33:09
00031 suncat0153 pw.x -npool 4 -i  Done                     05/02/2018 19:33:09