     Program PWSCF v.5.1rc2 (svn rev. 11289) starts on 24Apr2018 at  9:48:21

     Current dimensions of program PWSCF are:
     Max number of different atomic species (ntypx) = 10
     Max number of k-points (npk) =  40000
     Max angular momentum in pseudopotentials (lmaxx) =  3
     Presently stress not available with electric field

     IMPORTANT: XC functional enforced from input :
     Exchange-correlation      = BEEF-VDW ( 1  4 27 13 2)
     Any further DFT definition will be discarded
     Please, verify this is what you really want

     Subspace diagonalization in iterative solution of the eigenvalue problem:
     a serial algorithm will be used

     bravais-lattice index     =            0
     lattice parameter (alat)  =       1.8897  a.u.
     unit-cell volume          =    4158.3597 (a.u.)^3
     number of atoms/cell      =           14
     number of atomic types    =            3
     number of electrons       =       161.00
     number of Kohn-Sham states=           90
     kinetic-energy cutoff     =      36.7493  Ry
     charge density cutoff     =     367.4932  Ry
     convergence threshold     =      1.0E-05
     mixing beta               =       0.3000
     number of iterations used =           10  plain     mixing
     Exchange-correlation      = BEEF-VDW ( 1  4 27 13 2)
     nstep                     =           50

     celldm(1)=   1.889726  celldm(2)=   0.000000  celldm(3)=   0.000000
     celldm(4)=   0.000000  celldm(5)=   0.000000  celldm(6)=   0.000000

     crystal axes: (cart. coord. in units of alat)
               a(1) = (   5.399178   0.000000   0.000000 )
               a(2) = (   2.699589   4.675825   0.000000 )
               a(3) = (   0.000000   0.000000  24.408411 )

     reciprocal axes: (cart. coord. in units 2 pi/alat)
               b(1) = (  0.185213 -0.106933  0.000000 )
               b(2) = (  0.000000  0.213866  0.000000 )
               b(3) = (  0.000000  0.000000  0.040969 )

     PseudoPot. # 1 for V  read from file:
     /u/if/mamunm/psp/gbrv1.5pbe/V.UPF
     MD5 check sum: 22b79981416ebb76fdaf5b1b8640f6fb
     Pseudo is Ultrasoft + core correction, Zval = 13.0
     Generated by new atomic code, or converted to UPF format
     Using radial grid of  853 points,  6 beta functions with:
                l(1) =   0
                l(2) =   0
                l(3) =   1
                l(4) =   1
                l(5) =   2
                l(6) =   2
     Q(r) pseudized with  8 coefficients,  rinner =    1.100   1.100   1.100
                                                       1.100   1.100

     PseudoPot. # 2 for C  read from file:
     /u/if/mamunm/psp/gbrv1.5pbe/C.UPF
     MD5 check sum: d1aef80898a10debaa0f26306b886e00
     Pseudo is Ultrasoft + core correction, Zval =  4.0
     Generated by new atomic code, or converted to UPF format
     Using radial grid of  721 points,  4 beta functions with:
                l(1) =   0
                l(2) =   0
                l(3) =   1
                l(4) =   1
     Q(r) pseudized with  8 coefficients,  rinner =    1.100   1.100   1.100

     PseudoPot. # 3 for H  read from file:
     /u/if/mamunm/psp/gbrv1.5pbe/H.UPF
     MD5 check sum: 761ae9a214b05c3daf00ab9f6b793d6f
     Pseudo is Ultrasoft, Zval =  1.0
     Generated by new atomic code, or converted to UPF format
     Using radial grid of  615 points,  2 beta functions with:
                l(1) =   0
                l(2) =   0
     Q(r) pseudized with  8 coefficients,  rinner =    0.700

     vdW kernel table read from file vdW_kernel_table
     MD5 check sum: 095c7af220d748ca6e76c0b4c6cfb241

     atomic species   valence    mass     pseudopotential
        V1            13.00    50.94150     V ( 1.00)
        C1             4.00    12.01100     C ( 1.00)
        H1             1.00     1.00800     H ( 1.00)

     No symmetry found

   Cartesian axes

     site n.     atom                  positions (alat units)
         1           V1  tau(   1) = (   1.3497945   0.7793042  10.0000000  )
         2           V1  tau(   2) = (   4.0493836   0.7793042  10.0000000  )
         3           V1  tau(   3) = (   2.6995891   3.1172170  10.0000000  )
         4           V1  tau(   4) = (   5.3991782   3.1172170  10.0000000  )
         5           V1  tau(   5) = (   5.3991782   1.5586085  12.2042053  )
         6           V1  tau(   6) = (   2.6995891   1.5586085  12.2042053  )
         7           V1  tau(   7) = (   6.7489727   3.8965212  12.2042053  )
         8           V1  tau(   8) = (   4.0493836   3.8965212  12.2042053  )
         9           V1  tau(   9) = (   0.0000000   0.0000000  14.4084105  )
        10           V1  tau(  10) = (   2.6995891   0.0000000  14.4084105  )
        11           V1  tau(  11) = (   1.3497945   2.3379127  14.4084105  )
        12           V1  tau(  12) = (   4.0493836   2.3379127  14.4084105  )
        13           C1  tau(  13) = (   1.3497945   0.7793042  15.8969105  )
        14           H1  tau(  14) = (   1.3497945   0.7793042  16.9969105  )

     number of k points=    20  Fermi-Dirac smearing, width (Ry)=  0.0110
                       cart. coord. in units 2pi/alat
        k(    1) = (   0.0000000   0.0000000   0.0000000), wk =   0.0555556
        k(    2) = (   0.0000000   0.0356443   0.0000000), wk =   0.1111111
        k(    3) = (   0.0000000   0.0712887   0.0000000), wk =   0.1111111
        k(    4) = (   0.0000000  -0.1069330   0.0000000), wk =   0.0555556
        k(    5) = (   0.0308689  -0.0178222   0.0000000), wk =   0.1111111
        k(    6) = (   0.0308689   0.0178222   0.0000000), wk =   0.1111111
        k(    7) = (   0.0308689   0.0534665   0.0000000), wk =   0.1111111
        k(    8) = (   0.0308689  -0.1247552   0.0000000), wk =   0.1111111
        k(    9) = (   0.0308689  -0.0891108   0.0000000), wk =   0.1111111
        k(   10) = (   0.0308689  -0.0534665   0.0000000), wk =   0.1111111
        k(   11) = (   0.0617378  -0.0356443   0.0000000), wk =   0.1111111
        k(   12) = (   0.0617378   0.0000000   0.0000000), wk =   0.1111111
        k(   13) = (   0.0617378   0.0356443   0.0000000), wk =   0.1111111
        k(   14) = (   0.0617378  -0.1425773   0.0000000), wk =   0.1111111
        k(   15) = (   0.0617378  -0.1069330   0.0000000), wk =   0.1111111
        k(   16) = (   0.0617378  -0.0712887   0.0000000), wk =   0.1111111
        k(   17) = (  -0.0926067   0.0534665   0.0000000), wk =   0.0555556
        k(   18) = (  -0.0926067   0.0891108   0.0000000), wk =   0.1111111
        k(   19) = (  -0.0926067   0.1247552   0.0000000), wk =   0.1111111
        k(   20) = (  -0.0926067  -0.0534665   0.0000000), wk =   0.0555556

     Largest allocated arrays     est. size (Mb)     dimensions
     Largest temporary arrays     est. size (Mb)     dimensions

     Check: negative/imaginary core charge=   -0.000001    0.000000

     Initial potential from superposition of free atoms
     Check: negative starting charge=   -0.011537

     starting charge  160.98522, renormalised to  161.00000

     negative rho (up, down):  1.154E-02 0.000E+00

     *
     * You are using vdW-DF for exchange-correlation in this calculation.
     * Please cite the following three references that made this development
     * possible:
     *
     *   M. Dion, H. Rydberg, E. Schroder, D. C. Langreth, and
     *   B. I. Lundqvist, Phys. Rev. Lett. 92, 246401 (2004).
     *
     *   T. Thonhauser, V. R. Cooper, S. Li, A. Puzder, P. Hyldgaard, and
     *   D. C. Langreth, Phys. Rev. B 76, 125112 (2007).
     *
     *   G. Roman-Perez and J. M. Soler, Phys. Rev. Lett. 103, 096102 (2009).
     *
     *
     * If you are using vdW-DF2, please also cite:
     *
     *   K. Lee, E. D. Murray, L. Kong, B. I. Lundqvist, and
     *   D. C. Langreth, Phys. Rev. B 82, 081101(R) (2010).
     *
     *
     * If you are calculating the stress with vdW-DF, please also cite:
     *
     *   R. Sabatini, E. Kucukbenli, B. Kolb, T. Thonhauser, and
     *   S. de Gironcoli, J. Phys.: Condens. Matter 24, 424209 (2012).
     *

     Carrying out vdW-DF run using the following parameters:

     Nqs =      20    Nr_points =    1024   r_max =   100.000
     q_mesh =
               0.00001000     0.04494208     0.09755937     0.15916263
               0.23128650     0.31572767     0.41458969     0.53033537
               0.66584808     0.82450364     1.01025438     1.22772762
               1.48234092     1.78043706     2.12944203     2.53805004
               3.01644009     3.57652955     4.23227104     5.00000000

     Gradients computed in reciprocal space

     Adding external electric field

     Computed dipole along edir(3) :
        Dipole               -0.0030 Ry au,         -0.0077 Debye
        Dipole field         -0.0000 Ry au

        Potential amp.        0.0008 Ry
        Total length         44.9721 bohr

     Starting wfc are  125 randomized atomic wfcs

     Self-consistent Calculation

     iteration #  1     ecut=    36.75 Ry     beta=0.30
     Davidson diagonalization with overlap
     ethr =  1.00E-02,  avg # of iterations =  2.4

[...]

     total energy              =   -1756.41698398 Ry
     Harris-Foulkes estimate   =   -1762.36740748 Ry
     estimated scf accuracy    <      12.34500644 Ry

[...]

     iteration # 16     ecut=    36.75 Ry     beta=0.30
     Davidson diagonalization with overlap
     c_bands:  1 eigenvalues not converged
     ethr =  1.93E-05,  avg # of iterations =  6.5

[...]

     End of self-consistent calculation

          k = 0.0000 0.0000 0.0000 ( 15569 PWs)   bands (ev):

   -63.1567 -63.0965 -63.0371 -63.0188 -63.0040 -63.0033 -62.9797 -62.9739
   -62.9735 -62.9449 -62.9440 -62.9425 -37.2381 -37.2285 -37.2283 -37.1973
   -37.1799 -37.1798 -37.1557 -37.1023 -37.1020 -37.0987 -36.9574 -36.8810
   -36.8294 -36.8289 -36.8165 -36.8162 -36.8150 -36.7398 -36.7395 -36.7343
   -36.6794 -36.6762 -36.6757 -36.6626 -36.6623 -36.6472 -36.6240 -36.5946
   -36.5941 -36.5910 -36.5719 -36.5719 -36.5196 -36.5195 -36.4714 -36.4714
    -9.4755  -4.9957  -4.0382  -2.8840  -2.0992  -1.9625  -1.9623  -1.8878
    -1.7303  -1.7302  -1.4918  -1.2902  -1.2901  -1.1367  -1.1367  -1.1294
    -0.7599  -0.4995  -0.4994   0.2551   0.2715   0.2716   0.6340   0.8270
     0.8803   0.8804   1.0157   1.2113   1.3134   1.3134   1.3971   1.3973
     1.4620   1.4890   1.4891   1.5628   1.5798   1.5799   1.6908   1.6909
     1.9978   2.2319

[...]

          k =-0.0926 0.0535 0.0000 ( 15660 PWs)   bands (ev):

[...]

     the Fermi energy is     1.1632 ev

!    total energy              =   -1761.66370420 Ry
     Harris-Foulkes estimate   =   -1761.66371101 Ry
     estimated scf accuracy    <       0.00000815 Ry

     The total energy is the sum of the following terms:

     one-electron contribution =  -15256.56671533 Ry
     hartree contribution      =    7617.86864640 Ry
     xc contribution           =    -248.57148620 Ry
     ewald contribution        =    6125.74546486 Ry
     electric field correction =       0.00000600 Ry
     smearing contrib. (-TS)   =      -0.13961992 Ry

     convergence has been achieved in  33 iterations

 BEEF-vdW xc energy contributions
           1 :   -214.109392474090
           2 :    192.127708248507
           3 :   -155.852312834392
           4 :    116.706376056849
           5 :   -84.6093903624179
           6 :    64.2536676394676
           7 :   -54.4785604662565
           8 :    50.4872308948928
           9 :   -47.2399272229519
          10 :    42.0338303527755
          11 :   -35.1305608106805
          12 :    28.5705778051997
          13 :   -24.2829162506088
          14 :    22.7372973587048
          15 :   -22.8253459583467
          16 :    22.7981407918608
          17 :   -21.4828255764769
          18 :    18.9429851613458
          19 :   -16.2283362988591
          20 :    14.4957299781460
          21 :   -14.1717813264567
          22 :    14.7194557228798
          23 :   -15.1017096779801
          24 :    14.5436739241038
          25 :   -13.0373126948679
          26 :    11.2682197842992
          27 :   -10.0761778891469
          28 :    9.86309434857156
          29 :   -10.3563826482693
          30 :    10.8533244284814
          31 :   -22.2927641326333
          32 :   -16.0914347690194

     Forces acting on atoms (Ry/au):

     negative rho (up, down):  1.553E-02 0.000E+00
     atom    1 type  1   force =    -0.00000420   -0.00000985   -0.00109472
     atom    2 type  1   force =    -0.00000149    0.00138249    0.00038889
     atom    3 type  1   force =     0.00121906   -0.00068244    0.00044351
     atom    4 type  1   force =    -0.00121454   -0.00068105    0.00044724
     atom    5 type  1   force =    -0.00136953    0.00072343    0.00164891
     atom    6 type  1   force =     0.00136610    0.00074604    0.00159057
     atom    7 type  1   force =     0.00001516    0.00003520   -0.00247782
     atom    8 type  1   force =    -0.00002038   -0.00151887    0.00170098
     atom    9 type  1   force =    -0.00033164   -0.00020095    0.03957539
     atom   10 type  1   force =     0.00036079   -0.00020161    0.03955331
     atom   11 type  1   force =     0.00001201    0.00041006    0.03957787
     atom   12 type  1   force =    -0.00000921    0.00000257   -0.00455503
     atom   13 type  2   force =    -0.00002129   -0.00000479   -0.10778302
     atom   14 type  3   force =    -0.00000084   -0.00000024   -0.00901608

     Total force =     0.128128     Total SCF correction =     0.006906

     entering subroutine stress ...

     negative rho (up, down):  1.553E-02 0.000E+00
          total   stress  (Ry/bohr**3)                   (kbar)     P=  -21.23
  -0.00017244  -0.00000003  -0.00000004        -25.37     -0.00     -0.01
  -0.00000003  -0.00017246   0.00000001         -0.00    -25.37      0.00
  -0.00000004   0.00000001  -0.00008815         -0.01      0.00    -12.97

     BFGS Geometry Optimization

     number of scf cycles    =   1
     number of bfgs steps    =   0

     energy   new            =   -1761.6637041976 Ry

     new trust radius        =       0.1077830197 bohr
     new conv_thr            =       0.0000099958 Ry

ATOMIC_POSITIONS (crystal)
V1       0.166666667   0.166666667   0.409694847    0   0   0
V1       0.666666667   0.166666667   0.409694847    0   0   0
V1       0.166666667   0.666666667   0.409694847    0   0   0
V1       0.666666667   0.666666667   0.409694847    0   0   0
V1       0.833333333   0.333333333   0.500000000    0   0   0
V1       0.333333333   0.333333333   0.500000000    0   0   0
V1       0.833333333   0.833333333   0.500000000    0   0   0
V1       0.333333333   0.833333333   0.500000000    0   0   0
V1      -0.000021133  -0.000022742   0.591163152
V1       0.500046770  -0.000022817   0.591162674
V1      -0.000022027   0.500046408   0.591163206
V1       0.499998952   0.500000290   0.590206400
C1       0.166664851   0.166666125   0.648951483
H1       0.166666598   0.166666639   0.696159195

     Writing output data file calc.save
     Check: negative starting charge=   -0.011537
     NEW-OLD atomic charge density approx. for the potential

     Check: negative/imaginary core charge=   -0.000001    0.000000
     Check: negative starting charge=   -0.011276

[...]

     energy   old            =   -1761.6637041976 Ry
     energy   new            =   -1761.6750425800 Ry

     CASE: energy  _new < energy  _old

[...]

     Total force =     0.007739     Total SCF correction =     0.000265

[...]

     number of scf cycles    =  11
     number of bfgs steps    =  10

     energy   old            =   -1761.6992976249 Ry
     energy   new            =   -1761.6996631540 Ry

     CASE: energy  _new < energy  _old

     new trust radius        =       0.0063171836 bohr
     new conv_thr            =       0.0000001000 Ry

ATOMIC_POSITIONS (crystal)
V1       0.166666667   0.166666667   0.409694847    0   0   0
V1       0.666666667   0.166666667   0.409694847    0   0   0
V1       0.166666667   0.666666667   0.409694847    0   0   0
V1       0.666666667   0.666666667   0.409694847    0   0   0
V1       0.833333333   0.333333333   0.500000000    0   0   0
V1       0.333333333   0.333333333   0.500000000    0   0   0
V1       0.833333333   0.833333333   0.500000000    0   0   0
V1       0.333333333   0.833333333   0.500000000    0   0   0
V1      -0.004693038  -0.004692744   0.591312350
V1       0.509384097  -0.004690807   0.591311792
V1      -0.004691179   0.509384520   0.591311282
V1       0.500001490   0.499997344   0.581089868
C1       0.166667597   0.166665496   0.640030093
H1       0.166666345   0.166664583   0.685198442

     Writing output data file calc.save
     Check: negative starting charge=   -0.010834
     NEW-OLD atomic charge density approx. for the potential

     Check: negative/imaginary core charge=   -0.000001    0.000000
     Check: negative starting charge=   -0.010779

[...]

     Self-consistent Calculation

[...]

     Threshold (ethr) on eigenvalues was too large:
     Diagonalizing with lowered threshold

     Davidson diagonalization with overlap
     ethr =  6.01E-08,  avg # of iterations =  2.9

[...]

     total energy              =   -1761.69970978 Ry
     Harris-Foulkes estimate   =   -1761.69970980 Ry
     estimated scf accuracy    <       0.00000013 Ry

     iteration # 18     ecut=    36.75 Ry     beta=0.30
     Davidson diagonalization with overlap
     ethr =  7.78E-11,  avg # of iterations =  1.1

[...]

     negative rho (up, down):  1.577E-02 0.000E+00

     Adding external electric field

     Computed dipole along edir(3) :
        Dipole                0.0912 Ry au,          0.2318 Debye
        Dipole field          0.0003 Ry au

        Potential amp.       -0.0248 Ry
        Total length         44.9721 bohr

     End of self-consistent calculation

[...]

          k = 0.0617-0.0713 0.0000 ( 15642 PWs)   bands (ev):

[...]

          k =-0.0926-0.0535 0.0000 ( 15660 PWs)   bands (ev):

   -62.9964 -62.9820 -62.9320 -62.9258 -62.9134 -62.9124 -62.8943 -62.8874
   -62.8754 -62.8732 -62.8657 -62.8407 -37.0929 -37.0211 -37.0188 -37.0043
   -37.0016 -36.9823 -36.9257 -36.9070 -36.8950 -36.8869 -36.8584 -36.8459
   -36.7795 -36.7379 -36.7303 -36.7196 -36.7115 -36.6919 -36.6907 -36.6794
   -36.6690 -36.6674 -36.6513 -36.6451 -36.6349 -36.6189 -36.5824 -36.5563
   -36.5532 -36.5223 -36.5116 -36.4819 -36.4732 -36.4634 -36.4437 -36.4350
    -9.6583  -4.0436  -3.2143  -2.9581  -2.1369  -1.5845  -1.3802  -1.3148
    -1.1270  -1.0856  -1.0449  -1.0104  -0.8720  -0.4577  -0.3637  -0.2888
    -0.2628  -0.2248  -0.1186  -0.0872   0.1926   0.2372   0.3308   0.3391
     0.4216   0.4329   0.5549   0.7648   0.7995   0.8376   0.8659   0.9278
     0.9883   1.0806   1.1565   1.3933   1.4162   1.4420   1.5582   1.7825
     1.8926   2.0370

     the Fermi energy is     1.2278 ev

!    total energy              =   -1761.69970977 Ry
     Harris-Foulkes estimate   =   -1761.69970955 Ry
     estimated scf accuracy    <       0.00000002 Ry

     The total energy is the sum of the following terms:

     one-electron contribution =  -15403.31774422 Ry
     hartree contribution      =    7691.69888291 Ry
     xc contribution           =    -248.82051267 Ry
     ewald contribution        =    6198.87422047 Ry
     electric field correction =       0.00002513 Ry
     smearing contrib. (-TS)   =      -0.13458139 Ry

     convergence has been achieved in  18 iterations

 BEEF-vdW xc energy contributions
           1 :   -214.359197359576
           2 :    192.439199706969
           3 :   -156.221120319822
           4 :    117.057004713447
           5 :   -84.8437473670403
           6 :    64.3135269872596
           7 :   -54.3847779895324
           8 :    50.3296757155306
           9 :   -47.1241484927102
          10 :    42.0176599973369
          11 :   -35.1907798576815
          12 :    28.6223885802397
          13 :   -24.2401820073040
          14 :    22.5739236804364
          15 :   -22.5955159595232
          16 :    22.6002313198792
          17 :   -21.3942279997094
          18 :    18.9720939359278
          19 :   -16.3142473255491
          20 :    14.5518343975163
          21 :   -14.1415602199544
          22 :    14.6084426302723
          23 :   -14.9681602585130
          24 :    14.4572944466219
          25 :   -13.0342328797234
          26 :    11.3304772333635
          27 :   -10.1470319613473
          28 :    9.88637568802326
          29 :   -10.3128742984429
          30 :    10.7680876384512
          31 :   -22.3096300687529
          32 :   -16.1187075525355

     Forces acting on atoms (Ry/au):

     negative rho (up, down):  1.577E-02 0.000E+00
     atom    1 type  1   force =     0.00000033   -0.00000107    0.00255887
     atom    2 type  1   force =    -0.00000022    0.00142945    0.00100093
     atom    3 type  1   force =     0.00123850   -0.00071457    0.00099956
     atom    4 type  1   force =    -0.00123686   -0.00071396    0.00099865
     atom    5 type  1   force =     0.01480137   -0.00854404   -0.00481705
     atom    6 type  1   force =    -0.01480134   -0.00854385   -0.00481918
     atom    7 type  1   force =     0.00000017   -0.00000137    0.00857632
     atom    8 type  1   force =    -0.00000016    0.01708988   -0.00482029
     atom    9 type  1   force =     0.00021252    0.00011895   -0.00001668
     atom   10 type  1   force =    -0.00021122    0.00011603   -0.00001545
     atom   11 type  1   force =    -0.00000212   -0.00024352   -0.00000912
     atom   12 type  1   force =    -0.00000009    0.00000390    0.00081303
     atom   13 type  2   force =    -0.00000150    0.00000362    0.00110958
     atom   14 type  3   force =     0.00000061    0.00000054   -0.00155917

     Total force =     0.002121     Total SCF correction =     0.000225
     SCF correction compared to forces is large: reduce conv_thr to get better values

     entering subroutine stress ...

     negative rho (up, down):  1.577E-02 0.000E+00
          total   stress  (Ry/bohr**3)                   (kbar)     P=   -9.80
  -0.00009348  -0.00000000  -0.00000000        -13.75     -0.00     -0.00
  -0.00000000  -0.00009348   0.00000000         -0.00    -13.75      0.00
  -0.00000000   0.00000000  -0.00001284         -0.00      0.00     -1.89

     bfgs converged in  12 scf cycles and  11 bfgs steps
     (criteria: energy <  1.0E+00, force <  1.9E-03)

     End of BFGS Geometry Optimization

     Final energy   =   -1761.6997097694 Ry
Begin final coordinates

ATOMIC_POSITIONS (crystal)
V1       0.166666667   0.166666667   0.409694847    0   0   0
V1       0.666666667   0.166666667   0.409694847    0   0   0
V1       0.166666667   0.666666667   0.409694847    0   0   0
V1       0.666666667   0.666666667   0.409694847    0   0   0
V1       0.833333333   0.333333333   0.500000000    0   0   0
V1       0.333333333   0.333333333   0.500000000    0   0   0
V1       0.833333333   0.833333333   0.500000000    0   0   0
V1       0.333333333   0.833333333   0.500000000    0   0   0
V1      -0.004693038  -0.004692744   0.591312350
V1       0.509384097  -0.004690807   0.591311792
V1      -0.004691179   0.509384520   0.591311282
V1       0.500001490   0.499997344   0.581089868
C1       0.166667597   0.166665496   0.640030093
H1       0.166666345   0.166664583   0.685198442
End final coordinates

     Writing output data file calc.save

     General routines

     Parallel routines

   This run was terminated on:  11:26:31  24Apr2018

   JOB DONE.
Job  /afs/slac/g/suncat/bin/suncat-tsmpirun -x LD_LIBRARY_PATH -wdir /scratch/qe708219_EDyOG pw.x -npool 4 -in pw.inp

TID   HOST_NAME   COMMAND_LINE            STATUS            TERMINATION_TIME
00000 suncat0182 pw.x -npool 4 -i  Done                     04/24/2018 11:26:31
00001 suncat0182 pw.x -npool 4 -i  Done                     04/24/2018 11:26:31
00002 suncat0182 pw.x -npool 4 -i  Done                     04/24/2018 11:26:31
00003 suncat0182 pw.x -npool 4 -i  Done                     04/24/2018 11:26:31
00004 suncat0182 pw.x -npool 4 -i  Done                     04/24/2018 11:26:31
00005 suncat0182 pw.x -npool 4 -i  Done                     04/24/2018 11:26:31
00006 suncat0182 pw.x -npool 4 -i  Done                     04/24/2018 11:26:31
00007 suncat0182 pw.x -npool 4 -i  Done                     04/24/2018 11:26:31
00008 suncat0159 pw.x -npool 4 -i  Done                     04/24/2018 11:26:31
00009 suncat0159 pw.x -npool 4 -i  Done                     04/24/2018 11:26:31
00010 suncat0159 pw.x -npool 4 -i  Done                     04/24/2018 11:26:31
00011 suncat0159 pw.x -npool 4 -i  Done                     04/24/2018 11:26:31
00012 suncat0159 pw.x -npool 4 -i  Done                     04/24/2018 11:26:31
00013 suncat0159 pw.x -npool 4 -i  Done                     04/24/2018 11:26:31
00014 suncat0159 pw.x -npool 4 -i  Done                     04/24/2018 11:26:31
00015 suncat0159 pw.x -npool 4 -i  Done                     04/24/2018 11:26:31
00016 suncat0247 pw.x -npool 4 -i  Done                     04/24/2018 11:26:31
00017 suncat0247 pw.x -npool 4 -i  Done                     04/24/2018 11:26:31
00018 suncat0247 pw.x -npool 4 -i  Done                     04/24/2018 11:26:31
00019 suncat0247 pw.x -npool 4 -i  Done                     04/24/2018 11:26:31
00020 suncat0247 pw.x -npool 4 -i  Done                     04/24/2018 11:26:31
00021 suncat0247 pw.x -npool 4 -i  Done                     04/24/2018 11:26:31
00022 suncat0247 pw.x -npool 4 -i  Done                     04/24/2018 11:26:31
00023 suncat0247 pw.x -npool 4 -i  Done                     04/24/2018 11:26:31
00024 suncat0219 pw.x -npool 4 -i  Done                     04/24/2018 11:26:31
00025 suncat0219 pw.x -npool 4 -i  Done                     04/24/2018 11:26:31
00026 suncat0219 pw.x -npool 4 -i  Done                     04/24/2018 11:26:31
00027 suncat0219 pw.x -npool 4 -i  Done                     04/24/2018 11:26:31
00028 suncat0219 pw.x -npool 4 -i  Done                     04/24/2018 11:26:31
00029 suncat0219 pw.x -npool 4 -i  Done                     04/24/2018 11:26:31
00030 suncat0219 pw.x -npool 4 -i  Done                     04/24/2018 11:26:31
00031 suncat0219 pw.x -npool 4 -i  Done                     04/24/2018 11:26:31