     Program PWSCF v.5.1rc2 (svn rev. 11289) starts on  2May2018 at 14:50:14

     Current dimensions of program PWSCF are:
     Max number of different atomic species (ntypx) = 10
     Max number of k-points (npk) =  40000
     Max angular momentum in pseudopotentials (lmaxx) =  3
     Presently stress not available with electric field

     IMPORTANT: XC functional enforced from input :
     Exchange-correlation      = BEEF-VDW ( 1  4 27 13 2)
     Any further DFT definition will be discarded
     Please, verify this is what you really want

     Subspace diagonalization in iterative solution of the eigenvalue problem:
     a serial algorithm will be used

     bravais-lattice index     =            0
     lattice parameter (alat)  =       1.8897  a.u.
     unit-cell volume          =    6116.8020 (a.u.)^3
     number of atoms/cell      =           13
     number of atomic types    =            2
     number of electrons       =       133.00
     number of Kohn-Sham states=           76
     kinetic-energy cutoff     =      36.7493  Ry
     charge density cutoff     =     367.4932  Ry
     convergence threshold     =      1.0E-05
     mixing beta               =       0.3000
     number of iterations used =           10  plain     mixing
     Exchange-correlation      = BEEF-VDW ( 1  4 27 13 2)
     nstep                     =           50

     celldm(1)=   1.889726  celldm(2)=   0.000000  celldm(3)=   0.000000
     celldm(4)=   0.000000  celldm(5)=   0.000000  celldm(6)=   0.000000

     crystal axes: (cart. coord. in units of alat)
               a(1) = (   6.437465   0.000000   0.000000 )
               a(2) = (   3.218732   5.575008   0.000000 )
               a(3) = (   0.000000   0.000000  25.256168 )

     reciprocal axes: (cart. coord. in units 2 pi/alat)
               b(1) = (  0.155341 -0.089686  0.000000 )
               b(2) = (  0.000000  0.179372  0.000000 )
               b(3) = (  0.000000  0.000000  0.039594 )

     PseudoPot. # 1 for Sc read from file:
     /u/if/mamunm/psp/gbrv1.5pbe/Sc.UPF
     MD5 check sum: db30a2753ba66ef00f23801d899b7e7f
     Pseudo is Ultrasoft + core correction, Zval = 11.0
     Generated by new atomic code, or converted to UPF format
     Using radial grid of  849 points,  6 beta functions with:
                l(1) =   0
                l(2) =   0
                l(3) =   1
                l(4) =   1
                l(5) =   2
                l(6) =   2
     Q(r) pseudized with  6 coefficients,  rinner =    1.200   1.200   1.200
                                                       1.200   1.200

     PseudoPot. # 2 for H  read from file:
     /u/if/mamunm/psp/gbrv1.5pbe/H.UPF
     MD5 check sum: 761ae9a214b05c3daf00ab9f6b793d6f
     Pseudo is Ultrasoft, Zval =  1.0
     Generated by new atomic code, or converted to UPF format
     Using radial grid of  615 points,  2 beta functions with:
                l(1) =   0
                l(2) =   0
     Q(r) pseudized with  8 coefficients,  rinner =    0.700

     vdW kernel table read from file vdW_kernel_table
     MD5 check sum: 095c7af220d748ca6e76c0b4c6cfb241

     atomic species   valence    mass     pseudopotential
        Sc1           11.00    44.95591     Sc( 1.00)
        H1             1.00     1.00800     H ( 1.00)

     No symmetry found

   Cartesian axes

     site n.     atom                  positions (alat units)
         1           Sc1 tau(   1) = (   1.6093662   0.9291680  10.0000000  )
         2           Sc1 tau(   2) = (   4.8280986   0.9291680  10.0000000  )
         3           Sc1 tau(   3) = (   3.2187324   3.7166720  10.0000000  )
         4           Sc1 tau(   4) = (   6.4374648   3.7166720  10.0000000  )
         5           Sc1 tau(   5) = (   6.4374648   1.8583360  12.6280840  )
         6           Sc1 tau(   6) = (   3.2187324   1.8583360  12.6280840  )
         7           Sc1 tau(   7) = (   8.0468310   4.6458400  12.6280840  )
         8           Sc1 tau(   8) = (   4.8280986   4.6458400  12.6280840  )
         9           Sc1 tau(   9) = (   0.0000000   0.0000000  15.2561680  )
        10           Sc1 tau(  10) = (   3.2187324   0.0000000  15.2561680  )
        11           Sc1 tau(  11) = (   1.6093662   2.7875040  15.2561680  )
        12           Sc1 tau(  12) = (   4.8280986   2.7875040  15.2561680  )
        13           H1  tau(  13) = (   1.6093662   0.9291680  16.5626680  )

     number of k points=    20  Fermi-Dirac smearing, width (Ry)=  0.0110
                       cart. coord. in units 2pi/alat
        k(    1) = (   0.0000000   0.0000000   0.0000000), wk =   0.0555556
        k(    2) = (   0.0000000   0.0298953   0.0000000), wk =   0.1111111
        k(    3) = (   0.0000000   0.0597906   0.0000000), wk =   0.1111111
        k(    4) = (   0.0000000  -0.0896860   0.0000000), wk =   0.0555556
        k(    5) = (   0.0258901  -0.0149477   0.0000000), wk =   0.1111111
        k(    6) = (   0.0258901   0.0149477   0.0000000), wk =   0.1111111
        k(    7) = (   0.0258901   0.0448430   0.0000000), wk =   0.1111111
        k(    8) = (   0.0258901  -0.1046336   0.0000000), wk =   0.1111111
        k(    9) = (   0.0258901  -0.0747383   0.0000000), wk =   0.1111111
        k(   10) = (   0.0258901  -0.0448430   0.0000000), wk =   0.1111111
        k(   11) = (   0.0517802  -0.0298953   0.0000000), wk =   0.1111111
        k(   12) = (   0.0517802   0.0000000   0.0000000), wk =   0.1111111
        k(   13) = (   0.0517802   0.0298953   0.0000000), wk =   0.1111111
        k(   14) = (   0.0517802  -0.1195813   0.0000000), wk =   0.1111111
        k(   15) = (   0.0517802  -0.0896860   0.0000000), wk =   0.1111111
        k(   16) = (   0.0517802  -0.0597906   0.0000000), wk =   0.1111111
        k(   17) = (  -0.0776703   0.0448430   0.0000000), wk =   0.0555556
        k(   18) = (  -0.0776703   0.0747383   0.0000000), wk =   0.1111111
        k(   19) = (  -0.0776703   0.1046336   0.0000000), wk =   0.1111111
        k(   20) = (  -0.0776703  -0.0448430   0.0000000), wk =   0.0555556

     Largest allocated arrays     est. size (Mb)     dimensions
     Largest temporary arrays     est. size (Mb)     dimensions

     Initial potential from superposition of free atoms
     Check: negative starting charge=   -0.000294

     starting charge  132.97116, renormalised to  133.00000

     negative rho (up, down):  2.938E-04 0.000E+00

     *
     * You are using vdW-DF for exchange-correlation in this calculation.
     * Please cite the following three references that made this development
     * possible:
     *
     *   M. Dion, H. Rydberg, E. Schroder, D. C. Langreth, and
     *   B. I. Lundqvist, Phys. Rev. Lett. 92, 246401 (2004).
     *
     *   T. Thonhauser, V. R. Cooper, S. Li, A. Puzder, P. Hyldgaard, and
     *   D. C. Langreth, Phys. Rev. B 76, 125112 (2007).
     *
     *   G. Roman-Perez and J. M. Soler, Phys. Rev. Lett. 103, 096102 (2009).
     *
     *
     * If you are using vdW-DF2, please also cite:
     *
     *   K. Lee, E. D. Murray, L. Kong, B. I. Lundqvist, and
     *   D. C. Langreth, Phys. Rev. B 82, 081101(R) (2010).
     *
     *
     * If you are calculating the stress with vdW-DF, please also cite:
     *
     *   R. Sabatini, E. Kucukbenli, B. Kolb, T. Thonhauser, and
     *   S. de Gironcoli, J. Phys.: Condens. Matter 24, 424209 (2012).
     *

     Carrying out vdW-DF run using the following parameters:

     Nqs =      20    Nr_points =    1024   r_max =   100.000
     q_mesh =
               0.00001000     0.04494208     0.09755937     0.15916263
               0.23128650     0.31572767     0.41458969     0.53033537
               0.66584808     0.82450364     1.01025438     1.22772762
               1.48234092     1.78043706     2.12944203     2.53805004
               3.01644009     3.57652955     4.23227104     5.00000000

     Gradients computed in reciprocal space

     Adding external electric field

     Computed dipole along edir(3) :
        Dipole               -0.0015 Ry au,         -0.0039 Debye
        Dipole field         -0.0000 Ry au

        Potential amp.        0.0003 Ry
        Total length         46.5341 bohr

     Starting wfc are  157 randomized atomic wfcs

     Self-consistent Calculation

     iteration #  1     ecut=    36.75 Ry     beta=0.30
     Davidson diagonalization with overlap
     ethr =  1.00E-02,  avg # of iterations =  2.0

[...]

     total energy              =   -1136.35556742 Ry
     Harris-Foulkes estimate   =   -1139.40246068 Ry
     estimated scf accuracy    <       6.42769924 Ry

[...]

     End of self-consistent calculation

          k = 0.0000 0.0000 0.0000 ( 23031 PWs)   bands (ev):

   -49.4962 -49.4797 -49.4413 -49.4346 -49.4343 -49.4323 -49.4158 -49.4150
   -49.0207 -48.9784 -48.9783 -48.9692 -28.1982 -28.1980 -28.1977 -28.1932
   -28.1856 -28.1855 -28.1643 -28.1554 -28.1113 -28.1087 -28.1084 -28.0938
   -28.0797 -28.0791 -27.9329 -27.9328 -27.9318 -27.9267 -27.9266 -27.9123
   -27.8538 -27.8536 -27.8359 -27.8356 -27.7446 -27.7416 -27.7415 -27.5822
   -27.5598 -27.5597 -27.5485 -27.5078 -27.5024 -27.5023 -27.4275 -27.4275
    -4.4939  -3.7684  -2.6083  -1.6162  -1.0240  -1.0240  -0.9728  -0.9054
    -0.9053  -0.8617  -0.6471  -0.6470  -0.4989  -0.0937  -0.0936  -0.0504
     0.1712   0.1714   0.3023   0.5626   0.7772   0.9760   1.0787   1.0788
     1.0993   1.1415   1.1415   1.5782

[...]

          k =-0.0777 0.0448 0.0000 ( 23032 PWs)   bands (ev):

[...]

     the Fermi energy is     0.4708 ev

!    total energy              =   -1138.87504272 Ry
     Harris-Foulkes estimate   =   -1138.87504557 Ry
     estimated scf accuracy    <       0.00000857 Ry

     The total energy is the sum of the following terms:

     one-electron contribution =   -7167.69341219 Ry
     hartree contribution      =    3566.16845195 Ry
     xc contribution           =    -167.11406122 Ry
     ewald contribution        =    2629.89906989 Ry
     electric field correction =       0.00000358 Ry
     smearing contrib. (-TS)   =      -0.13509474 Ry

     convergence has been achieved in  17 iterations

 BEEF-vdW xc energy contributions
           1 :   -141.632560087146
           2 :    124.635201343595
           3 :   -98.1568109113500
           4 :    72.4809548157922
           5 :   -54.8349273176436
           6 :    46.4354965931792
           7 :   -43.7369037503986
           8 :    42.1271078252080
           9 :   -39.0874138039544
          10 :    34.9266217258910
          11 :   -31.3298680952505
          12 :    29.3860430873145
          13 :   -28.6938125548181
          14 :    27.9670210867640
          15 :   -26.3170024224995
          16 :    23.9902969712357
          17 :   -21.9932645954325
          18 :    21.0768697898224
          19 :   -21.0642355119215
          20 :    21.0824700573922
          21 :   -20.3907723308732
          22 :    19.0033946990172
          23 :   -17.5841598971310
          24 :    16.7880068282585
          25 :   -16.6862826805585
          26 :    16.7664186056457
          27 :   -16.4455572066524
          28 :    15.5939088400501
          29 :   -14.6035718074056
          30 :    13.9830149357289
          31 :   -16.6961574427407
          32 :   -11.9648596366473

     Forces acting on atoms (Ry/au):

     negative rho (up, down):  9.544E-05 0.000E+00
     atom    1 type  1   force =     0.00000268    0.00001488    0.00197324
     atom    2 type  1   force =    -0.00000853   -0.00044451    0.00184575
     atom    3 type  1   force =    -0.00041100    0.00022673    0.00186053
     atom    4 type  1   force =     0.00039053    0.00021946    0.00186283
     atom    5 type  1   force =    -0.00099429    0.00063645    0.00064446
     atom    6 type  1   force =     0.00101127    0.00068415    0.00065831
     atom    7 type  1   force =     0.00002843   -0.00009068   -0.00414699
     atom    8 type  1   force =    -0.00003545   -0.00123593    0.00059284
     atom    9 type  1   force =     0.02018267    0.01161875    0.00828793
     atom   10 type  1   force =    -0.02017109    0.01163947    0.00826282
     atom   11 type  1   force =     0.00002083   -0.02328621    0.00828513
     atom   12 type  1   force =    -0.00001498    0.00001894   -0.00878608
     atom   13 type  2   force =    -0.00000107   -0.00000150   -0.02134076

     Total force =     0.048633     Total SCF correction =     0.006076
     SCF correction compared to forces is large: reduce conv_thr to get better values

     entering subroutine stress ...

     negative rho (up, down):  9.544E-05 0.000E+00
          total   stress  (Ry/bohr**3)                   (kbar)     P=   -0.05
   0.00001074  -0.00000001   0.00000001          1.58     -0.00      0.00
  -0.00000001   0.00001074  -0.00000001         -0.00      1.58     -0.00
   0.00000001  -0.00000001  -0.00002256          0.00     -0.00     -3.32

     BFGS Geometry Optimization

     number of scf cycles    =   1
     number of bfgs steps    =   0

     energy   new            =   -1138.8750427192 Ry

     new trust radius        =       0.0247189248 bohr
     new conv_thr            =       0.0000099958 Ry

ATOMIC_POSITIONS (crystal)
Sc1      0.166666667   0.166666667   0.395942884    0   0   0
Sc1      0.666666667   0.166666667   0.395942884    0   0   0
Sc1      0.166666667   0.666666667   0.395942884    0   0   0
Sc1      0.666666667   0.666666667   0.395942884    0   0   0
Sc1      0.833333333   0.333333333   0.500000000    0   0   0
Sc1      0.333333333   0.333333333   0.500000000    0   0   0
Sc1      0.833333333   0.833333333   0.500000000    0   0   0
Sc1      0.333333333   0.833333333   0.500000000    0   0   0
Sc1      0.001107647   0.001102846   0.604230768
Sc1      0.497789474   0.001104813   0.604230242
Sc1      0.001106871   0.497789684   0.604230709
Sc1      0.499997870   0.500001797   0.603873026
H1       0.166666650   0.166666524   0.655339913

     Writing output data file calc.save
     Check: negative starting charge=   -0.000294
     NEW-OLD atomic charge density approx. for the potential
     Check: negative starting charge=   -0.000293

[...]

     Total force =     0.042482     Total SCF correction =     0.002323

[...]

     energy   old            =   -1138.8750427192 Ry
     energy   new            =   -1138.8772865281 Ry

     CASE: energy  _new < energy  _old

     WARNING: bfgs curvature condition failed, Theta= 0.918
     new trust radius        =       0.0370783872 bohr
     new conv_thr            =       0.0000001000 Ry

[...]

     WARNING: bfgs curvature condition failed, Theta= 0.878
     new trust radius        =       0.0073164306 bohr
     new conv_thr            =       0.0000001000 Ry

[...]

     Threshold (ethr) on eigenvalues was too large:
     Diagonalizing with lowered threshold

     Davidson diagonalization with overlap
     ethr =  3.10E-08,  avg # of iterations =  4.5

[...]

     Threshold (ethr) on eigenvalues was too large:
     Diagonalizing with lowered threshold

     Davidson diagonalization with overlap
     ethr =  8.55E-08,  avg # of iterations =  7.0

[...]

     Total force =     0.003542     Total SCF correction =     0.000522
     SCF correction compared to forces is large: reduce conv_thr to get better values

[...]

     number of scf cycles    =  11
     number of bfgs steps    =  10

     energy   old            =   -1138.8850495128 Ry
     energy   new            =   -1138.8852854604 Ry

     CASE: energy  _new < energy  _old

     new trust radius        =       0.0327941565 bohr
     new conv_thr            =       0.0000001000 Ry

ATOMIC_POSITIONS (crystal)
Sc1      0.166666667   0.166666667   0.395942884    0   0   0
Sc1      0.666666667   0.166666667   0.395942884    0   0   0
Sc1      0.166666667   0.666666667   0.395942884    0   0   0
Sc1      0.666666667   0.666666667   0.395942884    0   0   0
Sc1      0.833333333   0.333333333   0.500000000    0   0   0
Sc1      0.333333333   0.333333333   0.500000000    0   0   0
Sc1      0.833333333   0.833333333   0.500000000    0   0   0
Sc1      0.333333333   0.833333333   0.500000000    0   0   0
Sc1      0.005618887   0.005605515   0.605628053
Sc1      0.488789216   0.005605946   0.605627519
Sc1      0.005612646   0.488789309   0.605628291
Sc1      0.500007510   0.500015879   0.599643402
H1       0.166670003   0.166670715   0.648941986

     Writing output data file calc.save
     Check: negative starting charge=   -0.000285
     NEW-OLD atomic charge density approx. for the potential
     Check: negative starting charge=   -0.000284

[...]

     Self-consistent Calculation

[...]

     total energy              =   -1138.88536521 Ry
     Harris-Foulkes estimate   =   -1138.88536525 Ry
     estimated scf accuracy    <       0.00000036 Ry

     iteration # 12     ecut=    36.75 Ry     beta=0.30
     Davidson diagonalization with overlap
     ethr =  2.74E-10,  avg # of iterations =  6.2

[...]

     negative rho (up, down):  9.256E-05 0.000E+00

     Adding external electric field

     Computed dipole along edir(3) :
        Dipole                0.0233 Ry au,          0.0593 Debye
        Dipole field          0.0000 Ry au

        Potential amp.       -0.0045 Ry
        Total length         46.5341 bohr

     End of self-consistent calculation

[...]

          k = 0.0518-0.0598 0.0000 ( 23012 PWs)   bands (ev):

[...]

          k =-0.0777-0.0448 0.0000 ( 23032 PWs)   bands (ev):

   -49.4220 -49.4181 -49.4148 -49.4044 -49.3944 -49.3935 -49.3918 -49.3320
   -48.9998 -48.9422 -48.9293 -48.9199 -28.1168 -28.0953 -28.0920 -28.0902
   -28.0870 -28.0821 -28.0766 -28.0705 -28.0599 -28.0576 -28.0485 -28.0281
   -28.0050 -27.9857 -27.9834 -27.9592 -27.9569 -27.9428 -27.9340 -27.8954
   -27.8538 -27.8517 -27.8407 -27.8053 -27.6674 -27.6270 -27.5864 -27.5753
   -27.5390 -27.5162 -27.5162 -27.5088 -27.5017 -27.4982 -27.4416 -27.4087
    -4.2676  -2.9249  -2.7838  -1.9526  -1.6346  -1.0057  -1.0050  -0.7504
    -0.5662  -0.4555  -0.4009   0.2416   0.2448   0.2619   0.2749   0.3232
     0.3621   0.5152   0.5585   0.5941   0.6117   0.6528   0.6743   0.7082
     0.8835   0.9453   0.9727   1.0224

     the Fermi energy is     0.5127 ev

!    total energy              =   -1138.88536522 Ry
     Harris-Foulkes estimate   =   -1138.88536524 Ry
     estimated scf accuracy    <       0.00000004 Ry

     The total energy is the sum of the following terms:

     one-electron contribution =   -7172.43890013 Ry
     hartree contribution      =    3568.71235445 Ry
     xc contribution           =    -167.15863490 Ry
     ewald contribution        =    2632.13548430 Ry
     electric field correction =       0.00000112 Ry
     smearing contrib. (-TS)   =      -0.13567005 Ry

     convergence has been achieved in  12 iterations

 BEEF-vdW xc energy contributions
           1 :   -141.677411441929
           2 :    124.690217890775
           3 :   -98.2164549228047
           4 :    72.5261386083458
           5 :   -54.8474098917752
           6 :    46.4111821988413
           7 :   -43.6881970461037
           8 :    42.0729358207332
           9 :   -39.0408610994079
          10 :    34.8905102022661
          11 :   -31.3004053863726
          12 :    29.3584288211315
          13 :   -28.6661741207940
          14 :    27.9418973318369
          15 :   -26.2987442969090
          16 :    23.9783736574387
          17 :   -21.9775211248738
          18 :    21.0425984932508
          19 :   -21.0047835692193
          20 :    21.0067510244769
          21 :   -20.3173863516954
          22 :    18.9467008891588
          23 :   -17.5446451622354
          24 :    16.7538254497977
          25 :   -16.6433280743645
          26 :    16.7092371635288
          27 :   -16.3807652818509
          28 :    15.5320938696303
          29 :   -14.5459949213048
          30 :    13.9170742677034
          31 :   -16.6993888786197
          32 :   -11.9698504093422

     Forces acting on atoms (Ry/au):

     negative rho (up, down):  9.256E-05 0.000E+00
     atom    1 type  1   force =    -0.00000891   -0.00000885    0.00138412
     atom    2 type  1   force =     0.00000854   -0.00142087    0.00163384
     atom    3 type  1   force =    -0.00122269    0.00071980    0.00163688
     atom    4 type  1   force =     0.00122306    0.00071024    0.00164464
     atom    5 type  1   force =     0.00129157   -0.00074227   -0.00081377
     atom    6 type  1   force =    -0.00129730   -0.00074534   -0.00081209
     atom    7 type  1   force =     0.00000107   -0.00000331    0.00192620
     atom    8 type  1   force =    -0.00000046    0.00148749   -0.00081834
     atom    9 type  1   force =     0.00043992    0.00026033   -0.00160495
     atom   10 type  1   force =    -0.00045382    0.00029036   -0.00160279
     atom   11 type  1   force =     0.00001922   -0.00054026   -0.00160666
     atom   12 type  1   force =    -0.00000192   -0.00000669   -0.00088686
     atom   13 type  2   force =     0.00000171   -0.00000062   -0.00008024

     Total force =     0.003060     Total SCF correction =     0.000215

     entering subroutine stress ...

     negative rho (up, down):  9.256E-05 0.000E+00
          total   stress  (Ry/bohr**3)                   (kbar)     P=    1.25
   0.00001929   0.00000001  -0.00000000          2.84      0.00     -0.00
   0.00000001   0.00001928  -0.00000000          0.00      2.84     -0.00
  -0.00000000  -0.00000000  -0.00001300         -0.00     -0.00     -1.91

     bfgs converged in  12 scf cycles and  11 bfgs steps
     (criteria: energy <  1.0E+00, force <  1.9E-03)

     End of BFGS Geometry Optimization

     Final energy   =   -1138.8853652190 Ry
Begin final coordinates

ATOMIC_POSITIONS (crystal)
Sc1      0.166666667   0.166666667   0.395942884    0   0   0
Sc1      0.666666667   0.166666667   0.395942884    0   0   0
Sc1      0.166666667   0.666666667   0.395942884    0   0   0
Sc1      0.666666667   0.666666667   0.395942884    0   0   0
Sc1      0.833333333   0.333333333   0.500000000    0   0   0
Sc1      0.333333333   0.333333333   0.500000000    0   0   0
Sc1      0.833333333   0.833333333   0.500000000    0   0   0
Sc1      0.333333333   0.833333333   0.500000000    0   0   0
Sc1      0.005618887   0.005605515   0.605628053
Sc1      0.488789216   0.005605946   0.605627519
Sc1      0.005612646   0.488789309   0.605628291
Sc1      0.500007510   0.500015879   0.599643402
H1       0.166670003   0.166670715   0.648941986
End final coordinates

     Writing output data file calc.save

     General routines

     Parallel routines

   This run was terminated on:  16:22:28   2May2018

   JOB DONE.
Job  /afs/slac/g/suncat/bin/suncat-tsmpirun -x LD_LIBRARY_PATH -wdir /scratch/qe767653_TuT0n pw.x -npool 4 -in pw.inp

TID   HOST_NAME   COMMAND_LINE            STATUS            TERMINATION_TIME
00000 suncat0085 pw.x -npool 4 -i  Done                     05/02/2018 16:22:28
00001 suncat0085 pw.x -npool 4 -i  Done                     05/02/2018 16:22:28
00002 suncat0085 pw.x -npool 4 -i  Done                     05/02/2018 16:22:28
00003 suncat0085 pw.x -npool 4 -i  Done                     05/02/2018 16:22:28
00004 suncat0085 pw.x -npool 4 -i  Done                     05/02/2018 16:22:28
00005 suncat0085 pw.x -npool 4 -i  Done                     05/02/2018 16:22:28
00006 suncat0085 pw.x -npool 4 -i  Done                     05/02/2018 16:22:28
00007 suncat0085 pw.x -npool 4 -i  Done                     05/02/2018 16:22:28
00008 suncat0082 pw.x -npool 4 -i  Done                     05/02/2018 16:22:28
00009 suncat0082 pw.x -npool 4 -i  Done                     05/02/2018 16:22:28
00010 suncat0082 pw.x -npool 4 -i  Done                     05/02/2018 16:22:28
00011 suncat0082 pw.x -npool 4 -i  Done                     05/02/2018 16:22:28
00012 suncat0082 pw.x -npool 4 -i  Done                     05/02/2018 16:22:28
00013 suncat0082 pw.x -npool 4 -i  Done                     05/02/2018 16:22:28
00014 suncat0082 pw.x -npool 4 -i  Done                     05/02/2018 16:22:28
00015 suncat0082 pw.x -npool 4 -i  Done                     05/02/2018 16:22:28
00016 suncat0081 pw.x -npool 4 -i  Done                     05/02/2018 16:22:28
00017 suncat0081 pw.x -npool 4 -i  Done                     05/02/2018 16:22:28
00018 suncat0081 pw.x -npool 4 -i  Done                     05/02/2018 16:22:28
00019 suncat0081 pw.x -npool 4 -i  Done                     05/02/2018 16:22:28
00020 suncat0081 pw.x -npool 4 -i  Done                     05/02/2018 16:22:28
00021 suncat0081 pw.x -npool 4 -i  Done                     05/02/2018 16:22:28
00022 suncat0081 pw.x -npool 4 -i  Done                     05/02/2018 16:22:28
00023 suncat0081 pw.x -npool 4 -i  Done                     05/02/2018 16:22:28
00024 suncat0080 pw.x -npool 4 -i  Done                     05/02/2018 16:22:28
00025 suncat0080 pw.x -npool 4 -i  Done                     05/02/2018 16:22:28
00026 suncat0080 pw.x -npool 4 -i  Done                     05/02/2018 16:22:28
00027 suncat0080 pw.x -npool 4 -i  Done                     05/02/2018 16:22:28
00028 suncat0080 pw.x -npool 4 -i  Done                     05/02/2018 16:22:28
00029 suncat0080 pw.x -npool 4 -i  Done                     05/02/2018 16:22:28
00030 suncat0080 pw.x -npool 4 -i  Done                     05/02/2018 16:22:28
00031 suncat0080 pw.x -npool 4 -i  Done                     05/02/2018 16:22:28