     Program PWSCF v.6.1 starts on 12Jan2019 at  4:57: 9

     Current dimensions of program PWSCF are:
     Max number of different atomic species (ntypx) = 10
     Max number of k-points (npk) =  40000
     Max angular momentum in pseudopotentials (lmaxx) =  3

     IMPORTANT: XC functional enforced from input :
     Exchange-correlation      = BEEF-VDW ( 1  4 29 14 2 0)
     Any further DFT definition will be discarded
     Please, verify this is what you really want

     bravais-lattice index     =            0
     lattice parameter (alat)  =       9.7861  a.u.
     unit-cell volume          =    3797.2498 (a.u.)^3
     number of atoms/cell      =           13
     number of atomic types    =            2
     number of electrons       =       198.00
     number of Kohn-Sham states=          109
     kinetic-energy cutoff     =      36.7493  Ry
     charge density cutoff     =     367.4933  Ry
     convergence threshold     =      1.0E-04
     mixing beta               =       0.1000
     number of iterations used =            8  plain     mixing
     Exchange-correlation      = BEEF-VDW ( 1  4 29 14 2 0)
     nstep                     =           50

     celldm(1)=   9.786074  celldm(2)=   0.000000  celldm(3)=   0.000000
     celldm(4)=   0.000000  celldm(5)=   0.000000  celldm(6)=   0.000000

     crystal axes: (cart. coord. in units of alat)
               a(1) = (   1.000000   0.000000   0.000000 )
               a(2) = (   0.500000   0.866025   0.000000 )
               a(3) = (   0.000000   0.000000   4.678568 )

     reciprocal axes: (cart. coord. in units 2 pi/alat)
               b(1) = (  1.000000 -0.577350  0.000000 )
               b(2) = (  0.000000  1.154701  0.000000 )
               b(3) = (  0.000000  0.000000  0.213741 )

     PseudoPot. # 1 for Fe read from file:
     /home/users/mamunm/src/decaf-espresso/gbrv15pbe/Fe.UPF
     MD5 check sum: a130daea23fe5165f5d574ae7f82ed95
     Pseudo is Ultrasoft + core correction, Zval = 16.0
     Generated by new atomic code, or converted to UPF format
     Using radial grid of  861 points,  6 beta functions with:
                l(1) =   0
                l(2) =   0
                l(3) =   1
                l(4) =   1
                l(5) =   2
                l(6) =   2
     Q(r) pseudized with  8 coefficients,  rinner =    1.000   1.000   1.000
                                                       1.000   1.000

     PseudoPot. # 2 for O  read from file:
     /home/users/mamunm/src/decaf-espresso/gbrv15pbe/O.UPF
     MD5 check sum: 734c27235a0248c51dbae37a1fbe46ec
     Pseudo is Ultrasoft + core correction, Zval =  6.0
     Generated by new atomic code, or converted to UPF format
     Using radial grid of  737 points,  5 beta functions with:
                l(1) =   0
                l(2) =   0
                l(3) =   1
                l(4) =   1
                l(5) =   2
     Q(r) pseudized with  8 coefficients,  rinner =    0.900   0.900   0.900
                                                       0.900   0.900

     vdW kernel table read from file vdW_kernel_table
     MD5 check sum: 095c7af220d748ca6e76c0b4c6cfb241

     atomic species   valence    mass     pseudopotential
        Fe            16.00    55.84500     Fe( 1.00)
        O              6.00    15.99900     O ( 1.00)

     Starting magnetic structure
     atomic species   magnetization
        Fe           0.188
        O            0.000

     No symmetry found

   Cartesian axes

     site n.     atom                  positions (alat units)
         1           Fe  tau(   1) = (   0.2500000   0.1443376   1.9310359  )
         2           Fe  tau(   2) = (   0.7500000   0.1443376   1.9310359  )
         3           Fe  tau(   3) = (   0.5000000   0.5773503   1.9310359  )
         4           Fe  tau(   4) = (   1.0000000   0.5773503   1.9310359  )
         5           Fe  tau(   5) = (   1.0000000   0.2886751   2.3392842  )
         6           Fe  tau(   6) = (   0.5000000   0.2886751   2.3392842  )
         7           Fe  tau(   7) = (   1.2500000   0.7216878   2.3392842  )
         8           Fe  tau(   8) = (   0.7500000   0.7216878   2.3392842  )
         9           Fe  tau(   9) = (  -0.0144157   0.0110228   2.7403770  )
        10           Fe  tau(  10) = (   0.5044853   0.0183092   2.7312999  )
        11           Fe  tau(  11) = (   0.2407858   0.4430679   2.7041115  )
        12           Fe  tau(  12) = (   0.7486568   0.4395915   2.7325508  )
        13           O   tau(  13) = (   0.2494446  -0.1371877   2.9437671  )

     number of k points=    20  Fermi-Dirac smearing, width (Ry)=  0.0110
                       cart. coord. in units 2pi/alat
        k(    1) = (   0.0000000   0.0000000   0.0000000), wk =   0.0277778
        k(    2) = (   0.0000000   0.1924501   0.0000000), wk =   0.0555556
        k(    3) = (   0.0000000   0.3849002   0.0000000), wk =   0.0555556
        k(    4) = (   0.0000000  -0.5773503   0.0000000), wk =   0.0277778
        k(    5) = (   0.1666667  -0.0962250   0.0000000), wk =   0.0555556
        k(    6) = (   0.1666667   0.0962250   0.0000000), wk =   0.0555556
        k(    7) = (   0.1666667   0.2886751   0.0000000), wk =   0.0555556
        k(    8) = (   0.1666667  -0.6735753   0.0000000), wk =   0.0555556
        k(    9) = (   0.1666667  -0.4811252   0.0000000), wk =   0.0555556
        k(   10) = (   0.1666667  -0.2886751   0.0000000), wk =   0.0555556
        k(   11) = (   0.3333333  -0.1924501   0.0000000), wk =   0.0555556
        k(   12) = (   0.3333333   0.0000000   0.0000000), wk =   0.0555556
        k(   13) = (   0.3333333   0.1924501   0.0000000), wk =   0.0555556
        k(   14) = (   0.3333333  -0.7698004   0.0000000), wk =   0.0555556
        k(   15) = (   0.3333333  -0.5773503   0.0000000), wk =   0.0555556
        k(   16) = (   0.3333333  -0.3849002   0.0000000), wk =   0.0555556
        k(   17) = (  -0.5000000   0.2886751   0.0000000), wk =   0.0277778
        k(   18) = (  -0.5000000   0.4811252   0.0000000), wk =   0.0555556
        k(   19) = (  -0.5000000   0.6735753   0.0000000), wk =   0.0555556
        k(   20) = (  -0.5000000  -0.2886751   0.0000000), wk =   0.0277778

     Check: negative/imaginary core charge=   -0.000008    0.000000

     Initial potential from superposition of free atoms
     Check: negative starting charge=(component1):   -0.000187
     Check: negative starting charge=(component2):   -0.000162

     starting charge  185.99993, renormalised to  198.00000

     negative rho (up, down):  1.993E-04 1.726E-04

     %%%%%%%%%%%%%%%%%%%%%%%%%%%%%%%%%%%%%%%%%%%%%%%%%%%%%%%%%%%%%%%%%%%%%%%%
     %                                                                      %
     % You are using vdW-DF, which was implemented by the Thonhauser group. %
     % Please cite the following two papers that made this development      %
     % possible and the two reviews that describe the various versions:     %
     %                                                                      %
     %   T. Thonhauser et al., PRL 115, 136402 (2015).                      %
     %   T. Thonhauser et al., PRB 76, 125112 (2007).                       %
     %   K. Berland et al., Rep. Prog. Phys. 78, 066501 (2015).             %
     %   D.C. Langreth et al., J. Phys.: Condens. Matter 21, 084203 (2009). %
     %                                                                      %
     %                                                                      %
     % If you are calculating the stress with vdW-DF, please also cite:     %
     %                                                                      %
     %   R. Sabatini et al., J. Phys.: Condens. Matter 24, 424209 (2012).   %
     %                                                                      %
     %%%%%%%%%%%%%%%%%%%%%%%%%%%%%%%%%%%%%%%%%%%%%%%%%%%%%%%%%%%%%%%%%%%%%%%%

     Adding external electric field

     Computed dipole along edir(3) :
        Dipole               -2.3157 Ry au,         -5.8859 Debye
        Dipole field         -0.0077 Ry au,

        Potential amp.        0.6316 Ry
        Total length         41.2063 bohr

[...]

     Starting wfc are  160 randomized atomic wfcs

     Self-consistent Calculation

     iteration #  1     ecut=    36.75 Ry     beta=0.10
     Davidson diagonalization with overlap
     ethr =  1.00E-02,  avg # of iterations =  5.8

[...]

     total energy              =   -2975.04078409 Ry
     Harris-Foulkes estimate   =   -3057.90735644 Ry
     estimated scf accuracy    <     448.87336591 Ry

     total magnetization       =    13.44 Bohr mag/cell
     absolute magnetization    =    16.80 Bohr mag/cell

[...]

     iteration # 28     ecut=    36.75 Ry     beta=0.10
     Davidson diagonalization with overlap
     c_bands:  1 eigenvalues not converged
     ethr =  2.07E-05,  avg # of iterations =  4.2

[...]

     Magnetic moment per site:
     atom:    1    charge:   12.8705    magn:    2.5375    constr:    0.0000
     atom:    2    charge:   12.8709    magn:    2.5412    constr:    0.0000
     atom:    3    charge:   12.8707    magn:    2.5388    constr:    0.0000
     atom:    4    charge:   12.8707    magn:    2.5405    constr:    0.0000
     atom:    5    charge:   12.8673    magn:    2.2227    constr:    0.0000
     atom:    6    charge:   12.8715    magn:    2.1117    constr:    0.0000
     atom:    7    charge:   12.8681    magn:    2.2160    constr:    0.0000
     atom:    8    charge:   12.8650    magn:    2.3028    constr:    0.0000
     atom:    9    charge:   12.8773    magn:    0.2707    constr:    0.0000
     atom:   10    charge:   12.8478    magn:   -2.3349    constr:    0.0000
     atom:   11    charge:   12.8950    magn:    1.8544    constr:    0.0000
     atom:   12    charge:   12.8500    magn:   -2.2609    constr:    0.0000
     atom:   13    charge:    5.1185    magn:   -0.0780    constr:    0.0000

[...]

     End of self-consistent calculation

 ------ SPIN UP ------------

          k = 0.0000 0.0000 0.0000 ( 14285 PWs)   bands (ev):

   -87.9896 -87.9699 -87.9554 -87.9518 -87.9480 -87.8296 -87.8054 -87.7742
   -87.7080 -86.2028 -85.2931 -85.2616 -54.1467 -54.1090 -54.1076 -54.1043
   -54.0529 -54.0406 -54.0367 -54.0113 -53.9937 -53.9823 -53.9211 -53.8845
   -53.8756 -53.8681 -53.8654 -53.8507 -53.8505 -53.8278 -53.8230 -53.8032
   -53.7981 -53.7832 -53.7239 -53.7209 -53.6667 -53.6416 -53.6244 -52.5977
   -52.1204 -52.0523 -51.5165 -51.4358 -51.3685 -51.3404 -51.3242 -51.1977
   -18.3395  -6.8696  -5.1449  -4.6971  -4.6626  -4.3947  -3.9573  -3.9180
    -3.9123  -3.7797  -3.6455  -3.6410  -3.6012  -3.3996  -3.3969  -3.3866
    -2.9681  -2.9480  -2.5041  -2.3837  -2.3776  -2.1013  -2.0164  -2.0067
    -1.9480  -1.7809  -1.7725  -1.7004  -1.6972  -1.6662  -1.6513  -1.6139
    -1.4968  -1.3584  -1.1400  -1.1141  -1.0458  -1.0213  -0.8674  -0.8423
    -0.7081  -0.6942  -0.6514  -0.6140  -0.3759  -0.3424  -0.2479  -0.2115
    -0.0198   0.0052   0.0145   0.0314   0.0774   0.0907   0.1330   0.1581
     0.2682   0.4772   0.6293   0.9527   1.0970

[...]

          k =-0.5000 0.2887 0.0000 ( 14254 PWs)   bands (ev):

[...]

 ------ SPIN DOWN ----------

[...]

     the Fermi energy is     0.7584 ev

!    total energy              =   -3048.54614673 Ry
     Harris-Foulkes estimate   =   -3048.54615636 Ry
     estimated scf accuracy    <       0.00005693 Ry

     The total energy is the sum of the following terms:

     one-electron contribution =  -26723.28234777 Ry
     hartree contribution      =   13361.48142670 Ry
     xc contribution           =    -370.94831266 Ry
     ewald contribution        =   10684.29411276 Ry
     electric field correction =       0.00005041 Ry
     smearing contrib. (-TS)   =      -0.09107617 Ry

[...]

     convergence has been achieved in 178 iterations

[...]

     Forces acting on atoms (cartesian axes, Ry/au):

     atom    1 type  1   force =     0.00041594   -0.00095511   -0.00146230
     atom    2 type  1   force =     0.00025395   -0.00021387    0.00457603
     atom    3 type  1   force =     0.00073597   -0.00008785   -0.00142805
     atom    4 type  1   force =     0.00032064   -0.00020401    0.00109310
     atom    5 type  1   force =    -0.00571251   -0.00541771    0.00317756
     atom    6 type  1   force =     0.00372701    0.00163802   -0.00624177
     atom    7 type  1   force =     0.00153633    0.00835209    0.00128454
     atom    8 type  1   force =    -0.00186683    0.00407313   -0.00876718
     atom    9 type  1   force =     0.00264486    0.00102614   -0.01382294
     atom   10 type  1   force =     0.00585240   -0.00685334    0.02072764
     atom   11 type  1   force =     0.00925477   -0.00348788   -0.01161941
     atom   12 type  1   force =    -0.00005647   -0.01651629    0.01351207
     atom   13 type  2   force =    -0.01710607    0.01864667   -0.00102929

     Total force =     0.045161     Total SCF correction =     0.009773
     SCF correction compared to forces is large: reduce conv_thr to get better values

     BFGS Geometry Optimization

     number of scf cycles    =   1
     number of bfgs steps    =   0

     energy   new            =   -3048.5461467329 Ry

     new trust radius        =       0.0253253910 bohr
     new conv_thr            =       0.0001000000 Ry

ATOMIC_POSITIONS (angstrom)
Fe       1.294641895   0.747461846  10.000000000    0   0   0
Fe       3.883925684   0.747461846  10.000000000    0   0   0
Fe       2.589283789   2.989847386  10.000000000    0   0   0
Fe       5.178567579   2.989847386  10.000000000    0   0   0
Fe       5.178567579   1.494923693  12.114141361    0   0   0
Fe       2.589283789   1.494923693  12.114141361    0   0   0
Fe       6.473209474   3.737309232  12.114141361    0   0   0
Fe       3.883925684   3.737309232  12.114141361    0   0   0
Fe      -0.073252847   0.057625420  14.183912820
Fe       2.615608164   0.091188565  14.155189453
Fe       1.251823152   2.292611403  13.997275501
Fe       3.876940037   2.267713986  14.157849203
O        1.282713511  -0.700568268  15.243952156

     Writing output data file calc.save
     Check: negative starting charge=(component1):   -0.000348
     NEW-OLD atomic charge density approx. for the potential

     Check: negative/imaginary core charge=   -0.000008    0.000000
     Check: negative starting charge=(component1):   -0.000348

[...]

     energy   old            =   -3048.5461467329 Ry
     energy   new            =   -3048.5480967113 Ry

     CASE: energy  _new < energy  _old

     WARNING: bfgs curvature condition failed, Theta= 0.867
     new trust radius        =       0.0278579301 bohr
     new conv_thr            =       0.0000010000 Ry

[...]

     Total force =     0.034310     Total SCF correction =     0.001995

[...]

     Total force =     0.028052     Total SCF correction =     0.002484

[...]

     iteration #  1     ecut=    36.75 Ry     beta=0.10
     Davidson diagonalization with overlap
     c_bands:  1 eigenvalues not converged
     ethr =  1.00E-06,  avg # of iterations =  5.4

[...]

     WARNING: bfgs curvature condition failed, Theta= 0.907
     new trust radius        =       0.0138595823 bohr
     new conv_thr            =       0.0000010000 Ry

[...]

     number of scf cycles    =  11
     number of bfgs steps    =  10

     energy   old            =   -3048.5572147625 Ry
     energy   new            =   -3048.5572494516 Ry

     CASE: energy  _new < energy  _old

     new trust radius        =       0.0060724897 bohr
     new conv_thr            =       0.0000010000 Ry

ATOMIC_POSITIONS (angstrom)
Fe       1.294641895   0.747461846  10.000000000    0   0   0
Fe       3.883925684   0.747461846  10.000000000    0   0   0
Fe       2.589283789   2.989847386  10.000000000    0   0   0
Fe       5.178567579   2.989847386  10.000000000    0   0   0
Fe       5.178567579   1.494923693  12.114141361    0   0   0
Fe       2.589283789   1.494923693  12.114141361    0   0   0
Fe       6.473209474   3.737309232  12.114141361    0   0   0
Fe       3.883925684   3.737309232  12.114141361    0   0   0
Fe      -0.108714432   0.084810777  14.124070744
Fe       2.659465638   0.032642346  14.266328803
Fe       1.302469728   2.256105636  13.952167619
Fe       3.905077920   2.214979235  14.274198765
O        1.166213807  -0.639186349  15.242033157

     Writing output data file calc.save
     Check: negative starting charge=(component1):   -0.000362
     NEW-OLD atomic charge density approx. for the potential

     Check: negative/imaginary core charge=   -0.000008    0.000000
     Check: negative starting charge=(component1):   -0.000362

[...]

     Self-consistent Calculation

[...]

     total energy              =   -3048.55729024 Ry
     Harris-Foulkes estimate   =   -3048.55729016 Ry
     estimated scf accuracy    <       0.00000274 Ry

[...]

     iteration # 19     ecut=    36.75 Ry     beta=0.10
     Davidson diagonalization with overlap
     ethr =  5.93E-10,  avg # of iterations =  3.0

[...]

     Adding external electric field

     Computed dipole along edir(3) :
        Dipole               -0.1140 Ry au,         -0.2897 Debye
        Dipole field         -0.0004 Ry au,

        Potential amp.        0.0311 Ry
        Total length         41.2063 bohr

     Magnetic moment per site:
     atom:    1    charge:   12.8706    magn:    2.5378    constr:    0.0000
     atom:    2    charge:   12.8710    magn:    2.5407    constr:    0.0000
     atom:    3    charge:   12.8707    magn:    2.5373    constr:    0.0000
     atom:    4    charge:   12.8706    magn:    2.5389    constr:    0.0000
     atom:    5    charge:   12.8702    magn:    2.2247    constr:    0.0000
     atom:    6    charge:   12.8716    magn:    2.2175    constr:    0.0000
     atom:    7    charge:   12.8708    magn:    2.2187    constr:    0.0000
     atom:    8    charge:   12.8626    magn:    2.3862    constr:    0.0000
     atom:    9    charge:   12.8374    magn:   -0.3786    constr:    0.0000
     atom:   10    charge:   12.7264    magn:   -2.3243    constr:    0.0000
     atom:   11    charge:   12.8441    magn:    2.0160    constr:    0.0000
     atom:   12    charge:   12.7319    magn:   -2.3307    constr:    0.0000
     atom:   13    charge:    5.0409    magn:   -0.0541    constr:    0.0000

     End of self-consistent calculation

 ------ SPIN UP ------------

[...]

 ------ SPIN DOWN ----------

[...]

          k = 0.3333-0.3849 0.0000 ( 14261 PWs)   bands (ev):

[...]

          k =-0.5000-0.2887 0.0000 ( 14254 PWs)   bands (ev):

   -88.4186 -88.4107 -86.6137 -84.8149 -84.6578 -84.6528 -84.6366 -84.6235
   -84.3835 -84.3820 -84.3646 -84.3632 -54.6541 -54.6465 -54.3530 -54.3455
   -54.2845 -54.2412 -52.8659 -52.6109 -52.4898 -51.0055 -50.9686 -50.9488
   -50.8420 -50.8255 -50.8178 -50.7905 -50.7836 -50.7417 -50.7291 -50.7140
   -50.6895 -50.6464 -50.6297 -50.6098 -50.5656 -50.5635 -50.4893 -50.4876
   -50.4709 -50.4690 -50.4686 -50.4655 -50.4589 -50.4560 -50.3891 -50.3891
   -18.3932  -5.5240  -5.0318  -4.9354  -4.5956  -4.3916  -3.3138  -3.0076
    -2.9572  -2.7468  -2.6079  -2.5688  -2.5020  -2.3226  -2.2077  -2.0529
    -1.8668  -1.7922  -1.6772  -1.6315  -1.5648  -1.1119  -1.0044  -0.9671
    -0.8293  -0.6659  -0.6049  -0.5660  -0.4614  -0.4394  -0.2543  -0.1675
    -0.1003   0.0196   0.1801   0.2327   0.2499   0.2767   0.2854   0.4327
     0.5884   0.6674   0.6993   0.8084   0.8358   0.8849   1.0241   1.3254
     1.4469   1.4814   1.5640   1.5988   1.7184   1.8609   1.8864   1.9636
     2.0615   2.0734   2.1715   2.2338   2.2913

     the Fermi energy is     0.8091 ev

!    total energy              =   -3048.55729091 Ry
     Harris-Foulkes estimate   =   -3048.55729114 Ry
     estimated scf accuracy    <       0.00000077 Ry

     The total energy is the sum of the following terms:

     one-electron contribution =  -26612.35590485 Ry
     hartree contribution      =   13306.35505053 Ry
     xc contribution           =    -370.98826928 Ry
     ewald contribution        =   10628.52295798 Ry
     electric field correction =       0.00004300 Ry
     smearing contrib. (-TS)   =      -0.09116828 Ry

     total magnetization       =    17.47 Bohr mag/cell
     absolute magnetization    =    30.44 Bohr mag/cell

     convergence has been achieved in  19 iterations

     negative rho (up, down):  6.207E-04 9.383E-04

     Forces acting on atoms (cartesian axes, Ry/au):

     atom    1 type  1   force =     0.00064325   -0.00063146   -0.00230769
     atom    2 type  1   force =     0.00037120   -0.00013798    0.00441821
     atom    3 type  1   force =     0.00077895   -0.00035451   -0.00224655
     atom    4 type  1   force =    -0.00014119    0.00005587   -0.00036459
     atom    5 type  1   force =    -0.00777863    0.00026355   -0.00074852
     atom    6 type  1   force =     0.01093340   -0.00506327   -0.00053721
     atom    7 type  1   force =    -0.00312728    0.00777772   -0.00182374
     atom    8 type  1   force =     0.00230926   -0.00068850    0.00171646
     atom    9 type  1   force =    -0.00066870   -0.00056345    0.00164672
     atom   10 type  1   force =    -0.00177235   -0.00000983    0.00026407
     atom   11 type  1   force =     0.00036279   -0.00073543    0.00076768
     atom   12 type  1   force =    -0.00066949   -0.00114018   -0.00142860
     atom   13 type  2   force =    -0.00124120    0.00122747    0.00064377

     Total force =     0.003899     Total SCF correction =     0.001478
     SCF correction compared to forces is large: reduce conv_thr to get better values

     bfgs converged in  12 scf cycles and  11 bfgs steps
     (criteria: energy <  1.0E+12 Ry, force <  1.9E-03 Ry/Bohr)

     End of BFGS Geometry Optimization

     Final energy   =   -3048.5572909113 Ry
Begin final coordinates

ATOMIC_POSITIONS (angstrom)
Fe       1.294641895   0.747461846  10.000000000    0   0   0
Fe       3.883925684   0.747461846  10.000000000    0   0   0
Fe       2.589283789   2.989847386  10.000000000    0   0   0
Fe       5.178567579   2.989847386  10.000000000    0   0   0
Fe       5.178567579   1.494923693  12.114141361    0   0   0
Fe       2.589283789   1.494923693  12.114141361    0   0   0
Fe       6.473209474   3.737309232  12.114141361    0   0   0
Fe       3.883925684   3.737309232  12.114141361    0   0   0
Fe      -0.108714432   0.084810777  14.124070744
Fe       2.659465638   0.032642346  14.266328803
Fe       1.302469728   2.256105636  13.952167619
Fe       3.905077920   2.214979235  14.274198765
O        1.166213807  -0.639186349  15.242033157
End final coordinates

     Writing output data file calc.save

     General routines

     Parallel routines

   This run was terminated on:   8:42:50  12Jan2019

   JOB DONE.