     Program PWSCF v.5.1rc2 (svn rev. 11289) starts on  3May2018 at 10:49:24

     Current dimensions of program PWSCF are:
     Max number of different atomic species (ntypx) = 10
     Max number of k-points (npk) =  40000
     Max angular momentum in pseudopotentials (lmaxx) =  3
     Presently stress not available with electric field

     IMPORTANT: XC functional enforced from input :
     Exchange-correlation      = BEEF-VDW ( 1  4 27 13 2)
     Any further DFT definition will be discarded
     Please, verify this is what you really want

     Subspace diagonalization in iterative solution of the eigenvalue problem:
     a serial algorithm will be used

     bravais-lattice index     =            0
     lattice parameter (alat)  =       1.8897  a.u.
     unit-cell volume          =    8507.0471 (a.u.)^3
     number of atoms/cell      =           13
     number of atomic types    =            2
     number of electrons       =       133.00
     number of Kohn-Sham states=           76
     kinetic-energy cutoff     =      36.7493  Ry
     charge density cutoff     =     367.4932  Ry
     convergence threshold     =      1.0E-05
     mixing beta               =       0.3000
     number of iterations used =           10  plain     mixing
     Exchange-correlation      = BEEF-VDW ( 1  4 27 13 2)
     nstep                     =           50

     celldm(1)=   1.889726  celldm(2)=   0.000000  celldm(3)=   0.000000
     celldm(4)=   0.000000  celldm(5)=   0.000000  celldm(6)=   0.000000

     crystal axes: (cart. coord. in units of alat)
               a(1) = (   7.468327   0.000000   0.000000 )
               a(2) = (   3.734164   6.467761   0.000000 )
               a(3) = (   0.000000   0.000000  26.097863 )

     reciprocal axes: (cart. coord. in units 2 pi/alat)
               b(1) = (  0.133899 -0.077307  0.000000 )
               b(2) = (  0.000000  0.154613  0.000000 )
               b(3) = (  0.000000  0.000000  0.038317 )

     PseudoPot. # 1 for La read from file:
     /u/if/mamunm/psp/gbrv1.5pbe/La.UPF
     MD5 check sum: 5937b0c7494ba0601a847275249473aa
     Pseudo is Ultrasoft + core correction, Zval = 11.0
     Generated by new atomic code, or converted to UPF format
     Using radial grid of  995 points,  8 beta functions with:
                l(1) =   0
                l(2) =   0
                l(3) =   1
                l(4) =   1
                l(5) =   2
                l(6) =   2
                l(7) =   3
                l(8) =   3
     Q(r) pseudized with  8 coefficients,  rinner =    1.700   1.700   1.700
                                                       1.700   1.700   1.700
                                                       1.700

     PseudoPot. # 2 for H  read from file:
     /u/if/mamunm/psp/gbrv1.5pbe/H.UPF
     MD5 check sum: 761ae9a214b05c3daf00ab9f6b793d6f
     Pseudo is Ultrasoft, Zval =  1.0
     Generated by new atomic code, or converted to UPF format
     Using radial grid of  615 points,  2 beta functions with:
                l(1) =   0
                l(2) =   0
     Q(r) pseudized with  8 coefficients,  rinner =    0.700

     vdW kernel table read from file vdW_kernel_table
     MD5 check sum: 095c7af220d748ca6e76c0b4c6cfb241

     atomic species   valence    mass     pseudopotential
        La1           11.00   138.90547     La( 1.00)
        H1             1.00     1.00800     H ( 1.00)

     No symmetry found

   Cartesian axes

     site n.     atom                  positions (alat units)
         1           La1 tau(   1) = (   1.8670818   1.0779602  10.0000000  )
         2           La1 tau(   2) = (   5.6012453   1.0779602  10.0000000  )
         3           La1 tau(   3) = (   3.7341635   4.3118406  10.0000000  )
         4           La1 tau(   4) = (   7.4683270   4.3118406  10.0000000  )
         5           La1 tau(   5) = (   7.4683270   2.1559203  13.0489317  )
         6           La1 tau(   6) = (   3.7341635   2.1559203  13.0489317  )
         7           La1 tau(   7) = (   9.3354088   5.3898008  13.0489317  )
         8           La1 tau(   8) = (   5.6012453   5.3898008  13.0489317  )
         9           La1 tau(   9) = (   0.0000000   0.0000000  16.0978635  )
        10           La1 tau(  10) = (   3.7341635   0.0000000  16.0978635  )
        11           La1 tau(  11) = (   1.8670818   3.2338805  16.0978635  )
        12           La1 tau(  12) = (   5.6012453   3.2338805  16.0978635  )
        13           H1  tau(  13) = (   3.7341635   2.1559203  17.6448635  )

     number of k points=    20  Fermi-Dirac smearing, width (Ry)=  0.0110
                       cart. coord. in units 2pi/alat
        k(    1) = (   0.0000000   0.0000000   0.0000000), wk =   0.0555556
        k(    2) = (   0.0000000   0.0257688   0.0000000), wk =   0.1111111
        k(    3) = (   0.0000000   0.0515377   0.0000000), wk =   0.1111111
        k(    4) = (   0.0000000  -0.0773065   0.0000000), wk =   0.0555556
        k(    5) = (   0.0223165  -0.0128844   0.0000000), wk =   0.1111111
        k(    6) = (   0.0223165   0.0128844   0.0000000), wk =   0.1111111
        k(    7) = (   0.0223165   0.0386533   0.0000000), wk =   0.1111111
        k(    8) = (   0.0223165  -0.0901909   0.0000000), wk =   0.1111111
        k(    9) = (   0.0223165  -0.0644221   0.0000000), wk =   0.1111111
        k(   10) = (   0.0223165  -0.0386533   0.0000000), wk =   0.1111111
        k(   11) = (   0.0446329  -0.0257688   0.0000000), wk =   0.1111111
        k(   12) = (   0.0446329   0.0000000   0.0000000), wk =   0.1111111
        k(   13) = (   0.0446329   0.0257688   0.0000000), wk =   0.1111111
        k(   14) = (   0.0446329  -0.1030753   0.0000000), wk =   0.1111111
        k(   15) = (   0.0446329  -0.0773065   0.0000000), wk =   0.1111111
        k(   16) = (   0.0446329  -0.0515377   0.0000000), wk =   0.1111111
        k(   17) = (  -0.0669494   0.0386533   0.0000000), wk =   0.0555556
        k(   18) = (  -0.0669494   0.0644221   0.0000000), wk =   0.1111111
        k(   19) = (  -0.0669494   0.0901909   0.0000000), wk =   0.1111111
        k(   20) = (  -0.0669494  -0.0386533   0.0000000), wk =   0.0555556

     Largest allocated arrays     est. size (Mb)     dimensions
     Largest temporary arrays     est. size (Mb)     dimensions

     Initial potential from superposition of free atoms
     Check: negative starting charge=   -0.831250

     starting charge  132.61517, renormalised to  133.00000

     negative rho (up, down):  8.337E-01 0.000E+00

     *
     * You are using vdW-DF for exchange-correlation in this calculation.
     * Please cite the following three references that made this development
     * possible:
     *
     *   M. Dion, H. Rydberg, E. Schroder, D. C. Langreth, and
     *   B. I. Lundqvist, Phys. Rev. Lett. 92, 246401 (2004).
     *
     *   T. Thonhauser, V. R. Cooper, S. Li, A. Puzder, P. Hyldgaard, and
     *   D. C. Langreth, Phys. Rev. B 76, 125112 (2007).
     *
     *   G. Roman-Perez and J. M. Soler, Phys. Rev. Lett. 103, 096102 (2009).
     *
     *
     * If you are using vdW-DF2, please also cite:
     *
     *   K. Lee, E. D. Murray, L. Kong, B. I. Lundqvist, and
     *   D. C. Langreth, Phys. Rev. B 82, 081101(R) (2010).
     *
     *
     * If you are calculating the stress with vdW-DF, please also cite:
     *
     *   R. Sabatini, E. Kucukbenli, B. Kolb, T. Thonhauser, and
     *   S. de Gironcoli, J. Phys.: Condens. Matter 24, 424209 (2012).
     *

     Carrying out vdW-DF run using the following parameters:

     Nqs =      20    Nr_points =    1024   r_max =   100.000
     q_mesh =
               0.00001000     0.04494208     0.09755937     0.15916263
               0.23128650     0.31572767     0.41458969     0.53033537
               0.66584808     0.82450364     1.01025438     1.22772762
               1.48234092     1.78043706     2.12944203     2.53805004
               3.01644009     3.57652955     4.23227104     5.00000000

     Gradients computed in reciprocal space

     Adding external electric field

     Computed dipole along edir(3) :
        Dipole               -0.0251 Ry au,         -0.0639 Debye
        Dipole field         -0.0000 Ry au

        Potential amp.        0.0036 Ry
        Total length         48.0849 bohr

     Starting wfc are  241 randomized atomic wfcs

     Self-consistent Calculation

     iteration #  1     ecut=    36.75 Ry     beta=0.30
     Davidson diagonalization with overlap
     ethr =  1.00E-02,  avg # of iterations =  2.0

[...]

     total energy              =   -1246.57545422 Ry
     Harris-Foulkes estimate   =   -1250.19637037 Ry
     estimated scf accuracy    <       7.56960781 Ry

[...]

     iteration # 10     ecut=    36.75 Ry     beta=0.30
     Davidson diagonalization with overlap
     c_bands:  1 eigenvalues not converged
     ethr =  2.70E-05,  avg # of iterations = 11.7

[...]

     End of self-consistent calculation

          k = 0.0000 0.0000 0.0000 ( 31997 PWs)   bands (ev):

   -31.5425 -31.5291 -31.4161 -31.4097 -31.4097 -31.4069 -31.3724 -31.3723
   -31.0707 -30.9492 -30.9491 -30.9480 -15.6445 -15.6445 -15.6329 -15.5757
   -15.5756 -15.5519 -15.4845 -15.3911 -15.3788 -15.3788 -15.2000 -15.0469
   -15.0179 -15.0178 -14.8606 -14.8459 -14.8458 -14.8027 -14.8027 -14.8027
   -14.7713 -14.7713 -14.7686 -14.5459 -14.5459 -14.5205 -14.5205 -14.4539
   -14.4508 -14.4508 -14.4235 -14.3512 -14.3492 -14.3492 -14.1219 -14.1218
    -1.6234  -0.8329  -0.1552   0.1307   0.1668   0.1668   0.3773   0.4589
     0.4614   0.4614   0.6545   0.6545   0.7743   0.7889   0.7889   0.9980
     1.5284   1.5284   1.7450   2.0039   2.2694   2.3533   2.3534   2.6390
     2.8193   2.9282   3.0075   3.0127

[...]

          k =-0.0669 0.0387 0.0000 ( 31970 PWs)   bands (ev):

[...]

     the Fermi energy is     1.8153 ev

!    total energy              =   -1249.40486729 Ry
     Harris-Foulkes estimate   =   -1249.40486457 Ry
     estimated scf accuracy    <       0.00000131 Ry

     The total energy is the sum of the following terms:

     one-electron contribution =   -4664.80477359 Ry
     hartree contribution      =    2343.81095220 Ry
     xc contribution           =    -609.21872871 Ry
     ewald contribution        =    1680.93173996 Ry
     electric field correction =       0.00001918 Ry
     smearing contrib. (-TS)   =      -0.12407632 Ry

     convergence has been achieved in  20 iterations

 BEEF-vdW xc energy contributions
           1 :   -539.886646488667
           2 :    496.773533239729
           3 :   -420.427685304892
           4 :    327.047426849149
           5 :   -233.953718842561
           6 :    154.939726518083
           7 :   -97.6063303974721
           8 :    63.0104448490520
           9 :   -47.1307662867499
          10 :    43.2521917052317
          11 :   -44.3618577691287
          12 :    44.8798197616429
          13 :   -41.4675805205760
          14 :    33.0629306476694
          15 :   -20.4903729430738
          16 :    5.90381349143797
          17 :    7.86764754936075
          18 :   -18.0827046901144
          19 :    22.8768695742129
          20 :   -21.8658797208215
          21 :    16.3145925427950
          22 :   -8.74125958860361
          23 :    2.04255702239163
          24 :    1.54472347670401
          25 :   -1.21855444444702
          26 :   -2.21741678711157
          27 :    6.85104259746038
          28 :   -10.5759158695133
          29 :    11.9864160589533
          30 :   -10.8634566220044
          31 :   -45.8162989062774
          32 :   -32.8879855737107

     Forces acting on atoms (Ry/au):

     negative rho (up, down):  5.879E-01 0.000E+00
     atom    1 type  1   force =    -0.00055743   -0.00033279    0.00338431
     atom    2 type  1   force =     0.00055528   -0.00034022    0.00338945
     atom    3 type  1   force =    -0.00000791    0.00065662    0.00337093
     atom    4 type  1   force =     0.00000701    0.00001111    0.00341807
     atom    5 type  1   force =     0.00002253    0.00068464   -0.00246534
     atom    6 type  1   force =    -0.00002426   -0.00000714   -0.00150480
     atom    7 type  1   force =    -0.00059900   -0.00034859   -0.00247373
     atom    8 type  1   force =     0.00059775   -0.00032914   -0.00247871
     atom    9 type  1   force =     0.00000029    0.00000474   -0.00566153
     atom   10 type  1   force =     0.00000141    0.02243509    0.00791438
     atom   11 type  1   force =     0.01942835   -0.01121527    0.00790828
     atom   12 type  1   force =    -0.01942372   -0.01122018    0.00791033
     atom   13 type  2   force =    -0.00000031    0.00000112   -0.02271163

     Total force =     0.047385     Total SCF correction =     0.000134

     entering subroutine stress ...

     negative rho (up, down):  5.879E-01 0.000E+00
          total   stress  (Ry/bohr**3)                   (kbar)     P=   -2.49
  -0.00001495  -0.00000000  -0.00000000         -2.20     -0.00     -0.00
  -0.00000000  -0.00001494   0.00000000         -0.00     -2.20      0.00
  -0.00000000   0.00000000  -0.00002083         -0.00      0.00     -3.06

     BFGS Geometry Optimization

     number of scf cycles    =   1
     number of bfgs steps    =   0

     energy   new            =   -1249.4048672854 Ry

     new trust radius        =       0.0237901374 bohr
     new conv_thr            =       0.0000099958 Ry

ATOMIC_POSITIONS (crystal)
La1      0.166666667   0.166666667   0.383173129    0   0   0
La1      0.666666667   0.166666667   0.383173129    0   0   0
La1      0.166666667   0.666666667   0.383173129    0   0   0
La1      0.666666667   0.666666667   0.383173129    0   0   0
La1      0.833333333   0.333333333   0.500000000    0   0   0
La1      0.333333333   0.333333333   0.500000000    0   0   0
La1      0.833333333   0.833333333   0.500000000    0   0   0
La1      0.333333333   0.833333333   0.500000000    0   0   0
La1     -0.000000173   0.000000387   0.616712074
La1      0.499082306   0.001835587   0.616987348
La1      0.001835422   0.499082393   0.616987225
La1      0.499082714   0.499081991   0.616987266
H1       0.333333266   0.333333425   0.675643238

     Writing output data file calc.save
     Check: negative starting charge=   -0.831250
     NEW-OLD atomic charge density approx. for the potential
     Check: negative starting charge=   -0.831420

[...]

     energy   old            =   -1249.4048672854 Ry
     energy   new            =   -1249.4070377243 Ry

     CASE: energy  _new < energy  _old

     WARNING: bfgs curvature condition failed, Theta= 0.864
     new trust radius        =       0.0261691512 bohr
     new conv_thr            =       0.0000001000 Ry

[...]

     iteration #  1     ecut=    36.75 Ry     beta=0.30
     Davidson diagonalization with overlap
     c_bands:  1 eigenvalues not converged
     c_bands:  1 eigenvalues not converged
     ethr =  1.00E-06,  avg # of iterations = 16.3

[...]

     Threshold (ethr) on eigenvalues was too large:
     Diagonalizing with lowered threshold

     Davidson diagonalization with overlap
     ethr =  1.16E-08,  avg # of iterations =  8.5

[...]

     WARNING: bfgs curvature condition failed, Theta= 0.839
     new trust radius        =       0.0058848146 bohr
     new conv_thr            =       0.0000001000 Ry

[...]

     Total force =     0.006199     Total SCF correction =     0.000630
     SCF correction compared to forces is large: reduce conv_thr to get better values

[...]

     Threshold (ethr) on eigenvalues was too large:
     Diagonalizing with lowered threshold

     Davidson diagonalization with overlap
     ethr =  9.89E-08,  avg # of iterations =  8.2

[...]

     Total force =     0.005098     Total SCF correction =     0.000234

[...]

     number of scf cycles    =  13
     number of bfgs steps    =  12

     energy   old            =   -1249.4189819405 Ry
     energy   new            =   -1249.4191434068 Ry

     CASE: energy  _new < energy  _old

     new trust radius        =       0.0446878106 bohr
     new conv_thr            =       0.0000001000 Ry

ATOMIC_POSITIONS (crystal)
La1      0.166666667   0.166666667   0.383173129    0   0   0
La1      0.666666667   0.166666667   0.383173129    0   0   0
La1      0.166666667   0.666666667   0.383173129    0   0   0
La1      0.666666667   0.666666667   0.383173129    0   0   0
La1      0.833333333   0.333333333   0.500000000    0   0   0
La1      0.333333333   0.333333333   0.500000000    0   0   0
La1      0.833333333   0.833333333   0.500000000    0   0   0
La1      0.333333333   0.833333333   0.500000000    0   0   0
La1     -0.000000006   0.000000988   0.613445013
La1      0.491927234   0.016144900   0.619039129
La1      0.016144123   0.491928643   0.619039224
La1      0.491928082   0.491928283   0.619039107
H1       0.333332922   0.333334170   0.667673845

     Writing output data file calc.save
     Check: negative starting charge=   -0.833249
     NEW-OLD atomic charge density approx. for the potential
     Check: negative starting charge=   -0.832970

[...]

     Self-consistent Calculation

[...]

     total energy              =   -1249.41925599 Ry
     Harris-Foulkes estimate   =   -1249.41925602 Ry
     estimated scf accuracy    <       0.00000020 Ry

     iteration # 11     ecut=    36.75 Ry     beta=0.30
     Davidson diagonalization with overlap
     ethr =  1.49E-10,  avg # of iterations =  3.9

[...]

     negative rho (up, down):  5.887E-01 0.000E+00

     Adding external electric field

     Computed dipole along edir(3) :
        Dipole               -0.0205 Ry au,         -0.0522 Debye
        Dipole field         -0.0000 Ry au

        Potential amp.        0.0029 Ry
        Total length         48.0849 bohr

     End of self-consistent calculation

[...]

          k = 0.0446-0.0515 0.0000 ( 31991 PWs)   bands (ev):

[...]

          k =-0.0669-0.0387 0.0000 ( 31970 PWs)   bands (ev):

   -31.4203 -31.4164 -31.4057 -31.3706 -31.3531 -31.3491 -31.3123 -31.3099
   -30.9713 -30.9619 -30.9104 -30.8955 -15.4327 -15.3893 -15.3581 -15.3337
   -15.2899 -15.2744 -15.1986 -15.1776 -15.1447 -15.1257 -15.1053 -15.0632
   -15.0432 -15.0332 -15.0248 -14.9704 -14.9444 -14.9435 -14.9240 -14.8248
   -14.7138 -14.7031 -14.6222 -14.6152 -14.6008 -14.5673 -14.5467 -14.5350
   -14.5069 -14.5016 -14.3845 -14.3759 -14.3509 -14.3469 -14.1956 -14.1871
    -1.8289   0.2677   0.3144   0.6888   0.7903   1.0171   1.0512   1.1175
     1.1318   1.1348   1.2368   1.4711   1.5193   1.6579   1.6655   1.7043
     1.8045   1.9628   1.9746   2.0568   2.0800   2.0866   2.1245   2.1450
     2.2032   2.3619   2.3836   2.4449

     the Fermi energy is     1.8715 ev

!    total energy              =   -1249.41925602 Ry
     Harris-Foulkes estimate   =   -1249.41925626 Ry
     estimated scf accuracy    <       0.00000009 Ry

     The total energy is the sum of the following terms:

     one-electron contribution =   -4657.24047655 Ry
     hartree contribution      =    2340.24580788 Ry
     xc contribution           =    -609.26516260 Ry
     ewald contribution        =    1676.96471987 Ry
     electric field correction =       0.00000062 Ry
     smearing contrib. (-TS)   =      -0.12414524 Ry

     convergence has been achieved in  11 iterations

 BEEF-vdW xc energy contributions
           1 :   -539.935184364054
           2 :    496.837246712200
           3 :   -420.504805445773
           4 :    327.120018257732
           5 :   -233.998752275966
           6 :    154.939946728467
           7 :   -97.5572610294373
           8 :    62.9219529807142
           9 :   -47.0241564888257
          10 :    43.1546224612778
          11 :   -44.2976290938553
          12 :    44.8591869818187
          13 :   -41.4801901552519
          14 :    33.0830385319019
          15 :   -20.4915106952094
          16 :    5.87268452198748
          17 :    7.92666177915009
          18 :   -18.1531175125084
          19 :    22.9411062712358
          20 :   -21.9160641544227
          21 :    16.3569361246356
          22 :   -8.78995522245657
          23 :    2.10630575006667
          24 :    1.47285074740023
          25 :   -1.15839741042612
          26 :   -2.24754910733975
          27 :    6.84907386482507
          28 :   -10.5599301198775
          29 :    11.9852651456315
          30 :   -10.9000905898598
          31 :   -45.8196779574970
          32 :   -32.8949140942934

     Forces acting on atoms (Ry/au):

     negative rho (up, down):  5.887E-01 0.000E+00
     atom    1 type  1   force =    -0.00022865   -0.00013201    0.00377780
     atom    2 type  1   force =     0.00022881   -0.00013192    0.00377783
     atom    3 type  1   force =     0.00000015    0.00026439    0.00377808
     atom    4 type  1   force =    -0.00000002   -0.00000035    0.00280346
     atom    5 type  1   force =    -0.00000014    0.00080375   -0.00223510
     atom    6 type  1   force =     0.00000013    0.00000006   -0.00186322
     atom    7 type  1   force =    -0.00069564   -0.00040144   -0.00223523
     atom    8 type  1   force =     0.00069590   -0.00040175   -0.00223501
     atom    9 type  1   force =     0.00000026   -0.00000019   -0.00091441
     atom   10 type  1   force =    -0.00000000    0.00018547   -0.00133876
     atom   11 type  1   force =     0.00016066   -0.00009309   -0.00133875
     atom   12 type  1   force =    -0.00016156   -0.00009282   -0.00133804
     atom   13 type  2   force =     0.00000010   -0.00000010   -0.00063867

     Total force =     0.002593     Total SCF correction =     0.000720
     SCF correction compared to forces is large: reduce conv_thr to get better values

     entering subroutine stress ...

     negative rho (up, down):  5.887E-01 0.000E+00
          total   stress  (Ry/bohr**3)                   (kbar)     P=   -1.40
  -0.00000700  -0.00000000   0.00000000         -1.03     -0.00      0.00
  -0.00000000  -0.00000700  -0.00000000         -0.00     -1.03     -0.00
   0.00000000  -0.00000000  -0.00001449          0.00     -0.00     -2.13

     bfgs converged in  14 scf cycles and  13 bfgs steps
     (criteria: energy <  1.0E+00, force <  1.9E-03)

     End of BFGS Geometry Optimization

     Final energy   =   -1249.4192560217 Ry
Begin final coordinates

ATOMIC_POSITIONS (crystal)
La1      0.166666667   0.166666667   0.383173129    0   0   0
La1      0.666666667   0.166666667   0.383173129    0   0   0
La1      0.166666667   0.666666667   0.383173129    0   0   0
La1      0.666666667   0.666666667   0.383173129    0   0   0
La1      0.833333333   0.333333333   0.500000000    0   0   0
La1      0.333333333   0.333333333   0.500000000    0   0   0
La1      0.833333333   0.833333333   0.500000000    0   0   0
La1      0.333333333   0.833333333   0.500000000    0   0   0
La1     -0.000000006   0.000000988   0.613445013
La1      0.491927234   0.016144900   0.619039129
La1      0.016144123   0.491928643   0.619039224
La1      0.491928082   0.491928283   0.619039107
H1       0.333332922   0.333334170   0.667673845
End final coordinates

     Writing output data file calc.save

     General routines

     Parallel routines

   This run was terminated on:  16: 6:46   3May2018

   JOB DONE.
Job  /afs/slac/g/suncat/bin/suncat-tsmpirun -x LD_LIBRARY_PATH -wdir /scratch/qe734065_mMTVX pw.x -npool 4 -in pw.inp

TID   HOST_NAME   COMMAND_LINE            STATUS            TERMINATION_TIME
00000 suncat0072 pw.x -npool 4 -i  Done                     05/03/2018 16:06:46
00001 suncat0072 pw.x -npool 4 -i  Done                     05/03/2018 16:06:46
00002 suncat0072 pw.x -npool 4 -i  Done                     05/03/2018 16:06:46
00003 suncat0072 pw.x -npool 4 -i  Done                     05/03/2018 16:06:46
00004 suncat0072 pw.x -npool 4 -i  Done                     05/03/2018 16:06:46
00005 suncat0072 pw.x -npool 4 -i  Done                     05/03/2018 16:06:46
00006 suncat0072 pw.x -npool 4 -i  Done                     05/03/2018 16:06:46
00007 suncat0072 pw.x -npool 4 -i  Done                     05/03/2018 16:06:46
00008 suncat0070 pw.x -npool 4 -i  Done                     05/03/2018 16:06:46
00009 suncat0070 pw.x -npool 4 -i  Done                     05/03/2018 16:06:46
00010 suncat0070 pw.x -npool 4 -i  Done                     05/03/2018 16:06:46
00011 suncat0070 pw.x -npool 4 -i  Done                     05/03/2018 16:06:46
00012 suncat0070 pw.x -npool 4 -i  Done                     05/03/2018 16:06:46
00013 suncat0070 pw.x -npool 4 -i  Done                     05/03/2018 16:06:46
00014 suncat0070 pw.x -npool 4 -i  Done                     05/03/2018 16:06:46
00015 suncat0070 pw.x -npool 4 -i  Done                     05/03/2018 16:06:46
00016 suncat0182 pw.x -npool 4 -i  Done                     05/03/2018 16:06:46
00017 suncat0182 pw.x -npool 4 -i  Done                     05/03/2018 16:06:46
00018 suncat0182 pw.x -npool 4 -i  Done                     05/03/2018 16:06:46
00019 suncat0182 pw.x -npool 4 -i  Done                     05/03/2018 16:06:46
00020 suncat0182 pw.x -npool 4 -i  Done                     05/03/2018 16:06:46
00021 suncat0182 pw.x -npool 4 -i  Done                     05/03/2018 16:06:46
00022 suncat0182 pw.x -npool 4 -i  Done                     05/03/2018 16:06:46
00023 suncat0182 pw.x -npool 4 -i  Done                     05/03/2018 16:06:46
00024 suncat0173 pw.x -npool 4 -i  Done                     05/03/2018 16:06:46
00025 suncat0173 pw.x -npool 4 -i  Done                     05/03/2018 16:06:46
00026 suncat0173 pw.x -npool 4 -i  Done                     05/03/2018 16:06:46
00027 suncat0173 pw.x -npool 4 -i  Done                     05/03/2018 16:06:46
00028 suncat0173 pw.x -npool 4 -i  Done                     05/03/2018 16:06:46
00029 suncat0173 pw.x -npool 4 -i  Done                     05/03/2018 16:06:46
00030 suncat0173 pw.x -npool 4 -i  Done                     05/03/2018 16:06:46
00031 suncat0173 pw.x -npool 4 -i  Done                     05/03/2018 16:06:46