     Program PWSCF v.5.1rc2 (svn rev. 11289) starts on 20Apr2018 at 21:41:18

     Current dimensions of program PWSCF are:
     Max number of different atomic species (ntypx) = 10
     Max number of k-points (npk) =  40000
     Max angular momentum in pseudopotentials (lmaxx) =  3
     Presently stress not available with electric field

     IMPORTANT: XC functional enforced from input :
     Exchange-correlation      = BEEF-VDW ( 1  4 27 13 2)
     Any further DFT definition will be discarded
     Please, verify this is what you really want

     Subspace diagonalization in iterative solution of the eigenvalue problem:
     a serial algorithm will be used

     bravais-lattice index     =            0
     lattice parameter (alat)  =       1.8897  a.u.
     unit-cell volume          =    7171.5276 (a.u.)^3
     number of atoms/cell      =           14
     number of atomic types    =            3
     number of electrons       =       173.00
     number of Kohn-Sham states=           96
     kinetic-energy cutoff     =      36.7493  Ry
     charge density cutoff     =     367.4932  Ry
     convergence threshold     =      1.0E-05
     mixing beta               =       0.3000
     number of iterations used =           10  plain     mixing
     Exchange-correlation      = BEEF-VDW ( 1  4 27 13 2)
     nstep                     =           50

     celldm(1)=   1.889726  celldm(2)=   0.000000  celldm(3)=   0.000000
     celldm(4)=   0.000000  celldm(5)=   0.000000  celldm(6)=   0.000000

     crystal axes: (cart. coord. in units of alat)
               a(1) = (   6.917003   0.000000   0.000000 )
               a(2) = (   3.458501   5.990300   0.000000 )
               a(3) = (   0.000000   0.000000  25.647709 )

     reciprocal axes: (cart. coord. in units 2 pi/alat)
               b(1) = (  0.144571 -0.083468  0.000000 )
               b(2) = (  0.000000  0.166937  0.000000 )
               b(3) = (  0.000000  0.000000  0.038990 )

     PseudoPot. # 1 for Pb read from file:
     /u/if/mamunm/psp/gbrv1.5pbe/Pb.UPF
     MD5 check sum: 3d1c1779aa92214d1e8f3a7db79003e2
     Pseudo is Ultrasoft + core correction, Zval = 14.0
     Generated by new atomic code, or converted to UPF format
     Using radial grid of  899 points,  6 beta functions with:
                l(1) =   0
                l(2) =   0
                l(3) =   1
                l(4) =   1
                l(5) =   2
                l(6) =   2
     Q(r) pseudized with  6 coefficients,  rinner =    1.000   1.000   1.000
                                                       1.000   1.000

     PseudoPot. # 2 for C  read from file:
     /u/if/mamunm/psp/gbrv1.5pbe/C.UPF
     MD5 check sum: d1aef80898a10debaa0f26306b886e00
     Pseudo is Ultrasoft + core correction, Zval =  4.0
     Generated by new atomic code, or converted to UPF format
     Using radial grid of  721 points,  4 beta functions with:
                l(1) =   0
                l(2) =   0
                l(3) =   1
                l(4) =   1
     Q(r) pseudized with  8 coefficients,  rinner =    1.100   1.100   1.100

     PseudoPot. # 3 for H  read from file:
     /u/if/mamunm/psp/gbrv1.5pbe/H.UPF
     MD5 check sum: 761ae9a214b05c3daf00ab9f6b793d6f
     Pseudo is Ultrasoft, Zval =  1.0
     Generated by new atomic code, or converted to UPF format
     Using radial grid of  615 points,  2 beta functions with:
                l(1) =   0
                l(2) =   0
     Q(r) pseudized with  8 coefficients,  rinner =    0.700

     vdW kernel table read from file vdW_kernel_table
     MD5 check sum: 095c7af220d748ca6e76c0b4c6cfb241

     atomic species   valence    mass     pseudopotential
        Pb1           14.00   207.20000     Pb( 1.00)
        C1             4.00    12.01100     C ( 1.00)
        H1             1.00     1.00800     H ( 1.00)

     No symmetry found

   Cartesian axes

     site n.     atom                  positions (alat units)
         1           Pb1 tau(   1) = (   1.7292506   0.9983833  10.0000000  )
         2           Pb1 tau(   2) = (   5.1877519   0.9983833  10.0000000  )
         3           Pb1 tau(   3) = (   3.4585013   3.9935333  10.0000000  )
         4           Pb1 tau(   4) = (   6.9170025   3.9935333  10.0000000  )
         5           Pb1 tau(   5) = (   6.9170025   1.9967666  12.8238544  )
         6           Pb1 tau(   6) = (   3.4585013   1.9967666  12.8238544  )
         7           Pb1 tau(   7) = (   8.6462531   4.9919166  12.8238544  )
         8           Pb1 tau(   8) = (   5.1877519   4.9919166  12.8238544  )
         9           Pb1 tau(   9) = (   0.0000000   0.0000000  15.6477089  )
        10           Pb1 tau(  10) = (   3.4585013   0.0000000  15.6477089  )
        11           Pb1 tau(  11) = (   1.7292506   2.9951499  15.6477089  )
        12           Pb1 tau(  12) = (   5.1877519   2.9951499  15.6477089  )
        13           C1  tau(  13) = (   1.7292506   0.9983833  17.0907089  )
        14           H1  tau(  14) = (   1.7292506   0.9983833  18.1907089  )

     number of k points=    20  Fermi-Dirac smearing, width (Ry)=  0.0110
                       cart. coord. in units 2pi/alat
        k(    1) = (   0.0000000   0.0000000   0.0000000), wk =   0.0555556
        k(    2) = (   0.0000000   0.0278228   0.0000000), wk =   0.1111111
        k(    3) = (   0.0000000   0.0556455   0.0000000), wk =   0.1111111
        k(    4) = (   0.0000000  -0.0834683   0.0000000), wk =   0.0555556
        k(    5) = (   0.0240952  -0.0139114   0.0000000), wk =   0.1111111
        k(    6) = (   0.0240952   0.0139114   0.0000000), wk =   0.1111111
        k(    7) = (   0.0240952   0.0417341   0.0000000), wk =   0.1111111
        k(    8) = (   0.0240952  -0.0973797   0.0000000), wk =   0.1111111
        k(    9) = (   0.0240952  -0.0695569   0.0000000), wk =   0.1111111
        k(   10) = (   0.0240952  -0.0417341   0.0000000), wk =   0.1111111
        k(   11) = (   0.0481904  -0.0278228   0.0000000), wk =   0.1111111
        k(   12) = (   0.0481904   0.0000000   0.0000000), wk =   0.1111111
        k(   13) = (   0.0481904   0.0278228   0.0000000), wk =   0.1111111
        k(   14) = (   0.0481904  -0.1112910   0.0000000), wk =   0.1111111
        k(   15) = (   0.0481904  -0.0834683   0.0000000), wk =   0.1111111
        k(   16) = (   0.0481904  -0.0556455   0.0000000), wk =   0.1111111
        k(   17) = (  -0.0722856   0.0417341   0.0000000), wk =   0.0555556
        k(   18) = (  -0.0722856   0.0695569   0.0000000), wk =   0.1111111
        k(   19) = (  -0.0722856   0.0973797   0.0000000), wk =   0.1111111
        k(   20) = (  -0.0722856  -0.0417341   0.0000000), wk =   0.0555556

     Largest allocated arrays     est. size (Mb)     dimensions
     Largest temporary arrays     est. size (Mb)     dimensions

     Check: negative/imaginary core charge=   -0.000001    0.000000

     Initial potential from superposition of free atoms
     Check: negative starting charge=   -0.197904

     starting charge  172.97173, renormalised to  173.00000

     negative rho (up, down):  1.979E-01 0.000E+00

     *
     * You are using vdW-DF for exchange-correlation in this calculation.
     * Please cite the following three references that made this development
     * possible:
     *
     *   M. Dion, H. Rydberg, E. Schroder, D. C. Langreth, and
     *   B. I. Lundqvist, Phys. Rev. Lett. 92, 246401 (2004).
     *
     *   T. Thonhauser, V. R. Cooper, S. Li, A. Puzder, P. Hyldgaard, and
     *   D. C. Langreth, Phys. Rev. B 76, 125112 (2007).
     *
     *   G. Roman-Perez and J. M. Soler, Phys. Rev. Lett. 103, 096102 (2009).
     *
     *
     * If you are using vdW-DF2, please also cite:
     *
     *   K. Lee, E. D. Murray, L. Kong, B. I. Lundqvist, and
     *   D. C. Langreth, Phys. Rev. B 82, 081101(R) (2010).
     *
     *
     * If you are calculating the stress with vdW-DF, please also cite:
     *
     *   R. Sabatini, E. Kucukbenli, B. Kolb, T. Thonhauser, and
     *   S. de Gironcoli, J. Phys.: Condens. Matter 24, 424209 (2012).
     *

     Carrying out vdW-DF run using the following parameters:

     Nqs =      20    Nr_points =    1024   r_max =   100.000
     q_mesh =
               0.00001000     0.04494208     0.09755937     0.15916263
               0.23128650     0.31572767     0.41458969     0.53033537
               0.66584808     0.82450364     1.01025438     1.22772762
               1.48234092     1.78043706     2.12944203     2.53805004
               3.01644009     3.57652955     4.23227104     5.00000000

     Gradients computed in reciprocal space

     Adding external electric field

     Computed dipole along edir(3) :
        Dipole               -0.0065 Ry au,         -0.0165 Debye
        Dipole field         -0.0000 Ry au

        Potential amp.        0.0011 Ry
        Total length         47.2555 bohr

     Starting wfc are  113 randomized atomic wfcs

     Self-consistent Calculation

     iteration #  1     ecut=    36.75 Ry     beta=0.30
     Davidson diagonalization with overlap
     ethr =  1.00E-02,  avg # of iterations =  2.0

[...]

     total energy              =   -2003.94242072 Ry
     Harris-Foulkes estimate   =   -2005.07895134 Ry
     estimated scf accuracy    <       2.50385729 Ry

[...]

     End of self-consistent calculation

          k = 0.0000 0.0000 0.0000 ( 27033 PWs)   bands (ev):

   -16.4606 -16.4565 -16.4565 -16.3932 -16.3928 -16.3928 -16.3785 -16.3785
   -16.3687 -16.3520 -16.3520 -16.3460 -16.3312 -16.3251 -16.3251 -16.3101
   -16.3101 -16.3013 -16.3001 -16.3001 -16.2806 -16.2780 -16.2780 -16.2465
   -16.2465 -16.2328 -16.2295 -16.2058 -16.2058 -16.1860 -16.1751 -16.1751
   -16.1289 -16.1289 -16.1206 -16.1087 -16.0976 -16.0976 -16.0844 -16.0844
   -16.0569 -16.0535 -16.0535 -16.0460 -16.0460 -16.0333 -16.0231 -16.0231
   -16.0120 -15.9946 -15.9946 -15.9930 -15.9831 -15.9831 -15.9689 -15.9329
   -15.9329 -15.8952 -15.8952 -15.8781 -10.6404  -9.9793  -8.8068  -7.5520
    -6.8947  -6.8728  -6.8728  -6.4488  -6.4488  -6.4220  -5.8409  -5.8148
    -5.8148  -3.4098  -2.6647  -2.6647  -2.3454  -1.9432  -1.5881  -1.5881
    -1.4794  -1.4794  -1.4779   0.3830   0.6183   0.6183   1.4083   2.3396
     2.3409   2.3409   3.0626   3.2937   3.2937   3.4699   3.7543   3.9483

[...]

          k =-0.0723 0.0417 0.0000 ( 26962 PWs)   bands (ev):

[...]

     the Fermi energy is     1.1795 ev

!    total energy              =   -2004.80217202 Ry
     Harris-Foulkes estimate   =   -2004.80217920 Ry
     estimated scf accuracy    <       0.00000236 Ry

     The total energy is the sum of the following terms:

     one-electron contribution =   -9622.59084334 Ry
     hartree contribution      =    4882.82286694 Ry
     xc contribution           =    -788.25407566 Ry
     ewald contribution        =    3523.26108513 Ry
     electric field correction =       0.00003003 Ry
     smearing contrib. (-TS)   =      -0.04123512 Ry

     convergence has been achieved in  11 iterations

 BEEF-vdW xc energy contributions
           1 :   -702.533509172817
           2 :    652.549879974681
           3 :   -564.541261422746
           4 :    457.762576845138
           5 :   -352.065311832639
           6 :    261.992978808750
           7 :   -193.646974844278
           8 :    145.070341019424
           9 :   -109.486398893572
          10 :    79.6322773156730
          11 :   -51.1780546578218
          12 :    23.8985027082482
          13 :  -0.512991604559033
          14 :   -15.7765978863818
          15 :    23.5595276955473
          16 :   -24.1543415828567
          17 :    20.9201728448986
          18 :   -17.5361927788164
          19 :    16.2938513459319
          20 :   -17.3083129498680
          21 :    18.9640799373415
          22 :   -19.2167670876131
          23 :    16.9480866333522
          24 :   -12.6256379961324
          25 :    7.97222505139121
          26 :   -4.92687583608176
          27 :    4.54406226196284
          28 :   -6.45481305436317
          29 :    9.14973429371162
          30 :   -10.8726893150050
          31 :   -56.3427910564208
          32 :   -41.3229022386031

     Forces acting on atoms (Ry/au):

     negative rho (up, down):  2.148E-01 0.000E+00
     atom    1 type  1   force =     0.00000840   -0.00001697   -0.00946967
     atom    2 type  1   force =    -0.00000723   -0.00415996   -0.00822239
     atom    3 type  1   force =    -0.00360515    0.00208490   -0.00824923
     atom    4 type  1   force =     0.00360796    0.00208671   -0.00820148
     atom    5 type  1   force =    -0.00065861    0.00039144   -0.00173365
     atom    6 type  1   force =     0.00066151    0.00039348   -0.00175508
     atom    7 type  1   force =    -0.00000497   -0.00000698   -0.02406062
     atom    8 type  1   force =     0.00000821   -0.00076705   -0.00175994
     atom    9 type  1   force =     0.01529661    0.00882957    0.03482670
     atom   10 type  1   force =    -0.01531022    0.00884688    0.03483115
     atom   11 type  1   force =     0.00000417   -0.01768378    0.03483035
     atom   12 type  1   force =    -0.00000720   -0.00000395    0.00765159
     atom   13 type  2   force =     0.00000380    0.00000235   -0.04436213
     atom   14 type  3   force =     0.00000274    0.00000336   -0.00432562

     Total force =     0.081375     Total SCF correction =     0.004237

     entering subroutine stress ...

     negative rho (up, down):  2.148E-01 0.000E+00
          total   stress  (Ry/bohr**3)                   (kbar)     P=   10.02
   0.00007799   0.00000000   0.00000000         11.47      0.00      0.00
   0.00000000   0.00007798  -0.00000000          0.00     11.47     -0.00
   0.00000000  -0.00000000   0.00004838          0.00     -0.00      7.12

     BFGS Geometry Optimization

     number of scf cycles    =   1
     number of bfgs steps    =   0

     energy   new            =   -2004.8021720180 Ry

     new trust radius        =       0.0443621324 bohr
     new conv_thr            =       0.0000099958 Ry

ATOMIC_POSITIONS (crystal)
Pb1      0.166666667   0.166666667   0.389898374    0   0   0
Pb1      0.666666667   0.166666667   0.389898374    0   0   0
Pb1      0.166666667   0.666666667   0.389898374    0   0   0
Pb1      0.666666667   0.666666667   0.389898374    0   0   0
Pb1      0.833333333   0.333333333   0.500000000    0   0   0
Pb1      0.333333333   0.333333333   0.500000000    0   0   0
Pb1      0.833333333   0.833333333   0.500000000    0   0   0
Pb1      0.333333333   0.833333333   0.500000000    0   0   0
Pb1      0.000780251   0.000779996   0.610820189
Pb1      0.498437947   0.000781525   0.610820281
Pb1      0.000781403   0.498437832   0.610820264
Pb1      0.499999623   0.499999651   0.610259498
C1       0.166666854   0.166666874   0.665448658
H1       0.166666728   0.166666964   0.709163534

     Writing output data file calc.save
     Check: negative starting charge=   -0.197904
     NEW-OLD atomic charge density approx. for the potential

     Check: negative/imaginary core charge=   -0.000001    0.000000
     Check: negative starting charge=   -0.196281

[...]

     Total force =     0.071014     Total SCF correction =     0.010511
     SCF correction compared to forces is large: reduce conv_thr to get better values

[...]

     energy   old            =   -2004.8021720180 Ry
     energy   new            =   -2004.8077726304 Ry

     CASE: energy  _new < energy  _old

[...]

     Total force =     0.013035     Total SCF correction =     0.000787

[...]

     WARNING: bfgs curvature condition failed, Theta= 0.949
     new trust radius        =       0.1038838234 bohr
     new conv_thr            =       0.0000001000 Ry

[...]

     Threshold (ethr) on eigenvalues was too large:
     Diagonalizing with lowered threshold

     Davidson diagonalization with overlap
     ethr =  1.70E-08,  avg # of iterations =  2.7

[...]

     CASE: energy  _new > energy  _old

[...]

     CASE: energy  _new > energy  _old

[...]

     WARNING: bfgs curvature condition failed, Theta= 0.877
     new trust radius        =       0.0169782429 bohr
     new conv_thr            =       0.0000001000 Ry

[...]

     number of scf cycles    =  29
     number of bfgs steps    =  26

     energy   old            =   -2004.8358438959 Ry
     energy   new            =   -2004.8358633624 Ry

     CASE: energy  _new < energy  _old

     WARNING: bfgs curvature condition failed, Theta= 0.679
     uphill step: resetting bfgs history

     new trust radius        =       0.0025274683 bohr
     new conv_thr            =       0.0000001000 Ry

ATOMIC_POSITIONS (crystal)
Pb1      0.166666667   0.166666667   0.389898374    0   0   0
Pb1      0.666666667   0.166666667   0.389898374    0   0   0
Pb1      0.166666667   0.666666667   0.389898374    0   0   0
Pb1      0.666666667   0.666666667   0.389898374    0   0   0
Pb1      0.833333333   0.333333333   0.500000000    0   0   0
Pb1      0.333333333   0.333333333   0.500000000    0   0   0
Pb1      0.833333333   0.833333333   0.500000000    0   0   0
Pb1      0.333333333   0.833333333   0.500000000    0   0   0
Pb1      0.001386043   0.001382216   0.631087522
Pb1      0.497231960   0.001380256   0.631086211
Pb1      0.001385690   0.497225952   0.631084623
Pb1      0.499999244   0.499996891   0.611204783
C1       0.166666324   0.166661649   0.678947782
H1       0.166666965   0.166667501   0.721623677

     Writing output data file calc.save
     Check: negative starting charge=   -0.194879
     NEW-OLD atomic charge density approx. for the potential

     Check: negative/imaginary core charge=   -0.000001    0.000000
     Check: negative starting charge=   -0.194969

[...]

     Self-consistent Calculation

[...]

     Threshold (ethr) on eigenvalues was too large:
     Diagonalizing with lowered threshold

     Davidson diagonalization with overlap
     ethr =  3.91E-09,  avg # of iterations =  4.0

[...]

     total energy              =   -2004.83586782 Ry
     Harris-Foulkes estimate   =   -2004.83586787 Ry
     estimated scf accuracy    <       0.00000014 Ry

     iteration #  5     ecut=    36.75 Ry     beta=0.30
     Davidson diagonalization with overlap
     ethr =  7.88E-11,  avg # of iterations =  2.7

[...]

     negative rho (up, down):  2.117E-01 0.000E+00

     Adding external electric field

     Computed dipole along edir(3) :
        Dipole               -0.0854 Ry au,         -0.2170 Debye
        Dipole field         -0.0001 Ry au

        Potential amp.        0.0141 Ry
        Total length         47.2555 bohr

     End of self-consistent calculation

[...]

          k = 0.0482-0.0556 0.0000 ( 26956 PWs)   bands (ev):

[...]

          k =-0.0723-0.0417 0.0000 ( 26962 PWs)   bands (ev):

   -16.3561 -16.3446 -16.2997 -16.2937 -16.2918 -16.2865 -16.2834 -16.2750
   -16.2640 -16.2577 -16.2439 -16.2365 -16.2260 -16.2255 -16.2235 -16.2150
   -16.2016 -16.2009 -16.1920 -16.1918 -16.1882 -16.1854 -16.1714 -16.1611
   -16.1590 -16.1562 -16.1451 -16.1393 -16.1360 -16.1315 -16.1301 -16.1030
   -16.0959 -16.0937 -16.0915 -16.0806 -16.0759 -16.0758 -16.0729 -16.0676
   -16.0611 -16.0517 -16.0448 -16.0327 -16.0227 -16.0213 -16.0004 -15.9990
   -15.9768 -15.9741 -15.9669 -15.9639 -15.9394 -15.9167 -15.8982 -15.8962
   -15.8725 -15.8635 -15.8474 -15.7834 -10.4186  -9.0858  -8.9890  -8.0606
    -7.5509  -7.1044  -7.0843  -7.0596  -6.7907  -6.4619  -6.2849  -5.7903
    -5.7128  -2.3809  -1.1780  -0.8480  -0.8199  -0.6976  -0.5265  -0.4397
    -0.2948  -0.0406   0.2345   0.7566   0.8932   0.9606   1.2593   1.5205
     1.8563   1.9862   2.2346   2.2526   2.4645   2.5821   2.5950   2.6971

     the Fermi energy is     1.2043 ev

!    total energy              =   -2004.83586774 Ry
     Harris-Foulkes estimate   =   -2004.83586780 Ry
     estimated scf accuracy    <       0.00000003 Ry

     The total energy is the sum of the following terms:

     one-electron contribution =   -9057.61542500 Ry
     hartree contribution      =    4600.70355980 Ry
     xc contribution           =    -788.14532299 Ry
     ewald contribution        =    3240.26102469 Ry
     electric field correction =       0.00001277 Ry
     smearing contrib. (-TS)   =      -0.03971701 Ry

     convergence has been achieved in   5 iterations

 BEEF-vdW xc energy contributions
           1 :   -702.407844566271
           2 :    652.286889216584
           3 :   -564.115505491932
           4 :    457.298893137994
           5 :   -351.769976772964
           6 :    262.014967957012
           7 :   -193.962719593490
           8 :    145.475659067062
           9 :   -109.708814668442
          10 :    79.4960637197846
          11 :   -50.7178513535791
          12 :    23.3475969149524
          13 :  -0.169170872529662
          14 :   -15.7276913408485
          15 :    23.1563619209217
          16 :   -23.6380181686466
          17 :    20.5907652210333
          18 :   -17.5728669647651
          19 :    16.6479123715948
          20 :   -17.7345023977781
          21 :    19.1709511053916
          22 :   -19.0446208860319
          23 :    16.4667128232006
          24 :   -12.0931114915602
          25 :    7.67987091218720
          26 :   -5.02448467079557
          27 :    4.95086215519598
          28 :   -6.90894336593169
          29 :    9.36561411981120
          30 :   -10.7110764340448
          31 :   -56.3281467803513
          32 :   -41.2717118929945

     Forces acting on atoms (Ry/au):

     negative rho (up, down):  2.117E-01 0.000E+00
     atom    1 type  1   force =    -0.00000016   -0.00000011   -0.00907375
     atom    2 type  1   force =     0.00000017   -0.00359529   -0.00702423
     atom    3 type  1   force =    -0.00311337    0.00179776   -0.00702431
     atom    4 type  1   force =     0.00311333    0.00179763   -0.00702432
     atom    5 type  1   force =     0.00070865   -0.00040951    0.01086572
     atom    6 type  1   force =    -0.00070865   -0.00040941    0.01086545
     atom    7 type  1   force =     0.00000020    0.00000038   -0.00059459
     atom    8 type  1   force =    -0.00000011    0.00081860    0.01086626
     atom    9 type  1   force =    -0.00017691   -0.00010228    0.00008539
     atom   10 type  1   force =     0.00017044   -0.00009781    0.00008910
     atom   11 type  1   force =     0.00000056    0.00019570    0.00009027
     atom   12 type  1   force =     0.00000035   -0.00000027   -0.00134144
     atom   13 type  2   force =     0.00000552    0.00000440    0.00004332
     atom   14 type  3   force =    -0.00000002    0.00000020   -0.00082288

     Total force =     0.001619     Total SCF correction =     0.000402
     SCF correction compared to forces is large: reduce conv_thr to get better values

     entering subroutine stress ...

     negative rho (up, down):  2.117E-01 0.000E+00
          total   stress  (Ry/bohr**3)                   (kbar)     P=    7.14
   0.00006302   0.00000000   0.00000000          9.27      0.00      0.00
   0.00000000   0.00006302   0.00000000          0.00      9.27      0.00
   0.00000000   0.00000000   0.00001966          0.00      0.00      2.89

     bfgs converged in  30 scf cycles and  27 bfgs steps
     (criteria: energy <  1.0E+00, force <  1.9E-03)

     End of BFGS Geometry Optimization

     Final energy   =   -2004.8358677438 Ry
Begin final coordinates

ATOMIC_POSITIONS (crystal)
Pb1      0.166666667   0.166666667   0.389898374    0   0   0
Pb1      0.666666667   0.166666667   0.389898374    0   0   0
Pb1      0.166666667   0.666666667   0.389898374    0   0   0
Pb1      0.666666667   0.666666667   0.389898374    0   0   0
Pb1      0.833333333   0.333333333   0.500000000    0   0   0
Pb1      0.333333333   0.333333333   0.500000000    0   0   0
Pb1      0.833333333   0.833333333   0.500000000    0   0   0
Pb1      0.333333333   0.833333333   0.500000000    0   0   0
Pb1      0.001386043   0.001382216   0.631087522
Pb1      0.497231960   0.001380256   0.631086211
Pb1      0.001385690   0.497225952   0.631084623
Pb1      0.499999244   0.499996891   0.611204783
C1       0.166666324   0.166661649   0.678947782
H1       0.166666965   0.166667501   0.721623677
End final coordinates

     Writing output data file calc.save

     General routines

     Parallel routines

   This run was terminated on:   1:42:18  21Apr2018

   JOB DONE.
Job  /afs/slac/g/suncat/bin/suncat-tsmpirun -x LD_LIBRARY_PATH -wdir /scratch/qe284802_60LET pw.x -npool 4 -in pw.inp

TID   HOST_NAME   COMMAND_LINE            STATUS            TERMINATION_TIME
00000 suncat0076 pw.x -npool 4 -i  Done                     04/21/2018 01:42:18
00001 suncat0076 pw.x -npool 4 -i  Done                     04/21/2018 01:42:18
00002 suncat0076 pw.x -npool 4 -i  Done                     04/21/2018 01:42:18
00003 suncat0076 pw.x -npool 4 -i  Done                     04/21/2018 01:42:18
00004 suncat0076 pw.x -npool 4 -i  Done                     04/21/2018 01:42:18
00005 suncat0076 pw.x -npool 4 -i  Done                     04/21/2018 01:42:18
00006 suncat0076 pw.x -npool 4 -i  Done                     04/21/2018 01:42:18
00007 suncat0076 pw.x -npool 4 -i  Done                     04/21/2018 01:42:18
00008 suncat0072 pw.x -npool 4 -i  Done                     04/21/2018 01:42:18
00009 suncat0072 pw.x -npool 4 -i  Done                     04/21/2018 01:42:18
00010 suncat0072 pw.x -npool 4 -i  Done                     04/21/2018 01:42:18
00011 suncat0072 pw.x -npool 4 -i  Done                     04/21/2018 01:42:18
00012 suncat0072 pw.x -npool 4 -i  Done                     04/21/2018 01:42:18
00013 suncat0072 pw.x -npool 4 -i  Done                     04/21/2018 01:42:18
00014 suncat0072 pw.x -npool 4 -i  Done                     04/21/2018 01:42:18
00015 suncat0072 pw.x -npool 4 -i  Done                     04/21/2018 01:42:18
00016 suncat0144 pw.x -npool 4 -i  Done                     04/21/2018 01:42:18
00017 suncat0144 pw.x -npool 4 -i  Done                     04/21/2018 01:42:18
00018 suncat0144 pw.x -npool 4 -i  Done                     04/21/2018 01:42:18
00019 suncat0144 pw.x -npool 4 -i  Done                     04/21/2018 01:42:18
00020 suncat0144 pw.x -npool 4 -i  Done                     04/21/2018 01:42:18
00021 suncat0144 pw.x -npool 4 -i  Done                     04/21/2018 01:42:18
00022 suncat0144 pw.x -npool 4 -i  Done                     04/21/2018 01:42:18
00023 suncat0144 pw.x -npool 4 -i  Done                     04/21/2018 01:42:18
00024 suncat0138 pw.x -npool 4 -i  Done                     04/21/2018 01:42:18
00025 suncat0138 pw.x -npool 4 -i  Done                     04/21/2018 01:42:18
00026 suncat0138 pw.x -npool 4 -i  Done                     04/21/2018 01:42:18
00027 suncat0138 pw.x -npool 4 -i  Done                     04/21/2018 01:42:18
00028 suncat0138 pw.x -npool 4 -i  Done                     04/21/2018 01:42:18
00029 suncat0138 pw.x -npool 4 -i  Done                     04/21/2018 01:42:18
00030 suncat0138 pw.x -npool 4 -i  Done                     04/21/2018 01:42:18
00031 suncat0138 pw.x -npool 4 -i  Done                     04/21/2018 01:42:18