     Program PWSCF v.5.1rc2 (svn rev. ) starts on  4Feb2018 at 12:55:36

     Current dimensions of program PWSCF are:
     Max number of different atomic species (ntypx) = 10
     Max number of k-points (npk) =  40000
     Max angular momentum in pseudopotentials (lmaxx) =  3
     Presently stress not available with electric field

     IMPORTANT: XC functional enforced from input :
     Exchange-correlation      = BEEF-VDW ( 1  4 27 13 2)
     Any further DFT definition will be discarded
     Please, verify this is what you really want

     Subspace diagonalization in iterative solution of the eigenvalue problem:
     a serial algorithm will be used

     bravais-lattice index     =            0
     lattice parameter (alat)  =       1.8897  a.u.
     unit-cell volume          =    5739.2980 (a.u.)^3
     number of atoms/cell      =           13
     number of atomic types    =            2
     number of electrons       =       145.00
     number of Kohn-Sham states=           82
     kinetic-energy cutoff     =      36.7493  Ry
     charge density cutoff     =     367.4932  Ry
     convergence threshold     =      1.0E-05
     mixing beta               =       0.3000
     number of iterations used =           10  plain     mixing
     Exchange-correlation      = BEEF-VDW ( 1  4 27 13 2)
     nstep                     =           50

     celldm(1)=   1.889726  celldm(2)=   0.000000  celldm(3)=   0.000000
     celldm(4)=   0.000000  celldm(5)=   0.000000  celldm(6)=   0.000000

     crystal axes: (cart. coord. in units of alat)
               a(1) = (   6.254208   0.000000   0.000000 )
               a(2) = (   3.127104   5.416303   0.000000 )
               a(3) = (   0.000000   0.000000  25.106540 )

     reciprocal axes: (cart. coord. in units 2 pi/alat)
               b(1) = (  0.159892 -0.092314  0.000000 )
               b(2) = (  0.000000  0.184628  0.000000 )
               b(3) = (  0.000000  0.000000  0.039830 )

     PseudoPot. # 1 for Cd read from file:
     /home/mamunm/src/pseudo/gbrv1.5pbe/Cd.UPF
     MD5 check sum: 17164a7926edb8e0dc231208abae86a6
     Pseudo is Ultrasoft + core correction, Zval = 12.0
     Generated by new atomic code, or converted to UPF format
     Using radial grid of  889 points,  6 beta functions with:
                l(1) =   0
                l(2) =   0
                l(3) =   1
                l(4) =   1
                l(5) =   2
                l(6) =   2
     Q(r) pseudized with  6 coefficients,  rinner =    1.000   1.000   1.000
                                                       1.000   1.000

     PseudoPot. # 2 for H  read from file:
     /home/mamunm/src/pseudo/gbrv1.5pbe/H.UPF
     MD5 check sum: 761ae9a214b05c3daf00ab9f6b793d6f
     Pseudo is Ultrasoft, Zval =  1.0
     Generated by new atomic code, or converted to UPF format
     Using radial grid of  615 points,  2 beta functions with:
                l(1) =   0
                l(2) =   0
     Q(r) pseudized with  8 coefficients,  rinner =    0.700

     vdW kernel table read from file vdW_kernel_table
     MD5 check sum: 095c7af220d748ca6e76c0b4c6cfb241

     atomic species   valence    mass     pseudopotential
        Cd1           12.00   112.41400     Cd( 1.00)
        H1             1.00     1.00800     H ( 1.00)

     No symmetry found

   Cartesian axes

     site n.     atom                  positions (alat units)
         1           Cd1 tau(   1) = (   1.5635521   0.9027172  10.0000000  )
         2           Cd1 tau(   2) = (   4.6906562   0.9027172  10.0000000  )
         3           Cd1 tau(   3) = (   3.1271041   3.6108688  10.0000000  )
         4           Cd1 tau(   4) = (   6.2542083   3.6108688  10.0000000  )
         5           Cd1 tau(   5) = (   6.2542083   1.8054344  12.5532698  )
         6           Cd1 tau(   6) = (   3.1271041   1.8054344  12.5532698  )
         7           Cd1 tau(   7) = (   7.8177603   4.5135860  12.5532698  )
         8           Cd1 tau(   8) = (   4.6906562   4.5135860  12.5532698  )
         9           Cd1 tau(   9) = (   0.0000000   0.0000000  15.1065397  )
        10           Cd1 tau(  10) = (   3.1271041   0.0000000  15.1065397  )
        11           Cd1 tau(  11) = (   1.5635521   2.7081516  15.1065397  )
        12           Cd1 tau(  12) = (   4.6906562   2.7081516  15.1065397  )
        13           H1  tau(  13) = (   3.1271041   1.8054344  16.2440397  )

     number of k points=    20  Fermi-Dirac smearing, width (Ry)=  0.0110
                       cart. coord. in units 2pi/alat
        k(    1) = (   0.0000000   0.0000000   0.0000000), wk =   0.0555556
        k(    2) = (   0.0000000   0.0307713   0.0000000), wk =   0.1111111
        k(    3) = (   0.0000000   0.0615426   0.0000000), wk =   0.1111111
        k(    4) = (   0.0000000  -0.0923139   0.0000000), wk =   0.0555556
        k(    5) = (   0.0266487  -0.0153856   0.0000000), wk =   0.1111111
        k(    6) = (   0.0266487   0.0153856   0.0000000), wk =   0.1111111
        k(    7) = (   0.0266487   0.0461569   0.0000000), wk =   0.1111111
        k(    8) = (   0.0266487  -0.1076995   0.0000000), wk =   0.1111111
        k(    9) = (   0.0266487  -0.0769282   0.0000000), wk =   0.1111111
        k(   10) = (   0.0266487  -0.0461569   0.0000000), wk =   0.1111111
        k(   11) = (   0.0532974  -0.0307713   0.0000000), wk =   0.1111111
        k(   12) = (   0.0532974   0.0000000   0.0000000), wk =   0.1111111
        k(   13) = (   0.0532974   0.0307713   0.0000000), wk =   0.1111111
        k(   14) = (   0.0532974  -0.1230852   0.0000000), wk =   0.1111111
        k(   15) = (   0.0532974  -0.0923139   0.0000000), wk =   0.1111111
        k(   16) = (   0.0532974  -0.0615426   0.0000000), wk =   0.1111111
        k(   17) = (  -0.0799462   0.0461569   0.0000000), wk =   0.0555556
        k(   18) = (  -0.0799462   0.0769282   0.0000000), wk =   0.1111111
        k(   19) = (  -0.0799462   0.1076995   0.0000000), wk =   0.1111111
        k(   20) = (  -0.0799462  -0.0461569   0.0000000), wk =   0.0555556

     Largest allocated arrays     est. size (Mb)     dimensions
     Largest temporary arrays     est. size (Mb)     dimensions

     Initial potential from superposition of free atoms
     Check: negative starting charge=   -0.257921

     starting charge  138.99950, renormalised to  145.00000

     negative rho (up, down):  2.691E-01 0.000E+00

     *
     * You are using vdW-DF for exchange-correlation in this calculation.
     * Please cite the following three references that made this development
     * possible:
     *
     *   M. Dion, H. Rydberg, E. Schroder, D. C. Langreth, and
     *   B. I. Lundqvist, Phys. Rev. Lett. 92, 246401 (2004).
     *
     *   T. Thonhauser, V. R. Cooper, S. Li, A. Puzder, P. Hyldgaard, and
     *   D. C. Langreth, Phys. Rev. B 76, 125112 (2007).
     *
     *   G. Roman-Perez and J. M. Soler, Phys. Rev. Lett. 103, 096102 (2009).
     *
     *
     * If you are using vdW-DF2, please also cite:
     *
     *   K. Lee, E. D. Murray, L. Kong, B. I. Lundqvist, and
     *   D. C. Langreth, Phys. Rev. B 82, 081101(R) (2010).
     *
     *
     * If you are calculating the stress with vdW-DF, please also cite:
     *
     *   R. Sabatini, E. Kucukbenli, B. Kolb, T. Thonhauser, and
     *   S. de Gironcoli, J. Phys.: Condens. Matter 24, 424209 (2012).
     *

     Carrying out vdW-DF run using the following parameters:

     Nqs =      20    Nr_points =    1024   r_max =   100.000
     q_mesh =
               0.00001000     0.04494208     0.09755937     0.15916263
               0.23128650     0.31572767     0.41458969     0.53033537
               0.66584808     0.82450364     1.01025438     1.22772762
               1.48234092     1.78043706     2.12944203     2.53805004
               3.01644009     3.57652955     4.23227104     5.00000000

     Gradients computed in reciprocal space

     Adding external electric field

     Computed dipole along edir(3) :
        Dipole               -0.3010 Ry au,         -0.7651 Debye
        Dipole field         -0.0007 Ry au

        Potential amp.        0.0610 Ry
        Total length         46.2584 bohr

     Starting wfc are  109 randomized atomic wfcs

     Self-consistent Calculation

     iteration #  1     ecut=    36.75 Ry     beta=0.30
     Davidson diagonalization with overlap
     ethr =  1.00E-02,  avg # of iterations =  3.1

[...]

     total energy              =   -1393.84211747 Ry
     Harris-Foulkes estimate   =   -1394.56076577 Ry
     estimated scf accuracy    <       1.61372987 Ry

[...]

     End of self-consistent calculation

          k = 0.0000 0.0000 0.0000 ( 21643 PWs)   bands (ev):

    -9.3997  -9.3533  -9.3533  -9.3108  -9.2188  -9.2188  -9.2159  -9.1769
    -9.1412  -9.1412  -9.0680  -9.0488  -9.0488  -8.9620  -8.8844  -8.8208
    -8.8208  -8.8113  -8.8113  -8.8045  -8.7422  -8.7401  -8.7401  -8.7169
    -8.7169  -8.7008  -8.6875  -8.6875  -8.5844  -8.5844  -8.3678  -8.3678
    -8.3089  -8.3030  -8.3030  -8.2617  -8.2617  -8.2597  -8.1944  -8.1944
    -8.1667  -8.1571  -8.1571  -8.0853  -8.0754  -8.0754  -8.0325  -8.0325
    -8.0235  -8.0111  -8.0111  -7.9828  -7.9826  -7.9826  -7.9425  -7.9186
    -7.9186  -7.8070  -7.8070  -7.8021  -7.7432  -6.1697  -3.9966  -2.3434
    -1.6801  -1.6801  -1.6613  -1.3886  -1.3886  -1.1050  -0.5409  -0.4514
    -0.4514   0.3792   0.3792   0.4382   1.2110   1.9015   1.9015   1.9970
     2.4153   2.4153

[...]

          k =-0.0799 0.0462 0.0000 ( 21576 PWs)   bands (ev):

[...]

     the Fermi energy is     0.5973 ev

!    total energy              =   -1394.15335601 Ry
     Harris-Foulkes estimate   =   -1394.15335747 Ry
     estimated scf accuracy    <       0.00000708 Ry

     The total energy is the sum of the following terms:

     one-electron contribution =   -8793.33591212 Ry
     hartree contribution      =    4489.34184238 Ry
     xc contribution           =    -490.41696324 Ry
     ewald contribution        =    3400.28548620 Ry
     electric field correction =       0.00000020 Ry
     smearing contrib. (-TS)   =      -0.02780943 Ry

     convergence has been achieved in   9 iterations

 BEEF-vdW xc energy contributions
           1 :   -429.772244049205
           2 :    393.227850705294
           3 :   -331.527855215323
           4 :    262.179374492727
           5 :   -201.387357158645
           6 :    158.243702087996
           7 :   -132.970724047524
           8 :    119.404990206752
           9 :   -109.770905958251
          10 :    98.9383636996212
          11 :   -86.1185689286021
          12 :    73.7067106592640
          13 :   -64.6099434687887
          14 :    59.9769368376416
          15 :   -58.5995438017078
          16 :    57.9840545868992
          17 :   -56.0683843211799
          18 :    52.3680225323518
          19 :   -47.9300496408459
          20 :    44.3383651300663
          21 :   -42.5650363320531
          22 :    42.4183565023231
          23 :   -42.8276189896968
          24 :    42.6336748582869
          25 :   -41.3001647505410
          26 :    39.1217267676926
          27 :   -36.8952543691612
          28 :    35.3523481403072
          29 :   -34.7371123490876
          30 :    34.7511606275880
          31 :   -38.6884332764395
          32 :   -28.2585053421936

     Forces acting on atoms (Ry/au):

     negative rho (up, down):  2.665E-01 0.000E+00
     atom    1 type  1   force =     0.00256833    0.00148199   -0.01440417
     atom    2 type  1   force =    -0.00256172    0.00148052   -0.01442171
     atom    3 type  1   force =     0.00005061   -0.00298957   -0.01443551
     atom    4 type  1   force =     0.00001781   -0.00000276   -0.01491680
     atom    5 type  1   force =     0.00000216   -0.00034845    0.00132393
     atom    6 type  1   force =     0.00003755   -0.00000581    0.00424421
     atom    7 type  1   force =     0.00029349    0.00016977    0.00132484
     atom    8 type  1   force =    -0.00033128    0.00020212    0.00127981
     atom    9 type  1   force =    -0.00003535    0.00000338    0.01129049
     atom   10 type  1   force =    -0.00001720   -0.01278041    0.01401656
     atom   11 type  1   force =    -0.01111198    0.00638594    0.01402796
     atom   12 type  1   force =     0.01109303    0.00640107    0.01398518
     atom   13 type  2   force =    -0.00000543    0.00000221   -0.00331479

     Total force =     0.034913     Total SCF correction =     0.001406

     entering subroutine stress ...

     negative rho (up, down):  2.665E-01 0.000E+00
          total   stress  (Ry/bohr**3)                   (kbar)     P=    3.68
  -0.00000282  -0.00000000   0.00000000         -0.41     -0.00      0.00
  -0.00000000  -0.00000282  -0.00000000         -0.00     -0.41     -0.00
   0.00000000  -0.00000000   0.00008061          0.00     -0.00     11.86

     BFGS Geometry Optimization

     number of scf cycles    =   1
     number of bfgs steps    =   0

     energy   new            =   -1394.1533560115 Ry

     new trust radius        =       0.0190010566 bohr
     new conv_thr            =       0.0000099958 Ry

ATOMIC_POSITIONS (crystal)
Cd1      0.166666667   0.166666667   0.398302599    0   0   0
Cd1      0.666666667   0.166666667   0.398302599    0   0   0
Cd1      0.166666667   0.666666667   0.398302599    0   0   0
Cd1      0.666666667   0.666666667   0.398302599    0   0   0
Cd1      0.833333333   0.333333333   0.500000000    0   0   0
Cd1      0.333333333   0.333333333   0.500000000    0   0   0
Cd1      0.833333333   0.833333333   0.500000000    0   0   0
Cd1      0.333333333   0.833333333   0.500000000    0   0   0
Cd1     -0.000003156   0.000000330   0.601935374
Cd1      0.500622873  -0.001248656   0.601992832
Cd1     -0.001252156   0.500623911   0.601993072
Cd1      0.500625902   0.500625390   0.601992171
H1       0.333332766   0.333333549   0.646934455

     Writing output data file calc.save
     Check: negative starting charge=   -0.257921
     NEW-OLD atomic charge density approx. for the potential
     Check: negative starting charge=   -0.258138

[...]

     Total force =     0.029318     Total SCF correction =     0.007808
     SCF correction compared to forces is large: reduce conv_thr to get better values

[...]

     energy   old            =   -1394.1533560115 Ry
     energy   new            =   -1394.1546263179 Ry

     CASE: energy  _new < energy  _old

[...]

     WARNING: bfgs curvature condition failed, Theta= 0.439
     new trust radius        =       0.0313517434 bohr
     new conv_thr            =       0.0000001000 Ry

[...]

     WARNING: bfgs curvature condition failed, Theta= 0.883
     new trust radius        =       0.0470276150 bohr
     new conv_thr            =       0.0000001000 Ry

[...]

     Total force =     0.006294     Total SCF correction =     0.000307

[...]

     number of scf cycles    =  18
     number of bfgs steps    =  17

     energy   old            =   -1394.1726888235 Ry
     energy   new            =   -1394.1728868202 Ry

     CASE: energy  _new < energy  _old

     new trust radius        =       0.1229378283 bohr
     new conv_thr            =       0.0000001000 Ry

ATOMIC_POSITIONS (crystal)
Cd1      0.166666667   0.166666667   0.398302599    0   0   0
Cd1      0.666666667   0.166666667   0.398302599    0   0   0
Cd1      0.166666667   0.666666667   0.398302599    0   0   0
Cd1      0.666666667   0.666666667   0.398302599    0   0   0
Cd1      0.833333333   0.333333333   0.500000000    0   0   0
Cd1      0.333333333   0.333333333   0.500000000    0   0   0
Cd1      0.833333333   0.833333333   0.500000000    0   0   0
Cd1      0.333333333   0.833333333   0.500000000    0   0   0
Cd1      0.000000395  -0.000056524   0.611175146
Cd1      0.506571485  -0.013150107   0.615038320
Cd1     -0.013142880   0.506587654   0.615045905
Cd1      0.506564846   0.506611893   0.615041855
H1       0.333336838   0.333337319   0.651609537

     Writing output data file calc.save
     Check: negative starting charge=   -0.258599
     NEW-OLD atomic charge density approx. for the potential
     Check: negative starting charge=   -0.252705

[...]

     Self-consistent Calculation

[...]

     total energy              =   -1394.17312894 Ry
     Harris-Foulkes estimate   =   -1394.17312874 Ry
     estimated scf accuracy    <       0.00000018 Ry

     iteration #  9     ecut=    36.75 Ry     beta=0.30
     Davidson diagonalization with overlap
     ethr =  1.26E-10,  avg # of iterations =  2.7

[...]

     negative rho (up, down):  2.604E-01 0.000E+00

     Adding external electric field

     Computed dipole along edir(3) :
        Dipole                0.0333 Ry au,          0.0847 Debye
        Dipole field          0.0001 Ry au

        Potential amp.       -0.0067 Ry
        Total length         46.2584 bohr

     End of self-consistent calculation

[...]

          k = 0.0533-0.0615 0.0000 ( 21571 PWs)   bands (ev):

[...]

          k =-0.0799-0.0462 0.0000 ( 21576 PWs)   bands (ev):

    -9.0086  -8.9928  -8.9482  -8.9054  -8.8806  -8.8460  -8.8389  -8.8129
    -8.7979  -8.7898  -8.7892  -8.7683  -8.7379  -8.6913  -8.6714  -8.6682
    -8.6433  -8.6391  -8.6175  -8.5925  -8.5844  -8.5314  -8.4848  -8.4827
    -8.4700  -8.4544  -8.4466  -8.4279  -8.4240  -8.4183  -8.4026  -8.3866
    -8.3412  -8.3393  -8.3112  -8.2940  -8.2842  -8.2841  -8.2711  -8.2396
    -8.2356  -8.2304  -8.2292  -8.1877  -8.1803  -8.1651  -8.1597  -8.1545
    -8.1373  -8.1179  -8.1075  -8.1044  -8.0682  -8.0662  -7.9776  -7.9691
    -7.9415  -7.9347  -7.8638  -7.8602  -5.9556  -5.8543  -5.0048  -4.4001
    -3.0722  -2.7079  -2.5760  -2.1941  -1.6848  -1.3722   0.0113   0.6023
     0.8277   1.0285   2.5507   2.8707   2.9721   3.2246   3.3432   3.5874
     3.6755   3.7718

     the Fermi energy is     0.6662 ev

!    total energy              =   -1394.17312920 Ry
     Harris-Foulkes estimate   =   -1394.17312902 Ry
     estimated scf accuracy    <       0.00000001 Ry

     The total energy is the sum of the following terms:

     one-electron contribution =   -8412.21741728 Ry
     hartree contribution      =    4299.24820224 Ry
     xc contribution           =    -490.28661251 Ry
     ewald contribution        =    3209.11065325 Ry
     electric field correction =       0.00000243 Ry
     smearing contrib. (-TS)   =      -0.02795733 Ry

     convergence has been achieved in   9 iterations

 BEEF-vdW xc energy contributions
           1 :   -429.624412487837
           2 :    392.946241643668
           3 :   -331.093937612181
           4 :    261.713988823259
           5 :   -201.062340609560
           6 :    158.150844702747
           7 :   -133.051126719406
           8 :    119.492825012642
           9 :   -109.717185032627
          10 :    98.7197875376582
          11 :   -85.8491158549015
          12 :    73.5451526746067
          13 :   -64.6360757544231
          14 :    60.1318947506565
          15 :   -58.7346039343563
          16 :    57.9775963019976
          17 :   -55.9189034108985
          18 :    52.1915323707530
          19 :   -47.8654140520723
          20 :    44.4363624188716
          21 :   -42.7486705780865
          22 :    42.5445031875639
          23 :   -42.7995696036394
          24 :    42.4747629677005
          25 :   -41.1318394181674
          26 :    39.0659789021486
          27 :   -36.9796983272892
          28 :    35.4921720827889
          29 :   -34.8060083030963
          30 :    34.6830192805427
          31 :   -38.6736600209999
          32 :   -28.2107038146920

     Forces acting on atoms (Ry/au):

     negative rho (up, down):  2.604E-01 0.000E+00
     atom    1 type  1   force =     0.00190454    0.00109921   -0.01839980
     atom    2 type  1   force =    -0.00190454    0.00109935   -0.01839967
     atom    3 type  1   force =     0.00000014   -0.00219951   -0.01840004
     atom    4 type  1   force =     0.00000012   -0.00000010   -0.01956997
     atom    5 type  1   force =     0.00000111    0.00035136    0.01695863
     atom    6 type  1   force =    -0.00000017   -0.00000003    0.02040548
     atom    7 type  1   force =    -0.00030623   -0.00017750    0.01694811
     atom    8 type  1   force =     0.00030563   -0.00017578    0.01694932
     atom    9 type  1   force =     0.00001314    0.00004664    0.00019487
     atom   10 type  1   force =    -0.00000336   -0.00161764    0.00108096
     atom   11 type  1   force =    -0.00143634    0.00079087    0.00107761
     atom   12 type  1   force =     0.00142564    0.00078872    0.00108138
     atom   13 type  2   force =     0.00000033   -0.00000560    0.00007310

     Total force =     0.003392     Total SCF correction =     0.000345
     SCF correction compared to forces is large: reduce conv_thr to get better values

     entering subroutine stress ...

     negative rho (up, down):  2.604E-01 0.000E+00
          total   stress  (Ry/bohr**3)                   (kbar)     P=   -1.25
  -0.00003191   0.00000000  -0.00000000         -4.69      0.00     -0.00
   0.00000000  -0.00003190  -0.00000000          0.00     -4.69     -0.00
  -0.00000000  -0.00000000   0.00003824         -0.00     -0.00      5.63

     bfgs converged in  19 scf cycles and  18 bfgs steps
     (criteria: energy <  1.0E+00, force <  1.9E-03)

     End of BFGS Geometry Optimization

     Final energy   =   -1394.1731291990 Ry
Begin final coordinates

ATOMIC_POSITIONS (crystal)
Cd1      0.166666667   0.166666667   0.398302599    0   0   0
Cd1      0.666666667   0.166666667   0.398302599    0   0   0
Cd1      0.166666667   0.666666667   0.398302599    0   0   0
Cd1      0.666666667   0.666666667   0.398302599    0   0   0
Cd1      0.833333333   0.333333333   0.500000000    0   0   0
Cd1      0.333333333   0.333333333   0.500000000    0   0   0
Cd1      0.833333333   0.833333333   0.500000000    0   0   0
Cd1      0.333333333   0.833333333   0.500000000    0   0   0
Cd1      0.000000395  -0.000056524   0.611175146
Cd1      0.506571485  -0.013150107   0.615038320
Cd1     -0.013142880   0.506587654   0.615045905
Cd1      0.506564846   0.506611893   0.615041855
H1       0.333336838   0.333337319   0.651609537
End final coordinates

     Writing output data file calc.save

     General routines

     Parallel routines

   This run was terminated on:  13:49:40   4Feb2018

   JOB DONE.