     Program PWSCF v.6.1 starts on 17Jan2019 at  0:59:22

     Current dimensions of program PWSCF are:
     Max number of different atomic species (ntypx) = 10
     Max number of k-points (npk) =  40000
     Max angular momentum in pseudopotentials (lmaxx) =  3

     IMPORTANT: XC functional enforced from input :
     Exchange-correlation      = BEEF-VDW ( 1  4 29 14 2 0)
     Any further DFT definition will be discarded
     Please, verify this is what you really want

     bravais-lattice index     =            0
     lattice parameter (alat)  =      12.7122  a.u.
     unit-cell volume          =    6741.9071 (a.u.)^3
     number of atoms/cell      =           13
     number of atomic types    =            2
     number of electrons       =       172.00
     number of Kohn-Sham states=           96
     kinetic-energy cutoff     =      36.7493  Ry
     charge density cutoff     =     367.4933  Ry
     convergence threshold     =      1.0E-04
     mixing beta               =       0.2000
     number of iterations used =            8  plain     mixing
     Exchange-correlation      = BEEF-VDW ( 1  4 29 14 2 0)
     nstep                     =           50

     celldm(1)=  12.712175  celldm(2)=   0.000000  celldm(3)=   0.000000
     celldm(4)=   0.000000  celldm(5)=   0.000000  celldm(6)=   0.000000

     crystal axes: (cart. coord. in units of alat)
               a(1) = (   1.000000   0.000000   0.000000 )
               a(2) = (   0.500000   0.866025   0.000000 )
               a(3) = (   0.000000   0.000000   3.789593 )

     reciprocal axes: (cart. coord. in units 2 pi/alat)
               b(1) = (  1.000000 -0.577350  0.000000 )
               b(2) = (  0.000000  1.154701  0.000000 )
               b(3) = (  0.000000  0.000000  0.263881 )

     PseudoPot. # 1 for Sn read from file:
     /home/users/mamunm/src/decaf-espresso/gbrv15pbe/Sn.UPF
     MD5 check sum: 469debedee59599fedebd795477fea03
     Pseudo is Ultrasoft + core correction, Zval = 14.0
     Generated by new atomic code, or converted to UPF format
     Using radial grid of  891 points,  6 beta functions with:
                l(1) =   0
                l(2) =   0
                l(3) =   1
                l(4) =   1
                l(5) =   2
                l(6) =   2
     Q(r) pseudized with  8 coefficients,  rinner =    1.350   1.350   1.350
                                                       1.350   1.350

     PseudoPot. # 2 for C  read from file:
     /home/users/mamunm/src/decaf-espresso/gbrv15pbe/C.UPF
     MD5 check sum: d1aef80898a10debaa0f26306b886e00
     Pseudo is Ultrasoft + core correction, Zval =  4.0
     Generated by new atomic code, or converted to UPF format
     Using radial grid of  721 points,  4 beta functions with:
                l(1) =   0
                l(2) =   0
                l(3) =   1
                l(4) =   1
     Q(r) pseudized with  8 coefficients,  rinner =    1.100   1.100   1.100

     vdW kernel table read from file vdW_kernel_table
     MD5 check sum: 095c7af220d748ca6e76c0b4c6cfb241

     atomic species   valence    mass     pseudopotential
        Sn            14.00   118.71000     Sn( 1.00)
        C              4.00    12.01100     C ( 1.00)

     No symmetry found

   Cartesian axes

     site n.     atom                  positions (alat units)
         1           Sn  tau(   1) = (   0.2500000   0.1443376   1.4865483  )
         2           Sn  tau(   2) = (   0.7500000   0.1443376   1.4865483  )
         3           Sn  tau(   3) = (   0.5000000   0.5773503   1.4865483  )
         4           Sn  tau(   4) = (   1.0000000   0.5773503   1.4865483  )
         5           Sn  tau(   5) = (   1.0000000   0.2886751   1.8947966  )
         6           Sn  tau(   6) = (   0.5000000   0.2886751   1.8947966  )
         7           Sn  tau(   7) = (   1.2500000   0.7216878   1.8947966  )
         8           Sn  tau(   8) = (   0.7500000   0.7216878   1.8947966  )
         9           Sn  tau(   9) = (  -0.0000015  -0.0000012   2.2991034  )
        10           Sn  tau(  10) = (   0.5000081  -0.0013650   2.3246805  )
        11           Sn  tau(  11) = (   0.2488253   0.4336836   2.3246158  )
        12           Sn  tau(  12) = (   0.7511894   0.4336925   2.3246359  )
        13           C   tau(  13) = (  -0.0000061   0.0000044   2.6117771  )

     number of k points=    20  Fermi-Dirac smearing, width (Ry)=  0.0110
                       cart. coord. in units 2pi/alat
        k(    1) = (   0.0000000   0.0000000   0.0000000), wk =   0.0555556
        k(    2) = (   0.0000000   0.1924501   0.0000000), wk =   0.1111111
        k(    3) = (   0.0000000   0.3849002   0.0000000), wk =   0.1111111
        k(    4) = (   0.0000000  -0.5773503   0.0000000), wk =   0.0555556
        k(    5) = (   0.1666667  -0.0962250   0.0000000), wk =   0.1111111
        k(    6) = (   0.1666667   0.0962250   0.0000000), wk =   0.1111111
        k(    7) = (   0.1666667   0.2886751   0.0000000), wk =   0.1111111
        k(    8) = (   0.1666667  -0.6735753   0.0000000), wk =   0.1111111
        k(    9) = (   0.1666667  -0.4811252   0.0000000), wk =   0.1111111
        k(   10) = (   0.1666667  -0.2886751   0.0000000), wk =   0.1111111
        k(   11) = (   0.3333333  -0.1924501   0.0000000), wk =   0.1111111
        k(   12) = (   0.3333333   0.0000000   0.0000000), wk =   0.1111111
        k(   13) = (   0.3333333   0.1924501   0.0000000), wk =   0.1111111
        k(   14) = (   0.3333333  -0.7698004   0.0000000), wk =   0.1111111
        k(   15) = (   0.3333333  -0.5773503   0.0000000), wk =   0.1111111
        k(   16) = (   0.3333333  -0.3849002   0.0000000), wk =   0.1111111
        k(   17) = (  -0.5000000   0.2886751   0.0000000), wk =   0.0555556
        k(   18) = (  -0.5000000   0.4811252   0.0000000), wk =   0.1111111
        k(   19) = (  -0.5000000   0.6735753   0.0000000), wk =   0.1111111
        k(   20) = (  -0.5000000  -0.2886751   0.0000000), wk =   0.0555556

     Initial potential from superposition of free atoms
     Check: negative starting charge=   -0.001356

     starting charge  159.99942, renormalised to  172.00000

     negative rho (up, down):  1.458E-03 0.000E+00

     %%%%%%%%%%%%%%%%%%%%%%%%%%%%%%%%%%%%%%%%%%%%%%%%%%%%%%%%%%%%%%%%%%%%%%%%
     %                                                                      %
     % You are using vdW-DF, which was implemented by the Thonhauser group. %
     % Please cite the following two papers that made this development      %
     % possible and the two reviews that describe the various versions:     %
     %                                                                      %
     %   T. Thonhauser et al., PRL 115, 136402 (2015).                      %
     %   T. Thonhauser et al., PRB 76, 125112 (2007).                       %
     %   K. Berland et al., Rep. Prog. Phys. 78, 066501 (2015).             %
     %   D.C. Langreth et al., J. Phys.: Condens. Matter 21, 084203 (2009). %
     %                                                                      %
     %                                                                      %
     % If you are calculating the stress with vdW-DF, please also cite:     %
     %                                                                      %
     %   R. Sabatini et al., J. Phys.: Condens. Matter 24, 424209 (2012).   %
     %                                                                      %
     %%%%%%%%%%%%%%%%%%%%%%%%%%%%%%%%%%%%%%%%%%%%%%%%%%%%%%%%%%%%%%%%%%%%%%%%

     Adding external electric field

     Computed dipole along edir(3) :
        Dipole               -2.7147 Ry au,         -6.9001 Debye
        Dipole field         -0.0051 Ry au,

        Potential amp.        0.4388 Ry
        Total length         43.3566 bohr

     Starting wfc are  112 randomized atomic wfcs

     Self-consistent Calculation

     iteration #  1     ecut=    36.75 Ry     beta=0.20
     Davidson diagonalization with overlap
     ethr =  1.00E-02,  avg # of iterations =  6.5

[...]

     total energy              =   -1923.44474300 Ry
     Harris-Foulkes estimate   =   -1945.26588161 Ry
     estimated scf accuracy    <      64.29018471 Ry

[...]

     End of self-consistent calculation

          k = 0.0000 0.0000 0.0000 ( 25377 PWs)   bands (ev):

   -21.8667 -21.8667 -21.8654 -21.8377 -21.8260 -21.8235 -21.8234 -21.8095
   -21.8095 -21.8079 -21.8010 -21.8010 -21.7934 -21.7683 -21.7665 -21.7664
   -21.7651 -21.7612 -21.7612 -21.7581 -21.7580 -21.7521 -21.7470 -21.7470
   -21.7391 -21.7390 -21.7324 -21.7285 -21.7285 -21.7199 -21.7092 -21.7092
   -21.7091 -21.7009 -21.7009 -21.6986 -21.6768 -21.6768 -21.6412 -21.6403
   -21.6403 -21.6327 -21.6309 -21.6309 -21.6155 -21.6155 -21.6087 -21.6086
   -21.6075 -21.6050 -21.6050 -21.5962 -21.5898 -21.5818 -21.5817 -21.4017
   -21.4017 -21.3682 -21.2966 -21.2966 -10.4972  -9.7826  -8.6260  -7.3740
    -6.3667  -6.3666  -6.3168  -5.8694  -5.8693  -5.6722  -5.0761  -5.0760
    -4.7040  -3.7095  -3.7094  -3.6200  -2.9495  -2.5325  -2.5324  -2.4561
    -2.4065  -2.4064  -2.3294  -0.2758   0.1457   0.4118   0.4119   1.1971
     1.3018   1.3018   1.5166   1.5166   2.6154   2.8945   2.8951   2.8953

[...]

          k =-0.5000 0.2887 0.0000 ( 25386 PWs)   bands (ev):

[...]

     the Fermi energy is     0.2653 ev

!    total energy              =   -1939.47808930 Ry
     Harris-Foulkes estimate   =   -1939.47801686 Ry
     estimated scf accuracy    <       0.00006213 Ry

     The total energy is the sum of the following terms:

     one-electron contribution =  -10332.43448339 Ry
     hartree contribution      =    5228.53188352 Ry
     xc contribution           =    -537.12890619 Ry
     ewald contribution        =    3701.60503372 Ry
     electric field correction =       0.00070151 Ry
     smearing contrib. (-TS)   =      -0.05231848 Ry

     convergence has been achieved in  14 iterations

[...]

     Forces acting on atoms (cartesian axes, Ry/au):

     atom    1 type  1   force =    -0.00135249   -0.00064570   -0.00329582
     atom    2 type  1   force =     0.00128433   -0.00069586   -0.00317759
     atom    3 type  1   force =     0.00003141    0.00156502   -0.00315730
     atom    4 type  1   force =    -0.00007516   -0.00004204   -0.00238255
     atom    5 type  1   force =    -0.00002799    0.00000703   -0.00374420
     atom    6 type  1   force =     0.00000417   -0.00007651    0.00523886
     atom    7 type  1   force =    -0.00004733   -0.00002150   -0.00376934
     atom    8 type  1   force =     0.00015986   -0.00005204   -0.00386447
     atom    9 type  1   force =     0.00004107    0.00002792    0.00395807
     atom   10 type  1   force =    -0.00003922    0.00097312    0.00505581
     atom   11 type  1   force =     0.00084310   -0.00052122    0.00520255
     atom   12 type  1   force =    -0.00083064   -0.00049887    0.00507068
     atom   13 type  2   force =     0.00000889   -0.00001934   -0.00113470

     Total force =     0.009908     Total SCF correction =     0.015206
     SCF correction compared to forces is large: reduce conv_thr to get better values

     BFGS Geometry Optimization

     number of scf cycles    =   1
     number of bfgs steps    =   0

     energy   new            =   -1939.4780892994 Ry

     new trust radius        =       0.0052961369 bohr
     new conv_thr            =       0.0001000000 Ry

ATOMIC_POSITIONS (angstrom)
Sn       1.681748263   0.970957812  10.000000000    0   0   0
Sn       5.045244789   0.970957812  10.000000000    0   0   0
Sn       3.363496526   3.883831250  10.000000000    0   0   0
Sn       6.726993052   3.883831250  10.000000000    0   0   0
Sn       6.726993052   1.941915625  12.746283414    0   0   0
Sn       3.363496526   1.941915625  12.746283414    0   0   0
Sn       8.408741315   4.854789062  12.746283414    0   0   0
Sn       5.045244789   4.854789062  12.746283414    0   0   0
Sn       0.000011770   0.000006455  15.468146978
Sn       3.363530241  -0.008667446  15.640784962
Sn       1.674291944   2.917110999  15.640427328
Sn       5.052806326   2.917182308  15.640492500
C       -0.000036561   0.000019657  17.568805756

     Writing output data file calc.save
     Check: negative starting charge=   -0.001356
     NEW-OLD atomic charge density approx. for the potential
     Check: negative starting charge=   -0.001357

[...]

     energy   old            =   -1939.4780892994 Ry
     energy   new            =   -1939.4780872400 Ry

     CASE: energy  _new > energy  _old

[...]

     CASE: energy  _new > energy  _old

[...]

     number of scf cycles    =   4
     number of bfgs steps    =   1

     energy   old            =   -1939.4780892994 Ry
     energy   new            =   -1939.4780994055 Ry

     CASE: energy  _new < energy  _old

     new trust radius        =       0.0038971275 bohr
     new conv_thr            =       0.0000010000 Ry

ATOMIC_POSITIONS (angstrom)
Sn       1.681748263   0.970957812  10.000000000    0   0   0
Sn       5.045244789   0.970957812  10.000000000    0   0   0
Sn       3.363496526   3.883831250  10.000000000    0   0   0
Sn       6.726993052   3.883831250  10.000000000    0   0   0
Sn       6.726993052   1.941915625  12.746283414    0   0   0
Sn       3.363496526   1.941915625  12.746283414    0   0   0
Sn       8.408741315   4.854789062  12.746283414    0   0   0
Sn       5.045244789   4.854789062  12.746283414    0   0   0
Sn       0.000002328  -0.000006979  15.467827859
Sn       3.363539803  -0.008789972  15.639542108
Sn       1.674191288   2.917187669  15.639139990
Sn       5.052901121   2.917247685  15.639248047
C       -0.000040669   0.000025806  17.567196662

     Writing output data file calc.save
     Check: negative starting charge=   -0.001356
     NEW-OLD atomic charge density approx. for the potential
     Check: negative starting charge=   -0.001356

[...]

     Self-consistent Calculation

[...]

     total energy              =   -1939.47814360 Ry
     Harris-Foulkes estimate   =   -1939.47814310 Ry
     estimated scf accuracy    <       0.00000588 Ry

     iteration #  6     ecut=    36.75 Ry     beta=0.20
     Davidson diagonalization with overlap
     ethr =  3.42E-09,  avg # of iterations =  4.5

[...]

     Adding external electric field

     Computed dipole along edir(3) :
        Dipole               -0.5926 Ry au,         -1.5062 Debye
        Dipole field         -0.0011 Ry au,

        Potential amp.        0.0958 Ry
        Total length         43.3566 bohr

     End of self-consistent calculation

[...]

          k = 0.3333-0.3849 0.0000 ( 25368 PWs)   bands (ev):

[...]

          k =-0.5000-0.2887 0.0000 ( 25386 PWs)   bands (ev):

   -21.8816 -21.8462 -21.8446 -21.8426 -21.8348 -21.8320 -21.8268 -21.8264
   -21.8246 -21.8142 -21.8128 -21.8086 -21.8036 -21.8008 -21.7901 -21.7864
   -21.7752 -21.7734 -21.7696 -21.7676 -21.7648 -21.7640 -21.7539 -21.7504
   -21.7494 -21.7443 -21.7413 -21.7387 -21.7364 -21.7341 -21.7330 -21.7277
   -21.7212 -21.7205 -21.7181 -21.7014 -21.7008 -21.6988 -21.6924 -21.6854
   -21.6824 -21.6798 -21.6766 -21.6764 -21.6706 -21.6669 -21.6641 -21.6603
   -21.6565 -21.6495 -21.6467 -21.6428 -21.6342 -21.6216 -21.6112 -21.4348
   -21.4282 -21.3943 -21.3180 -21.3168  -9.8151  -9.2706  -9.0956  -8.1310
    -7.7006  -7.0614  -7.0353  -6.5767  -6.3581  -6.0299  -5.5937  -4.8214
    -4.5233  -2.0624  -1.9187  -1.9101  -1.8760  -1.7804  -1.6769  -0.9284
    -0.9153  -0.7474  -0.5688  -0.2262   0.1260   0.2943   0.3828   0.5775
     0.7472   0.8500   0.8668   1.1832   1.3546   1.4402   1.4580   1.8385

     the Fermi energy is     0.2435 ev

!    total energy              =   -1939.47814426 Ry
     Harris-Foulkes estimate   =   -1939.47815103 Ry
     estimated scf accuracy    <       0.00000083 Ry

     The total energy is the sum of the following terms:

     one-electron contribution =  -10330.30095553 Ry
     hartree contribution      =    5227.26996131 Ry
     xc contribution           =    -537.13406771 Ry
     ewald contribution        =    3700.73853769 Ry
     electric field correction =       0.00065451 Ry
     smearing contrib. (-TS)   =      -0.05227453 Ry

     convergence has been achieved in   6 iterations

     negative rho (up, down):  4.314E-04 0.000E+00

     Forces acting on atoms (cartesian axes, Ry/au):

     atom    1 type  1   force =    -0.00107992   -0.00062049   -0.00155127
     atom    2 type  1   force =     0.00107832   -0.00062231   -0.00154555
     atom    3 type  1   force =     0.00000155    0.00124394   -0.00153587
     atom    4 type  1   force =    -0.00000306   -0.00000688    0.00061282
     atom    5 type  1   force =    -0.00000032    0.00196916   -0.00051770
     atom    6 type  1   force =     0.00000234   -0.00000757    0.00867484
     atom    7 type  1   force =    -0.00170423   -0.00097869   -0.00050618
     atom    8 type  1   force =     0.00170945   -0.00098351   -0.00051464
     atom    9 type  1   force =    -0.00000644    0.00000868   -0.00128429
     atom   10 type  1   force =     0.00000404    0.00082114   -0.00031657
     atom   11 type  1   force =     0.00071034   -0.00041521   -0.00030952
     atom   12 type  1   force =    -0.00070982   -0.00041106   -0.00031060
     atom   13 type  2   force =    -0.00000225    0.00000281   -0.00089548

     Total force =     0.002184     Total SCF correction =     0.002033
     SCF correction compared to forces is large: reduce conv_thr to get better values

     bfgs converged in   5 scf cycles and   2 bfgs steps
     (criteria: energy <  1.0E+12 Ry, force <  1.9E-03 Ry/Bohr)

     End of BFGS Geometry Optimization

     Final energy   =   -1939.4781442579 Ry
Begin final coordinates

ATOMIC_POSITIONS (angstrom)
Sn       1.681748263   0.970957812  10.000000000    0   0   0
Sn       5.045244789   0.970957812  10.000000000    0   0   0
Sn       3.363496526   3.883831250  10.000000000    0   0   0
Sn       6.726993052   3.883831250  10.000000000    0   0   0
Sn       6.726993052   1.941915625  12.746283414    0   0   0
Sn       3.363496526   1.941915625  12.746283414    0   0   0
Sn       8.408741315   4.854789062  12.746283414    0   0   0
Sn       5.045244789   4.854789062  12.746283414    0   0   0
Sn       0.000002328  -0.000006979  15.467827859
Sn       3.363539803  -0.008789972  15.639542108
Sn       1.674191288   2.917187669  15.639139990
Sn       5.052901121   2.917247685  15.639248047
C       -0.000040669   0.000025806  17.567196662
End final coordinates

     Writing output data file calc.save

     General routines

     Parallel routines

   This run was terminated on:   1:11:14  17Jan2019

   JOB DONE.