     Program PWSCF v.5.1rc2 (svn rev. 11289) starts on  2May2018 at 19:51:41

     Current dimensions of program PWSCF are:
     Max number of different atomic species (ntypx) = 10
     Max number of k-points (npk) =  40000
     Max angular momentum in pseudopotentials (lmaxx) =  3
     Presently stress not available with electric field

     IMPORTANT: XC functional enforced from input :
     Exchange-correlation      = BEEF-VDW ( 1  4 27 13 2)
     Any further DFT definition will be discarded
     Please, verify this is what you really want

     Subspace diagonalization in iterative solution of the eigenvalue problem:
     a serial algorithm will be used

     bravais-lattice index     =            0
     lattice parameter (alat)  =       1.8897  a.u.
     unit-cell volume          =    6082.7792 (a.u.)^3
     number of atoms/cell      =           13
     number of atomic types    =            2
     number of electrons       =       149.00
     number of Kohn-Sham states=           84
     kinetic-energy cutoff     =      36.7493  Ry
     charge density cutoff     =     367.4932  Ry
     convergence threshold     =      1.0E-05
     mixing beta               =       0.3000
     number of iterations used =           10  plain     mixing
     Exchange-correlation      = BEEF-VDW ( 1  4 27 13 2)
     nstep                     =           50

     celldm(1)=   1.889726  celldm(2)=   0.000000  celldm(3)=   0.000000
     celldm(4)=   0.000000  celldm(5)=   0.000000  celldm(6)=   0.000000

     crystal axes: (cart. coord. in units of alat)
               a(1) = (   6.421223   0.000000   0.000000 )
               a(2) = (   3.210611   5.560942   0.000000 )
               a(3) = (   0.000000   0.000000  25.242906 )

     reciprocal axes: (cart. coord. in units 2 pi/alat)
               b(1) = (  0.155734 -0.089913  0.000000 )
               b(2) = (  0.000000  0.179826  0.000000 )
               b(3) = (  0.000000  0.000000  0.039615 )

     PseudoPot. # 1 for Zr read from file:
     /u/if/mamunm/psp/gbrv1.5pbe/Zr.UPF
     MD5 check sum: 5db81b1e868ab7776c4564c113de050b
     Pseudo is Ultrasoft + core correction, Zval = 12.0
     Generated by new atomic code, or converted to UPF format
     Using radial grid of  887 points,  6 beta functions with:
                l(1) =   0
                l(2) =   0
                l(3) =   1
                l(4) =   1
                l(5) =   2
                l(6) =   2
     Q(r) pseudized with  6 coefficients,  rinner =    1.200   1.200   1.200
                                                       1.200   1.200

     PseudoPot. # 2 for N  read from file:
     /u/if/mamunm/psp/gbrv1.5pbe/N.UPF
     MD5 check sum: 95339753478d7afb44899504a8723017
     Pseudo is Ultrasoft + core correction, Zval =  5.0
     Generated by new atomic code, or converted to UPF format
     Using radial grid of  729 points,  4 beta functions with:
                l(1) =   0
                l(2) =   0
                l(3) =   1
                l(4) =   1
     Q(r) pseudized with  8 coefficients,  rinner =    0.900   0.900   0.900

     vdW kernel table read from file vdW_kernel_table
     MD5 check sum: 095c7af220d748ca6e76c0b4c6cfb241

     atomic species   valence    mass     pseudopotential
        Zr1           12.00    91.22400     Zr( 1.00)
        N1             5.00    14.00700     N ( 1.00)

     No symmetry found

   Cartesian axes

     site n.     atom                  positions (alat units)
         1           Zr1 tau(   1) = (   1.6053057   0.9268237  10.0000000  )
         2           Zr1 tau(   2) = (   4.8159170   0.9268237  10.0000000  )
         3           Zr1 tau(   3) = (   3.2106113   3.7072946  10.0000000  )
         4           Zr1 tau(   4) = (   6.4212227   3.7072946  10.0000000  )
         5           Zr1 tau(   5) = (   6.4212227   1.8536473  12.6214532  )
         6           Zr1 tau(   6) = (   3.2106113   1.8536473  12.6214532  )
         7           Zr1 tau(   7) = (   8.0265283   4.6341183  12.6214532  )
         8           Zr1 tau(   8) = (   4.8159170   4.6341183  12.6214532  )
         9           Zr1 tau(   9) = (   0.0000000   0.0000000  15.2429064  )
        10           Zr1 tau(  10) = (   3.2106113   0.0000000  15.2429064  )
        11           Zr1 tau(  11) = (   1.6053057   2.7804710  15.2429064  )
        12           Zr1 tau(  12) = (   4.8159170   2.7804710  15.2429064  )
        13           N1  tau(  13) = (   3.2106113   1.8536473  16.8419064  )

     number of k points=    20  Fermi-Dirac smearing, width (Ry)=  0.0110
                       cart. coord. in units 2pi/alat
        k(    1) = (   0.0000000   0.0000000   0.0000000), wk =   0.0555556
        k(    2) = (   0.0000000   0.0299709   0.0000000), wk =   0.1111111
        k(    3) = (   0.0000000   0.0599419   0.0000000), wk =   0.1111111
        k(    4) = (   0.0000000  -0.0899128   0.0000000), wk =   0.0555556
        k(    5) = (   0.0259556  -0.0149855   0.0000000), wk =   0.1111111
        k(    6) = (   0.0259556   0.0149855   0.0000000), wk =   0.1111111
        k(    7) = (   0.0259556   0.0449564   0.0000000), wk =   0.1111111
        k(    8) = (   0.0259556  -0.1048983   0.0000000), wk =   0.1111111
        k(    9) = (   0.0259556  -0.0749274   0.0000000), wk =   0.1111111
        k(   10) = (   0.0259556  -0.0449564   0.0000000), wk =   0.1111111
        k(   11) = (   0.0519112  -0.0299709   0.0000000), wk =   0.1111111
        k(   12) = (   0.0519112   0.0000000   0.0000000), wk =   0.1111111
        k(   13) = (   0.0519112   0.0299709   0.0000000), wk =   0.1111111
        k(   14) = (   0.0519112  -0.1198838   0.0000000), wk =   0.1111111
        k(   15) = (   0.0519112  -0.0899128   0.0000000), wk =   0.1111111
        k(   16) = (   0.0519112  -0.0599419   0.0000000), wk =   0.1111111
        k(   17) = (  -0.0778668   0.0449564   0.0000000), wk =   0.0555556
        k(   18) = (  -0.0778668   0.0749274   0.0000000), wk =   0.1111111
        k(   19) = (  -0.0778668   0.1048983   0.0000000), wk =   0.1111111
        k(   20) = (  -0.0778668  -0.0449564   0.0000000), wk =   0.0555556

     Largest allocated arrays     est. size (Mb)     dimensions
     Largest temporary arrays     est. size (Mb)     dimensions

     Initial potential from superposition of free atoms
     Check: negative starting charge=   -0.729133

     starting charge  148.97420, renormalised to  149.00000

     negative rho (up, down):  7.293E-01 0.000E+00

     *
     * You are using vdW-DF for exchange-correlation in this calculation.
     * Please cite the following three references that made this development
     * possible:
     *
     *   M. Dion, H. Rydberg, E. Schroder, D. C. Langreth, and
     *   B. I. Lundqvist, Phys. Rev. Lett. 92, 246401 (2004).
     *
     *   T. Thonhauser, V. R. Cooper, S. Li, A. Puzder, P. Hyldgaard, and
     *   D. C. Langreth, Phys. Rev. B 76, 125112 (2007).
     *
     *   G. Roman-Perez and J. M. Soler, Phys. Rev. Lett. 103, 096102 (2009).
     *
     *
     * If you are using vdW-DF2, please also cite:
     *
     *   K. Lee, E. D. Murray, L. Kong, B. I. Lundqvist, and
     *   D. C. Langreth, Phys. Rev. B 82, 081101(R) (2010).
     *
     *
     * If you are calculating the stress with vdW-DF, please also cite:
     *
     *   R. Sabatini, E. Kucukbenli, B. Kolb, T. Thonhauser, and
     *   S. de Gironcoli, J. Phys.: Condens. Matter 24, 424209 (2012).
     *

     Carrying out vdW-DF run using the following parameters:

     Nqs =      20    Nr_points =    1024   r_max =   100.000
     q_mesh =
               0.00001000     0.04494208     0.09755937     0.15916263
               0.23128650     0.31572767     0.41458969     0.53033537
               0.66584808     0.82450364     1.01025438     1.22772762
               1.48234092     1.78043706     2.12944203     2.53805004
               3.01644009     3.57652955     4.23227104     5.00000000

     Gradients computed in reciprocal space

     Adding external electric field

     Computed dipole along edir(3) :
        Dipole               -0.0068 Ry au,         -0.0174 Debye
        Dipole field         -0.0000 Ry au

        Potential amp.        0.0013 Ry
        Total length         46.5096 bohr

     Starting wfc are  160 randomized atomic wfcs

     Self-consistent Calculation

     iteration #  1     ecut=    36.75 Ry     beta=0.30
     Davidson diagonalization with overlap
     ethr =  1.00E-02,  avg # of iterations =  2.0

[...]

     total energy              =   -1213.99802439 Ry
     Harris-Foulkes estimate   =   -1217.83129478 Ry
     estimated scf accuracy    <       8.17807728 Ry

[...]

     iteration # 10     ecut=    36.75 Ry     beta=0.30
     Davidson diagonalization with overlap
     c_bands:  1 eigenvalues not converged
     ethr =  9.71E-06,  avg # of iterations =  5.3

[...]

     End of self-consistent calculation

          k = 0.0000 0.0000 0.0000 ( 22923 PWs)   bands (ev):

   -48.1962 -48.1443 -48.0807 -48.0554 -48.0544 -48.0538 -48.0285 -48.0276
   -47.8186 -47.7426 -47.7419 -47.7200 -26.4596 -26.4591 -26.4266 -26.4047
   -26.4041 -26.3862 -26.3566 -26.2845 -26.2468 -26.2462 -26.1767 -26.0817
   -26.0362 -26.0352 -25.9220 -25.9092 -25.9087 -25.8895 -25.8830 -25.8827
   -25.8732 -25.8713 -25.8710 -25.7139 -25.7139 -25.6916 -25.6915 -25.6586
   -25.6583 -25.6571 -25.6265 -25.5636 -25.5447 -25.5444 -25.4007 -25.4007
   -10.8595  -3.7782  -2.6287  -1.8610  -1.4952  -1.4952  -1.4733  -1.4263
    -1.4262  -1.3326  -1.0325  -0.9959  -0.9958  -0.6877  -0.6876  -0.6631
    -0.2370  -0.2369   0.0792   0.4619   0.4620   0.6436   1.0742   1.3684
     1.3685   1.5789   1.6527   1.7327   1.9563   1.9566   2.0816   2.0817
     2.1224   2.2982   2.3040   2.3114

[...]

          k =-0.0779 0.0450 0.0000 ( 22880 PWs)   bands (ev):

[...]

     the Fermi energy is     1.1342 ev

!    total energy              =   -1217.21231946 Ry
     Harris-Foulkes estimate   =   -1217.21228149 Ry
     estimated scf accuracy    <       0.00000670 Ry

     The total energy is the sum of the following terms:

     one-electron contribution =   -8442.94218942 Ry
     hartree contribution      =    4213.00199172 Ry
     xc contribution           =    -225.83697877 Ry
     ewald contribution        =    3238.67836394 Ry
     electric field correction =       0.00033035 Ry
     smearing contrib. (-TS)   =      -0.11383729 Ry

     convergence has been achieved in  16 iterations

 BEEF-vdW xc energy contributions
           1 :   -193.390939505404
           2 :    174.915160526524
           3 :   -143.814813176391
           4 :    108.882208862208
           5 :   -78.0116908108320
           6 :    55.4477898775323
           7 :   -41.1668433097776
           8 :    32.2419403421857
           9 :   -25.1290646946805
          10 :    17.5828102865086
          11 :   -9.38006125436559
          12 :    1.78979517686369
          13 :    3.63909012109892
          14 :   -6.17733929284250
          15 :    6.31753491318767
          16 :   -5.37560559189356
          17 :    4.65531346667285
          18 :   -4.74364068319861
          19 :    5.34491684283248
          20 :   -5.68042226730662
          21 :    5.12701107946233
          22 :   -3.66120291386801
          23 :    1.84997518368792
          24 :  -0.452027198164615
          25 :  -6.611900460976017E-002
          26 :  -0.220611830148727
          27 :   0.810790740103840
          28 :   -1.14103387897259
          29 :   0.942124355288115
          30 :  -0.365853040995461
          31 :   -22.4350722808772
          32 :   -16.6919568377026

     Forces acting on atoms (Ry/au):

     negative rho (up, down):  7.502E-01 0.000E+00
     atom    1 type  1   force =     0.00018448    0.00005750    0.01380351
     atom    2 type  1   force =    -0.00018265    0.00004061    0.01386656
     atom    3 type  1   force =    -0.00001359   -0.00015205    0.01392078
     atom    4 type  1   force =     0.00001343    0.00005740    0.01538628
     atom    5 type  1   force =    -0.00004038   -0.00048198   -0.00523478
     atom    6 type  1   force =     0.00005640    0.00001624   -0.01331549
     atom    7 type  1   force =     0.00041839    0.00026833   -0.00524001
     atom    8 type  1   force =    -0.00042051    0.00020985   -0.00520111
     atom    9 type  1   force =    -0.00002969   -0.00008213   -0.01996842
     atom   10 type  1   force =     0.00002517    0.06401452    0.05721125
     atom   11 type  1   force =     0.05552278   -0.03195097    0.05730469
     atom   12 type  1   force =    -0.05552101   -0.03197483    0.05731405
     atom   13 type  2   force =    -0.00001281   -0.00002250   -0.17984733

     Total force =     0.234291     Total SCF correction =     0.006211

     entering subroutine stress ...

     negative rho (up, down):  7.502E-01 0.000E+00
          total   stress  (Ry/bohr**3)                   (kbar)     P=  -17.34
  -0.00009706  -0.00000001  -0.00000001        -14.28     -0.00     -0.00
  -0.00000001  -0.00009707  -0.00000002         -0.00    -14.28     -0.00
  -0.00000001  -0.00000002  -0.00015941         -0.00     -0.00    -23.45

     BFGS Geometry Optimization

     number of scf cycles    =   1
     number of bfgs steps    =   0

     energy   new            =   -1217.2123194637 Ry

     new trust radius        =       0.1798473294 bohr
     new conv_thr            =       0.0000099958 Ry

ATOMIC_POSITIONS (crystal)
Zr1      0.166666667   0.166666667   0.396150897    0   0   0
Zr1      0.666666667   0.166666667   0.396150897    0   0   0
Zr1      0.166666667   0.666666667   0.396150897    0   0   0
Zr1      0.666666667   0.666666667   0.396150897    0   0   0
Zr1      0.833333333   0.333333333   0.500000000    0   0   0
Zr1      0.333333333   0.333333333   0.500000000    0   0   0
Zr1      0.833333333   0.833333333   0.500000000    0   0   0
Zr1      0.333333333   0.833333333   0.500000000    0   0   0
Zr1      0.000001461  -0.000007815   0.603430497
Zr1      0.496956275   0.006091598   0.605048445
Zr1      0.006095890   0.496959558   0.605050404
Zr1      0.496945833   0.496957287   0.605050600
N1       0.333333348   0.333331192   0.663423419

     Writing output data file calc.save
     Check: negative starting charge=   -0.729133
     NEW-OLD atomic charge density approx. for the potential
     Check: negative starting charge=   -0.728714

[...]

     iteration #  1     ecut=    36.75 Ry     beta=0.30
     Davidson diagonalization with overlap
     c_bands:  1 eigenvalues not converged
     ethr =  1.00E-06,  avg # of iterations = 13.6

[...]

     energy   old            =   -1217.2123194637 Ry
     energy   new            =   -1217.2643923596 Ry

     CASE: energy  _new < energy  _old

     WARNING: bfgs curvature condition failed, Theta= 0.903
     new trust radius        =       0.2697709942 bohr
     new conv_thr            =       0.0000001000 Ry

[...]

     WARNING: bfgs curvature condition failed, Theta= 0.833
     new trust radius        =       0.0536282380 bohr
     new conv_thr            =       0.0000001000 Ry

[...]

     Threshold (ethr) on eigenvalues was too large:
     Diagonalizing with lowered threshold

     Davidson diagonalization with overlap
     ethr =  9.70E-08,  avg # of iterations =  2.3

[...]

     Total force =     0.004472     Total SCF correction =     0.000192

[...]

     number of scf cycles    =  19
     number of bfgs steps    =  18

     energy   old            =   -1217.3804510561 Ry
     energy   new            =   -1217.3804796201 Ry

     CASE: energy  _new < energy  _old

     new trust radius        =       0.0166946983 bohr
     new conv_thr            =       0.0000001000 Ry

ATOMIC_POSITIONS (crystal)
Zr1      0.166666667   0.166666667   0.396150897    0   0   0
Zr1      0.666666667   0.166666667   0.396150897    0   0   0
Zr1      0.166666667   0.666666667   0.396150897    0   0   0
Zr1      0.666666667   0.666666667   0.396150897    0   0   0
Zr1      0.833333333   0.333333333   0.500000000    0   0   0
Zr1      0.333333333   0.333333333   0.500000000    0   0   0
Zr1      0.833333333   0.833333333   0.500000000    0   0   0
Zr1      0.333333333   0.833333333   0.500000000    0   0   0
Zr1     -0.000002397   0.000005678   0.595510033
Zr1      0.506805813  -0.013614299   0.605834816
Zr1     -0.013616652   0.506804470   0.605834099
Zr1      0.506810892   0.506805648   0.605834210
N1       0.333332244   0.333335379   0.629885611

     Writing output data file calc.save
     Check: negative starting charge=   -0.730446
     NEW-OLD atomic charge density approx. for the potential
     Check: negative starting charge=   -0.730556

[...]

     Self-consistent Calculation

[...]

     Threshold (ethr) on eigenvalues was too large:
     Diagonalizing with lowered threshold

     Davidson diagonalization with overlap
     ethr =  3.73E-08,  avg # of iterations =  5.2

[...]

     total energy              =   -1217.38050912 Ry
     Harris-Foulkes estimate   =   -1217.38050914 Ry
     estimated scf accuracy    <       0.00000014 Ry

     iteration #  9     ecut=    36.75 Ry     beta=0.30
     Davidson diagonalization with overlap
     ethr =  9.41E-11,  avg # of iterations =  3.4

[...]

     negative rho (up, down):  7.522E-01 0.000E+00

     Adding external electric field

     Computed dipole along edir(3) :
        Dipole               -0.0265 Ry au,         -0.0673 Debye
        Dipole field         -0.0001 Ry au

        Potential amp.        0.0051 Ry
        Total length         46.5096 bohr

     End of self-consistent calculation

[...]

          k = 0.0519-0.0599 0.0000 ( 22856 PWs)   bands (ev):

[...]

          k =-0.0779-0.0450 0.0000 ( 22880 PWs)   bands (ev):

   -47.7816 -47.7783 -47.7358 -47.7331 -47.6388 -47.6182 -47.5931 -47.5757
   -47.5507 -47.4030 -47.3820 -47.3656 -26.0587 -25.9723 -25.9685 -25.9218
   -25.9074 -25.8559 -25.8415 -25.8304 -25.7900 -25.7779 -25.7655 -25.7582
   -25.7271 -25.7245 -25.7162 -25.6710 -25.6648 -25.6426 -25.5992 -25.5744
   -25.5289 -25.5012 -25.4770 -25.4712 -25.4635 -25.4388 -25.3759 -25.3537
   -25.3533 -25.3153 -25.3022 -25.2380 -25.2293 -25.1895 -25.1887 -25.1068
   -12.1200  -3.0055  -2.3776  -2.3409  -1.9381  -1.8158  -1.0137  -0.7476
    -0.3941  -0.3090  -0.3059  -0.2623  -0.1566   0.0913   0.3965   0.4233
     0.4686   0.4887   0.6044   0.7548   0.8510   0.9417   0.9701   1.0746
     1.1185   1.1818   1.2963   1.3626   1.4690   1.4790   1.6227   1.6569
     1.7226   1.8641   2.1097   2.1717

     the Fermi energy is     1.4578 ev

!    total energy              =   -1217.38050915 Ry
     Harris-Foulkes estimate   =   -1217.38050909 Ry
     estimated scf accuracy    <       0.00000004 Ry

     The total energy is the sum of the following terms:

     one-electron contribution =   -8617.21726953 Ry
     hartree contribution      =    4301.64273762 Ry
     xc contribution           =    -226.33359611 Ry
     ewald contribution        =    3324.63519288 Ry
     electric field correction =       0.00000145 Ry
     smearing contrib. (-TS)   =      -0.10757546 Ry

     convergence has been achieved in   9 iterations

 BEEF-vdW xc energy contributions
           1 :   -193.892995585289
           2 :    175.543606506040
           3 :   -144.550256010630
           4 :    109.566667481700
           5 :   -78.4599484564378
           6 :    55.5500288458626
           7 :   -40.9316058896638
           8 :    31.7782951988637
           9 :   -24.5936437411506
          10 :    17.1212992876660
          11 :   -9.08053001079736
          12 :    1.65856403028917
          13 :    3.66996536362561
          14 :   -6.21036341935132
          15 :    6.43408051147284
          16 :   -5.59440613928086
          17 :    4.92924655495943
          18 :   -4.99513306839421
          19 :    5.51790604028554
          20 :   -5.77703611849870
          21 :    5.20494906166186
          22 :   -3.79348471646756
          23 :    2.07569533787682
          24 :  -0.752308323603302
          25 :   0.246598928070824
          26 :  -0.480194584781145
          27 :   0.984858411605529
          28 :   -1.24129547911110
          29 :    1.00706259122884
          30 :  -0.430585337925834
          31 :   -22.4663481785098
          32 :   -16.7459703137249

     Forces acting on atoms (Ry/au):

     negative rho (up, down):  7.522E-01 0.000E+00
     atom    1 type  1   force =     0.00259670    0.00149995    0.01718998
     atom    2 type  1   force =    -0.00259614    0.00149936    0.01719204
     atom    3 type  1   force =    -0.00000021   -0.00299930    0.01718935
     atom    4 type  1   force =     0.00000013   -0.00000078    0.01175068
     atom    5 type  1   force =    -0.00000401    0.00881827   -0.01375551
     atom    6 type  1   force =     0.00000438   -0.00000338   -0.02033893
     atom    7 type  1   force =    -0.00763854   -0.00440442   -0.01375004
     atom    8 type  1   force =     0.00763848   -0.00440903   -0.01374717
     atom    9 type  1   force =    -0.00000130   -0.00000686   -0.00138799
     atom   10 type  1   force =     0.00000123   -0.00098456   -0.00069587
     atom   11 type  1   force =    -0.00084898    0.00049685   -0.00069515
     atom   12 type  1   force =     0.00084873    0.00049534   -0.00069624
     atom   13 type  2   force =    -0.00000048   -0.00000142    0.00174486

     Total force =     0.003054     Total SCF correction =     0.000425
     SCF correction compared to forces is large: reduce conv_thr to get better values

     entering subroutine stress ...

     negative rho (up, down):  7.522E-01 0.000E+00
          total   stress  (Ry/bohr**3)                   (kbar)     P=   -2.88
  -0.00000264  -0.00000000  -0.00000000         -0.39     -0.00     -0.00
  -0.00000000  -0.00000264  -0.00000000         -0.00     -0.39     -0.00
  -0.00000000  -0.00000000  -0.00005354         -0.00     -0.00     -7.88

     bfgs converged in  20 scf cycles and  19 bfgs steps
     (criteria: energy <  1.0E+00, force <  1.9E-03)

     End of BFGS Geometry Optimization

     Final energy   =   -1217.3805091461 Ry
Begin final coordinates

ATOMIC_POSITIONS (crystal)
Zr1      0.166666667   0.166666667   0.396150897    0   0   0
Zr1      0.666666667   0.166666667   0.396150897    0   0   0
Zr1      0.166666667   0.666666667   0.396150897    0   0   0
Zr1      0.666666667   0.666666667   0.396150897    0   0   0
Zr1      0.833333333   0.333333333   0.500000000    0   0   0
Zr1      0.333333333   0.333333333   0.500000000    0   0   0
Zr1      0.833333333   0.833333333   0.500000000    0   0   0
Zr1      0.333333333   0.833333333   0.500000000    0   0   0
Zr1     -0.000002397   0.000005678   0.595510033
Zr1      0.506805813  -0.013614299   0.605834816
Zr1     -0.013616652   0.506804470   0.605834099
Zr1      0.506810892   0.506805648   0.605834210
N1       0.333332244   0.333335379   0.629885611
End final coordinates

     Writing output data file calc.save

     General routines

     Parallel routines

   This run was terminated on:  22:38: 2   2May2018

   JOB DONE.
Job  /afs/slac/g/suncat/bin/suncat-tsmpirun -x LD_LIBRARY_PATH -wdir /scratch/qe889277_g55KG pw.x -npool 4 -in pw.inp

TID   HOST_NAME   COMMAND_LINE            STATUS            TERMINATION_TIME
00000 suncat0042 pw.x -npool 4 -i  Done                     05/02/2018 22:38:02
00001 suncat0042 pw.x -npool 4 -i  Done                     05/02/2018 22:38:02
00002 suncat0042 pw.x -npool 4 -i  Done                     05/02/2018 22:38:02
00003 suncat0042 pw.x -npool 4 -i  Done                     05/02/2018 22:38:02
00004 suncat0042 pw.x -npool 4 -i  Done                     05/02/2018 22:38:02
00005 suncat0042 pw.x -npool 4 -i  Done                     05/02/2018 22:38:02
00006 suncat0042 pw.x -npool 4 -i  Done                     05/02/2018 22:38:02
00007 suncat0042 pw.x -npool 4 -i  Done                     05/02/2018 22:38:02
00008 suncat0033 pw.x -npool 4 -i  Done                     05/02/2018 22:38:02
00009 suncat0033 pw.x -npool 4 -i  Done                     05/02/2018 22:38:02
00010 suncat0033 pw.x -npool 4 -i  Done                     05/02/2018 22:38:02
00011 suncat0033 pw.x -npool 4 -i  Done                     05/02/2018 22:38:02
00012 suncat0033 pw.x -npool 4 -i  Done                     05/02/2018 22:38:02
00013 suncat0033 pw.x -npool 4 -i  Done                     05/02/2018 22:38:02
00014 suncat0033 pw.x -npool 4 -i  Done                     05/02/2018 22:38:02
00015 suncat0033 pw.x -npool 4 -i  Done                     05/02/2018 22:38:02
00016 suncat0132 pw.x -npool 4 -i  Done                     05/02/2018 22:38:02
00017 suncat0132 pw.x -npool 4 -i  Done                     05/02/2018 22:38:02
00018 suncat0132 pw.x -npool 4 -i  Done                     05/02/2018 22:38:02
00019 suncat0132 pw.x -npool 4 -i  Done                     05/02/2018 22:38:02
00020 suncat0132 pw.x -npool 4 -i  Done                     05/02/2018 22:38:02
00021 suncat0132 pw.x -npool 4 -i  Done                     05/02/2018 22:38:02
00022 suncat0132 pw.x -npool 4 -i  Done                     05/02/2018 22:38:02
00023 suncat0132 pw.x -npool 4 -i  Done                     05/02/2018 22:38:02
00024 suncat0271 pw.x -npool 4 -i  Done                     05/02/2018 22:38:02
00025 suncat0271 pw.x -npool 4 -i  Done                     05/02/2018 22:38:02
00026 suncat0271 pw.x -npool 4 -i  Done                     05/02/2018 22:38:02
00027 suncat0271 pw.x -npool 4 -i  Done                     05/02/2018 22:38:02
00028 suncat0271 pw.x -npool 4 -i  Done                     05/02/2018 22:38:02
00029 suncat0271 pw.x -npool 4 -i  Done                     05/02/2018 22:38:02
00030 suncat0271 pw.x -npool 4 -i  Done                     05/02/2018 22:38:02
00031 suncat0271 pw.x -npool 4 -i  Done                     05/02/2018 22:38:02