     Program PWSCF v.5.1rc2 (svn rev. 11289) starts on  4May2018 at  9:14:50

     Current dimensions of program PWSCF are:
     Max number of different atomic species (ntypx) = 10
     Max number of k-points (npk) =  40000
     Max angular momentum in pseudopotentials (lmaxx) =  3
     Presently stress not available with electric field

     IMPORTANT: XC functional enforced from input :
     Exchange-correlation      = BEEF-VDW ( 1  4 27 13 2)
     Any further DFT definition will be discarded
     Please, verify this is what you really want

     Subspace diagonalization in iterative solution of the eigenvalue problem:
     a serial algorithm will be used

     bravais-lattice index     =            0
     lattice parameter (alat)  =       1.8897  a.u.
     unit-cell volume          =    5144.9564 (a.u.)^3
     number of atoms/cell      =           13
     number of atomic types    =            2
     number of electrons       =       137.00
     number of Kohn-Sham states=           78
     kinetic-energy cutoff     =      36.7493  Ry
     charge density cutoff     =     367.4932  Ry
     convergence threshold     =      1.0E-05
     mixing beta               =       0.3000
     number of iterations used =           10  plain     mixing
     Exchange-correlation      = BEEF-VDW ( 1  4 27 13 2)
     nstep                     =           50

     celldm(1)=   1.889726  celldm(2)=   0.000000  celldm(3)=   0.000000
     celldm(4)=   0.000000  celldm(5)=   0.000000  celldm(6)=   0.000000

     crystal axes: (cart. coord. in units of alat)
               a(1) = (   5.950946   0.000000   0.000000 )
               a(2) = (   2.975473   5.153671   0.000000 )
               a(3) = (   0.000000   0.000000  24.858927 )

     reciprocal axes: (cart. coord. in units 2 pi/alat)
               b(1) = (  0.168040 -0.097018  0.000000 )
               b(2) = (  0.000000  0.194036  0.000000 )
               b(3) = (  0.000000  0.000000  0.040227 )

     PseudoPot. # 1 for Au read from file:
     /u/if/mamunm/psp/gbrv1.5pbe/Au.UPF
     MD5 check sum: 9d7f43293ad2c663164586bc4b293ffc
     Pseudo is Ultrasoft + core correction, Zval = 11.0
     Generated by new atomic code, or converted to UPF format
     Using radial grid of  985 points,  7 beta functions with:
                l(1) =   0
                l(2) =   0
                l(3) =   1
                l(4) =   1
                l(5) =   2
                l(6) =   2
                l(7) =   3
     Q(r) pseudized with  6 coefficients,  rinner =    1.900   1.900   1.900
                                                       1.900   1.900   1.900
                                                       1.900

     PseudoPot. # 2 for N  read from file:
     /u/if/mamunm/psp/gbrv1.5pbe/N.UPF
     MD5 check sum: 95339753478d7afb44899504a8723017
     Pseudo is Ultrasoft + core correction, Zval =  5.0
     Generated by new atomic code, or converted to UPF format
     Using radial grid of  729 points,  4 beta functions with:
                l(1) =   0
                l(2) =   0
                l(3) =   1
                l(4) =   1
     Q(r) pseudized with  8 coefficients,  rinner =    0.900   0.900   0.900

     vdW kernel table read from file vdW_kernel_table
     MD5 check sum: 095c7af220d748ca6e76c0b4c6cfb241

     atomic species   valence    mass     pseudopotential
        Au1           11.00   196.96657     Au( 1.00)
        N1             5.00    14.00700     N ( 1.00)

     No symmetry found

   Cartesian axes

     site n.     atom                  positions (alat units)
         1           Au1 tau(   1) = (   1.4877366   0.8589451  10.0000000  )
         2           Au1 tau(   2) = (   4.4632098   0.8589451  10.0000000  )
         3           Au1 tau(   3) = (   2.9754732   3.4357805  10.0000000  )
         4           Au1 tau(   4) = (   5.9509464   3.4357805  10.0000000  )
         5           Au1 tau(   5) = (   5.9509464   1.7178903  12.4294637  )
         6           Au1 tau(   6) = (   2.9754732   1.7178903  12.4294637  )
         7           Au1 tau(   7) = (   7.4386830   4.2947256  12.4294637  )
         8           Au1 tau(   8) = (   4.4632098   4.2947256  12.4294637  )
         9           Au1 tau(   9) = (   0.0000000   0.0000000  14.8589274  )
        10           Au1 tau(  10) = (   2.9754732   0.0000000  14.8589274  )
        11           Au1 tau(  11) = (   1.4877366   2.5768354  14.8589274  )
        12           Au1 tau(  12) = (   4.4632098   2.5768354  14.8589274  )
        13           N1  tau(  13) = (   1.4877366   0.8589451  16.2044274  )

     number of k points=    20  Fermi-Dirac smearing, width (Ry)=  0.0110
                       cart. coord. in units 2pi/alat
        k(    1) = (   0.0000000   0.0000000   0.0000000), wk =   0.0555556
        k(    2) = (   0.0000000   0.0323394   0.0000000), wk =   0.1111111
        k(    3) = (   0.0000000   0.0646788   0.0000000), wk =   0.1111111
        k(    4) = (   0.0000000  -0.0970182   0.0000000), wk =   0.0555556
        k(    5) = (   0.0280067  -0.0161697   0.0000000), wk =   0.1111111
        k(    6) = (   0.0280067   0.0161697   0.0000000), wk =   0.1111111
        k(    7) = (   0.0280067   0.0485091   0.0000000), wk =   0.1111111
        k(    8) = (   0.0280067  -0.1131879   0.0000000), wk =   0.1111111
        k(    9) = (   0.0280067  -0.0808485   0.0000000), wk =   0.1111111
        k(   10) = (   0.0280067  -0.0485091   0.0000000), wk =   0.1111111
        k(   11) = (   0.0560135  -0.0323394   0.0000000), wk =   0.1111111
        k(   12) = (   0.0560135   0.0000000   0.0000000), wk =   0.1111111
        k(   13) = (   0.0560135   0.0323394   0.0000000), wk =   0.1111111
        k(   14) = (   0.0560135  -0.1293576   0.0000000), wk =   0.1111111
        k(   15) = (   0.0560135  -0.0970182   0.0000000), wk =   0.1111111
        k(   16) = (   0.0560135  -0.0646788   0.0000000), wk =   0.1111111
        k(   17) = (  -0.0840202   0.0485091   0.0000000), wk =   0.0555556
        k(   18) = (  -0.0840202   0.0808485   0.0000000), wk =   0.1111111
        k(   19) = (  -0.0840202   0.1131879   0.0000000), wk =   0.1111111
        k(   20) = (  -0.0840202  -0.0485091   0.0000000), wk =   0.0555556

     Largest allocated arrays     est. size (Mb)     dimensions
     Largest temporary arrays     est. size (Mb)     dimensions

     Check: negative/imaginary core charge=   -0.000002    0.000000

     Initial potential from superposition of free atoms

     starting charge  136.99852, renormalised to  137.00000

     negative rho (up, down):  8.705E-05 0.000E+00

     *
     * You are using vdW-DF for exchange-correlation in this calculation.
     * Please cite the following three references that made this development
     * possible:
     *
     *   M. Dion, H. Rydberg, E. Schroder, D. C. Langreth, and
     *   B. I. Lundqvist, Phys. Rev. Lett. 92, 246401 (2004).
     *
     *   T. Thonhauser, V. R. Cooper, S. Li, A. Puzder, P. Hyldgaard, and
     *   D. C. Langreth, Phys. Rev. B 76, 125112 (2007).
     *
     *   G. Roman-Perez and J. M. Soler, Phys. Rev. Lett. 103, 096102 (2009).
     *
     *
     * If you are using vdW-DF2, please also cite:
     *
     *   K. Lee, E. D. Murray, L. Kong, B. I. Lundqvist, and
     *   D. C. Langreth, Phys. Rev. B 82, 081101(R) (2010).
     *
     *
     * If you are calculating the stress with vdW-DF, please also cite:
     *
     *   R. Sabatini, E. Kucukbenli, B. Kolb, T. Thonhauser, and
     *   S. de Gironcoli, J. Phys.: Condens. Matter 24, 424209 (2012).
     *

     Carrying out vdW-DF run using the following parameters:

     Nqs =      20    Nr_points =    1024   r_max =   100.000
     q_mesh =
               0.00001000     0.04494208     0.09755937     0.15916263
               0.23128650     0.31572767     0.41458969     0.53033537
               0.66584808     0.82450364     1.01025438     1.22772762
               1.48234092     1.78043706     2.12944203     2.53805004
               3.01644009     3.57652955     4.23227104     5.00000000

     Gradients computed in reciprocal space

     Adding external electric field

     Computed dipole along edir(3) :
        Dipole               -0.0003 Ry au,         -0.0008 Debye
        Dipole field         -0.0000 Ry au

        Potential amp.        0.0001 Ry
        Total length         45.8022 bohr

     Starting wfc are  112 randomized atomic wfcs

     Self-consistent Calculation

     iteration #  1     ecut=    36.75 Ry     beta=0.30
     Davidson diagonalization with overlap
     ethr =  1.00E-02,  avg # of iterations =  2.0

[...]

     total energy              =   -1419.62993080 Ry
     Harris-Foulkes estimate   =   -1420.80316240 Ry
     estimated scf accuracy    <       2.58114932 Ry

[...]

     End of self-consistent calculation

          k = 0.0000 0.0000 0.0000 ( 19315 PWs)   bands (ev):

   -13.7738  -8.0965  -6.6383  -6.3898  -6.1318  -6.1318  -6.0947  -6.0947
    -6.0943  -6.0145  -5.6799  -5.6799  -5.6724  -5.6073  -5.6073  -5.5808
    -4.9088  -4.9088  -4.5426  -4.4361  -4.4361  -4.4294  -4.3619  -4.3618
    -4.3327  -4.2593  -4.2593  -4.0196  -4.0196  -3.9888  -3.9188  -3.9188
    -3.8308  -3.6747  -3.6746  -3.3543  -3.2953  -3.2953  -3.0933  -3.0508
    -3.0508  -2.8075  -2.7766  -2.7766  -2.7308  -2.7307  -2.3889  -2.3889
    -2.3218  -2.2403  -2.2402  -2.2126  -2.2126  -2.1630  -2.0907  -2.0356
    -2.0356  -1.9636  -1.9569  -1.9569  -1.7619  -1.7619  -1.7459  -1.2118
    -0.8291  -0.5801  -0.5800   0.5510   0.5510   0.6707   0.9725   1.2695
     1.2695   1.3780   1.7342   1.7342   2.4950   3.2683

[...]

          k =-0.0840 0.0485 0.0000 ( 19380 PWs)   bands (ev):

[...]

     the Fermi energy is    -0.0742 ev

!    total energy              =   -1420.57930838 Ry
     Harris-Foulkes estimate   =   -1420.57931326 Ry
     estimated scf accuracy    <       0.00000191 Ry

     The total energy is the sum of the following terms:

     one-electron contribution =   -8310.77083998 Ry
     hartree contribution      =    4252.12923331 Ry
     xc contribution           =    -773.37842059 Ry
     ewald contribution        =    3411.46834639 Ry
     electric field correction =       0.00017894 Ry
     smearing contrib. (-TS)   =      -0.02780645 Ry

     convergence has been achieved in  10 iterations

 BEEF-vdW xc energy contributions
           1 :   -691.173210647421
           2 :    642.390402354169
           3 :   -555.177910424610
           4 :    446.461722695177
           5 :   -334.496730912231
           6 :    234.174202758560
           7 :   -154.218106484416
           8 :    96.7266039585196
           9 :   -58.7685192347365
          10 :    35.0374372600927
          11 :   -20.3685018054804
          12 :    11.1916005451005
          13 :   -5.68210938019376
          14 :    3.00314396042813
          15 :   -2.37251025798071
          16 :    2.55063041068718
          17 :   -1.98328081897330
          18 :  -0.589380913103923
          19 :    5.48308382218545
          20 :   -11.8142857533797
          21 :    17.8279735903687
          22 :   -21.6730933386065
          23 :    22.2303757261787
          24 :   -19.5869206049016
          25 :    14.9401823070731
          26 :   -10.0123292669530
          27 :    6.28421800953436
          28 :   -4.43285681103896
          29 :    4.21804508838716
          30 :   -4.81929828622492
          31 :   -54.7511441946253
          32 :   -39.8901841714943

     Forces acting on atoms (Ry/au):

     negative rho (up, down):  6.096E-04 0.000E+00
     atom    1 type  1   force =     0.00000268   -0.00000121   -0.00132964
     atom    2 type  1   force =     0.00000113   -0.00120996   -0.00457905
     atom    3 type  1   force =    -0.00104120    0.00060428   -0.00458957
     atom    4 type  1   force =     0.00104028    0.00060018   -0.00457195
     atom    5 type  1   force =    -0.00219619    0.00126635   -0.00154560
     atom    6 type  1   force =     0.00219517    0.00126471   -0.00154208
     atom    7 type  1   force =    -0.00000410   -0.00000551    0.02017943
     atom    8 type  1   force =     0.00000626   -0.00253048   -0.00154421
     atom    9 type  1   force =    -0.00771998   -0.00445674    0.02423167
     atom   10 type  1   force =     0.00771059   -0.00444862    0.02422321
     atom   11 type  1   force =    -0.00000021    0.00890906    0.02422303
     atom   12 type  1   force =     0.00000412    0.00000750   -0.00677678
     atom   13 type  2   force =     0.00000145    0.00000046   -0.06637845

     Total force =     0.080317     Total SCF correction =     0.003564

     entering subroutine stress ...

     negative rho (up, down):  6.096E-04 0.000E+00
          total   stress  (Ry/bohr**3)                   (kbar)     P=  -10.25
  -0.00009391   0.00000000  -0.00000000        -13.82      0.00     -0.00
   0.00000000  -0.00009391  -0.00000000          0.00    -13.82     -0.00
  -0.00000000  -0.00000000  -0.00002119         -0.00     -0.00     -3.12

     BFGS Geometry Optimization

     number of scf cycles    =   1
     number of bfgs steps    =   0

     energy   new            =   -1420.5793083829 Ry

     new trust radius        =       0.0663784550 bohr
     new conv_thr            =       0.0000099958 Ry

ATOMIC_POSITIONS (crystal)
Au1      0.166666667   0.166666667   0.402269971    0   0   0
Au1      0.666666667   0.166666667   0.402269971    0   0   0
Au1      0.166666667   0.666666667   0.402269971    0   0   0
Au1      0.666666667   0.666666667   0.402269971    0   0   0
Au1      0.833333333   0.333333333   0.500000000    0   0   0
Au1      0.333333333   0.333333333   0.500000000    0   0   0
Au1      0.833333333   0.833333333   0.500000000    0   0   0
Au1      0.333333333   0.833333333   0.500000000    0   0   0
Au1     -0.000457677  -0.000457617   0.598245854
Au1      0.500914042  -0.000456783   0.598245674
Au1     -0.000457408   0.500914779   0.598245670
Au1      0.499999982   0.500000770   0.597585770
N1       0.166666771   0.166666714   0.650442442

     Writing output data file calc.save
     NEW-OLD atomic charge density approx. for the potential

[...]

     energy   old            =   -1420.5793083829 Ry
     energy   new            =   -1420.5852717324 Ry

     CASE: energy  _new < energy  _old

     WARNING: bfgs curvature condition failed, Theta= 0.937
     new trust radius        =       0.0995676825 bohr
     new conv_thr            =       0.0000001000 Ry

[...]

     Threshold (ethr) on eigenvalues was too large:
     Diagonalizing with lowered threshold

     Davidson diagonalization with overlap
     ethr =  1.49E-08,  avg # of iterations =  2.0

[...]

     Total force =     0.005728     Total SCF correction =     0.000584
     SCF correction compared to forces is large: reduce conv_thr to get better values

[...]

     Total force =     0.005529     Total SCF correction =     0.000268

[...]

     number of scf cycles    =  11
     number of bfgs steps    =  10

     energy   old            =   -1420.6042306394 Ry
     energy   new            =   -1420.6042948693 Ry

     CASE: energy  _new < energy  _old

     new trust radius        =       0.0295146013 bohr
     new conv_thr            =       0.0000001000 Ry

ATOMIC_POSITIONS (crystal)
Au1      0.166666667   0.166666667   0.402269971    0   0   0
Au1      0.666666667   0.166666667   0.402269971    0   0   0
Au1      0.166666667   0.666666667   0.402269971    0   0   0
Au1      0.666666667   0.666666667   0.402269971    0   0   0
Au1      0.833333333   0.333333333   0.500000000    0   0   0
Au1      0.333333333   0.333333333   0.500000000    0   0   0
Au1      0.833333333   0.833333333   0.500000000    0   0   0
Au1      0.333333333   0.833333333   0.500000000    0   0   0
Au1     -0.008455774  -0.008454493   0.600865756
Au1      0.516910010  -0.008454486   0.600865591
Au1     -0.008455614   0.516910801   0.600865685
Au1      0.499999754   0.500000534   0.593949801
N1       0.166666228   0.166667157   0.641240195

     Writing output data file calc.save
     NEW-OLD atomic charge density approx. for the potential

     Check: negative/imaginary core charge=   -0.000002    0.000000

[...]

     Self-consistent Calculation

[...]

     Threshold (ethr) on eigenvalues was too large:
     Diagonalizing with lowered threshold

     Davidson diagonalization with overlap
     ethr =  3.94E-08,  avg # of iterations =  1.8

[...]

     total energy              =   -1420.60434832 Ry
     Harris-Foulkes estimate   =   -1420.60434833 Ry
     estimated scf accuracy    <       0.00000011 Ry

     iteration #  7     ecut=    36.75 Ry     beta=0.30
     Davidson diagonalization with overlap
     ethr =  8.39E-11,  avg # of iterations =  3.0

[...]

     negative rho (up, down):  6.046E-04 0.000E+00

     Adding external electric field

     Computed dipole along edir(3) :
        Dipole               -0.2001 Ry au,         -0.5087 Debye
        Dipole field         -0.0005 Ry au

        Potential amp.        0.0448 Ry
        Total length         45.8022 bohr

     End of self-consistent calculation

[...]

          k = 0.0560-0.0647 0.0000 ( 19376 PWs)   bands (ev):

[...]

          k =-0.0840-0.0485 0.0000 ( 19380 PWs)   bands (ev):

   -14.3047  -6.8812  -6.5754  -6.1820  -5.6020  -5.5930  -5.5120  -5.4477
    -5.3106  -5.3057  -5.2913  -5.2709  -5.0892  -4.9632  -4.9491  -4.9445
    -4.8398  -4.7239  -4.6978  -4.5592  -4.5341  -4.4638  -4.4541  -4.3897
    -4.3798  -4.2557  -4.1741  -4.1051  -4.0585  -4.0031  -3.8501  -3.8093
    -3.7908  -3.6973  -3.6781  -3.6055  -3.6044  -3.5927  -3.5229  -3.5079
    -3.4288  -3.4261  -3.2988  -3.2893  -3.1995  -3.1510  -3.1021  -3.0514
    -3.0135  -2.9861  -2.8919  -2.8768  -2.8455  -2.6798  -2.6385  -2.4945
    -2.4861  -2.3291  -2.2585  -2.2065  -2.1425  -2.0797  -2.0040  -1.9208
    -1.7130  -0.9113  -0.8084  -0.2313   0.1647   0.2224   0.5738   1.0628
     1.8547   2.2726   3.4313   3.6664   3.9337   4.3678

     the Fermi energy is     0.0145 ev

!    total energy              =   -1420.60434834 Ry
     Harris-Foulkes estimate   =   -1420.60434864 Ry
     estimated scf accuracy    <       0.00000004 Ry

     The total energy is the sum of the following terms:

     one-electron contribution =   -8318.88505158 Ry
     hartree contribution      =    4256.39080913 Ry
     xc contribution           =    -773.47089937 Ry
     ewald contribution        =    3415.38638355 Ry
     electric field correction =       0.00009783 Ry
     smearing contrib. (-TS)   =      -0.02568791 Ry

     convergence has been achieved in   7 iterations

 BEEF-vdW xc energy contributions
           1 :   -691.274544025464
           2 :    642.529463445967
           3 :   -555.350819125758
           4 :    446.625757613521
           5 :   -334.599114085161
           6 :    234.178425748460
           7 :   -154.120097373151
           8 :    96.5579939771492
           9 :   -58.5865198034562
          10 :    34.9044628130373
          11 :   -20.3283952154062
          12 :    11.2525437416919
          13 :   -5.81405781101080
          14 :    3.14965944177675
          15 :   -2.47220855763862
          16 :    2.56224960134568
          17 :   -1.90473888888482
          18 :  -0.718920120137568
          19 :    5.60090067029864
          20 :   -11.8638497991876
          21 :    17.7867434117849
          22 :   -21.5634779723521
          23 :    22.1092043671661
          24 :   -19.5180588628230
          25 :    14.9615932354413
          26 :   -10.1142691182620
          27 :    6.41266144564156
          28 :   -4.51744069711481
          29 :    4.20965180537598
          30 :   -4.71617466209329
          31 :   -54.7579723721115
          32 :   -39.9029680005381

     Forces acting on atoms (Ry/au):

     negative rho (up, down):  6.046E-04 0.000E+00
     atom    1 type  1   force =     0.00000000   -0.00000002   -0.00067058
     atom    2 type  1   force =    -0.00000000   -0.00104424   -0.00485277
     atom    3 type  1   force =    -0.00090436    0.00052212   -0.00485276
     atom    4 type  1   force =     0.00090434    0.00052212   -0.00485278
     atom    5 type  1   force =     0.00279776   -0.00161530    0.00035673
     atom    6 type  1   force =    -0.00279779   -0.00161518    0.00035668
     atom    7 type  1   force =     0.00000007    0.00000006    0.01560499
     atom    8 type  1   force =    -0.00000012    0.00323069    0.00035667
     atom    9 type  1   force =     0.00061785    0.00035625    0.00008871
     atom   10 type  1   force =    -0.00061836    0.00035672    0.00008920
     atom   11 type  1   force =     0.00000018   -0.00071325    0.00008889
     atom   12 type  1   force =    -0.00000013    0.00000011    0.00020134
     atom   13 type  2   force =     0.00000055   -0.00000008   -0.00191432

     Total force =     0.002293     Total SCF correction =     0.000441
     SCF correction compared to forces is large: reduce conv_thr to get better values

     entering subroutine stress ...

     negative rho (up, down):  6.046E-04 0.000E+00
          total   stress  (Ry/bohr**3)                   (kbar)     P=   -5.97
  -0.00006553   0.00000000   0.00000000         -9.64      0.00      0.00
   0.00000000  -0.00006553  -0.00000000          0.00     -9.64     -0.00
   0.00000000  -0.00000000   0.00000937          0.00     -0.00      1.38

     bfgs converged in  12 scf cycles and  11 bfgs steps
     (criteria: energy <  1.0E+00, force <  1.9E-03)

     End of BFGS Geometry Optimization

     Final energy   =   -1420.6043483435 Ry
Begin final coordinates

ATOMIC_POSITIONS (crystal)
Au1      0.166666667   0.166666667   0.402269971    0   0   0
Au1      0.666666667   0.166666667   0.402269971    0   0   0
Au1      0.166666667   0.666666667   0.402269971    0   0   0
Au1      0.666666667   0.666666667   0.402269971    0   0   0
Au1      0.833333333   0.333333333   0.500000000    0   0   0
Au1      0.333333333   0.333333333   0.500000000    0   0   0
Au1      0.833333333   0.833333333   0.500000000    0   0   0
Au1      0.333333333   0.833333333   0.500000000    0   0   0
Au1     -0.008455774  -0.008454493   0.600865756
Au1      0.516910010  -0.008454486   0.600865591
Au1     -0.008455614   0.516910801   0.600865685
Au1      0.499999754   0.500000534   0.593949801
N1       0.166666228   0.166667157   0.641240195
End final coordinates

     Writing output data file calc.save

     General routines

     Parallel routines

   This run was terminated on:  10:32:51   4May2018

   JOB DONE.
Job  /afs/slac/g/suncat/bin/suncat-tsmpirun -x LD_LIBRARY_PATH -wdir /scratch/qe926284_au0J8 pw.x -npool 4 -in pw.inp

TID   HOST_NAME   COMMAND_LINE            STATUS            TERMINATION_TIME
00000 suncat0065 pw.x -npool 4 -i  Done                     05/04/2018 10:32:51
00001 suncat0065 pw.x -npool 4 -i  Done                     05/04/2018 10:32:51
00002 suncat0065 pw.x -npool 4 -i  Done                     05/04/2018 10:32:51
00003 suncat0065 pw.x -npool 4 -i  Done                     05/04/2018 10:32:51
00004 suncat0065 pw.x -npool 4 -i  Done                     05/04/2018 10:32:51
00005 suncat0065 pw.x -npool 4 -i  Done                     05/04/2018 10:32:51
00006 suncat0065 pw.x -npool 4 -i  Done                     05/04/2018 10:32:51
00007 suncat0065 pw.x -npool 4 -i  Done                     05/04/2018 10:32:51
00008 suncat0198 pw.x -npool 4 -i  Done                     05/04/2018 10:32:51
00009 suncat0198 pw.x -npool 4 -i  Done                     05/04/2018 10:32:51
00010 suncat0198 pw.x -npool 4 -i  Done                     05/04/2018 10:32:51
00011 suncat0198 pw.x -npool 4 -i  Done                     05/04/2018 10:32:51
00012 suncat0198 pw.x -npool 4 -i  Done                     05/04/2018 10:32:51
00013 suncat0198 pw.x -npool 4 -i  Done                     05/04/2018 10:32:51
00014 suncat0198 pw.x -npool 4 -i  Done                     05/04/2018 10:32:51
00015 suncat0198 pw.x -npool 4 -i  Done                     05/04/2018 10:32:51
00016 suncat0178 pw.x -npool 4 -i  Done                     05/04/2018 10:32:51
00017 suncat0178 pw.x -npool 4 -i  Done                     05/04/2018 10:32:51
00018 suncat0178 pw.x -npool 4 -i  Done                     05/04/2018 10:32:51
00019 suncat0178 pw.x -npool 4 -i  Done                     05/04/2018 10:32:51
00020 suncat0178 pw.x -npool 4 -i  Done                     05/04/2018 10:32:51
00021 suncat0178 pw.x -npool 4 -i  Done                     05/04/2018 10:32:51
00022 suncat0178 pw.x -npool 4 -i  Done                     05/04/2018 10:32:51
00023 suncat0178 pw.x -npool 4 -i  Done                     05/04/2018 10:32:51
00024 suncat0105 pw.x -npool 4 -i  Done                     05/04/2018 10:32:51
00025 suncat0105 pw.x -npool 4 -i  Done                     05/04/2018 10:32:51
00026 suncat0105 pw.x -npool 4 -i  Done                     05/04/2018 10:32:51
00027 suncat0105 pw.x -npool 4 -i  Done                     05/04/2018 10:32:51
00028 suncat0105 pw.x -npool 4 -i  Done                     05/04/2018 10:32:51
00029 suncat0105 pw.x -npool 4 -i  Done                     05/04/2018 10:32:51
00030 suncat0105 pw.x -npool 4 -i  Done                     05/04/2018 10:32:51
00031 suncat0105 pw.x -npool 4 -i  Done                     05/04/2018 10:32:51