     Program PWSCF v.5.1rc2 (svn rev. 11289) starts on  2May2018 at 13:44:17

     Current dimensions of program PWSCF are:
     Max number of different atomic species (ntypx) = 10
     Max number of k-points (npk) =  40000
     Max angular momentum in pseudopotentials (lmaxx) =  3
     Presently stress not available with electric field

     IMPORTANT: XC functional enforced from input :
     Exchange-correlation      = BEEF-VDW ( 1  4 27 13 2)
     Any further DFT definition will be discarded
     Please, verify this is what you really want

     Subspace diagonalization in iterative solution of the eigenvalue problem:
     a serial algorithm will be used

     bravais-lattice index     =            0
     lattice parameter (alat)  =       1.8897  a.u.
     unit-cell volume          =    3724.3394 (a.u.)^3
     number of atoms/cell      =           13
     number of atomic types    =            2
     number of electrons       =       174.00
     number of Kohn-Sham states=           97
     kinetic-energy cutoff     =      36.7493  Ry
     charge density cutoff     =     367.4932  Ry
     convergence threshold     =      1.0E-05
     mixing beta               =       0.3000
     number of iterations used =           10  plain     mixing
     Exchange-correlation      = BEEF-VDW ( 1  4 27 13 2)
     nstep                     =           50

     celldm(1)=   1.889726  celldm(2)=   0.000000  celldm(3)=   0.000000
     celldm(4)=   0.000000  celldm(5)=   0.000000  celldm(6)=   0.000000

     crystal axes: (cart. coord. in units of alat)
               a(1) = (   5.132588   0.000000   0.000000 )
               a(2) = (   2.566294   4.444952   0.000000 )
               a(3) = (   0.000000   0.000000  24.190741 )

     reciprocal axes: (cart. coord. in units 2 pi/alat)
               b(1) = (  0.194833 -0.112487  0.000000 )
               b(2) = (  0.000000  0.224974  0.000000 )
               b(3) = (  0.000000  0.000000  0.041338 )

     PseudoPot. # 1 for Cr read from file:
     /u/if/mamunm/psp/gbrv1.5pbe/Cr.UPF
     MD5 check sum: 0d52af634a40206e4dee301ad30da4bf
     Pseudo is Ultrasoft + core correction, Zval = 14.0
     Generated by new atomic code, or converted to UPF format
     Using radial grid of  857 points,  6 beta functions with:
                l(1) =   0
                l(2) =   0
                l(3) =   1
                l(4) =   1
                l(5) =   2
                l(6) =   2
     Q(r) pseudized with  8 coefficients,  rinner =    0.950   0.950   0.950
                                                       0.950   0.950

     PseudoPot. # 2 for O  read from file:
     /u/if/mamunm/psp/gbrv1.5pbe/O.UPF
     MD5 check sum: 734c27235a0248c51dbae37a1fbe46ec
     Pseudo is Ultrasoft + core correction, Zval =  6.0
     Generated by new atomic code, or converted to UPF format
     Using radial grid of  737 points,  5 beta functions with:
                l(1) =   0
                l(2) =   0
                l(3) =   1
                l(4) =   1
                l(5) =   2
     Q(r) pseudized with  8 coefficients,  rinner =    0.900   0.900   0.900
                                                       0.900   0.900

     vdW kernel table read from file vdW_kernel_table
     MD5 check sum: 095c7af220d748ca6e76c0b4c6cfb241

     atomic species   valence    mass     pseudopotential
        Cr1           14.00    51.99610     Cr( 1.00)
        O1             6.00    15.99900     O ( 1.00)

     No symmetry found

   Cartesian axes

     site n.     atom                  positions (alat units)
         1           Cr1 tau(   1) = (   1.2831471   0.7408253  10.0000000  )
         2           Cr1 tau(   2) = (   3.8494412   0.7408253  10.0000000  )
         3           Cr1 tau(   3) = (   2.5662941   2.9633012  10.0000000  )
         4           Cr1 tau(   4) = (   5.1325882   2.9633012  10.0000000  )
         5           Cr1 tau(   5) = (   5.1325882   1.4816506  12.0953704  )
         6           Cr1 tau(   6) = (   2.5662941   1.4816506  12.0953704  )
         7           Cr1 tau(   7) = (   6.4157353   3.7041265  12.0953704  )
         8           Cr1 tau(   8) = (   3.8494412   3.7041265  12.0953704  )
         9           Cr1 tau(   9) = (   0.0000000   0.0000000  14.1907408  )
        10           Cr1 tau(  10) = (   2.5662941   0.0000000  14.1907408  )
        11           Cr1 tau(  11) = (   1.2831471   2.2224759  14.1907408  )
        12           Cr1 tau(  12) = (   3.8494412   2.2224759  14.1907408  )
        13           O1  tau(  13) = (   0.0000000   0.0000000  15.9332408  )

     number of k points=    20  Fermi-Dirac smearing, width (Ry)=  0.0110
                       cart. coord. in units 2pi/alat
        k(    1) = (   0.0000000   0.0000000   0.0000000), wk =   0.0555556
        k(    2) = (   0.0000000   0.0374957   0.0000000), wk =   0.1111111
        k(    3) = (   0.0000000   0.0749914   0.0000000), wk =   0.1111111
        k(    4) = (   0.0000000  -0.1124872   0.0000000), wk =   0.0555556
        k(    5) = (   0.0324722  -0.0187479   0.0000000), wk =   0.1111111
        k(    6) = (   0.0324722   0.0187479   0.0000000), wk =   0.1111111
        k(    7) = (   0.0324722   0.0562436   0.0000000), wk =   0.1111111
        k(    8) = (   0.0324722  -0.1312350   0.0000000), wk =   0.1111111
        k(    9) = (   0.0324722  -0.0937393   0.0000000), wk =   0.1111111
        k(   10) = (   0.0324722  -0.0562436   0.0000000), wk =   0.1111111
        k(   11) = (   0.0649445  -0.0374957   0.0000000), wk =   0.1111111
        k(   12) = (   0.0649445   0.0000000   0.0000000), wk =   0.1111111
        k(   13) = (   0.0649445   0.0374957   0.0000000), wk =   0.1111111
        k(   14) = (   0.0649445  -0.1499829   0.0000000), wk =   0.1111111
        k(   15) = (   0.0649445  -0.1124872   0.0000000), wk =   0.1111111
        k(   16) = (   0.0649445  -0.0749914   0.0000000), wk =   0.1111111
        k(   17) = (  -0.0974167   0.0562436   0.0000000), wk =   0.0555556
        k(   18) = (  -0.0974167   0.0937393   0.0000000), wk =   0.1111111
        k(   19) = (  -0.0974167   0.1312350   0.0000000), wk =   0.1111111
        k(   20) = (  -0.0974167  -0.0562436   0.0000000), wk =   0.0555556

     Largest allocated arrays     est. size (Mb)     dimensions
     Largest temporary arrays     est. size (Mb)     dimensions

     Check: negative/imaginary core charge=   -0.000004    0.000000

     Initial potential from superposition of free atoms
     Check: negative starting charge=   -0.015038

     starting charge  161.99981, renormalised to  174.00000

     negative rho (up, down):  1.615E-02 0.000E+00

     *
     * You are using vdW-DF for exchange-correlation in this calculation.
     * Please cite the following three references that made this development
     * possible:
     *
     *   M. Dion, H. Rydberg, E. Schroder, D. C. Langreth, and
     *   B. I. Lundqvist, Phys. Rev. Lett. 92, 246401 (2004).
     *
     *   T. Thonhauser, V. R. Cooper, S. Li, A. Puzder, P. Hyldgaard, and
     *   D. C. Langreth, Phys. Rev. B 76, 125112 (2007).
     *
     *   G. Roman-Perez and J. M. Soler, Phys. Rev. Lett. 103, 096102 (2009).
     *
     *
     * If you are using vdW-DF2, please also cite:
     *
     *   K. Lee, E. D. Murray, L. Kong, B. I. Lundqvist, and
     *   D. C. Langreth, Phys. Rev. B 82, 081101(R) (2010).
     *
     *
     * If you are calculating the stress with vdW-DF, please also cite:
     *
     *   R. Sabatini, E. Kucukbenli, B. Kolb, T. Thonhauser, and
     *   S. de Gironcoli, J. Phys.: Condens. Matter 24, 424209 (2012).
     *

     Carrying out vdW-DF run using the following parameters:

     Nqs =      20    Nr_points =    1024   r_max =   100.000
     q_mesh =
               0.00001000     0.04494208     0.09755937     0.15916263
               0.23128650     0.31572767     0.41458969     0.53033537
               0.66584808     0.82450364     1.01025438     1.22772762
               1.48234092     1.78043706     2.12944203     2.53805004
               3.01644009     3.57652955     4.23227104     5.00000000

     Gradients computed in reciprocal space

     Adding external electric field

     Computed dipole along edir(3) :
        Dipole               -3.2234 Ry au,         -8.1930 Debye
        Dipole field         -0.0109 Ry au

        Potential amp.        0.9695 Ry
        Total length         44.5710 bohr

     Starting wfc are  124 randomized atomic wfcs

     Self-consistent Calculation

     iteration #  1     ecut=    36.75 Ry     beta=0.30
     Davidson diagonalization with overlap
     ethr =  1.00E-02,  avg # of iterations =  7.9

[...]

     total energy              =   -1853.62777293 Ry
     Harris-Foulkes estimate   =   -2146.05467698 Ry
     estimated scf accuracy    <     609.74196099 Ry

[...]

     End of self-consistent calculation

          k = 0.0000 0.0000 0.0000 ( 14081 PWs)   bands (ev):

   -71.1491 -70.8607 -70.7622 -70.7449 -70.7152 -70.7148 -70.7141 -70.6854
   -70.6848 -70.6255 -70.6221 -70.6219 -42.8157 -42.5280 -42.5278 -42.4522
   -42.4522 -42.4396 -42.3906 -42.3132 -42.2960 -42.2959 -42.2727 -42.1157
   -42.0574 -42.0568 -42.0252 -42.0251 -42.0230 -41.9890 -41.9889 -41.9536
   -41.9176 -41.9176 -41.9137 -41.8732 -41.8730 -41.8644 -41.8396 -41.7880
   -41.7879 -41.7691 -41.7648 -41.7646 -41.7328 -41.7326 -41.6345 -41.6345
   -16.6632  -5.8553  -4.1288  -3.1921  -3.0775  -3.0774  -2.9672  -2.7927
    -2.5813  -2.5812  -2.4473  -2.4473  -2.3618  -2.0395  -2.0394  -2.0068
    -1.9184  -1.9183  -1.9066  -1.0721  -0.7491  -0.7490  -0.1009  -0.0222
     0.0536   0.0536   0.1717   0.4132   0.4132   0.5739   0.5739   0.6656
     0.6658   0.6717   0.6899   0.7265   0.7267   0.7616   0.7616   1.1688
     1.4617   1.6313   1.6314   1.7429   1.8805   1.8806   1.9275   2.0458
     2.0458

[...]

          k =-0.0974 0.0562 0.0000 ( 14010 PWs)   bands (ev):

[...]

     the Fermi energy is     0.8513 ev

!    total energy              =   -2147.46277392 Ry
     Harris-Foulkes estimate   =   -2147.46277603 Ry
     estimated scf accuracy    <       0.00000464 Ry

     The total energy is the sum of the following terms:

     one-electron contribution =  -20001.73047057 Ry
     hartree contribution      =    9992.84768040 Ry
     xc contribution           =    -286.59704412 Ry
     ewald contribution        =    8148.15116580 Ry
     electric field correction =       0.00019580 Ry
     smearing contrib. (-TS)   =      -0.13430122 Ry

     convergence has been achieved in  47 iterations

 BEEF-vdW xc energy contributions
           1 :   -248.029334973453
           2 :    223.086117028337
           3 :   -181.539410666683
           4 :    135.949186872085
           5 :   -97.5983387238286
           6 :    72.4524047448145
           7 :   -60.1434390723704
           8 :    55.8847131899890
           9 :   -53.8621762987905
          10 :    50.1971985600438
          11 :   -44.1653198657777
          12 :    37.4709712228366
          13 :   -32.4149751776162
          14 :    30.2014227242165
          15 :   -30.2965576453028
          16 :    30.9891730882254
          17 :   -30.6102758623659
          18 :    28.5619090868094
          19 :   -25.5352662662868
          20 :    22.8804925513345
          21 :   -21.6332516732138
          22 :    21.8599768521458
          23 :   -22.7050901561330
          24 :    23.0286202638465
          25 :   -22.1661613909786
          26 :    20.3125108268087
          27 :   -18.3160756868546
          28 :    17.0700215740268
          29 :   -16.9294199849837
          30 :    17.5232619946655
          31 :   -24.5833555219405
          32 :   -17.6201422736148

     Forces acting on atoms (Ry/au):

     negative rho (up, down):  1.467E-02 0.000E+00
     atom    1 type  1   force =     0.00017420    0.00008358    0.00069824
     atom    2 type  1   force =    -0.00017669    0.00011510    0.00064331
     atom    3 type  1   force =     0.00002549   -0.00020303    0.00070026
     atom    4 type  1   force =    -0.00001578    0.00000180    0.00161046
     atom    5 type  1   force =    -0.00000694    0.00350808   -0.00038556
     atom    6 type  1   force =    -0.00000274   -0.00000554    0.01100494
     atom    7 type  1   force =    -0.00303957   -0.00175778   -0.00035432
     atom    8 type  1   force =     0.00304746   -0.00174405   -0.00035417
     atom    9 type  1   force =     0.00002064    0.00000290    0.15996665
     atom   10 type  1   force =    -0.00001749    0.00388102   -0.02191485
     atom   11 type  1   force =     0.00337427   -0.00195133   -0.02188931
     atom   12 type  1   force =    -0.00337606   -0.00193440   -0.02191955
     atom   13 type  2   force =    -0.00000679    0.00000365   -0.10780609

     Total force =     0.196715     Total SCF correction =     0.001827

     entering subroutine stress ...

     negative rho (up, down):  1.467E-02 0.000E+00
          total   stress  (Ry/bohr**3)                   (kbar)     P=  -26.25
  -0.00020795  -0.00000003   0.00000000        -30.59     -0.00      0.00
  -0.00000003  -0.00020792  -0.00000000         -0.00    -30.59     -0.00
   0.00000000  -0.00000000  -0.00011947          0.00     -0.00    -17.57

     BFGS Geometry Optimization

     number of scf cycles    =   1
     number of bfgs steps    =   0

     energy   new            =   -2147.4627739190 Ry

     new trust radius        =       0.1599666499 bohr
     new conv_thr            =       0.0000099958 Ry

ATOMIC_POSITIONS (crystal)
Cr1      0.166666667   0.166666667   0.413381306    0   0   0
Cr1      0.666666667   0.166666667   0.413381306    0   0   0
Cr1      0.166666667   0.666666667   0.413381306    0   0   0
Cr1      0.666666667   0.666666667   0.413381306    0   0   0
Cr1      0.833333333   0.333333333   0.500000000    0   0   0
Cr1      0.333333333   0.333333333   0.500000000    0   0   0
Cr1      0.833333333   0.833333333   0.500000000    0   0   0
Cr1      0.333333333   0.833333333   0.500000000    0   0   0
Cr1      0.000001955   0.000000345   0.590117996
Cr1      0.499767176   0.000462040   0.586139303
Cr1      0.000464047   0.499767692   0.586139861
Cr1      0.499767070   0.499769707   0.586139200
O1      -0.000000918   0.000000435   0.656292107

     Writing output data file calc.save
     Check: negative starting charge=   -0.015038
     NEW-OLD atomic charge density approx. for the potential

     Check: negative/imaginary core charge=   -0.000004    0.000000
     Check: negative starting charge=   -0.014842

[...]

     iteration #  1     ecut=    36.75 Ry     beta=0.30
     Davidson diagonalization with overlap
     c_bands:  1 eigenvalues not converged
     ethr =  1.00E-06,  avg # of iterations = 17.6

[...]

     energy   old            =   -2147.4627739190 Ry
     energy   new            =   -2147.4855617540 Ry

     CASE: energy  _new < energy  _old

[...]

     WARNING: bfgs curvature condition failed, Theta= 0.852
     new trust radius        =       0.0683782944 bohr
     new conv_thr            =       0.0000001000 Ry

[...]

     Total force =     0.005349     Total SCF correction =     0.000783
     SCF correction compared to forces is large: reduce conv_thr to get better values

[...]

     Total force =     0.005087     Total SCF correction =     0.000129

[...]

     number of scf cycles    =  13
     number of bfgs steps    =  12

     energy   old            =   -2147.5274703402 Ry
     energy   new            =   -2147.5275403213 Ry

     CASE: energy  _new < energy  _old

     new trust radius        =       0.0233045969 bohr
     new conv_thr            =       0.0000001000 Ry

ATOMIC_POSITIONS (crystal)
Cr1      0.166666667   0.166666667   0.413381306    0   0   0
Cr1      0.666666667   0.166666667   0.413381306    0   0   0
Cr1      0.166666667   0.666666667   0.413381306    0   0   0
Cr1      0.666666667   0.666666667   0.413381306    0   0   0
Cr1      0.833333333   0.333333333   0.500000000    0   0   0
Cr1      0.333333333   0.333333333   0.500000000    0   0   0
Cr1      0.833333333   0.833333333   0.500000000    0   0   0
Cr1      0.333333333   0.833333333   0.500000000    0   0   0
Cr1      0.000003020  -0.000000378   0.602726063
Cr1      0.502816590  -0.005638211   0.577554677
Cr1     -0.005657887   0.502847499   0.577556955
Cr1      0.502834947   0.502834964   0.577558899
O1       0.000004007  -0.000005277   0.668355829

     Writing output data file calc.save
     Check: negative starting charge=   -0.014032
     NEW-OLD atomic charge density approx. for the potential

     Check: negative/imaginary core charge=   -0.000004    0.000000
     Check: negative starting charge=   -0.013805

[...]

     Self-consistent Calculation

[...]

     total energy              =   -2147.52762487 Ry
     Harris-Foulkes estimate   =   -2147.52762520 Ry
     estimated scf accuracy    <       0.00000053 Ry

     iteration # 21     ecut=    36.75 Ry     beta=0.30
     Davidson diagonalization with overlap
     ethr =  3.06E-10,  avg # of iterations =  4.0

[...]

     negative rho (up, down):  1.378E-02 0.000E+00

     Adding external electric field

     Computed dipole along edir(3) :
        Dipole               -0.3477 Ry au,         -0.8838 Debye
        Dipole field         -0.0012 Ry au

        Potential amp.        0.1046 Ry
        Total length         44.5710 bohr

     End of self-consistent calculation

[...]

          k = 0.0649-0.0750 0.0000 ( 13990 PWs)   bands (ev):

[...]

          k =-0.0974-0.0562 0.0000 ( 14010 PWs)   bands (ev):

   -71.2664 -70.9907 -70.9760 -70.9076 -70.9008 -70.8746 -70.8678 -70.8220
   -70.8184 -70.7932 -70.7740 -70.7590 -43.1477 -42.5931 -42.5795 -42.5616
   -42.4962 -42.4809 -42.4784 -42.4163 -42.3981 -42.3956 -42.3519 -42.3355
   -42.3232 -42.2973 -42.2041 -42.1963 -42.1708 -42.1629 -42.1551 -42.1405
   -42.1259 -42.1041 -42.0949 -42.0750 -42.0741 -42.0652 -42.0174 -42.0136
   -41.9623 -41.9540 -41.9076 -41.8992 -41.8892 -41.8873 -41.8664 -41.8317
   -16.9827  -4.2315  -4.2039  -3.4343  -3.2326  -3.1627  -2.8599  -2.7014
    -2.3554  -2.2481  -2.2119  -2.0998  -2.0573  -1.9453  -1.6434  -1.5538
    -1.4353  -1.3138  -1.2703  -1.1885  -0.9751  -0.9232  -0.7993  -0.7716
    -0.6812  -0.6517  -0.3660  -0.2608  -0.2419  -0.1371  -0.0886  -0.0527
    -0.0268   0.0944   0.1326   0.1366   0.2196   0.3775   0.4020   0.5483
     0.6121   0.7895   1.1091   1.1990   1.2716   1.3943   1.4615   1.5265
     1.6167

     the Fermi energy is     0.6745 ev

!    total energy              =   -2147.52762485 Ry
     Harris-Foulkes estimate   =   -2147.52762474 Ry
     estimated scf accuracy    <       0.00000009 Ry

     The total energy is the sum of the following terms:

     one-electron contribution =  -20063.08434238 Ry
     hartree contribution      =   10022.55989130 Ry
     xc contribution           =    -286.81119055 Ry
     ewald contribution        =    8179.92487190 Ry
     electric field correction =       0.00040792 Ry
     smearing contrib. (-TS)   =      -0.11726304 Ry

     convergence has been achieved in  21 iterations

 BEEF-vdW xc energy contributions
           1 :   -248.252636904207
           2 :    223.366226528182
           3 :   -181.889259900725
           4 :    136.296823467521
           5 :   -97.8156504452594
           6 :    72.4427868257417
           7 :   -59.9069092828244
           8 :    55.5165426219964
           9 :   -53.4957320057013
          10 :    49.9325445184415
          11 :   -44.0198027920353
          12 :    37.3693351451809
          13 :   -32.2298068249926
          14 :    29.8310812845948
          15 :   -29.7321047109460
          16 :    30.3280574890020
          17 :   -30.0070751940736
          18 :    28.1387687290869
          19 :   -25.3045458871486
          20 :    22.7317384907866
          21 :   -21.3998057113162
          22 :    21.4271538295824
          23 :   -22.0864436841541
          24 :    22.3592092566580
          25 :   -21.6178493231824
          26 :    19.9814983764107
          27 :   -18.1570798310630
          28 :    16.9251337068459
          29 :   -16.6305391135471
          30 :    17.0015472766849
          31 :   -24.5959867029773
          32 :   -17.6404269180156

     Forces acting on atoms (Ry/au):

     negative rho (up, down):  1.378E-02 0.000E+00
     atom    1 type  1   force =     0.00077296    0.00044701    0.00782202
     atom    2 type  1   force =    -0.00077208    0.00044614    0.00781790
     atom    3 type  1   force =    -0.00000055   -0.00089595    0.00781528
     atom    4 type  1   force =    -0.00000045   -0.00000072   -0.00374560
     atom    5 type  1   force =    -0.00000620   -0.02510441    0.00178949
     atom    6 type  1   force =     0.00000297   -0.00000119   -0.02814181
     atom    7 type  1   force =     0.02173907    0.01254690    0.00177633
     atom    8 type  1   force =    -0.02174148    0.01254121    0.00178129
     atom    9 type  1   force =    -0.00000013    0.00000850   -0.00056707
     atom   10 type  1   force =    -0.00000183    0.00180267    0.00087555
     atom   11 type  1   force =     0.00154966   -0.00089268    0.00085669
     atom   12 type  1   force =    -0.00154217   -0.00089703    0.00086512
     atom   13 type  2   force =     0.00000022   -0.00000046    0.00105481

     Total force =     0.003649     Total SCF correction =     0.000488
     SCF correction compared to forces is large: reduce conv_thr to get better values

     entering subroutine stress ...

     negative rho (up, down):  1.378E-02 0.000E+00
          total   stress  (Ry/bohr**3)                   (kbar)     P=  -13.24
  -0.00012021  -0.00000001   0.00000001        -17.68     -0.00      0.00
  -0.00000001  -0.00012019   0.00000003         -0.00    -17.68      0.00
   0.00000001   0.00000003  -0.00002951          0.00      0.00     -4.34

     bfgs converged in  14 scf cycles and  13 bfgs steps
     (criteria: energy <  1.0E+00, force <  1.9E-03)

     End of BFGS Geometry Optimization

     Final energy   =   -2147.5276248491 Ry
Begin final coordinates

ATOMIC_POSITIONS (crystal)
Cr1      0.166666667   0.166666667   0.413381306    0   0   0
Cr1      0.666666667   0.166666667   0.413381306    0   0   0
Cr1      0.166666667   0.666666667   0.413381306    0   0   0
Cr1      0.666666667   0.666666667   0.413381306    0   0   0
Cr1      0.833333333   0.333333333   0.500000000    0   0   0
Cr1      0.333333333   0.333333333   0.500000000    0   0   0
Cr1      0.833333333   0.833333333   0.500000000    0   0   0
Cr1      0.333333333   0.833333333   0.500000000    0   0   0
Cr1      0.000003020  -0.000000378   0.602726063
Cr1      0.502816590  -0.005638211   0.577554677
Cr1     -0.005657887   0.502847499   0.577556955
Cr1      0.502834947   0.502834964   0.577558899
O1       0.000004007  -0.000005277   0.668355829
End final coordinates

     Writing output data file calc.save

     General routines

     Parallel routines

   This run was terminated on:  15:52: 5   2May2018

   JOB DONE.
Job  /afs/slac/g/suncat/bin/suncat-tsmpirun -x LD_LIBRARY_PATH -wdir /scratch/qe672606_cGxgA pw.x -npool 4 -in pw.inp

TID   HOST_NAME   COMMAND_LINE            STATUS            TERMINATION_TIME
00000 suncat0073 pw.x -npool 4 -i  Done                     05/02/2018 15:52:05
00001 suncat0073 pw.x -npool 4 -i  Done                     05/02/2018 15:52:05
00002 suncat0073 pw.x -npool 4 -i  Done                     05/02/2018 15:52:05
00003 suncat0073 pw.x -npool 4 -i  Done                     05/02/2018 15:52:05
00004 suncat0073 pw.x -npool 4 -i  Done                     05/02/2018 15:52:05
00005 suncat0073 pw.x -npool 4 -i  Done                     05/02/2018 15:52:05
00006 suncat0073 pw.x -npool 4 -i  Done                     05/02/2018 15:52:05
00007 suncat0073 pw.x -npool 4 -i  Done                     05/02/2018 15:52:05
00008 suncat0071 pw.x -npool 4 -i  Done                     05/02/2018 15:52:05
00009 suncat0071 pw.x -npool 4 -i  Done                     05/02/2018 15:52:05
00010 suncat0071 pw.x -npool 4 -i  Done                     05/02/2018 15:52:05
00011 suncat0071 pw.x -npool 4 -i  Done                     05/02/2018 15:52:05
00012 suncat0071 pw.x -npool 4 -i  Done                     05/02/2018 15:52:05
00013 suncat0071 pw.x -npool 4 -i  Done                     05/02/2018 15:52:05
00014 suncat0071 pw.x -npool 4 -i  Done                     05/02/2018 15:52:05
00015 suncat0071 pw.x -npool 4 -i  Done                     05/02/2018 15:52:05
00016 suncat0249 pw.x -npool 4 -i  Done                     05/02/2018 15:52:05
00017 suncat0249 pw.x -npool 4 -i  Done                     05/02/2018 15:52:05
00018 suncat0249 pw.x -npool 4 -i  Done                     05/02/2018 15:52:05
00019 suncat0249 pw.x -npool 4 -i  Done                     05/02/2018 15:52:05
00020 suncat0249 pw.x -npool 4 -i  Done                     05/02/2018 15:52:05
00021 suncat0249 pw.x -npool 4 -i  Done                     05/02/2018 15:52:05
00022 suncat0249 pw.x -npool 4 -i  Done                     05/02/2018 15:52:05
00023 suncat0249 pw.x -npool 4 -i  Done                     05/02/2018 15:52:05
00024 suncat0240 pw.x -npool 4 -i  Done                     05/02/2018 15:52:05
00025 suncat0240 pw.x -npool 4 -i  Done                     05/02/2018 15:52:05
00026 suncat0240 pw.x -npool 4 -i  Done                     05/02/2018 15:52:05
00027 suncat0240 pw.x -npool 4 -i  Done                     05/02/2018 15:52:05
00028 suncat0240 pw.x -npool 4 -i  Done                     05/02/2018 15:52:05
00029 suncat0240 pw.x -npool 4 -i  Done                     05/02/2018 15:52:05
00030 suncat0240 pw.x -npool 4 -i  Done                     05/02/2018 15:52:05
00031 suncat0240 pw.x -npool 4 -i  Done                     05/02/2018 15:52:05