     Program PWSCF v.5.1rc2 (svn rev. ) starts on 18Apr2018 at  2:10:37

     Current dimensions of program PWSCF are:
     Max number of different atomic species (ntypx) = 10
     Max number of k-points (npk) =  40000
     Max angular momentum in pseudopotentials (lmaxx) =  3
     Presently stress not available with electric field

     IMPORTANT: XC functional enforced from input :
     Exchange-correlation      = BEEF-VDW ( 1  4 27 13 2)
     Any further DFT definition will be discarded
     Please, verify this is what you really want

     Subspace diagonalization in iterative solution of the eigenvalue problem:
     a serial algorithm will be used

     bravais-lattice index     =            0
     lattice parameter (alat)  =       1.8897  a.u.
     unit-cell volume          =    6024.3322 (a.u.)^3
     number of atoms/cell      =           14
     number of atomic types    =            3
     number of electrons       =       150.00
     number of Kohn-Sham states=           85
     kinetic-energy cutoff     =      36.7493  Ry
     charge density cutoff     =     367.4932  Ry
     convergence threshold     =      1.0E-05
     mixing beta               =       0.3000
     number of iterations used =           10  plain     mixing
     Exchange-correlation      = BEEF-VDW ( 1  4 27 13 2)
     nstep                     =           50

     celldm(1)=   1.889726  celldm(2)=   0.000000  celldm(3)=   0.000000
     celldm(4)=   0.000000  celldm(5)=   0.000000  celldm(6)=   0.000000

     crystal axes: (cart. coord. in units of alat)
               a(1) = (   6.393197   0.000000   0.000000 )
               a(2) = (   3.196599   5.536671   0.000000 )
               a(3) = (   0.000000   0.000000  25.220024 )

     reciprocal axes: (cart. coord. in units 2 pi/alat)
               b(1) = (  0.156416 -0.090307  0.000000 )
               b(2) = (  0.000000  0.180614  0.000000 )
               b(3) = (  0.000000  0.000000  0.039651 )

     PseudoPot. # 1 for Hf read from file:
     /home/mamunm/src/pseudo/gbrv1.5pbe/Hf.UPF
     MD5 check sum: 8ee9378dfe14276e333edf04c5e4aa26
     Pseudo is Ultrasoft + core correction, Zval = 12.0
     Generated by new atomic code, or converted to UPF format
     Using radial grid of  921 points,  8 beta functions with:
                l(1) =   0
                l(2) =   0
                l(3) =   0
                l(4) =   1
                l(5) =   1
                l(6) =   2
                l(7) =   2
                l(8) =   3
     Q(r) pseudized with  6 coefficients,  rinner =    1.200   1.200   1.200
                                                       1.200   1.200   1.200
                                                       1.200

     PseudoPot. # 2 for N  read from file:
     /home/mamunm/src/pseudo/gbrv1.5pbe/N.UPF
     MD5 check sum: 95339753478d7afb44899504a8723017
     Pseudo is Ultrasoft + core correction, Zval =  5.0
     Generated by new atomic code, or converted to UPF format
     Using radial grid of  729 points,  4 beta functions with:
                l(1) =   0
                l(2) =   0
                l(3) =   1
                l(4) =   1
     Q(r) pseudized with  8 coefficients,  rinner =    0.900   0.900   0.900

     PseudoPot. # 3 for H  read from file:
     /home/mamunm/src/pseudo/gbrv1.5pbe/H.UPF
     MD5 check sum: 761ae9a214b05c3daf00ab9f6b793d6f
     Pseudo is Ultrasoft, Zval =  1.0
     Generated by new atomic code, or converted to UPF format
     Using radial grid of  615 points,  2 beta functions with:
                l(1) =   0
                l(2) =   0
     Q(r) pseudized with  8 coefficients,  rinner =    0.700

     vdW kernel table read from file vdW_kernel_table
     MD5 check sum: 095c7af220d748ca6e76c0b4c6cfb241

     atomic species   valence    mass     pseudopotential
        Hf1           12.00   178.49000     Hf( 1.00)
        N1             5.00    14.00700     N ( 1.00)
        H1             1.00     1.00800     H ( 1.00)

     No symmetry found

   Cartesian axes

     site n.     atom                  positions (alat units)
         1           Hf1 tau(   1) = (   1.5982993   0.9227785  10.0000000  )
         2           Hf1 tau(   2) = (   4.7948978   0.9227785  10.0000000  )
         3           Hf1 tau(   3) = (   3.1965986   3.6911141  10.0000000  )
         4           Hf1 tau(   4) = (   6.3931971   3.6911141  10.0000000  )
         5           Hf1 tau(   5) = (   6.3931971   1.8455570  12.6100118  )
         6           Hf1 tau(   6) = (   3.1965986   1.8455570  12.6100118  )
         7           Hf1 tau(   7) = (   7.9914964   4.6138926  12.6100118  )
         8           Hf1 tau(   8) = (   4.7948978   4.6138926  12.6100118  )
         9           Hf1 tau(   9) = (   0.0000000   0.0000000  15.2200236  )
        10           Hf1 tau(  10) = (   3.1965986   0.0000000  15.2200236  )
        11           Hf1 tau(  11) = (   1.5982993   2.7683356  15.2200236  )
        12           Hf1 tau(  12) = (   4.7948978   2.7683356  15.2200236  )
        13           N1  tau(  13) = (   0.0000000   0.0000000  17.3110236  )
        14           H1  tau(  14) = (   0.0000000   0.0000000  18.3610236  )

     number of k points=    20  Fermi-Dirac smearing, width (Ry)=  0.0110
                       cart. coord. in units 2pi/alat
        k(    1) = (   0.0000000   0.0000000   0.0000000), wk =   0.0555556
        k(    2) = (   0.0000000   0.0301023   0.0000000), wk =   0.1111111
        k(    3) = (   0.0000000   0.0602046   0.0000000), wk =   0.1111111
        k(    4) = (   0.0000000  -0.0903070   0.0000000), wk =   0.0555556
        k(    5) = (   0.0260694  -0.0150512   0.0000000), wk =   0.1111111
        k(    6) = (   0.0260694   0.0150512   0.0000000), wk =   0.1111111
        k(    7) = (   0.0260694   0.0451535   0.0000000), wk =   0.1111111
        k(    8) = (   0.0260694  -0.1053581   0.0000000), wk =   0.1111111
        k(    9) = (   0.0260694  -0.0752558   0.0000000), wk =   0.1111111
        k(   10) = (   0.0260694  -0.0451535   0.0000000), wk =   0.1111111
        k(   11) = (   0.0521388  -0.0301023   0.0000000), wk =   0.1111111
        k(   12) = (   0.0521388   0.0000000   0.0000000), wk =   0.1111111
        k(   13) = (   0.0521388   0.0301023   0.0000000), wk =   0.1111111
        k(   14) = (   0.0521388  -0.1204093   0.0000000), wk =   0.1111111
        k(   15) = (   0.0521388  -0.0903070   0.0000000), wk =   0.1111111
        k(   16) = (   0.0521388  -0.0602046   0.0000000), wk =   0.1111111
        k(   17) = (  -0.0782081   0.0451535   0.0000000), wk =   0.0555556
        k(   18) = (  -0.0782081   0.0752558   0.0000000), wk =   0.1111111
        k(   19) = (  -0.0782081   0.1053581   0.0000000), wk =   0.1111111
        k(   20) = (  -0.0782081  -0.0451535   0.0000000), wk =   0.0555556

     Largest allocated arrays     est. size (Mb)     dimensions
     Largest temporary arrays     est. size (Mb)     dimensions

     Check: negative/imaginary core charge=   -0.000003    0.000000

     Initial potential from superposition of free atoms
     Check: negative starting charge=   -1.301341

     starting charge  125.99996, renormalised to  150.00000

     negative rho (up, down):  1.549E+00 0.000E+00

     *
     * You are using vdW-DF for exchange-correlation in this calculation.
     * Please cite the following three references that made this development
     * possible:
     *
     *   M. Dion, H. Rydberg, E. Schroder, D. C. Langreth, and
     *   B. I. Lundqvist, Phys. Rev. Lett. 92, 246401 (2004).
     *
     *   T. Thonhauser, V. R. Cooper, S. Li, A. Puzder, P. Hyldgaard, and
     *   D. C. Langreth, Phys. Rev. B 76, 125112 (2007).
     *
     *   G. Roman-Perez and J. M. Soler, Phys. Rev. Lett. 103, 096102 (2009).
     *
     *
     * If you are using vdW-DF2, please also cite:
     *
     *   K. Lee, E. D. Murray, L. Kong, B. I. Lundqvist, and
     *   D. C. Langreth, Phys. Rev. B 82, 081101(R) (2010).
     *
     *
     * If you are calculating the stress with vdW-DF, please also cite:
     *
     *   R. Sabatini, E. Kucukbenli, B. Kolb, T. Thonhauser, and
     *   S. de Gironcoli, J. Phys.: Condens. Matter 24, 424209 (2012).
     *

     Carrying out vdW-DF run using the following parameters:

     Nqs =      20    Nr_points =    1024   r_max =   100.000
     q_mesh =
               0.00001000     0.04494208     0.09755937     0.15916263
               0.23128650     0.31572767     0.41458969     0.53033537
               0.66584808     0.82450364     1.01025438     1.22772762
               1.48234092     1.78043706     2.12944203     2.53805004
               3.01644009     3.57652955     4.23227104     5.00000000

     Gradients computed in reciprocal space

     Adding external electric field

     Computed dipole along edir(3) :
        Dipole              -10.5305 Ry au,        -26.7658 Debye
        Dipole field         -0.0220 Ry au

        Potential amp.        2.0414 Ry
        Total length         46.4675 bohr

     Starting wfc are  161 randomized atomic wfcs

     Self-consistent Calculation

     iteration #  1     ecut=    36.75 Ry     beta=0.30
     Davidson diagonalization with overlap
     ethr =  1.00E-02,  avg # of iterations =  9.9

[...]

     total energy              =   -1304.30351952 Ry
     Harris-Foulkes estimate   =   -1942.17164286 Ry
     estimated scf accuracy    <    1367.66988308 Ry

[...]

     iteration # 32     ecut=    36.75 Ry     beta=0.30
     Davidson diagonalization with overlap
     c_bands:  1 eigenvalues not converged
     ethr =  5.88E-06,  avg # of iterations =  5.8

[...]

     End of self-consistent calculation

          k = 0.0000 0.0000 0.0000 ( 22729 PWs)   bands (ev):

   -61.2565 -61.2309 -61.2304 -61.1151 -61.0854 -61.0757 -61.0751 -60.7188
   -60.6991 -60.6833 -60.6826 -60.6822 -29.9424 -29.9269 -29.9265 -29.9216
   -29.8609 -29.8606 -29.8576 -29.8466 -29.8461 -29.7476 -29.6813 -29.6553
   -29.6549 -29.6183 -29.4752 -29.4748 -29.4661 -29.4527 -29.4525 -29.4485
   -29.4175 -29.4173 -29.3234 -29.3234 -29.2594 -29.2157 -29.2155 -29.1767
   -29.1503 -29.1500 -29.0922 -29.0721 -29.0719 -29.0694 -28.9510 -28.9510
   -12.6566  -5.0635  -4.1111  -3.4576  -2.3873  -1.5389  -1.5389  -1.4692
    -1.2877  -1.2877  -1.2282  -0.8593  -0.8593  -0.7915  -0.4515  -0.4514
    -0.1879  -0.0936  -0.0935   0.5307   0.8324   0.8325   1.5120   1.6945
     1.8389   1.9341   1.9458   1.9459   2.2025   2.2025   2.2246   2.4531
     2.6044   2.7207   2.7208   2.7780   2.7781

[...]

          k =-0.0782 0.0452 0.0000 ( 22668 PWs)   bands (ev):

[...]

     the Fermi energy is     1.5183 ev

!    total energy              =   -1948.17192498 Ry
     Harris-Foulkes estimate   =   -1948.17191841 Ry
     estimated scf accuracy    <       0.00000235 Ry

     The total energy is the sum of the following terms:

     one-electron contribution =   -8486.31531836 Ry
     hartree contribution      =    4228.92241144 Ry
     xc contribution           =    -933.87787674 Ry
     ewald contribution        =    3243.21111567 Ry
     electric field correction =       0.00003073 Ry
     smearing contrib. (-TS)   =      -0.11228772 Ry

     convergence has been achieved in  36 iterations

 BEEF-vdW xc energy contributions
           1 :   -844.212507976952
           2 :    784.379946955340
           3 :   -678.472611923943
           4 :    548.488636861728
           5 :   -417.065307895759
           6 :    301.164367376999
           7 :   -209.362849457637
           8 :    142.802872071217
           9 :   -98.2342494182731
          10 :    70.9777446307313
          11 :   -56.4957173028207
          12 :    50.5068622790413
          13 :   -48.5912496110612
          14 :    46.2499148069181
          15 :   -39.7791873584177
          16 :    27.4903894341008
          17 :   -10.4425809921519
          18 :   -7.94668179267626
          19 :    23.3484210733163
          20 :   -32.3365001872872
          21 :    33.6616078220774
          22 :   -28.4505680480353
          23 :    19.4094606422472
          24 :   -9.62007309297485
          25 :    1.58002070520035
          26 :    3.17609433471955
          27 :   -3.99488701963503
          28 :   0.909318197850894
          29 :    5.40218915499383
          30 :   -13.5363035990907
          31 :   -60.8491793625062
          32 :   -43.7177292480743

     Forces acting on atoms (Ry/au):

     negative rho (up, down):  1.380E+00 0.000E+00
     atom    1 type  1   force =     0.00121422    0.00070417    0.02501040
     atom    2 type  1   force =    -0.00121703    0.00068630    0.02501348
     atom    3 type  1   force =    -0.00001587   -0.00139769    0.02501545
     atom    4 type  1   force =     0.00001626    0.00000354    0.02628289
     atom    5 type  1   force =    -0.00000176    0.00811738   -0.01118041
     atom    6 type  1   force =     0.00000958    0.00003458   -0.00084676
     atom    7 type  1   force =    -0.00700454   -0.00406709   -0.01121963
     atom    8 type  1   force =     0.00699151   -0.00406986   -0.01119699
     atom    9 type  1   force =     0.00000557   -0.00001342    0.11722663
     atom   10 type  1   force =    -0.00000084   -0.00345297   -0.01776170
     atom   11 type  1   force =    -0.00298808    0.00172707   -0.01783250
     atom   12 type  1   force =     0.00298674    0.00172800   -0.01781110
     atom   13 type  2   force =     0.00000389    0.00000124   -0.08419419
     atom   14 type  3   force =     0.00000037   -0.00000126   -0.04650557

     Total force =     0.154855     Total SCF correction =     0.002670

     entering subroutine stress ...

     negative rho (up, down):  1.380E+00 0.000E+00
          total   stress  (Ry/bohr**3)                   (kbar)     P=  -27.43
  -0.00014687   0.00000000   0.00000000        -21.61      0.00      0.00
   0.00000000  -0.00014685  -0.00000000          0.00    -21.60     -0.00
   0.00000000  -0.00000000  -0.00026577          0.00     -0.00    -39.10

     BFGS Geometry Optimization

     number of scf cycles    =   1
     number of bfgs steps    =   0

     energy   new            =   -1948.1719249775 Ry

     new trust radius        =       0.1172266266 bohr
     new conv_thr            =       0.0000099958 Ry

ATOMIC_POSITIONS (crystal)
Hf1      0.166666667   0.166666667   0.396510335    0   0   0
Hf1      0.666666667   0.166666667   0.396510335    0   0   0
Hf1      0.166666667   0.666666667   0.396510335    0   0   0
Hf1      0.666666667   0.666666667   0.396510335    0   0   0
Hf1      0.833333333   0.333333333   0.500000000    0   0   0
Hf1      0.333333333   0.333333333   0.500000000    0   0   0
Hf1      0.833333333   0.833333333   0.500000000    0   0   0
Hf1      0.333333333   0.833333333   0.500000000    0   0   0
Hf1      0.000001103  -0.000001283   0.605949364
Hf1      0.500164942  -0.000330024   0.603116982
Hf1     -0.000329863   0.500165068   0.603115496
Hf1      0.500164640   0.500165157   0.603115945
N1       0.000000263   0.000000118   0.684633378
H1       0.000000091  -0.000000120   0.727057762

     Writing output data file calc.save
     Check: negative starting charge=   -1.301341
     NEW-OLD atomic charge density approx. for the potential

     Check: negative/imaginary core charge=   -0.000003    0.000000
     Check: negative starting charge=   -1.301042

[...]

     energy   old            =   -1948.1719249775 Ry
     energy   new            =   -1948.1902133856 Ry

     CASE: energy  _new < energy  _old

[...]

     iteration #  1     ecut=    36.75 Ry     beta=0.30
     Davidson diagonalization with overlap
     c_bands:  1 eigenvalues not converged
     ethr =  1.00E-06,  avg # of iterations = 16.3

[...]

     Total force =     0.014368     Total SCF correction =     0.000729

[...]

     number of scf cycles    =  15
     number of bfgs steps    =  14

     energy   old            =   -1948.2103592972 Ry
     energy   new            =   -1948.2105348677 Ry

     CASE: energy  _new < energy  _old

     new trust radius        =       0.0107590187 bohr
     new conv_thr            =       0.0000001000 Ry

ATOMIC_POSITIONS (crystal)
Hf1      0.166666667   0.166666667   0.396510335    0   0   0
Hf1      0.666666667   0.166666667   0.396510335    0   0   0
Hf1      0.166666667   0.666666667   0.396510335    0   0   0
Hf1      0.666666667   0.666666667   0.396510335    0   0   0
Hf1      0.833333333   0.333333333   0.500000000    0   0   0
Hf1      0.333333333   0.333333333   0.500000000    0   0   0
Hf1      0.833333333   0.833333333   0.500000000    0   0   0
Hf1      0.333333333   0.833333333   0.500000000    0   0   0
Hf1      0.000000160  -0.000001618   0.600933904
Hf1      0.500746855  -0.001492215   0.597410713
Hf1     -0.001492106   0.500747281   0.597411099
Hf1      0.500745007   0.500746067   0.597411449
N1       0.000000510  -0.000000009   0.676266803
H1       0.000000584   0.000000250   0.716622666

     Writing output data file calc.save
     Check: negative starting charge=   -1.300421
     NEW-OLD atomic charge density approx. for the potential

     Check: negative/imaginary core charge=   -0.000003    0.000000
     Check: negative starting charge=   -1.299520

[...]

     Self-consistent Calculation

[...]

     total energy              =   -1948.21061720 Ry
     Harris-Foulkes estimate   =   -1948.21061727 Ry
     estimated scf accuracy    <       0.00000078 Ry

     iteration # 12     ecut=    36.75 Ry     beta=0.30
     Davidson diagonalization with overlap
     ethr =  5.23E-10,  avg # of iterations =  3.8

[...]

     negative rho (up, down):  1.376E+00 0.000E+00

     Adding external electric field

     Computed dipole along edir(3) :
        Dipole                0.1596 Ry au,          0.4056 Debye
        Dipole field          0.0003 Ry au

        Potential amp.       -0.0309 Ry
        Total length         46.4675 bohr

     End of self-consistent calculation

[...]

          k = 0.0521-0.0602 0.0000 ( 22643 PWs)   bands (ev):

[...]

          k =-0.0782-0.0452 0.0000 ( 22668 PWs)   bands (ev):

   -61.0704 -61.0617 -61.0553 -61.0529 -61.0442 -61.0319 -61.0271 -60.5507
   -60.5450 -60.5335 -60.5184 -60.3002 -29.7619 -29.7464 -29.7364 -29.7213
   -29.7034 -29.7011 -29.6593 -29.6486 -29.6474 -29.6091 -29.6032 -29.5867
   -29.5551 -29.5500 -29.5457 -29.5183 -29.5085 -29.5041 -29.3412 -29.3384
   -29.3326 -29.2668 -29.1818 -29.1387 -29.0751 -29.0596 -29.0533 -29.0373
   -29.0195 -29.0133 -29.0019 -28.9076 -28.9012 -28.8781 -28.8601 -28.8441
   -12.9167  -4.4439  -3.3975  -3.2139  -2.1877  -1.9853  -1.1663  -1.0922
    -1.0597  -0.8436  -0.7935  -0.5350  -0.5188  -0.4093   0.3787   0.4291
     0.4995   0.5367   0.6905   0.7236   0.8351   0.9977   1.0612   1.0981
     1.1466   1.2344   1.2916   1.4635   1.4776   1.5478   1.5980   1.7553
     1.9314   1.9685   1.9922   2.1127   2.4845

     the Fermi energy is     1.5657 ev

!    total energy              =   -1948.21061725 Ry
     Harris-Foulkes estimate   =   -1948.21061680 Ry
     estimated scf accuracy    <       0.00000005 Ry

     The total energy is the sum of the following terms:

     one-electron contribution =   -8687.00994479 Ry
     hartree contribution      =    4329.91935202 Ry
     xc contribution           =    -934.28725244 Ry
     ewald contribution        =    3343.27815929 Ry
     electric field correction =       0.00005313 Ry
     smearing contrib. (-TS)   =      -0.11098445 Ry

     convergence has been achieved in  12 iterations

 BEEF-vdW xc energy contributions
           1 :   -844.619083585491
           2 :    784.885108571345
           3 :   -679.066696283223
           4 :    549.040401443257
           5 :   -417.410501409968
           6 :    301.223135950584
           7 :   -209.194094817181
           8 :    142.561772522525
           9 :   -98.0721798988363
          10 :    70.9575378658290
          11 :   -56.5712727117982
          12 :    50.5731383577797
          13 :   -48.5673329332039
          14 :    46.1372534437370
          15 :   -39.6562216627974
          16 :    27.4498667196323
          17 :   -10.5168386519365
          18 :   -7.81589414155269
          19 :    23.2689269343155
          20 :   -32.3830591594538
          21 :    33.8171744615825
          22 :   -28.6183758034276
          23 :    19.4854031077446
          24 :   -9.56859676111662
          25 :    1.45584696181868
          26 :    3.27516520106610
          27 :   -4.00569155901940
          28 :   0.850870415443296
          29 :    5.44712464395980
          30 :   -13.4910196565972
          31 :   -60.8766540405186
          32 :   -43.7609043748009

     Forces acting on atoms (Ry/au):

     negative rho (up, down):  1.376E+00 0.000E+00
     atom    1 type  1   force =     0.00123065    0.00071044    0.02038347
     atom    2 type  1   force =    -0.00123065    0.00071053    0.02038339
     atom    3 type  1   force =     0.00000007   -0.00142101    0.02038344
     atom    4 type  1   force =    -0.00000006    0.00000002    0.02325392
     atom    5 type  1   force =    -0.00000042    0.01066775   -0.02457881
     atom    6 type  1   force =     0.00000017    0.00000051   -0.01091291
     atom    7 type  1   force =    -0.00923809   -0.00533402   -0.02458213
     atom    8 type  1   force =     0.00923814   -0.00533451   -0.02458037
     atom    9 type  1   force =     0.00000087    0.00000188    0.00059136
     atom   10 type  1   force =    -0.00000124   -0.00145384    0.00005715
     atom   11 type  1   force =    -0.00126008    0.00072529    0.00005543
     atom   12 type  1   force =     0.00126030    0.00072675    0.00005362
     atom   13 type  2   force =     0.00000029    0.00000020   -0.00122005
     atom   14 type  3   force =     0.00000003    0.00000001    0.00071247

     Total force =     0.002949     Total SCF correction =     0.000811
     SCF correction compared to forces is large: reduce conv_thr to get better values

     entering subroutine stress ...

     negative rho (up, down):  1.376E+00 0.000E+00
          total   stress  (Ry/bohr**3)                   (kbar)     P=  -15.99
  -0.00011635   0.00000000   0.00000000        -17.12      0.00      0.00
   0.00000000  -0.00011635   0.00000000          0.00    -17.12      0.00
   0.00000000   0.00000000  -0.00009339          0.00      0.00    -13.74

     bfgs converged in  16 scf cycles and  15 bfgs steps
     (criteria: energy <  1.0E+00, force <  1.9E-03)

     End of BFGS Geometry Optimization

     Final energy   =   -1948.2106172464 Ry
Begin final coordinates

ATOMIC_POSITIONS (crystal)
Hf1      0.166666667   0.166666667   0.396510335    0   0   0
Hf1      0.666666667   0.166666667   0.396510335    0   0   0
Hf1      0.166666667   0.666666667   0.396510335    0   0   0
Hf1      0.666666667   0.666666667   0.396510335    0   0   0
Hf1      0.833333333   0.333333333   0.500000000    0   0   0
Hf1      0.333333333   0.333333333   0.500000000    0   0   0
Hf1      0.833333333   0.833333333   0.500000000    0   0   0
Hf1      0.333333333   0.833333333   0.500000000    0   0   0
Hf1      0.000000160  -0.000001618   0.600933904
Hf1      0.500746855  -0.001492215   0.597410713
Hf1     -0.001492106   0.500747281   0.597411099
Hf1      0.500745007   0.500746067   0.597411449
N1       0.000000510  -0.000000009   0.676266803
H1       0.000000584   0.000000250   0.716622666
End final coordinates

     Writing output data file calc.save

     General routines

     Parallel routines

   This run was terminated on:   4: 3: 6  18Apr2018

   JOB DONE.