     Program PWSCF v.5.1rc2 (svn rev. ) starts on 18Apr2018 at  9: 9: 2

     Current dimensions of program PWSCF are:
     Max number of different atomic species (ntypx) = 10
     Max number of k-points (npk) =  40000
     Max angular momentum in pseudopotentials (lmaxx) =  3
     Presently stress not available with electric field

     IMPORTANT: XC functional enforced from input :
     Exchange-correlation      = BEEF-VDW ( 1  4 27 13 2)
     Any further DFT definition will be discarded
     Please, verify this is what you really want

     Subspace diagonalization in iterative solution of the eigenvalue problem:
     a serial algorithm will be used

     bravais-lattice index     =            0
     lattice parameter (alat)  =       1.8897  a.u.
     unit-cell volume          =    6501.5726 (a.u.)^3
     number of atoms/cell      =           14
     number of atomic types    =            3
     number of electrons       =       163.00
     number of Kohn-Sham states=           91
     kinetic-energy cutoff     =      36.7493  Ry
     charge density cutoff     =     367.4932  Ry
     convergence threshold     =      1.0E-05
     mixing beta               =       0.3000
     number of iterations used =           10  plain     mixing
     Exchange-correlation      = BEEF-VDW ( 1  4 27 13 2)
     nstep                     =           50

     celldm(1)=   1.889726  celldm(2)=   0.000000  celldm(3)=   0.000000
     celldm(4)=   0.000000  celldm(5)=   0.000000  celldm(6)=   0.000000

     crystal axes: (cart. coord. in units of alat)
               a(1) = (   6.617606   0.000000   0.000000 )
               a(2) = (   3.308803   5.731015   0.000000 )
               a(3) = (   0.000000   0.000000  25.403253 )

     reciprocal axes: (cart. coord. in units 2 pi/alat)
               b(1) = (  0.151112 -0.087245  0.000000 )
               b(2) = (  0.000000  0.174489  0.000000 )
               b(3) = (  0.000000  0.000000  0.039365 )

     PseudoPot. # 1 for In read from file:
     /home/mamunm/src/pseudo/gbrv1.5pbe/In.UPF
     MD5 check sum: 90777abd96fbb83f2e67db2a40c566b9
     Pseudo is Ultrasoft + core correction, Zval = 13.0
     Generated by new atomic code, or converted to UPF format
     Using radial grid of  889 points,  6 beta functions with:
                l(1) =   0
                l(2) =   0
                l(3) =   1
                l(4) =   1
                l(5) =   2
                l(6) =   2
     Q(r) pseudized with  6 coefficients,  rinner =    1.400   1.400   1.400
                                                       1.400   1.400

     PseudoPot. # 2 for S  read from file:
     /home/mamunm/src/pseudo/gbrv1.5pbe/S.UPF
     MD5 check sum: 88d86576ff6df21479756cfb9bdac1df
     Pseudo is Ultrasoft + core correction, Zval =  6.0
     Generated by new atomic code, or converted to UPF format
     Using radial grid of  907 points,  6 beta functions with:
                l(1) =   0
                l(2) =   0
                l(3) =   1
                l(4) =   1
                l(5) =   2
                l(6) =   2
     Q(r) pseudized with  8 coefficients,  rinner =    1.300   1.300   1.300
                                                       1.300   1.300

     PseudoPot. # 3 for H  read from file:
     /home/mamunm/src/pseudo/gbrv1.5pbe/H.UPF
     MD5 check sum: 761ae9a214b05c3daf00ab9f6b793d6f
     Pseudo is Ultrasoft, Zval =  1.0
     Generated by new atomic code, or converted to UPF format
     Using radial grid of  615 points,  2 beta functions with:
                l(1) =   0
                l(2) =   0
     Q(r) pseudized with  8 coefficients,  rinner =    0.700

     vdW kernel table read from file vdW_kernel_table
     MD5 check sum: 095c7af220d748ca6e76c0b4c6cfb241

     atomic species   valence    mass     pseudopotential
        In1           13.00   114.81800     In( 1.00)
        S1             6.00    32.06000     S ( 1.00)
        H1             1.00     1.00800     H ( 1.00)

     No symmetry found

   Cartesian axes

     site n.     atom                  positions (alat units)
         1           In1 tau(   1) = (   1.6544016   0.9551692  10.0000000  )
         2           In1 tau(   2) = (   4.9632047   0.9551692  10.0000000  )
         3           In1 tau(   3) = (   3.3088031   3.8206768  10.0000000  )
         4           In1 tau(   4) = (   6.6176063   3.8206768  10.0000000  )
         5           In1 tau(   5) = (   6.6176063   1.9103384  12.7016265  )
         6           In1 tau(   6) = (   3.3088031   1.9103384  12.7016265  )
         7           In1 tau(   7) = (   8.2720078   4.7758460  12.7016265  )
         8           In1 tau(   8) = (   4.9632047   4.7758460  12.7016265  )
         9           In1 tau(   9) = (   0.0000000   0.0000000  15.4032529  )
        10           In1 tau(  10) = (   3.3088031   0.0000000  15.4032529  )
        11           In1 tau(  11) = (   1.6544016   2.8655076  15.4032529  )
        12           In1 tau(  12) = (   4.9632047   2.8655076  15.4032529  )
        13           S1  tau(  13) = (   0.0000000   0.0000000  17.5027529  )
        14           H1  tau(  14) = (   0.0000000   0.0000000  18.7527529  )

     number of k points=    20  Fermi-Dirac smearing, width (Ry)=  0.0110
                       cart. coord. in units 2pi/alat
        k(    1) = (   0.0000000   0.0000000   0.0000000), wk =   0.0555556
        k(    2) = (   0.0000000   0.0290815   0.0000000), wk =   0.1111111
        k(    3) = (   0.0000000   0.0581631   0.0000000), wk =   0.1111111
        k(    4) = (   0.0000000  -0.0872446   0.0000000), wk =   0.0555556
        k(    5) = (   0.0251853  -0.0145408   0.0000000), wk =   0.1111111
        k(    6) = (   0.0251853   0.0145408   0.0000000), wk =   0.1111111
        k(    7) = (   0.0251853   0.0436223   0.0000000), wk =   0.1111111
        k(    8) = (   0.0251853  -0.1017853   0.0000000), wk =   0.1111111
        k(    9) = (   0.0251853  -0.0727038   0.0000000), wk =   0.1111111
        k(   10) = (   0.0251853  -0.0436223   0.0000000), wk =   0.1111111
        k(   11) = (   0.0503707  -0.0290815   0.0000000), wk =   0.1111111
        k(   12) = (   0.0503707   0.0000000   0.0000000), wk =   0.1111111
        k(   13) = (   0.0503707   0.0290815   0.0000000), wk =   0.1111111
        k(   14) = (   0.0503707  -0.1163261   0.0000000), wk =   0.1111111
        k(   15) = (   0.0503707  -0.0872446   0.0000000), wk =   0.1111111
        k(   16) = (   0.0503707  -0.0581631   0.0000000), wk =   0.1111111
        k(   17) = (  -0.0755560   0.0436223   0.0000000), wk =   0.0555556
        k(   18) = (  -0.0755560   0.0727038   0.0000000), wk =   0.1111111
        k(   19) = (  -0.0755560   0.1017853   0.0000000), wk =   0.1111111
        k(   20) = (  -0.0755560  -0.0436223   0.0000000), wk =   0.0555556

     Largest allocated arrays     est. size (Mb)     dimensions
     Largest temporary arrays     est. size (Mb)     dimensions

     Initial potential from superposition of free atoms
     Check: negative starting charge=   -0.000145

     starting charge  144.99995, renormalised to  163.00000

     negative rho (up, down):  1.632E-04 0.000E+00

     *
     * You are using vdW-DF for exchange-correlation in this calculation.
     * Please cite the following three references that made this development
     * possible:
     *
     *   M. Dion, H. Rydberg, E. Schroder, D. C. Langreth, and
     *   B. I. Lundqvist, Phys. Rev. Lett. 92, 246401 (2004).
     *
     *   T. Thonhauser, V. R. Cooper, S. Li, A. Puzder, P. Hyldgaard, and
     *   D. C. Langreth, Phys. Rev. B 76, 125112 (2007).
     *
     *   G. Roman-Perez and J. M. Soler, Phys. Rev. Lett. 103, 096102 (2009).
     *
     *
     * If you are using vdW-DF2, please also cite:
     *
     *   K. Lee, E. D. Murray, L. Kong, B. I. Lundqvist, and
     *   D. C. Langreth, Phys. Rev. B 82, 081101(R) (2010).
     *
     *
     * If you are calculating the stress with vdW-DF, please also cite:
     *
     *   R. Sabatini, E. Kucukbenli, B. Kolb, T. Thonhauser, and
     *   S. de Gironcoli, J. Phys.: Condens. Matter 24, 424209 (2012).
     *

     Carrying out vdW-DF run using the following parameters:

     Nqs =      20    Nr_points =    1024   r_max =   100.000
     q_mesh =
               0.00001000     0.04494208     0.09755937     0.15916263
               0.23128650     0.31572767     0.41458969     0.53033537
               0.66584808     0.82450364     1.01025438     1.22772762
               1.48234092     1.78043706     2.12944203     2.53805004
               3.01644009     3.57652955     4.23227104     5.00000000

     Gradients computed in reciprocal space

     Adding external electric field

     Computed dipole along edir(3) :
        Dipole               -8.1767 Ry au,        -20.7832 Debye
        Dipole field         -0.0158 Ry au

        Potential amp.        1.4794 Ry
        Total length         46.8051 bohr

     Starting wfc are  113 randomized atomic wfcs

     Self-consistent Calculation

     iteration #  1     ecut=    36.75 Ry     beta=0.30
     Davidson diagonalization with overlap
     ethr =  1.00E-02,  avg # of iterations =  8.8

[...]

     total energy              =    -844.92049350 Ry
     Harris-Foulkes estimate   =   -1616.26005413 Ry
     estimated scf accuracy    <    1645.27325968 Ry

[...]

     iteration #  4     ecut=    36.75 Ry     beta=0.30
     Davidson diagonalization with overlap
     c_bands:  1 eigenvalues not converged
     ethr =  1.00E-02,  avg # of iterations = 17.1

[...]

     End of self-consistent calculation

          k = 0.0000 0.0000 0.0000 ( 24345 PWs)   bands (ev):

   -15.5623 -14.6343 -14.6343 -14.5938 -14.5938 -14.4642 -14.4536 -14.4536
   -14.3884 -14.3641 -14.3631 -14.3631 -14.3564 -14.3521 -14.3520 -14.3384
   -14.3111 -14.2912 -14.2912 -14.2881 -14.2881 -14.2844 -14.2752 -14.2752
   -14.2533 -14.2497 -14.2464 -14.2464 -14.2401 -14.2401 -14.2032 -14.1749
   -14.1749 -14.1284 -14.1284 -14.1188 -14.0893 -14.0893 -14.0793 -14.0793
   -14.0378 -14.0378 -14.0258 -14.0251 -14.0251 -14.0233 -14.0158 -14.0158
   -13.9991 -13.9991 -13.9838 -13.9786 -13.9666 -13.9666 -13.9640 -13.9640
   -13.9445 -13.9342 -13.9342 -13.9270 -12.8219  -8.5535  -7.5495  -6.3897
    -4.6557  -3.7000  -3.7000  -3.6043  -3.3800  -3.3800  -3.1771  -2.5214
    -2.5214  -2.0624  -2.0624  -1.9421  -1.7946  -1.2705  -1.2705  -1.1122
    -0.1831  -0.1831  -0.0478   0.3656   0.3656   0.4348   1.8193   3.3925
     3.4134   3.4136   3.4429

[...]

          k =-0.0756 0.0436 0.0000 ( 24448 PWs)   bands (ev):

[...]

     the Fermi energy is     0.6964 ev

!    total energy              =   -1642.79749190 Ry
     Harris-Foulkes estimate   =   -1642.79749185 Ry
     estimated scf accuracy    <       0.00000128 Ry

     The total energy is the sum of the following terms:

     one-electron contribution =   -9385.74446793 Ry
     hartree contribution      =    4775.02899491 Ry
     xc contribution           =    -479.31300809 Ry
     ewald contribution        =    3447.27059090 Ry
     electric field correction =       0.00000978 Ry
     smearing contrib. (-TS)   =      -0.03961147 Ry

     convergence has been achieved in  31 iterations

 BEEF-vdW xc energy contributions
           1 :   -419.621362130985
           2 :    383.244862715720
           3 :   -321.852570189409
           4 :    252.698041954307
           5 :   -191.521279939439
           6 :    146.914038204850
           7 :   -118.706476089515
           8 :    100.526866670551
           9 :   -84.6655159605428
          10 :    66.4293938755264
          11 :   -45.8462709835104
          12 :    26.3292747117345
          13 :   -11.6795225986816
          14 :    3.49908539004235
          15 :  -0.464528560949702
          16 :  -0.476665072147512
          17 :    2.08686384143596
          18 :   -5.38702699949317
          19 :    9.54597115768416
          20 :   -12.9111235856554
          21 :    14.3084217415040
          22 :   -13.7439023345690
          23 :    12.1886624813192
          24 :   -10.7876913342326
          25 :    10.1382304425307
          26 :   -10.1007088432004
          27 :    10.1392965516069
          28 :   -9.82571766288083
          29 :    9.10939066634114
          30 :   -8.22252868271471
          31 :   -38.3327465497232
          32 :   -27.7932866596160

     Forces acting on atoms (Ry/au):

     negative rho (up, down):  1.047E-03 0.000E+00
     atom    1 type  1   force =     0.00218417    0.00128480   -0.00945423
     atom    2 type  1   force =    -0.00218108    0.00126805   -0.00953182
     atom    3 type  1   force =     0.00002867   -0.00256801   -0.00949550
     atom    4 type  1   force =     0.00004549    0.00000660   -0.01100535
     atom    5 type  1   force =    -0.00002174    0.00230322   -0.00112370
     atom    6 type  1   force =     0.00001481   -0.00000606   -0.00352440
     atom    7 type  1   force =    -0.00199378   -0.00113890   -0.00111472
     atom    8 type  1   force =     0.00197248   -0.00113895   -0.00112201
     atom    9 type  1   force =    -0.00003371   -0.00002298   -0.24222616
     atom   10 type  1   force =    -0.00000254    0.00037649    0.00607978
     atom   11 type  1   force =     0.00030636   -0.00019394    0.00608180
     atom   12 type  1   force =    -0.00031540   -0.00016889    0.00604740
     atom   13 type  2   force =    -0.00000233   -0.00000038    0.14225117
     atom   14 type  3   force =    -0.00000139   -0.00000105    0.12813773

     Total force =     0.308932     Total SCF correction =     0.001039

     entering subroutine stress ...

     negative rho (up, down):  1.047E-03 0.000E+00
          total   stress  (Ry/bohr**3)                   (kbar)     P=   20.35
   0.00006636   0.00000000   0.00000000          9.76      0.00      0.00
   0.00000000   0.00006636   0.00000000          0.00      9.76      0.00
   0.00000000   0.00000000   0.00028232          0.00      0.00     41.53

     BFGS Geometry Optimization

     number of scf cycles    =   1
     number of bfgs steps    =   0

     energy   new            =   -1642.7974918950 Ry

     new trust radius        =       0.2422261613 bohr
     new conv_thr            =       0.0000099958 Ry

ATOMIC_POSITIONS (crystal)
In1      0.166666667   0.166666667   0.393650374    0   0   0
In1      0.666666667   0.166666667   0.393650374    0   0   0
In1      0.166666667   0.666666667   0.393650374    0   0   0
In1      0.666666667   0.666666667   0.393650374    0   0   0
In1      0.833333333   0.333333333   0.500000000    0   0   0
In1      0.333333333   0.333333333   0.500000000    0   0   0
In1      0.833333333   0.833333333   0.500000000    0   0   0
In1      0.333333333   0.833333333   0.500000000    0   0   0
In1     -0.000001634  -0.000002122   0.601303794
In1      0.499982415   0.000034763   0.606476275
In1      0.000033452   0.499982093   0.606476317
In1      0.499982576   0.499984406   0.606475600
S1      -0.000000169  -0.000000035   0.691959768
H1      -0.000000062  -0.000000097   0.740872066

     Writing output data file calc.save
     Check: negative starting charge=   -0.000145
     NEW-OLD atomic charge density approx. for the potential
     Check: negative starting charge=   -0.000145

[...]

     energy   old            =   -1642.7974918950 Ry
     energy   new            =   -1642.8573863953 Ry

     CASE: energy  _new < energy  _old

[...]

     Total force =     0.016805     Total SCF correction =     0.000509

[...]

     Total force =     0.008533     Total SCF correction =     0.000877
     SCF correction compared to forces is large: reduce conv_thr to get better values

[...]

     number of scf cycles    =  13
     number of bfgs steps    =  12

     energy   old            =   -1642.9138580208 Ry
     energy   new            =   -1642.9152504377 Ry

     CASE: energy  _new < energy  _old

     new trust radius        =       0.0902784607 bohr
     new conv_thr            =       0.0000001000 Ry

ATOMIC_POSITIONS (crystal)
In1      0.166666667   0.166666667   0.393650374    0   0   0
In1      0.666666667   0.166666667   0.393650374    0   0   0
In1      0.166666667   0.666666667   0.393650374    0   0   0
In1      0.666666667   0.666666667   0.393650374    0   0   0
In1      0.833333333   0.333333333   0.500000000    0   0   0
In1      0.333333333   0.333333333   0.500000000    0   0   0
In1      0.833333333   0.833333333   0.500000000    0   0   0
In1      0.333333333   0.833333333   0.500000000    0   0   0
In1     -0.000002620  -0.000002965   0.604273108
In1      0.500246197  -0.000500833   0.627912716
In1     -0.000502166   0.500247149   0.627912880
In1      0.500249347   0.500250016   0.627912378
S1       0.000009812   0.000015127   0.714623167
H1      -0.000004693  -0.000007609   0.767911713

     Writing output data file calc.save
     Check: negative starting charge=   -0.000132
     NEW-OLD atomic charge density approx. for the potential
     Check: negative starting charge=   -0.000131

[...]

     Self-consistent Calculation

[...]

     total energy              =   -1642.91589183 Ry
     Harris-Foulkes estimate   =   -1642.91589170 Ry
     estimated scf accuracy    <       0.00000022 Ry

     iteration #  9     ecut=    36.75 Ry     beta=0.30
     Davidson diagonalization with overlap
     ethr =  1.35E-10,  avg # of iterations =  2.0

[...]

     negative rho (up, down):  9.287E-04 0.000E+00

     Adding external electric field

     Computed dipole along edir(3) :
        Dipole               -0.4292 Ry au,         -1.0909 Debye
        Dipole field         -0.0008 Ry au

        Potential amp.        0.0777 Ry
        Total length         46.8051 bohr

     End of self-consistent calculation

[...]

          k = 0.0504-0.0582 0.0000 ( 24479 PWs)   bands (ev):

[...]

          k =-0.0756-0.0436 0.0000 ( 24448 PWs)   bands (ev):

   -14.7200 -14.7121 -14.6841 -14.6787 -14.6635 -14.6555 -14.6498 -14.6467
   -14.6401 -14.6287 -14.6220 -14.6139 -14.6125 -14.5996 -14.5937 -14.5931
   -14.5873 -14.5775 -14.5770 -14.5707 -14.5616 -14.5459 -14.5449 -14.5439
   -14.5408 -14.5381 -14.5329 -14.5303 -14.5207 -14.5197 -14.5195 -14.5094
   -14.5014 -14.4835 -14.4795 -14.4737 -14.4677 -14.4675 -14.4569 -14.4542
   -14.4523 -14.4432 -14.4313 -14.4311 -14.4235 -14.4198 -14.4190 -14.4140
   -14.4108 -14.4058 -14.4001 -14.3957 -14.3759 -14.3687 -14.3575 -14.3550
   -14.3467 -14.3336 -14.3063 -14.2975 -11.7423  -7.4035  -7.2823  -6.2057
    -5.9874  -4.8582  -4.8433  -4.8074  -4.5009  -4.1023  -3.5883  -3.2604
    -2.2387  -2.0380  -0.9810  -0.6221  -0.2937  -0.2443   0.0541   0.1126
     0.5616   0.5927   1.2003   1.3289   1.4013   1.8023   1.9089   2.2921
     2.5812   2.6298   2.8398

     the Fermi energy is     0.3649 ev

!    total energy              =   -1642.91589194 Ry
     Harris-Foulkes estimate   =   -1642.91589108 Ry
     estimated scf accuracy    <       0.00000003 Ry

     The total energy is the sum of the following terms:

     one-electron contribution =   -8757.49333841 Ry
     hartree contribution      =    4459.56913735 Ry
     xc contribution           =    -478.83294562 Ry
     ewald contribution        =    3133.88205636 Ry
     electric field correction =       0.00035605 Ry
     smearing contrib. (-TS)   =      -0.04115767 Ry

     convergence has been achieved in   9 iterations

 BEEF-vdW xc energy contributions
           1 :   -419.119973751137
           2 :    382.487532445631
           3 :   -320.790228753720
           4 :    251.543984300298
           5 :   -190.610289577908
           6 :    146.469437406993
           7 :   -118.689771784986
           8 :    100.676123358392
           9 :   -84.6839043268448
          10 :    66.1831683970810
          11 :   -45.4344001303967
          12 :    25.9877366145466
          13 :   -11.6023890912091
          14 :    3.70888777692460
          15 :  -0.815290998033447
          16 :  -0.180784380413058
          17 :    1.95451010517826
          18 :   -5.38523016649424
          19 :    9.55727029756986
          20 :   -12.8444086698054
          21 :    14.1708554610963
          22 :   -13.6211824169712
          23 :    12.1595403542915
          24 :   -10.8504999103326
          25 :    10.2123156079855
          26 :   -10.0989435304374
          27 :    10.0473670804108
          28 :   -9.71975257235567
          29 :    9.09621093256811
          30 :   -8.35145105354246
          31 :   -38.2910826428590
          32 :   -27.6861338025728

     Forces acting on atoms (Ry/au):

     negative rho (up, down):  9.287E-04 0.000E+00
     atom    1 type  1   force =     0.00035105    0.00020272   -0.01270262
     atom    2 type  1   force =    -0.00035105    0.00020289   -0.01270234
     atom    3 type  1   force =     0.00000015   -0.00040546   -0.01270231
     atom    4 type  1   force =    -0.00000018   -0.00000012   -0.01109473
     atom    5 type  1   force =     0.00000009    0.00749769    0.01155677
     atom    6 type  1   force =    -0.00000049   -0.00000034    0.01674526
     atom    7 type  1   force =    -0.00649302   -0.00374877    0.01155677
     atom    8 type  1   force =     0.00649313   -0.00374875    0.01155674
     atom    9 type  1   force =    -0.00000306   -0.00000202    0.00025029
     atom   10 type  1   force =    -0.00000087    0.00019493   -0.00039522
     atom   11 type  1   force =     0.00016827   -0.00009851   -0.00039520
     atom   12 type  1   force =    -0.00016933   -0.00009810   -0.00039521
     atom   13 type  2   force =     0.00001022    0.00000755   -0.00069503
     atom   14 type  3   force =    -0.00000491   -0.00000369   -0.00058316

     Total force =     0.001212     Total SCF correction =     0.000420
     SCF correction compared to forces is large: reduce conv_thr to get better values

     entering subroutine stress ...

     negative rho (up, down):  9.287E-04 0.000E+00
          total   stress  (Ry/bohr**3)                   (kbar)     P=    3.37
   0.00001979  -0.00000000   0.00000000          2.91     -0.00      0.00
  -0.00000000   0.00001979   0.00000000         -0.00      2.91      0.00
   0.00000000   0.00000000   0.00002924          0.00      0.00      4.30

     bfgs converged in  14 scf cycles and  13 bfgs steps
     (criteria: energy <  1.0E+00, force <  1.9E-03)

     End of BFGS Geometry Optimization

     Final energy   =   -1642.9158919433 Ry
Begin final coordinates

ATOMIC_POSITIONS (crystal)
In1      0.166666667   0.166666667   0.393650374    0   0   0
In1      0.666666667   0.166666667   0.393650374    0   0   0
In1      0.166666667   0.666666667   0.393650374    0   0   0
In1      0.666666667   0.666666667   0.393650374    0   0   0
In1      0.833333333   0.333333333   0.500000000    0   0   0
In1      0.333333333   0.333333333   0.500000000    0   0   0
In1      0.833333333   0.833333333   0.500000000    0   0   0
In1      0.333333333   0.833333333   0.500000000    0   0   0
In1     -0.000002620  -0.000002965   0.604273108
In1      0.500246197  -0.000500833   0.627912716
In1     -0.000502166   0.500247149   0.627912880
In1      0.500249347   0.500250016   0.627912378
S1       0.000009812   0.000015127   0.714623167
H1      -0.000004693  -0.000007609   0.767911713
End final coordinates

     Writing output data file calc.save

     General routines

     Parallel routines

   This run was terminated on:  10:29:49  18Apr2018

   JOB DONE.