     Program PWSCF v.5.1rc2 (svn rev. ) starts on 16Apr2018 at 11:48:33

     Current dimensions of program PWSCF are:
     Max number of different atomic species (ntypx) = 10
     Max number of k-points (npk) =  40000
     Max angular momentum in pseudopotentials (lmaxx) =  3
     Presently stress not available with electric field

     IMPORTANT: XC functional enforced from input :
     Exchange-correlation      = BEEF-VDW ( 1  4 27 13 2)
     Any further DFT definition will be discarded
     Please, verify this is what you really want

     Subspace diagonalization in iterative solution of the eigenvalue problem:
     a serial algorithm will be used

     bravais-lattice index     =            0
     lattice parameter (alat)  =       1.8897  a.u.
     unit-cell volume          =    5144.9564 (a.u.)^3
     number of atoms/cell      =           14
     number of atomic types    =            3
     number of electrons       =       139.00
     number of Kohn-Sham states=           79
     kinetic-energy cutoff     =      36.7493  Ry
     charge density cutoff     =     367.4932  Ry
     convergence threshold     =      1.0E-05
     mixing beta               =       0.3000
     number of iterations used =           10  plain     mixing
     Exchange-correlation      = BEEF-VDW ( 1  4 27 13 2)
     nstep                     =           50

     celldm(1)=   1.889726  celldm(2)=   0.000000  celldm(3)=   0.000000
     celldm(4)=   0.000000  celldm(5)=   0.000000  celldm(6)=   0.000000

     crystal axes: (cart. coord. in units of alat)
               a(1) = (   5.950946   0.000000   0.000000 )
               a(2) = (   2.975473   5.153671   0.000000 )
               a(3) = (   0.000000   0.000000  24.858927 )

     reciprocal axes: (cart. coord. in units 2 pi/alat)
               b(1) = (  0.168040 -0.097018  0.000000 )
               b(2) = (  0.000000  0.194036  0.000000 )
               b(3) = (  0.000000  0.000000  0.040227 )

     PseudoPot. # 1 for Au read from file:
     /home/mamunm/src/pseudo/gbrv1.5pbe/Au.UPF
     MD5 check sum: 9d7f43293ad2c663164586bc4b293ffc
     Pseudo is Ultrasoft + core correction, Zval = 11.0
     Generated by new atomic code, or converted to UPF format
     Using radial grid of  985 points,  7 beta functions with:
                l(1) =   0
                l(2) =   0
                l(3) =   1
                l(4) =   1
                l(5) =   2
                l(6) =   2
                l(7) =   3
     Q(r) pseudized with  6 coefficients,  rinner =    1.900   1.900   1.900
                                                       1.900   1.900   1.900
                                                       1.900

     PseudoPot. # 2 for O  read from file:
     /home/mamunm/src/pseudo/gbrv1.5pbe/O.UPF
     MD5 check sum: 734c27235a0248c51dbae37a1fbe46ec
     Pseudo is Ultrasoft + core correction, Zval =  6.0
     Generated by new atomic code, or converted to UPF format
     Using radial grid of  737 points,  5 beta functions with:
                l(1) =   0
                l(2) =   0
                l(3) =   1
                l(4) =   1
                l(5) =   2
     Q(r) pseudized with  8 coefficients,  rinner =    0.900   0.900   0.900
                                                       0.900   0.900

     PseudoPot. # 3 for H  read from file:
     /home/mamunm/src/pseudo/gbrv1.5pbe/H.UPF
     MD5 check sum: 761ae9a214b05c3daf00ab9f6b793d6f
     Pseudo is Ultrasoft, Zval =  1.0
     Generated by new atomic code, or converted to UPF format
     Using radial grid of  615 points,  2 beta functions with:
                l(1) =   0
                l(2) =   0
     Q(r) pseudized with  8 coefficients,  rinner =    0.700

     vdW kernel table read from file vdW_kernel_table
     MD5 check sum: 095c7af220d748ca6e76c0b4c6cfb241

     atomic species   valence    mass     pseudopotential
        Au1           11.00   196.96657     Au( 1.00)
        O1             6.00    15.99900     O ( 1.00)
        H1             1.00     1.00800     H ( 1.00)

     No symmetry found

   Cartesian axes

     site n.     atom                  positions (alat units)
         1           Au1 tau(   1) = (   1.4877366   0.8589451  10.0000000  )
         2           Au1 tau(   2) = (   4.4632098   0.8589451  10.0000000  )
         3           Au1 tau(   3) = (   2.9754732   3.4357805  10.0000000  )
         4           Au1 tau(   4) = (   5.9509464   3.4357805  10.0000000  )
         5           Au1 tau(   5) = (   5.9509464   1.7178903  12.4294637  )
         6           Au1 tau(   6) = (   2.9754732   1.7178903  12.4294637  )
         7           Au1 tau(   7) = (   7.4386830   4.2947256  12.4294637  )
         8           Au1 tau(   8) = (   4.4632098   4.2947256  12.4294637  )
         9           Au1 tau(   9) = (   0.0000000   0.0000000  14.8589274  )
        10           Au1 tau(  10) = (   2.9754732   0.0000000  14.8589274  )
        11           Au1 tau(  11) = (   1.4877366   2.5768354  14.8589274  )
        12           Au1 tau(  12) = (   4.4632098   2.5768354  14.8589274  )
        13           O1  tau(  13) = (   0.0000000   0.0000000  16.5759274  )
        14           H1  tau(  14) = (   0.0000000   0.0000000  17.5259274  )

     number of k points=    20  Fermi-Dirac smearing, width (Ry)=  0.0110
                       cart. coord. in units 2pi/alat
        k(    1) = (   0.0000000   0.0000000   0.0000000), wk =   0.0555556
        k(    2) = (   0.0000000   0.0323394   0.0000000), wk =   0.1111111
        k(    3) = (   0.0000000   0.0646788   0.0000000), wk =   0.1111111
        k(    4) = (   0.0000000  -0.0970182   0.0000000), wk =   0.0555556
        k(    5) = (   0.0280067  -0.0161697   0.0000000), wk =   0.1111111
        k(    6) = (   0.0280067   0.0161697   0.0000000), wk =   0.1111111
        k(    7) = (   0.0280067   0.0485091   0.0000000), wk =   0.1111111
        k(    8) = (   0.0280067  -0.1131879   0.0000000), wk =   0.1111111
        k(    9) = (   0.0280067  -0.0808485   0.0000000), wk =   0.1111111
        k(   10) = (   0.0280067  -0.0485091   0.0000000), wk =   0.1111111
        k(   11) = (   0.0560135  -0.0323394   0.0000000), wk =   0.1111111
        k(   12) = (   0.0560135   0.0000000   0.0000000), wk =   0.1111111
        k(   13) = (   0.0560135   0.0323394   0.0000000), wk =   0.1111111
        k(   14) = (   0.0560135  -0.1293576   0.0000000), wk =   0.1111111
        k(   15) = (   0.0560135  -0.0970182   0.0000000), wk =   0.1111111
        k(   16) = (   0.0560135  -0.0646788   0.0000000), wk =   0.1111111
        k(   17) = (  -0.0840202   0.0485091   0.0000000), wk =   0.0555556
        k(   18) = (  -0.0840202   0.0808485   0.0000000), wk =   0.1111111
        k(   19) = (  -0.0840202   0.1131879   0.0000000), wk =   0.1111111
        k(   20) = (  -0.0840202  -0.0485091   0.0000000), wk =   0.0555556

     Largest allocated arrays     est. size (Mb)     dimensions
     Largest temporary arrays     est. size (Mb)     dimensions

     Check: negative/imaginary core charge=   -0.000002    0.000000

     Initial potential from superposition of free atoms
     Check: negative starting charge=   -0.000239

     starting charge  138.99852, renormalised to  139.00000

     negative rho (up, down):  2.387E-04 0.000E+00

     *
     * You are using vdW-DF for exchange-correlation in this calculation.
     * Please cite the following three references that made this development
     * possible:
     *
     *   M. Dion, H. Rydberg, E. Schroder, D. C. Langreth, and
     *   B. I. Lundqvist, Phys. Rev. Lett. 92, 246401 (2004).
     *
     *   T. Thonhauser, V. R. Cooper, S. Li, A. Puzder, P. Hyldgaard, and
     *   D. C. Langreth, Phys. Rev. B 76, 125112 (2007).
     *
     *   G. Roman-Perez and J. M. Soler, Phys. Rev. Lett. 103, 096102 (2009).
     *
     *
     * If you are using vdW-DF2, please also cite:
     *
     *   K. Lee, E. D. Murray, L. Kong, B. I. Lundqvist, and
     *   D. C. Langreth, Phys. Rev. B 82, 081101(R) (2010).
     *
     *
     * If you are calculating the stress with vdW-DF, please also cite:
     *
     *   R. Sabatini, E. Kucukbenli, B. Kolb, T. Thonhauser, and
     *   S. de Gironcoli, J. Phys.: Condens. Matter 24, 424209 (2012).
     *

     Carrying out vdW-DF run using the following parameters:

     Nqs =      20    Nr_points =    1024   r_max =   100.000
     q_mesh =
               0.00001000     0.04494208     0.09755937     0.15916263
               0.23128650     0.31572767     0.41458969     0.53033537
               0.66584808     0.82450364     1.01025438     1.22772762
               1.48234092     1.78043706     2.12944203     2.53805004
               3.01644009     3.57652955     4.23227104     5.00000000

     Gradients computed in reciprocal space

     Adding external electric field

     Computed dipole along edir(3) :
        Dipole               -0.0005 Ry au,         -0.0013 Debye
        Dipole field         -0.0000 Ry au

        Potential amp.        0.0001 Ry
        Total length         45.8022 bohr

     Starting wfc are  113 randomized atomic wfcs

     Self-consistent Calculation

     iteration #  1     ecut=    36.75 Ry     beta=0.30
     Davidson diagonalization with overlap
     ethr =  1.00E-02,  avg # of iterations =  2.4

     Threshold (ethr) on eigenvalues was too large:
     Diagonalizing with lowered threshold

     Davidson diagonalization with overlap
     ethr =  8.01E-04,  avg # of iterations =  1.5

[...]

     total energy              =   -1433.82487079 Ry
     Harris-Foulkes estimate   =   -1434.30842086 Ry
     estimated scf accuracy    <       1.16883901 Ry

[...]

     End of self-consistent calculation

          k = 0.0000 0.0000 0.0000 ( 19315 PWs)   bands (ev):

   -19.2381  -9.2524  -7.5281  -6.1341  -5.8011  -5.6537  -5.6537  -5.5019
    -5.3866  -5.3866  -5.3089  -5.2799  -5.2799  -5.0142  -4.9451  -4.9451
    -4.8963  -4.7096  -4.7096  -3.9053  -3.8315  -3.8315  -3.7679  -3.6824
    -3.6824  -3.6716  -3.4970  -3.4970  -3.4364  -3.4364  -3.3465  -3.3008
    -3.3008  -3.1333  -3.0357  -3.0357  -2.7368  -2.7368  -2.4250  -2.4250
    -2.3721  -2.3346  -2.2686  -2.2686  -2.0610  -2.0228  -2.0228  -1.7806
    -1.7806  -1.6548  -1.5944  -1.5944  -1.5474  -1.5474  -1.4624  -1.4623
    -1.4430  -1.2798  -1.2798  -1.2286  -1.1830  -1.1830  -1.1706  -1.1078
    -0.7570  -0.7570   0.0253   1.0484   1.2048   1.2048   1.5523   1.7626
     1.8957   1.8957   2.0575   2.3887   2.3888   3.7300   3.7301

[...]

          k =-0.0840 0.0485 0.0000 ( 19380 PWs)   bands (ev):

[...]

     the Fermi energy is     0.4866 ev

!    total energy              =   -1434.02159324 Ry
     Harris-Foulkes estimate   =   -1434.02160320 Ry
     estimated scf accuracy    <       0.00000858 Ry

     The total energy is the sum of the following terms:

     one-electron contribution =   -8354.27091601 Ry
     hartree contribution      =    4277.66866851 Ry
     xc contribution           =    -776.66579161 Ry
     ewald contribution        =    3419.27560996 Ry
     electric field correction =       0.00011648 Ry
     smearing contrib. (-TS)   =      -0.02928057 Ry

     convergence has been achieved in  10 iterations

 BEEF-vdW xc energy contributions
           1 :   -693.980117600093
           2 :    644.752392547505
           3 :   -556.891778001221
           4 :    447.597212170732
           5 :   -335.254150841508
           6 :    234.732935343429
           7 :   -154.668745257257
           8 :    97.0789427743001
           9 :   -58.9954559380157
          10 :    35.1194138310713
          11 :   -20.3210535723886
          12 :    11.0702753065049
          13 :   -5.56436387290148
          14 :    2.95153426009631
          15 :   -2.40173596066995
          16 :    2.62488517637314
          17 :   -2.04222856297645
          18 :  -0.597090705012420
          19 :    5.57486242834341
          20 :   -11.9660613306888
          21 :    17.9856938044667
          22 :   -21.7787313251345
          23 :    22.2513589036656
          24 :   -19.5334312197876
          25 :    14.8587882578811
          26 :   -9.95980018431612
          27 :    6.29828733567331
          28 :   -4.51409057744684
          29 :    4.32866772953355
          30 :   -4.90175221775314
          31 :   -55.0209414740260
          32 :   -40.0392658906169

     Forces acting on atoms (Ry/au):

     negative rho (up, down):  4.836E-04 0.000E+00
     atom    1 type  1   force =    -0.00095709   -0.00056590   -0.00330114
     atom    2 type  1   force =     0.00095521   -0.00055599   -0.00330626
     atom    3 type  1   force =    -0.00000274    0.00111069   -0.00331516
     atom    4 type  1   force =     0.00000329    0.00000620    0.00244542
     atom    5 type  1   force =     0.00000119   -0.00482832    0.00422849
     atom    6 type  1   force =    -0.00000653    0.00000628    0.00261801
     atom    7 type  1   force =     0.00418046    0.00241811    0.00421846
     atom    8 type  1   force =    -0.00418433    0.00240894    0.00420998
     atom    9 type  1   force =     0.00000063    0.00000204   -0.43371323
     atom   10 type  1   force =     0.00000420    0.00142076   -0.00718760
     atom   11 type  1   force =     0.00123963   -0.00071142   -0.00719660
     atom   12 type  1   force =    -0.00123514   -0.00071219   -0.00720208
     atom   13 type  2   force =     0.00000029   -0.00000011    0.41391357
     atom   14 type  3   force =     0.00000092    0.00000092    0.03358814

     Total force =     0.600601     Total SCF correction =     0.006561

     entering subroutine stress ...

     negative rho (up, down):  4.836E-04 0.000E+00
          total   stress  (Ry/bohr**3)                   (kbar)     P=    6.75
  -0.00008316   0.00000000   0.00000000        -12.23      0.00      0.00
   0.00000000  -0.00008316  -0.00000000          0.00    -12.23     -0.00
   0.00000000  -0.00000000   0.00030406          0.00     -0.00     44.73

     BFGS Geometry Optimization

     number of scf cycles    =   1
     number of bfgs steps    =   0

     energy   new            =   -1434.0215932380 Ry

     new trust radius        =       0.4337132281 bohr
     new conv_thr            =       0.0000099958 Ry

ATOMIC_POSITIONS (crystal)
Au1      0.166666667   0.166666667   0.402269971    0   0   0
Au1      0.666666667   0.166666667   0.402269971    0   0   0
Au1      0.166666667   0.666666667   0.402269971    0   0   0
Au1      0.666666667   0.666666667   0.402269971    0   0   0
Au1      0.833333333   0.333333333   0.500000000    0   0   0
Au1      0.333333333   0.333333333   0.500000000    0   0   0
Au1      0.833333333   0.833333333   0.500000000    0   0   0
Au1      0.333333333   0.833333333   0.500000000    0   0   0
Au1     -0.000000049   0.000000210   0.588497484
Au1      0.499927432   0.000145883   0.597577025
Au1      0.000146756   0.499926952   0.597576834
Au1      0.499926732   0.499926872   0.597576717
O1       0.000000032  -0.000000012   0.675610848
H1       0.000000034   0.000000095   0.705730428

     Writing output data file calc.save
     Check: negative starting charge=   -0.000239
     NEW-OLD atomic charge density approx. for the potential

     Check: negative/imaginary core charge=   -0.000002    0.000000
     Check: negative starting charge=   -0.000243

[...]

     energy   old            =   -1434.0215932380 Ry
     energy   new            =   -1433.9579295698 Ry

     CASE: energy  _new > energy  _old

[...]

     CASE: energy  _new < energy  _old

[...]

     WARNING: bfgs curvature condition failed, Theta= 0.982
     new trust radius        =       0.0263520709 bohr
     new conv_thr            =       0.0000001000 Ry

[...]

     Total force =     0.007773     Total SCF correction =     0.000268

[...]

     number of scf cycles    =  15
     number of bfgs steps    =  13

     energy   old            =   -1434.1388418245 Ry
     energy   new            =   -1434.1391839002 Ry

     CASE: energy  _new < energy  _old

     new trust radius        =       0.0280359534 bohr
     new conv_thr            =       0.0000001000 Ry

ATOMIC_POSITIONS (crystal)
Au1      0.166666667   0.166666667   0.402269971    0   0   0
Au1      0.666666667   0.166666667   0.402269971    0   0   0
Au1      0.166666667   0.666666667   0.402269971    0   0   0
Au1      0.666666667   0.666666667   0.402269971    0   0   0
Au1      0.833333333   0.333333333   0.500000000    0   0   0
Au1      0.333333333   0.333333333   0.500000000    0   0   0
Au1      0.833333333   0.833333333   0.500000000    0   0   0
Au1      0.333333333   0.833333333   0.500000000    0   0   0
Au1      0.000000097   0.000000452   0.596167106
Au1      0.499576648   0.000846862   0.597306569
Au1      0.000846930   0.499576600   0.597306602
Au1      0.499576658   0.499576510   0.597306683
O1      -0.000000137  -0.000002329   0.682437979
H1       0.000000070   0.000001676   0.721503553

     Writing output data file calc.save
     Check: negative starting charge=   -0.000229
     NEW-OLD atomic charge density approx. for the potential

     Check: negative/imaginary core charge=   -0.000002    0.000000
     Check: negative starting charge=   -0.000229

[...]

     Self-consistent Calculation

[...]

     total energy              =   -1434.13931710 Ry
     Harris-Foulkes estimate   =   -1434.13931692 Ry
     estimated scf accuracy    <       0.00000014 Ry

     iteration #  8     ecut=    36.75 Ry     beta=0.30
     Davidson diagonalization with overlap
     ethr =  1.02E-10,  avg # of iterations =  3.0

[...]

     negative rho (up, down):  4.509E-04 0.000E+00

     Adding external electric field

     Computed dipole along edir(3) :
        Dipole               -0.0964 Ry au,         -0.2449 Debye
        Dipole field         -0.0002 Ry au

        Potential amp.        0.0216 Ry
        Total length         45.8022 bohr

     End of self-consistent calculation

[...]

          k = 0.0560-0.0647 0.0000 ( 19376 PWs)   bands (ev):

[...]

          k =-0.0840-0.0485 0.0000 ( 19380 PWs)   bands (ev):

   -17.4682  -6.7209  -6.5548  -6.2115  -5.4911  -5.4713  -5.2744  -5.2640
    -5.2623  -5.2600  -5.2520  -5.1684  -4.9262  -4.8949  -4.7541  -4.7397
    -4.5987  -4.5767  -4.4507  -4.4336  -4.4203  -4.3495  -4.2318  -4.2042
    -4.0424  -3.9956  -3.7710  -3.7703  -3.7129  -3.6988  -3.6833  -3.6567
    -3.6182  -3.6035  -3.5433  -3.4655  -3.4643  -3.4585  -3.4360  -3.4342
    -3.4116  -3.3310  -3.2293  -3.2172  -3.0120  -2.9502  -2.9393  -2.8839
    -2.8332  -2.7720  -2.7719  -2.7651  -2.6895  -2.6715  -2.5086  -2.4436
    -2.4142  -2.3583  -2.0459  -2.0035  -1.9824  -1.9820  -1.9591  -1.8181
    -1.7760  -1.3145  -0.6900  -0.5581   0.0318   0.1179   0.3045   0.6242
     1.2536   1.3342   3.1375   3.2267   3.6178   4.0712   5.4028

     the Fermi energy is     0.0283 ev

!    total energy              =   -1434.13931711 Ry
     Harris-Foulkes estimate   =   -1434.13931674 Ry
     estimated scf accuracy    <       0.00000003 Ry

     The total energy is the sum of the following terms:

     one-electron contribution =   -8267.22296877 Ry
     hartree contribution      =    4232.82299728 Ry
     xc contribution           =    -776.43457400 Ry
     ewald contribution        =    3376.72710026 Ry
     electric field correction =       0.00002268 Ry
     smearing contrib. (-TS)   =      -0.03189456 Ry

     convergence has been achieved in   8 iterations

 BEEF-vdW xc energy contributions
           1 :   -693.729559659638
           2 :    644.390266422881
           3 :   -556.412000995522
           4 :    447.104946776330
           5 :   -334.891681447615
           6 :    234.594688122908
           7 :   -154.754643951724
           8 :    97.3034272507131
           9 :   -59.2349970131980
          10 :    35.2705348192518
          11 :   -20.3416821887038
          12 :    10.9863587666413
          13 :   -5.44318697817050
          14 :    2.86072536169263
          15 :   -2.37604547119463
          16 :    2.65789241112941
          17 :   -2.10312569501957
          18 :  -0.537970681780052
          19 :    5.52967374233117
          20 :   -11.9295124371769
          21 :    17.9478288571997
          22 :   -21.7393068693520
          23 :    22.2242763894649
          24 :   -19.5379034725565
          25 :    14.9037811989222
          26 :   -10.0331482464878
          27 :    6.37000427259863
          28 :   -4.55244139929368
          29 :    4.31917525019435
          30 :   -4.85598165514580
          31 :   -55.0060018578931
          32 :   -40.0006414388645

     Forces acting on atoms (Ry/au):

     negative rho (up, down):  4.509E-04 0.000E+00
     atom    1 type  1   force =    -0.00041274   -0.00023828   -0.00433562
     atom    2 type  1   force =     0.00041274   -0.00023826   -0.00433560
     atom    3 type  1   force =     0.00000002    0.00047656   -0.00433560
     atom    4 type  1   force =    -0.00000002   -0.00000004    0.00096624
     atom    5 type  1   force =    -0.00000006   -0.00217855    0.00367153
     atom    6 type  1   force =     0.00000007    0.00000008    0.00136674
     atom    7 type  1   force =     0.00188684    0.00108932    0.00367174
     atom    8 type  1   force =    -0.00188679    0.00108920    0.00367166
     atom    9 type  1   force =     0.00000063    0.00000091   -0.00026519
     atom   10 type  1   force =     0.00000007   -0.00015321    0.00024777
     atom   11 type  1   force =    -0.00013258    0.00007670    0.00024768
     atom   12 type  1   force =     0.00013256    0.00007668    0.00024742
     atom   13 type  2   force =    -0.00000218   -0.00000337   -0.00034999
     atom   14 type  3   force =     0.00000145    0.00000225   -0.00046878

     Total force =     0.000817     Total SCF correction =     0.000649
     SCF correction compared to forces is large: reduce conv_thr to get better values

     entering subroutine stress ...

     negative rho (up, down):  4.509E-04 0.000E+00
          total   stress  (Ry/bohr**3)                   (kbar)     P=   -9.64
  -0.00010185  -0.00000000  -0.00000000        -14.98     -0.00     -0.00
  -0.00000000  -0.00010185  -0.00000000         -0.00    -14.98     -0.00
  -0.00000000  -0.00000000   0.00000718         -0.00     -0.00      1.06

     bfgs converged in  16 scf cycles and  14 bfgs steps
     (criteria: energy <  1.0E+00, force <  1.9E-03)

     End of BFGS Geometry Optimization

     Final energy   =   -1434.1393171105 Ry
Begin final coordinates

ATOMIC_POSITIONS (crystal)
Au1      0.166666667   0.166666667   0.402269971    0   0   0
Au1      0.666666667   0.166666667   0.402269971    0   0   0
Au1      0.166666667   0.666666667   0.402269971    0   0   0
Au1      0.666666667   0.666666667   0.402269971    0   0   0
Au1      0.833333333   0.333333333   0.500000000    0   0   0
Au1      0.333333333   0.333333333   0.500000000    0   0   0
Au1      0.833333333   0.833333333   0.500000000    0   0   0
Au1      0.333333333   0.833333333   0.500000000    0   0   0
Au1      0.000000097   0.000000452   0.596167106
Au1      0.499576648   0.000846862   0.597306569
Au1      0.000846930   0.499576600   0.597306602
Au1      0.499576658   0.499576510   0.597306683
O1      -0.000000137  -0.000002329   0.682437979
H1       0.000000070   0.000001676   0.721503553
End final coordinates

     Writing output data file calc.save

     General routines

     Parallel routines

   This run was terminated on:  12:43:21  16Apr2018

   JOB DONE.