     Program PWSCF v.6.1 starts on  8Jan2019 at  0:56:19

     Current dimensions of program PWSCF are:
     Max number of different atomic species (ntypx) = 10
     Max number of k-points (npk) =  40000
     Max angular momentum in pseudopotentials (lmaxx) =  3

     IMPORTANT: XC functional enforced from input :
     Exchange-correlation      = BEEF-VDW ( 1  4 29 14 2 0)
     Any further DFT definition will be discarded
     Please, verify this is what you really want

     bravais-lattice index     =            0
     lattice parameter (alat)  =      10.5953  a.u.
     unit-cell volume          =    4515.4206 (a.u.)^3
     number of atoms/cell      =           13
     number of atomic types    =            2
     number of electrons       =       244.00
     number of Kohn-Sham states=          132
     kinetic-energy cutoff     =      36.7493  Ry
     charge density cutoff     =     367.4933  Ry
     convergence threshold     =      1.0E-04
     mixing beta               =       0.2000
     number of iterations used =            8  plain     mixing
     Exchange-correlation      = BEEF-VDW ( 1  4 29 14 2 0)
     nstep                     =           50

     celldm(1)=  10.595266  celldm(2)=   0.000000  celldm(3)=   0.000000
     celldm(4)=   0.000000  celldm(5)=   0.000000  celldm(6)=   0.000000

     crystal axes: (cart. coord. in units of alat)
               a(1) = (   1.000000   0.000000   0.000000 )
               a(2) = (   0.500000   0.866025   0.000000 )
               a(3) = (   0.000000   0.000000   4.383611 )

     reciprocal axes: (cart. coord. in units 2 pi/alat)
               b(1) = (  1.000000 -0.577350  0.000000 )
               b(2) = (  0.000000  1.154701  0.000000 )
               b(3) = (  0.000000  0.000000  0.228122 )

     PseudoPot. # 1 for Zn read from file:
     /home/users/jrboes/code/decaf-espresso/gbrv15pbe/Zn.UPF
     MD5 check sum: df62231357ef9e81f77b2b3087fa5675
     Pseudo is Ultrasoft, Zval = 20.0
     Generated by new atomic code, or converted to UPF format
     Using radial grid of  943 points,  6 beta functions with:
                l(1) =   0
                l(2) =   0
                l(3) =   1
                l(4) =   1
                l(5) =   2
                l(6) =   2
     Q(r) pseudized with  8 coefficients,  rinner =    1.100   1.100   1.100
                                                       1.100   1.100

     PseudoPot. # 2 for C  read from file:
     /home/users/jrboes/code/decaf-espresso/gbrv15pbe/C.UPF
     MD5 check sum: d1aef80898a10debaa0f26306b886e00
     Pseudo is Ultrasoft + core correction, Zval =  4.0
     Generated by new atomic code, or converted to UPF format
     Using radial grid of  721 points,  4 beta functions with:
                l(1) =   0
                l(2) =   0
                l(3) =   1
                l(4) =   1
     Q(r) pseudized with  8 coefficients,  rinner =    1.100   1.100   1.100

     vdW kernel table read from file vdW_kernel_table
     MD5 check sum: 095c7af220d748ca6e76c0b4c6cfb241

     atomic species   valence    mass     pseudopotential
        Zn            20.00    65.38000     Zn( 1.00)
        C              4.00    12.01100     C ( 1.00)

     No symmetry found

   Cartesian axes

     site n.     atom                  positions (alat units)
         1           Zn  tau(   1) = (   0.2500000   0.1443376   1.7835570  )
         2           Zn  tau(   2) = (   0.7500000   0.1443376   1.7835570  )
         3           Zn  tau(   3) = (   0.5000000   0.5773503   1.7835570  )
         4           Zn  tau(   4) = (   1.0000000   0.5773503   1.7835570  )
         5           Zn  tau(   5) = (   1.0000000   0.2886751   2.1918053  )
         6           Zn  tau(   6) = (   0.5000000   0.2886751   2.1918053  )
         7           Zn  tau(   7) = (   1.2500000   0.7216878   2.1918053  )
         8           Zn  tau(   8) = (   0.7500000   0.7216878   2.1918053  )
         9           Zn  tau(   9) = (  -0.0000005   0.0000019   2.5675195  )
        10           Zn  tau(  10) = (   0.5000002  -0.0007803   2.9059425  )
        11           Zn  tau(  11) = (   0.2493225   0.4334048   2.9059447  )
        12           Zn  tau(  12) = (   0.7506757   0.4334040   2.9059459  )
        13           C   tau(  13) = (  -0.0000005  -0.0000054   2.9161063  )

     number of k points=    20  Fermi-Dirac smearing, width (Ry)=  0.0110
                       cart. coord. in units 2pi/alat
        k(    1) = (   0.0000000   0.0000000   0.0000000), wk =   0.0555556
        k(    2) = (   0.0000000   0.1924501   0.0000000), wk =   0.1111111
        k(    3) = (   0.0000000   0.3849002   0.0000000), wk =   0.1111111
        k(    4) = (   0.0000000  -0.5773503   0.0000000), wk =   0.0555556
        k(    5) = (   0.1666667  -0.0962250   0.0000000), wk =   0.1111111
        k(    6) = (   0.1666667   0.0962250   0.0000000), wk =   0.1111111
        k(    7) = (   0.1666667   0.2886751   0.0000000), wk =   0.1111111
        k(    8) = (   0.1666667  -0.6735753   0.0000000), wk =   0.1111111
        k(    9) = (   0.1666667  -0.4811252   0.0000000), wk =   0.1111111
        k(   10) = (   0.1666667  -0.2886751   0.0000000), wk =   0.1111111
        k(   11) = (   0.3333333  -0.1924501   0.0000000), wk =   0.1111111
        k(   12) = (   0.3333333   0.0000000   0.0000000), wk =   0.1111111
        k(   13) = (   0.3333333   0.1924501   0.0000000), wk =   0.1111111
        k(   14) = (   0.3333333  -0.7698004   0.0000000), wk =   0.1111111
        k(   15) = (   0.3333333  -0.5773503   0.0000000), wk =   0.1111111
        k(   16) = (   0.3333333  -0.3849002   0.0000000), wk =   0.1111111
        k(   17) = (  -0.5000000   0.2886751   0.0000000), wk =   0.0555556
        k(   18) = (  -0.5000000   0.4811252   0.0000000), wk =   0.1111111
        k(   19) = (  -0.5000000   0.6735753   0.0000000), wk =   0.1111111
        k(   20) = (  -0.5000000  -0.2886751   0.0000000), wk =   0.0555556

     Initial potential from superposition of free atoms
     Check: negative starting charge=   -0.000731

     starting charge  243.99827, renormalised to  244.00000

     negative rho (up, down):  7.307E-04 0.000E+00

     %%%%%%%%%%%%%%%%%%%%%%%%%%%%%%%%%%%%%%%%%%%%%%%%%%%%%%%%%%%%%%%%%%%%%%%%
     %                                                                      %
     % You are using vdW-DF, which was implemented by the Thonhauser group. %
     % Please cite the following two papers that made this development      %
     % possible and the two reviews that describe the various versions:     %
     %                                                                      %
     %   T. Thonhauser et al., PRL 115, 136402 (2015).                      %
     %   T. Thonhauser et al., PRB 76, 125112 (2007).                       %
     %   K. Berland et al., Rep. Prog. Phys. 78, 066501 (2015).             %
     %   D.C. Langreth et al., J. Phys.: Condens. Matter 21, 084203 (2009). %
     %                                                                      %
     %                                                                      %
     % If you are calculating the stress with vdW-DF, please also cite:     %
     %                                                                      %
     %   R. Sabatini et al., J. Phys.: Condens. Matter 24, 424209 (2012).   %
     %                                                                      %
     %%%%%%%%%%%%%%%%%%%%%%%%%%%%%%%%%%%%%%%%%%%%%%%%%%%%%%%%%%%%%%%%%%%%%%%%

     Adding external electric field

     Computed dipole along edir(3) :
        Dipole                0.0001 Ry au,          0.0002 Debye
        Dipole field          0.0000 Ry au,

        Potential amp.       -0.0000 Ry
        Total length         41.8010 bohr

     Starting wfc are  160 randomized atomic wfcs

     Self-consistent Calculation

     iteration #  1     ecut=    36.75 Ry     beta=0.20
     Davidson diagonalization with overlap
     ethr =  1.00E-02,  avg # of iterations =  2.0

[...]

     total energy              =   -5563.65093076 Ry
     Harris-Foulkes estimate   =   -5564.72986202 Ry
     estimated scf accuracy    <       3.29329406 Ry

[...]

     End of self-consistent calculation

          k = 0.0000 0.0000 0.0000 ( 16931 PWs)   bands (ev):

  -126.1441-126.1432-126.1432-126.0841-126.0251-126.0241-126.0241-126.0117
  -125.8674-125.8260-125.8251-125.8251 -80.3280 -80.3269 -80.3269 -80.3237
   -80.3191 -80.3191 -80.3121 -80.3106 -80.3106 -80.2704 -80.2573 -80.2573
   -80.2135 -80.2127 -80.2127 -80.2038 -80.2007 -80.2007 -80.2003 -80.1924
   -80.1913 -80.1913 -80.1814 -80.1814 -80.0543 -80.0543 -80.0509 -80.0500
   -80.0500 -80.0106 -80.0044 -79.9939 -79.9939 -79.9796 -79.9796 -79.9758
    -9.6018  -8.4756  -7.7222  -7.6577  -7.6287  -7.6287  -7.5637  -7.5222
    -7.5222  -7.4893  -7.4893  -7.4709  -7.3103  -7.1979  -7.1946  -7.1946
    -7.1474  -7.1474  -7.1346  -7.0677  -7.0677  -7.0236  -7.0236  -7.0151
    -7.0151  -6.9962  -6.9646  -6.8895  -6.8895  -6.8214  -6.8126  -6.8126
    -6.7947  -6.7947  -6.7277  -6.7189  -6.7189  -6.6713  -6.6713  -6.6563
    -6.6359  -6.6149  -6.6149  -6.6129  -6.6129  -6.5855  -6.5855  -6.5670
    -6.5584  -6.5584  -6.5551  -6.5357  -6.5357  -6.5083  -6.5083  -6.4840
    -6.4464  -6.4464  -6.4372  -6.4321  -6.4321  -6.2380  -5.0227  -3.5536
    -2.4514  -1.5440  -1.5440  -1.5020  -1.3584  -1.3584  -1.2477  -1.1209
    -1.1209  -0.3447   0.1869   0.7985   0.7985   1.0093   1.4618   1.4618
     1.7651   1.7651   1.9620   2.2620

[...]

          k =-0.5000 0.2887 0.0000 ( 17028 PWs)   bands (ev):

[...]

     the Fermi energy is     0.5913 ev

!    total energy              =   -5564.50145670 Ry
     Harris-Foulkes estimate   =   -5564.50141005 Ry
     estimated scf accuracy    <       0.00006291 Ry

     The total energy is the sum of the following terms:

     one-electron contribution =  -30384.87867423 Ry
     hartree contribution      =   15174.09601244 Ry
     xc contribution           =    -523.92029000 Ry
     ewald contribution        =   10170.22842210 Ry
     electric field correction =       0.00000596 Ry
     smearing contrib. (-TS)   =      -0.02693298 Ry

     convergence has been achieved in   8 iterations

[...]

     Forces acting on atoms (cartesian axes, Ry/au):

     atom    1 type  1   force =     0.00052088    0.00030429   -0.00952667
     atom    2 type  1   force =    -0.00052747    0.00031910   -0.00956611
     atom    3 type  1   force =     0.00001012   -0.00061248   -0.00952308
     atom    4 type  1   force =    -0.00001055   -0.00000012   -0.00954405
     atom    5 type  1   force =    -0.00001179    0.00122426    0.01391073
     atom    6 type  1   force =    -0.00000755   -0.00000396   -0.00145478
     atom    7 type  1   force =    -0.00102392   -0.00060566    0.01392157
     atom    8 type  1   force =     0.00105156   -0.00059236    0.01395485
     atom    9 type  1   force =     0.00000961   -0.00002550    0.01584614
     atom   10 type  1   force =    -0.00002072   -0.00005588   -0.00495101
     atom   11 type  1   force =    -0.00006350    0.00001090   -0.00496566
     atom   12 type  1   force =     0.00007077    0.00004280   -0.00497824
     atom   13 type  2   force =     0.00000255   -0.00000538   -0.00312370

     Total force =     0.018298     Total SCF correction =     0.037435
     SCF correction compared to forces is large: reduce conv_thr to get better values

     BFGS Geometry Optimization

     number of scf cycles    =   1
     number of bfgs steps    =   0

     energy   new            =   -5564.5014567038 Ry

     new trust radius        =       0.0158461674 bohr
     new conv_thr            =       0.0001000000 Ry

ATOMIC_POSITIONS (angstrom)
Zn       1.401693333   0.809268023  10.000000000    0   0   0
Zn       4.205080001   0.809268023  10.000000000    0   0   0
Zn       2.803386667   3.237072094  10.000000000    0   0   0
Zn       5.606773334   3.237072094  10.000000000    0   0   0
Zn       5.606773334   1.618536047  12.288955629    0   0   0
Zn       2.803386667   1.618536047  12.288955629    0   0   0
Zn       7.008466668   4.046340117  12.288955629    0   0   0
Zn       4.205080001   4.046340117  12.288955629    0   0   0
Zn       0.000002255  -0.000002641  14.403885261
Zn       2.803376633  -0.004404510  16.290341132
Zn       1.397861121   2.430008447  16.290345322
Zn       4.208905829   2.430020558  16.290345822
C       -0.000001279  -0.000033179  16.348293883

     Writing output data file calc.save
     Check: negative starting charge=   -0.000731
     NEW-OLD atomic charge density approx. for the potential
     Check: negative starting charge=   -0.000732

[...]

     energy   old            =   -5564.5014567038 Ry
     energy   new            =   -5564.5013890291 Ry

     CASE: energy  _new > energy  _old

[...]

     Threshold (ethr) on eigenvalues was too large:
     Diagonalizing with lowered threshold

     Davidson diagonalization with overlap
     ethr =  7.18E-08,  avg # of iterations =  1.1

[...]

     Threshold (ethr) on eigenvalues was too large:
     Diagonalizing with lowered threshold

     Davidson diagonalization with overlap
     ethr =  3.42E-08,  avg # of iterations =  1.0

[...]

     CASE: energy  _new > energy  _old

[...]

     number of scf cycles    =   6
     number of bfgs steps    =   1

     energy   old            =   -5564.5014567038 Ry
     energy   new            =   -5564.5014597146 Ry

     CASE: energy  _new < energy  _old

     new trust radius        =       0.0003316544 bohr
     new conv_thr            =       0.0000010000 Ry

ATOMIC_POSITIONS (angstrom)
Zn       1.401693333   0.809268023  10.000000000    0   0   0
Zn       4.205080001   0.809268023  10.000000000    0   0   0
Zn       2.803386667   3.237072094  10.000000000    0   0   0
Zn       5.606773334   3.237072094  10.000000000    0   0   0
Zn       5.606773334   1.618536047  12.288955629    0   0   0
Zn       2.803386667   1.618536047  12.288955629    0   0   0
Zn       7.008466668   4.046340117  12.288955629    0   0   0
Zn       4.205080001   4.046340117  12.288955629    0   0   0
Zn      -0.000002930   0.000011079  14.395563285
Zn       2.803387804  -0.004319721  16.292943164
Zn       1.397942743   2.429975361  16.292955180
Zn       4.208820313   2.429970303  16.292962444
C       -0.000002664  -0.000030576  16.349759837

     Writing output data file calc.save
     Check: negative starting charge=   -0.000731
     NEW-OLD atomic charge density approx. for the potential
     Check: negative starting charge=   -0.000731

[...]

     Self-consistent Calculation

[...]

     total energy              =   -5564.50147367 Ry
     Harris-Foulkes estimate   =   -5564.50147467 Ry
     estimated scf accuracy    <       0.00002270 Ry

     iteration #  5     ecut=    36.75 Ry     beta=0.20
     Davidson diagonalization with overlap
     ethr =  9.31E-09,  avg # of iterations =  1.9

[...]

     Adding external electric field

     Computed dipole along edir(3) :
        Dipole                0.0400 Ry au,          0.1018 Debye
        Dipole field          0.0001 Ry au,

        Potential amp.       -0.0093 Ry
        Total length         41.8010 bohr

     End of self-consistent calculation

[...]

          k = 0.3333-0.3849 0.0000 ( 16986 PWs)   bands (ev):

[...]

          k =-0.5000-0.2887 0.0000 ( 17028 PWs)   bands (ev):

  -126.1331-126.1328-126.1325-126.0727-126.0165-126.0162-126.0159-126.0043
  -125.8618-125.8185-125.8182-125.8179 -80.3171 -80.3166 -80.3162 -80.3104
   -80.3059 -80.3053 -80.3050 -80.3047 -80.3004 -80.2589 -80.2466 -80.2460
   -80.2051 -80.2047 -80.2043 -80.1930 -80.1929 -80.1895 -80.1885 -80.1883
   -80.1877 -80.1833 -80.1768 -80.1748 -80.0483 -80.0482 -80.0433 -80.0429
   -80.0425 -80.0080 -79.9939 -79.9900 -79.9864 -79.9730 -79.9716 -79.9700
    -9.3851  -7.5866  -7.5105  -7.4337  -7.4116  -7.3975  -7.3782  -7.3517
    -7.3345  -7.3022  -7.2872  -7.2695  -7.2525  -7.1743  -7.1569  -7.1326
    -7.1191  -7.0949  -7.0597  -7.0184  -7.0153  -6.9988  -6.9791  -6.9712
    -6.9392  -6.9214  -6.9103  -6.8749  -6.8725  -6.8485  -6.8475  -6.8370
    -6.8124  -6.8097  -6.7995  -6.7745  -6.7581  -6.7464  -6.7464  -6.7353
    -6.7260  -6.7149  -6.7036  -6.7025  -6.6987  -6.6969  -6.6857  -6.6808
    -6.6696  -6.6601  -6.6434  -6.6267  -6.6116  -6.5915  -6.5517  -6.5346
    -6.5163  -6.5006  -6.4927  -6.4144  -6.3703  -6.3156  -6.2067  -4.5754
    -3.9500  -3.0896  -2.9650  -2.9420  -2.5035  -1.8621  -1.4704  -0.1417
    -0.0336   0.6087   0.8984   1.6766   2.5026   2.7515   2.8493   3.2791
     3.3358   3.4360   3.5239   3.8228

     the Fermi energy is     0.5974 ev

!    total energy              =   -5564.50147396 Ry
     Harris-Foulkes estimate   =   -5564.50147297 Ry
     estimated scf accuracy    <       0.00000060 Ry

     The total energy is the sum of the following terms:

     one-electron contribution =  -30384.87731286 Ry
     hartree contribution      =   15174.06023259 Ry
     xc contribution           =    -523.91449339 Ry
     ewald contribution        =   10170.25696562 Ry
     electric field correction =       0.00000446 Ry
     smearing contrib. (-TS)   =      -0.02687037 Ry

     convergence has been achieved in   5 iterations

     negative rho (up, down):  9.067E-04 0.000E+00

     Forces acting on atoms (cartesian axes, Ry/au):

     atom    1 type  1   force =     0.00060563    0.00034972   -0.01177651
     atom    2 type  1   force =    -0.00060561    0.00034999   -0.01177654
     atom    3 type  1   force =     0.00000024   -0.00069941   -0.01177639
     atom    4 type  1   force =    -0.00000022   -0.00000021   -0.01262960
     atom    5 type  1   force =    -0.00000004    0.00703746    0.01259452
     atom    6 type  1   force =     0.00000008    0.00000026    0.01196326
     atom    7 type  1   force =    -0.00609436   -0.00351872    0.01259426
     atom    8 type  1   force =     0.00609431   -0.00351874    0.01259433
     atom    9 type  1   force =     0.00000029    0.00000000   -0.00158582
     atom   10 type  1   force =    -0.00000050    0.00054329   -0.00051470
     atom   11 type  1   force =     0.00047104   -0.00027057   -0.00051496
     atom   12 type  1   force =    -0.00047066   -0.00026955   -0.00051546
     atom   13 type  2   force =    -0.00000020   -0.00000351    0.00134359

     Total force =     0.002450     Total SCF correction =     0.004580
     SCF correction compared to forces is large: reduce conv_thr to get better values

     bfgs converged in   7 scf cycles and   2 bfgs steps
     (criteria: energy <  1.0E+12 Ry, force <  1.9E-03 Ry/Bohr)

     End of BFGS Geometry Optimization

     Final energy   =   -5564.5014739555 Ry
Begin final coordinates

ATOMIC_POSITIONS (angstrom)
Zn       1.401693333   0.809268023  10.000000000    0   0   0
Zn       4.205080001   0.809268023  10.000000000    0   0   0
Zn       2.803386667   3.237072094  10.000000000    0   0   0
Zn       5.606773334   3.237072094  10.000000000    0   0   0
Zn       5.606773334   1.618536047  12.288955629    0   0   0
Zn       2.803386667   1.618536047  12.288955629    0   0   0
Zn       7.008466668   4.046340117  12.288955629    0   0   0
Zn       4.205080001   4.046340117  12.288955629    0   0   0
Zn      -0.000002930   0.000011079  14.395563285
Zn       2.803387804  -0.004319721  16.292943164
Zn       1.397942743   2.429975361  16.292955180
Zn       4.208820313   2.429970303  16.292962444
C       -0.000002664  -0.000030576  16.349759837
End final coordinates

     Writing output data file calc.save

     General routines

     Parallel routines

   This run was terminated on:   1: 6:33   8Jan2019

   JOB DONE.