     Program PWSCF v.5.1rc2 (svn rev. 11289) starts on 18Apr2018 at 22: 2:12

     Current dimensions of program PWSCF are:
     Max number of different atomic species (ntypx) = 10
     Max number of k-points (npk) =  40000
     Max angular momentum in pseudopotentials (lmaxx) =  3
     Presently stress not available with electric field

     IMPORTANT: XC functional enforced from input :
     Exchange-correlation      = BEEF-VDW ( 1  4 27 13 2)
     Any further DFT definition will be discarded
     Please, verify this is what you really want

     Subspace diagonalization in iterative solution of the eigenvalue problem:
     a serial algorithm will be used

     bravais-lattice index     =            0
     lattice parameter (alat)  =       1.8897  a.u.
     unit-cell volume          =    8507.0471 (a.u.)^3
     number of atoms/cell      =           14
     number of atomic types    =            3
     number of electrons       =       138.00
     number of Kohn-Sham states=           79
     kinetic-energy cutoff     =      36.7493  Ry
     charge density cutoff     =     367.4932  Ry
     convergence threshold     =      1.0E-05
     mixing beta               =       0.3000
     number of iterations used =           10  plain     mixing
     Exchange-correlation      = BEEF-VDW ( 1  4 27 13 2)
     nstep                     =           50

     celldm(1)=   1.889726  celldm(2)=   0.000000  celldm(3)=   0.000000
     celldm(4)=   0.000000  celldm(5)=   0.000000  celldm(6)=   0.000000

     crystal axes: (cart. coord. in units of alat)
               a(1) = (   7.468327   0.000000   0.000000 )
               a(2) = (   3.734164   6.467761   0.000000 )
               a(3) = (   0.000000   0.000000  26.097863 )

     reciprocal axes: (cart. coord. in units 2 pi/alat)
               b(1) = (  0.133899 -0.077307  0.000000 )
               b(2) = (  0.000000  0.154613  0.000000 )
               b(3) = (  0.000000  0.000000  0.038317 )

     PseudoPot. # 1 for La read from file:
     /u/if/mamunm/psp/gbrv1.5pbe/La.UPF
     MD5 check sum: 5937b0c7494ba0601a847275249473aa
     Pseudo is Ultrasoft + core correction, Zval = 11.0
     Generated by new atomic code, or converted to UPF format
     Using radial grid of  995 points,  8 beta functions with:
                l(1) =   0
                l(2) =   0
                l(3) =   1
                l(4) =   1
                l(5) =   2
                l(6) =   2
                l(7) =   3
                l(8) =   3
     Q(r) pseudized with  8 coefficients,  rinner =    1.700   1.700   1.700
                                                       1.700   1.700   1.700
                                                       1.700

     PseudoPot. # 2 for N  read from file:
     /u/if/mamunm/psp/gbrv1.5pbe/N.UPF
     MD5 check sum: 95339753478d7afb44899504a8723017
     Pseudo is Ultrasoft + core correction, Zval =  5.0
     Generated by new atomic code, or converted to UPF format
     Using radial grid of  729 points,  4 beta functions with:
                l(1) =   0
                l(2) =   0
                l(3) =   1
                l(4) =   1
     Q(r) pseudized with  8 coefficients,  rinner =    0.900   0.900   0.900

     PseudoPot. # 3 for H  read from file:
     /u/if/mamunm/psp/gbrv1.5pbe/H.UPF
     MD5 check sum: 761ae9a214b05c3daf00ab9f6b793d6f
     Pseudo is Ultrasoft, Zval =  1.0
     Generated by new atomic code, or converted to UPF format
     Using radial grid of  615 points,  2 beta functions with:
                l(1) =   0
                l(2) =   0
     Q(r) pseudized with  8 coefficients,  rinner =    0.700

     vdW kernel table read from file vdW_kernel_table
     MD5 check sum: 095c7af220d748ca6e76c0b4c6cfb241

     atomic species   valence    mass     pseudopotential
        La1           11.00   138.90547     La( 1.00)
        N1             5.00    14.00700     N ( 1.00)
        H1             1.00     1.00800     H ( 1.00)

     No symmetry found

   Cartesian axes

     site n.     atom                  positions (alat units)
         1           La1 tau(   1) = (   1.8670818   1.0779602  10.0000000  )
         2           La1 tau(   2) = (   5.6012453   1.0779602  10.0000000  )
         3           La1 tau(   3) = (   3.7341635   4.3118406  10.0000000  )
         4           La1 tau(   4) = (   7.4683270   4.3118406  10.0000000  )
         5           La1 tau(   5) = (   7.4683270   2.1559203  13.0489317  )
         6           La1 tau(   6) = (   3.7341635   2.1559203  13.0489317  )
         7           La1 tau(   7) = (   9.3354088   5.3898008  13.0489317  )
         8           La1 tau(   8) = (   5.6012453   5.3898008  13.0489317  )
         9           La1 tau(   9) = (   0.0000000   0.0000000  16.0978635  )
        10           La1 tau(  10) = (   3.7341635   0.0000000  16.0978635  )
        11           La1 tau(  11) = (   1.8670818   3.2338805  16.0978635  )
        12           La1 tau(  12) = (   5.6012453   3.2338805  16.0978635  )
        13           N1  tau(  13) = (   3.7341635   2.1559203  17.9048635  )
        14           H1  tau(  14) = (   3.7341635   2.1559203  18.9548635  )

     number of k points=    20  Fermi-Dirac smearing, width (Ry)=  0.0110
                       cart. coord. in units 2pi/alat
        k(    1) = (   0.0000000   0.0000000   0.0000000), wk =   0.0555556
        k(    2) = (   0.0000000   0.0257688   0.0000000), wk =   0.1111111
        k(    3) = (   0.0000000   0.0515377   0.0000000), wk =   0.1111111
        k(    4) = (   0.0000000  -0.0773065   0.0000000), wk =   0.0555556
        k(    5) = (   0.0223165  -0.0128844   0.0000000), wk =   0.1111111
        k(    6) = (   0.0223165   0.0128844   0.0000000), wk =   0.1111111
        k(    7) = (   0.0223165   0.0386533   0.0000000), wk =   0.1111111
        k(    8) = (   0.0223165  -0.0901909   0.0000000), wk =   0.1111111
        k(    9) = (   0.0223165  -0.0644221   0.0000000), wk =   0.1111111
        k(   10) = (   0.0223165  -0.0386533   0.0000000), wk =   0.1111111
        k(   11) = (   0.0446329  -0.0257688   0.0000000), wk =   0.1111111
        k(   12) = (   0.0446329   0.0000000   0.0000000), wk =   0.1111111
        k(   13) = (   0.0446329   0.0257688   0.0000000), wk =   0.1111111
        k(   14) = (   0.0446329  -0.1030753   0.0000000), wk =   0.1111111
        k(   15) = (   0.0446329  -0.0773065   0.0000000), wk =   0.1111111
        k(   16) = (   0.0446329  -0.0515377   0.0000000), wk =   0.1111111
        k(   17) = (  -0.0669494   0.0386533   0.0000000), wk =   0.0555556
        k(   18) = (  -0.0669494   0.0644221   0.0000000), wk =   0.1111111
        k(   19) = (  -0.0669494   0.0901909   0.0000000), wk =   0.1111111
        k(   20) = (  -0.0669494  -0.0386533   0.0000000), wk =   0.0555556

     Largest allocated arrays     est. size (Mb)     dimensions
     Largest temporary arrays     est. size (Mb)     dimensions

     Initial potential from superposition of free atoms
     Check: negative starting charge=   -0.831091

     starting charge  137.61516, renormalised to  138.00000

     negative rho (up, down):  8.334E-01 0.000E+00

     *
     * You are using vdW-DF for exchange-correlation in this calculation.
     * Please cite the following three references that made this development
     * possible:
     *
     *   M. Dion, H. Rydberg, E. Schroder, D. C. Langreth, and
     *   B. I. Lundqvist, Phys. Rev. Lett. 92, 246401 (2004).
     *
     *   T. Thonhauser, V. R. Cooper, S. Li, A. Puzder, P. Hyldgaard, and
     *   D. C. Langreth, Phys. Rev. B 76, 125112 (2007).
     *
     *   G. Roman-Perez and J. M. Soler, Phys. Rev. Lett. 103, 096102 (2009).
     *
     *
     * If you are using vdW-DF2, please also cite:
     *
     *   K. Lee, E. D. Murray, L. Kong, B. I. Lundqvist, and
     *   D. C. Langreth, Phys. Rev. B 82, 081101(R) (2010).
     *
     *
     * If you are calculating the stress with vdW-DF, please also cite:
     *
     *   R. Sabatini, E. Kucukbenli, B. Kolb, T. Thonhauser, and
     *   S. de Gironcoli, J. Phys.: Condens. Matter 24, 424209 (2012).
     *

     Carrying out vdW-DF run using the following parameters:

     Nqs =      20    Nr_points =    1024   r_max =   100.000
     q_mesh =
               0.00001000     0.04494208     0.09755937     0.15916263
               0.23128650     0.31572767     0.41458969     0.53033537
               0.66584808     0.82450364     1.01025438     1.22772762
               1.48234092     1.78043706     2.12944203     2.53805004
               3.01644009     3.57652955     4.23227104     5.00000000

     Gradients computed in reciprocal space

     Adding external electric field

     Computed dipole along edir(3) :
        Dipole               -0.1593 Ry au,         -0.4050 Debye
        Dipole field         -0.0002 Ry au

        Potential amp.        0.0226 Ry
        Total length         48.0849 bohr

     Starting wfc are  245 randomized atomic wfcs

     Self-consistent Calculation

     iteration #  1     ecut=    36.75 Ry     beta=0.30
     Davidson diagonalization with overlap
     ethr =  1.00E-02,  avg # of iterations =  2.0

[...]

     total energy              =   -1267.09877070 Ry
     Harris-Foulkes estimate   =   -1270.71443884 Ry
     estimated scf accuracy    <       7.66792137 Ry

[...]

     iteration # 13     ecut=    36.75 Ry     beta=0.30
     Davidson diagonalization with overlap
     c_bands:  1 eigenvalues not converged
     ethr =  1.18E-05,  avg # of iterations = 12.9

[...]

     End of self-consistent calculation

          k = 0.0000 0.0000 0.0000 ( 31997 PWs)   bands (ev):

   -31.5825 -31.5524 -31.4233 -31.4195 -31.4191 -31.3925 -31.3111 -31.3110
   -31.0783 -30.9574 -30.9571 -30.9565 -15.6571 -15.6571 -15.6369 -15.5882
   -15.5882 -15.5442 -15.5048 -15.4096 -15.3756 -15.3755 -15.2210 -15.0684
   -14.9955 -14.9953 -14.8815 -14.8236 -14.8236 -14.8104 -14.8100 -14.8099
   -14.7711 -14.7711 -14.7350 -14.5567 -14.5567 -14.4865 -14.4865 -14.4699
   -14.4549 -14.4547 -14.4311 -14.3562 -14.3534 -14.3533 -14.1279 -14.1279
   -11.7484  -2.8463  -0.9413  -0.2169   0.0934   0.0935   0.1201   0.1626
     0.1626   0.3103   0.4495   0.5765   0.5765   0.7717   0.7788   0.7789
     0.9216   0.9228   0.9229   1.7115   1.7116   1.7217   1.9985   2.3766
     2.3766   2.4303   2.6394   2.7504   2.9133   3.0139   3.0214

[...]

          k =-0.0669 0.0387 0.0000 ( 31970 PWs)   bands (ev):

[...]

     the Fermi energy is     1.8110 ev

!    total energy              =   -1269.76763267 Ry
     Harris-Foulkes estimate   =   -1269.76765246 Ry
     estimated scf accuracy    <       0.00000816 Ry

     The total energy is the sum of the following terms:

     one-electron contribution =   -4794.50274899 Ry
     hartree contribution      =    2411.14266483 Ry
     xc contribution           =    -614.76953170 Ry
     ewald contribution        =    1728.48724692 Ry
     electric field correction =       0.00003050 Ry
     smearing contrib. (-TS)   =      -0.12529423 Ry

     convergence has been achieved in  19 iterations

 BEEF-vdW xc energy contributions
           1 :   -544.547582923945
           2 :    500.785345024949
           3 :   -423.429580351140
           4 :    329.017717620322
           5 :   -235.083614374372
           6 :    155.485088740224
           7 :   -97.7933014758246
           8 :    63.0005870232002
           9 :   -47.0230731403094
          10 :    43.0978843835765
          11 :   -44.1810048451158
          12 :    44.6749694351761
          13 :   -41.2342060353194
          14 :    32.7999419956536
          15 :   -20.2095861281227
          16 :    5.62951543649456
          17 :    8.10929059178898
          18 :   -18.2754457250155
          19 :    23.0222276246769
          20 :   -21.9845296962520
          21 :    16.4369852850243
          22 :   -8.88931072263244
          23 :    2.21307178319660
          24 :    1.38224382037197
          25 :   -1.10643327490141
          26 :   -2.24958560815776
          27 :    6.80558561148860
          28 :   -10.4902642911161
          29 :    11.9160579236341
          30 :   -10.8517450240529
          31 :   -46.4219557173609
          32 :   -33.2928089777212

     Forces acting on atoms (Ry/au):

     negative rho (up, down):  5.861E-01 0.000E+00
     atom    1 type  1   force =    -0.00081939   -0.00046073    0.00359504
     atom    2 type  1   force =     0.00082423   -0.00049332    0.00359954
     atom    3 type  1   force =    -0.00002379    0.00096056    0.00364617
     atom    4 type  1   force =     0.00002217    0.00000902    0.00562854
     atom    5 type  1   force =     0.00003067    0.00045570   -0.00444382
     atom    6 type  1   force =    -0.00002264    0.00006678   -0.00776326
     atom    7 type  1   force =    -0.00034647   -0.00028189   -0.00449213
     atom    8 type  1   force =     0.00034168   -0.00025669   -0.00450220
     atom    9 type  1   force =    -0.00002145   -0.00001504   -0.00179299
     atom   10 type  1   force =     0.00000912    0.04692093    0.03698380
     atom   11 type  1   force =     0.04064340   -0.02344587    0.03695504
     atom   12 type  1   force =    -0.04064500   -0.02346014    0.03696419
     atom   13 type  2   force =     0.00000540    0.00000182   -0.06878433
     atom   14 type  3   force =     0.00000206   -0.00000114   -0.03559359

     Total force =     0.129255     Total SCF correction =     0.003869

     entering subroutine stress ...

     negative rho (up, down):  5.861E-01 0.000E+00
          total   stress  (Ry/bohr**3)                   (kbar)     P=   -4.87
  -0.00001897  -0.00000000   0.00000000         -2.79     -0.00      0.00
  -0.00000000  -0.00001896   0.00000000         -0.00     -2.79      0.00
   0.00000000   0.00000000  -0.00006147          0.00      0.00     -9.04

     BFGS Geometry Optimization

     number of scf cycles    =   1
     number of bfgs steps    =   0

     energy   new            =   -1269.7676326687 Ry

     new trust radius        =       0.0687843335 bohr
     new conv_thr            =       0.0000099958 Ry

ATOMIC_POSITIONS (crystal)
La1      0.166666667   0.166666667   0.383173129    0   0   0
La1      0.666666667   0.166666667   0.383173129    0   0   0
La1      0.166666667   0.666666667   0.383173129    0   0   0
La1      0.666666667   0.666666667   0.383173129    0   0   0
La1      0.833333333   0.333333333   0.500000000    0   0   0
La1      0.333333333   0.333333333   0.500000000    0   0   0
La1      0.833333333   0.833333333   0.500000000    0   0   0
La1      0.333333333   0.833333333   0.500000000    0   0   0
La1     -0.000000905  -0.000001230   0.616790515
La1      0.498081165   0.003838961   0.617576779
La1      0.003838980   0.498081713   0.617576195
La1      0.498079777   0.498080546   0.617576381
N1       0.333333641   0.333333483   0.684671540
H1       0.333333526   0.333333240   0.725577715

     Writing output data file calc.save
     Check: negative starting charge=   -0.831091
     NEW-OLD atomic charge density approx. for the potential
     Check: negative starting charge=   -0.832126

[...]

     energy   old            =   -1269.7676326687 Ry
     energy   new            =   -1269.7834367054 Ry

     CASE: energy  _new < energy  _old

     WARNING: bfgs curvature condition failed, Theta= 0.901
     new trust radius        =       0.1031765002 bohr
     new conv_thr            =       0.0000001000 Ry

[...]

     WARNING: bfgs curvature condition failed, Theta= 0.869
     new trust radius        =       0.0250659580 bohr
     new conv_thr            =       0.0000001000 Ry

[...]

     iteration #  9     ecut=    36.75 Ry     beta=0.30
     Davidson diagonalization with overlap
     c_bands:  1 eigenvalues not converged
     ethr =  3.36E-09,  avg # of iterations =  7.7

[...]

     Total force =     0.004454     Total SCF correction =     0.000510
     SCF correction compared to forces is large: reduce conv_thr to get better values

[...]

     Threshold (ethr) on eigenvalues was too large:
     Diagonalizing with lowered threshold

     Davidson diagonalization with overlap
     ethr =  5.34E-08,  avg # of iterations =  9.3

[...]

     Total force =     0.004283     Total SCF correction =     0.000449
     SCF correction compared to forces is large: reduce conv_thr to get better values

[...]

     number of scf cycles    =  16
     number of bfgs steps    =  15

     energy   old            =   -1269.8554910278 Ry
     energy   new            =   -1269.8555869894 Ry

     CASE: energy  _new < energy  _old

     new trust radius        =       0.0394219480 bohr
     new conv_thr            =       0.0000001000 Ry

ATOMIC_POSITIONS (crystal)
La1      0.166666667   0.166666667   0.383173129    0   0   0
La1      0.666666667   0.166666667   0.383173129    0   0   0
La1      0.166666667   0.666666667   0.383173129    0   0   0
La1      0.666666667   0.666666667   0.383173129    0   0   0
La1      0.833333333   0.333333333   0.500000000    0   0   0
La1      0.333333333   0.333333333   0.500000000    0   0   0
La1      0.833333333   0.833333333   0.500000000    0   0   0
La1      0.333333333   0.833333333   0.500000000    0   0   0
La1     -0.000001000   0.000001147   0.609998326
La1      0.496253023   0.007493417   0.626074994
La1      0.007493008   0.496253102   0.626073833
La1      0.496251762   0.496250581   0.626074291
N1       0.333335304   0.333333894   0.669524576
H1       0.333333033   0.333335598   0.709141853

     Writing output data file calc.save
     Check: negative starting charge=   -0.833957
     NEW-OLD atomic charge density approx. for the potential
     Check: negative starting charge=   -0.834049

[...]

     Self-consistent Calculation

[...]

     total energy              =   -1269.85572782 Ry
     Harris-Foulkes estimate   =   -1269.85572787 Ry
     estimated scf accuracy    <       0.00000040 Ry

     iteration # 12     ecut=    36.75 Ry     beta=0.30
     Davidson diagonalization with overlap
     ethr =  2.89E-10,  avg # of iterations =  4.0

[...]

     negative rho (up, down):  5.878E-01 0.000E+00

     Adding external electric field

     Computed dipole along edir(3) :
        Dipole                0.1108 Ry au,          0.2817 Debye
        Dipole field          0.0002 Ry au

        Potential amp.       -0.0157 Ry
        Total length         48.0849 bohr

     End of self-consistent calculation

[...]

          k = 0.0446-0.0515 0.0000 ( 31991 PWs)   bands (ev):

[...]

          k =-0.0669-0.0387 0.0000 ( 31970 PWs)   bands (ev):

   -31.2594 -31.2580 -31.1924 -31.1909 -31.1841 -31.1553 -31.1001 -31.0969
   -30.8716 -30.8319 -30.7884 -30.7728 -15.9556 -15.2217 -15.2129 -15.1383
   -15.1136 -15.1033 -15.0435 -15.0243 -15.0154 -14.9530 -14.9278 -14.8954
   -14.8720 -14.8569 -14.8501 -14.7878 -14.7688 -14.7646 -14.7491 -14.7145
   -14.6033 -14.5596 -14.4621 -14.4609 -14.4588 -14.4434 -14.4331 -14.4089
   -14.3764 -14.3482 -14.2858 -14.2380 -14.2359 -14.1874 -14.0860 -14.0517
   -12.2026  -3.9584  -1.1693  -0.9170   0.4237   0.4963   0.8744   0.9811
     1.1826   1.2355   1.2786   1.3121   1.3232   1.5058   1.6582   1.7309
     1.8361   1.8402   1.8909   2.0209   2.1092   2.1783   2.2207   2.2264
     2.2693   2.3364   2.4132   2.4373   2.5335   2.5645   2.6247

     the Fermi energy is     2.0336 ev

!    total energy              =   -1269.85572779 Ry
     Harris-Foulkes estimate   =   -1269.85572673 Ry
     estimated scf accuracy    <       0.00000007 Ry

     The total energy is the sum of the following terms:

     one-electron contribution =   -4768.48729552 Ry
     hartree contribution      =    2398.77027023 Ry
     xc contribution           =    -614.95382449 Ry
     ewald contribution        =    1714.94320737 Ry
     electric field correction =       0.00001814 Ry
     smearing contrib. (-TS)   =      -0.12810352 Ry

     convergence has been achieved in  12 iterations

 BEEF-vdW xc energy contributions
           1 :   -544.738334945593
           2 :    501.028626582948
           3 :   -423.726113472789
           4 :    329.322445388372
           5 :   -235.335412216030
           6 :    155.625985269043
           7 :   -97.7781063616741
           8 :    62.8063576061489
           9 :   -46.6697794917734
          10 :    42.6682145744564
          11 :   -43.8080457762893
          12 :    44.4844131272126
          13 :   -41.2713643467455
          14 :    32.9942518148823
          15 :   -20.4082477409129
          16 :    5.68262198977789
          17 :    8.26711781178824
          18 :   -18.5955210890678
          19 :    23.3758897517002
          20 :   -22.2396442512613
          21 :    16.5329908034807
          22 :   -8.86462267276283
          23 :    2.16852116330369
          24 :    1.35556719013482
          25 :  -0.983236400387113
          26 :   -2.42461528647732
          27 :    6.96022447948417
          28 :   -10.5779705348557
          29 :    11.9442763530351
          30 :   -10.8702467409476
          31 :   -46.4313405250859
          32 :   -33.3142353036067

     Forces acting on atoms (Ry/au):

     negative rho (up, down):  5.878E-01 0.000E+00
     atom    1 type  1   force =    -0.00035458   -0.00020497    0.00506776
     atom    2 type  1   force =     0.00035491   -0.00020541    0.00506823
     atom    3 type  1   force =    -0.00000023    0.00041021    0.00506845
     atom    4 type  1   force =     0.00000014   -0.00000002    0.00447118
     atom    5 type  1   force =    -0.00000046    0.00240898   -0.00500855
     atom    6 type  1   force =    -0.00000036   -0.00000005    0.00043460
     atom    7 type  1   force =    -0.00208624   -0.00120433   -0.00500885
     atom    8 type  1   force =     0.00208660   -0.00120475   -0.00500830
     atom    9 type  1   force =    -0.00000040   -0.00000052    0.00051077
     atom   10 type  1   force =    -0.00000087    0.00028170   -0.00185556
     atom   11 type  1   force =     0.00024573   -0.00014237   -0.00185376
     atom   12 type  1   force =    -0.00023938   -0.00013764   -0.00185629
     atom   13 type  2   force =    -0.00000452   -0.00000083    0.00099427
     atom   14 type  3   force =    -0.00000034   -0.00000001   -0.00102397

     Total force =     0.003586     Total SCF correction =     0.000142

     entering subroutine stress ...

     negative rho (up, down):  5.878E-01 0.000E+00
          total   stress  (Ry/bohr**3)                   (kbar)     P=    0.06
   0.00001012   0.00000000  -0.00000000          1.49      0.00     -0.00
   0.00000000   0.00001012  -0.00000000          0.00      1.49     -0.00
  -0.00000000  -0.00000000  -0.00001895         -0.00     -0.00     -2.79

     bfgs converged in  17 scf cycles and  16 bfgs steps
     (criteria: energy <  1.0E+00, force <  1.9E-03)

     End of BFGS Geometry Optimization

     Final energy   =   -1269.8557277928 Ry
Begin final coordinates

ATOMIC_POSITIONS (crystal)
La1      0.166666667   0.166666667   0.383173129    0   0   0
La1      0.666666667   0.166666667   0.383173129    0   0   0
La1      0.166666667   0.666666667   0.383173129    0   0   0
La1      0.666666667   0.666666667   0.383173129    0   0   0
La1      0.833333333   0.333333333   0.500000000    0   0   0
La1      0.333333333   0.333333333   0.500000000    0   0   0
La1      0.833333333   0.833333333   0.500000000    0   0   0
La1      0.333333333   0.833333333   0.500000000    0   0   0
La1     -0.000001000   0.000001147   0.609998326
La1      0.496253023   0.007493417   0.626074994
La1      0.007493008   0.496253102   0.626073833
La1      0.496251762   0.496250581   0.626074291
N1       0.333335304   0.333333894   0.669524576
H1       0.333333033   0.333335598   0.709141853
End final coordinates

     Writing output data file calc.save

     General routines

     Parallel routines

   This run was terminated on:   4:37: 5  19Apr2018

   JOB DONE.
Job  /afs/slac/g/suncat/bin/suncat-tsmpirun -x LD_LIBRARY_PATH -wdir /scratch/qe325801_wDTGM pw.x -npool 4 -in pw.inp

TID   HOST_NAME   COMMAND_LINE            STATUS            TERMINATION_TIME
00000 suncat0070 pw.x -npool 4 -i  Done                     04/19/2018 04:37:05
00001 suncat0070 pw.x -npool 4 -i  Done                     04/19/2018 04:37:05
00002 suncat0070 pw.x -npool 4 -i  Done                     04/19/2018 04:37:05
00003 suncat0070 pw.x -npool 4 -i  Done                     04/19/2018 04:37:05
00004 suncat0070 pw.x -npool 4 -i  Done                     04/19/2018 04:37:05
00005 suncat0070 pw.x -npool 4 -i  Done                     04/19/2018 04:37:05
00006 suncat0070 pw.x -npool 4 -i  Done                     04/19/2018 04:37:05
00007 suncat0070 pw.x -npool 4 -i  Done                     04/19/2018 04:37:05
00008 suncat0060 pw.x -npool 4 -i  Done                     04/19/2018 04:37:05
00009 suncat0060 pw.x -npool 4 -i  Done                     04/19/2018 04:37:05
00010 suncat0060 pw.x -npool 4 -i  Done                     04/19/2018 04:37:05
00011 suncat0060 pw.x -npool 4 -i  Done                     04/19/2018 04:37:05
00012 suncat0060 pw.x -npool 4 -i  Done                     04/19/2018 04:37:05
00013 suncat0060 pw.x -npool 4 -i  Done                     04/19/2018 04:37:05
00014 suncat0060 pw.x -npool 4 -i  Done                     04/19/2018 04:37:05
00015 suncat0060 pw.x -npool 4 -i  Done                     04/19/2018 04:37:05
00016 suncat0037 pw.x -npool 4 -i  Done                     04/19/2018 04:37:05
00017 suncat0037 pw.x -npool 4 -i  Done                     04/19/2018 04:37:05
00018 suncat0037 pw.x -npool 4 -i  Done                     04/19/2018 04:37:05
00019 suncat0037 pw.x -npool 4 -i  Done                     04/19/2018 04:37:05
00020 suncat0037 pw.x -npool 4 -i  Done                     04/19/2018 04:37:05
00021 suncat0037 pw.x -npool 4 -i  Done                     04/19/2018 04:37:05
00022 suncat0037 pw.x -npool 4 -i  Done                     04/19/2018 04:37:05
00023 suncat0037 pw.x -npool 4 -i  Done                     04/19/2018 04:37:05
00024 suncat0136 pw.x -npool 4 -i  Done                     04/19/2018 04:37:05
00025 suncat0136 pw.x -npool 4 -i  Done                     04/19/2018 04:37:05
00026 suncat0136 pw.x -npool 4 -i  Done                     04/19/2018 04:37:05
00027 suncat0136 pw.x -npool 4 -i  Done                     04/19/2018 04:37:05
00028 suncat0136 pw.x -npool 4 -i  Done                     04/19/2018 04:37:05
00029 suncat0136 pw.x -npool 4 -i  Done                     04/19/2018 04:37:05
00030 suncat0136 pw.x -npool 4 -i  Done                     04/19/2018 04:37:05
00031 suncat0136 pw.x -npool 4 -i  Done                     04/19/2018 04:37:05