     Program PWSCF v.5.1rc2 (svn rev. 11289) starts on 18Jan2018 at 20: 0:33

     Current dimensions of program PWSCF are:
     Max number of different atomic species (ntypx) = 10
     Max number of k-points (npk) =  40000
     Max angular momentum in pseudopotentials (lmaxx) =  3
     Presently stress not available with electric field

     IMPORTANT: XC functional enforced from input :
     Exchange-correlation      = BEEF-VDW ( 1  4 27 13 2)
     Any further DFT definition will be discarded
     Please, verify this is what you really want

     Subspace diagonalization in iterative solution of the eigenvalue problem:
     a serial algorithm will be used

     bravais-lattice index     =            0
     lattice parameter (alat)  =       1.8897  a.u.
     unit-cell volume          =    4306.9643 (a.u.)^3
     number of atoms/cell      =           13
     number of atomic types    =            2
     number of electrons       =       184.00
     number of Kohn-Sham states=          102
     kinetic-energy cutoff     =      36.7493  Ry
     charge density cutoff     =     367.4932  Ry
     convergence threshold     =      1.0E-05
     mixing beta               =       0.3000
     number of iterations used =           10  plain     mixing
     Exchange-correlation      = BEEF-VDW ( 1  4 27 13 2)
     nstep                     =           50

     celldm(1)=   1.889726  celldm(2)=   0.000000  celldm(3)=   0.000000
     celldm(4)=   0.000000  celldm(5)=   0.000000  celldm(6)=   0.000000

     crystal axes: (cart. coord. in units of alat)
               a(1) = (   5.486772   0.000000   0.000000 )
               a(2) = (   2.743386   4.751684   0.000000 )
               a(3) = (   0.000000   0.000000  24.479931 )

     reciprocal axes: (cart. coord. in units 2 pi/alat)
               b(1) = (  0.182257 -0.105226  0.000000 )
               b(2) = (  0.000000  0.210452  0.000000 )
               b(3) = (  0.000000  0.000000  0.040850 )

     PseudoPot. # 1 for Re read from file:
     /afs/slac.stanford.edu/u/if/mamunm/psp/gbrv1.5pbe/Re.UPF
     MD5 check sum: 85f993410f3e006da9d71c142b4ad953
     Pseudo is Ultrasoft + core correction, Zval = 15.0
     Generated by new atomic code, or converted to UPF format
     Using radial grid of  981 points,  8 beta functions with:
                l(1) =   0
                l(2) =   0
                l(3) =   1
                l(4) =   1
                l(5) =   2
                l(6) =   2
                l(7) =   3
                l(8) =   3
     Q(r) pseudized with  8 coefficients,  rinner =    1.150   1.150   1.150
                                                       1.150   1.150   1.150
                                                       1.150

     PseudoPot. # 2 for C  read from file:
     /afs/slac.stanford.edu/u/if/mamunm/psp/gbrv1.5pbe/C.UPF
     MD5 check sum: d1aef80898a10debaa0f26306b886e00
     Pseudo is Ultrasoft + core correction, Zval =  4.0
     Generated by new atomic code, or converted to UPF format
     Using radial grid of  721 points,  4 beta functions with:
                l(1) =   0
                l(2) =   0
                l(3) =   1
                l(4) =   1
     Q(r) pseudized with  8 coefficients,  rinner =    1.100   1.100   1.100

     vdW kernel table read from file vdW_kernel_table
     MD5 check sum: 095c7af220d748ca6e76c0b4c6cfb241

     atomic species   valence    mass     pseudopotential
        Re1           15.00   186.20700     Re( 1.00)
        C1             4.00    12.01100     C ( 1.00)

     No symmetry found

   Cartesian axes

     site n.     atom                  positions (alat units)
         1           Re1 tau(   1) = (   1.3716930   0.7919474  10.0000000  )
         2           Re1 tau(   2) = (   4.1150791   0.7919474  10.0000000  )
         3           Re1 tau(   3) = (   2.7433861   3.1677894  10.0000000  )
         4           Re1 tau(   4) = (   5.4867722   3.1677894  10.0000000  )
         5           Re1 tau(   5) = (   5.4867722   1.5838947  12.2399654  )
         6           Re1 tau(   6) = (   2.7433861   1.5838947  12.2399654  )
         7           Re1 tau(   7) = (   6.8584652   3.9597368  12.2399654  )
         8           Re1 tau(   8) = (   4.1150791   3.9597368  12.2399654  )
         9           Re1 tau(   9) = (   0.0000000   0.0000000  14.4799307  )
        10           Re1 tau(  10) = (   2.7433861   0.0000000  14.4799307  )
        11           Re1 tau(  11) = (   1.3716930   2.3758421  14.4799307  )
        12           Re1 tau(  12) = (   4.1150791   2.3758421  14.4799307  )
        13           C1  tau(  13) = (   0.0000000   0.0000000  16.7499307  )

     number of k points=    20  Fermi-Dirac smearing, width (Ry)=  0.0110
                       cart. coord. in units 2pi/alat
        k(    1) = (   0.0000000   0.0000000   0.0000000), wk =   0.0555556
        k(    2) = (   0.0000000   0.0350753   0.0000000), wk =   0.1111111
        k(    3) = (   0.0000000   0.0701506   0.0000000), wk =   0.1111111
        k(    4) = (   0.0000000  -0.1052259   0.0000000), wk =   0.0555556
        k(    5) = (   0.0303761  -0.0175376   0.0000000), wk =   0.1111111
        k(    6) = (   0.0303761   0.0175376   0.0000000), wk =   0.1111111
        k(    7) = (   0.0303761   0.0526129   0.0000000), wk =   0.1111111
        k(    8) = (   0.0303761  -0.1227635   0.0000000), wk =   0.1111111
        k(    9) = (   0.0303761  -0.0876882   0.0000000), wk =   0.1111111
        k(   10) = (   0.0303761  -0.0526129   0.0000000), wk =   0.1111111
        k(   11) = (   0.0607522  -0.0350753   0.0000000), wk =   0.1111111
        k(   12) = (   0.0607522   0.0000000   0.0000000), wk =   0.1111111
        k(   13) = (   0.0607522   0.0350753   0.0000000), wk =   0.1111111
        k(   14) = (   0.0607522  -0.1403011   0.0000000), wk =   0.1111111
        k(   15) = (   0.0607522  -0.1052259   0.0000000), wk =   0.1111111
        k(   16) = (   0.0607522  -0.0701506   0.0000000), wk =   0.1111111
        k(   17) = (  -0.0911283   0.0526129   0.0000000), wk =   0.0555556
        k(   18) = (  -0.0911283   0.0876882   0.0000000), wk =   0.1111111
        k(   19) = (  -0.0911283   0.1227635   0.0000000), wk =   0.1111111
        k(   20) = (  -0.0911283  -0.0526129   0.0000000), wk =   0.0555556

     Largest allocated arrays     est. size (Mb)     dimensions
     Largest temporary arrays     est. size (Mb)     dimensions

     Initial potential from superposition of free atoms
     Check: negative starting charge=   -1.539530

     starting charge  177.99942, renormalised to  184.00000

     negative rho (up, down):  1.591E+00 0.000E+00

     *
     * You are using vdW-DF for exchange-correlation in this calculation.
     * Please cite the following three references that made this development
     * possible:
     *
     *   M. Dion, H. Rydberg, E. Schroder, D. C. Langreth, and
     *   B. I. Lundqvist, Phys. Rev. Lett. 92, 246401 (2004).
     *
     *   T. Thonhauser, V. R. Cooper, S. Li, A. Puzder, P. Hyldgaard, and
     *   D. C. Langreth, Phys. Rev. B 76, 125112 (2007).
     *
     *   G. Roman-Perez and J. M. Soler, Phys. Rev. Lett. 103, 096102 (2009).
     *
     *
     * If you are using vdW-DF2, please also cite:
     *
     *   K. Lee, E. D. Murray, L. Kong, B. I. Lundqvist, and
     *   D. C. Langreth, Phys. Rev. B 82, 081101(R) (2010).
     *
     *
     * If you are calculating the stress with vdW-DF, please also cite:
     *
     *   R. Sabatini, E. Kucukbenli, B. Kolb, T. Thonhauser, and
     *   S. de Gironcoli, J. Phys.: Condens. Matter 24, 424209 (2012).
     *

     Carrying out vdW-DF run using the following parameters:

     Nqs =      20    Nr_points =    1024   r_max =   100.000
     q_mesh =
               0.00001000     0.04494208     0.09755937     0.15916263
               0.23128650     0.31572767     0.41458969     0.53033537
               0.66584808     0.82450364     1.01025438     1.22772762
               1.48234092     1.78043706     2.12944203     2.53805004
               3.01644009     3.57652955     4.23227104     5.00000000

     Gradients computed in reciprocal space

     Adding external electric field

     Computed dipole along edir(3) :
        Dipole               -1.1489 Ry au,         -2.9201 Debye
        Dipole field         -0.0034 Ry au

        Potential amp.        0.3024 Ry
        Total length         45.1039 bohr

     Starting wfc are  160 randomized atomic wfcs

     Self-consistent Calculation

     iteration #  1     ecut=    36.75 Ry     beta=0.30
     Davidson diagonalization with overlap
     ethr =  1.00E-02,  avg # of iterations =  2.0

[...]

     total energy              =   -2301.56692051 Ry
     Harris-Foulkes estimate   =   -2317.64524229 Ry
     estimated scf accuracy    <      33.50072800 Ry

[...]

     iteration # 14     ecut=    36.75 Ry     beta=0.30
     Davidson diagonalization with overlap
     c_bands:  1 eigenvalues not converged
     c_bands:  1 eigenvalues not converged
     ethr =  8.44E-06,  avg # of iterations =  6.5

[...]

     End of self-consistent calculation

          k = 0.0000 0.0000 0.0000 ( 16091 PWs)   bands (ev):

   -77.8924 -77.8134 -77.7837 -77.7693 -77.7690 -77.7435 -77.7187 -77.7165
   -77.7114 -77.6775 -77.6773 -77.6707 -40.1429 -40.1426 -40.1065 -40.0245
   -39.9557 -39.9551 -39.9488 -39.8340 -39.8336 -39.8247 -39.5973 -39.4811
   -39.4796 -39.4662 -39.4589 -39.4588 -39.4432 -39.3768 -39.3768 -39.3696
   -39.2617 -39.2483 -39.2481 -39.1688 -39.1604 -39.1551 -39.1545 -39.1261
   -39.1261 -39.0960 -39.0876 -39.0874 -38.9484 -38.9482 -38.8926 -38.8926
    -6.6380  -5.8804  -4.4208  -3.9468  -3.5701  -3.5701  -3.5507  -3.2604
    -3.2603  -3.2083  -2.5841  -2.5840  -2.5702  -2.3915  -2.3914  -2.3692
    -0.9087  -0.9084  -0.8370   0.1875   0.1875   0.2113   0.3837   0.5331
     0.8969   0.8969   1.1233   1.3346   1.3346   1.3573   1.3575   1.3880
     1.4010   1.4014   1.6414   1.6415   1.9970   2.2802   2.2803   2.8148
     3.0148   3.3373   3.3375   3.3875   3.6635   3.7493   3.7493   3.9808
     3.9808   4.5089   4.5207   4.5207   4.8574   4.8580

[...]

          k =-0.0911 0.0526 0.0000 ( 16164 PWs)   bands (ev):

[...]

     the Fermi energy is     2.7395 ev

!    total energy              =   -2317.09864062 Ry
     Harris-Foulkes estimate   =   -2317.09865190 Ry
     estimated scf accuracy    <       0.00000516 Ry

     The total energy is the sum of the following terms:

     one-electron contribution =  -18622.78183145 Ry
     hartree contribution      =    9296.74805738 Ry
     xc contribution           =    -652.58849682 Ry
     ewald contribution        =    7661.59334838 Ry
     electric field correction =       0.00018454 Ry
     smearing contrib. (-TS)   =      -0.06990266 Ry

     convergence has been achieved in  19 iterations

 BEEF-vdW xc energy contributions
           1 :   -580.156751248443
           2 :    539.344543366885
           3 :   -466.104175595712
           4 :    374.341513392885
           5 :   -279.370307555378
           6 :    194.045317713875
           7 :   -126.172994784963
           8 :    77.7824674873792
           9 :   -46.2076017893359
[...]

[...]

     Total force =     0.116704     Total SCF correction =     0.017609
     SCF correction compared to forces is large: reduce conv_thr to get better values

[...]

     Program PWSCF v.5.1rc2 (svn rev. 11289) starts on 18Jan2018 at 20:30:55

[...]

   This run was terminated on:  21: 1:23  18Jan2018

[...]

     Program PWSCF v.5.1rc2 (svn rev. 11289) starts on 18Jan2018 at 21: 1:29

[...]

     Total force =     0.062606     Total SCF correction =     0.009226
     SCF correction compared to forces is large: reduce conv_thr to get better values

[...]

     Program PWSCF v.5.1rc2 (svn rev. 11289) starts on 18Jan2018 at 21:17:43

     Current dimensions of program PWSCF are:
     Max number of different atomic species (ntypx) = 10
     Max number of k-points (npk) =  40000
     Max angular momentum in pseudopotentials (lmaxx) =  3
     Presently stress not available with electric field

     IMPORTANT: XC functional enforced from input :
     Exchange-correlation      = BEEF-VDW ( 1  4 27 13 2)
     Any further DFT definition will be discarded
     Please, verify this is what you really want

     Subspace diagonalization in iterative solution of the eigenvalue problem:
     a serial algorithm will be used

     bravais-lattice index     =            0
     lattice parameter (alat)  =       1.8897  a.u.
     unit-cell volume          =    4306.9643 (a.u.)^3
     number of atoms/cell      =           13
     number of atomic types    =            2
     number of electrons       =       184.00
     number of Kohn-Sham states=          102
     kinetic-energy cutoff     =      36.7493  Ry
     charge density cutoff     =     367.4932  Ry
     convergence threshold     =      1.0E-05
     mixing beta               =       0.3000
     number of iterations used =           10  plain     mixing
     Exchange-correlation      = BEEF-VDW ( 1  4 27 13 2)
     nstep                     =           50

     celldm(1)=   1.889726  celldm(2)=   0.000000  celldm(3)=   0.000000
     celldm(4)=   0.000000  celldm(5)=   0.000000  celldm(6)=   0.000000

     crystal axes: (cart. coord. in units of alat)
               a(1) = (   5.486772   0.000000   0.000000 )
               a(2) = (   2.743386   4.751684   0.000000 )
               a(3) = (   0.000000   0.000000  24.479931 )

     reciprocal axes: (cart. coord. in units 2 pi/alat)
               b(1) = (  0.182257 -0.105226  0.000000 )
               b(2) = (  0.000000  0.210452  0.000000 )
               b(3) = (  0.000000  0.000000  0.040850 )

     PseudoPot. # 1 for Re read from file:
     /afs/slac.stanford.edu/u/if/mamunm/psp/gbrv1.5pbe/Re.UPF
     MD5 check sum: 85f993410f3e006da9d71c142b4ad953
     Pseudo is Ultrasoft + core correction, Zval = 15.0
     Generated by new atomic code, or converted to UPF format
     Using radial grid of  981 points,  8 beta functions with:
                l(1) =   0
                l(2) =   0
                l(3) =   1
                l(4) =   1
                l(5) =   2
                l(6) =   2
                l(7) =   3
                l(8) =   3
     Q(r) pseudized with  8 coefficients,  rinner =    1.150   1.150   1.150
                                                       1.150   1.150   1.150
                                                       1.150

     PseudoPot. # 2 for C  read from file:
     /afs/slac.stanford.edu/u/if/mamunm/psp/gbrv1.5pbe/C.UPF
     MD5 check sum: d1aef80898a10debaa0f26306b886e00
     Pseudo is Ultrasoft + core correction, Zval =  4.0
     Generated by new atomic code, or converted to UPF format
     Using radial grid of  721 points,  4 beta functions with:
                l(1) =   0
                l(2) =   0
                l(3) =   1
                l(4) =   1
     Q(r) pseudized with  8 coefficients,  rinner =    1.100   1.100   1.100

     vdW kernel table read from file vdW_kernel_table
     MD5 check sum: 095c7af220d748ca6e76c0b4c6cfb241

     atomic species   valence    mass     pseudopotential
        Re1           15.00   186.20700     Re( 1.00)
        C1             4.00    12.01100     C ( 1.00)

     No symmetry found

   Cartesian axes

     site n.     atom                  positions (alat units)
         1           Re1 tau(   1) = (   1.3716930   0.7919474  10.0000000  )
         2           Re1 tau(   2) = (   4.1150791   0.7919474  10.0000000  )
         3           Re1 tau(   3) = (   2.7433861   3.1677894  10.0000000  )
         4           Re1 tau(   4) = (   5.4867722   3.1677894  10.0000000  )
         5           Re1 tau(   5) = (   5.4867722   1.5838947  12.2399654  )
         6           Re1 tau(   6) = (   2.7433861   1.5838947  12.2399654  )
         7           Re1 tau(   7) = (   6.8584652   3.9597368  12.2399654  )
         8           Re1 tau(   8) = (   4.1150791   3.9597368  12.2399654  )
         9           Re1 tau(   9) = (   2.7434440   4.7515430  14.7231518  )
        10           Re1 tau(  10) = (   5.4866186   4.7464237  14.3921202  )
        11           Re1 tau(  11) = (   6.8540721   2.3784909  14.3923253  )
        12           Re1 tau(  12) = (   4.1195413   2.3786891  14.3921977  )
        13           C1  tau(  13) = (   2.7433798   4.7516621  16.5166117  )

     number of k points=    20  Fermi-Dirac smearing, width (Ry)=  0.0110
                       cart. coord. in units 2pi/alat
        k(    1) = (   0.0000000   0.0000000   0.0000000), wk =   0.0555556
        k(    2) = (   0.0000000   0.0350753   0.0000000), wk =   0.1111111
        k(    3) = (   0.0000000   0.0701506   0.0000000), wk =   0.1111111
        k(    4) = (   0.0000000  -0.1052259   0.0000000), wk =   0.0555556
        k(    5) = (   0.0303761  -0.0175376   0.0000000), wk =   0.1111111
        k(    6) = (   0.0303761   0.0175376   0.0000000), wk =   0.1111111
        k(    7) = (   0.0303761   0.0526129   0.0000000), wk =   0.1111111
        k(    8) = (   0.0303761  -0.1227635   0.0000000), wk =   0.1111111
        k(    9) = (   0.0303761  -0.0876882   0.0000000), wk =   0.1111111
        k(   10) = (   0.0303761  -0.0526129   0.0000000), wk =   0.1111111
        k(   11) = (   0.0607522  -0.0350753   0.0000000), wk =   0.1111111
        k(   12) = (   0.0607522   0.0000000   0.0000000), wk =   0.1111111
        k(   13) = (   0.0607522   0.0350753   0.0000000), wk =   0.1111111
        k(   14) = (   0.0607522  -0.1403011   0.0000000), wk =   0.1111111
        k(   15) = (   0.0607522  -0.1052259   0.0000000), wk =   0.1111111
        k(   16) = (   0.0607522  -0.0701506   0.0000000), wk =   0.1111111
        k(   17) = (  -0.0911283   0.0526129   0.0000000), wk =   0.0555556
        k(   18) = (  -0.0911283   0.0876882   0.0000000), wk =   0.1111111
        k(   19) = (  -0.0911283   0.1227635   0.0000000), wk =   0.1111111
        k(   20) = (  -0.0911283  -0.0526129   0.0000000), wk =   0.0555556

     Largest allocated arrays     est. size (Mb)     dimensions
     Largest temporary arrays     est. size (Mb)     dimensions

     Initial potential from superposition of free atoms
     Check: negative starting charge=   -1.540832

     starting charge  177.99942, renormalised to  184.00000

[...]

     *
     * You are using vdW-DF for exchange-correlation in this calculation.
     * Please cite the following three references that made this development
     * possible:
     *
     *   M. Dion, H. Rydberg, E. Schroder, D. C. Langreth, and
     *   B. I. Lundqvist, Phys. Rev. Lett. 92, 246401 (2004).
     *
     *   T. Thonhauser, V. R. Cooper, S. Li, A. Puzder, P. Hyldgaard, and
     *   D. C. Langreth, Phys. Rev. B 76, 125112 (2007).
     *
     *   G. Roman-Perez and J. M. Soler, Phys. Rev. Lett. 103, 096102 (2009).
     *
     *
     * If you are using vdW-DF2, please also cite:
     *
     *   K. Lee, E. D. Murray, L. Kong, B. I. Lundqvist, and
     *   D. C. Langreth, Phys. Rev. B 82, 081101(R) (2010).
     *
     *
     * If you are calculating the stress with vdW-DF, please also cite:
     *
     *   R. Sabatini, E. Kucukbenli, B. Kolb, T. Thonhauser, and
     *   S. de Gironcoli, J. Phys.: Condens. Matter 24, 424209 (2012).
     *

     Carrying out vdW-DF run using the following parameters:

     Nqs =      20    Nr_points =    1024   r_max =   100.000
     q_mesh =
               0.00001000     0.04494208     0.09755937     0.15916263
               0.23128650     0.31572767     0.41458969     0.53033537
               0.66584808     0.82450364     1.01025438     1.22772762
               1.48234092     1.78043706     2.12944203     2.53805004
               3.01644009     3.57652955     4.23227104     5.00000000

     Gradients computed in reciprocal space

[...]

     Starting wfc are  160 randomized atomic wfcs

     Self-consistent Calculation

[...]

     total energy              =   -2317.21501966 Ry
     Harris-Foulkes estimate   =   -2317.21502259 Ry
     estimated scf accuracy    <       0.00002935 Ry

     iteration # 21     ecut=    36.75 Ry     beta=0.30
     Davidson diagonalization with overlap
     ethr =  9.57E-09,  avg # of iterations =  3.3

[...]

     negative rho (up, down):  1.619E+00 0.000E+00

     Adding external electric field

     Computed dipole along edir(3) :
        Dipole               -0.3121 Ry au,         -0.7934 Debye
        Dipole field         -0.0009 Ry au

        Potential amp.        0.0822 Ry
        Total length         45.1039 bohr

     End of self-consistent calculation

[...]

          k = 0.0608-0.0702 0.0000 ( 16218 PWs)   bands (ev):

[...]

          k =-0.0911-0.0526 0.0000 ( 16164 PWs)   bands (ev):

   -77.9729 -77.9675 -77.9264 -77.9241 -77.8345 -77.8203 -77.7988 -77.7753
   -77.7588 -77.7406 -77.7385 -77.3600 -40.1230 -40.1049 -40.0399 -39.9728
   -39.9539 -39.9041 -39.8710 -39.8560 -39.7940 -39.7494 -39.7301 -39.6653
   -39.5539 -39.5162 -39.5076 -39.4951 -39.4768 -39.4750 -39.4674 -39.4486
   -39.4297 -39.4141 -39.4036 -39.3859 -39.3836 -39.3708 -39.3061 -39.2571
   -39.2498 -39.2263 -39.2186 -39.1230 -39.0978 -39.0736 -39.0564 -38.9033
    -6.3595  -4.6040  -4.4333  -3.0424  -2.8338  -2.4833  -2.4765  -2.4418
    -2.4174  -2.3048  -2.2516  -1.6911  -1.6071  -1.3406  -1.2736  -1.2062
    -0.9854  -0.8319  -0.7954  -0.7854  -0.4537  -0.2594  -0.2165  -0.0620
     0.2449   0.3038   0.4866   0.5453   0.6023   0.6333   0.7082   0.8446
     0.8459   0.8952   0.9976   1.1644   1.1726   1.3874   1.4648   1.5774
     1.6875   1.9867   2.4684   2.5015   2.6097   2.7396   2.8250   2.9224
     3.1698   3.3352   3.3920   3.6359   3.7674   3.8084

     the Fermi energy is     2.6193 ev

!    total energy              =   -2317.21502150 Ry
     Harris-Foulkes estimate   =   -2317.21502619 Ry
     estimated scf accuracy    <       0.00000111 Ry

     The total energy is the sum of the following terms:

     one-electron contribution =  -18687.58564574 Ry
     hartree contribution      =    9328.81084674 Ry
     xc contribution           =    -653.00487463 Ry
     ewald contribution        =    7694.63568540 Ry
     electric field correction =       0.00028426 Ry
     smearing contrib. (-TS)   =      -0.07131754 Ry

     convergence has been achieved in  21 iterations

 BEEF-vdW xc energy contributions
           1 :   -580.562753398949
           2 :    539.799158646244
           3 :   -466.619780884902
           4 :    374.873610554605
           5 :   -279.825950415868
           6 :    194.318836888427
           7 :   -126.195761026788
           8 :    77.5634048706708
           9 :   -45.8394146412061
          10 :    25.9336293675823
          11 :   -12.6189567951629
          12 :    2.23989024238324
          13 :    6.67493447835807
          14 :   -13.8310801409308
          15 :    18.1851587724769
          16 :   -19.0205805352376
          17 :    16.6267117242725
          18 :   -12.3507650732312
          19 :    8.08615826047958
          20 :   -5.50087183758785
          21 :    5.38534932938740
          22 :   -7.40979539961450
          23 :    10.3700401168903
          24 :   -12.7806959159751
          25 :    13.5323547808699
          26 :   -12.3236899562523
          27 :    9.70055921357414
          28 :   -6.72507400207098
          29 :    4.45796628975870
          30 :   -3.50433515606744
          31 :   -48.3573761775252
          32 :   -35.9006418063086

     Forces acting on atoms (Ry/au):

     negative rho (up, down):  1.619E+00 0.000E+00
     atom    1 type  1   force =     0.00144110    0.00076394    0.01777037
     atom    2 type  1   force =    -0.00143380    0.00076580    0.01775592
     atom    3 type  1   force =     0.00000743   -0.00159685    0.01783224
     atom    4 type  1   force =    -0.00001084    0.00006309    0.02421557
     atom    5 type  1   force =    -0.00007114    0.00787845   -0.01928875
     atom    6 type  1   force =     0.00006093    0.00003681   -0.01862113
     atom    7 type  1   force =    -0.00679998   -0.00391695   -0.01935011
     atom    8 type  1   force =     0.00679110   -0.00399304   -0.01931950
     atom    9 type  1   force =    -0.00009529    0.00010120    0.00105737
     atom   10 type  1   force =     0.00012313   -0.00021727   -0.00020655
     atom   11 type  1   force =    -0.00027593    0.00013772   -0.00022107
     atom   12 type  1   force =     0.00026160   -0.00001661   -0.00019008
     atom   13 type  2   force =     0.00000170   -0.00000629   -0.00143426

     Total force =     0.056560     Total SCF correction =     0.003397

     entering subroutine stress ...

     negative rho (up, down):  1.619E+00 0.000E+00
          total   stress  (Ry/bohr**3)                   (kbar)     P=  -17.17
  -0.00011875  -0.00000002  -0.00000000        -17.47     -0.00     -0.00
  -0.00000002  -0.00011876   0.00000000         -0.00    -17.47      0.00
  -0.00000000   0.00000000  -0.00011255         -0.00      0.00    -16.56

 !ASE

     Writing output data file calc.save

     General routines

     Parallel routines

   This run was terminated on:  21:33:53  18Jan2018

   JOB DONE.
Job  /afs/slac/g/suncat/bin/suncat-tsmpirun -x LD_LIBRARY_PATH -wdir /scratch/qe891277_pBKcY pw.x -in pw.inp

TID   HOST_NAME   COMMAND_LINE            STATUS            TERMINATION_TIME
00000 suncat0217 pw.x -in pw.inp   Done                     01/18/2018 21:33:53
00001 suncat0217 pw.x -in pw.inp   Done                     01/18/2018 21:33:53
00002 suncat0217 pw.x -in pw.inp   Done                     01/18/2018 21:33:53
00003 suncat0217 pw.x -in pw.inp   Done                     01/18/2018 21:33:53
00004 suncat0217 pw.x -in pw.inp   Done                     01/18/2018 21:33:53
00005 suncat0217 pw.x -in pw.inp   Done                     01/18/2018 21:33:53
00006 suncat0217 pw.x -in pw.inp   Done                     01/18/2018 21:33:53
00007 suncat0217 pw.x -in pw.inp   Done                     01/18/2018 21:33:53
00008 suncat0216 pw.x -in pw.inp   Done                     01/18/2018 21:33:53
00009 suncat0216 pw.x -in pw.inp   Done                     01/18/2018 21:33:53
00010 suncat0216 pw.x -in pw.inp   Done                     01/18/2018 21:33:53
00011 suncat0216 pw.x -in pw.inp   Done                     01/18/2018 21:33:53
00012 suncat0216 pw.x -in pw.inp   Done                     01/18/2018 21:33:53
00013 suncat0216 pw.x -in pw.inp   Done                     01/18/2018 21:33:53
00014 suncat0216 pw.x -in pw.inp   Done                     01/18/2018 21:33:53
00015 suncat0216 pw.x -in pw.inp   Done                     01/18/2018 21:33:53
00016 suncat0215 pw.x -in pw.inp   Done                     01/18/2018 21:33:53
00017 suncat0215 pw.x -in pw.inp   Done                     01/18/2018 21:33:53
00018 suncat0215 pw.x -in pw.inp   Done                     01/18/2018 21:33:53
00019 suncat0215 pw.x -in pw.inp   Done                     01/18/2018 21:33:53
00020 suncat0215 pw.x -in pw.inp   Done                     01/18/2018 21:33:53
00021 suncat0215 pw.x -in pw.inp   Done                     01/18/2018 21:33:53
00022 suncat0215 pw.x -in pw.inp   Done                     01/18/2018 21:33:53
00023 suncat0215 pw.x -in pw.inp   Done                     01/18/2018 21:33:53
00024 suncat0213 pw.x -in pw.inp   Done                     01/18/2018 21:33:53
00025 suncat0213 pw.x -in pw.inp   Done                     01/18/2018 21:33:53
00026 suncat0213 pw.x -in pw.inp   Done                     01/18/2018 21:33:53
00027 suncat0213 pw.x -in pw.inp   Done                     01/18/2018 21:33:53
00028 suncat0213 pw.x -in pw.inp   Done                     01/18/2018 21:33:53
00029 suncat0213 pw.x -in pw.inp   Done                     01/18/2018 21:33:53
00030 suncat0213 pw.x -in pw.inp   Done                     01/18/2018 21:33:53
00031 suncat0213 pw.x -in pw.inp   Done                     01/18/2018 21:33:53