     Program PWSCF v.5.1rc2 (svn rev. 11289) starts on  8May2018 at 15:42:14

     Current dimensions of program PWSCF are:
     Max number of different atomic species (ntypx) = 10
     Max number of k-points (npk) =  40000
     Max angular momentum in pseudopotentials (lmaxx) =  3
     Presently stress not available with electric field

     IMPORTANT: XC functional enforced from input :
     Exchange-correlation      = BEEF-VDW ( 1  4 27 13 2)
     Any further DFT definition will be discarded
     Please, verify this is what you really want

     Subspace diagonalization in iterative solution of the eigenvalue problem:
     a serial algorithm will be used

     bravais-lattice index     =            0
     lattice parameter (alat)  =       1.8897  a.u.
     unit-cell volume          =    3807.2308 (a.u.)^3
     number of atoms/cell      =           13
     number of atomic types    =            2
     number of electrons       =       232.00
     number of Kohn-Sham states=          126
     kinetic-energy cutoff     =      36.7493  Ry
     charge density cutoff     =     367.4932  Ry
     convergence threshold     =      1.0E-05
     mixing beta               =       0.3000
     number of iterations used =           10  plain     mixing
     Exchange-correlation      = BEEF-VDW ( 1  4 27 13 2)
     nstep                     =           50

     celldm(1)=   1.889726  celldm(2)=   0.000000  celldm(3)=   0.000000
     celldm(4)=   0.000000  celldm(5)=   0.000000  celldm(6)=   0.000000

     crystal axes: (cart. coord. in units of alat)
               a(1) = (   5.184823   0.000000   0.000000 )
               a(2) = (   2.592411   4.490188   0.000000 )
               a(3) = (   0.000000   0.000000  24.233390 )

     reciprocal axes: (cart. coord. in units 2 pi/alat)
               b(1) = (  0.192871 -0.111354  0.000000 )
               b(2) = (  0.000000  0.222708  0.000000 )
               b(3) = (  0.000000  0.000000  0.041265 )

     PseudoPot. # 1 for Cu read from file:
     /u/if/mamunm/psp/gbrv1.5pbe/Cu.UPF
     MD5 check sum: 6e991ff952a84172a2a52a1c1e996048
     Pseudo is Ultrasoft + core correction, Zval = 19.0
     Generated by new atomic code, or converted to UPF format
     Using radial grid of  867 points,  6 beta functions with:
                l(1) =   0
                l(2) =   0
                l(3) =   1
                l(4) =   1
                l(5) =   2
                l(6) =   2
     Q(r) pseudized with  8 coefficients,  rinner =    1.150   1.150   1.150
                                                       1.150   1.150

     PseudoPot. # 2 for C  read from file:
     /u/if/mamunm/psp/gbrv1.5pbe/C.UPF
     MD5 check sum: d1aef80898a10debaa0f26306b886e00
     Pseudo is Ultrasoft + core correction, Zval =  4.0
     Generated by new atomic code, or converted to UPF format
     Using radial grid of  721 points,  4 beta functions with:
                l(1) =   0
                l(2) =   0
                l(3) =   1
                l(4) =   1
     Q(r) pseudized with  8 coefficients,  rinner =    1.100   1.100   1.100

     vdW kernel table read from file vdW_kernel_table
     MD5 check sum: 095c7af220d748ca6e76c0b4c6cfb241

     atomic species   valence    mass     pseudopotential
        Cu1           19.00    63.54600     Cu( 1.00)
        C1             4.00    12.01100     C ( 1.00)

     No symmetry found

   Cartesian axes

     site n.     atom                  positions (alat units)
         1           Cu1 tau(   1) = (   1.2962057   0.7483647  10.0000000  )
         2           Cu1 tau(   2) = (   3.8886170   0.7483647  10.0000000  )
         3           Cu1 tau(   3) = (   2.5924113   2.9934587  10.0000000  )
         4           Cu1 tau(   4) = (   5.1848226   2.9934587  10.0000000  )
         5           Cu1 tau(   5) = (   5.1848226   1.4967294  12.1166950  )
         6           Cu1 tau(   6) = (   2.5924113   1.4967294  12.1166950  )
         7           Cu1 tau(   7) = (   6.4810283   3.7418234  12.1166950  )
         8           Cu1 tau(   8) = (   3.8886170   3.7418234  12.1166950  )
         9           Cu1 tau(   9) = (   0.0000000   0.0000000  14.2333899  )
        10           Cu1 tau(  10) = (   2.5924113   0.0000000  14.2333899  )
        11           Cu1 tau(  11) = (   1.2962057   2.2450940  14.2333899  )
        12           Cu1 tau(  12) = (   3.8886170   2.2450940  14.2333899  )
        13           C1  tau(  13) = (   0.0000000   0.0000000  16.0013899  )

     number of k points=    20  Fermi-Dirac smearing, width (Ry)=  0.0110
                       cart. coord. in units 2pi/alat
        k(    1) = (   0.0000000   0.0000000   0.0000000), wk =   0.0555556
        k(    2) = (   0.0000000   0.0371180   0.0000000), wk =   0.1111111
        k(    3) = (   0.0000000   0.0742359   0.0000000), wk =   0.1111111
        k(    4) = (   0.0000000  -0.1113539   0.0000000), wk =   0.0555556
        k(    5) = (   0.0321451  -0.0185590   0.0000000), wk =   0.1111111
        k(    6) = (   0.0321451   0.0185590   0.0000000), wk =   0.1111111
        k(    7) = (   0.0321451   0.0556770   0.0000000), wk =   0.1111111
        k(    8) = (   0.0321451  -0.1299129   0.0000000), wk =   0.1111111
        k(    9) = (   0.0321451  -0.0927949   0.0000000), wk =   0.1111111
        k(   10) = (   0.0321451  -0.0556770   0.0000000), wk =   0.1111111
        k(   11) = (   0.0642902  -0.0371180   0.0000000), wk =   0.1111111
        k(   12) = (   0.0642902  -0.0000000   0.0000000), wk =   0.1111111
        k(   13) = (   0.0642902   0.0371180   0.0000000), wk =   0.1111111
        k(   14) = (   0.0642902  -0.1484719   0.0000000), wk =   0.1111111
        k(   15) = (   0.0642902  -0.1113539   0.0000000), wk =   0.1111111
        k(   16) = (   0.0642902  -0.0742359   0.0000000), wk =   0.1111111
        k(   17) = (  -0.0964353   0.0556770   0.0000000), wk =   0.0555556
        k(   18) = (  -0.0964353   0.0927949   0.0000000), wk =   0.1111111
        k(   19) = (  -0.0964353   0.1299129   0.0000000), wk =   0.1111111
        k(   20) = (  -0.0964353  -0.0556770   0.0000000), wk =   0.0555556

     Largest allocated arrays     est. size (Mb)     dimensions
     Largest temporary arrays     est. size (Mb)     dimensions

     Initial potential from superposition of free atoms
     Check: negative starting charge=   -0.000143

     starting charge  219.99994, renormalised to  232.00000

     negative rho (up, down):  1.509E-04 0.000E+00

     *
     * You are using vdW-DF for exchange-correlation in this calculation.
     * Please cite the following three references that made this development
     * possible:
     *
     *   M. Dion, H. Rydberg, E. Schroder, D. C. Langreth, and
     *   B. I. Lundqvist, Phys. Rev. Lett. 92, 246401 (2004).
     *
     *   T. Thonhauser, V. R. Cooper, S. Li, A. Puzder, P. Hyldgaard, and
     *   D. C. Langreth, Phys. Rev. B 76, 125112 (2007).
     *
     *   G. Roman-Perez and J. M. Soler, Phys. Rev. Lett. 103, 096102 (2009).
     *
     *
     * If you are using vdW-DF2, please also cite:
     *
     *   K. Lee, E. D. Murray, L. Kong, B. I. Lundqvist, and
     *   D. C. Langreth, Phys. Rev. B 82, 081101(R) (2010).
     *
     *
     * If you are calculating the stress with vdW-DF, please also cite:
     *
     *   R. Sabatini, E. Kucukbenli, B. Kolb, T. Thonhauser, and
     *   S. de Gironcoli, J. Phys.: Condens. Matter 24, 424209 (2012).
     *

     Carrying out vdW-DF run using the following parameters:

     Nqs =      20    Nr_points =    1024   r_max =   100.000
     q_mesh =
               0.00001000     0.04494208     0.09755937     0.15916263
               0.23128650     0.31572767     0.41458969     0.53033537
               0.66584808     0.82450364     1.01025438     1.22772762
               1.48234092     1.78043706     2.12944203     2.53805004
               3.01644009     3.57652955     4.23227104     5.00000000

     Gradients computed in reciprocal space

     Adding external electric field

     Computed dipole along edir(3) :
        Dipole               -1.6014 Ry au,         -4.0703 Debye
        Dipole field         -0.0053 Ry au

        Potential amp.        0.4720 Ry
        Total length         44.6496 bohr

     Starting wfc are  160 randomized atomic wfcs

     Self-consistent Calculation

     iteration #  1     ecut=    36.75 Ry     beta=0.30
     Davidson diagonalization with overlap
     ethr =  1.00E-02,  avg # of iterations =  5.9

[...]

     total energy              =   -4726.26855063 Ry
     Harris-Foulkes estimate   =   -4878.99912272 Ry
     estimated scf accuracy    <     318.96441221 Ry

     iteration #  2     ecut=    36.75 Ry     beta=0.30
     Davidson diagonalization with overlap
     c_bands:  1 eigenvalues not converged
     c_bands:  1 eigenvalues not converged
     c_bands:  2 eigenvalues not converged
     ethr =  1.00E-02,  avg # of iterations = 19.9

[...]

     End of self-consistent calculation

          k = 0.0000 0.0000 0.0000 ( 14321 PWs)   bands (ev):

  -113.8068-112.5889-112.5831-112.5831-112.5356-112.3089-112.3023-112.3023
  -112.2981-112.1998-112.1942-112.1941 -71.4771 -71.0150 -71.0150 -70.0248
   -70.0063 -70.0062 -69.9827 -69.9790 -69.9790 -69.9633 -69.9593 -69.9593
   -69.9348 -69.9201 -69.9201 -69.7641 -69.7590 -69.7590 -69.7102 -69.7099
   -69.7099 -69.6913 -69.6913 -69.6695 -69.6617 -69.6556 -69.6536 -69.6536
   -69.6258 -69.6257 -69.5908 -69.5907 -69.5799 -69.5709 -69.5655 -69.5654
    -9.8132  -8.1296  -6.2175  -5.0462  -4.6918  -4.6918  -4.5183  -4.4877
    -4.4877  -4.3078  -4.2176  -4.2176  -4.0797  -4.0505  -4.0505  -3.8944
    -3.7962  -3.7962  -3.5568  -3.2200  -3.0983  -3.0983  -2.9264  -2.8861
    -2.8861  -2.8628  -2.8416  -2.8416  -2.7319  -2.7319  -2.6731  -2.6528
    -2.6167  -2.6167  -2.5099  -2.5099  -2.3647  -2.3647  -2.1208  -2.1208
    -2.0599  -2.0599  -2.0463  -1.9915  -1.8695  -1.8465  -1.8465  -1.7138
    -1.7138  -1.6653  -1.6487  -1.6487  -1.6189  -1.6189  -1.5782  -1.5705
    -1.5705  -1.5238  -1.5238  -1.3728  -1.3697  -1.3697  -1.2696  -1.1993
    -0.5658  -0.5658  -0.0545   0.2017   0.5516   0.5516   1.2295   1.4561
     1.4561   1.4868   1.6109   2.5515   2.5515   4.0690

[...]

          k =-0.0964 0.0557 0.0000 ( 14294 PWs)   bands (ev):

[...]

     the Fermi energy is     0.0248 ev

!    total energy              =   -4870.45806738 Ry
     Harris-Foulkes estimate   =   -4870.45808721 Ry
     estimated scf accuracy    <       0.00000374 Ry

     The total energy is the sum of the following terms:

     one-electron contribution =  -37499.10170293 Ry
     hartree contribution      =   18761.76870724 Ry
     xc contribution           =    -483.31558260 Ry
     ewald contribution        =   14350.22027836 Ry
     electric field correction =       0.00029144 Ry
     smearing contrib. (-TS)   =      -0.03005889 Ry

     convergence has been achieved in  23 iterations

 BEEF-vdW xc energy contributions
           1 :   -428.270900275865
           2 :    388.255737542161
           3 :   -320.475237429640
           4 :    243.579163026834
           5 :   -174.537851229564
           6 :    122.565401344634
           7 :   -87.6802152269706
           8 :    63.8462793052423
           9 :   -44.2397945060972
          10 :    25.3911530057918
          11 :   -8.13509508091454
          12 :   -4.48362316524936
          13 :    10.3796656619527
          14 :   -10.3714851900292
          15 :    7.76925837637441
          16 :   -6.21659012748557
          17 :    7.47515117782280
          18 :   -10.6654225070396
          19 :    13.3246897611310
          20 :   -13.3898700901630
          21 :    10.6761227010035
          22 :   -6.89875414347011
          23 :    4.35876171420125
          24 :   -4.31625295663287
          25 :    6.20145348844255
          26 :   -8.14825181576282
          27 :    8.38893827634729
          28 :   -6.48916399547477
          29 :    3.57597347498876
          30 :   -1.45943376060342
          31 :   -34.2256613024359
          32 :   -23.3905800626063

     Forces acting on atoms (Ry/au):

     negative rho (up, down):  1.015E-03 0.000E+00
     atom    1 type  1   force =    -0.00051963   -0.00030100    0.00041799
     atom    2 type  1   force =     0.00050508   -0.00030162    0.00039960
     atom    3 type  1   force =    -0.00000231    0.00059619    0.00038868
     atom    4 type  1   force =     0.00001038    0.00000672    0.00050910
     atom    5 type  1   force =     0.00001396    0.00023875   -0.00086384
     atom    6 type  1   force =    -0.00000906    0.00000218    0.00041805
     atom    7 type  1   force =    -0.00020213   -0.00012912   -0.00091959
     atom    8 type  1   force =     0.00019944   -0.00011420   -0.00092900
     atom    9 type  1   force =    -0.00000487   -0.00000038   -0.00059604
     atom   10 type  1   force =     0.00000756   -0.00124596    0.00731094
     atom   11 type  1   force =    -0.00108170    0.00062668    0.00730284
     atom   12 type  1   force =     0.00108373    0.00062386    0.00726373
     atom   13 type  2   force =    -0.00000046   -0.00000210   -0.02070245

     Total force =     0.024355     Total SCF correction =     0.014257
     SCF correction compared to forces is large: reduce conv_thr to get better values

     entering subroutine stress ...

     negative rho (up, down):  1.015E-03 0.000E+00
          total   stress  (Ry/bohr**3)                   (kbar)     P=  -18.90
  -0.00014695  -0.00000000   0.00000000        -21.62     -0.00      0.00
  -0.00000000  -0.00014695   0.00000000         -0.00    -21.62      0.00
   0.00000000   0.00000000  -0.00009151          0.00      0.00    -13.46

     BFGS Geometry Optimization

     number of scf cycles    =   1
     number of bfgs steps    =   0

     energy   new            =   -4870.4580673818 Ry

     new trust radius        =       0.0207024473 bohr
     new conv_thr            =       0.0000099958 Ry

ATOMIC_POSITIONS (crystal)
Cu1      0.166666667   0.166666667   0.412653782    0   0   0
Cu1      0.666666667   0.166666667   0.412653782    0   0   0
Cu1      0.166666667   0.666666667   0.412653782    0   0   0
Cu1      0.666666667   0.666666667   0.412653782    0   0   0
Cu1      0.833333333   0.333333333   0.500000000    0   0   0
Cu1      0.333333333   0.333333333   0.500000000    0   0   0
Cu1      0.833333333   0.833333333   0.500000000    0   0   0
Cu1      0.333333333   0.833333333   0.500000000    0   0   0
Cu1     -0.000000475  -0.000000044   0.587333203
Cu1      0.500074191  -0.000146839   0.587505865
Cu1     -0.000147328   0.500073855   0.587505688
Cu1      0.500073847   0.500073524   0.587504834
C1       0.000000077  -0.000000248   0.659851334

     Writing output data file calc.save
     Check: negative starting charge=   -0.000143
     NEW-OLD atomic charge density approx. for the potential
     Check: negative starting charge=   -0.000144

[...]

     energy   old            =   -4870.4580673818 Ry
     energy   new            =   -4870.4585117476 Ry

     CASE: energy  _new < energy  _old

[...]

     Total force =     0.018882     Total SCF correction =     0.001380

[...]

     WARNING: bfgs curvature condition failed, Theta= 0.842
     new trust radius        =       0.0450284851 bohr
     new conv_thr            =       0.0000001000 Ry

[...]

     Threshold (ethr) on eigenvalues was too large:
     Diagonalizing with lowered threshold

     Davidson diagonalization with overlap
     ethr =  1.65E-08,  avg # of iterations =  1.1

[...]

     Total force =     0.007816     Total SCF correction =     0.000709

[...]

     number of scf cycles    =  17
     number of bfgs steps    =  16

     energy   old            =   -4870.4625175399 Ry
     energy   new            =   -4870.4625525797 Ry

     CASE: energy  _new < energy  _old

     new trust radius        =       0.0172643758 bohr
     new conv_thr            =       0.0000001000 Ry

ATOMIC_POSITIONS (crystal)
Cu1      0.166666667   0.166666667   0.412653782    0   0   0
Cu1      0.666666667   0.166666667   0.412653782    0   0   0
Cu1      0.166666667   0.666666667   0.412653782    0   0   0
Cu1      0.666666667   0.666666667   0.412653782    0   0   0
Cu1      0.833333333   0.333333333   0.500000000    0   0   0
Cu1      0.333333333   0.333333333   0.500000000    0   0   0
Cu1      0.833333333   0.833333333   0.500000000    0   0   0
Cu1      0.333333333   0.833333333   0.500000000    0   0   0
Cu1     -0.000010913   0.000012440   0.581443806
Cu1      0.499977352   0.000044017   0.590128108
Cu1      0.000035711   0.499971594   0.590130224
Cu1      0.499991361   0.499962109   0.590156343
C1       0.000005959  -0.000011877   0.653725028

     Writing output data file calc.save
     Check: negative starting charge=   -0.000147
     NEW-OLD atomic charge density approx. for the potential
     Check: negative starting charge=   -0.000148

[...]

     Self-consistent Calculation

[...]

     total energy              =   -4870.46257685 Ry
     Harris-Foulkes estimate   =   -4870.46257673 Ry
     estimated scf accuracy    <       0.00000020 Ry

     iteration # 11     ecut=    36.75 Ry     beta=0.30
     Davidson diagonalization with overlap
     ethr =  8.68E-11,  avg # of iterations =  2.9

[...]

     negative rho (up, down):  1.087E-03 0.000E+00

     Adding external electric field

     Computed dipole along edir(3) :
        Dipole               -0.2812 Ry au,         -0.7149 Debye
        Dipole field         -0.0009 Ry au

        Potential amp.        0.0829 Ry
        Total length         44.6496 bohr

     End of self-consistent calculation

[...]

          k = 0.0643-0.0742 0.0000 ( 14299 PWs)   bands (ev):

[...]

          k =-0.0964-0.0557 0.0000 ( 14294 PWs)   bands (ev):

  -113.8685-112.5830-112.5812-112.5792-112.4915-112.2853-112.2849-112.2816
  -112.2812-112.1712-112.1690-112.1675 -71.5527 -71.0734 -71.0732 -70.0147
   -69.9981 -69.9882 -69.9776 -69.9770 -69.9681 -69.9655 -69.9642 -69.9503
   -69.8919 -69.8877 -69.8851 -69.7319 -69.7273 -69.7097 -69.7085 -69.7048
   -69.7013 -69.6847 -69.6801 -69.6418 -69.6335 -69.6314 -69.6300 -69.6297
   -69.6094 -69.5943 -69.5758 -69.5693 -69.5597 -69.5402 -69.5379 -69.5365
    -9.8280  -6.4130  -6.3891  -4.9045  -4.8896  -4.6208  -4.5006  -4.4599
    -4.2264  -4.1137  -3.9632  -3.9035  -3.8876  -3.8246  -3.8036  -3.5588
    -3.5566  -3.5291  -3.3935  -3.3139  -3.2771  -3.1909  -3.1429  -3.1026
    -3.0744  -2.9821  -2.9706  -2.8371  -2.7637  -2.7036  -2.6907  -2.6455
    -2.6154  -2.6144  -2.5673  -2.5478  -2.5461  -2.5389  -2.5135  -2.4756
    -2.4455  -2.3403  -2.2962  -2.2617  -2.2120  -2.2031  -2.1629  -2.1176
    -2.0880  -2.0653  -2.0271  -1.9634  -1.9579  -1.9532  -1.8696  -1.8662
    -1.8046  -1.7920  -1.7324  -1.6512  -1.5955  -1.5734  -1.5689  -1.5171
    -1.5080  -0.3347  -0.2071  -0.1528  -0.0816   0.3735   0.8595   1.4921
     1.9301   2.0186   3.2802   3.6088   4.3121   5.0190

     the Fermi energy is     0.0437 ev

!    total energy              =   -4870.46257682 Ry
     Harris-Foulkes estimate   =   -4870.46257609 Ry
     estimated scf accuracy    <       0.00000009 Ry

     The total energy is the sum of the following terms:

     one-electron contribution =  -37474.54940635 Ry
     hartree contribution      =   18749.51120985 Ry
     xc contribution           =    -483.34773391 Ry
     ewald contribution        =   14337.95138393 Ry
     electric field correction =       0.00026108 Ry
     smearing contrib. (-TS)   =      -0.02829143 Ry

     convergence has been achieved in  11 iterations

 BEEF-vdW xc energy contributions
           1 :   -428.302194760926
           2 :    388.293898880590
           3 :   -320.520334078020
           4 :    243.628455299047
           5 :   -174.588326453564
           6 :    122.608676426790
           7 :   -87.7013034411986
           8 :    63.8321078842781
           9 :   -44.1910471667813
          10 :    25.3262928704951
          11 :   -8.08075416531346
          12 :   -4.50970633130026
          13 :    10.3793185264202
          14 :   -10.3628206517969
          15 :    7.77248811978228
          16 :   -6.23823421387311
          17 :    7.50253069287163
          18 :   -10.6771059709889
          19 :    13.3086195662248
          20 :   -13.3547548291656
          21 :    10.6472010108305
          22 :   -6.90007109644733
          23 :    4.39457119967233
          24 :   -4.36618487110155
          25 :    6.23363646793899
          26 :   -8.14065056387329
          27 :    8.34393904443056
          28 :   -6.43151081910605
          29 :    3.53520778692251
          30 :   -1.44909649810899
          31 :   -34.2275808784391
          32 :   -23.3946775919105

     Forces acting on atoms (Ry/au):

     negative rho (up, down):  1.087E-03 0.000E+00
     atom    1 type  1   force =    -0.00033631   -0.00019344    0.00287951
     atom    2 type  1   force =     0.00033648   -0.00019367    0.00288111
     atom    3 type  1   force =    -0.00000009    0.00038763    0.00288121
     atom    4 type  1   force =     0.00000033   -0.00000072    0.00333426
     atom    5 type  1   force =    -0.00001043    0.00803306   -0.00584902
     atom    6 type  1   force =     0.00001037    0.00000761    0.00675419
     atom    7 type  1   force =    -0.00694866   -0.00401371   -0.00586331
     atom    8 type  1   force =     0.00694730   -0.00402563   -0.00584047
     atom    9 type  1   force =     0.00000569   -0.00002200   -0.00082871
     atom   10 type  1   force =    -0.00000596   -0.00133500   -0.00057506
     atom   11 type  1   force =    -0.00113326    0.00067499   -0.00057982
     atom   12 type  1   force =     0.00113356    0.00068508   -0.00062324
     atom   13 type  2   force =     0.00000098   -0.00000421    0.00142935

     Total force =     0.003010     Total SCF correction =     0.001505
     SCF correction compared to forces is large: reduce conv_thr to get better values

     entering subroutine stress ...

     negative rho (up, down):  1.087E-03 0.000E+00
          total   stress  (Ry/bohr**3)                   (kbar)     P=  -24.51
  -0.00019589   0.00000002   0.00000000        -28.82      0.00      0.00
   0.00000002  -0.00019591  -0.00000000          0.00    -28.82     -0.00
   0.00000000  -0.00000000  -0.00010804          0.00     -0.00    -15.89

     bfgs converged in  18 scf cycles and  17 bfgs steps
     (criteria: energy <  1.0E+00, force <  1.9E-03)

     End of BFGS Geometry Optimization

     Final energy   =   -4870.4625768183 Ry
Begin final coordinates

ATOMIC_POSITIONS (crystal)
Cu1      0.166666667   0.166666667   0.412653782    0   0   0
Cu1      0.666666667   0.166666667   0.412653782    0   0   0
Cu1      0.166666667   0.666666667   0.412653782    0   0   0
Cu1      0.666666667   0.666666667   0.412653782    0   0   0
Cu1      0.833333333   0.333333333   0.500000000    0   0   0
Cu1      0.333333333   0.333333333   0.500000000    0   0   0
Cu1      0.833333333   0.833333333   0.500000000    0   0   0
Cu1      0.333333333   0.833333333   0.500000000    0   0   0
Cu1     -0.000010913   0.000012440   0.581443806
Cu1      0.499977352   0.000044017   0.590128108
Cu1      0.000035711   0.499971594   0.590130224
Cu1      0.499991361   0.499962109   0.590156343
C1       0.000005959  -0.000011877   0.653725028
End final coordinates

     Writing output data file calc.save

     General routines

     Parallel routines

   This run was terminated on:  17: 9:13   8May2018

   JOB DONE.
Job  /afs/slac/g/suncat/bin/suncat-tsmpirun -x LD_LIBRARY_PATH -wdir /scratch/qe75267_Xop23 pw.x -npool 4 -in pw.inp

TID   HOST_NAME   COMMAND_LINE            STATUS            TERMINATION_TIME
00000 suncat0035 pw.x -npool 4 -i  Done                     05/08/2018 17:09:13
00001 suncat0035 pw.x -npool 4 -i  Done                     05/08/2018 17:09:13
00002 suncat0035 pw.x -npool 4 -i  Done                     05/08/2018 17:09:13
00003 suncat0035 pw.x -npool 4 -i  Done                     05/08/2018 17:09:13
00004 suncat0035 pw.x -npool 4 -i  Done                     05/08/2018 17:09:13
00005 suncat0035 pw.x -npool 4 -i  Done                     05/08/2018 17:09:13
00006 suncat0035 pw.x -npool 4 -i  Done                     05/08/2018 17:09:13
00007 suncat0035 pw.x -npool 4 -i  Done                     05/08/2018 17:09:13
00008 suncat0014 pw.x -npool 4 -i  Done                     05/08/2018 17:09:13
00009 suncat0014 pw.x -npool 4 -i  Done                     05/08/2018 17:09:13
00010 suncat0014 pw.x -npool 4 -i  Done                     05/08/2018 17:09:13
00011 suncat0014 pw.x -npool 4 -i  Done                     05/08/2018 17:09:13
00012 suncat0014 pw.x -npool 4 -i  Done                     05/08/2018 17:09:13
00013 suncat0014 pw.x -npool 4 -i  Done                     05/08/2018 17:09:13
00014 suncat0014 pw.x -npool 4 -i  Done                     05/08/2018 17:09:13
00015 suncat0014 pw.x -npool 4 -i  Done                     05/08/2018 17:09:13
00016 suncat0209 pw.x -npool 4 -i  Done                     05/08/2018 17:09:13
00017 suncat0209 pw.x -npool 4 -i  Done                     05/08/2018 17:09:13
00018 suncat0209 pw.x -npool 4 -i  Done                     05/08/2018 17:09:13
00019 suncat0209 pw.x -npool 4 -i  Done                     05/08/2018 17:09:13
00020 suncat0209 pw.x -npool 4 -i  Done                     05/08/2018 17:09:13
00021 suncat0209 pw.x -npool 4 -i  Done                     05/08/2018 17:09:13
00022 suncat0209 pw.x -npool 4 -i  Done                     05/08/2018 17:09:13
00023 suncat0209 pw.x -npool 4 -i  Done                     05/08/2018 17:09:13
00024 suncat0208 pw.x -npool 4 -i  Done                     05/08/2018 17:09:13
00025 suncat0208 pw.x -npool 4 -i  Done                     05/08/2018 17:09:13
00026 suncat0208 pw.x -npool 4 -i  Done                     05/08/2018 17:09:13
00027 suncat0208 pw.x -npool 4 -i  Done                     05/08/2018 17:09:13
00028 suncat0208 pw.x -npool 4 -i  Done                     05/08/2018 17:09:13
00029 suncat0208 pw.x -npool 4 -i  Done                     05/08/2018 17:09:13
00030 suncat0208 pw.x -npool 4 -i  Done                     05/08/2018 17:09:13
00031 suncat0208 pw.x -npool 4 -i  Done                     05/08/2018 17:09:13