     Program PWSCF v.5.1rc2 (svn rev. 11289) starts on  3May2018 at  0:51:40

     Current dimensions of program PWSCF are:
     Max number of different atomic species (ntypx) = 10
     Max number of k-points (npk) =  40000
     Max angular momentum in pseudopotentials (lmaxx) =  3
     Presently stress not available with electric field

     IMPORTANT: XC functional enforced from input :
     Exchange-correlation      = BEEF-VDW ( 1  4 27 13 2)
     Any further DFT definition will be discarded
     Please, verify this is what you really want

     Subspace diagonalization in iterative solution of the eigenvalue problem:
     a serial algorithm will be used

     bravais-lattice index     =            0
     lattice parameter (alat)  =       1.8897  a.u.
     unit-cell volume          =    7725.1200 (a.u.)^3
     number of atoms/cell      =           13
     number of atomic types    =            2
     number of electrons       =       138.00
     number of Kohn-Sham states=           79
     kinetic-energy cutoff     =      36.7493  Ry
     charge density cutoff     =     367.4932  Ry
     convergence threshold     =      1.0E-05
     mixing beta               =       0.3000
     number of iterations used =           10  plain     mixing
     Exchange-correlation      = BEEF-VDW ( 1  4 27 13 2)
     nstep                     =           50

     celldm(1)=   1.889726  celldm(2)=   0.000000  celldm(3)=   0.000000
     celldm(4)=   0.000000  celldm(5)=   0.000000  celldm(6)=   0.000000

     crystal axes: (cart. coord. in units of alat)
               a(1) = (   7.152277   0.000000   0.000000 )
               a(2) = (   3.576139   6.194054   0.000000 )
               a(3) = (   0.000000   0.000000  25.839810 )

     reciprocal axes: (cart. coord. in units 2 pi/alat)
               b(1) = (  0.139816 -0.080723  0.000000 )
               b(2) = (  0.000000  0.161445  0.000000 )
               b(3) = (  0.000000  0.000000  0.038700 )

     PseudoPot. # 1 for Y  read from file:
     /u/if/mamunm/psp/gbrv1.5pbe/Y.UPF
     MD5 check sum: d034151ed7554c50b6e82763ed42c788
     Pseudo is Ultrasoft + core correction, Zval = 11.0
     Generated by new atomic code, or converted to UPF format
     Using radial grid of  885 points,  6 beta functions with:
                l(1) =   0
                l(2) =   0
                l(3) =   1
                l(4) =   1
                l(5) =   2
                l(6) =   2
     Q(r) pseudized with  8 coefficients,  rinner =    1.200   1.200   1.200
                                                       1.200   1.200

     PseudoPot. # 2 for O  read from file:
     /u/if/mamunm/psp/gbrv1.5pbe/O.UPF
     MD5 check sum: 734c27235a0248c51dbae37a1fbe46ec
     Pseudo is Ultrasoft + core correction, Zval =  6.0
     Generated by new atomic code, or converted to UPF format
     Using radial grid of  737 points,  5 beta functions with:
                l(1) =   0
                l(2) =   0
                l(3) =   1
                l(4) =   1
                l(5) =   2
     Q(r) pseudized with  8 coefficients,  rinner =    0.900   0.900   0.900
                                                       0.900   0.900

     vdW kernel table read from file vdW_kernel_table
     MD5 check sum: 095c7af220d748ca6e76c0b4c6cfb241

     atomic species   valence    mass     pseudopotential
        Y1            11.00    88.90584     Y ( 1.00)
        O1             6.00    15.99900     O ( 1.00)

     No symmetry found

   Cartesian axes

     site n.     atom                  positions (alat units)
         1           Y1  tau(   1) = (   1.7880693   1.0323423  10.0000000  )
         2           Y1  tau(   2) = (   5.3642080   1.0323423  10.0000000  )
         3           Y1  tau(   3) = (   3.5761386   4.1293692  10.0000000  )
         4           Y1  tau(   4) = (   7.1522773   4.1293692  10.0000000  )
         5           Y1  tau(   5) = (   7.1522773   2.0646846  12.9199050  )
         6           Y1  tau(   6) = (   3.5761386   2.0646846  12.9199050  )
         7           Y1  tau(   7) = (   8.9403466   5.1617115  12.9199050  )
         8           Y1  tau(   8) = (   5.3642080   5.1617115  12.9199050  )
         9           Y1  tau(   9) = (   0.0000000   0.0000000  15.8398100  )
        10           Y1  tau(  10) = (   3.5761386   0.0000000  15.8398100  )
        11           Y1  tau(  11) = (   1.7880693   3.0970269  15.8398100  )
        12           Y1  tau(  12) = (   5.3642080   3.0970269  15.8398100  )
        13           O1  tau(  13) = (   0.0000000   0.0000000  18.0158100  )

     number of k points=    20  Fermi-Dirac smearing, width (Ry)=  0.0110
                       cart. coord. in units 2pi/alat
        k(    1) = (   0.0000000   0.0000000   0.0000000), wk =   0.0555556
        k(    2) = (   0.0000000   0.0269075   0.0000000), wk =   0.1111111
        k(    3) = (   0.0000000   0.0538151   0.0000000), wk =   0.1111111
        k(    4) = (   0.0000000  -0.0807226   0.0000000), wk =   0.0555556
        k(    5) = (   0.0233026  -0.0134538   0.0000000), wk =   0.1111111
        k(    6) = (   0.0233026   0.0134538   0.0000000), wk =   0.1111111
        k(    7) = (   0.0233026   0.0403613   0.0000000), wk =   0.1111111
        k(    8) = (   0.0233026  -0.0941763   0.0000000), wk =   0.1111111
        k(    9) = (   0.0233026  -0.0672688   0.0000000), wk =   0.1111111
        k(   10) = (   0.0233026  -0.0403613   0.0000000), wk =   0.1111111
        k(   11) = (   0.0466052  -0.0269075   0.0000000), wk =   0.1111111
        k(   12) = (   0.0466052   0.0000000   0.0000000), wk =   0.1111111
        k(   13) = (   0.0466052   0.0269075   0.0000000), wk =   0.1111111
        k(   14) = (   0.0466052  -0.1076301   0.0000000), wk =   0.1111111
        k(   15) = (   0.0466052  -0.0807226   0.0000000), wk =   0.1111111
        k(   16) = (   0.0466052  -0.0538151   0.0000000), wk =   0.1111111
        k(   17) = (  -0.0699078   0.0403613   0.0000000), wk =   0.0555556
        k(   18) = (  -0.0699078   0.0672688   0.0000000), wk =   0.1111111
        k(   19) = (  -0.0699078   0.0941763   0.0000000), wk =   0.1111111
        k(   20) = (  -0.0699078  -0.0403613   0.0000000), wk =   0.0555556

     Largest allocated arrays     est. size (Mb)     dimensions
     Largest temporary arrays     est. size (Mb)     dimensions

     Initial potential from superposition of free atoms
     Check: negative starting charge=   -0.000678

     starting charge  137.94637, renormalised to  138.00000

     negative rho (up, down):  6.787E-04 0.000E+00

     *
     * You are using vdW-DF for exchange-correlation in this calculation.
     * Please cite the following three references that made this development
     * possible:
     *
     *   M. Dion, H. Rydberg, E. Schroder, D. C. Langreth, and
     *   B. I. Lundqvist, Phys. Rev. Lett. 92, 246401 (2004).
     *
     *   T. Thonhauser, V. R. Cooper, S. Li, A. Puzder, P. Hyldgaard, and
     *   D. C. Langreth, Phys. Rev. B 76, 125112 (2007).
     *
     *   G. Roman-Perez and J. M. Soler, Phys. Rev. Lett. 103, 096102 (2009).
     *
     *
     * If you are using vdW-DF2, please also cite:
     *
     *   K. Lee, E. D. Murray, L. Kong, B. I. Lundqvist, and
     *   D. C. Langreth, Phys. Rev. B 82, 081101(R) (2010).
     *
     *
     * If you are calculating the stress with vdW-DF, please also cite:
     *
     *   R. Sabatini, E. Kucukbenli, B. Kolb, T. Thonhauser, and
     *   S. de Gironcoli, J. Phys.: Condens. Matter 24, 424209 (2012).
     *

     Carrying out vdW-DF run using the following parameters:

     Nqs =      20    Nr_points =    1024   r_max =   100.000
     q_mesh =
               0.00001000     0.04494208     0.09755937     0.15916263
               0.23128650     0.31572767     0.41458969     0.53033537
               0.66584808     0.82450364     1.01025438     1.22772762
               1.48234092     1.78043706     2.12944203     2.53805004
               3.01644009     3.57652955     4.23227104     5.00000000

     Gradients computed in reciprocal space

     Adding external electric field

     Computed dipole along edir(3) :
        Dipole               -0.0224 Ry au,         -0.0571 Debye
        Dipole field         -0.0000 Ry au

        Potential amp.        0.0035 Ry
        Total length         47.6094 bohr

     Starting wfc are  160 randomized atomic wfcs

     Self-consistent Calculation

     iteration #  1     ecut=    36.75 Ry     beta=0.30
     Davidson diagonalization with overlap
     ethr =  1.00E-02,  avg # of iterations =  2.0

[...]

     total energy              =   -1154.87472066 Ry
     Harris-Foulkes estimate   =   -1157.46166105 Ry
     estimated scf accuracy    <       5.61443150 Ry

[...]

     End of self-consistent calculation

          k = 0.0000 0.0000 0.0000 ( 28997 PWs)   bands (ev):

   -43.0626 -43.0306 -43.0306 -42.9243 -42.8845 -42.8844 -42.8725 -42.3934
   -42.3548 -42.3548 -42.3345 -41.8739 -23.1244 -23.1185 -23.0661 -23.0661
   -23.0622 -23.0622 -23.0289 -23.0261 -23.0260 -22.9552 -22.8887 -22.8886
   -22.8751 -22.8542 -22.7502 -22.7502 -22.7078 -22.7019 -22.7019 -22.6046
   -22.6046 -22.5387 -22.5043 -22.5043 -22.3233 -22.2888 -22.2888 -22.2691
   -22.2102 -22.2102 -22.2089 -22.1096 -22.1096 -21.9098 -21.9098 -21.7825
   -14.8570  -3.8509  -2.9038  -1.8768  -1.2680  -1.2120  -1.2120  -1.1034
    -1.1034  -1.0818  -0.9017  -0.8214  -0.8214  -0.7422  -0.7422  -0.6476
    -0.2402  -0.2402  -0.1815   0.1456   0.3245   0.3245   0.6107   1.0161
     1.0738   1.1283   1.1283   1.2652   1.4252   1.5335   1.5335

[...]

          k =-0.0699 0.0404 0.0000 ( 29048 PWs)   bands (ev):

[...]

     the Fermi energy is     0.4233 ev

!    total energy              =   -1156.84840501 Ry
     Harris-Foulkes estimate   =   -1156.84841061 Ry
     estimated scf accuracy    <       0.00000046 Ry

     The total energy is the sum of the following terms:

     one-electron contribution =   -5525.08340558 Ry
     hartree contribution      =    2755.59015021 Ry
     xc contribution           =    -346.33601380 Ry
     ewald contribution        =    1959.10138662 Ry
     electric field correction =       0.00109365 Ry
     smearing contrib. (-TS)   =      -0.12161610 Ry

     convergence has been achieved in  20 iterations

 BEEF-vdW xc energy contributions
           1 :   -301.961137576052
           2 :    270.948528128138
           3 :   -217.690106393107
           4 :    155.381640093585
           5 :   -96.1647312996969
           6 :    47.5879996039894
           7 :   -12.1664939244434
           8 :   -10.8262076613625
           9 :    23.1212380715374
          10 :   -26.2036335725794
          11 :    21.4023204974857
          12 :   -10.7081886935528
          13 :   -2.69032480047906
          14 :    14.8298889745789
          15 :   -22.2400023756144
          16 :    23.2409322641633
          17 :   -18.4148623475851
          18 :    10.0086388436794
          19 :  -0.747693570180331
          20 :   -7.19798317197001
          21 :    12.6241321663773
          22 :   -15.1251267265059
          23 :    14.7436890834621
          24 :   -11.8044209036602
          25 :    6.98718106286105
          26 :   -1.41199450378815
          27 :   -3.52715114610362
          28 :    6.60940670153764
          29 :   -7.27053974981345
          30 :    5.80657182923505
          31 :   -28.9638004716639
          32 :   -19.7673086227554

     Forces acting on atoms (Ry/au):

     negative rho (up, down):  2.531E-04 0.000E+00
     atom    1 type  1   force =    -0.00050573   -0.00029205    0.00518177
     atom    2 type  1   force =     0.00050444   -0.00029128    0.00518687
     atom    3 type  1   force =     0.00000103    0.00058377    0.00518120
     atom    4 type  1   force =    -0.00000057    0.00000050    0.00631501
     atom    5 type  1   force =    -0.00000623    0.00868731   -0.00180926
     atom    6 type  1   force =     0.00000840   -0.00000582    0.00523305
     atom    7 type  1   force =    -0.00752478   -0.00433475   -0.00181008
     atom    8 type  1   force =     0.00752662   -0.00434796   -0.00179839
     atom    9 type  1   force =    -0.00000227    0.00000061    0.11193617
     atom   10 type  1   force =     0.00000126   -0.00179002    0.00191540
     atom   11 type  1   force =    -0.00155295    0.00089662    0.00191850
     atom   12 type  1   force =     0.00155061    0.00089453    0.00191591
     atom   13 type  2   force =     0.00000018   -0.00000145   -0.13936614

     Total force =     0.178811     Total SCF correction =     0.001011

     entering subroutine stress ...

     negative rho (up, down):  2.531E-04 0.000E+00
          total   stress  (Ry/bohr**3)                   (kbar)     P=   -6.11
  -0.00000908  -0.00000000   0.00000000         -1.34     -0.00      0.00
  -0.00000000  -0.00000908  -0.00000000         -0.00     -1.34     -0.00
   0.00000000  -0.00000000  -0.00010649          0.00     -0.00    -15.67

     BFGS Geometry Optimization

     number of scf cycles    =   1
     number of bfgs steps    =   0

     energy   new            =   -1156.8484050064 Ry

     new trust radius        =       0.1393661446 bohr
     new conv_thr            =       0.0000099958 Ry

ATOMIC_POSITIONS (crystal)
Y1       0.166666667   0.166666667   0.386999750    0   0   0
Y1       0.666666667   0.166666667   0.386999750    0   0   0
Y1       0.166666667   0.666666667   0.386999750    0   0   0
Y1       0.666666667   0.666666667   0.386999750    0   0   0
Y1       0.833333333   0.333333333   0.500000000    0   0   0
Y1       0.333333333   0.333333333   0.500000000    0   0   0
Y1       0.833333333   0.833333333   0.500000000    0   0   0
Y1       0.333333333   0.833333333   0.500000000    0   0   0
Y1      -0.000000194   0.000000052   0.615292607
Y1       0.500076557  -0.000152927   0.613039475
Y1      -0.000153199   0.500076601   0.613039539
Y1       0.500076514   0.500076423   0.613039486
O1       0.000000075  -0.000000124   0.694357296

     Writing output data file calc.save
     Check: negative starting charge=   -0.000678
     NEW-OLD atomic charge density approx. for the potential
     Check: negative starting charge=   -0.000683

[...]

     iteration #  1     ecut=    36.75 Ry     beta=0.30
     Davidson diagonalization with overlap
     c_bands:  1 eigenvalues not converged
     ethr =  1.00E-06,  avg # of iterations = 13.8

[...]

     energy   old            =   -1156.8484050064 Ry
     energy   new            =   -1156.8762169999 Ry

     CASE: energy  _new < energy  _old

[...]

     iteration #  1     ecut=    36.75 Ry     beta=0.30
     Davidson diagonalization with overlap
     c_bands:  1 eigenvalues not converged
     ethr =  1.00E-06,  avg # of iterations = 13.1

[...]

     Total force =     0.014728     Total SCF correction =     0.000145

[...]

     number of scf cycles    =  11
     number of bfgs steps    =  10

     energy   old            =   -1156.8961774290 Ry
     energy   new            =   -1156.8964776719 Ry

     CASE: energy  _new < energy  _old

     new trust radius        =       0.0128916039 bohr
     new conv_thr            =       0.0000001000 Ry

ATOMIC_POSITIONS (crystal)
Y1       0.166666667   0.166666667   0.386999750    0   0   0
Y1       0.666666667   0.166666667   0.386999750    0   0   0
Y1       0.166666667   0.666666667   0.386999750    0   0   0
Y1       0.666666667   0.666666667   0.386999750    0   0   0
Y1       0.833333333   0.333333333   0.500000000    0   0   0
Y1       0.333333333   0.333333333   0.500000000    0   0   0
Y1       0.833333333   0.833333333   0.500000000    0   0   0
Y1       0.333333333   0.833333333   0.500000000    0   0   0
Y1      -0.000002396   0.000001978   0.607219856
Y1       0.501761696  -0.003526951   0.612362130
Y1      -0.003527338   0.501761676   0.612362235
Y1       0.501764461   0.501763668   0.612360986
O1       0.000000732   0.000000356   0.680782171

     Writing output data file calc.save
     Check: negative starting charge=   -0.000692
     NEW-OLD atomic charge density approx. for the potential
     Check: negative starting charge=   -0.000693

[...]

     Self-consistent Calculation

[...]

     Threshold (ethr) on eigenvalues was too large:
     Diagonalizing with lowered threshold

     Davidson diagonalization with overlap
     ethr =  6.27E-08,  avg # of iterations =  7.6

[...]

     total energy              =   -1156.89659989 Ry
     Harris-Foulkes estimate   =   -1156.89660009 Ry
     estimated scf accuracy    <       0.00000069 Ry

     iteration #  9     ecut=    36.75 Ry     beta=0.30
     Davidson diagonalization with overlap
     ethr =  4.99E-10,  avg # of iterations =  5.2

[...]

     negative rho (up, down):  2.550E-04 0.000E+00

     Adding external electric field

     Computed dipole along edir(3) :
        Dipole               -0.4271 Ry au,         -1.0857 Debye
        Dipole field         -0.0007 Ry au

        Potential amp.        0.0662 Ry
        Total length         47.6094 bohr

     End of self-consistent calculation

[...]

          k = 0.0466-0.0538 0.0000 ( 29098 PWs)   bands (ev):

[...]

          k =-0.0699-0.0404 0.0000 ( 29048 PWs)   bands (ev):

   -42.7649 -42.7536 -42.7432 -42.6229 -42.6174 -42.6015 -42.5902 -42.0622
   -42.0602 -42.0405 -42.0386 -41.0777 -22.8131 -22.7945 -22.7791 -22.7761
   -22.6972 -22.6740 -22.6673 -22.6628 -22.6487 -22.6394 -22.6335 -22.6028
   -22.6016 -22.5870 -22.5407 -22.5343 -22.5078 -22.5000 -22.4692 -22.3729
   -22.3683 -22.1682 -22.1253 -22.0550 -22.0142 -21.9966 -21.9926 -21.9912
   -21.9840 -21.9685 -21.9627 -21.8579 -21.8468 -21.7169 -21.1740 -21.1576
   -14.7961  -2.3815  -2.3663  -1.7924  -1.6423  -1.4904  -1.3902  -1.3050
    -0.6752  -0.6343  -0.4451  -0.3848  -0.2589  -0.2010   0.4386   0.4540
     0.4766   0.4935   0.5733   0.6294   0.6618   0.7507   0.8213   0.8588
     0.8957   0.9846   1.0022   1.1809   1.2126   1.2159   1.3469

     the Fermi energy is     0.7119 ev

!    total energy              =   -1156.89659993 Ry
     Harris-Foulkes estimate   =   -1156.89660124 Ry
     estimated scf accuracy    <       0.00000006 Ry

     The total energy is the sum of the following terms:

     one-electron contribution =   -5624.66931282 Ry
     hartree contribution      =    2806.71141122 Ry
     xc contribution           =    -346.58043734 Ry
     ewald contribution        =    2007.76263852 Ry
     electric field correction =       0.00029679 Ry
     smearing contrib. (-TS)   =      -0.12119629 Ry

     convergence has been achieved in   9 iterations

 BEEF-vdW xc energy contributions
           1 :   -302.203434164042
           2 :    271.245767285057
           3 :   -218.035011510218
           4 :    155.707571051934
           5 :   -96.3942102823200
           6 :    47.6800554219877
           7 :   -12.1348245470906
           8 :   -10.9302666613377
           9 :    23.2450930253694
          10 :   -26.3218323298712
          11 :    21.5161040634901
          12 :   -10.8201476523968
          13 :   -2.59866908533866
          14 :    14.7922127323057
          15 :   -22.2750642962310
          16 :    23.3294096946278
          17 :   -18.5081991787083
          18 :    10.0615800122632
          19 :  -0.746571820749296
          20 :   -7.23044183419830
          21 :    12.6486199060897
          22 :   -15.1150351653473
          23 :    14.7017584270365
          24 :   -11.7545639986255
          25 :    6.95065780448181
          26 :   -1.39077791093723
          27 :   -3.54492762072670
          28 :    6.63044624504187
          29 :   -7.28517078437829
          30 :    5.79484639694977
          31 :   -28.9801085343968
          32 :   -19.7933728676978

     Forces acting on atoms (Ry/au):

     negative rho (up, down):  2.550E-04 0.000E+00
     atom    1 type  1   force =    -0.00033118   -0.00019145    0.00524705
     atom    2 type  1   force =     0.00033153   -0.00019142    0.00524704
     atom    3 type  1   force =    -0.00000022    0.00038294    0.00524720
     atom    4 type  1   force =     0.00000019    0.00000027    0.00716551
     atom    5 type  1   force =     0.00000043    0.01462228   -0.00941827
     atom    6 type  1   force =    -0.00000005   -0.00000019    0.00646329
     atom    7 type  1   force =    -0.01266326   -0.00731122   -0.00941658
     atom    8 type  1   force =     0.01266305   -0.00731054   -0.00941818
     atom    9 type  1   force =    -0.00000011   -0.00000306   -0.00112611
     atom   10 type  1   force =     0.00000080    0.00121649   -0.00052294
     atom   11 type  1   force =     0.00105560   -0.00060644   -0.00052348
     atom   12 type  1   force =    -0.00105789   -0.00060807   -0.00052243
     atom   13 type  2   force =     0.00000111    0.00000043    0.00157789

     Total force =     0.003005     Total SCF correction =     0.000504
     SCF correction compared to forces is large: reduce conv_thr to get better values

     entering subroutine stress ...

     negative rho (up, down):  2.550E-04 0.000E+00
          total   stress  (Ry/bohr**3)                   (kbar)     P=   -1.27
  -0.00000402  -0.00000000   0.00000000         -0.59     -0.00      0.00
  -0.00000000  -0.00000402   0.00000000         -0.00     -0.59      0.00
   0.00000000   0.00000000  -0.00001797          0.00      0.00     -2.64

     bfgs converged in  12 scf cycles and  11 bfgs steps
     (criteria: energy <  1.0E+00, force <  1.9E-03)

     End of BFGS Geometry Optimization

     Final energy   =   -1156.8965999259 Ry
Begin final coordinates

ATOMIC_POSITIONS (crystal)
Y1       0.166666667   0.166666667   0.386999750    0   0   0
Y1       0.666666667   0.166666667   0.386999750    0   0   0
Y1       0.166666667   0.666666667   0.386999750    0   0   0
Y1       0.666666667   0.666666667   0.386999750    0   0   0
Y1       0.833333333   0.333333333   0.500000000    0   0   0
Y1       0.333333333   0.333333333   0.500000000    0   0   0
Y1       0.833333333   0.833333333   0.500000000    0   0   0
Y1       0.333333333   0.833333333   0.500000000    0   0   0
Y1      -0.000002396   0.000001978   0.607219856
Y1       0.501761696  -0.003526951   0.612362130
Y1      -0.003527338   0.501761676   0.612362235
Y1       0.501764461   0.501763668   0.612360986
O1       0.000000732   0.000000356   0.680782171
End final coordinates

     Writing output data file calc.save

     General routines

     Parallel routines

   This run was terminated on:   3:27:27   3May2018

   JOB DONE.
Job  /afs/slac/g/suncat/bin/suncat-tsmpirun -x LD_LIBRARY_PATH -wdir /scratch/qe567707_w3aZF pw.x -npool 4 -in pw.inp

TID   HOST_NAME   COMMAND_LINE            STATUS            TERMINATION_TIME
00000 suncat0047 pw.x -npool 4 -i  Done                     05/03/2018 03:27:27
00001 suncat0047 pw.x -npool 4 -i  Done                     05/03/2018 03:27:27
00002 suncat0047 pw.x -npool 4 -i  Done                     05/03/2018 03:27:27
00003 suncat0047 pw.x -npool 4 -i  Done                     05/03/2018 03:27:27
00004 suncat0047 pw.x -npool 4 -i  Done                     05/03/2018 03:27:27
00005 suncat0047 pw.x -npool 4 -i  Done                     05/03/2018 03:27:27
00006 suncat0047 pw.x -npool 4 -i  Done                     05/03/2018 03:27:27
00007 suncat0047 pw.x -npool 4 -i  Done                     05/03/2018 03:27:27
00008 suncat0178 pw.x -npool 4 -i  Done                     05/03/2018 03:27:27
00009 suncat0178 pw.x -npool 4 -i  Done                     05/03/2018 03:27:27
00010 suncat0178 pw.x -npool 4 -i  Done                     05/03/2018 03:27:27
00011 suncat0178 pw.x -npool 4 -i  Done                     05/03/2018 03:27:27
00012 suncat0178 pw.x -npool 4 -i  Done                     05/03/2018 03:27:27
00013 suncat0178 pw.x -npool 4 -i  Done                     05/03/2018 03:27:27
00014 suncat0178 pw.x -npool 4 -i  Done                     05/03/2018 03:27:27
00015 suncat0178 pw.x -npool 4 -i  Done                     05/03/2018 03:27:27
00016 suncat0273 pw.x -npool 4 -i  Done                     05/03/2018 03:27:27
00017 suncat0273 pw.x -npool 4 -i  Done                     05/03/2018 03:27:27
00018 suncat0273 pw.x -npool 4 -i  Done                     05/03/2018 03:27:27
00019 suncat0273 pw.x -npool 4 -i  Done                     05/03/2018 03:27:27
00020 suncat0273 pw.x -npool 4 -i  Done                     05/03/2018 03:27:27
00021 suncat0273 pw.x -npool 4 -i  Done                     05/03/2018 03:27:27
00022 suncat0273 pw.x -npool 4 -i  Done                     05/03/2018 03:27:27
00023 suncat0273 pw.x -npool 4 -i  Done                     05/03/2018 03:27:27
00024 suncat0272 pw.x -npool 4 -i  Done                     05/03/2018 03:27:27
00025 suncat0272 pw.x -npool 4 -i  Done                     05/03/2018 03:27:27
00026 suncat0272 pw.x -npool 4 -i  Done                     05/03/2018 03:27:27
00027 suncat0272 pw.x -npool 4 -i  Done                     05/03/2018 03:27:27
00028 suncat0272 pw.x -npool 4 -i  Done                     05/03/2018 03:27:27
00029 suncat0272 pw.x -npool 4 -i  Done                     05/03/2018 03:27:27
00030 suncat0272 pw.x -npool 4 -i  Done                     05/03/2018 03:27:27
00031 suncat0272 pw.x -npool 4 -i  Done                     05/03/2018 03:27:27