     Program PWSCF v.5.1rc2 (svn rev. 11289) starts on  3May2018 at 17:19:13

     Current dimensions of program PWSCF are:
     Max number of different atomic species (ntypx) = 10
     Max number of k-points (npk) =  40000
     Max angular momentum in pseudopotentials (lmaxx) =  3
     Presently stress not available with electric field

     IMPORTANT: XC functional enforced from input :
     Exchange-correlation      = BEEF-VDW ( 1  4 27 13 2)
     Any further DFT definition will be discarded
     Please, verify this is what you really want

     Subspace diagonalization in iterative solution of the eigenvalue problem:
     a serial algorithm will be used

     bravais-lattice index     =            0
     lattice parameter (alat)  =       1.8897  a.u.
     unit-cell volume          =    6024.3322 (a.u.)^3
     number of atoms/cell      =           13
     number of atomic types    =            2
     number of electrons       =       150.00
     number of Kohn-Sham states=           85
     kinetic-energy cutoff     =      36.7493  Ry
     charge density cutoff     =     367.4932  Ry
     convergence threshold     =      1.0E-05
     mixing beta               =       0.3000
     number of iterations used =           10  plain     mixing
     Exchange-correlation      = BEEF-VDW ( 1  4 27 13 2)
     nstep                     =           50

     celldm(1)=   1.889726  celldm(2)=   0.000000  celldm(3)=   0.000000
     celldm(4)=   0.000000  celldm(5)=   0.000000  celldm(6)=   0.000000

     crystal axes: (cart. coord. in units of alat)
               a(1) = (   6.393197   0.000000   0.000000 )
               a(2) = (   3.196599   5.536671   0.000000 )
               a(3) = (   0.000000   0.000000  25.220024 )

     reciprocal axes: (cart. coord. in units 2 pi/alat)
               b(1) = (  0.156416 -0.090307  0.000000 )
               b(2) = (  0.000000  0.180614  0.000000 )
               b(3) = (  0.000000  0.000000  0.039651 )

     PseudoPot. # 1 for Hf read from file:
     /u/if/mamunm/psp/gbrv1.5pbe/Hf.UPF
     MD5 check sum: 8ee9378dfe14276e333edf04c5e4aa26
     Pseudo is Ultrasoft + core correction, Zval = 12.0
     Generated by new atomic code, or converted to UPF format
     Using radial grid of  921 points,  8 beta functions with:
                l(1) =   0
                l(2) =   0
                l(3) =   0
                l(4) =   1
                l(5) =   1
                l(6) =   2
                l(7) =   2
                l(8) =   3
     Q(r) pseudized with  6 coefficients,  rinner =    1.200   1.200   1.200
                                                       1.200   1.200   1.200
                                                       1.200

     PseudoPot. # 2 for S  read from file:
     /u/if/mamunm/psp/gbrv1.5pbe/S.UPF
     MD5 check sum: 88d86576ff6df21479756cfb9bdac1df
     Pseudo is Ultrasoft + core correction, Zval =  6.0
     Generated by new atomic code, or converted to UPF format
     Using radial grid of  907 points,  6 beta functions with:
                l(1) =   0
                l(2) =   0
                l(3) =   1
                l(4) =   1
                l(5) =   2
                l(6) =   2
     Q(r) pseudized with  8 coefficients,  rinner =    1.300   1.300   1.300
                                                       1.300   1.300

     vdW kernel table read from file vdW_kernel_table
     MD5 check sum: 095c7af220d748ca6e76c0b4c6cfb241

     atomic species   valence    mass     pseudopotential
        Hf1           12.00   178.49000     Hf( 1.00)
        S1             6.00    32.06000     S ( 1.00)

     No symmetry found

   Cartesian axes

     site n.     atom                  positions (alat units)
         1           Hf1 tau(   1) = (   1.5982993   0.9227785  10.0000000  )
         2           Hf1 tau(   2) = (   4.7948978   0.9227785  10.0000000  )
         3           Hf1 tau(   3) = (   3.1965986   3.6911141  10.0000000  )
         4           Hf1 tau(   4) = (   6.3931971   3.6911141  10.0000000  )
         5           Hf1 tau(   5) = (   6.3931971   1.8455570  12.6100118  )
         6           Hf1 tau(   6) = (   3.1965986   1.8455570  12.6100118  )
         7           Hf1 tau(   7) = (   7.9914964   4.6138926  12.6100118  )
         8           Hf1 tau(   8) = (   4.7948978   4.6138926  12.6100118  )
         9           Hf1 tau(   9) = (   0.0000000   0.0000000  15.2200236  )
        10           Hf1 tau(  10) = (   3.1965986   0.0000000  15.2200236  )
        11           Hf1 tau(  11) = (   1.5982993   2.7683356  15.2200236  )
        12           Hf1 tau(  12) = (   4.7948978   2.7683356  15.2200236  )
        13           S1  tau(  13) = (   1.5982993   0.9227785  17.0400236  )

     number of k points=    20  Fermi-Dirac smearing, width (Ry)=  0.0110
                       cart. coord. in units 2pi/alat
        k(    1) = (   0.0000000   0.0000000   0.0000000), wk =   0.0555556
        k(    2) = (   0.0000000   0.0301023   0.0000000), wk =   0.1111111
        k(    3) = (   0.0000000   0.0602046   0.0000000), wk =   0.1111111
        k(    4) = (   0.0000000  -0.0903070   0.0000000), wk =   0.0555556
        k(    5) = (   0.0260694  -0.0150512   0.0000000), wk =   0.1111111
        k(    6) = (   0.0260694   0.0150512   0.0000000), wk =   0.1111111
        k(    7) = (   0.0260694   0.0451535   0.0000000), wk =   0.1111111
        k(    8) = (   0.0260694  -0.1053581   0.0000000), wk =   0.1111111
        k(    9) = (   0.0260694  -0.0752558   0.0000000), wk =   0.1111111
        k(   10) = (   0.0260694  -0.0451535   0.0000000), wk =   0.1111111
        k(   11) = (   0.0521388  -0.0301023   0.0000000), wk =   0.1111111
        k(   12) = (   0.0521388   0.0000000   0.0000000), wk =   0.1111111
        k(   13) = (   0.0521388   0.0301023   0.0000000), wk =   0.1111111
        k(   14) = (   0.0521388  -0.1204093   0.0000000), wk =   0.1111111
        k(   15) = (   0.0521388  -0.0903070   0.0000000), wk =   0.1111111
        k(   16) = (   0.0521388  -0.0602046   0.0000000), wk =   0.1111111
        k(   17) = (  -0.0782081   0.0451535   0.0000000), wk =   0.0555556
        k(   18) = (  -0.0782081   0.0752558   0.0000000), wk =   0.1111111
        k(   19) = (  -0.0782081   0.1053581   0.0000000), wk =   0.1111111
        k(   20) = (  -0.0782081  -0.0451535   0.0000000), wk =   0.0555556

     Largest allocated arrays     est. size (Mb)     dimensions
     Largest temporary arrays     est. size (Mb)     dimensions

     Check: negative/imaginary core charge=   -0.000003    0.000000

     Initial potential from superposition of free atoms
     Check: negative starting charge=   -1.301228

     starting charge  125.99994, renormalised to  150.00000

     negative rho (up, down):  1.549E+00 0.000E+00

     *
     * You are using vdW-DF for exchange-correlation in this calculation.
     * Please cite the following three references that made this development
     * possible:
     *
     *   M. Dion, H. Rydberg, E. Schroder, D. C. Langreth, and
     *   B. I. Lundqvist, Phys. Rev. Lett. 92, 246401 (2004).
     *
     *   T. Thonhauser, V. R. Cooper, S. Li, A. Puzder, P. Hyldgaard, and
     *   D. C. Langreth, Phys. Rev. B 76, 125112 (2007).
     *
     *   G. Roman-Perez and J. M. Soler, Phys. Rev. Lett. 103, 096102 (2009).
     *
     *
     * If you are using vdW-DF2, please also cite:
     *
     *   K. Lee, E. D. Murray, L. Kong, B. I. Lundqvist, and
     *   D. C. Langreth, Phys. Rev. B 82, 081101(R) (2010).
     *
     *
     * If you are calculating the stress with vdW-DF, please also cite:
     *
     *   R. Sabatini, E. Kucukbenli, B. Kolb, T. Thonhauser, and
     *   S. de Gironcoli, J. Phys.: Condens. Matter 24, 424209 (2012).
     *

     Carrying out vdW-DF run using the following parameters:

     Nqs =      20    Nr_points =    1024   r_max =   100.000
     q_mesh =
               0.00001000     0.04494208     0.09755937     0.15916263
               0.23128650     0.31572767     0.41458969     0.53033537
               0.66584808     0.82450364     1.01025438     1.22772762
               1.48234092     1.78043706     2.12944203     2.53805004
               3.01644009     3.57652955     4.23227104     5.00000000

     Gradients computed in reciprocal space

     Adding external electric field

     Computed dipole along edir(3) :
        Dipole               -9.5671 Ry au,        -24.3171 Debye
        Dipole field         -0.0200 Ry au

        Potential amp.        1.8546 Ry
        Total length         46.4675 bohr

     Starting wfc are  160 randomized atomic wfcs

     Self-consistent Calculation

     iteration #  1     ecut=    36.75 Ry     beta=0.30
     Davidson diagonalization with overlap
     ethr =  1.00E-02,  avg # of iterations =  9.7

[...]

     total energy              =   -1266.40516136 Ry
     Harris-Foulkes estimate   =   -1938.95147190 Ry
     estimated scf accuracy    <    1446.14061590 Ry

[...]

     iteration # 29     ecut=    36.75 Ry     beta=0.30
     Davidson diagonalization with overlap
     c_bands:  1 eigenvalues not converged
     ethr =  2.10E-05,  avg # of iterations =  7.3

[...]

     End of self-consistent calculation

          k = 0.0000 0.0000 0.0000 ( 22729 PWs)   bands (ev):

   -61.2802 -61.1971 -61.1635 -61.1628 -61.1621 -61.0858 -61.0610 -61.0608
   -60.7700 -60.7425 -60.7423 -60.6805 -29.9598 -29.9596 -29.9467 -29.9335
   -29.9332 -29.9237 -29.8611 -29.8343 -29.7627 -29.7622 -29.7543 -29.7005
   -29.6516 -29.6512 -29.5362 -29.5356 -29.5353 -29.5175 -29.5175 -29.4784
   -29.4590 -29.4445 -29.4443 -29.4075 -29.4075 -29.3386 -29.3385 -29.2289
   -29.2209 -29.2207 -29.1474 -29.1317 -29.1169 -29.1168 -28.9953 -28.9953
   -11.3165  -5.0262  -3.7624  -2.6238  -2.4122  -2.4122  -2.0945  -1.5353
    -1.5353  -1.4076  -1.2561  -1.1847  -1.1846  -0.5728  -0.5379  -0.5379
    -0.2195  -0.2195  -0.0087   0.6024   0.6025   0.9809   1.4454   1.6247
     1.7791   1.7791   1.8641   1.8932   1.9108   1.9108   2.2187   2.3608
     2.5509   2.5510   2.7109   2.7110   2.7149

[...]

          k =-0.0782 0.0452 0.0000 ( 22668 PWs)   bands (ev):

[...]

     the Fermi energy is     1.4355 ev

!    total energy              =   -1951.26625415 Ry
     Harris-Foulkes estimate   =   -1951.26625305 Ry
     estimated scf accuracy    <       0.00000113 Ry

     The total energy is the sum of the following terms:

     one-electron contribution =   -8560.96220638 Ry
     hartree contribution      =    4265.63998403 Ry
     xc contribution           =    -936.59959278 Ry
     ewald contribution        =    3280.77208064 Ry
     electric field correction =       0.00002705 Ry
     smearing contrib. (-TS)   =      -0.11654671 Ry

     convergence has been achieved in  37 iterations

 BEEF-vdW xc energy contributions
           1 :   -846.558005669242
           2 :    786.525110882388
           3 :   -680.175204357039
           4 :    549.538798139014
           5 :   -417.407005636775
           6 :    300.939742501492
           7 :   -208.838858239224
           8 :    142.236676631515
           9 :   -97.7723276797367
          10 :    70.6429838345348
          11 :   -56.2409970288866
          12 :    50.2788627082483
          13 :   -48.3632814239329
          14 :    46.0274582520626
          15 :   -39.5994358241220
          16 :    27.4139387751702
          17 :   -10.5245947493092
          18 :   -7.69488944880402
          19 :    22.9762376753629
          20 :   -31.9335202896148
          21 :    33.3142736875450
          22 :   -28.2048908785059
          23 :    19.2604067629904
          24 :   -9.52741496484225
          25 :    1.49523838711673
          26 :    3.28736410728220
          27 :   -4.14150999872504
          28 :    1.07463665135379
          29 :    5.25218804676456
          30 :   -13.4395531910259
          31 :   -61.1100628323391
          32 :   -43.9172308170851

     Forces acting on atoms (Ry/au):

     negative rho (up, down):  1.380E+00 0.000E+00
     atom    1 type  1   force =    -0.00001586    0.00003468    0.02321462
     atom    2 type  1   force =     0.00001154    0.00127381    0.02437648
     atom    3 type  1   force =     0.00107183   -0.00064452    0.02438394
     atom    4 type  1   force =    -0.00108337   -0.00066582    0.02430521
     atom    5 type  1   force =    -0.00189433    0.00105211   -0.00254172
     atom    6 type  1   force =     0.00189245    0.00110683   -0.00258939
     atom    7 type  1   force =     0.00005234    0.00000781   -0.00442837
     atom    8 type  1   force =    -0.00004617   -0.00217021   -0.00252905
     atom    9 type  1   force =    -0.01123567   -0.00646850   -0.00583078
     atom   10 type  1   force =     0.01125973   -0.00649841   -0.00583976
     atom   11 type  1   force =    -0.00001392    0.01298948   -0.00586324
     atom   12 type  1   force =     0.00001190   -0.00001829   -0.03591552
     atom   13 type  2   force =    -0.00001048    0.00000102   -0.03074242

     Total force =     0.053323     Total SCF correction =     0.002385

     entering subroutine stress ...

     negative rho (up, down):  1.380E+00 0.000E+00
          total   stress  (Ry/bohr**3)                   (kbar)     P=  -22.11
  -0.00013069  -0.00000001   0.00000000        -19.22     -0.00      0.00
  -0.00000001  -0.00013069   0.00000000         -0.00    -19.23      0.00
   0.00000000   0.00000000  -0.00018945          0.00      0.00    -27.87

     BFGS Geometry Optimization

     number of scf cycles    =   1
     number of bfgs steps    =   0

     energy   new            =   -1951.2662541478 Ry

     new trust radius        =       0.0359155239 bohr
     new conv_thr            =       0.0000099958 Ry

ATOMIC_POSITIONS (crystal)
Hf1      0.166666667   0.166666667   0.396510335    0   0   0
Hf1      0.666666667   0.166666667   0.396510335    0   0   0
Hf1      0.166666667   0.666666667   0.396510335    0   0   0
Hf1      0.666666667   0.666666667   0.396510335    0   0   0
Hf1      0.833333333   0.333333333   0.500000000    0   0   0
Hf1      0.333333333   0.333333333   0.500000000    0   0   0
Hf1      0.833333333   0.833333333   0.500000000    0   0   0
Hf1      0.333333333   0.833333333   0.500000000    0   0   0
Hf1     -0.000620879  -0.000618238   0.603367321
Hf1      0.501242538  -0.000621097   0.603367133
Hf1     -0.000621899   0.501241493   0.603366640
Hf1      0.500001859   0.499998252   0.602736071
S1       0.166665751   0.166666764   0.675009496

     Writing output data file calc.save
     Check: negative starting charge=   -1.301228
     NEW-OLD atomic charge density approx. for the potential

     Check: negative/imaginary core charge=   -0.000003    0.000000
     Check: negative starting charge=   -1.300702

[...]

     energy   old            =   -1951.2662541478 Ry
     energy   new            =   -1951.2689919735 Ry

     CASE: energy  _new < energy  _old

     WARNING: bfgs curvature condition failed, Theta= 0.874
     new trust radius        =       0.0538732859 bohr
     new conv_thr            =       0.0000001000 Ry

[...]

     iteration #  1     ecut=    36.75 Ry     beta=0.30
     Davidson diagonalization with overlap
     c_bands:  1 eigenvalues not converged
     ethr =  1.00E-06,  avg # of iterations = 14.4

[...]

     Total force =     0.005044     Total SCF correction =     0.000267

[...]

     Total force =     0.003584     Total SCF correction =     0.000783
     SCF correction compared to forces is large: reduce conv_thr to get better values

[...]

     number of scf cycles    =  12
     number of bfgs steps    =  11

     energy   old            =   -1951.2871616825 Ry
     energy   new            =   -1951.2872007169 Ry

     CASE: energy  _new < energy  _old

     new trust radius        =       0.0077290128 bohr
     new conv_thr            =       0.0000001000 Ry

ATOMIC_POSITIONS (crystal)
Hf1      0.166666667   0.166666667   0.396510335    0   0   0
Hf1      0.666666667   0.166666667   0.396510335    0   0   0
Hf1      0.166666667   0.666666667   0.396510335    0   0   0
Hf1      0.666666667   0.666666667   0.396510335    0   0   0
Hf1      0.833333333   0.333333333   0.500000000    0   0   0
Hf1      0.333333333   0.333333333   0.500000000    0   0   0
Hf1      0.833333333   0.833333333   0.500000000    0   0   0
Hf1      0.333333333   0.833333333   0.500000000    0   0   0
Hf1     -0.004272821  -0.004276990   0.598513278
Hf1      0.508546863  -0.004220516   0.598510115
Hf1     -0.004218667   0.508547170   0.598509889
Hf1      0.499997708   0.500001752   0.594186768
S1       0.166646250   0.166651181   0.665796925

     Writing output data file calc.save
     Check: negative starting charge=   -1.298962
     NEW-OLD atomic charge density approx. for the potential

     Check: negative/imaginary core charge=   -0.000003    0.000000
     Check: negative starting charge=   -1.298706

[...]

     Self-consistent Calculation

[...]

     total energy              =   -1951.28722035 Ry
     Harris-Foulkes estimate   =   -1951.28722038 Ry
     estimated scf accuracy    <       0.00000013 Ry

     iteration # 11     ecut=    36.75 Ry     beta=0.30
     Davidson diagonalization with overlap
     ethr =  8.51E-11,  avg # of iterations =  1.1

[...]

     negative rho (up, down):  1.376E+00 0.000E+00

     Adding external electric field

     Computed dipole along edir(3) :
        Dipole               -0.1089 Ry au,         -0.2767 Debye
        Dipole field         -0.0002 Ry au

        Potential amp.        0.0211 Ry
        Total length         46.4675 bohr

     End of self-consistent calculation

[...]

          k = 0.0521-0.0602 0.0000 ( 22643 PWs)   bands (ev):

[...]

          k =-0.0782-0.0452 0.0000 ( 22668 PWs)   bands (ev):

   -61.1940 -61.1922 -61.1766 -61.1751 -61.0615 -60.9525 -60.9394 -60.9322
   -60.6455 -60.6378 -60.6290 -60.5483 -29.8608 -29.8577 -29.8141 -29.8019
   -29.7577 -29.7507 -29.7451 -29.7446 -29.7004 -29.6926 -29.6810 -29.6551
   -29.6535 -29.6395 -29.5986 -29.5832 -29.5752 -29.5392 -29.4840 -29.4827
   -29.4818 -29.4410 -29.3443 -29.2744 -29.2626 -29.2440 -29.1593 -29.1494
   -29.1294 -29.1031 -29.1001 -29.0858 -29.0643 -28.9998 -28.9726 -28.9309
   -11.3958  -3.6674  -3.5010  -2.7236  -2.5308  -2.3891  -1.8127  -1.5790
    -1.1789  -1.1776  -0.8063  -0.5761  -0.5724  -0.5055   0.2247   0.3580
     0.3636   0.4173   0.5421   0.5827   0.8047   0.8233   0.9368   0.9475
     1.0215   1.0360   1.2202   1.2429   1.3086   1.4023   1.4101   1.6122
     1.7028   1.8028   1.8385   2.2951   2.3830

     the Fermi energy is     1.4185 ev

!    total energy              =   -1951.28722031 Ry
     Harris-Foulkes estimate   =   -1951.28722009 Ry
     estimated scf accuracy    <       0.00000006 Ry

     The total energy is the sum of the following terms:

     one-electron contribution =   -8781.13384519 Ry
     hartree contribution      =    4376.10804508 Ry
     xc contribution           =    -936.92648612 Ry
     ewald contribution        =    3390.77683819 Ry
     electric field correction =       0.00002473 Ry
     smearing contrib. (-TS)   =      -0.11179700 Ry

     convergence has been achieved in  11 iterations

 BEEF-vdW xc energy contributions
           1 :   -846.886211660223
           2 :    786.949422071715
           3 :   -680.680861458793
           4 :    549.989887284539
           5 :   -417.640726341505
           6 :    300.888036455829
           7 :   -208.583028904372
           8 :    141.956115269589
           9 :   -97.6268352122415
          10 :    70.6753867996379
          11 :   -56.3646352389277
          12 :    50.3517481683548
          13 :   -48.2929058563059
          14 :    45.8334138816859
          15 :   -39.3928628954880
          16 :    27.3123302868815
          17 :   -10.5626214075598
          18 :   -7.59406047546418
          19 :    22.9466029221712
          20 :   -32.0653637498525
          21 :    33.5816496031196
          22 :   -28.4778192870675
          23 :    19.3950804894901
          24 :   -9.46854811353273
          25 :    1.31392246471478
          26 :    3.44871897184146
          27 :   -4.17467032249397
          28 :   0.980932758659492
          29 :    5.37245563780311
          30 :   -13.4738417866068
          31 :   -61.1338978694487
          32 :   -43.9554330503661

     Forces acting on atoms (Ry/au):

     negative rho (up, down):  1.376E+00 0.000E+00
     atom    1 type  1   force =    -0.00000171   -0.00000083    0.01638018
     atom    2 type  1   force =     0.00000956    0.00160184    0.01980642
     atom    3 type  1   force =     0.00139189   -0.00079266    0.01980657
     atom    4 type  1   force =    -0.00140946   -0.00081384    0.01978862
     atom    5 type  1   force =     0.00258877   -0.00148322   -0.01707211
     atom    6 type  1   force =    -0.00258590   -0.00149335   -0.01708092
     atom    7 type  1   force =    -0.00001276   -0.00000736   -0.02553779
     atom    8 type  1   force =     0.00001012    0.00298402   -0.01707442
     atom    9 type  1   force =     0.00041448    0.00024315    0.00036834
     atom   10 type  1   force =    -0.00042312    0.00028172    0.00035303
     atom   11 type  1   force =     0.00002904   -0.00050736    0.00035386
     atom   12 type  1   force =    -0.00001040   -0.00000986    0.00174220
     atom   13 type  2   force =    -0.00000050   -0.00000223   -0.00183398

     Total force =     0.002744     Total SCF correction =     0.000446
     SCF correction compared to forces is large: reduce conv_thr to get better values

     entering subroutine stress ...

     negative rho (up, down):  1.376E+00 0.000E+00
          total   stress  (Ry/bohr**3)                   (kbar)     P=  -13.35
  -0.00009271  -0.00000002   0.00000000        -13.64     -0.00      0.00
  -0.00000002  -0.00009268  -0.00000000         -0.00    -13.63     -0.00
   0.00000000  -0.00000000  -0.00008693          0.00     -0.00    -12.79

     bfgs converged in  13 scf cycles and  12 bfgs steps
     (criteria: energy <  1.0E+00, force <  1.9E-03)

     End of BFGS Geometry Optimization

     Final energy   =   -1951.2872203089 Ry
Begin final coordinates

ATOMIC_POSITIONS (crystal)
Hf1      0.166666667   0.166666667   0.396510335    0   0   0
Hf1      0.666666667   0.166666667   0.396510335    0   0   0
Hf1      0.166666667   0.666666667   0.396510335    0   0   0
Hf1      0.666666667   0.666666667   0.396510335    0   0   0
Hf1      0.833333333   0.333333333   0.500000000    0   0   0
Hf1      0.333333333   0.333333333   0.500000000    0   0   0
Hf1      0.833333333   0.833333333   0.500000000    0   0   0
Hf1      0.333333333   0.833333333   0.500000000    0   0   0
Hf1     -0.004272821  -0.004276990   0.598513278
Hf1      0.508546863  -0.004220516   0.598510115
Hf1     -0.004218667   0.508547170   0.598509889
Hf1      0.499997708   0.500001752   0.594186768
S1       0.166646250   0.166651181   0.665796925
End final coordinates

     Writing output data file calc.save

     General routines

     Parallel routines

   This run was terminated on:  20:38:59   3May2018

   JOB DONE.
Job  /afs/slac/g/suncat/bin/suncat-tsmpirun -x LD_LIBRARY_PATH -wdir /scratch/qe795439_CC3fp pw.x -npool 4 -in pw.inp

TID   HOST_NAME   COMMAND_LINE            STATUS            TERMINATION_TIME
00000 suncat0015 pw.x -npool 4 -i  Done                     05/03/2018 20:38:59
00001 suncat0015 pw.x -npool 4 -i  Done                     05/03/2018 20:38:59
00002 suncat0015 pw.x -npool 4 -i  Done                     05/03/2018 20:38:59
00003 suncat0015 pw.x -npool 4 -i  Done                     05/03/2018 20:38:59
00004 suncat0015 pw.x -npool 4 -i  Done                     05/03/2018 20:38:59
00005 suncat0015 pw.x -npool 4 -i  Done                     05/03/2018 20:38:59
00006 suncat0015 pw.x -npool 4 -i  Done                     05/03/2018 20:38:59
00007 suncat0015 pw.x -npool 4 -i  Done                     05/03/2018 20:38:59
00008 suncat0010 pw.x -npool 4 -i  Done                     05/03/2018 20:38:59
00009 suncat0010 pw.x -npool 4 -i  Done                     05/03/2018 20:38:59
00010 suncat0010 pw.x -npool 4 -i  Done                     05/03/2018 20:38:59
00011 suncat0010 pw.x -npool 4 -i  Done                     05/03/2018 20:38:59
00012 suncat0010 pw.x -npool 4 -i  Done                     05/03/2018 20:38:59
00013 suncat0010 pw.x -npool 4 -i  Done                     05/03/2018 20:38:59
00014 suncat0010 pw.x -npool 4 -i  Done                     05/03/2018 20:38:59
00015 suncat0010 pw.x -npool 4 -i  Done                     05/03/2018 20:38:59
00016 suncat0002 pw.x -npool 4 -i  Done                     05/03/2018 20:38:59
00017 suncat0002 pw.x -npool 4 -i  Done                     05/03/2018 20:38:59
00018 suncat0002 pw.x -npool 4 -i  Done                     05/03/2018 20:38:59
00019 suncat0002 pw.x -npool 4 -i  Done                     05/03/2018 20:38:59
00020 suncat0002 pw.x -npool 4 -i  Done                     05/03/2018 20:38:59
00021 suncat0002 pw.x -npool 4 -i  Done                     05/03/2018 20:38:59
00022 suncat0002 pw.x -npool 4 -i  Done                     05/03/2018 20:38:59
00023 suncat0002 pw.x -npool 4 -i  Done                     05/03/2018 20:38:59
00024 suncat0185 pw.x -npool 4 -i  Done                     05/03/2018 20:38:59
00025 suncat0185 pw.x -npool 4 -i  Done                     05/03/2018 20:38:59
00026 suncat0185 pw.x -npool 4 -i  Done                     05/03/2018 20:38:59
00027 suncat0185 pw.x -npool 4 -i  Done                     05/03/2018 20:38:59
00028 suncat0185 pw.x -npool 4 -i  Done                     05/03/2018 20:38:59
00029 suncat0185 pw.x -npool 4 -i  Done                     05/03/2018 20:38:59
00030 suncat0185 pw.x -npool 4 -i  Done                     05/03/2018 20:38:59
00031 suncat0185 pw.x -npool 4 -i  Done                     05/03/2018 20:38:59