     Program PWSCF v.5.1rc2 (svn rev. 11289) starts on 16Apr2018 at  9:58:16

     Current dimensions of program PWSCF are:
     Max number of different atomic species (ntypx) = 10
     Max number of k-points (npk) =  40000
     Max angular momentum in pseudopotentials (lmaxx) =  3
     Presently stress not available with electric field

     IMPORTANT: XC functional enforced from input :
     Exchange-correlation      = BEEF-VDW ( 1  4 27 13 2)
     Any further DFT definition will be discarded
     Please, verify this is what you really want

     Subspace diagonalization in iterative solution of the eigenvalue problem:
     a serial algorithm will be used

     bravais-lattice index     =            0
     lattice parameter (alat)  =       1.8897  a.u.
     unit-cell volume          =    5174.6160 (a.u.)^3
     number of atoms/cell      =           14
     number of atomic types    =            3
     number of electrons       =       235.00
     number of Kohn-Sham states=          127
     kinetic-energy cutoff     =      36.7493  Ry
     charge density cutoff     =     367.4932  Ry
     convergence threshold     =      1.0E-05
     mixing beta               =       0.3000
     number of iterations used =           10  plain     mixing
     Exchange-correlation      = BEEF-VDW ( 1  4 27 13 2)
     nstep                     =           50

     celldm(1)=   1.889726  celldm(2)=   0.000000  celldm(3)=   0.000000
     celldm(4)=   0.000000  celldm(5)=   0.000000  celldm(6)=   0.000000

     crystal axes: (cart. coord. in units of alat)
               a(1) = (   5.966546   0.000000   0.000000 )
               a(2) = (   2.983273   5.167181   0.000000 )
               a(3) = (   0.000000   0.000000  24.871665 )

     reciprocal axes: (cart. coord. in units 2 pi/alat)
               b(1) = (  0.167601 -0.096765  0.000000 )
               b(2) = (  0.000000  0.193529  0.000000 )
               b(3) = (  0.000000  0.000000  0.040206 )

     PseudoPot. # 1 for Ag read from file:
     /u/if/mamunm/psp/gbrv1.5pbe/Ag.UPF
     MD5 check sum: d66d668201baa78d5eb5b04ef7011058
     Pseudo is Ultrasoft + core correction, Zval = 19.0
     Generated by new atomic code, or converted to UPF format
     Using radial grid of  887 points,  6 beta functions with:
                l(1) =   0
                l(2) =   0
                l(3) =   1
                l(4) =   1
                l(5) =   2
                l(6) =   2
     Q(r) pseudized with  6 coefficients,  rinner =    1.300   1.300   1.300
                                                       1.300   1.300

     PseudoPot. # 2 for O  read from file:
     /u/if/mamunm/psp/gbrv1.5pbe/O.UPF
     MD5 check sum: 734c27235a0248c51dbae37a1fbe46ec
     Pseudo is Ultrasoft + core correction, Zval =  6.0
     Generated by new atomic code, or converted to UPF format
     Using radial grid of  737 points,  5 beta functions with:
                l(1) =   0
                l(2) =   0
                l(3) =   1
                l(4) =   1
                l(5) =   2
     Q(r) pseudized with  8 coefficients,  rinner =    0.900   0.900   0.900
                                                       0.900   0.900

     PseudoPot. # 3 for H  read from file:
     /u/if/mamunm/psp/gbrv1.5pbe/H.UPF
     MD5 check sum: 761ae9a214b05c3daf00ab9f6b793d6f
     Pseudo is Ultrasoft, Zval =  1.0
     Generated by new atomic code, or converted to UPF format
     Using radial grid of  615 points,  2 beta functions with:
                l(1) =   0
                l(2) =   0
     Q(r) pseudized with  8 coefficients,  rinner =    0.700

     vdW kernel table read from file vdW_kernel_table
     MD5 check sum: 095c7af220d748ca6e76c0b4c6cfb241

     atomic species   valence    mass     pseudopotential
        Ag1           19.00   107.86820     Ag( 1.00)
        O1             6.00    15.99900     O ( 1.00)
        H1             1.00     1.00800     H ( 1.00)

     No symmetry found

   Cartesian axes

     site n.     atom                  positions (alat units)
         1           Ag1 tau(   1) = (   1.4916366   0.8611968  10.0000000  )
         2           Ag1 tau(   2) = (   4.4749098   0.8611968  10.0000000  )
         3           Ag1 tau(   3) = (   2.9832732   3.4447871  10.0000000  )
         4           Ag1 tau(   4) = (   5.9665464   3.4447871  10.0000000  )
         5           Ag1 tau(   5) = (   5.9665464   1.7223936  12.4358324  )
         6           Ag1 tau(   6) = (   2.9832732   1.7223936  12.4358324  )
         7           Ag1 tau(   7) = (   7.4581830   4.3059839  12.4358324  )
         8           Ag1 tau(   8) = (   4.4749098   4.3059839  12.4358324  )
         9           Ag1 tau(   9) = (   0.0000000   0.0000000  14.8716647  )
        10           Ag1 tau(  10) = (   2.9832732   0.0000000  14.8716647  )
        11           Ag1 tau(  11) = (   1.4916366   2.5835904  14.8716647  )
        12           Ag1 tau(  12) = (   4.4749098   2.5835904  14.8716647  )
        13           O1  tau(  13) = (   1.4916366   0.0000000  16.4541647  )
        14           H1  tau(  14) = (   1.4916366   0.0000000  17.4041647  )

     number of k points=    20  Fermi-Dirac smearing, width (Ry)=  0.0110
                       cart. coord. in units 2pi/alat
        k(    1) = (   0.0000000   0.0000000   0.0000000), wk =   0.0555556
        k(    2) = (   0.0000000   0.0322549   0.0000000), wk =   0.1111111
        k(    3) = (   0.0000000   0.0645097   0.0000000), wk =   0.1111111
        k(    4) = (   0.0000000  -0.0967646   0.0000000), wk =   0.0555556
        k(    5) = (   0.0279335  -0.0161274   0.0000000), wk =   0.1111111
        k(    6) = (   0.0279335   0.0161274   0.0000000), wk =   0.1111111
        k(    7) = (   0.0279335   0.0483823   0.0000000), wk =   0.1111111
        k(    8) = (   0.0279335  -0.1128920   0.0000000), wk =   0.1111111
        k(    9) = (   0.0279335  -0.0806371   0.0000000), wk =   0.1111111
        k(   10) = (   0.0279335  -0.0483823   0.0000000), wk =   0.1111111
        k(   11) = (   0.0558670  -0.0322549   0.0000000), wk =   0.1111111
        k(   12) = (   0.0558670   0.0000000   0.0000000), wk =   0.1111111
        k(   13) = (   0.0558670   0.0322549   0.0000000), wk =   0.1111111
        k(   14) = (   0.0558670  -0.1290194   0.0000000), wk =   0.1111111
        k(   15) = (   0.0558670  -0.0967646   0.0000000), wk =   0.1111111
        k(   16) = (   0.0558670  -0.0645097   0.0000000), wk =   0.1111111
        k(   17) = (  -0.0838006   0.0483823   0.0000000), wk =   0.0555556
        k(   18) = (  -0.0838006   0.0806371   0.0000000), wk =   0.1111111
        k(   19) = (  -0.0838006   0.1128920   0.0000000), wk =   0.1111111
        k(   20) = (  -0.0838006  -0.0483823   0.0000000), wk =   0.0555556

     Largest allocated arrays     est. size (Mb)     dimensions
     Largest temporary arrays     est. size (Mb)     dimensions

     Initial potential from superposition of free atoms
     Check: negative starting charge=   -0.002054

     starting charge  228.99942, renormalised to  235.00000

     negative rho (up, down):  2.108E-03 0.000E+00

     *
     * You are using vdW-DF for exchange-correlation in this calculation.
     * Please cite the following three references that made this development
     * possible:
     *
     *   M. Dion, H. Rydberg, E. Schroder, D. C. Langreth, and
     *   B. I. Lundqvist, Phys. Rev. Lett. 92, 246401 (2004).
     *
     *   T. Thonhauser, V. R. Cooper, S. Li, A. Puzder, P. Hyldgaard, and
     *   D. C. Langreth, Phys. Rev. B 76, 125112 (2007).
     *
     *   G. Roman-Perez and J. M. Soler, Phys. Rev. Lett. 103, 096102 (2009).
     *
     *
     * If you are using vdW-DF2, please also cite:
     *
     *   K. Lee, E. D. Murray, L. Kong, B. I. Lundqvist, and
     *   D. C. Langreth, Phys. Rev. B 82, 081101(R) (2010).
     *
     *
     * If you are calculating the stress with vdW-DF, please also cite:
     *
     *   R. Sabatini, E. Kucukbenli, B. Kolb, T. Thonhauser, and
     *   S. de Gironcoli, J. Phys.: Condens. Matter 24, 424209 (2012).
     *

     Carrying out vdW-DF run using the following parameters:

     Nqs =      20    Nr_points =    1024   r_max =   100.000
     q_mesh =
               0.00001000     0.04494208     0.09755937     0.15916263
               0.23128650     0.31572767     0.41458969     0.53033537
               0.66584808     0.82450364     1.01025438     1.22772762
               1.48234092     1.78043706     2.12944203     2.53805004
               3.01644009     3.57652955     4.23227104     5.00000000

     Gradients computed in reciprocal space

     Adding external electric field

     Computed dipole along edir(3) :
        Dipole               -1.4398 Ry au,         -3.6596 Debye
        Dipole field         -0.0035 Ry au

        Potential amp.        0.3205 Ry
        Total length         45.8256 bohr

     Starting wfc are  161 randomized atomic wfcs

     Self-consistent Calculation

     iteration #  1     ecut=    36.75 Ry     beta=0.30
     Davidson diagonalization with overlap
     ethr =  1.00E-02,  avg # of iterations =  5.8

[...]

     total energy              =   -3578.39965283 Ry
     Harris-Foulkes estimate   =   -3596.56183509 Ry
     estimated scf accuracy    <      38.99937383 Ry

[...]

     End of self-consistent calculation

          k = 0.0000 0.0000 0.0000 ( 19435 PWs)   bands (ev):

   -90.6132 -90.6088 -90.5997 -90.5927 -90.4134 -90.4086 -90.4059 -90.3887
   -90.3855 -90.3720 -90.2838 -90.2804 -54.1507 -54.1449 -54.1408 -54.1118
   -54.1040 -54.0923 -54.0874 -54.0871 -54.0829 -54.0799 -54.0609 -54.0591
   -53.9547 -53.9478 -53.9462 -53.9331 -53.9084 -53.8937 -53.8922 -53.8905
   -53.8900 -53.8879 -53.8865 -53.8846 -53.8718 -53.8660 -53.8652 -53.8651
   -53.8596 -53.8485 -53.8187 -53.8046 -53.7956 -53.7818 -53.7364 -53.7222
   -17.7188  -6.2699  -4.9743  -4.3457  -4.3444  -4.3424  -4.3035  -4.2136
    -4.2063  -4.1881  -4.1276  -4.0932  -4.0914  -4.0144  -3.9621  -3.9231
    -3.7650  -3.3902  -3.3537  -3.3272  -3.2811  -3.2491  -3.1900  -3.1659
    -3.1641  -3.1220  -3.0666  -2.9912  -2.9773  -2.9486  -2.9249  -2.8736
    -2.8524  -2.7540  -2.4303  -2.4050  -2.3303  -2.3263  -2.3196  -2.3056
    -2.2691  -2.2149  -2.1591  -2.1570  -2.0643  -2.0431  -1.9408  -1.9013
    -1.8234  -1.8189  -1.8027  -1.7662  -1.7482  -1.7369  -1.6895  -1.6884
    -1.6858  -1.5066  -1.5066  -1.5006  -1.4907  -1.4596  -1.4524  -1.4472
    -0.7135  -0.2566   0.5134   1.9425   1.9735   2.0193   2.2574   2.6779
     2.8120   2.8868   3.1311   3.3246   3.6207   4.7458   5.0978

[...]

          k =-0.0838 0.0484 0.0000 ( 19500 PWs)   bands (ev):

[...]

     the Fermi energy is     1.4246 ev

!    total energy              =   -3593.56734318 Ry
     Harris-Foulkes estimate   =   -3593.56734673 Ry
     estimated scf accuracy    <       0.00000540 Ry

     The total energy is the sum of the following terms:

     one-electron contribution =  -26317.39877295 Ry
     hartree contribution      =   13154.42246708 Ry
     xc contribution           =    -369.45080066 Ry
     ewald contribution        =    9938.88500089 Ry
     electric field correction =       0.00002276 Ry
     smearing contrib. (-TS)   =      -0.02526030 Ry

     convergence has been achieved in  15 iterations

 BEEF-vdW xc energy contributions
           1 :   -320.003785810603
           2 :    289.422006373543
           3 :   -238.522347429975
           4 :    182.781453499051
           5 :   -136.123885133506
           6 :    105.919564543374
           7 :   -91.6990246209378
           8 :    87.4759677102593
           9 :   -85.9262060675059
          10 :    82.0606168206720
          11 :   -74.7349918268829
          12 :    65.7656911978678
          13 :   -57.7517537613844
          14 :    52.1588010115565
          15 :   -48.7117386873118
          16 :    46.1003593311825
          17 :   -43.1846220179381
          18 :    39.7519746145419
          19 :   -36.4116618205760
          20 :    33.8907738615355
          21 :   -32.3664230570123
          22 :    31.3243362213352
          23 :   -29.9823802479619
          24 :    27.9003703573486
          25 :   -25.3100507514570
          26 :    22.9400746022371
          27 :   -21.4891270093539
          28 :    21.1382582842495
          29 :   -21.4452971041212
          30 :    21.6686310528863
          31 :   -31.9982324777664
          32 :   -23.2059987231526

     Forces acting on atoms (Ry/au):

     negative rho (up, down):  2.156E-03 0.000E+00
     atom    1 type  1   force =     0.00000058   -0.00063491    0.00131464
     atom    2 type  1   force =    -0.00000107    0.00006366    0.00023173
     atom    3 type  1   force =     0.00047697    0.00031217    0.00167154
     atom    4 type  1   force =    -0.00047693    0.00031295    0.00167307
     atom    5 type  1   force =     0.00038145   -0.00107187    0.00257097
     atom    6 type  1   force =    -0.00038140   -0.00107359    0.00256965
     atom    7 type  1   force =    -0.00000169    0.00238684    0.00886754
     atom    8 type  1   force =     0.00000166    0.00092900   -0.00166391
     atom    9 type  1   force =    -0.03566750   -0.00093138   -0.01777349
     atom   10 type  1   force =     0.03566776   -0.00093223   -0.01777335
     atom   11 type  1   force =    -0.00000025    0.00509446   -0.00537718
     atom   12 type  1   force =     0.00000057   -0.00488716   -0.00591753
     atom   13 type  2   force =    -0.00000038    0.00052794   -0.01919164
     atom   14 type  3   force =     0.00000023   -0.00009587    0.04879798

     Total force =     0.077727     Total SCF correction =     0.013620
     SCF correction compared to forces is large: reduce conv_thr to get better values

     entering subroutine stress ...

     negative rho (up, down):  2.156E-03 0.000E+00
          total   stress  (Ry/bohr**3)                   (kbar)     P=   -6.11
  -0.00003923   0.00000000  -0.00000000         -5.77      0.00     -0.00
   0.00000000  -0.00006598  -0.00000092          0.00     -9.71     -0.14
  -0.00000000  -0.00000092  -0.00001939         -0.00     -0.14     -2.85

     BFGS Geometry Optimization

     number of scf cycles    =   1
     number of bfgs steps    =   0

     energy   new            =   -3593.5673431817 Ry

     new trust radius        =       0.0487980699 bohr
     new conv_thr            =       0.0000099958 Ry

ATOMIC_POSITIONS (crystal)
Ag1      0.166666667   0.166666667   0.402063960    0   0   0
Ag1      0.666666667   0.166666667   0.402063960    0   0   0
Ag1      0.166666667   0.666666667   0.402063960    0   0   0
Ag1      0.666666667   0.666666667   0.402063960    0   0   0
Ag1      0.833333333   0.333333333   0.500000000    0   0   0
Ag1      0.333333333   0.333333333   0.500000000    0   0   0
Ag1      0.833333333   0.833333333   0.500000000    0   0   0
Ag1      0.333333333   0.833333333   0.500000000    0   0   0
Ag1     -0.003115684  -0.000095383   0.597557886
Ag1      0.503211134  -0.000095471   0.597557889
Ag1     -0.000260887   0.500521729   0.597821633
Ag1      0.500250300   0.499499500   0.597810137
O1       0.249972933   0.000054067   0.661154335
H1       0.250004930  -0.000009819   0.700796979

     Writing output data file calc.save
     Check: negative starting charge=   -0.002054
     NEW-OLD atomic charge density approx. for the potential
     Check: negative starting charge=   -0.002053

[...]

     Total force =     0.072970     Total SCF correction =     0.006111

[...]

     energy   old            =   -3593.5673431817 Ry
     energy   new            =   -3593.5704491114 Ry

     CASE: energy  _new < energy  _old

[...]

     Threshold (ethr) on eigenvalues was too large:
     Diagonalizing with lowered threshold

     Davidson diagonalization with overlap
     ethr =  7.12E-09,  avg # of iterations =  1.1

[...]

     Total force =     0.006763     Total SCF correction =     0.000588

[...]

     number of scf cycles    =   9
     number of bfgs steps    =   8

     energy   old            =   -3593.5759357741 Ry
     energy   new            =   -3593.5760468456 Ry

     CASE: energy  _new < energy  _old

     new trust radius        =       0.0052493470 bohr
     new conv_thr            =       0.0000001000 Ry

ATOMIC_POSITIONS (crystal)
Ag1      0.166666667   0.166666667   0.402063960    0   0   0
Ag1      0.666666667   0.166666667   0.402063960    0   0   0
Ag1      0.166666667   0.666666667   0.402063960    0   0   0
Ag1      0.666666667   0.666666667   0.402063960    0   0   0
Ag1      0.833333333   0.333333333   0.500000000    0   0   0
Ag1      0.333333333   0.333333333   0.500000000    0   0   0
Ag1      0.833333333   0.833333333   0.500000000    0   0   0
Ag1      0.333333333   0.833333333   0.500000000    0   0   0
Ag1     -0.016614628  -0.002342950   0.597108319
Ag1      0.518957484  -0.002342829   0.597108334
Ag1      0.003313333   0.493373572   0.596679154
Ag1      0.497383099   0.505233648   0.596261853
O1       0.248515259   0.002969610   0.661082232
H1       0.250219066  -0.000438103   0.700181115

     Writing output data file calc.save
     Check: negative starting charge=   -0.002100
     NEW-OLD atomic charge density approx. for the potential
     Check: negative starting charge=   -0.002102

[...]

     Self-consistent Calculation

[...]

     Threshold (ethr) on eigenvalues was too large:
     Diagonalizing with lowered threshold

     Davidson diagonalization with overlap
     ethr =  4.44E-09,  avg # of iterations =  1.6

[...]

     total energy              =   -3593.57606595 Ry
     Harris-Foulkes estimate   =   -3593.57606596 Ry
     estimated scf accuracy    <       0.00000011 Ry

     iteration #  6     ecut=    36.75 Ry     beta=0.30
     Davidson diagonalization with overlap
     ethr =  4.69E-11,  avg # of iterations =  2.0

[...]

     negative rho (up, down):  2.210E-03 0.000E+00

     Adding external electric field

     Computed dipole along edir(3) :
        Dipole                0.0732 Ry au,          0.1862 Debye
        Dipole field          0.0002 Ry au

        Potential amp.       -0.0163 Ry
        Total length         45.8256 bohr

     End of self-consistent calculation

[...]

          k = 0.0559-0.0645 0.0000 ( 19479 PWs)   bands (ev):

[...]

          k =-0.0838-0.0484 0.0000 ( 19500 PWs)   bands (ev):

   -90.6768 -90.6744 -90.6730 -90.6469 -90.4623 -90.4611 -90.4587 -90.4498
   -90.4401 -90.4185 -90.3162 -90.3116 -54.2000 -54.1894 -54.1761 -54.1745
   -54.1734 -54.1704 -54.1693 -54.1666 -54.1459 -54.1428 -54.1426 -54.1258
   -53.9911 -53.9833 -53.9695 -53.9657 -53.9651 -53.9610 -53.9599 -53.9453
   -53.9427 -53.9406 -53.9391 -53.9375 -53.9356 -53.9310 -53.9254 -53.9251
   -53.9145 -53.8923 -53.8615 -53.8409 -53.8372 -53.8167 -53.7628 -53.7488
   -17.3629  -5.6681  -4.1913  -4.1402  -4.0227  -3.9861  -3.9726  -3.9471
    -3.8719  -3.8262  -3.7631  -3.7499  -3.7295  -3.7005  -3.6206  -3.5994
    -3.5274  -3.5263  -3.3531  -3.3145  -3.3008  -3.2680  -3.2600  -3.2519
    -3.1945  -3.1432  -3.0182  -2.9868  -2.9596  -2.9152  -2.9044  -2.8605
    -2.8351  -2.7790  -2.7693  -2.6667  -2.6450  -2.6427  -2.6134  -2.6067
    -2.5912  -2.5471  -2.4801  -2.4407  -2.4183  -2.3943  -2.3789  -2.3656
    -2.3336  -2.3148  -2.2768  -2.2731  -2.1724  -2.1318  -2.1117  -2.0925
    -2.0137  -1.9212  -1.7986  -1.7856  -1.7817  -1.7129  -1.6603  -1.4520
    -1.2524  -0.4812  -0.3241  -0.2500   1.1708   1.1951   1.9947   2.0666
     2.6845   2.8360   4.3839   4.4554   4.9615   5.0992   6.0208

     the Fermi energy is     1.3732 ev

!    total energy              =   -3593.57606596 Ry
     Harris-Foulkes estimate   =   -3593.57606600 Ry
     estimated scf accuracy    <       0.00000002 Ry

     The total energy is the sum of the following terms:

     one-electron contribution =  -26412.71153793 Ry
     hartree contribution      =   13201.84864194 Ry
     xc contribution           =    -369.42803853 Ry
     ewald contribution        =    9986.73997039 Ry
     electric field correction =       0.00001303 Ry
     smearing contrib. (-TS)   =      -0.02511485 Ry

     convergence has been achieved in   6 iterations

 BEEF-vdW xc energy contributions
           1 :   -319.983700339172
           2 :    289.407176098106
           3 :   -238.514202263960
           4 :    182.775897584247
           5 :   -136.113543997952
           6 :    105.897916430549
           7 :   -91.6658504742445
           8 :    87.4409263900522
           9 :   -85.9051741498370
          10 :    82.0651466475156
          11 :   -74.7621933124479
          12 :    65.7970476443825
          13 :   -57.7644265804483
          14 :    52.1428400269637
          15 :   -48.6795325225604
          16 :    46.0795503759045
          17 :   -43.1988323349086
          18 :    39.8027433197440
          19 :   -36.4745642428127
          20 :    33.9304339748641
          21 :   -32.3609645531408
          22 :    31.2814409330655
          23 :   -29.9348213683966
          24 :    27.8833708054750
          25 :   -25.3363233875410
          26 :    22.9916209765611
          27 :   -21.5329451927551
          28 :    21.1533695932496
          29 :   -21.4401076559990
          30 :    21.6759049269435
          31 :   -31.9977617400669
          32 :   -23.2064609560752

     Forces acting on atoms (Ry/au):

     negative rho (up, down):  2.210E-03 0.000E+00
     atom    1 type  1   force =     0.00000000   -0.00058511    0.00069088
     atom    2 type  1   force =     0.00000000    0.00016098   -0.00070287
     atom    3 type  1   force =     0.00045480    0.00023872    0.00052517
     atom    4 type  1   force =    -0.00045480    0.00023872    0.00052517
     atom    5 type  1   force =     0.00049290   -0.00125116    0.00028484
     atom    6 type  1   force =    -0.00049289   -0.00125118    0.00028479
     atom    7 type  1   force =    -0.00000002    0.00015480    0.00286299
     atom    8 type  1   force =     0.00000001    0.00306897   -0.00117126
     atom    9 type  1   force =     0.00093884   -0.00043725   -0.00086787
     atom   10 type  1   force =    -0.00093871   -0.00043740   -0.00086798
     atom   11 type  1   force =    -0.00000015   -0.00042819    0.00007205
     atom   12 type  1   force =     0.00000012   -0.00102299   -0.00032143
     atom   13 type  2   force =    -0.00000013    0.00191105   -0.00124241
     atom   14 type  3   force =     0.00000002   -0.00035996   -0.00007209

     Total force =     0.003213     Total SCF correction =     0.000333
     SCF correction compared to forces is large: reduce conv_thr to get better values

     entering subroutine stress ...

     negative rho (up, down):  2.210E-03 0.000E+00
          total   stress  (Ry/bohr**3)                   (kbar)     P=   -4.70
  -0.00002201   0.00000000  -0.00000000         -3.24      0.00     -0.00
   0.00000000  -0.00004779  -0.00000001          0.00     -7.03     -0.00
  -0.00000000  -0.00000001  -0.00002610         -0.00     -0.00     -3.84

     bfgs converged in  10 scf cycles and   9 bfgs steps
     (criteria: energy <  1.0E+00, force <  1.9E-03)

     End of BFGS Geometry Optimization

     Final energy   =   -3593.5760659604 Ry
Begin final coordinates

ATOMIC_POSITIONS (crystal)
Ag1      0.166666667   0.166666667   0.402063960    0   0   0
Ag1      0.666666667   0.166666667   0.402063960    0   0   0
Ag1      0.166666667   0.666666667   0.402063960    0   0   0
Ag1      0.666666667   0.666666667   0.402063960    0   0   0
Ag1      0.833333333   0.333333333   0.500000000    0   0   0
Ag1      0.333333333   0.333333333   0.500000000    0   0   0
Ag1      0.833333333   0.833333333   0.500000000    0   0   0
Ag1      0.333333333   0.833333333   0.500000000    0   0   0
Ag1     -0.016614628  -0.002342950   0.597108319
Ag1      0.518957484  -0.002342829   0.597108334
Ag1      0.003313333   0.493373572   0.596679154
Ag1      0.497383099   0.505233648   0.596261853
O1       0.248515259   0.002969610   0.661082232
H1       0.250219066  -0.000438103   0.700181115
End final coordinates

     Writing output data file calc.save

     General routines

     Parallel routines

   This run was terminated on:  10:56:39  16Apr2018

   JOB DONE.
Job  /afs/slac/g/suncat/bin/suncat-tsmpirun -x LD_LIBRARY_PATH -wdir /scratch/qe100450_VORxy pw.x -npool 4 -in pw.inp

TID   HOST_NAME   COMMAND_LINE            STATUS            TERMINATION_TIME
00000 suncat0278 pw.x -npool 4 -i  Done                     04/16/2018 10:56:39
00001 suncat0278 pw.x -npool 4 -i  Done                     04/16/2018 10:56:39
00002 suncat0278 pw.x -npool 4 -i  Done                     04/16/2018 10:56:39
00003 suncat0278 pw.x -npool 4 -i  Done                     04/16/2018 10:56:39
00004 suncat0278 pw.x -npool 4 -i  Done                     04/16/2018 10:56:39
00005 suncat0278 pw.x -npool 4 -i  Done                     04/16/2018 10:56:39
00006 suncat0278 pw.x -npool 4 -i  Done                     04/16/2018 10:56:39
00007 suncat0278 pw.x -npool 4 -i  Done                     04/16/2018 10:56:39
00008 suncat0247 pw.x -npool 4 -i  Done                     04/16/2018 10:56:39
00009 suncat0247 pw.x -npool 4 -i  Done                     04/16/2018 10:56:39
00010 suncat0247 pw.x -npool 4 -i  Done                     04/16/2018 10:56:39
00011 suncat0247 pw.x -npool 4 -i  Done                     04/16/2018 10:56:39
00012 suncat0247 pw.x -npool 4 -i  Done                     04/16/2018 10:56:39
00013 suncat0247 pw.x -npool 4 -i  Done                     04/16/2018 10:56:39
00014 suncat0247 pw.x -npool 4 -i  Done                     04/16/2018 10:56:39
00015 suncat0247 pw.x -npool 4 -i  Done                     04/16/2018 10:56:39
00016 suncat0208 pw.x -npool 4 -i  Done                     04/16/2018 10:56:39
00017 suncat0208 pw.x -npool 4 -i  Done                     04/16/2018 10:56:39
00018 suncat0208 pw.x -npool 4 -i  Done                     04/16/2018 10:56:39
00019 suncat0208 pw.x -npool 4 -i  Done                     04/16/2018 10:56:39
00020 suncat0208 pw.x -npool 4 -i  Done                     04/16/2018 10:56:39
00021 suncat0208 pw.x -npool 4 -i  Done                     04/16/2018 10:56:39
00022 suncat0208 pw.x -npool 4 -i  Done                     04/16/2018 10:56:39
00023 suncat0208 pw.x -npool 4 -i  Done                     04/16/2018 10:56:39
00024 suncat0203 pw.x -npool 4 -i  Done                     04/16/2018 10:56:39
00025 suncat0203 pw.x -npool 4 -i  Done                     04/16/2018 10:56:39
00026 suncat0203 pw.x -npool 4 -i  Done                     04/16/2018 10:56:39
00027 suncat0203 pw.x -npool 4 -i  Done                     04/16/2018 10:56:39
00028 suncat0203 pw.x -npool 4 -i  Done                     04/16/2018 10:56:39
00029 suncat0203 pw.x -npool 4 -i  Done                     04/16/2018 10:56:39
00030 suncat0203 pw.x -npool 4 -i  Done                     04/16/2018 10:56:39
00031 suncat0203 pw.x -npool 4 -i  Done                     04/16/2018 10:56:39