     Program PWSCF v.5.1rc2 (svn rev. 11289) starts on  2May2018 at 14:55: 8

     Current dimensions of program PWSCF are:
     Max number of different atomic species (ntypx) = 10
     Max number of k-points (npk) =  40000
     Max angular momentum in pseudopotentials (lmaxx) =  3
     Presently stress not available with electric field

     IMPORTANT: XC functional enforced from input :
     Exchange-correlation      = BEEF-VDW ( 1  4 27 13 2)
     Any further DFT definition will be discarded
     Please, verify this is what you really want

     Subspace diagonalization in iterative solution of the eigenvalue problem:
     a serial algorithm will be used

     bravais-lattice index     =            0
     lattice parameter (alat)  =       1.8897  a.u.
     unit-cell volume          =    6116.8020 (a.u.)^3
     number of atoms/cell      =           13
     number of atomic types    =            2
     number of electrons       =       137.00
     number of Kohn-Sham states=           78
     kinetic-energy cutoff     =      36.7493  Ry
     charge density cutoff     =     367.4932  Ry
     convergence threshold     =      1.0E-05
     mixing beta               =       0.3000
     number of iterations used =           10  plain     mixing
     Exchange-correlation      = BEEF-VDW ( 1  4 27 13 2)
     nstep                     =           50

     celldm(1)=   1.889726  celldm(2)=   0.000000  celldm(3)=   0.000000
     celldm(4)=   0.000000  celldm(5)=   0.000000  celldm(6)=   0.000000

     crystal axes: (cart. coord. in units of alat)
               a(1) = (   6.437465   0.000000   0.000000 )
               a(2) = (   3.218732   5.575008   0.000000 )
               a(3) = (   0.000000   0.000000  25.256168 )

     reciprocal axes: (cart. coord. in units 2 pi/alat)
               b(1) = (  0.155341 -0.089686  0.000000 )
               b(2) = (  0.000000  0.179372  0.000000 )
               b(3) = (  0.000000  0.000000  0.039594 )

     PseudoPot. # 1 for Sc read from file:
     /u/if/mamunm/psp/gbrv1.5pbe/Sc.UPF
     MD5 check sum: db30a2753ba66ef00f23801d899b7e7f
     Pseudo is Ultrasoft + core correction, Zval = 11.0
     Generated by new atomic code, or converted to UPF format
     Using radial grid of  849 points,  6 beta functions with:
                l(1) =   0
                l(2) =   0
                l(3) =   1
                l(4) =   1
                l(5) =   2
                l(6) =   2
     Q(r) pseudized with  6 coefficients,  rinner =    1.200   1.200   1.200
                                                       1.200   1.200

     PseudoPot. # 2 for N  read from file:
     /u/if/mamunm/psp/gbrv1.5pbe/N.UPF
     MD5 check sum: 95339753478d7afb44899504a8723017
     Pseudo is Ultrasoft + core correction, Zval =  5.0
     Generated by new atomic code, or converted to UPF format
     Using radial grid of  729 points,  4 beta functions with:
                l(1) =   0
                l(2) =   0
                l(3) =   1
                l(4) =   1
     Q(r) pseudized with  8 coefficients,  rinner =    0.900   0.900   0.900

     vdW kernel table read from file vdW_kernel_table
     MD5 check sum: 095c7af220d748ca6e76c0b4c6cfb241

     atomic species   valence    mass     pseudopotential
        Sc1           11.00    44.95591     Sc( 1.00)
        N1             5.00    14.00700     N ( 1.00)

     No symmetry found

   Cartesian axes

     site n.     atom                  positions (alat units)
         1           Sc1 tau(   1) = (   1.6093662   0.9291680  10.0000000  )
         2           Sc1 tau(   2) = (   4.8280986   0.9291680  10.0000000  )
         3           Sc1 tau(   3) = (   3.2187324   3.7166720  10.0000000  )
         4           Sc1 tau(   4) = (   6.4374648   3.7166720  10.0000000  )
         5           Sc1 tau(   5) = (   6.4374648   1.8583360  12.6280840  )
         6           Sc1 tau(   6) = (   3.2187324   1.8583360  12.6280840  )
         7           Sc1 tau(   7) = (   8.0468310   4.6458400  12.6280840  )
         8           Sc1 tau(   8) = (   4.8280986   4.6458400  12.6280840  )
         9           Sc1 tau(   9) = (   0.0000000   0.0000000  15.2561680  )
        10           Sc1 tau(  10) = (   3.2187324   0.0000000  15.2561680  )
        11           Sc1 tau(  11) = (   1.6093662   2.7875040  15.2561680  )
        12           Sc1 tau(  12) = (   4.8280986   2.7875040  15.2561680  )
        13           N1  tau(  13) = (   0.0000000   0.0000000  17.3046680  )

     number of k points=    20  Fermi-Dirac smearing, width (Ry)=  0.0110
                       cart. coord. in units 2pi/alat
        k(    1) = (   0.0000000   0.0000000   0.0000000), wk =   0.0555556
        k(    2) = (   0.0000000   0.0298953   0.0000000), wk =   0.1111111
        k(    3) = (   0.0000000   0.0597906   0.0000000), wk =   0.1111111
        k(    4) = (   0.0000000  -0.0896860   0.0000000), wk =   0.0555556
        k(    5) = (   0.0258901  -0.0149477   0.0000000), wk =   0.1111111
        k(    6) = (   0.0258901   0.0149477   0.0000000), wk =   0.1111111
        k(    7) = (   0.0258901   0.0448430   0.0000000), wk =   0.1111111
        k(    8) = (   0.0258901  -0.1046336   0.0000000), wk =   0.1111111
        k(    9) = (   0.0258901  -0.0747383   0.0000000), wk =   0.1111111
        k(   10) = (   0.0258901  -0.0448430   0.0000000), wk =   0.1111111
        k(   11) = (   0.0517802  -0.0298953   0.0000000), wk =   0.1111111
        k(   12) = (   0.0517802   0.0000000   0.0000000), wk =   0.1111111
        k(   13) = (   0.0517802   0.0298953   0.0000000), wk =   0.1111111
        k(   14) = (   0.0517802  -0.1195813   0.0000000), wk =   0.1111111
        k(   15) = (   0.0517802  -0.0896860   0.0000000), wk =   0.1111111
        k(   16) = (   0.0517802  -0.0597906   0.0000000), wk =   0.1111111
        k(   17) = (  -0.0776703   0.0448430   0.0000000), wk =   0.0555556
        k(   18) = (  -0.0776703   0.0747383   0.0000000), wk =   0.1111111
        k(   19) = (  -0.0776703   0.1046336   0.0000000), wk =   0.1111111
        k(   20) = (  -0.0776703  -0.0448430   0.0000000), wk =   0.0555556

     Largest allocated arrays     est. size (Mb)     dimensions
     Largest temporary arrays     est. size (Mb)     dimensions

     Initial potential from superposition of free atoms
     Check: negative starting charge=   -0.000277

     starting charge  136.97116, renormalised to  137.00000

     negative rho (up, down):  2.774E-04 0.000E+00

     *
     * You are using vdW-DF for exchange-correlation in this calculation.
     * Please cite the following three references that made this development
     * possible:
     *
     *   M. Dion, H. Rydberg, E. Schroder, D. C. Langreth, and
     *   B. I. Lundqvist, Phys. Rev. Lett. 92, 246401 (2004).
     *
     *   T. Thonhauser, V. R. Cooper, S. Li, A. Puzder, P. Hyldgaard, and
     *   D. C. Langreth, Phys. Rev. B 76, 125112 (2007).
     *
     *   G. Roman-Perez and J. M. Soler, Phys. Rev. Lett. 103, 096102 (2009).
     *
     *
     * If you are using vdW-DF2, please also cite:
     *
     *   K. Lee, E. D. Murray, L. Kong, B. I. Lundqvist, and
     *   D. C. Langreth, Phys. Rev. B 82, 081101(R) (2010).
     *
     *
     * If you are calculating the stress with vdW-DF, please also cite:
     *
     *   R. Sabatini, E. Kucukbenli, B. Kolb, T. Thonhauser, and
     *   S. de Gironcoli, J. Phys.: Condens. Matter 24, 424209 (2012).
     *

     Carrying out vdW-DF run using the following parameters:

     Nqs =      20    Nr_points =    1024   r_max =   100.000
     q_mesh =
               0.00001000     0.04494208     0.09755937     0.15916263
               0.23128650     0.31572767     0.41458969     0.53033537
               0.66584808     0.82450364     1.01025438     1.22772762
               1.48234092     1.78043706     2.12944203     2.53805004
               3.01644009     3.57652955     4.23227104     5.00000000

     Gradients computed in reciprocal space

     Adding external electric field

     Computed dipole along edir(3) :
        Dipole               -0.0092 Ry au,         -0.0234 Debye
        Dipole field         -0.0000 Ry au

        Potential amp.        0.0018 Ry
        Total length         46.5341 bohr

     Starting wfc are  160 randomized atomic wfcs

     Self-consistent Calculation

     iteration #  1     ecut=    36.75 Ry     beta=0.30
     Davidson diagonalization with overlap
     ethr =  1.00E-02,  avg # of iterations =  2.0

[...]

     total energy              =   -1154.62396559 Ry
     Harris-Foulkes estimate   =   -1158.39012000 Ry
     estimated scf accuracy    <       8.10092986 Ry

[...]

     iteration # 13     ecut=    36.75 Ry     beta=0.30
     Davidson diagonalization with overlap
     c_bands:  2 eigenvalues not converged
     c_bands:  2 eigenvalues not converged
     ethr =  3.71E-06,  avg # of iterations = 10.1

[...]

     End of self-consistent calculation

          k = 0.0000 0.0000 0.0000 ( 23031 PWs)   bands (ev):

   -50.2548 -50.2206 -50.2201 -50.1606 -50.1167 -50.1164 -50.1098 -49.7214
   -49.6813 -49.6810 -49.6555 -48.9451 -28.9649 -28.9368 -28.9214 -28.9209
   -28.8795 -28.8793 -28.8723 -28.8684 -28.8683 -28.8377 -28.7842 -28.7839
   -28.7750 -28.7120 -28.6352 -28.6349 -28.6159 -28.6122 -28.6120 -28.5347
   -28.5347 -28.4716 -28.4351 -28.4349 -28.2922 -28.2668 -28.2666 -28.2467
   -28.2049 -28.2047 -28.2014 -28.1215 -28.1215 -27.6656 -27.6656 -27.3834
   -11.3979  -4.9242  -3.7824  -2.4795  -1.7132  -1.7002  -1.7001  -1.5907
    -1.5676  -1.5676  -1.3307  -1.2506  -1.2506  -0.9642  -0.9642  -0.8293
    -0.7455  -0.7455  -0.5371  -0.4340  -0.3119  -0.3119  -0.1126   0.3058
     0.4113   0.4170   0.4171   0.5996   0.8850   0.8852

[...]

          k =-0.0777 0.0448 0.0000 ( 23032 PWs)   bands (ev):

[...]

     the Fermi energy is    -0.2070 ev

!    total energy              =   -1157.81233350 Ry
     Harris-Foulkes estimate   =   -1157.81235704 Ry
     estimated scf accuracy    <       0.00000188 Ry

     The total energy is the sum of the following terms:

     one-electron contribution =   -7290.41913077 Ry
     hartree contribution      =    3627.00674546 Ry
     xc contribution           =    -171.70792180 Ry
     ewald contribution        =    2677.44044888 Ry
     electric field correction =       0.00121449 Ry
     smearing contrib. (-TS)   =      -0.13368976 Ry

     convergence has been achieved in  20 iterations

 BEEF-vdW xc energy contributions
           1 :   -145.497137446368
           2 :    127.951738494968
           3 :   -100.642984537272
           4 :    74.1269056529653
           5 :   -55.7630901342381
           6 :    46.8091251908121
           7 :   -43.7454665710637
           8 :    41.9647293174638
           9 :   -38.8910704382628
          10 :    34.7317899851574
          11 :   -31.0984527021463
          12 :    29.0784224001229
          13 :   -28.3181451215542
          14 :    27.5747396435408
          15 :   -25.9651278244272
          16 :    23.7051444466395
          17 :   -21.7561339708091
          18 :    20.8387817690586
          19 :   -20.7833074615475
          20 :    20.7555237503060
          21 :   -20.0512061980448
          22 :    18.6898172798582
          23 :   -17.3119189890544
          24 :    16.5456886633738
          25 :   -16.4537086728943
          26 :    16.5364490647627
          27 :   -16.2308189486792
          28 :    15.4101258498333
          29 :   -14.4450382059633
          30 :    13.8170159605386
          31 :   -17.1901460268182
          32 :   -12.2909232351519

     Forces acting on atoms (Ry/au):

     negative rho (up, down):  4.798E-04 0.000E+00
     atom    1 type  1   force =    -0.00066979   -0.00040938    0.00226261
     atom    2 type  1   force =     0.00067107   -0.00039088    0.00225246
     atom    3 type  1   force =     0.00001522    0.00078622    0.00225775
     atom    4 type  1   force =    -0.00001511    0.00001196    0.00240809
     atom    5 type  1   force =    -0.00005041    0.00613895   -0.00013601
     atom    6 type  1   force =     0.00005456    0.00001968    0.00778103
     atom    7 type  1   force =    -0.00530139   -0.00304897   -0.00016478
     atom    8 type  1   force =     0.00529591   -0.00310722   -0.00012421
     atom    9 type  1   force =     0.00001186   -0.00002215    0.06736302
     atom   10 type  1   force =    -0.00000840    0.00036045    0.01390817
     atom   11 type  1   force =     0.00033155   -0.00017448    0.01393332
     atom   12 type  1   force =    -0.00033637   -0.00016435    0.01395195
     atom   13 type  2   force =     0.00000130    0.00000015   -0.12569338

     Total force =     0.144635     Total SCF correction =     0.003171

     entering subroutine stress ...

     negative rho (up, down):  4.798E-04 0.000E+00
          total   stress  (Ry/bohr**3)                   (kbar)     P=   -2.80
   0.00002271   0.00000000  -0.00000000          3.34      0.00     -0.00
   0.00000000   0.00002271   0.00000000          0.00      3.34      0.00
  -0.00000000   0.00000000  -0.00010244         -0.00      0.00    -15.07

     BFGS Geometry Optimization

     number of scf cycles    =   1
     number of bfgs steps    =   0

     energy   new            =   -1157.8123335023 Ry

     new trust radius        =       0.1256933807 bohr
     new conv_thr            =       0.0000099958 Ry

ATOMIC_POSITIONS (crystal)
Sc1      0.166666667   0.166666667   0.395942884    0   0   0
Sc1      0.666666667   0.166666667   0.395942884    0   0   0
Sc1      0.166666667   0.666666667   0.395942884    0   0   0
Sc1      0.666666667   0.666666667   0.395942884    0   0   0
Sc1      0.833333333   0.333333333   0.500000000    0   0   0
Sc1      0.333333333   0.333333333   0.500000000    0   0   0
Sc1      0.833333333   0.833333333   0.500000000    0   0   0
Sc1      0.333333333   0.833333333   0.500000000    0   0   0
Sc1      0.000002026  -0.000002102   0.605468532
Sc1      0.499982202   0.000034214   0.604348525
Sc1      0.000035535   0.499983438   0.604349052
Sc1      0.499980149   0.499984400   0.604349442
N1       0.000000099   0.000000014   0.682532438

     Writing output data file calc.save
     Check: negative starting charge=   -0.000277
     NEW-OLD atomic charge density approx. for the potential
     Check: negative starting charge=   -0.000277

[...]

     energy   old            =   -1157.8123335023 Ry
     energy   new            =   -1157.8304834181 Ry

     CASE: energy  _new < energy  _old

[...]

     WARNING: bfgs curvature condition failed, Theta= 0.871
     new trust radius        =       0.0735595519 bohr
     new conv_thr            =       0.0000001000 Ry

[...]

     Total force =     0.037175     Total SCF correction =     0.000457

[...]

     iteration #  1     ecut=    36.75 Ry     beta=0.30
     Davidson diagonalization with overlap
     c_bands:  1 eigenvalues not converged
     c_bands:  1 eigenvalues not converged
     ethr =  1.00E-06,  avg # of iterations = 15.2

[...]

     Total force =     0.009528     Total SCF correction =     0.001412
     SCF correction compared to forces is large: reduce conv_thr to get better values

[...]

     number of scf cycles    =   9
     number of bfgs steps    =   8

     energy   old            =   -1157.8658834927 Ry
     energy   new            =   -1157.8712137500 Ry

     CASE: energy  _new < energy  _old

     new trust radius        =       0.0749745270 bohr
     new conv_thr            =       0.0000001000 Ry

ATOMIC_POSITIONS (crystal)
Sc1      0.166666667   0.166666667   0.395942884    0   0   0
Sc1      0.666666667   0.166666667   0.395942884    0   0   0
Sc1      0.166666667   0.666666667   0.395942884    0   0   0
Sc1      0.666666667   0.666666667   0.395942884    0   0   0
Sc1      0.833333333   0.333333333   0.500000000    0   0   0
Sc1      0.333333333   0.333333333   0.500000000    0   0   0
Sc1      0.833333333   0.833333333   0.500000000    0   0   0
Sc1      0.333333333   0.833333333   0.500000000    0   0   0
Sc1      0.000001834   0.000008273   0.591164973
Sc1      0.500550249  -0.001112339   0.610535731
Sc1     -0.001109483   0.500551976   0.610537380
Sc1      0.500553423   0.500559631   0.610544340
N1       0.000008913  -0.000011485   0.663124567

     Writing output data file calc.save
     Check: negative starting charge=   -0.000285
     NEW-OLD atomic charge density approx. for the potential
     Check: negative starting charge=   -0.000287

[...]

     Self-consistent Calculation

[...]

     total energy              =   -1157.87148556 Ry
     Harris-Foulkes estimate   =   -1157.87148617 Ry
     estimated scf accuracy    <       0.00000798 Ry

     iteration # 15     ecut=    36.75 Ry     beta=0.30
     Davidson diagonalization with overlap
     ethr =  2.79E-10,  avg # of iterations =  6.3

[...]

     negative rho (up, down):  4.733E-04 0.000E+00

     Adding external electric field

     Computed dipole along edir(3) :
        Dipole               -0.3168 Ry au,         -0.8053 Debye
        Dipole field         -0.0007 Ry au

        Potential amp.        0.0606 Ry
        Total length         46.5341 bohr

     End of self-consistent calculation

[...]

          k = 0.0518-0.0598 0.0000 ( 23012 PWs)   bands (ev):

[...]

          k =-0.0777-0.0448 0.0000 ( 23032 PWs)   bands (ev):

   -49.9664 -49.9555 -49.9441 -49.6852 -49.6833 -49.6622 -49.6598 -49.3457
   -49.2818 -49.2685 -49.2586 -47.9403 -28.6619 -28.6487 -28.6356 -28.5941
   -28.5395 -28.5072 -28.4915 -28.4267 -28.3598 -28.3595 -28.3554 -28.3524
   -28.3274 -28.3248 -28.3200 -28.2570 -28.2542 -28.2303 -28.2278 -28.1238
   -28.1212 -28.0051 -27.9989 -27.9312 -27.9263 -27.9017 -27.8764 -27.8711
   -27.8562 -27.8414 -27.8342 -27.7683 -27.7578 -26.6928 -26.6826 -26.6761
   -11.2337  -3.1875  -3.1380  -2.3484  -2.0336  -1.5257  -1.4769  -1.3315
    -1.2370  -0.9360  -0.7058  -0.6842  -0.6478  -0.5382   0.0071   0.0205
     0.0408   0.0802   0.1656   0.1990   0.2808   0.3286   0.3729   0.3875
     0.4688   0.5756   0.6292   0.7183   0.7695   0.7872

     the Fermi energy is     0.2376 ev

!    total energy              =   -1157.87148562 Ry
     Harris-Foulkes estimate   =   -1157.87148511 Ry
     estimated scf accuracy    <       0.00000007 Ry

     The total energy is the sum of the following terms:

     one-electron contribution =   -7332.59029084 Ry
     hartree contribution      =    3649.95976752 Ry
     xc contribution           =    -171.87980632 Ry
     ewald contribution        =    2696.76869909 Ry
     electric field correction =       0.00020623 Ry
     smearing contrib. (-TS)   =      -0.13006130 Ry

     convergence has been achieved in  15 iterations

 BEEF-vdW xc energy contributions
           1 :   -145.664738085653
           2 :    128.146349369052
           3 :   -100.861793424536
           4 :    74.3391361902901
           5 :   -55.9200386403660
           6 :    46.8631652767186
           7 :   -43.6832040478083
           8 :    41.8232106929503
           9 :   -38.7369749417115
          10 :    34.6208034565184
          11 :   -31.0431890492200
          12 :    29.0438294241047
          13 :   -28.2501715447844
          14 :    27.4465090085570
          15 :   -25.8006857872795
          16 :    23.5539825882128
          17 :   -21.6454435279078
          18 :    20.7536329144733
          19 :   -20.6872487204855
          20 :    20.6237595056471
          21 :   -19.8876012336714
          22 :    18.5182940008796
          23 :   -17.1506027855660
          24 :    16.3871489962602
          25 :   -16.2725474187934
          26 :    16.3186067993127
          27 :   -15.9948283690814
          28 :    15.1970172852460
          29 :   -14.2844481663302
          30 :    13.7024512419178
          31 :   -17.2006008694241
          32 :   -12.3061423540774

     Forces acting on atoms (Ry/au):

     negative rho (up, down):  4.733E-04 0.000E+00
     atom    1 type  1   force =     0.00028577    0.00016450    0.00398009
     atom    2 type  1   force =    -0.00028592    0.00016462    0.00398019
     atom    3 type  1   force =     0.00000025   -0.00032947    0.00398167
     atom    4 type  1   force =    -0.00000014    0.00000047    0.00622227
     atom    5 type  1   force =    -0.00000238    0.01900884   -0.01314632
     atom    6 type  1   force =     0.00000220   -0.00000727    0.02073703
     atom    7 type  1   force =    -0.01646659   -0.00949897   -0.01314738
     atom    8 type  1   force =     0.01646746   -0.00950237   -0.01314135
     atom    9 type  1   force =    -0.00001218   -0.00000964    0.00094450
     atom   10 type  1   force =     0.00000702   -0.00099611   -0.00012500
     atom   11 type  1   force =    -0.00085857    0.00050955   -0.00013171
     atom   12 type  1   force =     0.00085702    0.00050069   -0.00013916
     atom   13 type  2   force =     0.00000605   -0.00000484   -0.00001481

     Total force =     0.001980     Total SCF correction =     0.000336
     SCF correction compared to forces is large: reduce conv_thr to get better values

     entering subroutine stress ...

     negative rho (up, down):  4.733E-04 0.000E+00
          total   stress  (Ry/bohr**3)                   (kbar)     P=   -1.26
  -0.00000356   0.00000001   0.00000000         -0.52      0.00      0.00
   0.00000001  -0.00000357  -0.00000000          0.00     -0.52     -0.00
   0.00000000  -0.00000000  -0.00001864          0.00     -0.00     -2.74

     bfgs converged in  10 scf cycles and   9 bfgs steps
     (criteria: energy <  1.0E+00, force <  1.9E-03)

     End of BFGS Geometry Optimization

     Final energy   =   -1157.8714856153 Ry
Begin final coordinates

ATOMIC_POSITIONS (crystal)
Sc1      0.166666667   0.166666667   0.395942884    0   0   0
Sc1      0.666666667   0.166666667   0.395942884    0   0   0
Sc1      0.166666667   0.666666667   0.395942884    0   0   0
Sc1      0.666666667   0.666666667   0.395942884    0   0   0
Sc1      0.833333333   0.333333333   0.500000000    0   0   0
Sc1      0.333333333   0.333333333   0.500000000    0   0   0
Sc1      0.833333333   0.833333333   0.500000000    0   0   0
Sc1      0.333333333   0.833333333   0.500000000    0   0   0
Sc1      0.000001834   0.000008273   0.591164973
Sc1      0.500550249  -0.001112339   0.610535731
Sc1     -0.001109483   0.500551976   0.610537380
Sc1      0.500553423   0.500559631   0.610544340
N1       0.000008913  -0.000011485   0.663124567
End final coordinates

     Writing output data file calc.save

     General routines

     Parallel routines

   This run was terminated on:  16:30:58   2May2018

   JOB DONE.
Job  /afs/slac/g/suncat/bin/suncat-tsmpirun -x LD_LIBRARY_PATH -wdir /scratch/qe771700_iBojS pw.x -npool 4 -in pw.inp

TID   HOST_NAME   COMMAND_LINE            STATUS            TERMINATION_TIME
00000 suncat0034 pw.x -npool 4 -i  Done                     05/02/2018 16:30:58
00001 suncat0034 pw.x -npool 4 -i  Done                     05/02/2018 16:30:58
00002 suncat0034 pw.x -npool 4 -i  Done                     05/02/2018 16:30:58
00003 suncat0034 pw.x -npool 4 -i  Done                     05/02/2018 16:30:58
00004 suncat0034 pw.x -npool 4 -i  Done                     05/02/2018 16:30:58
00005 suncat0034 pw.x -npool 4 -i  Done                     05/02/2018 16:30:58
00006 suncat0034 pw.x -npool 4 -i  Done                     05/02/2018 16:30:58
00007 suncat0034 pw.x -npool 4 -i  Done                     05/02/2018 16:30:58
00008 suncat0022 pw.x -npool 4 -i  Done                     05/02/2018 16:30:58
00009 suncat0022 pw.x -npool 4 -i  Done                     05/02/2018 16:30:58
00010 suncat0022 pw.x -npool 4 -i  Done                     05/02/2018 16:30:58
00011 suncat0022 pw.x -npool 4 -i  Done                     05/02/2018 16:30:58
00012 suncat0022 pw.x -npool 4 -i  Done                     05/02/2018 16:30:58
00013 suncat0022 pw.x -npool 4 -i  Done                     05/02/2018 16:30:58
00014 suncat0022 pw.x -npool 4 -i  Done                     05/02/2018 16:30:58
00015 suncat0022 pw.x -npool 4 -i  Done                     05/02/2018 16:30:58
00016 suncat0251 pw.x -npool 4 -i  Done                     05/02/2018 16:30:58
00017 suncat0251 pw.x -npool 4 -i  Done                     05/02/2018 16:30:58
00018 suncat0251 pw.x -npool 4 -i  Done                     05/02/2018 16:30:58
00019 suncat0251 pw.x -npool 4 -i  Done                     05/02/2018 16:30:58
00020 suncat0251 pw.x -npool 4 -i  Done                     05/02/2018 16:30:58
00021 suncat0251 pw.x -npool 4 -i  Done                     05/02/2018 16:30:58
00022 suncat0251 pw.x -npool 4 -i  Done                     05/02/2018 16:30:58
00023 suncat0251 pw.x -npool 4 -i  Done                     05/02/2018 16:30:58
00024 suncat0211 pw.x -npool 4 -i  Done                     05/02/2018 16:30:58
00025 suncat0211 pw.x -npool 4 -i  Done                     05/02/2018 16:30:58
00026 suncat0211 pw.x -npool 4 -i  Done                     05/02/2018 16:30:58
00027 suncat0211 pw.x -npool 4 -i  Done                     05/02/2018 16:30:58
00028 suncat0211 pw.x -npool 4 -i  Done                     05/02/2018 16:30:58
00029 suncat0211 pw.x -npool 4 -i  Done                     05/02/2018 16:30:58
00030 suncat0211 pw.x -npool 4 -i  Done                     05/02/2018 16:30:58
00031 suncat0211 pw.x -npool 4 -i  Done                     05/02/2018 16:30:58