     Program PWSCF v.5.1rc2 (svn rev. 11289) starts on 24Apr2018 at 22:18:47

     Current dimensions of program PWSCF are:
     Max number of different atomic species (ntypx) = 10
     Max number of k-points (npk) =  40000
     Max angular momentum in pseudopotentials (lmaxx) =  3
     Presently stress not available with electric field

     IMPORTANT: XC functional enforced from input :
     Exchange-correlation      = BEEF-VDW ( 1  4 27 13 2)
     Any further DFT definition will be discarded
     Please, verify this is what you really want

     Subspace diagonalization in iterative solution of the eigenvalue problem:
     a serial algorithm will be used

     bravais-lattice index     =            0
     lattice parameter (alat)  =       1.8897  a.u.
     unit-cell volume          =    7725.1200 (a.u.)^3
     number of atoms/cell      =           14
     number of atomic types    =            3
     number of electrons       =       138.00
     number of Kohn-Sham states=           79
     kinetic-energy cutoff     =      36.7493  Ry
     charge density cutoff     =     367.4932  Ry
     convergence threshold     =      1.0E-05
     mixing beta               =       0.3000
     number of iterations used =           10  plain     mixing
     Exchange-correlation      = BEEF-VDW ( 1  4 27 13 2)
     nstep                     =           50

     celldm(1)=   1.889726  celldm(2)=   0.000000  celldm(3)=   0.000000
     celldm(4)=   0.000000  celldm(5)=   0.000000  celldm(6)=   0.000000

     crystal axes: (cart. coord. in units of alat)
               a(1) = (   7.152277   0.000000   0.000000 )
               a(2) = (   3.576139   6.194054   0.000000 )
               a(3) = (   0.000000   0.000000  25.839810 )

     reciprocal axes: (cart. coord. in units 2 pi/alat)
               b(1) = (  0.139816 -0.080723  0.000000 )
               b(2) = (  0.000000  0.161445  0.000000 )
               b(3) = (  0.000000  0.000000  0.038700 )

     PseudoPot. # 1 for Y  read from file:
     /u/if/mamunm/psp/gbrv1.5pbe/Y.UPF
     MD5 check sum: d034151ed7554c50b6e82763ed42c788
     Pseudo is Ultrasoft + core correction, Zval = 11.0
     Generated by new atomic code, or converted to UPF format
     Using radial grid of  885 points,  6 beta functions with:
                l(1) =   0
                l(2) =   0
                l(3) =   1
                l(4) =   1
                l(5) =   2
                l(6) =   2
     Q(r) pseudized with  8 coefficients,  rinner =    1.200   1.200   1.200
                                                       1.200   1.200

     PseudoPot. # 2 for N  read from file:
     /u/if/mamunm/psp/gbrv1.5pbe/N.UPF
     MD5 check sum: 95339753478d7afb44899504a8723017
     Pseudo is Ultrasoft + core correction, Zval =  5.0
     Generated by new atomic code, or converted to UPF format
     Using radial grid of  729 points,  4 beta functions with:
                l(1) =   0
                l(2) =   0
                l(3) =   1
                l(4) =   1
     Q(r) pseudized with  8 coefficients,  rinner =    0.900   0.900   0.900

     PseudoPot. # 3 for H  read from file:
     /u/if/mamunm/psp/gbrv1.5pbe/H.UPF
     MD5 check sum: 761ae9a214b05c3daf00ab9f6b793d6f
     Pseudo is Ultrasoft, Zval =  1.0
     Generated by new atomic code, or converted to UPF format
     Using radial grid of  615 points,  2 beta functions with:
                l(1) =   0
                l(2) =   0
     Q(r) pseudized with  8 coefficients,  rinner =    0.700

     vdW kernel table read from file vdW_kernel_table
     MD5 check sum: 095c7af220d748ca6e76c0b4c6cfb241

     atomic species   valence    mass     pseudopotential
        Y1            11.00    88.90584     Y ( 1.00)
        N1             5.00    14.00700     N ( 1.00)
        H1             1.00     1.00800     H ( 1.00)

     No symmetry found

   Cartesian axes

     site n.     atom                  positions (alat units)
         1           Y1  tau(   1) = (   1.7880693   1.0323423  10.0000000  )
         2           Y1  tau(   2) = (   5.3642080   1.0323423  10.0000000  )
         3           Y1  tau(   3) = (   3.5761386   4.1293692  10.0000000  )
         4           Y1  tau(   4) = (   7.1522773   4.1293692  10.0000000  )
         5           Y1  tau(   5) = (   7.1522773   2.0646846  12.9199050  )
         6           Y1  tau(   6) = (   3.5761386   2.0646846  12.9199050  )
         7           Y1  tau(   7) = (   8.9403466   5.1617115  12.9199050  )
         8           Y1  tau(   8) = (   5.3642080   5.1617115  12.9199050  )
         9           Y1  tau(   9) = (   0.0000000   0.0000000  15.8398100  )
        10           Y1  tau(  10) = (   3.5761386   0.0000000  15.8398100  )
        11           Y1  tau(  11) = (   1.7880693   3.0970269  15.8398100  )
        12           Y1  tau(  12) = (   5.3642080   3.0970269  15.8398100  )
        13           N1  tau(  13) = (   3.5761386   2.0646846  17.5363100  )
        14           H1  tau(  14) = (   3.5761386   2.0646846  18.5863100  )

     number of k points=    20  Fermi-Dirac smearing, width (Ry)=  0.0110
                       cart. coord. in units 2pi/alat
        k(    1) = (   0.0000000   0.0000000   0.0000000), wk =   0.0555556
        k(    2) = (   0.0000000   0.0269075   0.0000000), wk =   0.1111111
        k(    3) = (   0.0000000   0.0538151   0.0000000), wk =   0.1111111
        k(    4) = (   0.0000000  -0.0807226   0.0000000), wk =   0.0555556
        k(    5) = (   0.0233026  -0.0134538   0.0000000), wk =   0.1111111
        k(    6) = (   0.0233026   0.0134538   0.0000000), wk =   0.1111111
        k(    7) = (   0.0233026   0.0403613   0.0000000), wk =   0.1111111
        k(    8) = (   0.0233026  -0.0941763   0.0000000), wk =   0.1111111
        k(    9) = (   0.0233026  -0.0672688   0.0000000), wk =   0.1111111
        k(   10) = (   0.0233026  -0.0403613   0.0000000), wk =   0.1111111
        k(   11) = (   0.0466052  -0.0269075   0.0000000), wk =   0.1111111
        k(   12) = (   0.0466052   0.0000000   0.0000000), wk =   0.1111111
        k(   13) = (   0.0466052   0.0269075   0.0000000), wk =   0.1111111
        k(   14) = (   0.0466052  -0.1076301   0.0000000), wk =   0.1111111
        k(   15) = (   0.0466052  -0.0807226   0.0000000), wk =   0.1111111
        k(   16) = (   0.0466052  -0.0538151   0.0000000), wk =   0.1111111
        k(   17) = (  -0.0699078   0.0403613   0.0000000), wk =   0.0555556
        k(   18) = (  -0.0699078   0.0672688   0.0000000), wk =   0.1111111
        k(   19) = (  -0.0699078   0.0941763   0.0000000), wk =   0.1111111
        k(   20) = (  -0.0699078  -0.0403613   0.0000000), wk =   0.0555556

     Largest allocated arrays     est. size (Mb)     dimensions
     Largest temporary arrays     est. size (Mb)     dimensions

     Initial potential from superposition of free atoms
     Check: negative starting charge=   -0.000531

     starting charge  137.94635, renormalised to  138.00000

     negative rho (up, down):  5.309E-04 0.000E+00

     *
     * You are using vdW-DF for exchange-correlation in this calculation.
     * Please cite the following three references that made this development
     * possible:
     *
     *   M. Dion, H. Rydberg, E. Schroder, D. C. Langreth, and
     *   B. I. Lundqvist, Phys. Rev. Lett. 92, 246401 (2004).
     *
     *   T. Thonhauser, V. R. Cooper, S. Li, A. Puzder, P. Hyldgaard, and
     *   D. C. Langreth, Phys. Rev. B 76, 125112 (2007).
     *
     *   G. Roman-Perez and J. M. Soler, Phys. Rev. Lett. 103, 096102 (2009).
     *
     *
     * If you are using vdW-DF2, please also cite:
     *
     *   K. Lee, E. D. Murray, L. Kong, B. I. Lundqvist, and
     *   D. C. Langreth, Phys. Rev. B 82, 081101(R) (2010).
     *
     *
     * If you are calculating the stress with vdW-DF, please also cite:
     *
     *   R. Sabatini, E. Kucukbenli, B. Kolb, T. Thonhauser, and
     *   S. de Gironcoli, J. Phys.: Condens. Matter 24, 424209 (2012).
     *

     Carrying out vdW-DF run using the following parameters:

     Nqs =      20    Nr_points =    1024   r_max =   100.000
     q_mesh =
               0.00001000     0.04494208     0.09755937     0.15916263
               0.23128650     0.31572767     0.41458969     0.53033537
               0.66584808     0.82450364     1.01025438     1.22772762
               1.48234092     1.78043706     2.12944203     2.53805004
               3.01644009     3.57652955     4.23227104     5.00000000

     Gradients computed in reciprocal space

     Adding external electric field

     Computed dipole along edir(3) :
        Dipole               -0.0210 Ry au,         -0.0533 Debye
        Dipole field         -0.0000 Ry au

        Potential amp.        0.0032 Ry
        Total length         47.6094 bohr

     Starting wfc are  161 randomized atomic wfcs

     Self-consistent Calculation

     iteration #  1     ecut=    36.75 Ry     beta=0.30
     Davidson diagonalization with overlap
     ethr =  1.00E-02,  avg # of iterations =  2.0

[...]

     total energy              =   -1143.92144973 Ry
     Harris-Foulkes estimate   =   -1146.51608323 Ry
     estimated scf accuracy    <       5.63933312 Ry

[...]

     End of self-consistent calculation

          k = 0.0000 0.0000 0.0000 ( 28997 PWs)   bands (ev):

   -42.4415 -42.3247 -42.2849 -42.2801 -42.2796 -42.2213 -42.1910 -42.1907
   -41.7729 -41.7357 -41.7354 -41.7071 -22.5079 -22.4557 -22.4556 -22.4280
   -22.4278 -22.4276 -22.3623 -22.3439 -22.2898 -22.2851 -22.2847 -22.1968
   -22.1818 -22.1816 -22.1056 -22.1054 -22.1042 -22.0873 -22.0872 -22.0362
   -22.0059 -22.0058 -21.9235 -21.9234 -21.8899 -21.8744 -21.8743 -21.6843
   -21.6631 -21.6628 -21.6295 -21.5983 -21.5825 -21.5823 -21.4898 -21.4898
   -12.8521  -4.0784  -3.1620  -2.1776  -1.2150  -0.9793  -0.9792  -0.5858
    -0.4946  -0.4946  -0.4098  -0.4098  -0.3958   0.0633   0.0633   0.0735
     0.3435   0.3701   0.3701   0.8414   0.8703   0.8703   1.2090   1.5813
     1.6315   1.7148   1.7148   1.7532   2.0058   2.0059   2.2248

[...]

          k =-0.0699 0.0404 0.0000 ( 29048 PWs)   bands (ev):

[...]

     the Fermi energy is     1.0223 ev

!    total energy              =   -1145.89302834 Ry
     Harris-Foulkes estimate   =   -1145.89302802 Ry
     estimated scf accuracy    <       0.00000334 Ry

     The total energy is the sum of the following terms:

     one-electron contribution =   -5559.00963409 Ry
     hartree contribution      =    2774.11081196 Ry
     xc contribution           =    -345.07957928 Ry
     ewald contribution        =    1984.20745299 Ry
     electric field correction =       0.00000403 Ry
     smearing contrib. (-TS)   =      -0.12208395 Ry

     convergence has been achieved in  14 iterations

 BEEF-vdW xc energy contributions
           1 :   -300.849755343961
           2 :    270.033094160683
           3 :   -217.044100583205
           4 :    154.966142230390
           5 :   -95.9115379087363
           6 :    47.4401780171593
           7 :   -12.0676106537576
           8 :   -10.9325589910333
           9 :    23.2617940406060
          10 :   -26.3623247875544
          11 :    21.5510980997328
          12 :   -10.8450133762391
          13 :   -2.54497193094232
          14 :    14.6708541855003
          15 :   -22.0971566560003
          16 :    23.1575613317266
          17 :   -18.4181319774353
          18 :    10.0975264816863
          19 :  -0.890190226372624
          20 :   -7.05892982096384
          21 :    12.5445738391953
          22 :   -15.1244392515965
          23 :    14.7898894067824
          24 :   -11.8345021594779
          25 :    6.94342257406601
          26 :   -1.26608742875601
          27 :   -3.76964361988638
          28 :    6.91547515677269
          29 :   -7.59517975281221
          30 :    6.11309111817741
          31 :   -28.9137471479424
          32 :   -19.7599078305978

     Forces acting on atoms (Ry/au):

     negative rho (up, down):  5.171E-04 0.000E+00
     atom    1 type  1   force =    -0.00010335   -0.00009546    0.00524758
     atom    2 type  1   force =     0.00009905   -0.00010855    0.00534764
     atom    3 type  1   force =    -0.00002686    0.00016321    0.00532694
     atom    4 type  1   force =     0.00002191    0.00004592    0.00500112
     atom    5 type  1   force =    -0.00016643   -0.00252414    0.00081409
     atom    6 type  1   force =     0.00019990   -0.00002528   -0.01193858
     atom    7 type  1   force =     0.00214694    0.00135482    0.00073347
     atom    8 type  1   force =    -0.00218590    0.00117403    0.00086889
     atom    9 type  1   force =    -0.00001640   -0.00002407   -0.01112442
     atom   10 type  1   force =     0.00002855    0.04553806    0.04049060
     atom   11 type  1   force =     0.03948889   -0.02274204    0.04061322
     atom   12 type  1   force =    -0.03948992   -0.02276004    0.04050766
     atom   13 type  2   force =     0.00000246    0.00000201   -0.08340819
     atom   14 type  3   force =     0.00000115    0.00000151   -0.03848000

     Total force =     0.140424     Total SCF correction =     0.000837

     entering subroutine stress ...

     negative rho (up, down):  5.171E-04 0.000E+00
          total   stress  (Ry/bohr**3)                   (kbar)     P=   -7.36
  -0.00003279  -0.00000000   0.00000000         -4.82     -0.00      0.00
  -0.00000000  -0.00003280  -0.00000000         -0.00     -4.82     -0.00
   0.00000000  -0.00000000  -0.00008458          0.00     -0.00    -12.44

     BFGS Geometry Optimization

     number of scf cycles    =   1
     number of bfgs steps    =   0

     energy   new            =   -1145.8930283393 Ry

     new trust radius        =       0.0834081926 bohr
     new conv_thr            =       0.0000099958 Ry

ATOMIC_POSITIONS (crystal)
Y1       0.166666667   0.166666667   0.386999750    0   0   0
Y1       0.666666667   0.166666667   0.386999750    0   0   0
Y1       0.166666667   0.666666667   0.386999750    0   0   0
Y1       0.666666667   0.666666667   0.386999750    0   0   0
Y1       0.833333333   0.333333333   0.500000000    0   0   0
Y1       0.333333333   0.333333333   0.500000000    0   0   0
Y1       0.833333333   0.833333333   0.500000000    0   0   0
Y1       0.333333333   0.833333333   0.500000000    0   0   0
Y1      -0.000000185  -0.000002056   0.612772431
Y1       0.498056883   0.003890458   0.613829463
Y1       0.003893135   0.498057077   0.613831974
Y1       0.498050480   0.498055539   0.613829812
N1       0.333333429   0.333333505   0.676946629
H1       0.333333354   0.333333463   0.718501694

     Writing output data file calc.save
     Check: negative starting charge=   -0.000531
     NEW-OLD atomic charge density approx. for the potential
     Check: negative starting charge=   -0.000530

[...]

     iteration #  1     ecut=    36.75 Ry     beta=0.30
     Davidson diagonalization with overlap
     c_bands:  1 eigenvalues not converged
     ethr =  1.00E-06,  avg # of iterations = 14.3

[...]

     energy   old            =   -1145.8930283393 Ry
     energy   new            =   -1145.9112839909 Ry

     CASE: energy  _new < energy  _old

     WARNING: bfgs curvature condition failed, Theta= 0.947
     new trust radius        =       0.1251122888 bohr
     new conv_thr            =       0.0000001000 Ry

[...]

     iteration #  9     ecut=    36.75 Ry     beta=0.30
     Davidson diagonalization with overlap
     c_bands:  1 eigenvalues not converged
     ethr =  8.79E-08,  avg # of iterations =  8.3

[...]

     Threshold (ethr) on eigenvalues was too large:
     Diagonalizing with lowered threshold

     Davidson diagonalization with overlap
     ethr =  6.97E-08,  avg # of iterations =  3.2

[...]

     Total force =     0.004871     Total SCF correction =     0.000594
     SCF correction compared to forces is large: reduce conv_thr to get better values

[...]

     Total force =     0.004731     Total SCF correction =     0.000360

[...]

     number of scf cycles    =  22
     number of bfgs steps    =  21

     energy   old            =   -1145.9907843204 Ry
     energy   new            =   -1145.9908427642 Ry

     CASE: energy  _new < energy  _old

     new trust radius        =       0.0116827931 bohr
     new conv_thr            =       0.0000001000 Ry

ATOMIC_POSITIONS (crystal)
Y1       0.166666667   0.166666667   0.386999750    0   0   0
Y1       0.666666667   0.166666667   0.386999750    0   0   0
Y1       0.166666667   0.666666667   0.386999750    0   0   0
Y1       0.666666667   0.666666667   0.386999750    0   0   0
Y1       0.833333333   0.333333333   0.500000000    0   0   0
Y1       0.333333333   0.333333333   0.500000000    0   0   0
Y1       0.833333333   0.833333333   0.500000000    0   0   0
Y1       0.333333333   0.833333333   0.500000000    0   0   0
Y1       0.000000945   0.000005814   0.605368515
Y1       0.497513591   0.004970742   0.616235461
Y1       0.004936909   0.497523002   0.616231895
Y1       0.497535270   0.497520757   0.616233170
N1       0.333351598   0.333313257   0.655942943
H1       0.333337769   0.333331795   0.695921809

     Writing output data file calc.save
     Check: negative starting charge=   -0.000575
     NEW-OLD atomic charge density approx. for the potential
     Check: negative starting charge=   -0.000575

[...]

     Self-consistent Calculation

[...]

     Threshold (ethr) on eigenvalues was too large:
     Diagonalizing with lowered threshold

     Davidson diagonalization with overlap
     ethr =  6.10E-08,  avg # of iterations =  3.1

[...]

     total energy              =   -1145.99085589 Ry
     Harris-Foulkes estimate   =   -1145.99085597 Ry
     estimated scf accuracy    <       0.00000023 Ry

     iteration # 10     ecut=    36.75 Ry     beta=0.30
     Davidson diagonalization with overlap
     ethr =  1.54E-10,  avg # of iterations =  4.8

[...]

     negative rho (up, down):  4.624E-04 0.000E+00

     Adding external electric field

     Computed dipole along edir(3) :
        Dipole                0.1376 Ry au,          0.3496 Debye
        Dipole field          0.0002 Ry au

        Potential amp.       -0.0213 Ry
        Total length         47.6094 bohr

     End of self-consistent calculation

[...]

          k = 0.0466-0.0538 0.0000 ( 29098 PWs)   bands (ev):

[...]

          k =-0.0699-0.0404 0.0000 ( 29048 PWs)   bands (ev):

   -42.1444 -42.1288 -42.1137 -42.1073 -42.0293 -41.9624 -41.9469 -41.9374
   -41.6318 -41.5807 -41.5684 -41.5596 -22.1878 -22.1774 -22.1660 -22.1494
   -22.1233 -22.1159 -22.1145 -22.1073 -22.0695 -22.0584 -22.0527 -22.0249
   -22.0192 -22.0169 -21.9910 -21.9676 -21.9550 -21.9386 -21.8919 -21.8811
   -21.8766 -21.8409 -21.7745 -21.7098 -21.6752 -21.6350 -21.5708 -21.5526
   -21.5306 -21.5042 -21.5001 -21.4904 -21.4868 -21.4821 -21.3999 -21.3653
   -13.9801  -5.0985  -2.4099  -2.0673  -1.8453  -1.7106  -0.9661  -0.7595
    -0.1731  -0.1728   0.0074   0.1360   0.2501   0.2701   0.8882   0.8910
     0.9479   0.9862   1.0389   1.0921   1.1882   1.2027   1.2837   1.3248
     1.3784   1.4817   1.5551   1.6235   1.7089   1.7461   1.7520

     the Fermi energy is     1.1884 ev

!    total energy              =   -1145.99085584 Ry
     Harris-Foulkes estimate   =   -1145.99085574 Ry
     estimated scf accuracy    <       0.00000008 Ry

     The total energy is the sum of the following terms:

     one-electron contribution =   -5638.00157183 Ry
     hartree contribution      =    2814.20419914 Ry
     xc contribution           =    -345.35903769 Ry
     ewald contribution        =    2023.29091519 Ry
     electric field correction =       0.00003078 Ry
     smearing contrib. (-TS)   =      -0.12539144 Ry

     convergence has been achieved in  10 iterations

 BEEF-vdW xc energy contributions
           1 :   -301.134197661103
           2 :    270.399009143754
           3 :   -217.478057338739
           4 :    155.369940285936
           5 :   -96.1755931768658
           6 :    47.5052374539066
           7 :   -11.9451226950758
           8 :   -11.1782159314195
           9 :    23.5432711164005
          10 :   -26.5967655854225
          11 :    21.6868980552109
          12 :   -10.8820551050612
          13 :   -2.55922199295418
          14 :    14.6747509868244
          15 :   -22.0573458509541
          16 :    23.0872463212242
          17 :   -18.3556160933872
          18 :    10.0673901971234
          19 :  -0.884966463699755
          20 :   -7.06554717399820
          21 :    12.5720795231294
          22 :   -15.1704105151252
          23 :    14.8340404335621
          24 :   -11.8564910280452
          25 :    6.94151414818106
          26 :   -1.26263756594727
          27 :   -3.74342406927894
          28 :    6.84596886446576
          29 :   -7.50006263459312
          30 :    6.02860640059220
          31 :   -28.9316959382738
          32 :   -19.7942193796812

     Forces acting on atoms (Ry/au):

     negative rho (up, down):  4.624E-04 0.000E+00
     atom    1 type  1   force =     0.00124380    0.00071706    0.00560700
     atom    2 type  1   force =    -0.00124372    0.00071757    0.00560661
     atom    3 type  1   force =     0.00000034   -0.00143565    0.00560766
     atom    4 type  1   force =    -0.00000035    0.00000043    0.00644907
     atom    5 type  1   force =     0.00000048   -0.00039277   -0.00299410
     atom    6 type  1   force =    -0.00000200    0.00000346   -0.01372334
     atom    7 type  1   force =     0.00033988    0.00019559   -0.00299084
     atom    8 type  1   force =    -0.00033896    0.00019572   -0.00299242
     atom    9 type  1   force =    -0.00000567   -0.00000653   -0.00013185
     atom   10 type  1   force =     0.00000174    0.00019151   -0.00005450
     atom   11 type  1   force =     0.00025305   -0.00012618   -0.00002147
     atom   12 type  1   force =    -0.00022921   -0.00011512   -0.00003270
     atom   13 type  2   force =    -0.00001833    0.00005175   -0.00054668
     atom   14 type  3   force =    -0.00000106    0.00000316    0.00021758

     Total force =     0.000744     Total SCF correction =     0.000198
     SCF correction compared to forces is large: reduce conv_thr to get better values

     entering subroutine stress ...

     negative rho (up, down):  4.624E-04 0.000E+00
          total   stress  (Ry/bohr**3)                   (kbar)     P=   -0.76
   0.00000175   0.00000000  -0.00000000          0.26      0.00     -0.00
   0.00000000   0.00000177   0.00000001          0.00      0.26      0.00
  -0.00000000   0.00000001  -0.00001906         -0.00      0.00     -2.80

     bfgs converged in  23 scf cycles and  22 bfgs steps
     (criteria: energy <  1.0E+00, force <  1.9E-03)

     End of BFGS Geometry Optimization

     Final energy   =   -1145.9908558394 Ry
Begin final coordinates

ATOMIC_POSITIONS (crystal)
Y1       0.166666667   0.166666667   0.386999750    0   0   0
Y1       0.666666667   0.166666667   0.386999750    0   0   0
Y1       0.166666667   0.666666667   0.386999750    0   0   0
Y1       0.666666667   0.666666667   0.386999750    0   0   0
Y1       0.833333333   0.333333333   0.500000000    0   0   0
Y1       0.333333333   0.333333333   0.500000000    0   0   0
Y1       0.833333333   0.833333333   0.500000000    0   0   0
Y1       0.333333333   0.833333333   0.500000000    0   0   0
Y1       0.000000945   0.000005814   0.605368515
Y1       0.497513591   0.004970742   0.616235461
Y1       0.004936909   0.497523002   0.616231895
Y1       0.497535270   0.497520757   0.616233170
N1       0.333351598   0.333313257   0.655942943
H1       0.333337769   0.333331795   0.695921809
End final coordinates

     Writing output data file calc.save

     General routines

     Parallel routines

   This run was terminated on:   2:28: 0  25Apr2018

   JOB DONE.
Job  /afs/slac/g/suncat/bin/suncat-tsmpirun -x LD_LIBRARY_PATH -wdir /scratch/qe231314_tGoCE pw.x -npool 4 -in pw.inp

TID   HOST_NAME   COMMAND_LINE            STATUS            TERMINATION_TIME
00000 suncat0092 pw.x -npool 4 -i  Done                     04/25/2018 02:28:00
00001 suncat0092 pw.x -npool 4 -i  Done                     04/25/2018 02:28:00
00002 suncat0092 pw.x -npool 4 -i  Done                     04/25/2018 02:28:00
00003 suncat0092 pw.x -npool 4 -i  Done                     04/25/2018 02:28:00
00004 suncat0092 pw.x -npool 4 -i  Done                     04/25/2018 02:28:01
00005 suncat0092 pw.x -npool 4 -i  Done                     04/25/2018 02:28:00
00006 suncat0092 pw.x -npool 4 -i  Done                     04/25/2018 02:28:00
00007 suncat0092 pw.x -npool 4 -i  Done                     04/25/2018 02:28:01
00008 suncat0085 pw.x -npool 4 -i  Done                     04/25/2018 02:28:00
00009 suncat0085 pw.x -npool 4 -i  Done                     04/25/2018 02:28:00
00010 suncat0085 pw.x -npool 4 -i  Done                     04/25/2018 02:28:00
00011 suncat0085 pw.x -npool 4 -i  Done                     04/25/2018 02:28:00
00012 suncat0085 pw.x -npool 4 -i  Done                     04/25/2018 02:28:00
00013 suncat0085 pw.x -npool 4 -i  Done                     04/25/2018 02:28:00
00014 suncat0085 pw.x -npool 4 -i  Done                     04/25/2018 02:28:00
00015 suncat0085 pw.x -npool 4 -i  Done                     04/25/2018 02:28:00
00016 suncat0069 pw.x -npool 4 -i  Done                     04/25/2018 02:28:00
00017 suncat0069 pw.x -npool 4 -i  Done                     04/25/2018 02:28:00
00018 suncat0069 pw.x -npool 4 -i  Done                     04/25/2018 02:28:00
00019 suncat0069 pw.x -npool 4 -i  Done                     04/25/2018 02:28:01
00020 suncat0069 pw.x -npool 4 -i  Done                     04/25/2018 02:28:01
00021 suncat0069 pw.x -npool 4 -i  Done                     04/25/2018 02:28:00
00022 suncat0069 pw.x -npool 4 -i  Done                     04/25/2018 02:28:00
00023 suncat0069 pw.x -npool 4 -i  Done                     04/25/2018 02:28:00
00024 suncat0030 pw.x -npool 4 -i  Done                     04/25/2018 02:28:00
00025 suncat0030 pw.x -npool 4 -i  Done                     04/25/2018 02:28:01
00026 suncat0030 pw.x -npool 4 -i  Done                     04/25/2018 02:28:00
00027 suncat0030 pw.x -npool 4 -i  Done                     04/25/2018 02:28:01
00028 suncat0030 pw.x -npool 4 -i  Done                     04/25/2018 02:28:01
00029 suncat0030 pw.x -npool 4 -i  Done                     04/25/2018 02:28:01
00030 suncat0030 pw.x -npool 4 -i  Done                     04/25/2018 02:28:01
00031 suncat0030 pw.x -npool 4 -i  Done                     04/25/2018 02:28:00