     Program PWSCF v.5.1rc2 (svn rev. 11289) starts on 11Jan2019 at 16:47:50

     Current dimensions of program PWSCF are:
     Max number of different atomic species (ntypx) = 10
     Max number of k-points (npk) =  40000
     Max angular momentum in pseudopotentials (lmaxx) =  3

     IMPORTANT: XC functional enforced from input :
     Exchange-correlation      = BEEF-VDW ( 1  4 27 13 2)
     Any further DFT definition will be discarded
     Please, verify this is what you really want

     Subspace diagonalization in iterative solution of the eigenvalue problem:
     a serial algorithm will be used

     Generating pointlists ...
     new r_m :   0.1285 (alat units)  1.2167 (a.u.) for type    1
     new r_m :   0.1285 (alat units)  1.2167 (a.u.) for type    2

     bravais-lattice index     =            0
     lattice parameter (alat)  =       9.4723  a.u.
     unit-cell volume          =    3537.7769 (a.u.)^3
     number of atoms/cell      =           13
     number of atomic types    =            2
     number of electrons       =       209.00
     number of Kohn-Sham states=          114
     kinetic-energy cutoff     =      36.7493  Ry
     charge density cutoff     =     367.4933  Ry
     convergence threshold     =      1.0E-04
     mixing beta               =       0.1000
     number of iterations used =            8  plain     mixing
     Exchange-correlation      = BEEF-VDW ( 1  4 27 13 2)
     nstep                     =           50

     celldm(1)=   9.472344  celldm(2)=   0.000000  celldm(3)=   0.000000
     celldm(4)=   0.000000  celldm(5)=   0.000000  celldm(6)=   0.000000

     crystal axes: (cart. coord. in units of alat)
               a(1) = (   1.000000   0.000000   0.000000 )
               a(2) = (   0.500000   0.866025   0.000000 )
               a(3) = (   0.000000   0.000000   4.806483 )

     reciprocal axes: (cart. coord. in units 2 pi/alat)
               b(1) = (  1.000000 -0.577350  0.000000 )
               b(2) = (  0.000000  1.154701  0.000000 )
               b(3) = (  0.000000  0.000000  0.208052 )

     PseudoPot. # 1 for Co read from file:
     /u/if/jboes/code/decaf-espresso/gbrv15pbe/Co.UPF
     MD5 check sum: 5f91765df6ddd3222702df6e7b74a16d
     Pseudo is Ultrasoft + core correction, Zval = 17.0
     Generated by new atomic code, or converted to UPF format
     Using radial grid of  863 points,  6 beta functions with:
                l(1) =   0
                l(2) =   0
                l(3) =   1
                l(4) =   1
                l(5) =   2
                l(6) =   2
     Q(r) pseudized with  8 coefficients,  rinner =    1.200   1.200   1.200
                                                       1.200   1.200

     PseudoPot. # 2 for N  read from file:
     /u/if/jboes/code/decaf-espresso/gbrv15pbe/N.UPF
     MD5 check sum: 95339753478d7afb44899504a8723017
     Pseudo is Ultrasoft + core correction, Zval =  5.0
     Generated by new atomic code, or converted to UPF format
     Using radial grid of  729 points,  4 beta functions with:
                l(1) =   0
                l(2) =   0
                l(3) =   1
                l(4) =   1
     Q(r) pseudized with  8 coefficients,  rinner =    0.900   0.900   0.900

     vdW kernel table read from file vdW_kernel_table
     MD5 check sum: 095c7af220d748ca6e76c0b4c6cfb241

     atomic species   valence    mass     pseudopotential
        Co            17.00    58.93319     Co( 1.00)
        N              5.00    14.00700     N ( 1.00)

     Starting magnetic structure
     atomic species   magnetization
        Co           0.118
        N            0.000

     No symmetry found

   Cartesian axes

     site n.     atom                  positions (alat units)
         1           Co  tau(   1) = (   0.2500000   0.1443376   1.9949931  )
         2           Co  tau(   2) = (   0.7500000   0.1443376   1.9949931  )
         3           Co  tau(   3) = (   0.5000000   0.5773503   1.9949931  )
         4           Co  tau(   4) = (   1.0000000   0.5773503   1.9949931  )
         5           Co  tau(   5) = (   1.0000000   0.2886751   2.4032414  )
         6           Co  tau(   6) = (   0.5000000   0.2886751   2.4032414  )
         7           Co  tau(   7) = (   1.2500000   0.7216878   2.4032414  )
         8           Co  tau(   8) = (   0.7500000   0.7216878   2.4032414  )
         9           Co  tau(   9) = (   0.0000041  -0.0000008   2.8298693  )
        10           Co  tau(  10) = (   0.4999957  -0.0005221   2.7980455  )
        11           Co  tau(  11) = (   0.2495497   0.4332728   2.7980427  )
        12           Co  tau(  12) = (   0.7504505   0.4332779   2.7980487  )
        13           N   tau(  13) = (   0.0000065  -0.0000057   3.1412637  )

     number of k points=    40  Fermi-Dirac smearing, width (Ry)=  0.0110
                       cart. coord. in units 2pi/alat
        k(    1) = (   0.0000000   0.0000000   0.0000000), wk =   0.0277778
        k(    2) = (   0.0000000   0.1924501   0.0000000), wk =   0.0555556
        k(    3) = (   0.0000000   0.3849002   0.0000000), wk =   0.0555556
        k(    4) = (   0.0000000  -0.5773503   0.0000000), wk =   0.0277778
        k(    5) = (   0.1666667  -0.0962250   0.0000000), wk =   0.0555556
        k(    6) = (   0.1666667   0.0962250   0.0000000), wk =   0.0555556
        k(    7) = (   0.1666667   0.2886751   0.0000000), wk =   0.0555556
        k(    8) = (   0.1666667  -0.6735753   0.0000000), wk =   0.0555556
        k(    9) = (   0.1666667  -0.4811252   0.0000000), wk =   0.0555556
        k(   10) = (   0.1666667  -0.2886751   0.0000000), wk =   0.0555556
        k(   11) = (   0.3333333  -0.1924501   0.0000000), wk =   0.0555556
        k(   12) = (   0.3333333  -0.0000000   0.0000000), wk =   0.0555556
        k(   13) = (   0.3333333   0.1924501   0.0000000), wk =   0.0555556
        k(   14) = (   0.3333333  -0.7698004   0.0000000), wk =   0.0555556
        k(   15) = (   0.3333333  -0.5773503   0.0000000), wk =   0.0555556
        k(   16) = (   0.3333333  -0.3849002   0.0000000), wk =   0.0555556
        k(   17) = (  -0.5000000   0.2886751   0.0000000), wk =   0.0277778
        k(   18) = (  -0.5000000   0.4811252   0.0000000), wk =   0.0555556
        k(   19) = (  -0.5000000   0.6735753   0.0000000), wk =   0.0555556
        k(   20) = (  -0.5000000  -0.2886751   0.0000000), wk =   0.0277778
        k(   21) = (   0.0000000   0.0000000   0.0000000), wk =   0.0277778
        k(   22) = (   0.0000000   0.1924501   0.0000000), wk =   0.0555556
        k(   23) = (   0.0000000   0.3849002   0.0000000), wk =   0.0555556
        k(   24) = (   0.0000000  -0.5773503   0.0000000), wk =   0.0277778
        k(   25) = (   0.1666667  -0.0962250   0.0000000), wk =   0.0555556
        k(   26) = (   0.1666667   0.0962250   0.0000000), wk =   0.0555556
        k(   27) = (   0.1666667   0.2886751   0.0000000), wk =   0.0555556
        k(   28) = (   0.1666667  -0.6735753   0.0000000), wk =   0.0555556
        k(   29) = (   0.1666667  -0.4811252   0.0000000), wk =   0.0555556
        k(   30) = (   0.1666667  -0.2886751   0.0000000), wk =   0.0555556
        k(   31) = (   0.3333333  -0.1924501   0.0000000), wk =   0.0555556
        k(   32) = (   0.3333333  -0.0000000   0.0000000), wk =   0.0555556
        k(   33) = (   0.3333333   0.1924501   0.0000000), wk =   0.0555556
        k(   34) = (   0.3333333  -0.7698004   0.0000000), wk =   0.0555556
        k(   35) = (   0.3333333  -0.5773503   0.0000000), wk =   0.0555556
        k(   36) = (   0.3333333  -0.3849002   0.0000000), wk =   0.0555556
        k(   37) = (  -0.5000000   0.2886751   0.0000000), wk =   0.0277778
        k(   38) = (  -0.5000000   0.4811252   0.0000000), wk =   0.0555556
        k(   39) = (  -0.5000000   0.6735753   0.0000000), wk =   0.0555556
        k(   40) = (  -0.5000000  -0.2886751   0.0000000), wk =   0.0277778

     Largest allocated arrays     est. size (Mb)     dimensions
     Largest temporary arrays     est. size (Mb)     dimensions

     Check: negative/imaginary core charge=   -0.000007    0.000000

     Initial potential from superposition of free atoms
     Check: negative starting charge=(component1):   -0.000189
     Check: negative starting charge=(component2):   -0.000148

     starting charge  196.99991, renormalised to  209.00000

     negative rho (up, down):  2.003E-04 1.575E-04

     *
     * You are using vdW-DF for exchange-correlation in this calculation.
     * Please cite the following three references that made this development
     * possible:
     *
     *   M. Dion, H. Rydberg, E. Schroder, D. C. Langreth, and
     *   B. I. Lundqvist, Phys. Rev. Lett. 92, 246401 (2004).
     *
     *   T. Thonhauser, V. R. Cooper, S. Li, A. Puzder, P. Hyldgaard, and
     *   D. C. Langreth, Phys. Rev. B 76, 125112 (2007).
     *
     *   G. Roman-Perez and J. M. Soler, Phys. Rev. Lett. 103, 096102 (2009).
     *
     *
     * If you are using vdW-DF2, please also cite:
     *
     *   K. Lee, E. D. Murray, L. Kong, B. I. Lundqvist, and
     *   D. C. Langreth, Phys. Rev. B 82, 081101(R) (2010).
     *
     *
     * If you are calculating the stress with vdW-DF, please also cite:
     *
     *   R. Sabatini, E. Kucukbenli, B. Kolb, T. Thonhauser, and
     *   S. de Gironcoli, J. Phys.: Condens. Matter 24, 424209 (2012).
     *

     Carrying out vdW-DF run using the following parameters:

     Nqs =      20    Nr_points =    1024   r_max =   100.000
     q_mesh =
               0.00001000     0.04494208     0.09755937     0.15916263
               0.23128650     0.31572767     0.41458969     0.53033537
               0.66584808     0.82450364     1.01025438     1.22772762
               1.48234092     1.78043706     2.12944203     2.53805004
               3.01644009     3.57652955     4.23227104     5.00000000

     Gradients computed in reciprocal space

     Adding external electric field

     Computed dipole along edir(3) :
        Dipole               -2.1344 Ry au,         -5.4251 Debye
        Dipole field         -0.0076 Ry au

        Potential amp.        0.6213 Ry
        Total length         40.9758 bohr

[...]

     Starting wfc are  160 randomized atomic wfcs

     Self-consistent Calculation

     iteration #  1     ecut=    36.75 Ry     beta=0.10
     Davidson diagonalization with overlap
     ethr =  1.00E-02,  avg # of iterations =  7.4

[...]

     Magnetic moment per site:
     atom:    1    charge:   13.3699    magn:    1.5233    constr:    0.0000
     atom:    2    charge:   13.3700    magn:    1.5232    constr:    0.0000
     atom:    3    charge:   13.3700    magn:    1.5233    constr:    0.0000
     atom:    4    charge:   13.3691    magn:    1.5212    constr:    0.0000
     atom:    5    charge:   13.2478    magn:    1.5138    constr:    0.0000
     atom:    6    charge:   13.2520    magn:    1.5129    constr:    0.0000
     atom:    7    charge:   13.2478    magn:    1.5138    constr:    0.0000
     atom:    8    charge:   13.2478    magn:    1.5138    constr:    0.0000
     atom:    9    charge:   13.1183    magn:    1.4618    constr:    0.0000
     atom:   10    charge:   13.0709    magn:    1.4716    constr:    0.0000
     atom:   11    charge:   13.0709    magn:    1.4716    constr:    0.0000
     atom:   12    charge:   13.0709    magn:    1.4716    constr:    0.0000
     atom:   13    charge:    3.0632    magn:    0.0051    constr:    0.0000

     total energy              =   -3487.15278921 Ry
     Harris-Foulkes estimate   =   -3639.41402055 Ry
     estimated scf accuracy    <     841.40790135 Ry

     total magnetization       =    10.26 Bohr mag/cell
     absolute magnetization    =    10.83 Bohr mag/cell

[...]

     End of self-consistent calculation

 ------ SPIN UP ------------

          k = 0.0000 0.0000 0.0000 ( 13257 PWs)   bands (ev):

   -95.9567 -95.9183 -95.9006 -95.8995 -95.7980 -95.7757 -95.7726 -95.7404
   -95.7117 -95.7113 -95.7034 -95.5983 -59.5862 -59.3138 -59.3134 -59.2954
   -59.2359 -59.2118 -59.2115 -59.2032 -59.1282 -59.1280 -59.1188 -59.1122
   -59.1116 -59.1095 -59.0601 -59.0593 -59.0551 -59.0406 -59.0404 -59.0402
   -59.0313 -59.0303 -59.0247 -59.0076 -59.0069 -59.0056 -58.9946 -58.9414
   -58.9380 -58.8918 -58.8901 -58.8898 -58.8383 -58.8380 -58.5205 -58.5192
   -13.3729  -7.4794  -5.5519  -4.6663  -4.4613  -4.4604  -4.4141  -4.2337
    -4.1898  -4.1894  -3.9594  -3.9581  -3.9443  -3.6943  -3.6391  -3.6383
    -3.5209  -3.5183  -3.3663  -2.9897  -2.6324  -2.6318  -2.4444  -2.3645
    -2.2898  -2.2896  -2.2408  -2.2400  -2.1726  -2.1322  -2.0715  -2.0712
    -1.9256  -1.9249  -1.8973  -1.8968  -1.7558  -1.7545  -1.2904  -1.2585
    -1.2574  -1.2572  -1.2312  -1.2309  -1.0083  -1.0027  -1.0023  -0.7391
    -0.7384  -0.6565  -0.6558  -0.6267  -0.5706  -0.5700  -0.5360  -0.4041
    -0.4036  -0.4033  -0.2553  -0.1622  -0.1618  -0.1554  -0.0746  -0.0732
     0.1773   0.1837

[...]

          k =-0.5000 0.2887 0.0000 ( 13378 PWs)   bands (ev):

[...]

 ------ SPIN DOWN ----------

[...]

     the Fermi energy is     0.5837 ev

!    total energy              =   -3614.48405091 Ry
     Harris-Foulkes estimate   =   -3614.48402165 Ry
     estimated scf accuracy    <       0.00007237 Ry

     The total energy is the sum of the following terms:

     one-electron contribution =  -31864.24194397 Ry
     hartree contribution      =   15938.04273507 Ry
     xc contribution           =    -410.59465464 Ry
     ewald contribution        =   12722.38630430 Ry
     electric field correction =       0.00014751 Ry
     smearing contrib. (-TS)   =      -0.07663917 Ry

[...]

     convergence has been achieved in  45 iterations

     Forces acting on atoms (Ry/au):

     negative rho (up, down):  6.672E-04 4.112E-04
     atom    1 type  1   force =     0.00049943    0.00032786    0.00925532
     atom    2 type  1   force =    -0.00047521    0.00041987    0.00925935
     atom    3 type  1   force =     0.00008957   -0.00069148    0.00918548
     atom    4 type  1   force =    -0.00008967   -0.00020478    0.01085603
     atom    5 type  1   force =    -0.00009666   -0.00040793   -0.00870205
     atom    6 type  1   force =     0.00007931   -0.00038313   -0.01698404
     atom    7 type  1   force =     0.00007105    0.00041834   -0.00874635
     atom    8 type  1   force =    -0.00008580    0.00030615   -0.00864262
     atom    9 type  1   force =     0.00006920    0.00100355    0.01021064
     atom   10 type  1   force =    -0.00007636   -0.00087439   -0.00179436
     atom   11 type  1   force =    -0.00127065   -0.00000792   -0.00037570
     atom   12 type  1   force =     0.00128287    0.00009409   -0.00048805
     atom   13 type  2   force =     0.00000294   -0.00000022   -0.00303364

     Total force =     0.011050     Total SCF correction =     0.006459
     SCF correction compared to forces is large: reduce conv_thr to get better values

     BFGS Geometry Optimization

     number of scf cycles    =   1
     number of bfgs steps    =   0

     energy   new            =   -3614.4840509096 Ry

     new trust radius        =       0.0102600680 bohr
     new conv_thr            =       0.0001000000 Ry

ATOMIC_POSITIONS (angstrom)
Co       1.253137179   0.723499087  10.000000000    0   0   0
Co       3.759411536   0.723499087  10.000000000    0   0   0
Co       2.506274357   2.893996350  10.000000000    0   0   0
Co       5.012548715   2.893996350  10.000000000    0   0   0
Co       5.012548715   1.446998175  12.046364444    0   0   0
Co       2.506274357   1.446998175  12.046364444    0   0   0
Co       6.265685894   3.617495438  12.046364444    0   0   0
Co       3.759411536   3.617495438  12.046364444    0   0   0
Co       0.000057416   0.000527194  14.190260750
Co       2.506212416  -0.003079964  14.024389781
Co       1.250207474   2.171796823  14.025126311
Co       3.762348374   2.171876434  14.025097291
N        0.000033920  -0.000028724  15.744132172

     Writing output data file calc.save
     Check: negative starting charge=(component1):   -0.000337
     NEW-OLD atomic charge density approx. for the potential

     Check: negative/imaginary core charge=   -0.000007    0.000000
     Check: negative starting charge=(component1):   -0.000337

[...]

     energy   old            =   -3614.4840509096 Ry
     energy   new            =   -3614.4841575199 Ry

     CASE: energy  _new < energy  _old

[...]

     WARNING: bfgs curvature condition failed, Theta= 0.770
     new trust radius        =       0.0034449459 bohr
     new conv_thr            =       0.0000010000 Ry

[...]

     Threshold (ethr) on eigenvalues was too large:
     Diagonalizing with lowered threshold

     Davidson diagonalization with overlap
     ethr =  1.74E-08,  avg # of iterations =  2.0

[...]

     number of scf cycles    =  15
     number of bfgs steps    =  14

     energy   old            =   -3614.4846698815 Ry
     energy   new            =   -3614.4846702887 Ry

     CASE: energy  _new < energy  _old

     new trust radius        =       0.0039033456 bohr
     new conv_thr            =       0.0000010000 Ry

ATOMIC_POSITIONS (angstrom)
Co       1.253137179   0.723499087  10.000000000    0   0   0
Co       3.759411536   0.723499087  10.000000000    0   0   0
Co       2.506274357   2.893996350  10.000000000    0   0   0
Co       5.012548715   2.893996350  10.000000000    0   0   0
Co       5.012548715   1.446998175  12.046364444    0   0   0
Co       2.506274358   1.446998175  12.046364444    0   0   0
Co       6.265685894   3.617495437  12.046364444    0   0   0
Co       3.759411536   3.617495437  12.046364444    0   0   0
Co       0.000462223   0.003379346  14.265441616
Co       2.506644751  -0.001090597  14.018435438
Co       1.250616222   2.175514883  14.019129505
Co       3.762673231   2.175500811  14.019152899
N       -0.000671273  -0.005945101  15.817945954

     Writing output data file calc.save
     Check: negative starting charge=(component1):   -0.000330
     NEW-OLD atomic charge density approx. for the potential

     Check: negative/imaginary core charge=   -0.000007    0.000000
     Check: negative starting charge=(component1):   -0.000330

[...]

     Self-consistent Calculation

[...]

     total energy              =   -3614.48468525 Ry
     Harris-Foulkes estimate   =   -3614.48468530 Ry
     estimated scf accuracy    <       0.00000160 Ry

[...]

     iteration # 11     ecut=    36.75 Ry     beta=0.10
     Davidson diagonalization with overlap
     ethr =  7.66E-10,  avg # of iterations =  1.5

     negative rho (up, down):  6.719E-04 4.161E-04

[...]

     Adding external electric field

     Computed dipole along edir(3) :
        Dipole               -0.2170 Ry au,         -0.5517 Debye
        Dipole field         -0.0008 Ry au

        Potential amp.        0.0632 Ry
        Total length         40.9758 bohr

     Magnetic moment per site:
     atom:    1    charge:   12.8957    magn:    1.5503    constr:    0.0000
     atom:    2    charge:   12.8957    magn:    1.5504    constr:    0.0000
     atom:    3    charge:   12.8958    magn:    1.5505    constr:    0.0000
     atom:    4    charge:   12.8955    magn:    1.5436    constr:    0.0000
     atom:    5    charge:   12.8834    magn:    1.5366    constr:    0.0000
     atom:    6    charge:   12.8841    magn:    1.5695    constr:    0.0000
     atom:    7    charge:   12.8834    magn:    1.5370    constr:    0.0000
     atom:    8    charge:   12.8834    magn:    1.5369    constr:    0.0000
     atom:    9    charge:   12.7744    magn:    0.1855    constr:    0.0000
     atom:   10    charge:   12.9014    magn:    1.5709    constr:    0.0000
     atom:   11    charge:   12.9012    magn:    1.5708    constr:    0.0000
     atom:   12    charge:   12.9012    magn:    1.5707    constr:    0.0000
     atom:   13    charge:    2.9775    magn:   -0.0775    constr:    0.0000

     End of self-consistent calculation

 ------ SPIN UP ------------

[...]

 ------ SPIN DOWN ----------

[...]

          k = 0.3333-0.3849 0.0000 ( 13313 PWs)   bands (ev):

[...]

          k =-0.5000-0.2887 0.0000 ( 13378 PWs)   bands (ev):

   -95.2854 -93.5177 -93.5125 -93.4995 -93.4846 -93.3457 -93.3372 -93.3291
   -93.3163 -93.3161 -93.2993 -93.2992 -59.4814 -58.1348 -58.1310 -56.9513
   -56.9509 -56.9130 -56.9058 -56.8882 -56.8798 -56.8750 -56.8676 -56.8586
   -56.8500 -56.7751 -56.7723 -56.7716 -56.7457 -56.7351 -56.7116 -56.7024
   -56.6965 -56.6906 -56.6820 -56.6803 -56.6660 -56.6637 -56.6535 -56.6474
   -56.6465 -56.6175 -56.6140 -56.6125 -56.6108 -56.6096 -56.5910 -56.5884
   -13.5038  -5.7066  -5.6437  -4.0071  -3.8642  -3.8187  -3.7158  -3.6367
    -3.0285  -2.9660  -2.5859  -2.5521  -2.5128  -2.4312  -1.9758  -1.9339
    -1.9205  -1.8108  -1.6787  -1.5223  -1.4501  -1.3869  -1.3054  -1.2986
    -1.2255  -1.1879  -1.0564  -0.9053  -0.8492  -0.7469  -0.7160  -0.6895
    -0.6673  -0.6505  -0.4502  -0.4269  -0.3437  -0.2598  -0.2248  -0.1860
    -0.0914  -0.0302   0.2753   0.3612   0.3949   0.4291   0.5058   0.5558
     0.5971   0.6485   0.7579   0.7805   0.7908   0.8524   0.8773   0.9888
     1.0463   1.1118   1.1733   1.2803   1.2847   1.4851   1.5842   1.5869
     1.6263   1.6430

     the Fermi energy is     0.5802 ev

!    total energy              =   -3614.48468502 Ry
     Harris-Foulkes estimate   =   -3614.48468006 Ry
     estimated scf accuracy    <       0.00000046 Ry

     The total energy is the sum of the following terms:

     one-electron contribution =  -31769.39942598 Ry
     hartree contribution      =   15890.57205997 Ry
     xc contribution           =    -410.57576549 Ry
     ewald contribution        =   12674.99440551 Ry
     electric field correction =       0.00016732 Ry
     smearing contrib. (-TS)   =      -0.07612635 Ry

     total magnetization       =    18.56 Bohr mag/cell
     absolute magnetization    =    21.36 Bohr mag/cell

     convergence has been achieved in  11 iterations

     Forces acting on atoms (Ry/au):

     negative rho (up, down):  6.719E-04 4.161E-04
     atom    1 type  1   force =     0.00062304    0.00038750    0.00980176
     atom    2 type  1   force =    -0.00061563    0.00039048    0.00979811
     atom    3 type  1   force =     0.00000629   -0.00071924    0.00978573
     atom    4 type  1   force =     0.00000342    0.00000925    0.01236228
     atom    5 type  1   force =     0.00001893   -0.00143640   -0.00762518
     atom    6 type  1   force =     0.00001322    0.00009308   -0.01776968
     atom    7 type  1   force =     0.00144623    0.00093596   -0.00777831
     atom    8 type  1   force =    -0.00140595    0.00093392   -0.00780434
     atom    9 type  1   force =    -0.00004498    0.00040553   -0.00119070
     atom   10 type  1   force =     0.00000525   -0.00056983    0.00021959
     atom   11 type  1   force =    -0.00085630   -0.00012030    0.00007358
     atom   12 type  1   force =     0.00082772   -0.00013689    0.00007028
     atom   13 type  2   force =    -0.00002124   -0.00017305    0.00005686

     Total force =     0.001858     Total SCF correction =     0.003716
     SCF correction compared to forces is large: reduce conv_thr to get better values

     bfgs converged in  16 scf cycles and  15 bfgs steps
     (criteria: energy <  1.0E+12, force <  1.9E-03)

     End of BFGS Geometry Optimization

     Final energy   =   -3614.4846850162 Ry
Begin final coordinates

ATOMIC_POSITIONS (angstrom)
Co       1.253137179   0.723499087  10.000000000    0   0   0
Co       3.759411536   0.723499087  10.000000000    0   0   0
Co       2.506274357   2.893996350  10.000000000    0   0   0
Co       5.012548715   2.893996350  10.000000000    0   0   0
Co       5.012548715   1.446998175  12.046364444    0   0   0
Co       2.506274358   1.446998175  12.046364444    0   0   0
Co       6.265685894   3.617495437  12.046364444    0   0   0
Co       3.759411536   3.617495437  12.046364444    0   0   0
Co       0.000462223   0.003379346  14.265441616
Co       2.506644751  -0.001090597  14.018435438
Co       1.250616222   2.175514883  14.019129505
Co       3.762673231   2.175500811  14.019152899
N       -0.000671273  -0.005945101  15.817945954
End final coordinates

     Writing output data file calc.save

     General routines

     Parallel routines

   This run was terminated on:  18:47:13  11Jan2019

   JOB DONE.
Job  /afs/slac/g/suncat/bin/suncat-tsmpirun -x LD_LIBRARY_PATH -wdir /tmp/qe_6730581dbpt6q9_scratch pw.x -npool 4 -in pw.pwi

TID   HOST_NAME   COMMAND_LINE            STATUS            TERMINATION_TIME
00000 suncat0266 pw.x -npool 4 -i  Done                     01/11/2019 18:47:13
00001 suncat0266 pw.x -npool 4 -i  Done                     01/11/2019 18:47:13
00002 suncat0266 pw.x -npool 4 -i  Done                     01/11/2019 18:47:13
00003 suncat0266 pw.x -npool 4 -i  Done                     01/11/2019 18:47:13
00004 suncat0266 pw.x -npool 4 -i  Done                     01/11/2019 18:47:13
00005 suncat0266 pw.x -npool 4 -i  Done                     01/11/2019 18:47:13
00006 suncat0266 pw.x -npool 4 -i  Done                     01/11/2019 18:47:13
00007 suncat0266 pw.x -npool 4 -i  Done                     01/11/2019 18:47:13
00008 suncat0259 pw.x -npool 4 -i  Done                     01/11/2019 18:47:13
00009 suncat0259 pw.x -npool 4 -i  Done                     01/11/2019 18:47:13
00010 suncat0259 pw.x -npool 4 -i  Done                     01/11/2019 18:47:13
00011 suncat0259 pw.x -npool 4 -i  Done                     01/11/2019 18:47:13
00012 suncat0259 pw.x -npool 4 -i  Done                     01/11/2019 18:47:13
00013 suncat0259 pw.x -npool 4 -i  Done                     01/11/2019 18:47:13
00014 suncat0259 pw.x -npool 4 -i  Done                     01/11/2019 18:47:13
00015 suncat0259 pw.x -npool 4 -i  Done                     01/11/2019 18:47:13
00016 suncat0214 pw.x -npool 4 -i  Done                     01/11/2019 18:47:13
00017 suncat0214 pw.x -npool 4 -i  Done                     01/11/2019 18:47:13
00018 suncat0214 pw.x -npool 4 -i  Done                     01/11/2019 18:47:13
00019 suncat0214 pw.x -npool 4 -i  Done                     01/11/2019 18:47:13
00020 suncat0214 pw.x -npool 4 -i  Done                     01/11/2019 18:47:13
00021 suncat0214 pw.x -npool 4 -i  Done                     01/11/2019 18:47:13
00022 suncat0214 pw.x -npool 4 -i  Done                     01/11/2019 18:47:13
00023 suncat0214 pw.x -npool 4 -i  Done                     01/11/2019 18:47:13
00024 suncat0210 pw.x -npool 4 -i  Done                     01/11/2019 18:47:13
00025 suncat0210 pw.x -npool 4 -i  Done                     01/11/2019 18:47:13
00026 suncat0210 pw.x -npool 4 -i  Done                     01/11/2019 18:47:13
00027 suncat0210 pw.x -npool 4 -i  Done                     01/11/2019 18:47:13
00028 suncat0210 pw.x -npool 4 -i  Done                     01/11/2019 18:47:13
00029 suncat0210 pw.x -npool 4 -i  Done                     01/11/2019 18:47:13
00030 suncat0210 pw.x -npool 4 -i  Done                     01/11/2019 18:47:13
00031 suncat0210 pw.x -npool 4 -i  Done                     01/11/2019 18:47:13