     Program PWSCF v.5.1rc2 (svn rev. 11289) starts on 23Apr2018 at  9:40:25

     Current dimensions of program PWSCF are:
     Max number of different atomic species (ntypx) = 10
     Max number of k-points (npk) =  40000
     Max angular momentum in pseudopotentials (lmaxx) =  3
     Presently stress not available with electric field

     IMPORTANT: XC functional enforced from input :
     Exchange-correlation      = BEEF-VDW ( 1  4 27 13 2)
     Any further DFT definition will be discarded
     Please, verify this is what you really want

     Subspace diagonalization in iterative solution of the eigenvalue problem:
     a serial algorithm will be used

     bravais-lattice index     =            0
     lattice parameter (alat)  =       1.8897  a.u.
     unit-cell volume          =    5185.0501 (a.u.)^3
     number of atoms/cell      =           16
     number of atomic types    =            3
     number of electrons       =       163.00
     number of Kohn-Sham states=           91
     kinetic-energy cutoff     =      36.7493  Ry
     charge density cutoff     =     367.4932  Ry
     convergence threshold     =      1.0E-05
     mixing beta               =       0.3000
     number of iterations used =           10  plain     mixing
     Exchange-correlation      = BEEF-VDW ( 1  4 27 13 2)
     nstep                     =           50

     celldm(1)=   1.889726  celldm(2)=   0.000000  celldm(3)=   0.000000
     celldm(4)=   0.000000  celldm(5)=   0.000000  celldm(6)=   0.000000

     crystal axes: (cart. coord. in units of alat)
               a(1) = (   5.972022   0.000000   0.000000 )
               a(2) = (   2.986011   5.171923   0.000000 )
               a(3) = (   0.000000   0.000000  24.876136 )

     reciprocal axes: (cart. coord. in units 2 pi/alat)
               b(1) = (  0.167447 -0.096676  0.000000 )
               b(2) = (  0.000000  0.193352  0.000000 )
               b(3) = (  0.000000  0.000000  0.040199 )

     PseudoPot. # 1 for Ta read from file:
     /u/if/mamunm/psp/gbrv1.5pbe/Ta.UPF
     MD5 check sum: f8bbe9446314a3b8ea5d9f3e3836c939
     Pseudo is Ultrasoft + core correction, Zval = 13.0
     Generated by new atomic code, or converted to UPF format
     Using radial grid of  921 points,  7 beta functions with:
                l(1) =   0
                l(2) =   0
                l(3) =   1
                l(4) =   1
                l(5) =   2
                l(6) =   2
                l(7) =   3
     Q(r) pseudized with  6 coefficients,  rinner =    1.300   1.300   1.300
                                                       1.300   1.300   1.300
                                                       1.300

     PseudoPot. # 2 for C  read from file:
     /u/if/mamunm/psp/gbrv1.5pbe/C.UPF
     MD5 check sum: d1aef80898a10debaa0f26306b886e00
     Pseudo is Ultrasoft + core correction, Zval =  4.0
     Generated by new atomic code, or converted to UPF format
     Using radial grid of  721 points,  4 beta functions with:
                l(1) =   0
                l(2) =   0
                l(3) =   1
                l(4) =   1
     Q(r) pseudized with  8 coefficients,  rinner =    1.100   1.100   1.100

     PseudoPot. # 3 for H  read from file:
     /u/if/mamunm/psp/gbrv1.5pbe/H.UPF
     MD5 check sum: 761ae9a214b05c3daf00ab9f6b793d6f
     Pseudo is Ultrasoft, Zval =  1.0
     Generated by new atomic code, or converted to UPF format
     Using radial grid of  615 points,  2 beta functions with:
                l(1) =   0
                l(2) =   0
     Q(r) pseudized with  8 coefficients,  rinner =    0.700

     vdW kernel table read from file vdW_kernel_table
     MD5 check sum: 095c7af220d748ca6e76c0b4c6cfb241

     atomic species   valence    mass     pseudopotential
        Ta1           13.00   180.94788     Ta( 1.00)
        C1             4.00    12.01100     C ( 1.00)
        H1             1.00     1.00800     H ( 1.00)

     No symmetry found

   Cartesian axes

     site n.     atom                  positions (alat units)
         1           Ta1 tau(   1) = (   1.4930055   0.8619871  10.0000000  )
         2           Ta1 tau(   2) = (   4.4790165   0.8619871  10.0000000  )
         3           Ta1 tau(   3) = (   2.9860110   3.4479485  10.0000000  )
         4           Ta1 tau(   4) = (   5.9720221   3.4479485  10.0000000  )
         5           Ta1 tau(   5) = (   5.9720221   1.7239743  12.4380678  )
         6           Ta1 tau(   6) = (   2.9860110   1.7239743  12.4380678  )
         7           Ta1 tau(   7) = (   7.4650276   4.3099357  12.4380678  )
         8           Ta1 tau(   8) = (   4.4790165   4.3099357  12.4380678  )
         9           Ta1 tau(   9) = (   0.0000000   0.0000000  14.8761356  )
        10           Ta1 tau(  10) = (   2.9860110   0.0000000  14.8761356  )
        11           Ta1 tau(  11) = (   1.4930055   2.5859614  14.8761356  )
        12           Ta1 tau(  12) = (   4.4790165   2.5859614  14.8761356  )
        13           C1  tau(  13) = (   0.0000000   0.0000000  16.9671356  )
        14           H1  tau(  14) = (   1.0900000   0.0000000  17.5971356  )
        15           H1  tau(  15) = (   5.5220221   0.8895000  17.5971356  )
        16           H1  tau(  16) = (   2.5360110   4.2824228  17.5971356  )

     number of k points=    20  Fermi-Dirac smearing, width (Ry)=  0.0110
                       cart. coord. in units 2pi/alat
        k(    1) = (   0.0000000   0.0000000   0.0000000), wk =   0.0555556
        k(    2) = (   0.0000000   0.0322253   0.0000000), wk =   0.1111111
        k(    3) = (   0.0000000   0.0644506   0.0000000), wk =   0.1111111
        k(    4) = (   0.0000000  -0.0966758   0.0000000), wk =   0.0555556
        k(    5) = (   0.0279079  -0.0161126   0.0000000), wk =   0.1111111
        k(    6) = (   0.0279079   0.0161126   0.0000000), wk =   0.1111111
        k(    7) = (   0.0279079   0.0483379   0.0000000), wk =   0.1111111
        k(    8) = (   0.0279079  -0.1127885   0.0000000), wk =   0.1111111
        k(    9) = (   0.0279079  -0.0805632   0.0000000), wk =   0.1111111
        k(   10) = (   0.0279079  -0.0483379   0.0000000), wk =   0.1111111
        k(   11) = (   0.0558158  -0.0322253   0.0000000), wk =   0.1111111
        k(   12) = (   0.0558158   0.0000000   0.0000000), wk =   0.1111111
        k(   13) = (   0.0558158   0.0322253   0.0000000), wk =   0.1111111
        k(   14) = (   0.0558158  -0.1289011   0.0000000), wk =   0.1111111
        k(   15) = (   0.0558158  -0.0966758   0.0000000), wk =   0.1111111
        k(   16) = (   0.0558158  -0.0644506   0.0000000), wk =   0.1111111
        k(   17) = (  -0.0837237   0.0483379   0.0000000), wk =   0.0555556
        k(   18) = (  -0.0837237   0.0805632   0.0000000), wk =   0.1111111
        k(   19) = (  -0.0837237   0.1127885   0.0000000), wk =   0.1111111
        k(   20) = (  -0.0837237  -0.0483379   0.0000000), wk =   0.0555556

     Largest allocated arrays     est. size (Mb)     dimensions
     Largest temporary arrays     est. size (Mb)     dimensions

     Initial potential from superposition of free atoms
     Check: negative starting charge=   -1.121516

     starting charge  162.98659, renormalised to  163.00000

     negative rho (up, down):  1.122E+00 0.000E+00

     *
     * You are using vdW-DF for exchange-correlation in this calculation.
     * Please cite the following three references that made this development
     * possible:
     *
     *   M. Dion, H. Rydberg, E. Schroder, D. C. Langreth, and
     *   B. I. Lundqvist, Phys. Rev. Lett. 92, 246401 (2004).
     *
     *   T. Thonhauser, V. R. Cooper, S. Li, A. Puzder, P. Hyldgaard, and
     *   D. C. Langreth, Phys. Rev. B 76, 125112 (2007).
     *
     *   G. Roman-Perez and J. M. Soler, Phys. Rev. Lett. 103, 096102 (2009).
     *
     *
     * If you are using vdW-DF2, please also cite:
     *
     *   K. Lee, E. D. Murray, L. Kong, B. I. Lundqvist, and
     *   D. C. Langreth, Phys. Rev. B 82, 081101(R) (2010).
     *
     *
     * If you are calculating the stress with vdW-DF, please also cite:
     *
     *   R. Sabatini, E. Kucukbenli, B. Kolb, T. Thonhauser, and
     *   S. de Gironcoli, J. Phys.: Condens. Matter 24, 424209 (2012).
     *

     Carrying out vdW-DF run using the following parameters:

     Nqs =      20    Nr_points =    1024   r_max =   100.000
     q_mesh =
               0.00001000     0.04494208     0.09755937     0.15916263
               0.23128650     0.31572767     0.41458969     0.53033537
               0.66584808     0.82450364     1.01025438     1.22772762
               1.48234092     1.78043706     2.12944203     2.53805004
               3.01644009     3.57652955     4.23227104     5.00000000

     Gradients computed in reciprocal space

     Adding external electric field

     Computed dipole along edir(3) :
        Dipole               -0.0046 Ry au,         -0.0117 Debye
        Dipole field         -0.0000 Ry au

        Potential amp.        0.0010 Ry
        Total length         45.8339 bohr

     Starting wfc are  163 randomized atomic wfcs

     Self-consistent Calculation

     iteration #  1     ecut=    36.75 Ry     beta=0.30
     Davidson diagonalization with overlap
     ethr =  1.00E-02,  avg # of iterations =  2.0

[...]

     total energy              =   -1731.51648058 Ry
     Harris-Foulkes estimate   =   -1734.00406600 Ry
     estimated scf accuracy    <       5.43461052 Ry

[...]

     End of self-consistent calculation

          k = 0.0000 0.0000 0.0000 ( 19447 PWs)   bands (ev):

   -65.9917 -65.9699 -65.9459 -65.9433 -65.9134 -65.9133 -65.9089 -65.8718
   -65.8180 -65.7874 -65.7870 -65.7707 -32.6984 -32.6972 -32.6858 -32.6749
   -32.6441 -32.6431 -32.6145 -32.6018 -32.6012 -32.6001 -32.4211 -32.3323
   -32.3307 -32.2647 -32.2445 -32.2443 -32.1658 -32.1246 -32.0945 -32.0944
   -32.0591 -32.0328 -32.0327 -32.0319 -32.0071 -32.0066 -31.9448 -31.9381
   -31.9372 -31.9370 -31.8946 -31.8942 -31.8687 -31.8681 -31.7905 -31.7903
    -9.7259  -5.1247  -3.5526  -2.7354  -2.4671  -2.3681  -1.9469  -1.7067
    -1.6898  -1.6344  -1.5591  -1.5492  -1.1124  -0.8911  -0.8901  -0.7506
    -0.5843  -0.5789  -0.3815   0.5713   0.6869   0.7024   1.7250   1.8926
     1.9303   1.9354   2.1413   2.2601   2.3899   2.3944   2.7107   2.7108
     2.7159   2.9983   2.9987   3.0710   3.0727   3.0741   3.1101   3.1676
     3.1676   3.3114   3.4542

[...]

          k =-0.0837 0.0483 0.0000 ( 19532 PWs)   bands (ev):

[...]

     the Fermi energy is     2.3427 ev

!    total energy              =   -1733.44101497 Ry
     Harris-Foulkes estimate   =   -1733.44102296 Ry
     estimated scf accuracy    <       0.00000452 Ry

     The total energy is the sum of the following terms:

     one-electron contribution =  -11622.22522122 Ry
     hartree contribution      =    5797.64935187 Ry
     xc contribution           =    -528.68025997 Ry
     ewald contribution        =    4619.92320113 Ry
     electric field correction =       0.00005815 Ry
     smearing contrib. (-TS)   =      -0.10814491 Ry

     convergence has been achieved in  14 iterations

 BEEF-vdW xc energy contributions
           1 :   -465.218514760472
           2 :    429.207777396846
           3 :   -366.457307911707
           4 :    291.562177599255
           5 :   -219.038840147931
           6 :    158.928339956722
           7 :   -114.850890597048
           8 :    84.8349522218975
           9 :   -64.0302900871556
          10 :    47.7329216631885
          11 :   -33.3152309138878
          12 :    20.4752186254029
          13 :   -10.1851620155117
          14 :    3.28055004321982
          15 :   0.430686688972116
          16 :   -2.16105645223638
          17 :    3.43810081751008
          18 :   -5.25474432825706
          19 :    7.62020954068100
          20 :   -9.74292610473486
          21 :    10.6773660176980
          22 :   -10.0077387658966
          23 :    8.15247213085905
          24 :   -6.13081257759524
          25 :    4.96782152993632
          26 :   -5.12073331694836
          27 :    6.26903489554866
          28 :   -7.56633907540839
          29 :    8.16920999106441
          30 :   -7.71045279151002
          31 :   -41.7659089710667
          32 :   -30.9662428817733

     Forces acting on atoms (Ry/au):

     negative rho (up, down):  1.175E+00 0.000E+00
     atom    1 type  1   force =    -0.00043012   -0.00004741    0.00223304
     atom    2 type  1   force =     0.00029980   -0.00032046    0.00220939
     atom    3 type  1   force =     0.00010260    0.00042884    0.00217338
     atom    4 type  1   force =     0.00004963   -0.00003130    0.00116320
     atom    5 type  1   force =     0.00029080    0.00238349   -0.00594899
     atom    6 type  1   force =    -0.00004863   -0.00018423    0.00204178
     atom    7 type  1   force =    -0.00218769   -0.00113243   -0.00606563
     atom    8 type  1   force =     0.00219526   -0.00121178   -0.00607709
     atom    9 type  1   force =    -0.00047132    0.00023216    0.00779729
     atom   10 type  1   force =    -0.00042901    0.00073828   -0.02331465
     atom   11 type  1   force =     0.00080177    0.00136400   -0.02556190
     atom   12 type  1   force =     0.00009725   -0.00204452   -0.02581183
     atom   13 type  2   force =     0.04502448   -0.00017352    0.24844066
     atom   14 type  3   force =    -0.07893678   -0.00039125   -0.07017467
     atom   15 type  3   force =     0.01716197   -0.04421001   -0.05156598
     atom   16 type  3   force =     0.01647998    0.04460015   -0.05153797

     Total force =     0.294385     Total SCF correction =     0.001542

     entering subroutine stress ...

     negative rho (up, down):  1.175E+00 0.000E+00
          total   stress  (Ry/bohr**3)                   (kbar)     P=  -32.24
  -0.00031955  -0.00000034  -0.00001085        -47.01     -0.05     -1.60
  -0.00000034  -0.00031012  -0.00000007         -0.05    -45.62     -0.01
  -0.00001085  -0.00000007  -0.00002778         -1.60     -0.01     -4.09

     BFGS Geometry Optimization

     number of scf cycles    =   1
     number of bfgs steps    =   0

     energy   new            =   -1733.4410149656 Ry

     new trust radius        =       0.2524876115 bohr
     new conv_thr            =       0.0000099958 Ry

ATOMIC_POSITIONS (crystal)
Ta1      0.166666667   0.166666667   0.401991699    0   0   0
Ta1      0.666666667   0.166666667   0.401991699    0   0   0
Ta1      0.166666667   0.666666667   0.401991699    0   0   0
Ta1      0.666666667   0.666666667   0.401991699    0   0   0
Ta1      0.833333333   0.333333333   0.500000000    0   0   0
Ta1      0.333333333   0.333333333   0.500000000    0   0   0
Ta1      0.833333333   0.833333333   0.500000000    0   0   0
Ta1      0.333333333   0.833333333   0.500000000    0   0   0
Ta1     -0.000053640   0.000023754   0.598174169
Ta1      0.499924216   0.000075539   0.597512341
Ta1      0.000001264   0.500139561   0.597464536
Ta1      0.500113212   0.499790810   0.597459220
C1       0.003998468  -0.000017754   0.687349716
H1       0.175543222  -0.000040031   0.705897453
H1       0.842437911   0.167462876   0.706293306
H1       0.009820397   0.832577042   0.706293902

     Writing output data file calc.save
     Check: negative starting charge=   -1.121516
     NEW-OLD atomic charge density approx. for the potential
     Check: negative starting charge=   -1.121678

[...]

     energy   old            =   -1733.4410149656 Ry
     energy   new            =   -1733.4931597092 Ry

     CASE: energy  _new < energy  _old

[...]

     iteration #  1     ecut=    36.75 Ry     beta=0.30
     Davidson diagonalization with overlap
     c_bands:  1 eigenvalues not converged
     ethr =  1.00E-06,  avg # of iterations =  9.3

[...]

     number of scf cycles    =  17
     number of bfgs steps    =  16

     energy   old            =   -1733.5395813451 Ry
     energy   new            =   -1733.5397425065 Ry

     CASE: energy  _new < energy  _old

     new trust radius        =       0.0058010467 bohr
     new conv_thr            =       0.0000001000 Ry

ATOMIC_POSITIONS (crystal)
Ta1      0.166666667   0.166666667   0.401991699    0   0   0
Ta1      0.666666667   0.166666667   0.401991699    0   0   0
Ta1      0.166666667   0.666666667   0.401991699    0   0   0
Ta1      0.666666667   0.666666667   0.401991699    0   0   0
Ta1      0.833333333   0.333333333   0.500000000    0   0   0
Ta1      0.333333333   0.333333333   0.500000000    0   0   0
Ta1      0.833333333   0.833333333   0.500000000    0   0   0
Ta1      0.333333333   0.833333333   0.500000000    0   0   0
Ta1     -0.001248607  -0.000055312   0.615327228
Ta1      0.495509647  -0.000340311   0.593013423
Ta1     -0.004341550   0.501695218   0.592980385
Ta1      0.497793070   0.498664301   0.592987311
C1       0.008504867  -0.000213900   0.702568280
H1       0.179905966  -0.000300453   0.718474524
H1       0.837264542   0.171230948   0.718560330
H1       0.008066739   0.828843583   0.718652257

     Writing output data file calc.save
     Check: negative starting charge=   -1.124274
     NEW-OLD atomic charge density approx. for the potential
     Check: negative starting charge=   -1.124320

[...]

     Self-consistent Calculation

[...]

     Threshold (ethr) on eigenvalues was too large:
     Diagonalizing with lowered threshold

     Davidson diagonalization with overlap
     ethr =  1.59E-08,  avg # of iterations =  2.0

[...]

     total energy              =   -1733.53978004 Ry
     Harris-Foulkes estimate   =   -1733.53978002 Ry
     estimated scf accuracy    <       0.00000011 Ry

     iteration #  8     ecut=    36.75 Ry     beta=0.30
     Davidson diagonalization with overlap
     ethr =  6.99E-11,  avg # of iterations =  2.9

[...]

     negative rho (up, down):  1.179E+00 0.000E+00

     Adding external electric field

     Computed dipole along edir(3) :
        Dipole                0.0248 Ry au,          0.0630 Debye
        Dipole field          0.0001 Ry au

        Potential amp.       -0.0055 Ry
        Total length         45.8339 bohr

     End of self-consistent calculation

[...]

          k = 0.0558-0.0645 0.0000 ( 19521 PWs)   bands (ev):

[...]

          k =-0.0837-0.0483 0.0000 ( 19532 PWs)   bands (ev):

   -66.1748 -66.0956 -66.0954 -66.0660 -66.0654 -66.0562 -66.0423 -66.0220
   -66.0006 -65.9947 -65.9784 -65.9548 -32.7498 -32.7461 -32.7349 -32.7166
   -32.6847 -32.6829 -32.6131 -32.6108 -32.6081 -32.5804 -32.5619 -32.5274
   -32.4742 -32.4431 -32.4021 -32.3901 -32.3875 -32.3748 -32.3707 -32.3473
   -32.3222 -32.3078 -32.2754 -32.2620 -32.2408 -32.2266 -32.1729 -32.1676
   -32.1398 -32.1364 -32.1028 -32.0900 -32.0848 -32.0625 -32.0319 -32.0060
   -10.0103  -3.5103  -3.4057  -3.1647  -3.1118  -2.0552  -2.0192  -1.2155
    -1.1190  -1.0225  -0.9624  -0.8073  -0.7839  -0.2369   0.0245   0.1362
     0.2159   0.2675   0.4392   0.4871   0.6974   0.7826   0.7920   0.9722
     1.0190   1.0708   1.2517   1.3798   1.5483   1.5603   1.6443   1.6471
     1.7547   1.8760   2.0010   2.0460   2.1498   2.4309   2.4638   2.6100
     2.8679   3.2159   3.2722

     the Fermi energy is     2.1813 ev

!    total energy              =   -1733.53978005 Ry
     Harris-Foulkes estimate   =   -1733.53978001 Ry
     estimated scf accuracy    <       0.00000003 Ry

     The total energy is the sum of the following terms:

     one-electron contribution =  -11477.98721018 Ry
     hartree contribution      =    5724.76459120 Ry
     xc contribution           =    -528.80407504 Ry
     ewald contribution        =    4548.59042298 Ry
     electric field correction =       0.00000149 Ry
     smearing contrib. (-TS)   =      -0.10351049 Ry

     convergence has been achieved in   8 iterations

 BEEF-vdW xc energy contributions
           1 :   -465.316229841350
           2 :    429.229823262209
           3 :   -366.404243006690
           4 :    291.484876539154
           5 :   -218.984467995024
           6 :    158.918832913106
           7 :   -114.878643289966
           8 :    84.8679924510367
           9 :   -64.0293652816251
          10 :    47.6750221335745
          11 :   -33.2071629976777
          12 :    20.3433751867967
          13 :   -10.0485619828036
          14 :    3.12916155405173
          15 :   0.631655412347868
          16 :   -2.43942188316129
          17 :    3.78220579800700
          18 :   -5.61057474889787
          19 :    7.92309960004559
          20 :   -9.96192204353298
          21 :    10.8382644396534
          22 :   -10.1752405239056
          23 :    8.38334106684260
          24 :   -6.43148909192752
          25 :    5.28748674901203
          26 :   -5.38533351087210
          27 :    6.43152459365081
          28 :   -7.63806881936932
          29 :    8.21181271548278
          30 :   -7.79401719488038
          31 :   -41.7700271663571
          32 :   -30.9534316528253

     Forces acting on atoms (Ry/au):

     negative rho (up, down):  1.179E+00 0.000E+00
     atom    1 type  1   force =    -0.00239569   -0.00142984    0.00420904
     atom    2 type  1   force =     0.00246442   -0.00140880    0.00431790
     atom    3 type  1   force =     0.00028004    0.00281153    0.00427583
     atom    4 type  1   force =     0.00015066    0.00000835    0.00231338
     atom    5 type  1   force =     0.00102509   -0.01942684    0.00303352
     atom    6 type  1   force =     0.00021733   -0.00010326   -0.02357606
     atom    7 type  1   force =     0.01697613    0.01018616    0.00366125
     atom    8 type  1   force =    -0.01654321    0.00927716    0.00268595
     atom    9 type  1   force =    -0.00055398    0.00000709   -0.00142339
     atom   10 type  1   force =     0.00016612   -0.00014928   -0.00024835
     atom   11 type  1   force =    -0.00066220   -0.00006858   -0.00032976
     atom   12 type  1   force =    -0.00036433    0.00033107   -0.00049591
     atom   13 type  2   force =    -0.00007488   -0.00001185    0.00127066
     atom   14 type  3   force =    -0.00062935    0.00011681   -0.00014217
     atom   15 type  3   force =    -0.00012817    0.00030972    0.00021762
     atom   16 type  3   force =     0.00007203   -0.00044945    0.00023049

     Total force =     0.002440     Total SCF correction =     0.000120

     entering subroutine stress ...

     negative rho (up, down):  1.179E+00 0.000E+00
          total   stress  (Ry/bohr**3)                   (kbar)     P=  -29.40
  -0.00026932   0.00000263  -0.00000326        -39.62      0.39     -0.48
   0.00000263  -0.00026867   0.00000005          0.39    -39.52      0.01
  -0.00000326   0.00000005  -0.00006156         -0.48      0.01     -9.06

     bfgs converged in  18 scf cycles and  17 bfgs steps
     (criteria: energy <  1.0E+00, force <  1.9E-03)

     End of BFGS Geometry Optimization

     Final energy   =   -1733.5397800469 Ry
Begin final coordinates

ATOMIC_POSITIONS (crystal)
Ta1      0.166666667   0.166666667   0.401991699    0   0   0
Ta1      0.666666667   0.166666667   0.401991699    0   0   0
Ta1      0.166666667   0.666666667   0.401991699    0   0   0
Ta1      0.666666667   0.666666667   0.401991699    0   0   0
Ta1      0.833333333   0.333333333   0.500000000    0   0   0
Ta1      0.333333333   0.333333333   0.500000000    0   0   0
Ta1      0.833333333   0.833333333   0.500000000    0   0   0
Ta1      0.333333333   0.833333333   0.500000000    0   0   0
Ta1     -0.001248607  -0.000055312   0.615327228
Ta1      0.495509647  -0.000340311   0.593013423
Ta1     -0.004341550   0.501695218   0.592980385
Ta1      0.497793070   0.498664301   0.592987311
C1       0.008504867  -0.000213900   0.702568280
H1       0.179905966  -0.000300453   0.718474524
H1       0.837264542   0.171230948   0.718560330
H1       0.008066739   0.828843583   0.718652257
End final coordinates

     Writing output data file calc.save

     General routines

     Parallel routines

   This run was terminated on:  11:12: 4  23Apr2018

   JOB DONE.
Job  /afs/slac/g/suncat/bin/suncat-tsmpirun -x LD_LIBRARY_PATH -wdir /scratch/qe3384_OxhWS pw.x -npool 3 -in pw.inp

TID   HOST_NAME   COMMAND_LINE            STATUS            TERMINATION_TIME
00000 suncat2065 pw.x -npool 3 -i  Done                     04/23/2018 11:12:04
00001 suncat2065 pw.x -npool 3 -i  Done                     04/23/2018 11:12:04
00002 suncat2065 pw.x -npool 3 -i  Done                     04/23/2018 11:12:04
00003 suncat2065 pw.x -npool 3 -i  Done                     04/23/2018 11:12:04
00004 suncat2043 pw.x -npool 3 -i  Done                     04/23/2018 11:12:04
00005 suncat2043 pw.x -npool 3 -i  Done                     04/23/2018 11:12:04
00006 suncat2043 pw.x -npool 3 -i  Done                     04/23/2018 11:12:04
00007 suncat2043 pw.x -npool 3 -i  Done                     04/23/2018 11:12:04
00008 suncat2043 pw.x -npool 3 -i  Done                     04/23/2018 11:12:04
00009 suncat2043 pw.x -npool 3 -i  Done                     04/23/2018 11:12:04
00010 suncat2043 pw.x -npool 3 -i  Done                     04/23/2018 11:12:04
00011 suncat2043 pw.x -npool 3 -i  Done                     04/23/2018 11:12:04
00012 suncat2043 pw.x -npool 3 -i  Done                     04/23/2018 11:12:04
00013 suncat2043 pw.x -npool 3 -i  Done                     04/23/2018 11:12:04
00014 suncat2043 pw.x -npool 3 -i  Done                     04/23/2018 11:12:04
00015 suncat2043 pw.x -npool 3 -i  Done                     04/23/2018 11:12:04
00016 suncat2043 pw.x -npool 3 -i  Done                     04/23/2018 11:12:04
00017 suncat2043 pw.x -npool 3 -i  Done                     04/23/2018 11:12:04
00018 suncat2043 pw.x -npool 3 -i  Done                     04/23/2018 11:12:04
00019 suncat2043 pw.x -npool 3 -i  Done                     04/23/2018 11:12:04
00020 suncat2013 pw.x -npool 3 -i  Done                     04/23/2018 11:12:04
00021 suncat2013 pw.x -npool 3 -i  Done                     04/23/2018 11:12:04
00022 suncat2013 pw.x -npool 3 -i  Done                     04/23/2018 11:12:04
00023 suncat2013 pw.x -npool 3 -i  Done                     04/23/2018 11:12:04
00024 suncat2013 pw.x -npool 3 -i  Done                     04/23/2018 11:12:04
00025 suncat2013 pw.x -npool 3 -i  Done                     04/23/2018 11:12:04
00026 suncat2013 pw.x -npool 3 -i  Done                     04/23/2018 11:12:04
00027 suncat2013 pw.x -npool 3 -i  Done                     04/23/2018 11:12:04
00028 suncat2013 pw.x -npool 3 -i  Done                     04/23/2018 11:12:04
00029 suncat2013 pw.x -npool 3 -i  Done                     04/23/2018 11:12:04
00030 suncat2013 pw.x -npool 3 -i  Done                     04/23/2018 11:12:04
00031 suncat2013 pw.x -npool 3 -i  Done                     04/23/2018 11:12:04
00032 suncat2013 pw.x -npool 3 -i  Done                     04/23/2018 11:12:04
00033 suncat2013 pw.x -npool 3 -i  Done                     04/23/2018 11:12:04
00034 suncat2013 pw.x -npool 3 -i  Done                     04/23/2018 11:12:04
00035 suncat2013 pw.x -npool 3 -i  Done                     04/23/2018 11:12:04