     Program PWSCF v.5.1rc2 (svn rev. 11289) starts on 15Jan2018 at  3:55: 5

     Current dimensions of program PWSCF are:
     Max number of different atomic species (ntypx) = 10
     Max number of k-points (npk) =  40000
     Max angular momentum in pseudopotentials (lmaxx) =  3
     Presently stress not available with electric field

     IMPORTANT: XC functional enforced from input :
     Exchange-correlation      = BEEF-VDW ( 1  4 27 13 2)
     Any further DFT definition will be discarded
     Please, verify this is what you really want

     Subspace diagonalization in iterative solution of the eigenvalue problem:
     a serial algorithm will be used

     bravais-lattice index     =            0
     lattice parameter (alat)  =       1.8897  a.u.
     unit-cell volume          =    4306.9643 (a.u.)^3
     number of atoms/cell      =           13
     number of atomic types    =            2
     number of electrons       =       186.00
     number of Kohn-Sham states=          103
     kinetic-energy cutoff     =      36.7493  Ry
     charge density cutoff     =     367.4932  Ry
     convergence threshold     =      1.0E-05
     mixing beta               =       0.3000
     number of iterations used =           10  plain     mixing
     Exchange-correlation      = BEEF-VDW ( 1  4 27 13 2)
     nstep                     =           50

     celldm(1)=   1.889726  celldm(2)=   0.000000  celldm(3)=   0.000000
     celldm(4)=   0.000000  celldm(5)=   0.000000  celldm(6)=   0.000000

     crystal axes: (cart. coord. in units of alat)
               a(1) = (   5.486772   0.000000   0.000000 )
               a(2) = (   2.743386   4.751684   0.000000 )
               a(3) = (   0.000000   0.000000  24.479931 )

     reciprocal axes: (cart. coord. in units 2 pi/alat)
               b(1) = (  0.182257 -0.105226  0.000000 )
               b(2) = (  0.000000  0.210452  0.000000 )
               b(3) = (  0.000000  0.000000  0.040850 )

     PseudoPot. # 1 for Re read from file:
     /afs/slac.stanford.edu/u/if/mamunm/psp/gbrv1.5pbe/Re.UPF
     MD5 check sum: 85f993410f3e006da9d71c142b4ad953
     Pseudo is Ultrasoft + core correction, Zval = 15.0
     Generated by new atomic code, or converted to UPF format
     Using radial grid of  981 points,  8 beta functions with:
                l(1) =   0
                l(2) =   0
                l(3) =   1
                l(4) =   1
                l(5) =   2
                l(6) =   2
                l(7) =   3
                l(8) =   3
     Q(r) pseudized with  8 coefficients,  rinner =    1.150   1.150   1.150
                                                       1.150   1.150   1.150
                                                       1.150

     PseudoPot. # 2 for O  read from file:
     /afs/slac.stanford.edu/u/if/mamunm/psp/gbrv1.5pbe/O.UPF
     MD5 check sum: 734c27235a0248c51dbae37a1fbe46ec
     Pseudo is Ultrasoft + core correction, Zval =  6.0
     Generated by new atomic code, or converted to UPF format
     Using radial grid of  737 points,  5 beta functions with:
                l(1) =   0
                l(2) =   0
                l(3) =   1
                l(4) =   1
                l(5) =   2
     Q(r) pseudized with  8 coefficients,  rinner =    0.900   0.900   0.900
                                                       0.900   0.900

     vdW kernel table read from file vdW_kernel_table
     MD5 check sum: 095c7af220d748ca6e76c0b4c6cfb241

     atomic species   valence    mass     pseudopotential
        Re1           15.00   186.20700     Re( 1.00)
        O1             6.00    15.99900     O ( 1.00)

     No symmetry found

   Cartesian axes

     site n.     atom                  positions (alat units)
         1           Re1 tau(   1) = (   1.3716930   0.7919474  10.0000000  )
         2           Re1 tau(   2) = (   4.1150791   0.7919474  10.0000000  )
         3           Re1 tau(   3) = (   2.7433861   3.1677894  10.0000000  )
         4           Re1 tau(   4) = (   5.4867722   3.1677894  10.0000000  )
         5           Re1 tau(   5) = (   5.4867722   1.5838947  12.2399654  )
         6           Re1 tau(   6) = (   2.7433861   1.5838947  12.2399654  )
         7           Re1 tau(   7) = (   6.8584652   3.9597368  12.2399654  )
         8           Re1 tau(   8) = (   4.1150791   3.9597368  12.2399654  )
         9           Re1 tau(   9) = (   0.0000000   0.0000000  14.4799307  )
        10           Re1 tau(  10) = (   2.7433861   0.0000000  14.4799307  )
        11           Re1 tau(  11) = (   1.3716930   2.3758421  14.4799307  )
        12           Re1 tau(  12) = (   4.1150791   2.3758421  14.4799307  )
        13           O1  tau(  13) = (   1.3716930   0.7919474  16.6499307  )

     number of k points=    20  Fermi-Dirac smearing, width (Ry)=  0.0110
                       cart. coord. in units 2pi/alat
        k(    1) = (   0.0000000   0.0000000   0.0000000), wk =   0.0555556
        k(    2) = (   0.0000000   0.0350753   0.0000000), wk =   0.1111111
        k(    3) = (   0.0000000   0.0701506   0.0000000), wk =   0.1111111
        k(    4) = (   0.0000000  -0.1052259   0.0000000), wk =   0.0555556
        k(    5) = (   0.0303761  -0.0175376   0.0000000), wk =   0.1111111
        k(    6) = (   0.0303761   0.0175376   0.0000000), wk =   0.1111111
        k(    7) = (   0.0303761   0.0526129   0.0000000), wk =   0.1111111
        k(    8) = (   0.0303761  -0.1227635   0.0000000), wk =   0.1111111
        k(    9) = (   0.0303761  -0.0876882   0.0000000), wk =   0.1111111
        k(   10) = (   0.0303761  -0.0526129   0.0000000), wk =   0.1111111
        k(   11) = (   0.0607522  -0.0350753   0.0000000), wk =   0.1111111
        k(   12) = (   0.0607522   0.0000000   0.0000000), wk =   0.1111111
        k(   13) = (   0.0607522   0.0350753   0.0000000), wk =   0.1111111
        k(   14) = (   0.0607522  -0.1403011   0.0000000), wk =   0.1111111
        k(   15) = (   0.0607522  -0.1052259   0.0000000), wk =   0.1111111
        k(   16) = (   0.0607522  -0.0701506   0.0000000), wk =   0.1111111
        k(   17) = (  -0.0911283   0.0526129   0.0000000), wk =   0.0555556
        k(   18) = (  -0.0911283   0.0876882   0.0000000), wk =   0.1111111
        k(   19) = (  -0.0911283   0.1227635   0.0000000), wk =   0.1111111
        k(   20) = (  -0.0911283  -0.0526129   0.0000000), wk =   0.0555556

     Largest allocated arrays     est. size (Mb)     dimensions
     Largest temporary arrays     est. size (Mb)     dimensions

     Initial potential from superposition of free atoms
     Check: negative starting charge=   -1.539741

     starting charge  179.99946, renormalised to  186.00000

     negative rho (up, down):  1.591E+00 0.000E+00

     *
     * You are using vdW-DF for exchange-correlation in this calculation.
     * Please cite the following three references that made this development
     * possible:
     *
     *   M. Dion, H. Rydberg, E. Schroder, D. C. Langreth, and
     *   B. I. Lundqvist, Phys. Rev. Lett. 92, 246401 (2004).
     *
     *   T. Thonhauser, V. R. Cooper, S. Li, A. Puzder, P. Hyldgaard, and
     *   D. C. Langreth, Phys. Rev. B 76, 125112 (2007).
     *
     *   G. Roman-Perez and J. M. Soler, Phys. Rev. Lett. 103, 096102 (2009).
     *
     *
     * If you are using vdW-DF2, please also cite:
     *
     *   K. Lee, E. D. Murray, L. Kong, B. I. Lundqvist, and
     *   D. C. Langreth, Phys. Rev. B 82, 081101(R) (2010).
     *
     *
     * If you are calculating the stress with vdW-DF, please also cite:
     *
     *   R. Sabatini, E. Kucukbenli, B. Kolb, T. Thonhauser, and
     *   S. de Gironcoli, J. Phys.: Condens. Matter 24, 424209 (2012).
     *

     Carrying out vdW-DF run using the following parameters:

     Nqs =      20    Nr_points =    1024   r_max =   100.000
     q_mesh =
               0.00001000     0.04494208     0.09755937     0.15916263
               0.23128650     0.31572767     0.41458969     0.53033537
               0.66584808     0.82450364     1.01025438     1.22772762
               1.48234092     1.78043706     2.12944203     2.53805004
               3.01644009     3.57652955     4.23227104     5.00000000

     Gradients computed in reciprocal space

     Adding external electric field

     Computed dipole along edir(3) :
        Dipole               -1.6669 Ry au,         -4.2368 Debye
        Dipole field         -0.0049 Ry au

        Potential amp.        0.4387 Ry
        Total length         45.1039 bohr

     Starting wfc are  160 randomized atomic wfcs

     Self-consistent Calculation

     iteration #  1     ecut=    36.75 Ry     beta=0.30
     Davidson diagonalization with overlap
     ethr =  1.00E-02,  avg # of iterations =  2.0

[...]

     total energy              =   -2301.18346531 Ry
     Harris-Foulkes estimate   =   -2338.50847651 Ry
     estimated scf accuracy    <      77.09038997 Ry

[...]

     End of self-consistent calculation

          k = 0.0000 0.0000 0.0000 ( 16091 PWs)   bands (ev):

   -78.4175 -78.3598 -78.3282 -78.3279 -78.3065 -78.3057 -78.2989 -78.2678
   -78.2028 -78.1951 -78.1945 -78.1802 -40.6695 -40.6550 -40.6549 -40.5646
   -40.5207 -40.4769 -40.4766 -40.3631 -40.3536 -40.3535 -40.1420 -40.0501
   -40.0494 -39.9899 -39.9846 -39.9843 -39.9837 -39.9041 -39.9019 -39.9018
   -39.7909 -39.7909 -39.7758 -39.7137 -39.7020 -39.7005 -39.6999 -39.6520
   -39.6520 -39.6147 -39.6131 -39.6130 -39.4763 -39.4762 -39.4125 -39.4125
   -13.5304  -6.9879  -5.0251  -4.4770  -4.0848  -4.0770  -4.0770  -3.7809
    -3.7736  -3.7736  -3.1202  -3.0873  -3.0873  -2.9147  -2.9036  -2.9036
    -1.4225  -1.3588  -1.3588  -0.3114  -0.2934  -0.2934  -0.1430   0.0285
     0.3752   0.3752   0.5642   0.6295   0.6296   0.8228   0.8228   0.8666
     0.8775   0.8775   1.0337   1.1104   1.1104   1.3286   1.3286   1.8451
     2.5991   2.5992   2.6811   2.8787   2.9208   2.9209   3.4435   3.4436
     3.4753   4.0050   4.0050   4.0957   4.0958   4.2541   4.7023

[...]

          k =-0.0911 0.0526 0.0000 ( 16164 PWs)   bands (ev):

[...]

     the Fermi energy is     2.2385 ev

!    total energy              =   -2338.25601560 Ry
     Harris-Foulkes estimate   =   -2338.25598284 Ry
     estimated scf accuracy    <       0.00000844 Ry

     The total energy is the sum of the following terms:

     one-electron contribution =  -18791.93938972 Ry
     hartree contribution      =    9380.25507088 Ry
     xc contribution           =    -656.56885906 Ry
     ewald contribution        =    7730.06366033 Ry
     electric field correction =       0.00096885 Ry
     smearing contrib. (-TS)   =      -0.06746689 Ry

     convergence has been achieved in  22 iterations

 BEEF-vdW xc energy contributions
           1 :   -583.556877011999
           2 :    542.174617143860
           3 :   -468.073756394034
           4 :    375.499555914378
           5 :   -279.980063994221
           6 :    194.410540680128
           7 :   -126.507823577911
           8 :    78.1625096606899
           9 :   -46.5991341640636
          10 :    26.6420846076837
          11 :   -13.1049399517240
          12 :    2.44534826081372
          13 :    6.69935052301571
[...]

[...]

     Total force =     0.076383     Total SCF correction =     0.010711
     SCF correction compared to forces is large: reduce conv_thr to get better values

[...]

     Program PWSCF v.5.1rc2 (svn rev. 11289) starts on 15Jan2018 at  6:26:44

[...]

     Program PWSCF v.5.1rc2 (svn rev. 11289) starts on 15Jan2018 at  6:43: 1

[...]

   This run was terminated on:   7: 0:19  15Jan2018

[...]

     Program PWSCF v.5.1rc2 (svn rev. 11289) starts on 15Jan2018 at  7: 0:25

     Current dimensions of program PWSCF are:
     Max number of different atomic species (ntypx) = 10
     Max number of k-points (npk) =  40000
     Max angular momentum in pseudopotentials (lmaxx) =  3
     Presently stress not available with electric field

     IMPORTANT: XC functional enforced from input :
     Exchange-correlation      = BEEF-VDW ( 1  4 27 13 2)
     Any further DFT definition will be discarded
     Please, verify this is what you really want

     Subspace diagonalization in iterative solution of the eigenvalue problem:
     a serial algorithm will be used

     bravais-lattice index     =            0
     lattice parameter (alat)  =       1.8897  a.u.
     unit-cell volume          =    4306.9643 (a.u.)^3
     number of atoms/cell      =           13
     number of atomic types    =            2
     number of electrons       =       186.00
     number of Kohn-Sham states=          103
     kinetic-energy cutoff     =      36.7493  Ry
     charge density cutoff     =     367.4932  Ry
     convergence threshold     =      1.0E-05
     mixing beta               =       0.3000
     number of iterations used =           10  plain     mixing
     Exchange-correlation      = BEEF-VDW ( 1  4 27 13 2)
     nstep                     =           50

     celldm(1)=   1.889726  celldm(2)=   0.000000  celldm(3)=   0.000000
     celldm(4)=   0.000000  celldm(5)=   0.000000  celldm(6)=   0.000000

     crystal axes: (cart. coord. in units of alat)
               a(1) = (   5.486772   0.000000   0.000000 )
               a(2) = (   2.743386   4.751684   0.000000 )
               a(3) = (   0.000000   0.000000  24.479931 )

     reciprocal axes: (cart. coord. in units 2 pi/alat)
               b(1) = (  0.182257 -0.105226  0.000000 )
               b(2) = (  0.000000  0.210452  0.000000 )
               b(3) = (  0.000000  0.000000  0.040850 )

     PseudoPot. # 1 for Re read from file:
     /afs/slac.stanford.edu/u/if/mamunm/psp/gbrv1.5pbe/Re.UPF
     MD5 check sum: 85f993410f3e006da9d71c142b4ad953
     Pseudo is Ultrasoft + core correction, Zval = 15.0
     Generated by new atomic code, or converted to UPF format
     Using radial grid of  981 points,  8 beta functions with:
                l(1) =   0
                l(2) =   0
                l(3) =   1
                l(4) =   1
                l(5) =   2
                l(6) =   2
                l(7) =   3
                l(8) =   3
     Q(r) pseudized with  8 coefficients,  rinner =    1.150   1.150   1.150
                                                       1.150   1.150   1.150
                                                       1.150

     PseudoPot. # 2 for O  read from file:
     /afs/slac.stanford.edu/u/if/mamunm/psp/gbrv1.5pbe/O.UPF
     MD5 check sum: 734c27235a0248c51dbae37a1fbe46ec
     Pseudo is Ultrasoft + core correction, Zval =  6.0
     Generated by new atomic code, or converted to UPF format
     Using radial grid of  737 points,  5 beta functions with:
                l(1) =   0
                l(2) =   0
                l(3) =   1
                l(4) =   1
                l(5) =   2
     Q(r) pseudized with  8 coefficients,  rinner =    0.900   0.900   0.900
                                                       0.900   0.900

     vdW kernel table read from file vdW_kernel_table
     MD5 check sum: 095c7af220d748ca6e76c0b4c6cfb241

     atomic species   valence    mass     pseudopotential
        Re1           15.00   186.20700     Re( 1.00)
        O1             6.00    15.99900     O ( 1.00)

     No symmetry found

   Cartesian axes

     site n.     atom                  positions (alat units)
         1           Re1 tau(   1) = (   1.3716930   0.7919474  10.0000000  )
         2           Re1 tau(   2) = (   4.1150791   0.7919474  10.0000000  )
         3           Re1 tau(   3) = (   2.7433861   3.1677894  10.0000000  )
         4           Re1 tau(   4) = (   5.4867722   3.1677894  10.0000000  )
         5           Re1 tau(   5) = (   5.4867722   1.5838947  12.2399654  )
         6           Re1 tau(   6) = (   2.7433861   1.5838947  12.2399654  )
         7           Re1 tau(   7) = (   6.8584652   3.9597368  12.2399654  )
         8           Re1 tau(   8) = (   4.1150791   3.9597368  12.2399654  )
         9           Re1 tau(   9) = (   8.1962476   4.7324583  14.5068549  )
        10           Re1 tau(  10) = (   5.5206890   4.7322965  14.5070756  )
        11           Re1 tau(  11) = (   6.8583107   2.4148343  14.5067194  )
        12           Re1 tau(  12) = (   4.1152709   2.3755923  14.3561527  )
        13           O1  tau(  13) = (   1.3716959   0.7920300  15.7803855  )

     number of k points=    20  Fermi-Dirac smearing, width (Ry)=  0.0110
                       cart. coord. in units 2pi/alat
        k(    1) = (   0.0000000   0.0000000   0.0000000), wk =   0.0555556
        k(    2) = (   0.0000000   0.0350753   0.0000000), wk =   0.1111111
        k(    3) = (   0.0000000   0.0701506   0.0000000), wk =   0.1111111
        k(    4) = (   0.0000000  -0.1052259   0.0000000), wk =   0.0555556
        k(    5) = (   0.0303761  -0.0175376   0.0000000), wk =   0.1111111
        k(    6) = (   0.0303761   0.0175376   0.0000000), wk =   0.1111111
        k(    7) = (   0.0303761   0.0526129   0.0000000), wk =   0.1111111
        k(    8) = (   0.0303761  -0.1227635   0.0000000), wk =   0.1111111
        k(    9) = (   0.0303761  -0.0876882   0.0000000), wk =   0.1111111
        k(   10) = (   0.0303761  -0.0526129   0.0000000), wk =   0.1111111
        k(   11) = (   0.0607522  -0.0350753   0.0000000), wk =   0.1111111
        k(   12) = (   0.0607522   0.0000000   0.0000000), wk =   0.1111111
        k(   13) = (   0.0607522   0.0350753   0.0000000), wk =   0.1111111
        k(   14) = (   0.0607522  -0.1403011   0.0000000), wk =   0.1111111
        k(   15) = (   0.0607522  -0.1052259   0.0000000), wk =   0.1111111
        k(   16) = (   0.0607522  -0.0701506   0.0000000), wk =   0.1111111
        k(   17) = (  -0.0911283   0.0526129   0.0000000), wk =   0.0555556
        k(   18) = (  -0.0911283   0.0876882   0.0000000), wk =   0.1111111
        k(   19) = (  -0.0911283   0.1227635   0.0000000), wk =   0.1111111
        k(   20) = (  -0.0911283  -0.0526129   0.0000000), wk =   0.0555556

     Largest allocated arrays     est. size (Mb)     dimensions
     Largest temporary arrays     est. size (Mb)     dimensions

     Initial potential from superposition of free atoms
     Check: negative starting charge=   -1.540749

     starting charge  179.99946, renormalised to  186.00000

[...]

     *
     * You are using vdW-DF for exchange-correlation in this calculation.
     * Please cite the following three references that made this development
     * possible:
     *
     *   M. Dion, H. Rydberg, E. Schroder, D. C. Langreth, and
     *   B. I. Lundqvist, Phys. Rev. Lett. 92, 246401 (2004).
     *
     *   T. Thonhauser, V. R. Cooper, S. Li, A. Puzder, P. Hyldgaard, and
     *   D. C. Langreth, Phys. Rev. B 76, 125112 (2007).
     *
     *   G. Roman-Perez and J. M. Soler, Phys. Rev. Lett. 103, 096102 (2009).
     *
     *
     * If you are using vdW-DF2, please also cite:
     *
     *   K. Lee, E. D. Murray, L. Kong, B. I. Lundqvist, and
     *   D. C. Langreth, Phys. Rev. B 82, 081101(R) (2010).
     *
     *
     * If you are calculating the stress with vdW-DF, please also cite:
     *
     *   R. Sabatini, E. Kucukbenli, B. Kolb, T. Thonhauser, and
     *   S. de Gironcoli, J. Phys.: Condens. Matter 24, 424209 (2012).
     *

     Carrying out vdW-DF run using the following parameters:

     Nqs =      20    Nr_points =    1024   r_max =   100.000
     q_mesh =
               0.00001000     0.04494208     0.09755937     0.15916263
               0.23128650     0.31572767     0.41458969     0.53033537
               0.66584808     0.82450364     1.01025438     1.22772762
               1.48234092     1.78043706     2.12944203     2.53805004
               3.01644009     3.57652955     4.23227104     5.00000000

     Gradients computed in reciprocal space

[...]

     Starting wfc are  160 randomized atomic wfcs

     Self-consistent Calculation

[...]

     total energy              =   -2338.48321339 Ry
     Harris-Foulkes estimate   =   -2338.48321481 Ry
     estimated scf accuracy    <       0.00001305 Ry

     iteration # 20     ecut=    36.75 Ry     beta=0.30
     Davidson diagonalization with overlap
     ethr =  7.01E-09,  avg # of iterations =  3.9

[...]

     negative rho (up, down):  1.622E+00 0.000E+00

     Adding external electric field

     Computed dipole along edir(3) :
        Dipole               -0.0349 Ry au,         -0.0887 Debye
        Dipole field         -0.0001 Ry au

        Potential amp.        0.0092 Ry
        Total length         45.1039 bohr

     End of self-consistent calculation

[...]

          k = 0.0608-0.0702 0.0000 ( 16218 PWs)   bands (ev):

[...]

          k =-0.0911-0.0526 0.0000 ( 16164 PWs)   bands (ev):

   -77.7526 -77.7265 -77.7064 -77.5955 -77.5909 -77.5523 -77.5519 -77.4686
   -77.4123 -77.3897 -77.3759 -77.3737 -39.9144 -39.7483 -39.7449 -39.7155
   -39.6854 -39.6251 -39.6101 -39.5152 -39.5027 -39.4816 -39.4414 -39.4301
   -39.3907 -39.3834 -39.3645 -39.2519 -39.2325 -39.2229 -39.1606 -39.1419
   -39.1406 -39.1158 -39.1011 -39.0772 -39.0554 -39.0431 -39.0223 -39.0205
   -38.9756 -38.9446 -38.9373 -38.8990 -38.8704 -38.8026 -38.7314 -38.7022
   -16.5391  -4.4486  -4.2303  -3.4168  -2.9933  -2.9868  -2.5315  -2.3001
    -2.0903  -2.0627  -2.0490  -1.9785  -1.9595  -1.2887  -1.2694  -1.1485
    -0.9832  -0.8451  -0.8296  -0.7027  -0.3840  -0.2869  -0.2718  -0.2422
     0.0890   0.0940   0.4948   0.7337   0.8320   0.8328   1.0333   1.0751
     1.0992   1.2066   1.2210   1.5040   1.5617   1.5733   1.6516   1.9160
     2.0278   2.0845   2.4175   2.8995   2.9411   3.0099   3.0125   3.1339
     3.2612   3.5170   3.5586   3.7978   4.0437   4.1130   4.1222

     the Fermi energy is     3.0177 ev

!    total energy              =   -2338.48321395 Ry
     Harris-Foulkes estimate   =   -2338.48321536 Ry
     estimated scf accuracy    <       0.00000139 Ry

     The total energy is the sum of the following terms:

     one-electron contribution =  -19140.81960074 Ry
     hartree contribution      =    9558.22464333 Ry
     xc contribution           =    -657.10197257 Ry
     ewald contribution        =    7901.27886670 Ry
     electric field correction =       0.00000355 Ry
     smearing contrib. (-TS)   =      -0.06515422 Ry

     convergence has been achieved in  20 iterations

 BEEF-vdW xc energy contributions
           1 :   -584.109212239772
           2 :    542.917163050636
           3 :   -469.004115004529
           4 :    376.423730403882
           5 :   -280.649716089311
           6 :    194.663470745367
           7 :   -126.342477789812
           8 :    77.7261931915916
           9 :   -46.1093503043871
          10 :    26.2872001107837
          11 :   -12.9735418186785
          12 :    2.51572674499494
          13 :    6.51703295347613
          14 :   -13.7822425017453
          15 :    18.2064789615714
          16 :   -19.0706657659033
          17 :    16.6767535764011
          18 :   -12.3838693512769
          19 :    8.09154412964915
          20 :   -5.47273128956135
          21 :    5.32768896972084
          22 :   -7.33931476470036
          23 :    10.3105321738117
          24 :   -12.7511211614408
          25 :    13.5345093621197
          26 :   -12.3382435882627
          27 :    9.69790782002474
          28 :   -6.68521941876656
          29 :    4.38619433808981
          30 :   -3.43177943015030
          31 :   -48.6838186863299
          32 :   -36.1085699125688

     Forces acting on atoms (Ry/au):

     negative rho (up, down):  1.622E+00 0.000E+00
     atom    1 type  1   force =    -0.00000911   -0.00000888    0.02288772
     atom    2 type  1   force =    -0.00001406   -0.00306684    0.01923201
     atom    3 type  1   force =    -0.00264565    0.00153581    0.01922721
     atom    4 type  1   force =     0.00263560    0.00153618    0.01917777
     atom    5 type  1   force =     0.00324270   -0.00190233   -0.00658481
     atom    6 type  1   force =    -0.00323375   -0.00189115   -0.00660587
     atom    7 type  1   force =     0.00001429    0.00002265   -0.06408884
     atom    8 type  1   force =    -0.00000309    0.00376130   -0.00660208
     atom    9 type  1   force =    -0.00025102   -0.00035410    0.00078655
     atom   10 type  1   force =     0.00027586   -0.00024008    0.00062402
     atom   11 type  1   force =     0.00010146    0.00043672    0.00081785
     atom   12 type  1   force =    -0.00012549    0.00018543    0.00099765
     atom   13 type  2   force =     0.00001226   -0.00001472    0.00013081

     Total force =     0.077090     Total SCF correction =     0.006042

     entering subroutine stress ...

     negative rho (up, down):  1.622E+00 0.000E+00
          total   stress  (Ry/bohr**3)                   (kbar)     P=  -18.93
  -0.00013628  -0.00000002   0.00000001        -20.05     -0.00      0.00
  -0.00000002  -0.00013641  -0.00000003         -0.00    -20.07     -0.00
   0.00000001  -0.00000003  -0.00011336          0.00     -0.00    -16.68

 !ASE

     Writing output data file calc.save

     General routines

     Parallel routines

   This run was terminated on:   7:16:28  15Jan2018

   JOB DONE.
Job  /afs/slac/g/suncat/bin/suncat-tsmpirun -x LD_LIBRARY_PATH -wdir /scratch/qe842473_CKWhp pw.x -in pw.inp

TID   HOST_NAME   COMMAND_LINE            STATUS            TERMINATION_TIME
00000 suncat0050 pw.x -in pw.inp   Done                     01/15/2018 07:16:28
00001 suncat0050 pw.x -in pw.inp   Done                     01/15/2018 07:16:28
00002 suncat0050 pw.x -in pw.inp   Done                     01/15/2018 07:16:28
00003 suncat0050 pw.x -in pw.inp   Done                     01/15/2018 07:16:28
00004 suncat0050 pw.x -in pw.inp   Done                     01/15/2018 07:16:28
00005 suncat0050 pw.x -in pw.inp   Done                     01/15/2018 07:16:28
00006 suncat0050 pw.x -in pw.inp   Done                     01/15/2018 07:16:28
00007 suncat0050 pw.x -in pw.inp   Done                     01/15/2018 07:16:28
00008 suncat0242 pw.x -in pw.inp   Done                     01/15/2018 07:16:28
00009 suncat0242 pw.x -in pw.inp   Done                     01/15/2018 07:16:28
00010 suncat0242 pw.x -in pw.inp   Done                     01/15/2018 07:16:28
00011 suncat0242 pw.x -in pw.inp   Done                     01/15/2018 07:16:28
00012 suncat0242 pw.x -in pw.inp   Done                     01/15/2018 07:16:28
00013 suncat0242 pw.x -in pw.inp   Done                     01/15/2018 07:16:28
00014 suncat0242 pw.x -in pw.inp   Done                     01/15/2018 07:16:28
00015 suncat0242 pw.x -in pw.inp   Done                     01/15/2018 07:16:28
00016 suncat0241 pw.x -in pw.inp   Done                     01/15/2018 07:16:28
00017 suncat0241 pw.x -in pw.inp   Done                     01/15/2018 07:16:28
00018 suncat0241 pw.x -in pw.inp   Done                     01/15/2018 07:16:28
00019 suncat0241 pw.x -in pw.inp   Done                     01/15/2018 07:16:28
00020 suncat0241 pw.x -in pw.inp   Done                     01/15/2018 07:16:28
00021 suncat0241 pw.x -in pw.inp   Done                     01/15/2018 07:16:28
00022 suncat0241 pw.x -in pw.inp   Done                     01/15/2018 07:16:28
00023 suncat0241 pw.x -in pw.inp   Done                     01/15/2018 07:16:28
00024 suncat0240 pw.x -in pw.inp   Done                     01/15/2018 07:16:28
00025 suncat0240 pw.x -in pw.inp   Done                     01/15/2018 07:16:28
00026 suncat0240 pw.x -in pw.inp   Done                     01/15/2018 07:16:28
00027 suncat0240 pw.x -in pw.inp   Done                     01/15/2018 07:16:28
00028 suncat0240 pw.x -in pw.inp   Done                     01/15/2018 07:16:28
00029 suncat0240 pw.x -in pw.inp   Done                     01/15/2018 07:16:28
00030 suncat0240 pw.x -in pw.inp   Done                     01/15/2018 07:16:28
00031 suncat0240 pw.x -in pw.inp   Done                     01/15/2018 07:16:28