     Program PWSCF v.5.1rc2 (svn rev. 11289) starts on  3May2018 at  7:22:26

     Current dimensions of program PWSCF are:
     Max number of different atomic species (ntypx) = 10
     Max number of k-points (npk) =  40000
     Max angular momentum in pseudopotentials (lmaxx) =  3
     Presently stress not available with electric field

     IMPORTANT: XC functional enforced from input :
     Exchange-correlation      = BEEF-VDW ( 1  4 27 13 2)
     Any further DFT definition will be discarded
     Please, verify this is what you really want

     Subspace diagonalization in iterative solution of the eigenvalue problem:
     a serial algorithm will be used

     bravais-lattice index     =            0
     lattice parameter (alat)  =       1.8897  a.u.
     unit-cell volume          =    5185.0501 (a.u.)^3
     number of atoms/cell      =           13
     number of atomic types    =            2
     number of electrons       =       162.00
     number of Kohn-Sham states=           91
     kinetic-energy cutoff     =      36.7493  Ry
     charge density cutoff     =     367.4932  Ry
     convergence threshold     =      1.0E-05
     mixing beta               =       0.3000
     number of iterations used =           10  plain     mixing
     Exchange-correlation      = BEEF-VDW ( 1  4 27 13 2)
     nstep                     =           50

     celldm(1)=   1.889726  celldm(2)=   0.000000  celldm(3)=   0.000000
     celldm(4)=   0.000000  celldm(5)=   0.000000  celldm(6)=   0.000000

     crystal axes: (cart. coord. in units of alat)
               a(1) = (   5.972022   0.000000   0.000000 )
               a(2) = (   2.986011   5.171923   0.000000 )
               a(3) = (   0.000000   0.000000  24.876136 )

     reciprocal axes: (cart. coord. in units 2 pi/alat)
               b(1) = (  0.167447 -0.096676  0.000000 )
               b(2) = (  0.000000  0.193352  0.000000 )
               b(3) = (  0.000000  0.000000  0.040199 )

     PseudoPot. # 1 for Ta read from file:
     /u/if/mamunm/psp/gbrv1.5pbe/Ta.UPF
     MD5 check sum: f8bbe9446314a3b8ea5d9f3e3836c939
     Pseudo is Ultrasoft + core correction, Zval = 13.0
     Generated by new atomic code, or converted to UPF format
     Using radial grid of  921 points,  7 beta functions with:
                l(1) =   0
                l(2) =   0
                l(3) =   1
                l(4) =   1
                l(5) =   2
                l(6) =   2
                l(7) =   3
     Q(r) pseudized with  6 coefficients,  rinner =    1.300   1.300   1.300
                                                       1.300   1.300   1.300
                                                       1.300

     PseudoPot. # 2 for S  read from file:
     /u/if/mamunm/psp/gbrv1.5pbe/S.UPF
     MD5 check sum: 88d86576ff6df21479756cfb9bdac1df
     Pseudo is Ultrasoft + core correction, Zval =  6.0
     Generated by new atomic code, or converted to UPF format
     Using radial grid of  907 points,  6 beta functions with:
                l(1) =   0
                l(2) =   0
                l(3) =   1
                l(4) =   1
                l(5) =   2
                l(6) =   2
     Q(r) pseudized with  8 coefficients,  rinner =    1.300   1.300   1.300
                                                       1.300   1.300

     vdW kernel table read from file vdW_kernel_table
     MD5 check sum: 095c7af220d748ca6e76c0b4c6cfb241

     atomic species   valence    mass     pseudopotential
        Ta1           13.00   180.94788     Ta( 1.00)
        S1             6.00    32.06000     S ( 1.00)

     No symmetry found

   Cartesian axes

     site n.     atom                  positions (alat units)
         1           Ta1 tau(   1) = (   1.4930055   0.8619871  10.0000000  )
         2           Ta1 tau(   2) = (   4.4790165   0.8619871  10.0000000  )
         3           Ta1 tau(   3) = (   2.9860110   3.4479485  10.0000000  )
         4           Ta1 tau(   4) = (   5.9720221   3.4479485  10.0000000  )
         5           Ta1 tau(   5) = (   5.9720221   1.7239743  12.4380678  )
         6           Ta1 tau(   6) = (   2.9860110   1.7239743  12.4380678  )
         7           Ta1 tau(   7) = (   7.4650276   4.3099357  12.4380678  )
         8           Ta1 tau(   8) = (   4.4790165   4.3099357  12.4380678  )
         9           Ta1 tau(   9) = (   0.0000000   0.0000000  14.8761356  )
        10           Ta1 tau(  10) = (   2.9860110   0.0000000  14.8761356  )
        11           Ta1 tau(  11) = (   1.4930055   2.5859614  14.8761356  )
        12           Ta1 tau(  12) = (   4.4790165   2.5859614  14.8761356  )
        13           S1  tau(  13) = (   0.0000000   0.0000000  17.2136356  )

     number of k points=    20  Fermi-Dirac smearing, width (Ry)=  0.0110
                       cart. coord. in units 2pi/alat
        k(    1) = (   0.0000000   0.0000000   0.0000000), wk =   0.0555556
        k(    2) = (   0.0000000   0.0322253   0.0000000), wk =   0.1111111
        k(    3) = (   0.0000000   0.0644506   0.0000000), wk =   0.1111111
        k(    4) = (   0.0000000  -0.0966758   0.0000000), wk =   0.0555556
        k(    5) = (   0.0279079  -0.0161126   0.0000000), wk =   0.1111111
        k(    6) = (   0.0279079   0.0161126   0.0000000), wk =   0.1111111
        k(    7) = (   0.0279079   0.0483379   0.0000000), wk =   0.1111111
        k(    8) = (   0.0279079  -0.1127885   0.0000000), wk =   0.1111111
        k(    9) = (   0.0279079  -0.0805632   0.0000000), wk =   0.1111111
        k(   10) = (   0.0279079  -0.0483379   0.0000000), wk =   0.1111111
        k(   11) = (   0.0558158  -0.0322253   0.0000000), wk =   0.1111111
        k(   12) = (   0.0558158   0.0000000   0.0000000), wk =   0.1111111
        k(   13) = (   0.0558158   0.0322253   0.0000000), wk =   0.1111111
        k(   14) = (   0.0558158  -0.1289011   0.0000000), wk =   0.1111111
        k(   15) = (   0.0558158  -0.0966758   0.0000000), wk =   0.1111111
        k(   16) = (   0.0558158  -0.0644506   0.0000000), wk =   0.1111111
        k(   17) = (  -0.0837237   0.0483379   0.0000000), wk =   0.0555556
        k(   18) = (  -0.0837237   0.0805632   0.0000000), wk =   0.1111111
        k(   19) = (  -0.0837237   0.1127885   0.0000000), wk =   0.1111111
        k(   20) = (  -0.0837237  -0.0483379   0.0000000), wk =   0.0555556

     Largest allocated arrays     est. size (Mb)     dimensions
     Largest temporary arrays     est. size (Mb)     dimensions

     Initial potential from superposition of free atoms
     Check: negative starting charge=   -1.121544

     starting charge  161.98662, renormalised to  162.00000

     negative rho (up, down):  1.122E+00 0.000E+00

     *
     * You are using vdW-DF for exchange-correlation in this calculation.
     * Please cite the following three references that made this development
     * possible:
     *
     *   M. Dion, H. Rydberg, E. Schroder, D. C. Langreth, and
     *   B. I. Lundqvist, Phys. Rev. Lett. 92, 246401 (2004).
     *
     *   T. Thonhauser, V. R. Cooper, S. Li, A. Puzder, P. Hyldgaard, and
     *   D. C. Langreth, Phys. Rev. B 76, 125112 (2007).
     *
     *   G. Roman-Perez and J. M. Soler, Phys. Rev. Lett. 103, 096102 (2009).
     *
     *
     * If you are using vdW-DF2, please also cite:
     *
     *   K. Lee, E. D. Murray, L. Kong, B. I. Lundqvist, and
     *   D. C. Langreth, Phys. Rev. B 82, 081101(R) (2010).
     *
     *
     * If you are calculating the stress with vdW-DF, please also cite:
     *
     *   R. Sabatini, E. Kucukbenli, B. Kolb, T. Thonhauser, and
     *   S. de Gironcoli, J. Phys.: Condens. Matter 24, 424209 (2012).
     *

     Carrying out vdW-DF run using the following parameters:

     Nqs =      20    Nr_points =    1024   r_max =   100.000
     q_mesh =
               0.00001000     0.04494208     0.09755937     0.15916263
               0.23128650     0.31572767     0.41458969     0.53033537
               0.66584808     0.82450364     1.01025438     1.22772762
               1.48234092     1.78043706     2.12944203     2.53805004
               3.01644009     3.57652955     4.23227104     5.00000000

     Gradients computed in reciprocal space

     Adding external electric field

     Computed dipole along edir(3) :
        Dipole               -0.0041 Ry au,         -0.0105 Debye
        Dipole field         -0.0000 Ry au

        Potential amp.        0.0009 Ry
        Total length         45.8339 bohr

     Starting wfc are  160 randomized atomic wfcs

     Self-consistent Calculation

     iteration #  1     ecut=    36.75 Ry     beta=0.30
     Davidson diagonalization with overlap
     ethr =  1.00E-02,  avg # of iterations =  2.0

[...]

     total energy              =   -1740.91038921 Ry
     Harris-Foulkes estimate   =   -1743.14835680 Ry
     estimated scf accuracy    <       4.80884424 Ry

[...]

     End of self-consistent calculation

          k = 0.0000 0.0000 0.0000 ( 19447 PWs)   bands (ev):

   -66.4492 -66.4045 -66.4044 -66.3235 -66.2668 -66.2667 -66.2628 -66.2182
   -66.2119 -66.1535 -66.1260 -66.1257 -33.1048 -33.1048 -33.0792 -33.0656
   -33.0287 -33.0286 -32.9846 -32.9717 -32.9717 -32.9660 -32.8172 -32.7555
   -32.7554 -32.6437 -32.6022 -32.6021 -32.5844 -32.5724 -32.4750 -32.4750
   -32.4191 -32.4119 -32.4118 -32.3917 -32.3602 -32.3600 -32.3150 -32.3095
   -32.3095 -32.2911 -32.2911 -32.2852 -32.2323 -32.2323 -32.1373 -32.1373
    -9.9871  -5.4563  -3.8850  -2.8192  -2.1408  -2.1180  -2.1180  -1.9445
    -1.9433  -1.9433  -1.3061  -1.2660  -1.2660  -1.0651  -1.0651  -1.0444
    -0.5357  -0.5357  -0.4839   0.2175   0.6584   0.6584   1.3726   1.5320
     1.6848   1.6848   1.8351   1.9226   2.0746   2.0746   2.3127   2.3509
     2.3509   2.6292   2.6292   2.7126   2.7217   2.7217   2.7937   2.7937
     2.9087   3.0457   3.2507

[...]

          k =-0.0837 0.0483 0.0000 ( 19532 PWs)   bands (ev):

[...]

     the Fermi energy is     1.9902 ev

!    total energy              =   -1742.78147032 Ry
     Harris-Foulkes estimate   =   -1742.78146715 Ry
     estimated scf accuracy    <       0.00000225 Ry

     The total energy is the sum of the following terms:

     one-electron contribution =  -11578.83127837 Ry
     hartree contribution      =    5773.82169673 Ry
     xc contribution           =    -531.45871150 Ry
     ewald contribution        =    4593.79189470 Ry
     electric field correction =       0.00011029 Ry
     smearing contrib. (-TS)   =      -0.10518217 Ry

     convergence has been achieved in  13 iterations

 BEEF-vdW xc energy contributions
           1 :   -467.657086906386
           2 :    431.355605224948
           3 :   -368.048019777035
           4 :    292.431893783304
           5 :   -219.196244223999
           6 :    158.541345319346
           7 :   -114.166678823975
           8 :    84.0909133007174
           9 :   -63.3897668365869
          10 :    47.2573754066173
          11 :   -32.9729171859502
          12 :    20.1825506370267
          13 :   -9.86323019695476
          14 :    2.90017366853999
          15 :   0.834514431617492
          16 :   -2.50973483942840
          17 :    3.65329827343402
          18 :   -5.30011671328401
          19 :    7.51824168474286
          20 :   -9.56198344637187
          21 :    10.4994099227974
          22 :   -9.89306140963254
          23 :    8.11679459119216
          24 :   -6.14457089241262
          25 :    4.97795138986277
          26 :   -5.08360520594476
          27 :    6.17665790201454
          28 :   -7.45140250991585
          29 :    8.08709654682445
          30 :   -7.70908005921910
          31 :   -41.9641725253300
          32 :   -31.0876804908895

     Forces acting on atoms (Ry/au):

     negative rho (up, down):  1.176E+00 0.000E+00
     atom    1 type  1   force =    -0.00137668   -0.00078106    0.00184571
     atom    2 type  1   force =     0.00137321   -0.00079957    0.00186074
     atom    3 type  1   force =    -0.00001792    0.00158100    0.00184792
     atom    4 type  1   force =     0.00001802   -0.00000210    0.00206920
     atom    5 type  1   force =     0.00000765    0.00535520   -0.00737932
     atom    6 type  1   force =    -0.00001183    0.00000831    0.00832197
     atom    7 type  1   force =    -0.00462665   -0.00268387   -0.00737446
     atom    8 type  1   force =     0.00462657   -0.00267445   -0.00738681
     atom    9 type  1   force =    -0.00001635   -0.00000221    0.10400484
     atom   10 type  1   force =     0.00002065    0.00355260   -0.01300007
     atom   11 type  1   force =     0.00308211   -0.00176766   -0.01301211
     atom   12 type  1   force =    -0.00307835   -0.00178605   -0.01299073
     atom   13 type  2   force =    -0.00000044   -0.00000013   -0.05880690

     Total force =     0.121738     Total SCF correction =     0.000835

     entering subroutine stress ...

     negative rho (up, down):  1.176E+00 0.000E+00
          total   stress  (Ry/bohr**3)                   (kbar)     P=  -32.02
  -0.00027797   0.00000000  -0.00000001        -40.89      0.00     -0.00
   0.00000000  -0.00027799   0.00000000          0.00    -40.89      0.00
  -0.00000001   0.00000000  -0.00009696         -0.00      0.00    -14.26

     BFGS Geometry Optimization

     number of scf cycles    =   1
     number of bfgs steps    =   0

     energy   new            =   -1742.7814703170 Ry

     new trust radius        =       0.1040048424 bohr
     new conv_thr            =       0.0000099958 Ry

ATOMIC_POSITIONS (crystal)
Ta1      0.166666667   0.166666667   0.401991699    0   0   0
Ta1      0.666666667   0.166666667   0.401991699    0   0   0
Ta1      0.166666667   0.666666667   0.401991699    0   0   0
Ta1      0.666666667   0.666666667   0.401991699    0   0   0
Ta1      0.833333333   0.333333333   0.500000000    0   0   0
Ta1      0.333333333   0.333333333   0.500000000    0   0   0
Ta1      0.833333333   0.833333333   0.500000000    0   0   0
Ta1      0.333333333   0.833333333   0.500000000    0   0   0
Ta1     -0.000001336  -0.000000226   0.600220743
Ta1      0.499820084   0.000363492   0.597731758
Ta1      0.000363536   0.499819137   0.597731502
Ta1      0.499818601   0.499817256   0.597731956
S1      -0.000000033  -0.000000013   0.690722892

     Writing output data file calc.save
     Check: negative starting charge=   -1.121544
     NEW-OLD atomic charge density approx. for the potential
     Check: negative starting charge=   -1.122545

[...]

     Total force =     0.057474     Total SCF correction =     0.006671
     SCF correction compared to forces is large: reduce conv_thr to get better values

[...]

     energy   old            =   -1742.7814703170 Ry
     energy   new            =   -1742.7924518118 Ry

     CASE: energy  _new < energy  _old

[...]

     WARNING: bfgs curvature condition failed, Theta= 0.982
     new trust radius        =       0.0418551375 bohr
     new conv_thr            =       0.0000001000 Ry

[...]

     Total force =     0.005926     Total SCF correction =     0.000230

[...]

     Threshold (ethr) on eigenvalues was too large:
     Diagonalizing with lowered threshold

     Davidson diagonalization with overlap
     ethr =  8.53E-08,  avg # of iterations =  3.0

[...]

     number of scf cycles    =  10
     number of bfgs steps    =   9

     energy   old            =   -1742.8025579219 Ry
     energy   new            =   -1742.8026377198 Ry

     CASE: energy  _new < energy  _old

     new trust radius        =       0.0205136727 bohr
     new conv_thr            =       0.0000001000 Ry

ATOMIC_POSITIONS (crystal)
Ta1      0.166666667   0.166666667   0.401991699    0   0   0
Ta1      0.666666667   0.166666667   0.401991699    0   0   0
Ta1      0.166666667   0.666666667   0.401991699    0   0   0
Ta1      0.666666667   0.666666667   0.401991699    0   0   0
Ta1      0.833333333   0.333333333   0.500000000    0   0   0
Ta1      0.333333333   0.333333333   0.500000000    0   0   0
Ta1      0.833333333   0.833333333   0.500000000    0   0   0
Ta1      0.333333333   0.833333333   0.500000000    0   0   0
Ta1      0.000000776  -0.000000007   0.607456012
Ta1      0.499195625   0.001607434   0.594285532
Ta1      0.001608142   0.499195467   0.594285143
Ta1      0.499196210   0.499196794   0.594285661
S1       0.000001438  -0.000000290   0.696568246

     Writing output data file calc.save
     Check: negative starting charge=   -1.122797
     NEW-OLD atomic charge density approx. for the potential
     Check: negative starting charge=   -1.122599

[...]

     Self-consistent Calculation

[...]

     total energy              =   -1742.80270241 Ry
     Harris-Foulkes estimate   =   -1742.80270217 Ry
     estimated scf accuracy    <       0.00000022 Ry

     iteration #  9     ecut=    36.75 Ry     beta=0.30
     Davidson diagonalization with overlap
     ethr =  1.38E-10,  avg # of iterations =  4.1

[...]

     negative rho (up, down):  1.177E+00 0.000E+00

     Adding external electric field

     Computed dipole along edir(3) :
        Dipole               -0.2946 Ry au,         -0.7488 Debye
        Dipole field         -0.0007 Ry au

        Potential amp.        0.0654 Ry
        Total length         45.8339 bohr

     End of self-consistent calculation

[...]

          k = 0.0558-0.0645 0.0000 ( 19521 PWs)   bands (ev):

[...]

          k =-0.0837-0.0483 0.0000 ( 19532 PWs)   bands (ev):

   -66.4722 -66.4579 -66.4426 -66.3941 -66.3934 -66.3650 -66.3643 -66.2764
   -66.2728 -66.2511 -66.2473 -66.1654 -33.0968 -33.0706 -33.0527 -33.0486
   -32.9876 -32.9757 -32.9308 -32.9210 -32.9106 -32.8973 -32.8797 -32.8045
   -32.7483 -32.7427 -32.7382 -32.7077 -32.7072 -32.6781 -32.6364 -32.6105
   -32.6053 -32.5527 -32.5494 -32.5494 -32.5310 -32.5129 -32.5011 -32.4373
   -32.4306 -32.4257 -32.4195 -32.4056 -32.3898 -32.3743 -32.3137 -32.3052
    -9.8970  -3.7921  -3.7241  -2.3794  -2.3312  -1.5241  -1.4743  -1.3095
    -1.2527  -1.1628  -1.1195  -0.6844  -0.6747  -0.5951  -0.1643  -0.1633
    -0.0457   0.0457   0.1347   0.1584   0.4288   0.5679   0.6089   0.7066
     0.7437   0.8416   0.9663   1.0994   1.2744   1.3030   1.3335   1.4648
     1.5661   1.6372   1.6665   1.7443   2.1087   2.1629   2.2897   2.3625
     2.5246   2.9933   3.2989

     the Fermi energy is     1.8832 ev

!    total energy              =   -1742.80270243 Ry
     Harris-Foulkes estimate   =   -1742.80270303 Ry
     estimated scf accuracy    <       0.00000007 Ry

     The total energy is the sum of the following terms:

     one-electron contribution =  -11565.97146561 Ry
     hartree contribution      =    5767.03123117 Ry
     xc contribution           =    -531.54884967 Ry
     ewald contribution        =    4587.78784545 Ry
     electric field correction =       0.00021034 Ry
     smearing contrib. (-TS)   =      -0.10167410 Ry

     convergence has been achieved in   9 iterations

 BEEF-vdW xc energy contributions
           1 :   -467.746474118904
           2 :    431.453456831434
           3 :   -368.157082880492
           4 :    292.536050374652
           5 :   -219.264057938498
           6 :    158.549334630775
           7 :   -114.118840324126
           8 :    84.0181307592103
           9 :   -63.3305641351574
          10 :    47.2352076463166
          11 :   -32.9854327346293
          12 :    20.2067800361747
          13 :   -9.86920217900877
          14 :    2.86352509984465
          15 :   0.925606120598559
          16 :   -2.65329353197194
          17 :    3.83536357757578
          18 :   -5.49880820277104
          19 :    7.71178110743313
          20 :   -9.73887405752725
          21 :    10.6642425224272
          22 :   -10.0625899501244
          23 :    8.30709185139688
          24 :   -6.35697548856729
          25 :    5.19413739814462
          26 :   -5.27447772527125
          27 :    6.31958485176256
          28 :   -7.54405159174439
          29 :    8.14817011425032
          30 :   -7.76522820510456
          31 :   -41.9692509551630
          32 :   -31.0926748070311

     Forces acting on atoms (Ry/au):

     negative rho (up, down):  1.177E+00 0.000E+00
     atom    1 type  1   force =    -0.00288824   -0.00166766    0.00271766
     atom    2 type  1   force =     0.00288824   -0.00166753    0.00271753
     atom    3 type  1   force =     0.00000012    0.00333511    0.00271758
     atom    4 type  1   force =    -0.00000007    0.00000001    0.00365543
     atom    5 type  1   force =    -0.00000096   -0.00909195   -0.00130609
     atom    6 type  1   force =     0.00000092   -0.00000027   -0.01007789
     atom    7 type  1   force =     0.00787362    0.00454659   -0.00130562
     atom    8 type  1   force =    -0.00787380    0.00454567   -0.00130564
     atom    9 type  1   force =    -0.00000109    0.00000009   -0.00041090
     atom   10 type  1   force =     0.00000110    0.00042012    0.00085198
     atom   11 type  1   force =     0.00036401   -0.00020949    0.00085271
     atom   12 type  1   force =    -0.00036381   -0.00021068    0.00085164
     atom   13 type  2   force =    -0.00000005   -0.00000003    0.00004162

     Total force =     0.001697     Total SCF correction =     0.000276
     SCF correction compared to forces is large: reduce conv_thr to get better values

     entering subroutine stress ...

     negative rho (up, down):  1.177E+00 0.000E+00
          total   stress  (Ry/bohr**3)                   (kbar)     P=  -27.50
  -0.00025196  -0.00000000  -0.00000000        -37.06     -0.00     -0.00
  -0.00000000  -0.00025196   0.00000000         -0.00    -37.06      0.00
  -0.00000000   0.00000000  -0.00005684         -0.00      0.00     -8.36

     bfgs converged in  11 scf cycles and  10 bfgs steps
     (criteria: energy <  1.0E+00, force <  1.9E-03)

     End of BFGS Geometry Optimization

     Final energy   =   -1742.8027024265 Ry
Begin final coordinates

ATOMIC_POSITIONS (crystal)
Ta1      0.166666667   0.166666667   0.401991699    0   0   0
Ta1      0.666666667   0.166666667   0.401991699    0   0   0
Ta1      0.166666667   0.666666667   0.401991699    0   0   0
Ta1      0.666666667   0.666666667   0.401991699    0   0   0
Ta1      0.833333333   0.333333333   0.500000000    0   0   0
Ta1      0.333333333   0.333333333   0.500000000    0   0   0
Ta1      0.833333333   0.833333333   0.500000000    0   0   0
Ta1      0.333333333   0.833333333   0.500000000    0   0   0
Ta1      0.000000776  -0.000000007   0.607456012
Ta1      0.499195625   0.001607434   0.594285532
Ta1      0.001608142   0.499195467   0.594285143
Ta1      0.499196210   0.499196794   0.594285661
S1       0.000001438  -0.000000290   0.696568246
End final coordinates

     Writing output data file calc.save

     General routines

     Parallel routines

   This run was terminated on:   8:57:41   3May2018

   JOB DONE.
Job  /afs/slac/g/suncat/bin/suncat-tsmpirun -x LD_LIBRARY_PATH -wdir /scratch/qe662942_uJC8L pw.x -npool 4 -in pw.inp

TID   HOST_NAME   COMMAND_LINE            STATUS            TERMINATION_TIME
00000 suncat0046 pw.x -npool 4 -i  Done                     05/03/2018 08:57:41
00001 suncat0046 pw.x -npool 4 -i  Done                     05/03/2018 08:57:41
00002 suncat0046 pw.x -npool 4 -i  Done                     05/03/2018 08:57:41
00003 suncat0046 pw.x -npool 4 -i  Done                     05/03/2018 08:57:41
00004 suncat0046 pw.x -npool 4 -i  Done                     05/03/2018 08:57:41
00005 suncat0046 pw.x -npool 4 -i  Done                     05/03/2018 08:57:41
00006 suncat0046 pw.x -npool 4 -i  Done                     05/03/2018 08:57:41
00007 suncat0046 pw.x -npool 4 -i  Done                     05/03/2018 08:57:41
00008 suncat0166 pw.x -npool 4 -i  Done                     05/03/2018 08:57:41
00009 suncat0166 pw.x -npool 4 -i  Done                     05/03/2018 08:57:41
00010 suncat0166 pw.x -npool 4 -i  Done                     05/03/2018 08:57:41
00011 suncat0166 pw.x -npool 4 -i  Done                     05/03/2018 08:57:41
00012 suncat0166 pw.x -npool 4 -i  Done                     05/03/2018 08:57:41
00013 suncat0166 pw.x -npool 4 -i  Done                     05/03/2018 08:57:41
00014 suncat0166 pw.x -npool 4 -i  Done                     05/03/2018 08:57:41
00015 suncat0166 pw.x -npool 4 -i  Done                     05/03/2018 08:57:41
00016 suncat0152 pw.x -npool 4 -i  Done                     05/03/2018 08:57:41
00017 suncat0152 pw.x -npool 4 -i  Done                     05/03/2018 08:57:41
00018 suncat0152 pw.x -npool 4 -i  Done                     05/03/2018 08:57:41
00019 suncat0152 pw.x -npool 4 -i  Done                     05/03/2018 08:57:41
00020 suncat0152 pw.x -npool 4 -i  Done                     05/03/2018 08:57:41
00021 suncat0152 pw.x -npool 4 -i  Done                     05/03/2018 08:57:41
00022 suncat0152 pw.x -npool 4 -i  Done                     05/03/2018 08:57:41
00023 suncat0152 pw.x -npool 4 -i  Done                     05/03/2018 08:57:41
00024 suncat0139 pw.x -npool 4 -i  Done                     05/03/2018 08:57:41
00025 suncat0139 pw.x -npool 4 -i  Done                     05/03/2018 08:57:41
00026 suncat0139 pw.x -npool 4 -i  Done                     05/03/2018 08:57:41
00027 suncat0139 pw.x -npool 4 -i  Done                     05/03/2018 08:57:41
00028 suncat0139 pw.x -npool 4 -i  Done                     05/03/2018 08:57:41
00029 suncat0139 pw.x -npool 4 -i  Done                     05/03/2018 08:57:41
00030 suncat0139 pw.x -npool 4 -i  Done                     05/03/2018 08:57:41
00031 suncat0139 pw.x -npool 4 -i  Done                     05/03/2018 08:57:41