     Program PWSCF v.5.1rc2 (svn rev. 11289) starts on 16Apr2018 at 11:52: 5

     Current dimensions of program PWSCF are:
     Max number of different atomic species (ntypx) = 10
     Max number of k-points (npk) =  40000
     Max angular momentum in pseudopotentials (lmaxx) =  3
     Presently stress not available with electric field

     IMPORTANT: XC functional enforced from input :
     Exchange-correlation      = BEEF-VDW ( 1  4 27 13 2)
     Any further DFT definition will be discarded
     Please, verify this is what you really want

     Subspace diagonalization in iterative solution of the eigenvalue problem:
     a serial algorithm will be used

     bravais-lattice index     =            0
     lattice parameter (alat)  =       1.8897  a.u.
     unit-cell volume          =    5144.9564 (a.u.)^3
     number of atoms/cell      =           14
     number of atomic types    =            3
     number of electrons       =       139.00
     number of Kohn-Sham states=           79
     kinetic-energy cutoff     =      36.7493  Ry
     charge density cutoff     =     367.4932  Ry
     convergence threshold     =      1.0E-05
     mixing beta               =       0.3000
     number of iterations used =           10  plain     mixing
     Exchange-correlation      = BEEF-VDW ( 1  4 27 13 2)
     nstep                     =           50

     celldm(1)=   1.889726  celldm(2)=   0.000000  celldm(3)=   0.000000
     celldm(4)=   0.000000  celldm(5)=   0.000000  celldm(6)=   0.000000

     crystal axes: (cart. coord. in units of alat)
               a(1) = (   5.950946   0.000000   0.000000 )
               a(2) = (   2.975473   5.153671   0.000000 )
               a(3) = (   0.000000   0.000000  24.858927 )

     reciprocal axes: (cart. coord. in units 2 pi/alat)
               b(1) = (  0.168040 -0.097018  0.000000 )
               b(2) = (  0.000000  0.194036  0.000000 )
               b(3) = (  0.000000  0.000000  0.040227 )

     PseudoPot. # 1 for Au read from file:
     /u/if/mamunm/psp/gbrv1.5pbe/Au.UPF
     MD5 check sum: 9d7f43293ad2c663164586bc4b293ffc
     Pseudo is Ultrasoft + core correction, Zval = 11.0
     Generated by new atomic code, or converted to UPF format
     Using radial grid of  985 points,  7 beta functions with:
                l(1) =   0
                l(2) =   0
                l(3) =   1
                l(4) =   1
                l(5) =   2
                l(6) =   2
                l(7) =   3
     Q(r) pseudized with  6 coefficients,  rinner =    1.900   1.900   1.900
                                                       1.900   1.900   1.900
                                                       1.900

     PseudoPot. # 2 for O  read from file:
     /u/if/mamunm/psp/gbrv1.5pbe/O.UPF
     MD5 check sum: 734c27235a0248c51dbae37a1fbe46ec
     Pseudo is Ultrasoft + core correction, Zval =  6.0
     Generated by new atomic code, or converted to UPF format
     Using radial grid of  737 points,  5 beta functions with:
                l(1) =   0
                l(2) =   0
                l(3) =   1
                l(4) =   1
                l(5) =   2
     Q(r) pseudized with  8 coefficients,  rinner =    0.900   0.900   0.900
                                                       0.900   0.900

     PseudoPot. # 3 for H  read from file:
     /u/if/mamunm/psp/gbrv1.5pbe/H.UPF
     MD5 check sum: 761ae9a214b05c3daf00ab9f6b793d6f
     Pseudo is Ultrasoft, Zval =  1.0
     Generated by new atomic code, or converted to UPF format
     Using radial grid of  615 points,  2 beta functions with:
                l(1) =   0
                l(2) =   0
     Q(r) pseudized with  8 coefficients,  rinner =    0.700

     vdW kernel table read from file vdW_kernel_table
     MD5 check sum: 095c7af220d748ca6e76c0b4c6cfb241

     atomic species   valence    mass     pseudopotential
        Au1           11.00   196.96657     Au( 1.00)
        O1             6.00    15.99900     O ( 1.00)
        H1             1.00     1.00800     H ( 1.00)

     No symmetry found

   Cartesian axes

     site n.     atom                  positions (alat units)
         1           Au1 tau(   1) = (   1.4877366   0.8589451  10.0000000  )
         2           Au1 tau(   2) = (   4.4632098   0.8589451  10.0000000  )
         3           Au1 tau(   3) = (   2.9754732   3.4357805  10.0000000  )
         4           Au1 tau(   4) = (   5.9509464   3.4357805  10.0000000  )
         5           Au1 tau(   5) = (   5.9509464   1.7178903  12.4294637  )
         6           Au1 tau(   6) = (   2.9754732   1.7178903  12.4294637  )
         7           Au1 tau(   7) = (   7.4386830   4.2947256  12.4294637  )
         8           Au1 tau(   8) = (   4.4632098   4.2947256  12.4294637  )
         9           Au1 tau(   9) = (   0.0000000   0.0000000  14.8589274  )
        10           Au1 tau(  10) = (   2.9754732   0.0000000  14.8589274  )
        11           Au1 tau(  11) = (   1.4877366   2.5768354  14.8589274  )
        12           Au1 tau(  12) = (   4.4632098   2.5768354  14.8589274  )
        13           O1  tau(  13) = (   1.4877366   0.8589451  16.1719274  )
        14           H1  tau(  14) = (   1.4877366   0.8589451  17.1219274  )

     number of k points=    20  Fermi-Dirac smearing, width (Ry)=  0.0110
                       cart. coord. in units 2pi/alat
        k(    1) = (   0.0000000   0.0000000   0.0000000), wk =   0.0555556
        k(    2) = (   0.0000000   0.0323394   0.0000000), wk =   0.1111111
        k(    3) = (   0.0000000   0.0646788   0.0000000), wk =   0.1111111
        k(    4) = (   0.0000000  -0.0970182   0.0000000), wk =   0.0555556
        k(    5) = (   0.0280067  -0.0161697   0.0000000), wk =   0.1111111
        k(    6) = (   0.0280067   0.0161697   0.0000000), wk =   0.1111111
        k(    7) = (   0.0280067   0.0485091   0.0000000), wk =   0.1111111
        k(    8) = (   0.0280067  -0.1131879   0.0000000), wk =   0.1111111
        k(    9) = (   0.0280067  -0.0808485   0.0000000), wk =   0.1111111
        k(   10) = (   0.0280067  -0.0485091   0.0000000), wk =   0.1111111
        k(   11) = (   0.0560135  -0.0323394   0.0000000), wk =   0.1111111
        k(   12) = (   0.0560135   0.0000000   0.0000000), wk =   0.1111111
        k(   13) = (   0.0560135   0.0323394   0.0000000), wk =   0.1111111
        k(   14) = (   0.0560135  -0.1293576   0.0000000), wk =   0.1111111
        k(   15) = (   0.0560135  -0.0970182   0.0000000), wk =   0.1111111
        k(   16) = (   0.0560135  -0.0646788   0.0000000), wk =   0.1111111
        k(   17) = (  -0.0840202   0.0485091   0.0000000), wk =   0.0555556
        k(   18) = (  -0.0840202   0.0808485   0.0000000), wk =   0.1111111
        k(   19) = (  -0.0840202   0.1131879   0.0000000), wk =   0.1111111
        k(   20) = (  -0.0840202  -0.0485091   0.0000000), wk =   0.0555556

     Largest allocated arrays     est. size (Mb)     dimensions
     Largest temporary arrays     est. size (Mb)     dimensions

     Check: negative/imaginary core charge=   -0.000002    0.000000

     Initial potential from superposition of free atoms
     Check: negative starting charge=   -0.000247

     starting charge  138.99852, renormalised to  139.00000

     negative rho (up, down):  2.468E-04 0.000E+00

     *
     * You are using vdW-DF for exchange-correlation in this calculation.
     * Please cite the following three references that made this development
     * possible:
     *
     *   M. Dion, H. Rydberg, E. Schroder, D. C. Langreth, and
     *   B. I. Lundqvist, Phys. Rev. Lett. 92, 246401 (2004).
     *
     *   T. Thonhauser, V. R. Cooper, S. Li, A. Puzder, P. Hyldgaard, and
     *   D. C. Langreth, Phys. Rev. B 76, 125112 (2007).
     *
     *   G. Roman-Perez and J. M. Soler, Phys. Rev. Lett. 103, 096102 (2009).
     *
     *
     * If you are using vdW-DF2, please also cite:
     *
     *   K. Lee, E. D. Murray, L. Kong, B. I. Lundqvist, and
     *   D. C. Langreth, Phys. Rev. B 82, 081101(R) (2010).
     *
     *
     * If you are calculating the stress with vdW-DF, please also cite:
     *
     *   R. Sabatini, E. Kucukbenli, B. Kolb, T. Thonhauser, and
     *   S. de Gironcoli, J. Phys.: Condens. Matter 24, 424209 (2012).
     *

     Carrying out vdW-DF run using the following parameters:

     Nqs =      20    Nr_points =    1024   r_max =   100.000
     q_mesh =
               0.00001000     0.04494208     0.09755937     0.15916263
               0.23128650     0.31572767     0.41458969     0.53033537
               0.66584808     0.82450364     1.01025438     1.22772762
               1.48234092     1.78043706     2.12944203     2.53805004
               3.01644009     3.57652955     4.23227104     5.00000000

     Gradients computed in reciprocal space

     Adding external electric field

     Computed dipole along edir(3) :
        Dipole               -0.0005 Ry au,         -0.0012 Debye
        Dipole field         -0.0000 Ry au

        Potential amp.        0.0001 Ry
        Total length         45.8022 bohr

     Starting wfc are  113 randomized atomic wfcs

     Self-consistent Calculation

     iteration #  1     ecut=    36.75 Ry     beta=0.30
     Davidson diagonalization with overlap
     ethr =  1.00E-02,  avg # of iterations =  2.4

     Threshold (ethr) on eigenvalues was too large:
     Diagonalizing with lowered threshold

     Davidson diagonalization with overlap
     ethr =  6.63E-04,  avg # of iterations =  2.0

[...]

     total energy              =   -1433.96877295 Ry
     Harris-Foulkes estimate   =   -1434.35575679 Ry
     estimated scf accuracy    <       0.96454498 Ry

[...]

     End of self-consistent calculation

          k = 0.0000 0.0000 0.0000 ( 19315 PWs)   bands (ev):

   -19.9199  -8.6436  -7.2295  -5.7653  -5.5716  -5.5716  -5.5137  -5.3116
    -5.3115  -5.2831  -5.0476  -4.9046  -4.9046  -4.8242  -4.8242  -4.7725
    -4.4367  -4.4367  -4.2436  -3.6286  -3.6286  -3.6036  -3.5696  -3.5696
    -3.5107  -3.4559  -3.4559  -3.2768  -3.1927  -3.1927  -3.1502  -3.1021
    -3.1021  -3.0171  -2.9412  -2.9412  -2.5308  -2.5038  -2.5038  -2.2239
    -2.2239  -2.2078  -2.0240  -2.0240  -1.8572  -1.8572  -1.6553  -1.6553
    -1.6300  -1.4746  -1.4219  -1.4219  -1.3756  -1.3756  -1.2566  -1.2330
    -1.2330  -1.2234  -1.1008  -1.1008  -1.0503  -0.9388  -0.9388  -0.9369
    -0.6233  -0.6233  -0.4442   1.3099   1.3254   1.3254   1.5431   2.0327
     2.0327   2.1643   2.3981   2.3981   2.8801   3.7740   4.0340

[...]

          k =-0.0840 0.0485 0.0000 ( 19380 PWs)   bands (ev):

[...]

     the Fermi energy is     0.7376 ev

!    total energy              =   -1434.14792040 Ry
     Harris-Foulkes estimate   =   -1434.14794378 Ry
     estimated scf accuracy    <       0.00000278 Ry

     The total energy is the sum of the following terms:

     one-electron contribution =   -8455.08279241 Ry
     hartree contribution      =    4328.91139106 Ry
     xc contribution           =    -776.67791149 Ry
     ewald contribution        =    3468.72775462 Ry
     electric field correction =       0.00036029 Ry
     smearing contrib. (-TS)   =      -0.02672247 Ry

     convergence has been achieved in  10 iterations

 BEEF-vdW xc energy contributions
           1 :   -694.001350849857
           2 :    644.815063314591
           3 :   -556.957565356686
           4 :    447.584102048230
           5 :   -335.129336930958
           6 :    234.551381744676
           7 :   -154.532313319681
           8 :    97.0647219327990
           9 :   -59.1106764812490
          10 :    35.3054834514877
          11 :   -20.4923948213151
          12 :    11.1588513028014
          13 :   -5.54974813687625
          14 :    2.86652910109831
          15 :   -2.31008807809565
          16 :    2.58313309542518
          17 :   -2.07209539382427
          18 :  -0.511297885621275
          19 :    5.47056004971284
          20 :   -11.8825376042236
          21 :    17.9488533679249
          22 :   -21.7941142463552
          23 :    22.3058166468246
          24 :   -19.6030221215543
          25 :    14.9201990719583
          26 :   -9.99969786365273
          27 :    6.31600561617790
          28 :   -4.51920001960468
          29 :    4.33575496049127
          30 :   -4.92252854126684
          31 :   -55.0245354440555
          32 :   -40.0495963441045

     Forces acting on atoms (Ry/au):

     negative rho (up, down):  4.287E-04 0.000E+00
     atom    1 type  1   force =     0.00000018    0.00000247   -0.00430638
     atom    2 type  1   force =    -0.00000157    0.00061258   -0.00390768
     atom    3 type  1   force =     0.00052935   -0.00030942   -0.00391085
     atom    4 type  1   force =    -0.00052696   -0.00030647   -0.00389925
     atom    5 type  1   force =     0.00098956   -0.00056754    0.00092889
     atom    6 type  1   force =    -0.00098715   -0.00057400    0.00092995
     atom    7 type  1   force =     0.00000033    0.00000090    0.02381076
     atom    8 type  1   force =     0.00000244    0.00114154    0.00092141
     atom    9 type  1   force =    -0.07090307   -0.04093689   -0.03464456
     atom   10 type  1   force =     0.07089830   -0.04093529   -0.03464564
     atom   11 type  1   force =    -0.00000182    0.08187175   -0.03464375
     atom   12 type  1   force =     0.00000034   -0.00000074   -0.00819385
     atom   13 type  2   force =    -0.00000006    0.00000060    0.04209362
     atom   14 type  3   force =     0.00000014    0.00000051    0.05946734

     Total force =     0.170542     Total SCF correction =     0.001248

     entering subroutine stress ...

     negative rho (up, down):  4.287E-04 0.000E+00
          total   stress  (Ry/bohr**3)                   (kbar)     P=    1.58
  -0.00002115  -0.00000000  -0.00000000         -3.11     -0.00     -0.00
  -0.00000000  -0.00002115  -0.00000000         -0.00     -3.11     -0.00
  -0.00000000  -0.00000000   0.00007460         -0.00     -0.00     10.97

     BFGS Geometry Optimization

     number of scf cycles    =   1
     number of bfgs steps    =   0

     energy   new            =   -1434.1479203985 Ry

     new trust radius        =       0.0889006163 bohr
     new conv_thr            =       0.0000099958 Ry

ATOMIC_POSITIONS (crystal)
Au1      0.166666667   0.166666667   0.402269971    0   0   0
Au1      0.666666667   0.166666667   0.402269971    0   0   0
Au1      0.166666667   0.666666667   0.402269971    0   0   0
Au1      0.666666667   0.666666667   0.402269971    0   0   0
Au1      0.833333333   0.333333333   0.500000000    0   0   0
Au1      0.333333333   0.333333333   0.500000000    0   0   0
Au1      0.833333333   0.833333333   0.500000000    0   0   0
Au1      0.333333333   0.833333333   0.500000000    0   0   0
Au1     -0.004203235  -0.004203386   0.596992543
Au1      0.508406115  -0.004203222   0.596992520
Au1     -0.004203444   0.508406564   0.596992560
Au1      0.500000068   0.499999925   0.597555605
O1       0.166666631   0.166666728   0.651444132
H1       0.166666653   0.166666719   0.690029617

     Writing output data file calc.save
     Check: negative starting charge=   -0.000247
     NEW-OLD atomic charge density approx. for the potential

     Check: negative/imaginary core charge=   -0.000002    0.000000
     Check: negative starting charge=   -0.000243

[...]

     energy   old            =   -1434.1479203985 Ry
     energy   new            =   -1434.1710157699 Ry

     CASE: energy  _new < energy  _old

[...]

     Total force =     0.007816     Total SCF correction =     0.000846
     SCF correction compared to forces is large: reduce conv_thr to get better values

[...]

     Total force =     0.007610     Total SCF correction =     0.000386

[...]

     number of scf cycles    =  13
     number of bfgs steps    =  12

     energy   old            =   -1434.1877519625 Ry
     energy   new            =   -1434.1878388517 Ry

     CASE: energy  _new < energy  _old

     new trust radius        =       0.0058879996 bohr
     new conv_thr            =       0.0000001000 Ry

ATOMIC_POSITIONS (crystal)
Au1      0.166666667   0.166666667   0.402269971    0   0   0
Au1      0.666666667   0.166666667   0.402269971    0   0   0
Au1      0.166666667   0.666666667   0.402269971    0   0   0
Au1      0.666666667   0.666666667   0.402269971    0   0   0
Au1      0.833333333   0.333333333   0.500000000    0   0   0
Au1      0.333333333   0.333333333   0.500000000    0   0   0
Au1      0.833333333   0.833333333   0.500000000    0   0   0
Au1      0.333333333   0.833333333   0.500000000    0   0   0
Au1     -0.008176078  -0.008176652   0.597511755
Au1      0.516352930  -0.008176833   0.597511743
Au1     -0.008177002   0.516353725   0.597511705
Au1      0.499999949   0.500000171   0.595019577
O1       0.166666873   0.166665948   0.659594821
H1       0.166666486   0.166667013   0.698870993

     Writing output data file calc.save
     Check: negative starting charge=   -0.000242
     NEW-OLD atomic charge density approx. for the potential

     Check: negative/imaginary core charge=   -0.000002    0.000000
     Check: negative starting charge=   -0.000242

[...]

     Self-consistent Calculation

[...]

     Threshold (ethr) on eigenvalues was too large:
     Diagonalizing with lowered threshold

     Davidson diagonalization with overlap
     ethr =  1.15E-08,  avg # of iterations =  2.0

[...]

     total energy              =   -1434.18786421 Ry
     Harris-Foulkes estimate   =   -1434.18786432 Ry
     estimated scf accuracy    <       0.00000059 Ry

     iteration #  5     ecut=    36.75 Ry     beta=0.30
     Davidson diagonalization with overlap
     ethr =  4.26E-10,  avg # of iterations =  2.0

[...]

     negative rho (up, down):  4.419E-04 0.000E+00

     Adding external electric field

     Computed dipole along edir(3) :
        Dipole                0.2200 Ry au,          0.5593 Debye
        Dipole field          0.0005 Ry au

        Potential amp.       -0.0492 Ry
        Total length         45.8022 bohr

     End of self-consistent calculation

[...]

          k = 0.0560-0.0647 0.0000 ( 19376 PWs)   bands (ev):

[...]

          k =-0.0840-0.0485 0.0000 ( 19380 PWs)   bands (ev):

   -18.4796  -6.9478  -6.1897  -6.0432  -5.1408  -5.0382  -4.9436  -4.8905
    -4.8558  -4.8263  -4.8015  -4.7656  -4.5300  -4.4925  -4.3758  -4.3251
    -4.1952  -4.1816  -4.0605  -4.0463  -4.0002  -3.9828  -3.8855  -3.8398
    -3.7188  -3.6669  -3.6237  -3.5592  -3.3952  -3.3860  -3.2741  -3.2279
    -3.2238  -3.1725  -3.1109  -3.1058  -3.0783  -3.0634  -3.0353  -2.9855
    -2.9800  -2.8326  -2.7788  -2.7284  -2.6244  -2.5752  -2.5400  -2.5173
    -2.4474  -2.4350  -2.3423  -2.3089  -2.2994  -2.2984  -2.0608  -2.0284
    -2.0034  -1.9590  -1.8126  -1.7864  -1.5852  -1.5705  -1.5286  -1.4626
    -1.3586  -1.1391  -0.7586  -0.6974   0.4656   0.5146   0.9069   1.0210
     1.8297   1.8739   3.5929   3.8309   4.0091   4.1670   5.2888

     the Fermi energy is     0.4829 ev

!    total energy              =   -1434.18786428 Ry
     Harris-Foulkes estimate   =   -1434.18786455 Ry
     estimated scf accuracy    <       0.00000009 Ry

     The total energy is the sum of the following terms:

     one-electron contribution =   -8414.22624506 Ry
     hartree contribution      =    4307.86027802 Ry
     xc contribution           =    -776.55314261 Ry
     ewald contribution        =    3448.75811802 Ry
     electric field correction =       0.00011825 Ry
     smearing contrib. (-TS)   =      -0.02699090 Ry

     convergence has been achieved in   5 iterations

 BEEF-vdW xc energy contributions
           1 :   -693.866568393992
           2 :    644.621342299077
           3 :   -556.709558756887
           4 :    447.349242900855
           5 :   -334.987869530745
           6 :    234.542481839699
           7 :   -154.628729114312
           8 :    97.1902816137975
           9 :   -59.1853946397464
          10 :    35.2897202121229
          11 :   -20.4048931676664
          12 :    11.0591322508927
          13 :   -5.49763056018787
          14 :    2.88550229376619
          15 :   -2.37618920590376
          16 :    2.64491538516972
          17 :   -2.08723013030954
          18 :  -0.548059681410678
          19 :    5.52540003184868
          20 :   -11.9058314417773
          21 :    17.9095298647829
          22 :   -21.7022894326724
          23 :    22.2089161276874
          24 :   -19.5578698143490
          25 :    14.9570196852994
          26 :   -10.0998321754371
          27 :    6.41910340552568
          28 :   -4.55714220818095
          29 :    4.27359983883844
          30 :   -4.78189572981478
          31 :   -55.0167865148376
          32 :   -40.0298768376061

     Forces acting on atoms (Ry/au):

     negative rho (up, down):  4.419E-04 0.000E+00
     atom    1 type  1   force =     0.00000001   -0.00000002   -0.00323129
     atom    2 type  1   force =    -0.00000000    0.00048314   -0.00349565
     atom    3 type  1   force =     0.00041842   -0.00024158   -0.00349565
     atom    4 type  1   force =    -0.00041841   -0.00024157   -0.00349565
     atom    5 type  1   force =     0.00456267   -0.00263434    0.00174608
     atom    6 type  1   force =    -0.00456269   -0.00263432    0.00174616
     atom    7 type  1   force =     0.00000005    0.00000025    0.00921608
     atom    8 type  1   force =    -0.00000002    0.00526858    0.00174581
     atom    9 type  1   force =    -0.00030372   -0.00017464   -0.00039229
     atom   10 type  1   force =     0.00030349   -0.00017425   -0.00039216
     atom   11 type  1   force =     0.00000024    0.00034862   -0.00039175
     atom   12 type  1   force =    -0.00000016   -0.00000056    0.00012788
     atom   13 type  2   force =     0.00000020    0.00000095   -0.00043224
     atom   14 type  3   force =    -0.00000006   -0.00000025    0.00074466

     Total force =     0.001259     Total SCF correction =     0.000441
     SCF correction compared to forces is large: reduce conv_thr to get better values

     entering subroutine stress ...

     negative rho (up, down):  4.419E-04 0.000E+00
          total   stress  (Ry/bohr**3)                   (kbar)     P=   -5.46
  -0.00006046  -0.00000000   0.00000000         -8.89     -0.00      0.00
  -0.00000000  -0.00006046   0.00000000         -0.00     -8.89      0.00
   0.00000000   0.00000000   0.00000967          0.00      0.00      1.42

     bfgs converged in  14 scf cycles and  13 bfgs steps
     (criteria: energy <  1.0E+00, force <  1.9E-03)

     End of BFGS Geometry Optimization

     Final energy   =   -1434.1878642785 Ry
Begin final coordinates

ATOMIC_POSITIONS (crystal)
Au1      0.166666667   0.166666667   0.402269971    0   0   0
Au1      0.666666667   0.166666667   0.402269971    0   0   0
Au1      0.166666667   0.666666667   0.402269971    0   0   0
Au1      0.666666667   0.666666667   0.402269971    0   0   0
Au1      0.833333333   0.333333333   0.500000000    0   0   0
Au1      0.333333333   0.333333333   0.500000000    0   0   0
Au1      0.833333333   0.833333333   0.500000000    0   0   0
Au1      0.333333333   0.833333333   0.500000000    0   0   0
Au1     -0.008176078  -0.008176652   0.597511755
Au1      0.516352930  -0.008176833   0.597511743
Au1     -0.008177002   0.516353725   0.597511705
Au1      0.499999949   0.500000171   0.595019577
O1       0.166666873   0.166665948   0.659594821
H1       0.166666486   0.166667013   0.698870993
End final coordinates

     Writing output data file calc.save

     General routines

     Parallel routines

   This run was terminated on:  13:25:36  16Apr2018

   JOB DONE.
Job  /afs/slac/g/suncat/bin/suncat-tsmpirun -x LD_LIBRARY_PATH -wdir /scratch/qe119798_yqweB pw.x -npool 4 -in pw.inp

TID   HOST_NAME   COMMAND_LINE            STATUS            TERMINATION_TIME
00000 suncat0066 pw.x -npool 4 -i  Done                     04/16/2018 13:25:36
00001 suncat0066 pw.x -npool 4 -i  Done                     04/16/2018 13:25:36
00002 suncat0066 pw.x -npool 4 -i  Done                     04/16/2018 13:25:36
00003 suncat0066 pw.x -npool 4 -i  Done                     04/16/2018 13:25:36
00004 suncat0066 pw.x -npool 4 -i  Done                     04/16/2018 13:25:36
00005 suncat0066 pw.x -npool 4 -i  Done                     04/16/2018 13:25:36
00006 suncat0066 pw.x -npool 4 -i  Done                     04/16/2018 13:25:36
00007 suncat0066 pw.x -npool 4 -i  Done                     04/16/2018 13:25:36
00008 suncat0062 pw.x -npool 4 -i  Done                     04/16/2018 13:25:36
00009 suncat0062 pw.x -npool 4 -i  Done                     04/16/2018 13:25:36
00010 suncat0062 pw.x -npool 4 -i  Done                     04/16/2018 13:25:36
00011 suncat0062 pw.x -npool 4 -i  Done                     04/16/2018 13:25:36
00012 suncat0062 pw.x -npool 4 -i  Done                     04/16/2018 13:25:36
00013 suncat0062 pw.x -npool 4 -i  Done                     04/16/2018 13:25:36
00014 suncat0062 pw.x -npool 4 -i  Done                     04/16/2018 13:25:36
00015 suncat0062 pw.x -npool 4 -i  Done                     04/16/2018 13:25:36
00016 suncat0151 pw.x -npool 4 -i  Done                     04/16/2018 13:25:36
00017 suncat0151 pw.x -npool 4 -i  Done                     04/16/2018 13:25:36
00018 suncat0151 pw.x -npool 4 -i  Done                     04/16/2018 13:25:36
00019 suncat0151 pw.x -npool 4 -i  Done                     04/16/2018 13:25:36
00020 suncat0151 pw.x -npool 4 -i  Done                     04/16/2018 13:25:36
00021 suncat0151 pw.x -npool 4 -i  Done                     04/16/2018 13:25:36
00022 suncat0151 pw.x -npool 4 -i  Done                     04/16/2018 13:25:36
00023 suncat0151 pw.x -npool 4 -i  Done                     04/16/2018 13:25:36
00024 suncat0121 pw.x -npool 4 -i  Done                     04/16/2018 13:25:36
00025 suncat0121 pw.x -npool 4 -i  Done                     04/16/2018 13:25:36
00026 suncat0121 pw.x -npool 4 -i  Done                     04/16/2018 13:25:36
00027 suncat0121 pw.x -npool 4 -i  Done                     04/16/2018 13:25:36
00028 suncat0121 pw.x -npool 4 -i  Done                     04/16/2018 13:25:36
00029 suncat0121 pw.x -npool 4 -i  Done                     04/16/2018 13:25:36
00030 suncat0121 pw.x -npool 4 -i  Done                     04/16/2018 13:25:36
00031 suncat0121 pw.x -npool 4 -i  Done                     04/16/2018 13:25:36