     Program PWSCF v.5.1rc2 (svn rev. 11289) starts on  4May2018 at  9:55:21

     Current dimensions of program PWSCF are:
     Max number of different atomic species (ntypx) = 10
     Max number of k-points (npk) =  40000
     Max angular momentum in pseudopotentials (lmaxx) =  3
     Presently stress not available with electric field

     IMPORTANT: XC functional enforced from input :
     Exchange-correlation      = BEEF-VDW ( 1  4 27 13 2)
     Any further DFT definition will be discarded
     Please, verify this is what you really want

     Subspace diagonalization in iterative solution of the eigenvalue problem:
     a serial algorithm will be used

     bravais-lattice index     =            0
     lattice parameter (alat)  =       1.8897  a.u.
     unit-cell volume          =    5144.9564 (a.u.)^3
     number of atoms/cell      =           13
     number of atomic types    =            2
     number of electrons       =       138.00
     number of Kohn-Sham states=           79
     kinetic-energy cutoff     =      36.7493  Ry
     charge density cutoff     =     367.4932  Ry
     convergence threshold     =      1.0E-05
     mixing beta               =       0.3000
     number of iterations used =           10  plain     mixing
     Exchange-correlation      = BEEF-VDW ( 1  4 27 13 2)
     nstep                     =           50

     celldm(1)=   1.889726  celldm(2)=   0.000000  celldm(3)=   0.000000
     celldm(4)=   0.000000  celldm(5)=   0.000000  celldm(6)=   0.000000

     crystal axes: (cart. coord. in units of alat)
               a(1) = (   5.950946   0.000000   0.000000 )
               a(2) = (   2.975473   5.153671   0.000000 )
               a(3) = (   0.000000   0.000000  24.858927 )

     reciprocal axes: (cart. coord. in units 2 pi/alat)
               b(1) = (  0.168040 -0.097018  0.000000 )
               b(2) = (  0.000000  0.194036  0.000000 )
               b(3) = (  0.000000  0.000000  0.040227 )

     PseudoPot. # 1 for Au read from file:
     /u/if/mamunm/psp/gbrv1.5pbe/Au.UPF
     MD5 check sum: 9d7f43293ad2c663164586bc4b293ffc
     Pseudo is Ultrasoft + core correction, Zval = 11.0
     Generated by new atomic code, or converted to UPF format
     Using radial grid of  985 points,  7 beta functions with:
                l(1) =   0
                l(2) =   0
                l(3) =   1
                l(4) =   1
                l(5) =   2
                l(6) =   2
                l(7) =   3
     Q(r) pseudized with  6 coefficients,  rinner =    1.900   1.900   1.900
                                                       1.900   1.900   1.900
                                                       1.900

     PseudoPot. # 2 for O  read from file:
     /u/if/mamunm/psp/gbrv1.5pbe/O.UPF
     MD5 check sum: 734c27235a0248c51dbae37a1fbe46ec
     Pseudo is Ultrasoft + core correction, Zval =  6.0
     Generated by new atomic code, or converted to UPF format
     Using radial grid of  737 points,  5 beta functions with:
                l(1) =   0
                l(2) =   0
                l(3) =   1
                l(4) =   1
                l(5) =   2
     Q(r) pseudized with  8 coefficients,  rinner =    0.900   0.900   0.900
                                                       0.900   0.900

     vdW kernel table read from file vdW_kernel_table
     MD5 check sum: 095c7af220d748ca6e76c0b4c6cfb241

     atomic species   valence    mass     pseudopotential
        Au1           11.00   196.96657     Au( 1.00)
        O1             6.00    15.99900     O ( 1.00)

     No symmetry found

   Cartesian axes

     site n.     atom                  positions (alat units)
         1           Au1 tau(   1) = (   1.4877366   0.8589451  10.0000000  )
         2           Au1 tau(   2) = (   4.4632098   0.8589451  10.0000000  )
         3           Au1 tau(   3) = (   2.9754732   3.4357805  10.0000000  )
         4           Au1 tau(   4) = (   5.9509464   3.4357805  10.0000000  )
         5           Au1 tau(   5) = (   5.9509464   1.7178903  12.4294637  )
         6           Au1 tau(   6) = (   2.9754732   1.7178903  12.4294637  )
         7           Au1 tau(   7) = (   7.4386830   4.2947256  12.4294637  )
         8           Au1 tau(   8) = (   4.4632098   4.2947256  12.4294637  )
         9           Au1 tau(   9) = (   0.0000000   0.0000000  14.8589274  )
        10           Au1 tau(  10) = (   2.9754732   0.0000000  14.8589274  )
        11           Au1 tau(  11) = (   1.4877366   2.5768354  14.8589274  )
        12           Au1 tau(  12) = (   4.4632098   2.5768354  14.8589274  )
        13           O1  tau(  13) = (   2.9754732   1.7178903  16.1719274  )

     number of k points=    20  Fermi-Dirac smearing, width (Ry)=  0.0110
                       cart. coord. in units 2pi/alat
        k(    1) = (   0.0000000   0.0000000   0.0000000), wk =   0.0555556
        k(    2) = (   0.0000000   0.0323394   0.0000000), wk =   0.1111111
        k(    3) = (   0.0000000   0.0646788   0.0000000), wk =   0.1111111
        k(    4) = (   0.0000000  -0.0970182   0.0000000), wk =   0.0555556
        k(    5) = (   0.0280067  -0.0161697   0.0000000), wk =   0.1111111
        k(    6) = (   0.0280067   0.0161697   0.0000000), wk =   0.1111111
        k(    7) = (   0.0280067   0.0485091   0.0000000), wk =   0.1111111
        k(    8) = (   0.0280067  -0.1131879   0.0000000), wk =   0.1111111
        k(    9) = (   0.0280067  -0.0808485   0.0000000), wk =   0.1111111
        k(   10) = (   0.0280067  -0.0485091   0.0000000), wk =   0.1111111
        k(   11) = (   0.0560135  -0.0323394   0.0000000), wk =   0.1111111
        k(   12) = (   0.0560135   0.0000000   0.0000000), wk =   0.1111111
        k(   13) = (   0.0560135   0.0323394   0.0000000), wk =   0.1111111
        k(   14) = (   0.0560135  -0.1293576   0.0000000), wk =   0.1111111
        k(   15) = (   0.0560135  -0.0970182   0.0000000), wk =   0.1111111
        k(   16) = (   0.0560135  -0.0646788   0.0000000), wk =   0.1111111
        k(   17) = (  -0.0840202   0.0485091   0.0000000), wk =   0.0555556
        k(   18) = (  -0.0840202   0.0808485   0.0000000), wk =   0.1111111
        k(   19) = (  -0.0840202   0.1131879   0.0000000), wk =   0.1111111
        k(   20) = (  -0.0840202  -0.0485091   0.0000000), wk =   0.0555556

     Largest allocated arrays     est. size (Mb)     dimensions
     Largest temporary arrays     est. size (Mb)     dimensions

     Check: negative/imaginary core charge=   -0.000002    0.000000

     Initial potential from superposition of free atoms
     Check: negative starting charge=   -0.000290

     starting charge  137.99853, renormalised to  138.00000

     negative rho (up, down):  2.902E-04 0.000E+00

     *
     * You are using vdW-DF for exchange-correlation in this calculation.
     * Please cite the following three references that made this development
     * possible:
     *
     *   M. Dion, H. Rydberg, E. Schroder, D. C. Langreth, and
     *   B. I. Lundqvist, Phys. Rev. Lett. 92, 246401 (2004).
     *
     *   T. Thonhauser, V. R. Cooper, S. Li, A. Puzder, P. Hyldgaard, and
     *   D. C. Langreth, Phys. Rev. B 76, 125112 (2007).
     *
     *   G. Roman-Perez and J. M. Soler, Phys. Rev. Lett. 103, 096102 (2009).
     *
     *
     * If you are using vdW-DF2, please also cite:
     *
     *   K. Lee, E. D. Murray, L. Kong, B. I. Lundqvist, and
     *   D. C. Langreth, Phys. Rev. B 82, 081101(R) (2010).
     *
     *
     * If you are calculating the stress with vdW-DF, please also cite:
     *
     *   R. Sabatini, E. Kucukbenli, B. Kolb, T. Thonhauser, and
     *   S. de Gironcoli, J. Phys.: Condens. Matter 24, 424209 (2012).
     *

     Carrying out vdW-DF run using the following parameters:

     Nqs =      20    Nr_points =    1024   r_max =   100.000
     q_mesh =
               0.00001000     0.04494208     0.09755937     0.15916263
               0.23128650     0.31572767     0.41458969     0.53033537
               0.66584808     0.82450364     1.01025438     1.22772762
               1.48234092     1.78043706     2.12944203     2.53805004
               3.01644009     3.57652955     4.23227104     5.00000000

     Gradients computed in reciprocal space

     Adding external electric field

     Computed dipole along edir(3) :
        Dipole               -0.0004 Ry au,         -0.0011 Debye
        Dipole field         -0.0000 Ry au

        Potential amp.        0.0001 Ry
        Total length         45.8022 bohr

     Starting wfc are  112 randomized atomic wfcs

     Self-consistent Calculation

     iteration #  1     ecut=    36.75 Ry     beta=0.30
     Davidson diagonalization with overlap
     ethr =  1.00E-02,  avg # of iterations =  2.3

[...]

     total energy              =   -1432.24903272 Ry
     Harris-Foulkes estimate   =   -1433.10919515 Ry
     estimated scf accuracy    <       1.90967626 Ry

[...]

     End of self-consistent calculation

          k = 0.0000 0.0000 0.0000 ( 19315 PWs)   bands (ev):

   -17.8047  -8.1431  -6.6984  -6.4312  -6.2188  -6.2188  -6.1483  -6.0519
    -6.0074  -6.0074  -5.7309  -5.7309  -5.7123  -5.5974  -5.5871  -5.5871
    -4.9143  -4.9143  -4.6103  -4.4708  -4.4548  -4.4548  -4.3631  -4.3631
    -4.3210  -4.2475  -4.2475  -4.0265  -4.0265  -4.0019  -3.9373  -3.9373
    -3.8168  -3.7049  -3.7049  -3.3576  -3.2898  -3.2898  -3.0266  -3.0125
    -3.0125  -2.8100  -2.7636  -2.7636  -2.7014  -2.7014  -2.4638  -2.4638
    -2.3094  -2.2316  -2.2316  -2.2004  -2.2004  -2.1397  -2.0753  -2.0637
    -2.0637  -1.8945  -1.8443  -1.8443  -1.7897  -1.7811  -1.7811  -1.6370
    -1.1607  -0.9653  -0.9653   0.5232   0.5232   0.6410   0.9184   1.2270
     1.2270   1.3433   1.5069   1.5069   2.8715   3.1208   3.3415

[...]

          k =-0.0840 0.0485 0.0000 ( 19380 PWs)   bands (ev):

[...]

     the Fermi energy is    -0.1142 ev

!    total energy              =   -1432.87473879 Ry
     Harris-Foulkes estimate   =   -1432.87473266 Ry
     estimated scf accuracy    <       0.00000724 Ry

     The total energy is the sum of the following terms:

     one-electron contribution =   -8404.15382307 Ry
     hartree contribution      =    4299.85430886 Ry
     xc contribution           =    -775.63363683 Ry
     ewald contribution        =    3447.08531568 Ry
     electric field correction =       0.00020022 Ry
     smearing contrib. (-TS)   =      -0.02710366 Ry

     convergence has been achieved in  11 iterations

 BEEF-vdW xc energy contributions
           1 :   -693.116195623815
           2 :    644.018056133856
           3 :   -556.324043845130
           4 :    447.150876021146
           5 :   -334.880555269918
           6 :    234.432222161560
           7 :   -154.478166803869
           8 :    97.0310182930109
           9 :   -59.0878902476779
          10 :    35.3150704173308
          11 :   -20.5666764302860
          12 :    11.3112672104141
          13 :   -5.75125504532662
          14 :    3.05465371419882
          15 :   -2.42754761163110
          16 :    2.61015527304096
          17 :   -2.03038147405596
          18 :  -0.575415709501385
          19 :    5.51035845236140
          20 :   -11.8713360103307
          21 :    17.8896201380953
          22 :   -21.7131761773207
          23 :    22.2355359814026
          24 :   -19.5666680936100
          25 :    14.9252738121440
          26 :   -10.0375708167373
          27 :    6.36654634974389
          28 :   -4.55987538912177
          29 :    4.35278280467526
          30 :   -4.91840503159358
          31 :   -54.9118467744286
          32 :   -39.9696069914974

     Forces acting on atoms (Ry/au):

     negative rho (up, down):  3.887E-04 0.000E+00
     atom    1 type  1   force =    -0.00028112   -0.00017042   -0.00058563
     atom    2 type  1   force =     0.00028004   -0.00015648   -0.00057764
     atom    3 type  1   force =    -0.00000310    0.00032733   -0.00058194
     atom    4 type  1   force =    -0.00000115   -0.00000373   -0.00421227
     atom    5 type  1   force =    -0.00000913    0.00306995    0.00627526
     atom    6 type  1   force =     0.00000804   -0.00000974   -0.00845619
     atom    7 type  1   force =    -0.00266900   -0.00153454    0.00626901
     atom    8 type  1   force =     0.00266504   -0.00153400    0.00626782
     atom    9 type  1   force =     0.00000164   -0.00000298   -0.00883084
     atom   10 type  1   force =     0.00000179   -0.03656458   -0.00197816
     atom   11 type  1   force =    -0.03167459    0.01828216   -0.00197308
     atom   12 type  1   force =     0.03168030    0.01829411   -0.00198101
     atom   13 type  2   force =     0.00000124    0.00000292    0.01036469

     Total force =     0.064884     Total SCF correction =     0.009733
     SCF correction compared to forces is large: reduce conv_thr to get better values

     entering subroutine stress ...

     negative rho (up, down):  3.887E-04 0.000E+00
          total   stress  (Ry/bohr**3)                   (kbar)     P=   -6.25
  -0.00007437  -0.00000000   0.00000000        -10.94     -0.00      0.00
  -0.00000000  -0.00007437   0.00000000         -0.00    -10.94      0.00
   0.00000000   0.00000000   0.00002122          0.00      0.00      3.12

     BFGS Geometry Optimization

     number of scf cycles    =   1
     number of bfgs steps    =   0

     energy   new            =   -1432.8747387941 Ry

     new trust radius        =       0.0366365947 bohr
     new conv_thr            =       0.0000099958 Ry

ATOMIC_POSITIONS (crystal)
Au1      0.166666667   0.166666667   0.402269971    0   0   0
Au1      0.666666667   0.166666667   0.402269971    0   0   0
Au1      0.166666667   0.666666667   0.402269971    0   0   0
Au1      0.666666667   0.666666667   0.402269971    0   0   0
Au1      0.833333333   0.333333333   0.500000000    0   0   0
Au1      0.333333333   0.333333333   0.500000000    0   0   0
Au1      0.833333333   0.833333333   0.500000000    0   0   0
Au1      0.333333333   0.833333333   0.500000000    0   0   0
Au1      0.000000299  -0.000000306   0.597542045
Au1      0.501877379  -0.003754439   0.597687920
Au1     -0.003755209   0.501877206   0.597688028
Au1      0.501877897   0.501878433   0.597687859
O1       0.333333293   0.333333634   0.650768712

     Writing output data file calc.save
     Check: negative starting charge=   -0.000290
     NEW-OLD atomic charge density approx. for the potential

     Check: negative/imaginary core charge=   -0.000002    0.000000
     Check: negative starting charge=   -0.000289

[...]

     energy   old            =   -1432.8747387941 Ry
     energy   new            =   -1432.8781738902 Ry

     CASE: energy  _new < energy  _old

[...]

     Total force =     0.029638     Total SCF correction =     0.000239

[...]

     Threshold (ethr) on eigenvalues was too large:
     Diagonalizing with lowered threshold

     Davidson diagonalization with overlap
     ethr =  6.15E-09,  avg # of iterations =  4.0

[...]

     Total force =     0.004216     Total SCF correction =     0.000273

[...]

     number of scf cycles    =  13
     number of bfgs steps    =  12

     energy   old            =   -1432.8866029078 Ry
     energy   new            =   -1432.8866544091 Ry

     CASE: energy  _new < energy  _old

     new trust radius        =       0.0211459052 bohr
     new conv_thr            =       0.0000001000 Ry

ATOMIC_POSITIONS (crystal)
Au1      0.166666667   0.166666667   0.402269971    0   0   0
Au1      0.666666667   0.166666667   0.402269971    0   0   0
Au1      0.166666667   0.666666667   0.402269971    0   0   0
Au1      0.666666667   0.666666667   0.402269971    0   0   0
Au1      0.833333333   0.333333333   0.500000000    0   0   0
Au1      0.333333333   0.333333333   0.500000000    0   0   0
Au1      0.833333333   0.833333333   0.500000000    0   0   0
Au1      0.333333333   0.833333333   0.500000000    0   0   0
Au1      0.000000143   0.000000655   0.594426792
Au1      0.510547636  -0.021093314   0.601815166
Au1     -0.021093831   0.510547628   0.601815307
Au1      0.510546809   0.510547545   0.601815185
O1       0.333333863   0.333334761   0.647280173

     Writing output data file calc.save
     Check: negative starting charge=   -0.000291
     NEW-OLD atomic charge density approx. for the potential

     Check: negative/imaginary core charge=   -0.000002    0.000000
     Check: negative starting charge=   -0.000290

[...]

     Self-consistent Calculation

[...]

     Threshold (ethr) on eigenvalues was too large:
     Diagonalizing with lowered threshold

     Davidson diagonalization with overlap
     ethr =  7.79E-08,  avg # of iterations =  1.0

[...]

     total energy              =   -1432.88669289 Ry
     Harris-Foulkes estimate   =   -1432.88669294 Ry
     estimated scf accuracy    <       0.00000027 Ry

     iteration #  7     ecut=    36.75 Ry     beta=0.30
     Davidson diagonalization with overlap
     ethr =  1.97E-10,  avg # of iterations =  2.2

[...]

     negative rho (up, down):  3.608E-04 0.000E+00

     Adding external electric field

     Computed dipole along edir(3) :
        Dipole               -0.2456 Ry au,         -0.6242 Debye
        Dipole field         -0.0006 Ry au

        Potential amp.        0.0549 Ry
        Total length         45.8022 bohr

     End of self-consistent calculation

[...]

          k = 0.0560-0.0647 0.0000 ( 19376 PWs)   bands (ev):

[...]

          k =-0.0840-0.0485 0.0000 ( 19380 PWs)   bands (ev):

   -17.8269  -6.7769  -6.5689  -6.0467  -5.6039  -5.5065  -5.3982  -5.3869
    -5.3709  -5.3562  -5.3038  -5.1681  -5.1034  -4.9901  -4.9689  -4.9254
    -4.7962  -4.7205  -4.7140  -4.5759  -4.4950  -4.4734  -4.4695  -4.3850
    -4.3038  -4.2399  -4.2113  -4.1080  -3.9635  -3.9374  -3.8444  -3.8185
    -3.8074  -3.7565  -3.7011  -3.6578  -3.6073  -3.6055  -3.5880  -3.5514
    -3.4351  -3.4219  -3.3332  -3.2905  -3.2846  -3.1337  -3.1297  -3.0449
    -3.0218  -2.9621  -2.9330  -2.8847  -2.8603  -2.6979  -2.5760  -2.5712
    -2.5047  -2.4144  -2.2079  -2.1735  -2.1442  -2.1188  -1.9778  -1.9668
    -1.9174  -1.3591  -0.9998  -0.4961  -0.0550   0.0772   0.4428   0.5622
     1.4506   1.8162   3.1725   3.5319   3.5520   3.9620   5.2678

     the Fermi energy is    -0.0712 ev

!    total energy              =   -1432.88669293 Ry
     Harris-Foulkes estimate   =   -1432.88669209 Ry
     estimated scf accuracy    <       0.00000009 Ry

     The total energy is the sum of the following terms:

     one-electron contribution =   -8358.38146895 Ry
     hartree contribution      =    4277.19555924 Ry
     xc contribution           =    -775.62542619 Ry
     ewald contribution        =    3423.95092241 Ry
     electric field correction =       0.00014729 Ry
     smearing contrib. (-TS)   =      -0.02642673 Ry

     convergence has been achieved in   7 iterations

 BEEF-vdW xc energy contributions
           1 :   -693.106992090730
           2 :    643.986112128678
           3 :   -556.252099247770
           4 :    447.041217762651
           5 :   -334.758554515786
           6 :    234.329974059452
           7 :   -154.412511656088
           8 :    96.9940710047367
           9 :   -59.0567183690275
          10 :    35.2726163910932
          11 :   -20.5179315240580
          12 :    11.2835551893401
          13 :   -5.77578819436826
          14 :    3.13998191311475
          15 :   -2.54506856499870
          16 :    2.70517673210531
          17 :   -2.05357382105956
          18 :  -0.636343305922765
          19 :    5.61893365203582
          20 :   -11.9599934338769
          21 :    17.8989625309487
          22 :   -21.6293817677038
          23 :    22.1021079288007
          24 :   -19.4609137077817
          25 :    14.9121053450617
          26 :   -10.1284242482245
          27 :    6.50916066368018
          28 :   -4.66644258955864
          29 :    4.35176976629123
          30 :   -4.79937934871668
          31 :   -54.9109121704338
          32 :   -39.9602761548814

     Forces acting on atoms (Ry/au):

     negative rho (up, down):  3.608E-04 0.000E+00
     atom    1 type  1   force =    -0.00047910   -0.00027664   -0.00439834
     atom    2 type  1   force =     0.00047911   -0.00027660   -0.00439835
     atom    3 type  1   force =     0.00000003    0.00055324   -0.00439830
     atom    4 type  1   force =    -0.00000001   -0.00000000   -0.00464279
     atom    5 type  1   force =     0.00000012    0.00362479    0.00374616
     atom    6 type  1   force =    -0.00000008    0.00000008    0.00442210
     atom    7 type  1   force =    -0.00313896   -0.00181236    0.00374619
     atom    8 type  1   force =     0.00313909   -0.00181225    0.00374608
     atom    9 type  1   force =     0.00000028   -0.00000000    0.00074562
     atom   10 type  1   force =    -0.00000054   -0.00109532    0.00008925
     atom   11 type  1   force =    -0.00094914    0.00054751    0.00008892
     atom   12 type  1   force =     0.00095047    0.00054873    0.00008850
     atom   13 type  2   force =    -0.00000126   -0.00000116    0.00116497

     Total force =     0.002354     Total SCF correction =     0.000877
     SCF correction compared to forces is large: reduce conv_thr to get better values

     entering subroutine stress ...

     negative rho (up, down):  3.608E-04 0.000E+00
          total   stress  (Ry/bohr**3)                   (kbar)     P=   -5.71
  -0.00006631   0.00000000  -0.00000000         -9.76      0.00     -0.00
   0.00000000  -0.00006631  -0.00000000          0.00     -9.76     -0.00
  -0.00000000  -0.00000000   0.00001621         -0.00     -0.00      2.38

     bfgs converged in  14 scf cycles and  13 bfgs steps
     (criteria: energy <  1.0E+00, force <  1.9E-03)

     End of BFGS Geometry Optimization

     Final energy   =   -1432.8866929334 Ry
Begin final coordinates

ATOMIC_POSITIONS (crystal)
Au1      0.166666667   0.166666667   0.402269971    0   0   0
Au1      0.666666667   0.166666667   0.402269971    0   0   0
Au1      0.166666667   0.666666667   0.402269971    0   0   0
Au1      0.666666667   0.666666667   0.402269971    0   0   0
Au1      0.833333333   0.333333333   0.500000000    0   0   0
Au1      0.333333333   0.333333333   0.500000000    0   0   0
Au1      0.833333333   0.833333333   0.500000000    0   0   0
Au1      0.333333333   0.833333333   0.500000000    0   0   0
Au1      0.000000143   0.000000655   0.594426792
Au1      0.510547636  -0.021093314   0.601815166
Au1     -0.021093831   0.510547628   0.601815307
Au1      0.510546809   0.510547545   0.601815185
O1       0.333333863   0.333334761   0.647280173
End final coordinates

     Writing output data file calc.save

     General routines

     Parallel routines

   This run was terminated on:  11:26:42   4May2018

   JOB DONE.
Job  /afs/slac/g/suncat/bin/suncat-tsmpirun -x LD_LIBRARY_PATH -wdir /scratch/qe929831_5EXih pw.x -npool 4 -in pw.inp

TID   HOST_NAME   COMMAND_LINE            STATUS            TERMINATION_TIME
00000 suncat0093 pw.x -npool 4 -i  Done                     05/04/2018 11:26:42
00001 suncat0093 pw.x -npool 4 -i  Done                     05/04/2018 11:26:42
00002 suncat0093 pw.x -npool 4 -i  Done                     05/04/2018 11:26:42
00003 suncat0093 pw.x -npool 4 -i  Done                     05/04/2018 11:26:42
00004 suncat0093 pw.x -npool 4 -i  Done                     05/04/2018 11:26:42
00005 suncat0093 pw.x -npool 4 -i  Done                     05/04/2018 11:26:42
00006 suncat0093 pw.x -npool 4 -i  Done                     05/04/2018 11:26:42
00007 suncat0093 pw.x -npool 4 -i  Done                     05/04/2018 11:26:42
00008 suncat0085 pw.x -npool 4 -i  Done                     05/04/2018 11:26:42
00009 suncat0085 pw.x -npool 4 -i  Done                     05/04/2018 11:26:42
00010 suncat0085 pw.x -npool 4 -i  Done                     05/04/2018 11:26:42
00011 suncat0085 pw.x -npool 4 -i  Done                     05/04/2018 11:26:42
00012 suncat0085 pw.x -npool 4 -i  Done                     05/04/2018 11:26:42
00013 suncat0085 pw.x -npool 4 -i  Done                     05/04/2018 11:26:42
00014 suncat0085 pw.x -npool 4 -i  Done                     05/04/2018 11:26:42
00015 suncat0085 pw.x -npool 4 -i  Done                     05/04/2018 11:26:42
00016 suncat0083 pw.x -npool 4 -i  Done                     05/04/2018 11:26:42
00017 suncat0083 pw.x -npool 4 -i  Done                     05/04/2018 11:26:42
00018 suncat0083 pw.x -npool 4 -i  Done                     05/04/2018 11:26:42
00019 suncat0083 pw.x -npool 4 -i  Done                     05/04/2018 11:26:42
00020 suncat0083 pw.x -npool 4 -i  Done                     05/04/2018 11:26:42
00021 suncat0083 pw.x -npool 4 -i  Done                     05/04/2018 11:26:42
00022 suncat0083 pw.x -npool 4 -i  Done                     05/04/2018 11:26:42
00023 suncat0083 pw.x -npool 4 -i  Done                     05/04/2018 11:26:42
00024 suncat0063 pw.x -npool 4 -i  Done                     05/04/2018 11:26:42
00025 suncat0063 pw.x -npool 4 -i  Done                     05/04/2018 11:26:42
00026 suncat0063 pw.x -npool 4 -i  Done                     05/04/2018 11:26:42
00027 suncat0063 pw.x -npool 4 -i  Done                     05/04/2018 11:26:42
00028 suncat0063 pw.x -npool 4 -i  Done                     05/04/2018 11:26:42
00029 suncat0063 pw.x -npool 4 -i  Done                     05/04/2018 11:26:42
00030 suncat0063 pw.x -npool 4 -i  Done                     05/04/2018 11:26:42
00031 suncat0063 pw.x -npool 4 -i  Done                     05/04/2018 11:26:42