     Program PWSCF v.5.1rc2 (svn rev. 11289) starts on 25Apr2018 at  4:36:41

     Current dimensions of program PWSCF are:
     Max number of different atomic species (ntypx) = 10
     Max number of k-points (npk) =  40000
     Max angular momentum in pseudopotentials (lmaxx) =  3
     Presently stress not available with electric field

     IMPORTANT: XC functional enforced from input :
     Exchange-correlation      = BEEF-VDW ( 1  4 27 13 2)
     Any further DFT definition will be discarded
     Please, verify this is what you really want

     Subspace diagonalization in iterative solution of the eigenvalue problem:
     a serial algorithm will be used

     bravais-lattice index     =            0
     lattice parameter (alat)  =       1.8897  a.u.
     unit-cell volume          =    4515.4205 (a.u.)^3
     number of atoms/cell      =           14
     number of atomic types    =            3
     number of electrons       =       246.00
     number of Kohn-Sham states=          133
     kinetic-energy cutoff     =      36.7493  Ry
     charge density cutoff     =     367.4932  Ry
     convergence threshold     =      1.0E-05
     mixing beta               =       0.3000
     number of iterations used =           10  plain     mixing
     Exchange-correlation      = BEEF-VDW ( 1  4 27 13 2)
     nstep                     =           50

     celldm(1)=   1.889726  celldm(2)=   0.000000  celldm(3)=   0.000000
     celldm(4)=   0.000000  celldm(5)=   0.000000  celldm(6)=   0.000000

     crystal axes: (cart. coord. in units of alat)
               a(1) = (   5.606773   0.000000   0.000000 )
               a(2) = (   2.803387   4.855608   0.000000 )
               a(3) = (   0.000000   0.000000  24.577911 )

     reciprocal axes: (cart. coord. in units 2 pi/alat)
               b(1) = (  0.178356 -0.102974  0.000000 )
               b(2) = (  0.000000  0.205947  0.000000 )
               b(3) = (  0.000000  0.000000  0.040687 )

     PseudoPot. # 1 for Zn read from file:
     /u/if/mamunm/psp/gbrv1.5pbe/Zn.UPF
     MD5 check sum: df62231357ef9e81f77b2b3087fa5675
     Pseudo is Ultrasoft, Zval = 20.0
     Generated by new atomic code, or converted to UPF format
     Using radial grid of  943 points,  6 beta functions with:
                l(1) =   0
                l(2) =   0
                l(3) =   1
                l(4) =   1
                l(5) =   2
                l(6) =   2
     Q(r) pseudized with  8 coefficients,  rinner =    1.100   1.100   1.100
                                                       1.100   1.100

     PseudoPot. # 2 for N  read from file:
     /u/if/mamunm/psp/gbrv1.5pbe/N.UPF
     MD5 check sum: 95339753478d7afb44899504a8723017
     Pseudo is Ultrasoft + core correction, Zval =  5.0
     Generated by new atomic code, or converted to UPF format
     Using radial grid of  729 points,  4 beta functions with:
                l(1) =   0
                l(2) =   0
                l(3) =   1
                l(4) =   1
     Q(r) pseudized with  8 coefficients,  rinner =    0.900   0.900   0.900

     PseudoPot. # 3 for H  read from file:
     /u/if/mamunm/psp/gbrv1.5pbe/H.UPF
     MD5 check sum: 761ae9a214b05c3daf00ab9f6b793d6f
     Pseudo is Ultrasoft, Zval =  1.0
     Generated by new atomic code, or converted to UPF format
     Using radial grid of  615 points,  2 beta functions with:
                l(1) =   0
                l(2) =   0
     Q(r) pseudized with  8 coefficients,  rinner =    0.700

     vdW kernel table read from file vdW_kernel_table
     MD5 check sum: 095c7af220d748ca6e76c0b4c6cfb241

     atomic species   valence    mass     pseudopotential
        Zn1           20.00    65.38000     Zn( 1.00)
        N1             5.00    14.00700     N ( 1.00)
        H1             1.00     1.00800     H ( 1.00)

     No symmetry found

   Cartesian axes

     site n.     atom                  positions (alat units)
         1           Zn1 tau(   1) = (   1.4016933   0.8092680  10.0000000  )
         2           Zn1 tau(   2) = (   4.2050800   0.8092680  10.0000000  )
         3           Zn1 tau(   3) = (   2.8033867   3.2370721  10.0000000  )
         4           Zn1 tau(   4) = (   5.6067733   3.2370721  10.0000000  )
         5           Zn1 tau(   5) = (   5.6067733   1.6185360  12.2889556  )
         6           Zn1 tau(   6) = (   2.8033867   1.6185360  12.2889556  )
         7           Zn1 tau(   7) = (   7.0084667   4.0463401  12.2889556  )
         8           Zn1 tau(   8) = (   4.2050800   4.0463401  12.2889556  )
         9           Zn1 tau(   9) = (   0.0000000   0.0000000  14.5779113  )
        10           Zn1 tau(  10) = (   2.8033867   0.0000000  14.5779113  )
        11           Zn1 tau(  11) = (   1.4016933   2.4278041  14.5779113  )
        12           Zn1 tau(  12) = (   4.2050800   2.4278041  14.5779113  )
        13           N1  tau(  13) = (   2.8033867   1.6185360  15.8324113  )
        14           H1  tau(  14) = (   2.8033867   1.6185360  16.8824113  )

     number of k points=    20  Fermi-Dirac smearing, width (Ry)=  0.0110
                       cart. coord. in units 2pi/alat
        k(    1) = (   0.0000000   0.0000000   0.0000000), wk =   0.0555556
        k(    2) = (   0.0000000   0.0343246   0.0000000), wk =   0.1111111
        k(    3) = (   0.0000000   0.0686491   0.0000000), wk =   0.1111111
        k(    4) = (   0.0000000  -0.1029737   0.0000000), wk =   0.0555556
        k(    5) = (   0.0297260  -0.0171623   0.0000000), wk =   0.1111111
        k(    6) = (   0.0297260   0.0171623   0.0000000), wk =   0.1111111
        k(    7) = (   0.0297260   0.0514869   0.0000000), wk =   0.1111111
        k(    8) = (   0.0297260  -0.1201360   0.0000000), wk =   0.1111111
        k(    9) = (   0.0297260  -0.0858114   0.0000000), wk =   0.1111111
        k(   10) = (   0.0297260  -0.0514869   0.0000000), wk =   0.1111111
        k(   11) = (   0.0594519  -0.0343246   0.0000000), wk =   0.1111111
        k(   12) = (   0.0594519   0.0000000   0.0000000), wk =   0.1111111
        k(   13) = (   0.0594519   0.0343246   0.0000000), wk =   0.1111111
        k(   14) = (   0.0594519  -0.1372983   0.0000000), wk =   0.1111111
        k(   15) = (   0.0594519  -0.1029737   0.0000000), wk =   0.1111111
        k(   16) = (   0.0594519  -0.0686491   0.0000000), wk =   0.1111111
        k(   17) = (  -0.0891779   0.0514869   0.0000000), wk =   0.0555556
        k(   18) = (  -0.0891779   0.0858114   0.0000000), wk =   0.1111111
        k(   19) = (  -0.0891779   0.1201360   0.0000000), wk =   0.1111111
        k(   20) = (  -0.0891779  -0.0514869   0.0000000), wk =   0.0555556

     Largest allocated arrays     est. size (Mb)     dimensions
     Largest temporary arrays     est. size (Mb)     dimensions

     Initial potential from superposition of free atoms
     Check: negative starting charge=   -0.000780

     starting charge  245.99829, renormalised to  246.00000

     negative rho (up, down):  7.796E-04 0.000E+00

     *
     * You are using vdW-DF for exchange-correlation in this calculation.
     * Please cite the following three references that made this development
     * possible:
     *
     *   M. Dion, H. Rydberg, E. Schroder, D. C. Langreth, and
     *   B. I. Lundqvist, Phys. Rev. Lett. 92, 246401 (2004).
     *
     *   T. Thonhauser, V. R. Cooper, S. Li, A. Puzder, P. Hyldgaard, and
     *   D. C. Langreth, Phys. Rev. B 76, 125112 (2007).
     *
     *   G. Roman-Perez and J. M. Soler, Phys. Rev. Lett. 103, 096102 (2009).
     *
     *
     * If you are using vdW-DF2, please also cite:
     *
     *   K. Lee, E. D. Murray, L. Kong, B. I. Lundqvist, and
     *   D. C. Langreth, Phys. Rev. B 82, 081101(R) (2010).
     *
     *
     * If you are calculating the stress with vdW-DF, please also cite:
     *
     *   R. Sabatini, E. Kucukbenli, B. Kolb, T. Thonhauser, and
     *   S. de Gironcoli, J. Phys.: Condens. Matter 24, 424209 (2012).
     *

     Carrying out vdW-DF run using the following parameters:

     Nqs =      20    Nr_points =    1024   r_max =   100.000
     q_mesh =
               0.00001000     0.04494208     0.09755937     0.15916263
               0.23128650     0.31572767     0.41458969     0.53033537
               0.66584808     0.82450364     1.01025438     1.22772762
               1.48234092     1.78043706     2.12944203     2.53805004
               3.01644009     3.57652955     4.23227104     5.00000000

     Gradients computed in reciprocal space

     Adding external electric field

     Computed dipole along edir(3) :
        Dipole               -0.0002 Ry au,         -0.0004 Debye
        Dipole field         -0.0000 Ry au

        Potential amp.        0.0000 Ry
        Total length         45.2844 bohr

     Starting wfc are  161 randomized atomic wfcs

     Self-consistent Calculation

     iteration #  1     ecut=    36.75 Ry     beta=0.30
     Davidson diagonalization with overlap
     ethr =  1.00E-02,  avg # of iterations =  2.2

     Threshold (ethr) on eigenvalues was too large:
     Diagonalizing with lowered threshold

     Davidson diagonalization with overlap
     ethr =  6.82E-04,  avg # of iterations =  1.9

[...]

     total energy              =   -5574.33548856 Ry
     Harris-Foulkes estimate   =   -5575.08040212 Ry
     estimated scf accuracy    <       1.68686509 Ry

[...]

     End of self-consistent calculation

          k = 0.0000 0.0000 0.0000 ( 16931 PWs)   bands (ev):

  -126.1423-126.1138-126.1129-126.1129-125.9181-125.9172-125.9172-125.8996
  -125.8756-125.7781-125.7771-125.7771 -80.3184 -80.3167 -80.3167 -80.2958
   -80.2929 -80.2929 -80.2910 -80.2904 -80.2904 -80.2886 -80.2828 -80.2828
   -80.1055 -80.1040 -80.1040 -80.0981 -80.0954 -80.0954 -80.0875 -80.0862
   -80.0862 -80.0823 -80.0729 -80.0729 -80.0641 -80.0492 -80.0492 -80.0014
   -79.9947 -79.9947 -79.9805 -79.9805 -79.9767 -79.9033 -79.8979 -79.8979
   -14.4765  -8.8505  -7.8998  -7.6696  -7.6696  -7.6652  -7.6599  -7.5800
    -7.5800  -7.5671  -7.4782  -7.4700  -7.4700  -7.4023  -7.3381  -7.3381
    -7.1571  -7.1306  -7.1306  -7.0875  -7.0875  -7.0822  -7.0589  -7.0589
    -7.0277  -7.0160  -7.0160  -7.0017  -6.9611  -6.9611  -6.8745  -6.8745
    -6.7440  -6.7440  -6.6705  -6.6705  -6.6591  -6.6403  -6.6403  -6.6240
    -6.6193  -6.6053  -6.6053  -6.5546  -6.5546  -6.5417  -6.5379  -6.5379
    -6.5016  -6.5016  -6.4458  -6.4359  -6.4331  -6.4331  -6.4015  -6.4015
    -6.3682  -6.3359  -6.3298  -6.3298  -6.2643  -6.2643  -6.2264  -4.7394
    -3.0454  -2.4973  -2.4973  -1.8939  -1.6331  -1.6331  -1.4052  -1.4052
    -1.2851  -0.5990  -0.4769  -0.4769   0.5438   1.0435   1.1041   1.1041
     2.4698   2.8739   2.8739   3.0793   3.6033

[...]

          k =-0.0892 0.0515 0.0000 ( 17028 PWs)   bands (ev):

[...]

     the Fermi energy is     0.6547 ev

!    total energy              =   -5574.77926367 Ry
     Harris-Foulkes estimate   =   -5574.77927408 Ry
     estimated scf accuracy    <       0.00000464 Ry

     The total energy is the sum of the following terms:

     one-electron contribution =  -36187.01743561 Ry
     hartree contribution      =   18076.30478956 Ry
     xc contribution           =    -527.23296918 Ry
     ewald contribution        =   13063.19407009 Ry
     electric field correction =       0.00001899 Ry
     smearing contrib. (-TS)   =      -0.02773751 Ry

     convergence has been achieved in  10 iterations

 BEEF-vdW xc energy contributions
           1 :   -468.231923490686
           2 :    424.234819064934
           3 :   -350.491827841401
           4 :    268.416957625610
           5 :   -196.887455536041
           6 :    145.206239536260
           7 :   -111.900922669129
           8 :    89.0282528681001
           9 :   -68.6742512985259
          10 :    47.5704176876902
          11 :   -27.5433299425437
          12 :    12.4575651165554
          13 :   -4.42714441614783
          14 :    2.04475469674759
          15 :   -1.52604857630672
          16 :  -0.513725892041634
          17 :    4.89274147026708
          18 :   -9.81017236761636
          19 :    12.6843354810792
          20 :   -12.3090938986741
          21 :    9.71028932001548
          22 :   -7.22370050524671
          23 :    6.67292862570264
          24 :   -8.10314259591860
          25 :    9.96388526266145
          26 :   -10.4662242744562
          27 :    8.98295538049945
          28 :   -6.43413853802122
          29 :    4.46013459711025
          30 :   -4.11850203678921
          31 :   -36.4315366002882
          32 :   -24.8533025997659

     Forces acting on atoms (Ry/au):

     negative rho (up, down):  1.196E-03 0.000E+00
     atom    1 type  1   force =     0.00029182    0.00016985   -0.00939140
     atom    2 type  1   force =    -0.00029232    0.00016934   -0.00938999
     atom    3 type  1   force =     0.00000012   -0.00034376   -0.00939372
     atom    4 type  1   force =    -0.00000066    0.00000281   -0.00785455
     atom    5 type  1   force =    -0.00000026    0.00158179    0.00352888
     atom    6 type  1   force =    -0.00000154   -0.00000275    0.00117862
     atom    7 type  1   force =    -0.00137144   -0.00079300    0.00352954
     atom    8 type  1   force =     0.00137113   -0.00078804    0.00352860
     atom    9 type  1   force =    -0.00000172    0.00000473   -0.00202038
     atom   10 type  1   force =     0.00000313   -0.01911088    0.02611074
     atom   11 type  1   force =    -0.01655061    0.00955845    0.02612051
     atom   12 type  1   force =     0.01655305    0.00955185    0.02611834
     atom   13 type  2   force =    -0.00000050   -0.00000079   -0.00991203
     atom   14 type  3   force =    -0.00000021    0.00000041   -0.04215317

     Total force =     0.070860     Total SCF correction =     0.011420
     SCF correction compared to forces is large: reduce conv_thr to get better values

     entering subroutine stress ...

     negative rho (up, down):  1.196E-03 0.000E+00
          total   stress  (Ry/bohr**3)                   (kbar)     P=  -18.19
  -0.00015040  -0.00000000   0.00000000        -22.13     -0.00      0.00
  -0.00000000  -0.00015040  -0.00000000         -0.00    -22.13     -0.00
   0.00000000  -0.00000000  -0.00007019          0.00     -0.00    -10.33

     BFGS Geometry Optimization

     number of scf cycles    =   1
     number of bfgs steps    =   0

     energy   new            =   -5574.7792636724 Ry

     new trust radius        =       0.0421531745 bohr
     new conv_thr            =       0.0000099958 Ry

ATOMIC_POSITIONS (crystal)
Zn1      0.166666667   0.166666667   0.406869400    0   0   0
Zn1      0.666666667   0.166666667   0.406869400    0   0   0
Zn1      0.166666667   0.666666667   0.406869400    0   0   0
Zn1      0.666666667   0.666666667   0.406869400    0   0   0
Zn1      0.833333333   0.333333333   0.500000000    0   0   0
Zn1      0.333333333   0.333333333   0.500000000    0   0   0
Zn1      0.833333333   0.833333333   0.500000000    0   0   0
Zn1      0.333333333   0.833333333   0.500000000    0   0   0
Zn1     -0.000000420   0.000000516   0.593087100
Zn1      0.501041673  -0.002082756   0.593692780
Zn1     -0.002082929   0.501041705   0.593692991
Zn1      0.501041814   0.501040986   0.593692944
N1       0.333333330   0.333333247   0.643958955
H1       0.333333291   0.333333377   0.685986070

     Writing output data file calc.save
     Check: negative starting charge=   -0.000780
     NEW-OLD atomic charge density approx. for the potential
     Check: negative starting charge=   -0.000787

[...]

     Total force =     0.066049     Total SCF correction =     0.003360

[...]

     energy   old            =   -5574.7792636724 Ry
     energy   new            =   -5574.7838966789 Ry

     CASE: energy  _new < energy  _old

     WARNING: bfgs curvature condition failed, Theta= 0.974
     new trust radius        =       0.0463684920 bohr
     new conv_thr            =       0.0000001000 Ry

[...]

     WARNING: bfgs curvature condition failed, Theta= 0.978
     new trust radius        =       0.0109390315 bohr
     new conv_thr            =       0.0000001000 Ry

[...]

     Total force =     0.002650     Total SCF correction =     0.000399
     SCF correction compared to forces is large: reduce conv_thr to get better values

[...]

     number of scf cycles    =  17
     number of bfgs steps    =  16

     energy   old            =   -5574.8211074549 Ry
     energy   new            =   -5574.8211175265 Ry

     CASE: energy  _new < energy  _old

     new trust radius        =       0.0106105497 bohr
     new conv_thr            =       0.0000001000 Ry

ATOMIC_POSITIONS (crystal)
Zn1      0.166666667   0.166666667   0.406869400    0   0   0
Zn1      0.666666667   0.166666667   0.406869400    0   0   0
Zn1      0.166666667   0.666666667   0.406869400    0   0   0
Zn1      0.666666667   0.666666667   0.406869400    0   0   0
Zn1      0.833333333   0.333333333   0.500000000    0   0   0
Zn1      0.333333333   0.333333333   0.500000000    0   0   0
Zn1      0.833333333   0.833333333   0.500000000    0   0   0
Zn1      0.333333333   0.833333333   0.500000000    0   0   0
Zn1      0.000003073  -0.000001578   0.588617949
Zn1      0.517590432  -0.035186867   0.603958019
Zn1     -0.035189962   0.517597474   0.603958595
Zn1      0.517593335   0.517598328   0.603958775
N1       0.333334064   0.333334460   0.636812442
H1       0.333337047   0.333328476   0.678456802

     Writing output data file calc.save
     Check: negative starting charge=   -0.000812
     NEW-OLD atomic charge density approx. for the potential
     Check: negative starting charge=   -0.000811

[...]

     Self-consistent Calculation

[...]

     Threshold (ethr) on eigenvalues was too large:
     Diagonalizing with lowered threshold

     Davidson diagonalization with overlap
     ethr =  6.82E-09,  avg # of iterations =  2.0

[...]

     total energy              =   -5574.82113225 Ry
     Harris-Foulkes estimate   =   -5574.82113200 Ry
     estimated scf accuracy    <       0.00000047 Ry

     iteration #  6     ecut=    36.75 Ry     beta=0.30
     Davidson diagonalization with overlap
     ethr =  1.92E-10,  avg # of iterations =  2.4

[...]

     negative rho (up, down):  1.195E-03 0.000E+00

     Adding external electric field

     Computed dipole along edir(3) :
        Dipole                0.1951 Ry au,          0.4959 Debye
        Dipole field          0.0005 Ry au

        Potential amp.       -0.0492 Ry
        Total length         45.2844 bohr

     End of self-consistent calculation

[...]

          k = 0.0595-0.0686 0.0000 ( 16986 PWs)   bands (ev):

[...]

          k =-0.0892-0.0515 0.0000 ( 17028 PWs)   bands (ev):

  -125.9325-125.9322-125.9319-125.9118-125.7824-125.7821-125.7818-125.7711
  -125.7036-125.6179-125.6155-125.6154 -80.1132 -80.1111 -80.1102 -80.1096
   -80.1096 -80.1087 -80.1081 -80.1060 -80.1017 -80.0994 -80.0824 -80.0814
   -79.9706 -79.9702 -79.9698 -79.9593 -79.9582 -79.9556 -79.9552 -79.9543
   -79.9530 -79.9485 -79.9460 -79.9439 -79.8930 -79.8749 -79.8748 -79.8454
   -79.8372 -79.8368 -79.8145 -79.8138 -79.8047 -79.7520 -79.7349 -79.7339
   -15.0527  -7.6054  -7.4562  -7.3536  -7.2696  -7.2409  -7.2104  -7.2044
    -7.1911  -7.1624  -7.1583  -7.1215  -7.1127  -7.0845  -7.0316  -7.0089
    -6.9856  -6.9785  -6.9427  -6.9127  -6.8914  -6.8823  -6.8626  -6.8524
    -6.8252  -6.8100  -6.7900  -6.7837  -6.7706  -6.7637  -6.7315  -6.7181
    -6.7053  -6.6942  -6.6574  -6.6559  -6.6359  -6.6299  -6.6233  -6.5962
    -6.5819  -6.5591  -6.5377  -6.5265  -6.5235  -6.4844  -6.4842  -6.4737
    -6.4666  -6.4429  -6.4236  -6.3983  -6.3970  -6.3924  -6.3274  -6.2950
    -6.2842  -6.2816  -6.2755  -6.2608  -6.2458  -6.1597  -6.1418  -5.1490
    -5.0707  -3.7468  -3.4889  -2.9167  -2.7882  -2.5491  -1.9377  -0.9007
    -0.4311   0.0361   1.1139   1.5769   1.8456   2.7946   3.4723   3.5928
     3.6642   3.9037   4.0973   4.4507   4.8235

     the Fermi energy is     0.8393 ev

!    total energy              =   -5574.82113233 Ry
     Harris-Foulkes estimate   =   -5574.82113211 Ry
     estimated scf accuracy    <       0.00000004 Ry

     The total energy is the sum of the following terms:

     one-electron contribution =  -35528.64518346 Ry
     hartree contribution      =   17748.35432746 Ry
     xc contribution           =    -527.28412134 Ry
     ewald contribution        =   12732.77586810 Ry
     electric field correction =       0.00010594 Ry
     smearing contrib. (-TS)   =      -0.02212903 Ry

     convergence has been achieved in   6 iterations

 BEEF-vdW xc energy contributions
           1 :   -468.283254634481
           2 :    424.264411017991
           3 :   -350.461497065499
           4 :    268.292698934883
           5 :   -196.667422786147
           6 :    144.926483902700
           7 :   -111.620712483817
           8 :    88.8042299079660
           9 :   -68.5354474478240
          10 :    47.5057400444541
          11 :   -27.5079418931553
          12 :    12.3970646739160
          13 :   -4.30859230195557
          14 :    1.87721796958766
          15 :   -1.35814638587783
          16 :  -0.620454842890069
          17 :    4.90184887905758
          18 :   -9.73532310089786
          19 :    12.5824001943950
          20 :   -12.2449633793918
          21 :    9.71642172879484
          22 :   -7.28149219139908
          23 :    6.72905985928747
          24 :   -8.10941177303545
          25 :    9.91172120675441
          26 :   -10.3913116670843
          27 :    8.93718627931850
          28 :   -6.44535323709482
          29 :    4.50956312421238
          30 :   -4.15431884610115
          31 :   -36.4335265783433
          32 :   -24.8425567962003

     Forces acting on atoms (Ry/au):

     negative rho (up, down):  1.195E-03 0.000E+00
     atom    1 type  1   force =    -0.00084911   -0.00049021   -0.01165965
     atom    2 type  1   force =     0.00084905   -0.00049026   -0.01165956
     atom    3 type  1   force =    -0.00000006    0.00098050   -0.01165962
     atom    4 type  1   force =     0.00000005    0.00000002   -0.00710293
     atom    5 type  1   force =    -0.00000021    0.00561546    0.01054955
     atom    6 type  1   force =     0.00000017    0.00000004    0.00473300
     atom    7 type  1   force =    -0.00486310   -0.00280754    0.01054940
     atom    8 type  1   force =     0.00486353   -0.00280800    0.01054797
     atom    9 type  1   force =    -0.00000243    0.00000255    0.00169370
     atom   10 type  1   force =     0.00000252    0.00065559    0.00103845
     atom   11 type  1   force =     0.00056809   -0.00032844    0.00104046
     atom   12 type  1   force =    -0.00056749   -0.00033083    0.00103962
     atom   13 type  2   force =    -0.00000086   -0.00000064    0.00173814
     atom   14 type  3   force =    -0.00000016    0.00000176   -0.00084852

     Total force =     0.003338     Total SCF correction =     0.000324

     entering subroutine stress ...

     negative rho (up, down):  1.195E-03 0.000E+00
          total   stress  (Ry/bohr**3)                   (kbar)     P=  -11.60
  -0.00011549   0.00000000  -0.00000000        -16.99      0.00     -0.00
   0.00000000  -0.00011549   0.00000000          0.00    -16.99      0.00
  -0.00000000   0.00000000  -0.00000563         -0.00      0.00     -0.83

     bfgs converged in  18 scf cycles and  17 bfgs steps
     (criteria: energy <  1.0E+00, force <  1.9E-03)

     End of BFGS Geometry Optimization

     Final energy   =   -5574.8211323264 Ry
Begin final coordinates

ATOMIC_POSITIONS (crystal)
Zn1      0.166666667   0.166666667   0.406869400    0   0   0
Zn1      0.666666667   0.166666667   0.406869400    0   0   0
Zn1      0.166666667   0.666666667   0.406869400    0   0   0
Zn1      0.666666667   0.666666667   0.406869400    0   0   0
Zn1      0.833333333   0.333333333   0.500000000    0   0   0
Zn1      0.333333333   0.333333333   0.500000000    0   0   0
Zn1      0.833333333   0.833333333   0.500000000    0   0   0
Zn1      0.333333333   0.833333333   0.500000000    0   0   0
Zn1      0.000003073  -0.000001578   0.588617949
Zn1      0.517590432  -0.035186867   0.603958019
Zn1     -0.035189962   0.517597474   0.603958595
Zn1      0.517593335   0.517598328   0.603958775
N1       0.333334064   0.333334460   0.636812442
H1       0.333337047   0.333328476   0.678456802
End final coordinates

     Writing output data file calc.save

     General routines

     Parallel routines

   This run was terminated on:   6: 9:42  25Apr2018

   JOB DONE.
Job  /afs/slac/g/suncat/bin/suncat-tsmpirun -x LD_LIBRARY_PATH -wdir /scratch/qe311965_VkSo8 pw.x -npool 4 -in pw.inp

TID   HOST_NAME   COMMAND_LINE            STATUS            TERMINATION_TIME
00000 suncat0061 pw.x -npool 4 -i  Done                     04/25/2018 06:09:42
00001 suncat0061 pw.x -npool 4 -i  Done                     04/25/2018 06:09:42
00002 suncat0061 pw.x -npool 4 -i  Done                     04/25/2018 06:09:42
00003 suncat0061 pw.x -npool 4 -i  Done                     04/25/2018 06:09:42
00004 suncat0061 pw.x -npool 4 -i  Done                     04/25/2018 06:09:42
00005 suncat0061 pw.x -npool 4 -i  Done                     04/25/2018 06:09:42
00006 suncat0061 pw.x -npool 4 -i  Done                     04/25/2018 06:09:42
00007 suncat0061 pw.x -npool 4 -i  Done                     04/25/2018 06:09:42
00008 suncat0057 pw.x -npool 4 -i  Done                     04/25/2018 06:09:42
00009 suncat0057 pw.x -npool 4 -i  Done                     04/25/2018 06:09:42
00010 suncat0057 pw.x -npool 4 -i  Done                     04/25/2018 06:09:42
00011 suncat0057 pw.x -npool 4 -i  Done                     04/25/2018 06:09:42
00012 suncat0057 pw.x -npool 4 -i  Done                     04/25/2018 06:09:42
00013 suncat0057 pw.x -npool 4 -i  Done                     04/25/2018 06:09:42
00014 suncat0057 pw.x -npool 4 -i  Done                     04/25/2018 06:09:42
00015 suncat0057 pw.x -npool 4 -i  Done                     04/25/2018 06:09:42
00016 suncat0053 pw.x -npool 4 -i  Done                     04/25/2018 06:09:42
00017 suncat0053 pw.x -npool 4 -i  Done                     04/25/2018 06:09:42
00018 suncat0053 pw.x -npool 4 -i  Done                     04/25/2018 06:09:42
00019 suncat0053 pw.x -npool 4 -i  Done                     04/25/2018 06:09:42
00020 suncat0053 pw.x -npool 4 -i  Done                     04/25/2018 06:09:42
00021 suncat0053 pw.x -npool 4 -i  Done                     04/25/2018 06:09:42
00022 suncat0053 pw.x -npool 4 -i  Done                     04/25/2018 06:09:42
00023 suncat0053 pw.x -npool 4 -i  Done                     04/25/2018 06:09:42
00024 suncat0043 pw.x -npool 4 -i  Done                     04/25/2018 06:09:42
00025 suncat0043 pw.x -npool 4 -i  Done                     04/25/2018 06:09:42
00026 suncat0043 pw.x -npool 4 -i  Done                     04/25/2018 06:09:42
00027 suncat0043 pw.x -npool 4 -i  Done                     04/25/2018 06:09:42
00028 suncat0043 pw.x -npool 4 -i  Done                     04/25/2018 06:09:42
00029 suncat0043 pw.x -npool 4 -i  Done                     04/25/2018 06:09:42
00030 suncat0043 pw.x -npool 4 -i  Done                     04/25/2018 06:09:42
00031 suncat0043 pw.x -npool 4 -i  Done                     04/25/2018 06:09:42