     Program PWSCF v.5.1rc2 (svn rev. 11289) starts on 19Jan2018 at 18:47:40

     Current dimensions of program PWSCF are:
     Max number of different atomic species (ntypx) = 10
     Max number of k-points (npk) =  40000
     Max angular momentum in pseudopotentials (lmaxx) =  3
     Presently stress not available with electric field

     IMPORTANT: XC functional enforced from input :
     Exchange-correlation      = BEEF-VDW ( 1  4 27 13 2)
     Any further DFT definition will be discarded
     Please, verify this is what you really want

     Subspace diagonalization in iterative solution of the eigenvalue problem:
     a serial algorithm will be used

     bravais-lattice index     =            0
     lattice parameter (alat)  =       1.8897  a.u.
     unit-cell volume          =    4204.8134 (a.u.)^3
     number of atoms/cell      =           13
     number of atomic types    =            2
     number of electrons       =       184.00
     number of Kohn-Sham states=          102
     kinetic-energy cutoff     =      36.7493  Ry
     charge density cutoff     =     367.4932  Ry
     convergence threshold     =      1.0E-05
     mixing beta               =       0.3000
     number of iterations used =           10  plain     mixing
     Exchange-correlation      = BEEF-VDW ( 1  4 27 13 2)
     nstep                     =           50

     celldm(1)=   1.889726  celldm(2)=   0.000000  celldm(3)=   0.000000
     celldm(4)=   0.000000  celldm(5)=   0.000000  celldm(6)=   0.000000

     crystal axes: (cart. coord. in units of alat)
               a(1) = (   5.426750   0.000000   0.000000 )
               a(2) = (   2.713375   4.699703   0.000000 )
               a(3) = (   0.000000   0.000000  24.430923 )

     reciprocal axes: (cart. coord. in units 2 pi/alat)
               b(1) = (  0.184272 -0.106390  0.000000 )
               b(2) = (  0.000000  0.212779  0.000000 )
               b(3) = (  0.000000  0.000000  0.040932 )

     PseudoPot. # 1 for Rh read from file:
     /afs/slac.stanford.edu/u/if/mamunm/psp/gbrv1.5pbe/Rh.UPF
     MD5 check sum: 761627e959a2e3a1f56b0b5fe687810e
     Pseudo is Ultrasoft + core correction, Zval = 15.0
     Generated by new atomic code, or converted to UPF format
     Using radial grid of  969 points,  7 beta functions with:
                l(1) =   0
                l(2) =   0
                l(3) =   1
                l(4) =   1
                l(5) =   2
                l(6) =   2
                l(7) =   2
     Q(r) pseudized with  8 coefficients,  rinner =    1.200   1.200   1.200
                                                       1.200   1.200

     PseudoPot. # 2 for C  read from file:
     /afs/slac.stanford.edu/u/if/mamunm/psp/gbrv1.5pbe/C.UPF
     MD5 check sum: d1aef80898a10debaa0f26306b886e00
     Pseudo is Ultrasoft + core correction, Zval =  4.0
     Generated by new atomic code, or converted to UPF format
     Using radial grid of  721 points,  4 beta functions with:
                l(1) =   0
                l(2) =   0
                l(3) =   1
                l(4) =   1
     Q(r) pseudized with  8 coefficients,  rinner =    1.100   1.100   1.100

     vdW kernel table read from file vdW_kernel_table
     MD5 check sum: 095c7af220d748ca6e76c0b4c6cfb241

     atomic species   valence    mass     pseudopotential
        Rh1           15.00   102.90550     Rh( 1.00)
        C1             4.00    12.01100     C ( 1.00)

     No symmetry found

   Cartesian axes

     site n.     atom                  positions (alat units)
         1           Rh1 tau(   1) = (   1.3566875   0.7832839  10.0000000  )
         2           Rh1 tau(   2) = (   4.0700625   0.7832839  10.0000000  )
         3           Rh1 tau(   3) = (   2.7133750   3.1331356  10.0000000  )
         4           Rh1 tau(   4) = (   5.4267500   3.1331356  10.0000000  )
         5           Rh1 tau(   5) = (   5.4267500   1.5665678  12.2154614  )
         6           Rh1 tau(   6) = (   2.7133750   1.5665678  12.2154614  )
         7           Rh1 tau(   7) = (   6.7834375   3.9164194  12.2154614  )
         8           Rh1 tau(   8) = (   4.0700625   3.9164194  12.2154614  )
         9           Rh1 tau(   9) = (   0.0791912   0.0457111  14.6394567  )
        10           Rh1 tau(  10) = (   2.6342338   0.0456139  14.6395702  )
        11           Rh1 tau(  11) = (   1.3566407   2.2585650  14.6395396  )
        12           Rh1 tau(  12) = (   4.0701080   2.3499231  14.3949804  )
        13           C1  tau(  13) = (   1.3566767   0.7832579  15.8736647  )

     number of k points=    20  Fermi-Dirac smearing, width (Ry)=  0.0110
                       cart. coord. in units 2pi/alat
        k(    1) = (   0.0000000   0.0000000   0.0000000), wk =   0.0555556
        k(    2) = (   0.0000000   0.0354632   0.0000000), wk =   0.1111111
        k(    3) = (   0.0000000   0.0709265   0.0000000), wk =   0.1111111
        k(    4) = (   0.0000000  -0.1063897   0.0000000), wk =   0.0555556
        k(    5) = (   0.0307121  -0.0177316   0.0000000), wk =   0.1111111
        k(    6) = (   0.0307121   0.0177316   0.0000000), wk =   0.1111111
        k(    7) = (   0.0307121   0.0531948   0.0000000), wk =   0.1111111
        k(    8) = (   0.0307121  -0.1241213   0.0000000), wk =   0.1111111
        k(    9) = (   0.0307121  -0.0886581   0.0000000), wk =   0.1111111
        k(   10) = (   0.0307121  -0.0531948   0.0000000), wk =   0.1111111
        k(   11) = (   0.0614241  -0.0354632   0.0000000), wk =   0.1111111
        k(   12) = (   0.0614241   0.0000000   0.0000000), wk =   0.1111111
        k(   13) = (   0.0614241   0.0354632   0.0000000), wk =   0.1111111
        k(   14) = (   0.0614241  -0.1418529   0.0000000), wk =   0.1111111
        k(   15) = (   0.0614241  -0.1063897   0.0000000), wk =   0.1111111
        k(   16) = (   0.0614241  -0.0709265   0.0000000), wk =   0.1111111
        k(   17) = (  -0.0921362   0.0531948   0.0000000), wk =   0.0555556
        k(   18) = (  -0.0921362   0.0886581   0.0000000), wk =   0.1111111
        k(   19) = (  -0.0921362   0.1241213   0.0000000), wk =   0.1111111
        k(   20) = (  -0.0921362  -0.0531948   0.0000000), wk =   0.0555556

     Largest allocated arrays     est. size (Mb)     dimensions
     Largest temporary arrays     est. size (Mb)     dimensions

     Initial potential from superposition of free atoms
     Check: negative starting charge=   -0.659033

     starting charge  177.99878, renormalised to  184.00000

     negative rho (up, down):  6.813E-01 0.000E+00

     *
     * You are using vdW-DF for exchange-correlation in this calculation.
     * Please cite the following three references that made this development
     * possible:
     *
     *   M. Dion, H. Rydberg, E. Schroder, D. C. Langreth, and
     *   B. I. Lundqvist, Phys. Rev. Lett. 92, 246401 (2004).
     *
     *   T. Thonhauser, V. R. Cooper, S. Li, A. Puzder, P. Hyldgaard, and
     *   D. C. Langreth, Phys. Rev. B 76, 125112 (2007).
     *
     *   G. Roman-Perez and J. M. Soler, Phys. Rev. Lett. 103, 096102 (2009).
     *
     *
     * If you are using vdW-DF2, please also cite:
     *
     *   K. Lee, E. D. Murray, L. Kong, B. I. Lundqvist, and
     *   D. C. Langreth, Phys. Rev. B 82, 081101(R) (2010).
     *
     *
     * If you are calculating the stress with vdW-DF, please also cite:
     *
     *   R. Sabatini, E. Kucukbenli, B. Kolb, T. Thonhauser, and
     *   S. de Gironcoli, J. Phys.: Condens. Matter 24, 424209 (2012).
     *

     Carrying out vdW-DF run using the following parameters:

     Nqs =      20    Nr_points =    1024   r_max =   100.000
     q_mesh =
               0.00001000     0.04494208     0.09755937     0.15916263
               0.23128650     0.31572767     0.41458969     0.53033537
               0.66584808     0.82450364     1.01025438     1.22772762
               1.48234092     1.78043706     2.12944203     2.53805004
               3.01644009     3.57652955     4.23227104     5.00000000

     Gradients computed in reciprocal space

     Adding external electric field

     Computed dipole along edir(3) :
        Dipole               -0.9195 Ry au,         -2.3371 Debye
        Dipole field         -0.0027 Ry au

        Potential amp.        0.2474 Ry
        Total length         45.0136 bohr

     Starting wfc are  148 randomized atomic wfcs

     Self-consistent Calculation

     iteration #  1     ecut=    36.75 Ry     beta=0.30
     Davidson diagonalization with overlap
     ethr =  1.00E-02,  avg # of iterations =  2.0

[...]

     total energy              =   -2053.40182344 Ry
     Harris-Foulkes estimate   =   -2079.20931322 Ry
     estimated scf accuracy    <      53.65467504 Ry

[...]

     End of self-consistent calculation

          k = 0.0000 0.0000 0.0000 ( 15785 PWs)   bands (ev):

   -45.5726 -45.4754 -45.3789 -45.3786 -45.2615 -45.2613 -45.2556 -45.1975
   -45.1971 -45.1206 -45.0656 -45.0652 -45.0326 -45.0168 -45.0164 -44.9826
   -44.9824 -44.8722 -44.8422 -44.8420 -44.8081 -44.7917 -44.7373 -44.7236
   -44.7232 -44.7075 -44.7074 -44.6957 -44.6505 -44.6501 -44.6427 -44.6357
   -44.6353 -44.6269 -44.6101 -44.6100  -9.5184  -4.9673  -3.8794  -3.8793
    -3.8531  -3.7760  -3.6400  -3.5811  -3.5809  -3.5349  -3.3826  -3.2995
    -3.2993  -3.1941  -3.1940  -3.1273  -2.4699  -2.4698  -1.9123  -1.6418
    -1.6417  -1.4734  -1.3253  -1.3252  -1.2626  -1.0611  -1.0611  -0.8280
    -0.8279  -0.6823  -0.6823  -0.5901  -0.5574  -0.4178  -0.4177  -0.0354
     0.2611   0.2614   0.5587   0.6692   0.6857   0.6860   0.8000   0.8003
     1.0717   1.0718   1.4636   1.4638   1.5957   1.6443   1.7066   1.7069
     1.8124   1.8125   1.9729   2.2078   2.2316   2.2318   2.3201   2.3203
     2.3924   2.5231   2.5278   2.5281   2.7827   3.1113

[...]

          k =-0.0921 0.0532 0.0000 ( 15852 PWs)   bands (ev):

[...]

     the Fermi energy is     1.5305 ev

!    total energy              =   -2077.85802154 Ry
     Harris-Foulkes estimate   =   -2077.85802612 Ry
     estimated scf accuracy    <       0.00000459 Ry

     The total energy is the sum of the following terms:

     one-electron contribution =  -19099.44235273 Ry
     hartree contribution      =    9591.31798003 Ry
     xc contribution           =    -375.68255858 Ry
     ewald contribution        =    7806.07300197 Ry
     electric field correction =       0.00012567 Ry
     smearing contrib. (-TS)   =      -0.12421789 Ry

     convergence has been achieved in  22 iterations

 BEEF-vdW xc energy contributions
           1 :   -327.150609871288
           2 :    300.486520387123
           3 :   -254.367674195487
           4 :    200.253088705289
           5 :   -149.692617935202
           6 :    110.746575241104
           7 :   -86.1423323809855
           8 :    73.5952465725948
           9 :   -67.8570057569954
          10 :    63.4345491882852
          11 :   -56.7921429008256
          12 :    47.2352872193066
          13 :   -36.3729523391774
          14 :    26.6929249720371
          15 :   -20.0724812808762
          16 :    16.9097265365279
          17 :   -16.1511837383417
          18 :    16.0301544987882
[...]

[...]

     Total force =     0.077005     Total SCF correction =     0.005289

[...]

   This run was terminated on:  19:45:26  19Jan2018

[...]

     Total force =     0.035377     Total SCF correction =     0.004369
     SCF correction compared to forces is large: reduce conv_thr to get better values

[...]

   This run was terminated on:  20: 4: 7  19Jan2018

[...]

     Program PWSCF v.5.1rc2 (svn rev. 11289) starts on 19Jan2018 at 20: 4:14

[...]

   This run was terminated on:  20:24: 7  19Jan2018

[...]

   This run was terminated on:  20:42:53  19Jan2018

[...]

     Program PWSCF v.5.1rc2 (svn rev. 11289) starts on 19Jan2018 at 20:42:59

     Current dimensions of program PWSCF are:
     Max number of different atomic species (ntypx) = 10
     Max number of k-points (npk) =  40000
     Max angular momentum in pseudopotentials (lmaxx) =  3
     Presently stress not available with electric field

     IMPORTANT: XC functional enforced from input :
     Exchange-correlation      = BEEF-VDW ( 1  4 27 13 2)
     Any further DFT definition will be discarded
     Please, verify this is what you really want

     Subspace diagonalization in iterative solution of the eigenvalue problem:
     a serial algorithm will be used

     bravais-lattice index     =            0
     lattice parameter (alat)  =       1.8897  a.u.
     unit-cell volume          =    4204.8134 (a.u.)^3
     number of atoms/cell      =           13
     number of atomic types    =            2
     number of electrons       =       184.00
     number of Kohn-Sham states=          102
     kinetic-energy cutoff     =      36.7493  Ry
     charge density cutoff     =     367.4932  Ry
     convergence threshold     =      1.0E-05
     mixing beta               =       0.3000
     number of iterations used =           10  plain     mixing
     Exchange-correlation      = BEEF-VDW ( 1  4 27 13 2)
     nstep                     =           50

     celldm(1)=   1.889726  celldm(2)=   0.000000  celldm(3)=   0.000000
     celldm(4)=   0.000000  celldm(5)=   0.000000  celldm(6)=   0.000000

     crystal axes: (cart. coord. in units of alat)
               a(1) = (   5.426750   0.000000   0.000000 )
               a(2) = (   2.713375   4.699703   0.000000 )
               a(3) = (   0.000000   0.000000  24.430923 )

     reciprocal axes: (cart. coord. in units 2 pi/alat)
               b(1) = (  0.184272 -0.106390  0.000000 )
               b(2) = (  0.000000  0.212779  0.000000 )
               b(3) = (  0.000000  0.000000  0.040932 )

     PseudoPot. # 1 for Rh read from file:
     /afs/slac.stanford.edu/u/if/mamunm/psp/gbrv1.5pbe/Rh.UPF
     MD5 check sum: 761627e959a2e3a1f56b0b5fe687810e
     Pseudo is Ultrasoft + core correction, Zval = 15.0
     Generated by new atomic code, or converted to UPF format
     Using radial grid of  969 points,  7 beta functions with:
                l(1) =   0
                l(2) =   0
                l(3) =   1
                l(4) =   1
                l(5) =   2
                l(6) =   2
                l(7) =   2
     Q(r) pseudized with  8 coefficients,  rinner =    1.200   1.200   1.200
                                                       1.200   1.200

     PseudoPot. # 2 for C  read from file:
     /afs/slac.stanford.edu/u/if/mamunm/psp/gbrv1.5pbe/C.UPF
     MD5 check sum: d1aef80898a10debaa0f26306b886e00
     Pseudo is Ultrasoft + core correction, Zval =  4.0
     Generated by new atomic code, or converted to UPF format
     Using radial grid of  721 points,  4 beta functions with:
                l(1) =   0
                l(2) =   0
                l(3) =   1
                l(4) =   1
     Q(r) pseudized with  8 coefficients,  rinner =    1.100   1.100   1.100

     vdW kernel table read from file vdW_kernel_table
     MD5 check sum: 095c7af220d748ca6e76c0b4c6cfb241

     atomic species   valence    mass     pseudopotential
        Rh1           15.00   102.90550     Rh( 1.00)
        C1             4.00    12.01100     C ( 1.00)

     No symmetry found

   Cartesian axes

     site n.     atom                  positions (alat units)
         1           Rh1 tau(   1) = (   1.3566875   0.7832839  10.0000000  )
         2           Rh1 tau(   2) = (   4.0700625   0.7832839  10.0000000  )
         3           Rh1 tau(   3) = (   2.7133750   3.1331356  10.0000000  )
         4           Rh1 tau(   4) = (   5.4267500   3.1331356  10.0000000  )
         5           Rh1 tau(   5) = (   5.4267500   1.5665678  12.2154614  )
         6           Rh1 tau(   6) = (   2.7133750   1.5665678  12.2154614  )
         7           Rh1 tau(   7) = (   6.7834375   3.9164194  12.2154614  )
         8           Rh1 tau(   8) = (   4.0700625   3.9164194  12.2154614  )
         9           Rh1 tau(   9) = (   8.1083122   4.6814028  14.5324163  )
        10           Rh1 tau(  10) = (   5.4586588   4.6813432  14.5324155  )
        11           Rh1 tau(  11) = (   6.7834355   2.3864556  14.5324421  )
        12           Rh1 tau(  12) = (   4.0700443   2.3498095  14.3820629  )
        13           C1  tau(  13) = (   1.3566978   0.7833556  15.5598305  )

     number of k points=    20  Fermi-Dirac smearing, width (Ry)=  0.0110
                       cart. coord. in units 2pi/alat
        k(    1) = (   0.0000000   0.0000000   0.0000000), wk =   0.0555556
        k(    2) = (   0.0000000   0.0354632   0.0000000), wk =   0.1111111
        k(    3) = (   0.0000000   0.0709265   0.0000000), wk =   0.1111111
        k(    4) = (   0.0000000  -0.1063897   0.0000000), wk =   0.0555556
        k(    5) = (   0.0307121  -0.0177316   0.0000000), wk =   0.1111111
        k(    6) = (   0.0307121   0.0177316   0.0000000), wk =   0.1111111
        k(    7) = (   0.0307121   0.0531948   0.0000000), wk =   0.1111111
        k(    8) = (   0.0307121  -0.1241213   0.0000000), wk =   0.1111111
        k(    9) = (   0.0307121  -0.0886581   0.0000000), wk =   0.1111111
        k(   10) = (   0.0307121  -0.0531948   0.0000000), wk =   0.1111111
        k(   11) = (   0.0614241  -0.0354632   0.0000000), wk =   0.1111111
        k(   12) = (   0.0614241   0.0000000   0.0000000), wk =   0.1111111
        k(   13) = (   0.0614241   0.0354632   0.0000000), wk =   0.1111111
        k(   14) = (   0.0614241  -0.1418529   0.0000000), wk =   0.1111111
        k(   15) = (   0.0614241  -0.1063897   0.0000000), wk =   0.1111111
        k(   16) = (   0.0614241  -0.0709265   0.0000000), wk =   0.1111111
        k(   17) = (  -0.0921362   0.0531948   0.0000000), wk =   0.0555556
        k(   18) = (  -0.0921362   0.0886581   0.0000000), wk =   0.1111111
        k(   19) = (  -0.0921362   0.1241213   0.0000000), wk =   0.1111111
        k(   20) = (  -0.0921362  -0.0531948   0.0000000), wk =   0.0555556

     Largest allocated arrays     est. size (Mb)     dimensions
     Largest temporary arrays     est. size (Mb)     dimensions

     Initial potential from superposition of free atoms
     Check: negative starting charge=   -0.659805

     starting charge  177.99878, renormalised to  184.00000

[...]

     *
     * You are using vdW-DF for exchange-correlation in this calculation.
     * Please cite the following three references that made this development
     * possible:
     *
     *   M. Dion, H. Rydberg, E. Schroder, D. C. Langreth, and
     *   B. I. Lundqvist, Phys. Rev. Lett. 92, 246401 (2004).
     *
     *   T. Thonhauser, V. R. Cooper, S. Li, A. Puzder, P. Hyldgaard, and
     *   D. C. Langreth, Phys. Rev. B 76, 125112 (2007).
     *
     *   G. Roman-Perez and J. M. Soler, Phys. Rev. Lett. 103, 096102 (2009).
     *
     *
     * If you are using vdW-DF2, please also cite:
     *
     *   K. Lee, E. D. Murray, L. Kong, B. I. Lundqvist, and
     *   D. C. Langreth, Phys. Rev. B 82, 081101(R) (2010).
     *
     *
     * If you are calculating the stress with vdW-DF, please also cite:
     *
     *   R. Sabatini, E. Kucukbenli, B. Kolb, T. Thonhauser, and
     *   S. de Gironcoli, J. Phys.: Condens. Matter 24, 424209 (2012).
     *

     Carrying out vdW-DF run using the following parameters:

     Nqs =      20    Nr_points =    1024   r_max =   100.000
     q_mesh =
               0.00001000     0.04494208     0.09755937     0.15916263
               0.23128650     0.31572767     0.41458969     0.53033537
               0.66584808     0.82450364     1.01025438     1.22772762
               1.48234092     1.78043706     2.12944203     2.53805004
               3.01644009     3.57652955     4.23227104     5.00000000

     Gradients computed in reciprocal space

[...]

     Starting wfc are  148 randomized atomic wfcs

     Self-consistent Calculation

[...]

     total energy              =   -2077.89278687 Ry
     Harris-Foulkes estimate   =   -2077.89278842 Ry
     estimated scf accuracy    <       0.00001386 Ry

     iteration # 21     ecut=    36.75 Ry     beta=0.30
     Davidson diagonalization with overlap
     ethr =  7.53E-09,  avg # of iterations =  2.4

[...]

     negative rho (up, down):  6.944E-01 0.000E+00

     Adding external electric field

     Computed dipole along edir(3) :
        Dipole               -0.1357 Ry au,         -0.3450 Debye
        Dipole field         -0.0004 Ry au

        Potential amp.        0.0365 Ry
        Total length         45.0136 bohr

     End of self-consistent calculation

[...]

          k = 0.0614-0.0709 0.0000 ( 15838 PWs)   bands (ev):

[...]

          k =-0.0921-0.0532 0.0000 ( 15852 PWs)   bands (ev):

   -45.4189 -45.2880 -45.2684 -45.2158 -45.1616 -45.1555 -45.1398 -45.1310
   -45.1064 -45.1010 -45.0670 -44.9718 -44.9711 -44.9483 -44.9381 -44.9220
   -44.8716 -44.8414 -44.8341 -44.8119 -44.7688 -44.7479 -44.7288 -44.7228
   -44.7186 -44.6984 -44.6899 -44.6583 -44.5739 -44.5730 -44.5627 -44.5616
   -44.5411 -44.5376 -44.5368 -44.5244  -9.3360  -3.9992  -3.5437  -3.3500
    -3.0502  -2.9898  -2.9581  -2.8443  -2.8309  -2.6658  -2.6333  -2.5615
    -2.4761  -2.3389  -2.3063  -2.2941  -2.2054  -2.0561  -1.8252  -1.7832
    -1.6257  -1.5523  -1.5045  -1.4837  -1.4698  -1.3100  -1.1349  -1.0100
    -0.8642  -0.8541  -0.6230  -0.6113  -0.5909  -0.4818  -0.4414  -0.3667
    -0.3232  -0.3058  -0.2869  -0.2435  -0.1029   0.0372   0.2290   0.2604
     0.3069   0.3591   0.4338   0.5520   0.6275   0.7469   0.7965   0.8158
     0.8770   1.1196   1.1789   1.2518   1.3535   1.3575   1.6789   1.8472
     1.8754   2.0333   2.0710   2.2592   2.3909   3.1661

     the Fermi energy is     1.6338 ev

!    total energy              =   -2077.89278005 Ry
     Harris-Foulkes estimate   =   -2077.89279988 Ry
     estimated scf accuracy    <       0.00000915 Ry

     The total energy is the sum of the following terms:

     one-electron contribution =  -19387.79414600 Ry
     hartree contribution      =    9735.92361153 Ry
     xc contribution           =    -375.82557745 Ry
     ewald contribution        =    7949.92774052 Ry
     electric field correction =       0.00005506 Ry
     smearing contrib. (-TS)   =      -0.12446371 Ry

     convergence has been achieved in  21 iterations

 BEEF-vdW xc energy contributions
           1 :   -327.305663591901
           2 :    300.726011939969
           3 :   -254.702211492735
           4 :    200.604936890990
           5 :   -149.939443812822
           6 :    110.791162878070
           7 :   -85.9713802495711
           8 :    73.2941581781896
           9 :   -67.5699933259391
          10 :    63.2904120472762
          11 :   -56.8373932145228
          12 :    47.4141791784069
          13 :   -36.5669264833532
          14 :    26.7950413322329
          15 :   -20.0510581613922
          16 :    16.8247100304022
          17 :   -16.1148027736626
          18 :    16.1349135945035
          19 :   -15.2909684254041
          20 :    12.9147632243005
          21 :   -9.42277991119454
          22 :    5.90291456323030
          23 :   -3.42625770482954
          24 :    2.47283382606554
          25 :   -2.74435598447565
          26 :    3.40749147302904
          27 :   -3.59061090243631
          28 :    2.84702904131348
          29 :   -1.34338801462309
          30 :  -0.299482250163123
          31 :   -32.4444655829552
          32 :   -24.3760236425989

     Forces acting on atoms (Ry/au):

     negative rho (up, down):  6.944E-01 0.000E+00
     atom    1 type  1   force =     0.00000985    0.00000358    0.00790033
     atom    2 type  1   force =     0.00000048    0.00159082    0.00728998
     atom    3 type  1   force =     0.00138189   -0.00079596    0.00730339
     atom    4 type  1   force =    -0.00137839   -0.00079524    0.00734408
     atom    5 type  1   force =     0.00070508   -0.00039602   -0.00691366
     atom    6 type  1   force =    -0.00068775   -0.00039713   -0.00693405
     atom    7 type  1   force =    -0.00000930   -0.00001162   -0.00663574
     atom    8 type  1   force =     0.00001311    0.00080279   -0.00690366
     atom    9 type  1   force =    -0.00007939   -0.00010973   -0.00025805
     atom   10 type  1   force =     0.00000787   -0.00005759   -0.00022196
     atom   11 type  1   force =     0.00000910    0.00019655   -0.00027990
     atom   12 type  1   force =     0.00000204    0.00002802   -0.00087915
     atom   13 type  2   force =     0.00002541   -0.00005847   -0.00081161

     Total force =     0.020534     Total SCF correction =     0.018088
     SCF correction compared to forces is large: reduce conv_thr to get better values

     entering subroutine stress ...

     negative rho (up, down):  6.944E-01 0.000E+00
          total   stress  (Ry/bohr**3)                   (kbar)     P=  -25.67
  -0.00016656  -0.00000002  -0.00000003        -24.50     -0.00     -0.00
  -0.00000002  -0.00016652  -0.00000004         -0.00    -24.50     -0.01
  -0.00000003  -0.00000004  -0.00019048         -0.00     -0.01    -28.02

 !ASE

     Writing output data file calc.save

     General routines

     Parallel routines

   This run was terminated on:  21: 2:25  19Jan2018

   JOB DONE.
Job  /afs/slac/g/suncat/bin/suncat-tsmpirun -x LD_LIBRARY_PATH -wdir /scratch/qe869904_a6bdV pw.x -in pw.inp

TID   HOST_NAME   COMMAND_LINE            STATUS            TERMINATION_TIME
00000 suncat1053 pw.x -in pw.inp   Done                     01/19/2018 21:02:25
00001 suncat1053 pw.x -in pw.inp   Done                     01/19/2018 21:02:25
00002 suncat1053 pw.x -in pw.inp   Done                     01/19/2018 21:02:25
00003 suncat1053 pw.x -in pw.inp   Done                     01/19/2018 21:02:25
00004 suncat1053 pw.x -in pw.inp   Done                     01/19/2018 21:02:25
00005 suncat1053 pw.x -in pw.inp   Done                     01/19/2018 21:02:25
00006 suncat1053 pw.x -in pw.inp   Done                     01/19/2018 21:02:25
00007 suncat1053 pw.x -in pw.inp   Done                     01/19/2018 21:02:25
00008 suncat1045 pw.x -in pw.inp   Done                     01/19/2018 21:02:25
00009 suncat1045 pw.x -in pw.inp   Done                     01/19/2018 21:02:25
00010 suncat1045 pw.x -in pw.inp   Done                     01/19/2018 21:02:25
00011 suncat1045 pw.x -in pw.inp   Done                     01/19/2018 21:02:25
00012 suncat1045 pw.x -in pw.inp   Done                     01/19/2018 21:02:25
00013 suncat1045 pw.x -in pw.inp   Done                     01/19/2018 21:02:25
00014 suncat1045 pw.x -in pw.inp   Done                     01/19/2018 21:02:25
00015 suncat1045 pw.x -in pw.inp   Done                     01/19/2018 21:02:25
00016 suncat1045 pw.x -in pw.inp   Done                     01/19/2018 21:02:25
00017 suncat1045 pw.x -in pw.inp   Done                     01/19/2018 21:02:25
00018 suncat1045 pw.x -in pw.inp   Done                     01/19/2018 21:02:25
00019 suncat1045 pw.x -in pw.inp   Done                     01/19/2018 21:02:25
00020 suncat1022 pw.x -in pw.inp   Done                     01/19/2018 21:02:25
00021 suncat1022 pw.x -in pw.inp   Done                     01/19/2018 21:02:25
00022 suncat1022 pw.x -in pw.inp   Done                     01/19/2018 21:02:25
00023 suncat1022 pw.x -in pw.inp   Done                     01/19/2018 21:02:25
00024 suncat1022 pw.x -in pw.inp   Done                     01/19/2018 21:02:25
00025 suncat1022 pw.x -in pw.inp   Done                     01/19/2018 21:02:25
00026 suncat1022 pw.x -in pw.inp   Done                     01/19/2018 21:02:25
00027 suncat1022 pw.x -in pw.inp   Done                     01/19/2018 21:02:25
00028 suncat1022 pw.x -in pw.inp   Done                     01/19/2018 21:02:25
00029 suncat1022 pw.x -in pw.inp   Done                     01/19/2018 21:02:25
00030 suncat1022 pw.x -in pw.inp   Done                     01/19/2018 21:02:25
00031 suncat1022 pw.x -in pw.inp   Done                     01/19/2018 21:02:25