     Program PWSCF v.5.1rc2 (svn rev. 11289) starts on  4May2018 at 11: 3:13

     Current dimensions of program PWSCF are:
     Max number of different atomic species (ntypx) = 10
     Max number of k-points (npk) =  40000
     Max angular momentum in pseudopotentials (lmaxx) =  3
     Presently stress not available with electric field

     IMPORTANT: XC functional enforced from input :
     Exchange-correlation      = BEEF-VDW ( 1  4 27 13 2)
     Any further DFT definition will be discarded
     Please, verify this is what you really want

     Subspace diagonalization in iterative solution of the eigenvalue problem:
     a serial algorithm will be used

     bravais-lattice index     =            0
     lattice parameter (alat)  =       1.8897  a.u.
     unit-cell volume          =    5174.6160 (a.u.)^3
     number of atoms/cell      =           13
     number of atomic types    =            2
     number of electrons       =       234.00
     number of Kohn-Sham states=          127
     kinetic-energy cutoff     =      36.7493  Ry
     charge density cutoff     =     367.4932  Ry
     convergence threshold     =      1.0E-05
     mixing beta               =       0.3000
     number of iterations used =           10  plain     mixing
     Exchange-correlation      = BEEF-VDW ( 1  4 27 13 2)
     nstep                     =           50

     celldm(1)=   1.889726  celldm(2)=   0.000000  celldm(3)=   0.000000
     celldm(4)=   0.000000  celldm(5)=   0.000000  celldm(6)=   0.000000

     crystal axes: (cart. coord. in units of alat)
               a(1) = (   5.966546   0.000000   0.000000 )
               a(2) = (   2.983273   5.167181   0.000000 )
               a(3) = (   0.000000   0.000000  24.871665 )

     reciprocal axes: (cart. coord. in units 2 pi/alat)
               b(1) = (  0.167601 -0.096765  0.000000 )
               b(2) = (  0.000000  0.193529  0.000000 )
               b(3) = (  0.000000  0.000000  0.040206 )

     PseudoPot. # 1 for Ag read from file:
     /u/if/mamunm/psp/gbrv1.5pbe/Ag.UPF
     MD5 check sum: d66d668201baa78d5eb5b04ef7011058
     Pseudo is Ultrasoft + core correction, Zval = 19.0
     Generated by new atomic code, or converted to UPF format
     Using radial grid of  887 points,  6 beta functions with:
                l(1) =   0
                l(2) =   0
                l(3) =   1
                l(4) =   1
                l(5) =   2
                l(6) =   2
     Q(r) pseudized with  6 coefficients,  rinner =    1.300   1.300   1.300
                                                       1.300   1.300

     PseudoPot. # 2 for O  read from file:
     /u/if/mamunm/psp/gbrv1.5pbe/O.UPF
     MD5 check sum: 734c27235a0248c51dbae37a1fbe46ec
     Pseudo is Ultrasoft + core correction, Zval =  6.0
     Generated by new atomic code, or converted to UPF format
     Using radial grid of  737 points,  5 beta functions with:
                l(1) =   0
                l(2) =   0
                l(3) =   1
                l(4) =   1
                l(5) =   2
     Q(r) pseudized with  8 coefficients,  rinner =    0.900   0.900   0.900
                                                       0.900   0.900

     vdW kernel table read from file vdW_kernel_table
     MD5 check sum: 095c7af220d748ca6e76c0b4c6cfb241

     atomic species   valence    mass     pseudopotential
        Ag1           19.00   107.86820     Ag( 1.00)
        O1             6.00    15.99900     O ( 1.00)

     No symmetry found

   Cartesian axes

     site n.     atom                  positions (alat units)
         1           Ag1 tau(   1) = (   1.4916366   0.8611968  10.0000000  )
         2           Ag1 tau(   2) = (   4.4749098   0.8611968  10.0000000  )
         3           Ag1 tau(   3) = (   2.9832732   3.4447871  10.0000000  )
         4           Ag1 tau(   4) = (   5.9665464   3.4447871  10.0000000  )
         5           Ag1 tau(   5) = (   5.9665464   1.7223936  12.4358324  )
         6           Ag1 tau(   6) = (   2.9832732   1.7223936  12.4358324  )
         7           Ag1 tau(   7) = (   7.4581830   4.3059839  12.4358324  )
         8           Ag1 tau(   8) = (   4.4749098   4.3059839  12.4358324  )
         9           Ag1 tau(   9) = (   0.0000000   0.0000000  14.8716647  )
        10           Ag1 tau(  10) = (   2.9832732   0.0000000  14.8716647  )
        11           Ag1 tau(  11) = (   1.4916366   2.5835904  14.8716647  )
        12           Ag1 tau(  12) = (   4.4749098   2.5835904  14.8716647  )
        13           O1  tau(  13) = (   2.9832732   1.7223936  16.2431647  )

     number of k points=    20  Fermi-Dirac smearing, width (Ry)=  0.0110
                       cart. coord. in units 2pi/alat
        k(    1) = (   0.0000000   0.0000000   0.0000000), wk =   0.0555556
        k(    2) = (   0.0000000   0.0322549   0.0000000), wk =   0.1111111
        k(    3) = (   0.0000000   0.0645097   0.0000000), wk =   0.1111111
        k(    4) = (   0.0000000  -0.0967646   0.0000000), wk =   0.0555556
        k(    5) = (   0.0279335  -0.0161274   0.0000000), wk =   0.1111111
        k(    6) = (   0.0279335   0.0161274   0.0000000), wk =   0.1111111
        k(    7) = (   0.0279335   0.0483823   0.0000000), wk =   0.1111111
        k(    8) = (   0.0279335  -0.1128920   0.0000000), wk =   0.1111111
        k(    9) = (   0.0279335  -0.0806371   0.0000000), wk =   0.1111111
        k(   10) = (   0.0279335  -0.0483823   0.0000000), wk =   0.1111111
        k(   11) = (   0.0558670  -0.0322549   0.0000000), wk =   0.1111111
        k(   12) = (   0.0558670   0.0000000   0.0000000), wk =   0.1111111
        k(   13) = (   0.0558670   0.0322549   0.0000000), wk =   0.1111111
        k(   14) = (   0.0558670  -0.1290194   0.0000000), wk =   0.1111111
        k(   15) = (   0.0558670  -0.0967646   0.0000000), wk =   0.1111111
        k(   16) = (   0.0558670  -0.0645097   0.0000000), wk =   0.1111111
        k(   17) = (  -0.0838006   0.0483823   0.0000000), wk =   0.0555556
        k(   18) = (  -0.0838006   0.0806371   0.0000000), wk =   0.1111111
        k(   19) = (  -0.0838006   0.1128920   0.0000000), wk =   0.1111111
        k(   20) = (  -0.0838006  -0.0483823   0.0000000), wk =   0.0555556

     Largest allocated arrays     est. size (Mb)     dimensions
     Largest temporary arrays     est. size (Mb)     dimensions

     Initial potential from superposition of free atoms
     Check: negative starting charge=   -0.002340

     starting charge  227.99943, renormalised to  234.00000

     negative rho (up, down):  2.402E-03 0.000E+00

     *
     * You are using vdW-DF for exchange-correlation in this calculation.
     * Please cite the following three references that made this development
     * possible:
     *
     *   M. Dion, H. Rydberg, E. Schroder, D. C. Langreth, and
     *   B. I. Lundqvist, Phys. Rev. Lett. 92, 246401 (2004).
     *
     *   T. Thonhauser, V. R. Cooper, S. Li, A. Puzder, P. Hyldgaard, and
     *   D. C. Langreth, Phys. Rev. B 76, 125112 (2007).
     *
     *   G. Roman-Perez and J. M. Soler, Phys. Rev. Lett. 103, 096102 (2009).
     *
     *
     * If you are using vdW-DF2, please also cite:
     *
     *   K. Lee, E. D. Murray, L. Kong, B. I. Lundqvist, and
     *   D. C. Langreth, Phys. Rev. B 82, 081101(R) (2010).
     *
     *
     * If you are calculating the stress with vdW-DF, please also cite:
     *
     *   R. Sabatini, E. Kucukbenli, B. Kolb, T. Thonhauser, and
     *   S. de Gironcoli, J. Phys.: Condens. Matter 24, 424209 (2012).
     *

     Carrying out vdW-DF run using the following parameters:

     Nqs =      20    Nr_points =    1024   r_max =   100.000
     q_mesh =
               0.00001000     0.04494208     0.09755937     0.15916263
               0.23128650     0.31572767     0.41458969     0.53033537
               0.66584808     0.82450364     1.01025438     1.22772762
               1.48234092     1.78043706     2.12944203     2.53805004
               3.01644009     3.57652955     4.23227104     5.00000000

     Gradients computed in reciprocal space

     Adding external electric field

     Computed dipole along edir(3) :
        Dipole               -1.1361 Ry au,         -2.8877 Debye
        Dipole field         -0.0028 Ry au

        Potential amp.        0.2529 Ry
        Total length         45.8256 bohr

     Starting wfc are  160 randomized atomic wfcs

     Self-consistent Calculation

     iteration #  1     ecut=    36.75 Ry     beta=0.30
     Davidson diagonalization with overlap
     ethr =  1.00E-02,  avg # of iterations =  6.3

[...]

     total energy              =   -3580.00030323 Ry
     Harris-Foulkes estimate   =   -3595.47219538 Ry
     estimated scf accuracy    <      33.31455241 Ry

[...]

     End of self-consistent calculation

          k = 0.0000 0.0000 0.0000 ( 19435 PWs)   bands (ev):

   -91.3514 -91.3458 -91.3458 -91.3182 -91.1623 -91.1532 -91.1491 -91.1491
   -91.0691 -90.9720 -90.9668 -90.9668 -54.8865 -54.8835 -54.8835 -54.8459
   -54.8376 -54.8376 -54.8307 -54.8162 -54.8162 -54.8142 -54.7959 -54.7959
   -54.7019 -54.7019 -54.6981 -54.6424 -54.6424 -54.6388 -54.6375 -54.6270
   -54.6230 -54.6230 -54.6200 -54.6200 -54.5960 -54.5960 -54.5518 -54.5046
   -54.4962 -54.4962 -54.4777 -54.4451 -54.4451 -54.4335 -54.4156 -54.4156
   -15.9208  -5.7323  -5.0748  -5.0748  -5.0736  -5.0473  -4.9273  -4.9273
    -4.9136  -4.8328  -4.8282  -4.8282  -4.7815  -4.6548  -4.6429  -4.6429
    -4.0957  -4.0957  -4.0177  -3.9761  -3.9761  -3.9372  -3.9035  -3.9035
    -3.8607  -3.7724  -3.7724  -3.7117  -3.7117  -3.6748  -3.6135  -3.6135
    -3.2599  -3.2599  -3.1314  -3.0541  -3.0541  -3.0339  -3.0339  -2.9875
    -2.9638  -2.8209  -2.8209  -2.7515  -2.7515  -2.7270  -2.6513  -2.6513
    -2.5297  -2.4904  -2.4904  -2.4433  -2.4408  -2.4408  -2.4180  -2.4035
    -2.4035  -2.2552  -2.2552  -2.2506  -2.1302  -2.1302  -2.0673  -0.6445
    -0.3992  -0.3992  -0.0881   1.2882   1.2882   1.3489   1.7419   2.0583
     2.0583   2.1804   2.5033   2.5033   3.8619   4.4072   4.5356

[...]

          k =-0.0838 0.0484 0.0000 ( 19500 PWs)   bands (ev):

[...]

     the Fermi energy is     0.7033 ev

!    total energy              =   -3592.26223895 Ry
     Harris-Foulkes estimate   =   -3592.26223314 Ry
     estimated scf accuracy    <       0.00000023 Ry

     The total energy is the sum of the following terms:

     one-electron contribution =  -26339.58697686 Ry
     hartree contribution      =   13160.16259499 Ry
     xc contribution           =    -368.48556271 Ry
     ewald contribution        =    9955.67265021 Ry
     electric field correction =       0.00059555 Ry
     smearing contrib. (-TS)   =      -0.02554012 Ry

     convergence has been achieved in  16 iterations

 BEEF-vdW xc energy contributions
           1 :   -319.206171226322
           2 :    288.759052074411
           3 :   -238.058008958215
           4 :    182.489758585905
           5 :   -135.925527973088
           6 :    105.742214334390
           7 :   -91.5212387811268
           8 :    87.3300291406822
           9 :   -85.8638583830406
          10 :    82.1108352005645
          11 :   -74.8829331579363
          12 :    65.9598501494064
          13 :   -57.9268635849298
          14 :    52.2663360629263
          15 :   -48.7466555874444
          16 :    46.0996128825915
          17 :   -43.1947094695104
          18 :    39.7961002559656
          19 :   -36.4810563799341
          20 :    33.9589025440446
          21 :   -32.4100014355372
          22 :    31.3359337466325
          23 :   -29.9696148654421
          24 :    27.8760345584996
          25 :   -25.2810133275794
          26 :    22.9041418569152
          27 :   -21.4430979624262
          28 :    21.0871412710446
          29 :   -21.4004437717377
          30 :    21.6375072780988
          31 :   -31.8910650140299
          32 :   -23.1396628923500

     Forces acting on atoms (Ry/au):

     negative rho (up, down):  2.278E-03 0.000E+00
     atom    1 type  1   force =    -0.00044506   -0.00025709    0.00036829
     atom    2 type  1   force =     0.00044508   -0.00025706    0.00036722
     atom    3 type  1   force =     0.00000007    0.00051402    0.00036843
     atom    4 type  1   force =    -0.00000000    0.00000004   -0.00258282
     atom    5 type  1   force =    -0.00000088    0.00169450    0.00407580
     atom    6 type  1   force =     0.00000080   -0.00000054   -0.00613064
     atom    7 type  1   force =    -0.00146795   -0.00084647    0.00407570
     atom    8 type  1   force =     0.00146797   -0.00084743    0.00407521
     atom    9 type  1   force =    -0.00000008    0.00000011   -0.00403080
     atom   10 type  1   force =     0.00000010   -0.01268310    0.00571157
     atom   11 type  1   force =    -0.01098386    0.00634155    0.00571238
     atom   12 type  1   force =     0.01098389    0.00634148    0.00571159
     atom   13 type  2   force =    -0.00000006   -0.00000001   -0.01772196

     Total force =     0.030179     Total SCF correction =     0.001274

     entering subroutine stress ...

     negative rho (up, down):  2.278E-03 0.000E+00
          total   stress  (Ry/bohr**3)                   (kbar)     P=   -6.68
  -0.00005095  -0.00000000  -0.00000000         -7.49     -0.00     -0.00
  -0.00000000  -0.00005095   0.00000000         -0.00     -7.49      0.00
  -0.00000000   0.00000000  -0.00003442         -0.00      0.00     -5.06

     BFGS Geometry Optimization

     number of scf cycles    =   1
     number of bfgs steps    =   0

     energy   new            =   -3592.2622389509 Ry

     new trust radius        =       0.0177219561 bohr
     new conv_thr            =       0.0000099958 Ry

ATOMIC_POSITIONS (crystal)
Ag1      0.166666667   0.166666667   0.402063960    0   0   0
Ag1      0.666666667   0.166666667   0.402063960    0   0   0
Ag1      0.166666667   0.666666667   0.402063960    0   0   0
Ag1      0.666666667   0.666666667   0.402063960    0   0   0
Ag1      0.833333333   0.333333333   0.500000000    0   0   0
Ag1      0.333333333   0.333333333   0.500000000    0   0   0
Ag1      0.833333333   0.833333333   0.500000000    0   0   0
Ag1      0.333333333   0.833333333   0.500000000    0   0   0
Ag1     -0.000000013   0.000000011   0.597850280
Ag1      0.500649454  -0.001298892   0.598057561
Ag1     -0.001298889   0.500649446   0.598057579
Ag1      0.500649450   0.500649438   0.598057562
O1       0.333333328   0.333333333   0.652702054

     Writing output data file calc.save
     Check: negative starting charge=   -0.002340
     NEW-OLD atomic charge density approx. for the potential
     Check: negative starting charge=   -0.002342

[...]

     Threshold (ethr) on eigenvalues was too large:
     Diagonalizing with lowered threshold

     Davidson diagonalization with overlap
     ethr =  3.50E-08,  avg # of iterations =  1.0

[...]

     Total force =     0.027976     Total SCF correction =     0.003278
     SCF correction compared to forces is large: reduce conv_thr to get better values

[...]

     energy   old            =   -3592.2622389509 Ry
     energy   new            =   -3592.2631128173 Ry

     CASE: energy  _new < energy  _old

     WARNING: bfgs curvature condition failed, Theta= 0.863
     new trust radius        =       0.0194941517 bohr
     new conv_thr            =       0.0000001000 Ry

[...]

     Threshold (ethr) on eigenvalues was too large:
     Diagonalizing with lowered threshold

     Davidson diagonalization with overlap
     ethr =  4.23E-08,  avg # of iterations =  1.0

[...]

     Total force =     0.003155     Total SCF correction =     0.001180
     SCF correction compared to forces is large: reduce conv_thr to get better values

[...]

     number of scf cycles    =   9
     number of bfgs steps    =   8

     energy   old            =   -3592.2683544139 Ry
     energy   new            =   -3592.2683948081 Ry

     CASE: energy  _new < energy  _old

     new trust radius        =       0.0124330512 bohr
     new conv_thr            =       0.0000001000 Ry

ATOMIC_POSITIONS (crystal)
Ag1      0.166666667   0.166666667   0.402063960    0   0   0
Ag1      0.666666667   0.166666667   0.402063960    0   0   0
Ag1      0.166666667   0.666666667   0.402063960    0   0   0
Ag1      0.666666667   0.666666667   0.402063960    0   0   0
Ag1      0.833333333   0.333333333   0.500000000    0   0   0
Ag1      0.333333333   0.333333333   0.500000000    0   0   0
Ag1      0.833333333   0.833333333   0.500000000    0   0   0
Ag1      0.333333333   0.833333333   0.500000000    0   0   0
Ag1     -0.000000014   0.000000019   0.595916627
Ag1      0.507844288  -0.015688580   0.599498535
Ag1     -0.015688628   0.507844320   0.599498576
Ag1      0.507844273   0.507844298   0.599498537
O1       0.333333387   0.333333294   0.647029035

     Writing output data file calc.save
     Check: negative starting charge=   -0.002414
     NEW-OLD atomic charge density approx. for the potential
     Check: negative starting charge=   -0.002416

[...]

     Self-consistent Calculation

[...]

     total energy              =   -3592.26842230 Ry
     Harris-Foulkes estimate   =   -3592.26842259 Ry
     estimated scf accuracy    <       0.00000011 Ry

     iteration #  7     ecut=    36.75 Ry     beta=0.30
     Davidson diagonalization with overlap
     ethr =  4.56E-11,  avg # of iterations =  2.0

[...]

     negative rho (up, down):  2.320E-03 0.000E+00

     Adding external electric field

     Computed dipole along edir(3) :
        Dipole               -0.4058 Ry au,         -1.0315 Debye
        Dipole field         -0.0010 Ry au

        Potential amp.        0.0903 Ry
        Total length         45.8256 bohr

     End of self-consistent calculation

[...]

          k = 0.0559-0.0645 0.0000 ( 19479 PWs)   bands (ev):

[...]

          k =-0.0838-0.0484 0.0000 ( 19500 PWs)   bands (ev):

   -91.2730 -91.2713 -91.2695 -91.2190 -91.0803 -91.0604 -91.0586 -91.0570
   -91.0139 -90.8824 -90.8779 -90.8769 -54.7985 -54.7861 -54.7757 -54.7720
   -54.7706 -54.7628 -54.7602 -54.7578 -54.7382 -54.7222 -54.7100 -54.7095
   -54.6035 -54.5919 -54.5845 -54.5671 -54.5644 -54.5627 -54.5560 -54.5452
   -54.5373 -54.5331 -54.5312 -54.5311 -54.5294 -54.5252 -54.5016 -54.4225
   -54.4083 -54.4051 -54.3895 -54.3628 -54.3506 -54.3437 -54.3366 -54.3298
   -16.0788  -4.8070  -4.7008  -4.6411  -4.5812  -4.5417  -4.5044  -4.4362
    -4.3943  -4.3648  -4.3329  -4.3170  -4.2736  -4.2414  -4.1806  -4.0955
    -4.0824  -4.0013  -3.9348  -3.9013  -3.8423  -3.8392  -3.8187  -3.7358
    -3.7224  -3.6918  -3.5741  -3.5381  -3.5316  -3.4678  -3.4222  -3.3985
    -3.3767  -3.3725  -3.3015  -3.2511  -3.2478  -3.2188  -3.1887  -3.1797
    -3.1557  -3.1251  -3.1245  -3.0312  -2.9928  -2.9654  -2.9504  -2.8982
    -2.8896  -2.8873  -2.8504  -2.8160  -2.8065  -2.7184  -2.6862  -2.5928
    -2.5751  -2.3906  -2.3793  -2.3755  -2.3532  -2.2609  -2.2060  -1.6626
    -1.2842  -0.4914  -0.4864   0.1623   0.7383   0.7461   1.4751   1.6343
     2.3227   2.7779   3.9148   4.0103   4.5716   5.2056   5.9396

     the Fermi energy is     0.8020 ev

!    total energy              =   -3592.26842231 Ry
     Harris-Foulkes estimate   =   -3592.26842242 Ry
     estimated scf accuracy    <       0.00000002 Ry

     The total energy is the sum of the following terms:

     one-electron contribution =  -26339.69864632 Ry
     hartree contribution      =   13160.82140056 Ry
     xc contribution           =    -368.52234964 Ry
     ewald contribution        =    9955.15567647 Ry
     electric field correction =       0.00039997 Ry
     smearing contrib. (-TS)   =      -0.02490334 Ry

     convergence has been achieved in   7 iterations

 BEEF-vdW xc energy contributions
           1 :   -319.247565914222
           2 :    288.816728372546
           3 :   -238.121149922361
           4 :    182.528139819558
           5 :   -135.915842587715
           6 :    105.684686965011
           7 :   -91.4390676838140
           8 :    87.2559432181455
           9 :   -85.8233058083613
          10 :    82.1110857486857
          11 :   -74.9120120074165
          12 :    65.9953440283862
          13 :   -57.9497495517745
          14 :    52.2700792054637
          15 :   -48.7370197589129
          16 :    46.0886837204461
          17 :   -43.1932543693724
          18 :    39.8069703366035
          19 :   -36.4966246155632
          20 :    33.9651793183330
          21 :   -32.3962769660279
          22 :    31.3042927568394
          23 :   -29.9369302537858
          24 :    27.8661866988018
          25 :   -25.3112235457270
          26 :    22.9720975617116
          27 :   -21.5237178306456
          28 :    21.1440217908365
          29 :   -21.4052135476935
          30 :    21.5831464207074
          31 :   -31.8938575908699
          32 :   -23.1436822888149

     Forces acting on atoms (Ry/au):

     negative rho (up, down):  2.320E-03 0.000E+00
     atom    1 type  1   force =    -0.00064885   -0.00037461    0.00029590
     atom    2 type  1   force =     0.00064885   -0.00037461    0.00029590
     atom    3 type  1   force =    -0.00000000    0.00074923    0.00029590
     atom    4 type  1   force =    -0.00000000    0.00000000   -0.00194145
     atom    5 type  1   force =     0.00000002    0.00177345    0.00229853
     atom    6 type  1   force =    -0.00000001    0.00000001   -0.00126415
     atom    7 type  1   force =    -0.00153584   -0.00088674    0.00229853
     atom    8 type  1   force =     0.00153584   -0.00088672    0.00229851
     atom    9 type  1   force =     0.00000001   -0.00000001   -0.00171596
     atom   10 type  1   force =    -0.00000002   -0.00108424   -0.00138150
     atom   11 type  1   force =    -0.00093895    0.00054210   -0.00138156
     atom   12 type  1   force =     0.00093898    0.00054213   -0.00138150
     atom   13 type  2   force =    -0.00000001    0.00000001    0.00128285

     Total force =     0.003721     Total SCF correction =     0.000329

     entering subroutine stress ...

     negative rho (up, down):  2.320E-03 0.000E+00
          total   stress  (Ry/bohr**3)                   (kbar)     P=   -4.86
  -0.00003773   0.00000000  -0.00000000         -5.55      0.00     -0.00
   0.00000000  -0.00003773   0.00000000          0.00     -5.55      0.00
  -0.00000000   0.00000000  -0.00002373         -0.00      0.00     -3.49

     bfgs converged in  10 scf cycles and   9 bfgs steps
     (criteria: energy <  1.0E+00, force <  1.9E-03)

     End of BFGS Geometry Optimization

     Final energy   =   -3592.2684223071 Ry
Begin final coordinates

ATOMIC_POSITIONS (crystal)
Ag1      0.166666667   0.166666667   0.402063960    0   0   0
Ag1      0.666666667   0.166666667   0.402063960    0   0   0
Ag1      0.166666667   0.666666667   0.402063960    0   0   0
Ag1      0.666666667   0.666666667   0.402063960    0   0   0
Ag1      0.833333333   0.333333333   0.500000000    0   0   0
Ag1      0.333333333   0.333333333   0.500000000    0   0   0
Ag1      0.833333333   0.833333333   0.500000000    0   0   0
Ag1      0.333333333   0.833333333   0.500000000    0   0   0
Ag1     -0.000000014   0.000000019   0.595916627
Ag1      0.507844288  -0.015688580   0.599498535
Ag1     -0.015688628   0.507844320   0.599498576
Ag1      0.507844273   0.507844298   0.599498537
O1       0.333333387   0.333333294   0.647029035
End final coordinates

     Writing output data file calc.save

     General routines

     Parallel routines

   This run was terminated on:  12: 5:16   4May2018

   JOB DONE.
Job  /afs/slac/g/suncat/bin/suncat-tsmpirun -x LD_LIBRARY_PATH -wdir /scratch/qe939733_R2xGT pw.x -npool 4 -in pw.inp

TID   HOST_NAME   COMMAND_LINE            STATUS            TERMINATION_TIME
00000 suncat0096 pw.x -npool 4 -i  Done                     05/04/2018 12:05:16
00001 suncat0096 pw.x -npool 4 -i  Done                     05/04/2018 12:05:16
00002 suncat0096 pw.x -npool 4 -i  Done                     05/04/2018 12:05:16
00003 suncat0096 pw.x -npool 4 -i  Done                     05/04/2018 12:05:16
00004 suncat0096 pw.x -npool 4 -i  Done                     05/04/2018 12:05:16
00005 suncat0096 pw.x -npool 4 -i  Done                     05/04/2018 12:05:16
00006 suncat0096 pw.x -npool 4 -i  Done                     05/04/2018 12:05:16
00007 suncat0096 pw.x -npool 4 -i  Done                     05/04/2018 12:05:16
00008 suncat0076 pw.x -npool 4 -i  Done                     05/04/2018 12:05:16
00009 suncat0076 pw.x -npool 4 -i  Done                     05/04/2018 12:05:16
00010 suncat0076 pw.x -npool 4 -i  Done                     05/04/2018 12:05:16
00011 suncat0076 pw.x -npool 4 -i  Done                     05/04/2018 12:05:16
00012 suncat0076 pw.x -npool 4 -i  Done                     05/04/2018 12:05:16
00013 suncat0076 pw.x -npool 4 -i  Done                     05/04/2018 12:05:16
00014 suncat0076 pw.x -npool 4 -i  Done                     05/04/2018 12:05:16
00015 suncat0076 pw.x -npool 4 -i  Done                     05/04/2018 12:05:16
00016 suncat0070 pw.x -npool 4 -i  Done                     05/04/2018 12:05:16
00017 suncat0070 pw.x -npool 4 -i  Done                     05/04/2018 12:05:16
00018 suncat0070 pw.x -npool 4 -i  Done                     05/04/2018 12:05:16
00019 suncat0070 pw.x -npool 4 -i  Done                     05/04/2018 12:05:16
00020 suncat0070 pw.x -npool 4 -i  Done                     05/04/2018 12:05:16
00021 suncat0070 pw.x -npool 4 -i  Done                     05/04/2018 12:05:16
00022 suncat0070 pw.x -npool 4 -i  Done                     05/04/2018 12:05:16
00023 suncat0070 pw.x -npool 4 -i  Done                     05/04/2018 12:05:16
00024 suncat0030 pw.x -npool 4 -i  Done                     05/04/2018 12:05:16
00025 suncat0030 pw.x -npool 4 -i  Done                     05/04/2018 12:05:16
00026 suncat0030 pw.x -npool 4 -i  Done                     05/04/2018 12:05:16
00027 suncat0030 pw.x -npool 4 -i  Done                     05/04/2018 12:05:16
00028 suncat0030 pw.x -npool 4 -i  Done                     05/04/2018 12:05:16
00029 suncat0030 pw.x -npool 4 -i  Done                     05/04/2018 12:05:16
00030 suncat0030 pw.x -npool 4 -i  Done                     05/04/2018 12:05:16
00031 suncat0030 pw.x -npool 4 -i  Done                     05/04/2018 12:05:16