     Program PWSCF v.5.1rc2 (svn rev. 11289) starts on  3May2018 at  4:54: 7

     Current dimensions of program PWSCF are:
     Max number of different atomic species (ntypx) = 10
     Max number of k-points (npk) =  40000
     Max angular momentum in pseudopotentials (lmaxx) =  3
     Presently stress not available with electric field

     IMPORTANT: XC functional enforced from input :
     Exchange-correlation      = BEEF-VDW ( 1  4 27 13 2)
     Any further DFT definition will be discarded
     Please, verify this is what you really want

     Subspace diagonalization in iterative solution of the eigenvalue problem:
     a serial algorithm will be used

     bravais-lattice index     =            0
     lattice parameter (alat)  =       1.8897  a.u.
     unit-cell volume          =    4704.3541 (a.u.)^3
     number of atoms/cell      =           13
     number of atomic types    =            2
     number of electrons       =       174.00
     number of Kohn-Sham states=           97
     kinetic-energy cutoff     =      36.7493  Ry
     charge density cutoff     =     367.4932  Ry
     convergence threshold     =      1.0E-05
     mixing beta               =       0.3000
     number of iterations used =           10  plain     mixing
     Exchange-correlation      = BEEF-VDW ( 1  4 27 13 2)
     nstep                     =           50

     celldm(1)=   1.889726  celldm(2)=   0.000000  celldm(3)=   0.000000
     celldm(4)=   0.000000  celldm(5)=   0.000000  celldm(6)=   0.000000

     crystal axes: (cart. coord. in units of alat)
               a(1) = (   5.712816   0.000000   0.000000 )
               a(2) = (   2.856408   4.947444   0.000000 )
               a(3) = (   0.000000   0.000000  24.664495 )

     reciprocal axes: (cart. coord. in units 2 pi/alat)
               b(1) = (  0.175045 -0.101062  0.000000 )
               b(2) = (  0.000000  0.202125  0.000000 )
               b(3) = (  0.000000  0.000000  0.040544 )

     PseudoPot. # 1 for W  read from file:
     /u/if/mamunm/psp/gbrv1.5pbe/W.UPF
     MD5 check sum: 9c083fa34c2a2ea0f02f1f893e16e1c8
     Pseudo is Ultrasoft + core correction, Zval = 14.0
     Generated by new atomic code, or converted to UPF format
     Using radial grid of  923 points,  8 beta functions with:
                l(1) =   0
                l(2) =   0
                l(3) =   0
                l(4) =   1
                l(5) =   1
                l(6) =   2
                l(7) =   2
                l(8) =   3
     Q(r) pseudized with  6 coefficients,  rinner =    1.350   1.350   1.350
                                                       1.350   1.350   1.350
                                                       1.350

     PseudoPot. # 2 for O  read from file:
     /u/if/mamunm/psp/gbrv1.5pbe/O.UPF
     MD5 check sum: 734c27235a0248c51dbae37a1fbe46ec
     Pseudo is Ultrasoft + core correction, Zval =  6.0
     Generated by new atomic code, or converted to UPF format
     Using radial grid of  737 points,  5 beta functions with:
                l(1) =   0
                l(2) =   0
                l(3) =   1
                l(4) =   1
                l(5) =   2
     Q(r) pseudized with  8 coefficients,  rinner =    0.900   0.900   0.900
                                                       0.900   0.900

     vdW kernel table read from file vdW_kernel_table
     MD5 check sum: 095c7af220d748ca6e76c0b4c6cfb241

     atomic species   valence    mass     pseudopotential
        W1            14.00   183.84000     W ( 1.00)
        O1             6.00    15.99900     O ( 1.00)

     No symmetry found

   Cartesian axes

     site n.     atom                  positions (alat units)
         1           W1  tau(   1) = (   1.4282041   0.8245740  10.0000000  )
         2           W1  tau(   2) = (   4.2846123   0.8245740  10.0000000  )
         3           W1  tau(   3) = (   2.8564082   3.2982961  10.0000000  )
         4           W1  tau(   4) = (   5.7128165   3.2982961  10.0000000  )
         5           W1  tau(   5) = (   5.7128165   1.6491481  12.3322476  )
         6           W1  tau(   6) = (   2.8564082   1.6491481  12.3322476  )
         7           W1  tau(   7) = (   7.1410206   4.1228701  12.3322476  )
         8           W1  tau(   8) = (   4.2846123   4.1228701  12.3322476  )
         9           W1  tau(   9) = (   0.0000000   0.0000000  14.6644951  )
        10           W1  tau(  10) = (   2.8564082   0.0000000  14.6644951  )
        11           W1  tau(  11) = (   1.4282041   2.4737221  14.6644951  )
        12           W1  tau(  12) = (   4.2846123   2.4737221  14.6644951  )
        13           O1  tau(  13) = (   0.0000000   0.0000000  16.6024951  )

     number of k points=    20  Fermi-Dirac smearing, width (Ry)=  0.0110
                       cart. coord. in units 2pi/alat
        k(    1) = (   0.0000000   0.0000000   0.0000000), wk =   0.0555556
        k(    2) = (   0.0000000   0.0336874   0.0000000), wk =   0.1111111
        k(    3) = (   0.0000000   0.0673749   0.0000000), wk =   0.1111111
        k(    4) = (   0.0000000  -0.1010623   0.0000000), wk =   0.0555556
        k(    5) = (   0.0291742  -0.0168437   0.0000000), wk =   0.1111111
        k(    6) = (   0.0291742   0.0168437   0.0000000), wk =   0.1111111
        k(    7) = (   0.0291742   0.0505311   0.0000000), wk =   0.1111111
        k(    8) = (   0.0291742  -0.1179060   0.0000000), wk =   0.1111111
        k(    9) = (   0.0291742  -0.0842186   0.0000000), wk =   0.1111111
        k(   10) = (   0.0291742  -0.0505311   0.0000000), wk =   0.1111111
        k(   11) = (   0.0583483  -0.0336874   0.0000000), wk =   0.1111111
        k(   12) = (   0.0583483  -0.0000000   0.0000000), wk =   0.1111111
        k(   13) = (   0.0583483   0.0336874   0.0000000), wk =   0.1111111
        k(   14) = (   0.0583483  -0.1347497   0.0000000), wk =   0.1111111
        k(   15) = (   0.0583483  -0.1010623   0.0000000), wk =   0.1111111
        k(   16) = (   0.0583483  -0.0673749   0.0000000), wk =   0.1111111
        k(   17) = (  -0.0875225   0.0505311   0.0000000), wk =   0.0555556
        k(   18) = (  -0.0875225   0.0842186   0.0000000), wk =   0.1111111
        k(   19) = (  -0.0875225   0.1179060   0.0000000), wk =   0.1111111
        k(   20) = (  -0.0875225  -0.0505311   0.0000000), wk =   0.0555556

     Largest allocated arrays     est. size (Mb)     dimensions
     Largest temporary arrays     est. size (Mb)     dimensions

     Initial potential from superposition of free atoms
     Check: negative starting charge=   -0.760539

     starting charge  172.79592, renormalised to  174.00000

     negative rho (up, down):  7.658E-01 0.000E+00

     *
     * You are using vdW-DF for exchange-correlation in this calculation.
     * Please cite the following three references that made this development
     * possible:
     *
     *   M. Dion, H. Rydberg, E. Schroder, D. C. Langreth, and
     *   B. I. Lundqvist, Phys. Rev. Lett. 92, 246401 (2004).
     *
     *   T. Thonhauser, V. R. Cooper, S. Li, A. Puzder, P. Hyldgaard, and
     *   D. C. Langreth, Phys. Rev. B 76, 125112 (2007).
     *
     *   G. Roman-Perez and J. M. Soler, Phys. Rev. Lett. 103, 096102 (2009).
     *
     *
     * If you are using vdW-DF2, please also cite:
     *
     *   K. Lee, E. D. Murray, L. Kong, B. I. Lundqvist, and
     *   D. C. Langreth, Phys. Rev. B 82, 081101(R) (2010).
     *
     *
     * If you are calculating the stress with vdW-DF, please also cite:
     *
     *   R. Sabatini, E. Kucukbenli, B. Kolb, T. Thonhauser, and
     *   S. de Gironcoli, J. Phys.: Condens. Matter 24, 424209 (2012).
     *

     Carrying out vdW-DF run using the following parameters:

     Nqs =      20    Nr_points =    1024   r_max =   100.000
     q_mesh =
               0.00001000     0.04494208     0.09755937     0.15916263
               0.23128650     0.31572767     0.41458969     0.53033537
               0.66584808     0.82450364     1.01025438     1.22772762
               1.48234092     1.78043706     2.12944203     2.53805004
               3.01644009     3.57652955     4.23227104     5.00000000

     Gradients computed in reciprocal space

     Adding external electric field

     Computed dipole along edir(3) :
        Dipole               -0.3374 Ry au,         -0.8575 Debye
        Dipole field         -0.0009 Ry au

        Potential amp.        0.0819 Ry
        Total length         45.4439 bohr

     Starting wfc are  160 randomized atomic wfcs

     Self-consistent Calculation

     iteration #  1     ecut=    36.75 Ry     beta=0.30
     Davidson diagonalization with overlap
     ethr =  1.00E-02,  avg # of iterations =  2.0

[...]

     total energy              =   -1954.77444395 Ry
     Harris-Foulkes estimate   =   -1957.71652193 Ry
     estimated scf accuracy    <       6.29103353 Ry

[...]

     End of self-consistent calculation

          k = 0.0000 0.0000 0.0000 ( 17753 PWs)   bands (ev):

   -72.3766 -72.1625 -72.1239 -72.1059 -72.1058 -72.0875 -72.0449 -72.0309
   -72.0308 -72.0293 -72.0083 -72.0082 -36.7848 -36.7627 -36.7627 -36.6932
   -36.6932 -36.6893 -36.6433 -36.5434 -36.5434 -36.5275 -36.4529 -36.3154
   -36.2411 -36.2411 -36.1700 -36.1628 -36.1627 -36.0901 -36.0901 -36.0443
   -35.9897 -35.9797 -35.9796 -35.9401 -35.9400 -35.9394 -35.8942 -35.8504
   -35.8503 -35.8358 -35.8138 -35.8138 -35.7565 -35.7565 -35.6670 -35.6669
   -15.0441  -6.1133  -4.3557  -3.5298  -2.9836  -2.9836  -2.9634  -2.7800
    -2.7566  -2.7566  -2.0314  -2.0305  -2.0305  -1.9595  -1.9595  -1.9542
    -1.1646  -1.1645  -1.1645  -0.4466   0.1270   0.1270   0.7187   0.8472
     0.9406   0.9406   1.1073   1.4878   1.4878   1.6202   1.6202   1.7096
     1.8013   1.8013   1.9120   1.9302   1.9302   2.0597   2.0597   2.3220
     2.8263   3.0252   3.1629   3.1629   3.7039   3.7285   3.7285   3.9814
     4.2685

[...]

          k =-0.0875 0.0505 0.0000 ( 17668 PWs)   bands (ev):

[...]

     the Fermi energy is     2.0833 ev

!    total energy              =   -1957.28565471 Ry
     Harris-Foulkes estimate   =   -1957.28569201 Ry
     estimated scf accuracy    <       0.00000983 Ry

     The total energy is the sum of the following terms:

     one-electron contribution =  -15004.16240252 Ry
     hartree contribution      =    7486.37881184 Ry
     xc contribution           =    -517.74457372 Ry
     ewald contribution        =    6078.33951748 Ry
     electric field correction =       0.00022263 Ry
     smearing contrib. (-TS)   =      -0.09723042 Ry

     convergence has been achieved in  16 iterations

 BEEF-vdW xc energy contributions
           1 :   -455.381335778339
           2 :    420.991149325188
           3 :   -360.570699296893
           4 :    287.488509882562
           5 :   -215.503560727049
           6 :    154.825167522198
           7 :   -110.016350322233
           8 :    80.1559779403337
           9 :   -60.8121533607367
          10 :    46.7449016678859
          11 :   -34.1452639402330
          12 :    21.6182183494221
          13 :   -9.82587406417025
          14 :   0.313205369650518
          15 :    5.74787863204273
          16 :   -8.31127149676183
          17 :    8.45575292965555
          18 :   -7.77569744021116
          19 :    7.58040056535833
          20 :   -8.34416248644573
          21 :    9.65712098429452
          22 :   -10.6406633505570
          23 :    10.5553718327122
          24 :   -9.26040169892872
          25 :    7.28787039984206
          26 :   -5.52253310892712
          27 :    4.70045649262704
          28 :   -5.01857087459354
          29 :    6.05854197562780
          30 :   -7.04790745433718
          31 :   -41.3176106026459
          32 :   -30.8808131910400

     Forces acting on atoms (Ry/au):

     negative rho (up, down):  7.919E-01 0.000E+00
     atom    1 type  1   force =     0.00100900    0.00058736   -0.00307370
     atom    2 type  1   force =    -0.00100965    0.00058824   -0.00307175
     atom    3 type  1   force =     0.00000102   -0.00117057   -0.00307757
     atom    4 type  1   force =    -0.00000068   -0.00000428   -0.00323803
     atom    5 type  1   force =     0.00000147    0.00021945   -0.00227768
     atom    6 type  1   force =     0.00000205    0.00000050    0.01060851
     atom    7 type  1   force =    -0.00018733   -0.00010729   -0.00226293
     atom    8 type  1   force =     0.00018792   -0.00010738   -0.00228304
     atom    9 type  1   force =     0.00000036    0.00000363    0.23713401
     atom   10 type  1   force =     0.00000238    0.00158590   -0.02947553
     atom   11 type  1   force =     0.00137055   -0.00079559   -0.02946937
     atom   12 type  1   force =    -0.00137669   -0.00079958   -0.02951525
     atom   13 type  2   force =    -0.00000041   -0.00000040   -0.13999766

     Total force =     0.280085     Total SCF correction =     0.006341

     entering subroutine stress ...

     negative rho (up, down):  7.919E-01 0.000E+00
          total   stress  (Ry/bohr**3)                   (kbar)     P=  -48.60
  -0.00040491  -0.00000001  -0.00000000        -59.56     -0.00     -0.00
  -0.00000001  -0.00040492   0.00000000         -0.00    -59.57      0.00
  -0.00000000   0.00000000  -0.00018125         -0.00      0.00    -26.66

     BFGS Geometry Optimization

     number of scf cycles    =   1
     number of bfgs steps    =   0

     energy   new            =   -1957.2856547074 Ry

     new trust radius        =       0.2371340086 bohr
     new conv_thr            =       0.0000099958 Ry

ATOMIC_POSITIONS (crystal)
W1       0.166666667   0.166666667   0.405441099    0   0   0
W1       0.666666667   0.166666667   0.405441099    0   0   0
W1       0.166666667   0.666666667   0.405441099    0   0   0
W1       0.666666667   0.666666667   0.405441099    0   0   0
W1       0.833333333   0.333333333   0.500000000    0   0   0
W1       0.333333333   0.333333333   0.500000000    0   0   0
W1       0.833333333   0.833333333   0.500000000    0   0   0
W1       0.333333333   0.833333333   0.500000000    0   0   0
W1      -0.000000161   0.000000389   0.599646616
W1       0.499915407   0.000169627   0.593926503
W1       0.000169502   0.499914904   0.593926635
W1       0.499915238   0.499914477   0.593925651
O1      -0.000000017  -0.000000043   0.670129734

     Writing output data file calc.save
     Check: negative starting charge=   -0.760539
     NEW-OLD atomic charge density approx. for the potential
     Check: negative starting charge=   -0.762514

[...]

     iteration #  1     ecut=    36.75 Ry     beta=0.30
     Davidson diagonalization with overlap
     c_bands:  1 eigenvalues not converged
     ethr =  1.00E-06,  avg # of iterations = 16.1

[...]

     energy   old            =   -1957.2856547074 Ry
     energy   new            =   -1957.3385818458 Ry

     CASE: energy  _new < energy  _old

[...]

     Total force =     0.008215     Total SCF correction =     0.000520

[...]

     number of scf cycles    =  12
     number of bfgs steps    =  11

     energy   old            =   -1957.4004165747 Ry
     energy   new            =   -1957.4005242639 Ry

     CASE: energy  _new < energy  _old

     new trust radius        =       0.0108307024 bohr
     new conv_thr            =       0.0000001000 Ry

ATOMIC_POSITIONS (crystal)
W1       0.166666667   0.166666667   0.405441099    0   0   0
W1       0.666666667   0.166666667   0.405441099    0   0   0
W1       0.166666667   0.666666667   0.405441099    0   0   0
W1       0.666666667   0.666666667   0.405441099    0   0   0
W1       0.833333333   0.333333333   0.500000000    0   0   0
W1       0.333333333   0.333333333   0.500000000    0   0   0
W1       0.833333333   0.833333333   0.500000000    0   0   0
W1       0.333333333   0.833333333   0.500000000    0   0   0
W1      -0.000000964  -0.000001527   0.616383454
W1       0.503703814  -0.007412956   0.588424179
W1      -0.007413692   0.503704307   0.588424758
W1       0.503702471   0.503704679   0.588424541
O1       0.000000953  -0.000000658   0.686332133

     Writing output data file calc.save
     Check: negative starting charge=   -0.761141
     NEW-OLD atomic charge density approx. for the potential
     Check: negative starting charge=   -0.761065

[...]

     Self-consistent Calculation

[...]

     Threshold (ethr) on eigenvalues was too large:
     Diagonalizing with lowered threshold

     Davidson diagonalization with overlap
     ethr =  3.40E-08,  avg # of iterations =  2.0

[...]

     total energy              =   -1957.40055357 Ry
     Harris-Foulkes estimate   =   -1957.40055362 Ry
     estimated scf accuracy    <       0.00000071 Ry

     iteration #  8     ecut=    36.75 Ry     beta=0.30
     Davidson diagonalization with overlap
     ethr =  4.06E-10,  avg # of iterations =  3.5

[...]

     negative rho (up, down):  7.921E-01 0.000E+00

     Adding external electric field

     Computed dipole along edir(3) :
        Dipole               -0.4136 Ry au,         -1.0513 Debye
        Dipole field         -0.0011 Ry au

        Potential amp.        0.1004 Ry
        Total length         45.4439 bohr

     End of self-consistent calculation

[...]

          k = 0.0583-0.0674 0.0000 ( 17692 PWs)   bands (ev):

[...]

          k =-0.0875-0.0505 0.0000 ( 17668 PWs)   bands (ev):

   -72.3613 -72.1878 -72.1765 -72.1472 -72.1404 -72.1363 -72.1346 -72.1120
   -72.0975 -72.0398 -72.0217 -72.0110 -36.9447 -36.6790 -36.6631 -36.6426
   -36.5895 -36.5723 -36.5588 -36.4916 -36.4470 -36.4405 -36.4286 -36.4278
   -36.3489 -36.3226 -36.2340 -36.2135 -36.2065 -36.1981 -36.1863 -36.1777
   -36.1503 -36.1475 -36.1301 -36.0846 -36.0241 -36.0120 -36.0104 -35.9987
   -35.9406 -35.9123 -35.8832 -35.8656 -35.8612 -35.8335 -35.8299 -35.7576
   -15.6236  -4.2948  -4.1883  -2.7989  -2.6502  -2.2833  -2.1288  -2.0999
    -1.9750  -1.8841  -1.8224  -1.8011  -1.5909  -1.5738  -1.0150  -0.9981
    -0.7810  -0.7001  -0.5966  -0.4551  -0.2916  -0.1921  -0.1460   0.0090
     0.1339   0.2389   0.5161   0.6842   0.7419   0.7955   0.8796   0.9181
     0.9537   1.1101   1.2060   1.2706   1.2782   1.5712   1.5738   1.7971
     2.0702   2.1676   2.7499   2.8683   2.9441   3.0280   3.2629   3.2928
     3.4412

     the Fermi energy is     1.9894 ev

!    total energy              =   -1957.40055359 Ry
     Harris-Foulkes estimate   =   -1957.40055487 Ry
     estimated scf accuracy    <       0.00000008 Ry

     The total energy is the sum of the following terms:

     one-electron contribution =  -14852.99169854 Ry
     hartree contribution      =    7410.53291491 Ry
     xc contribution           =    -517.92433937 Ry
     ewald contribution        =    6003.06758423 Ry
     electric field correction =       0.00045702 Ry
     smearing contrib. (-TS)   =      -0.08547185 Ry

     convergence has been achieved in   8 iterations

 BEEF-vdW xc energy contributions
           1 :   -455.558523626366
           2 :    421.168105273950
           3 :   -360.760367883693
           4 :    287.685098977198
           5 :   -215.665081093591
           6 :    154.892448509220
           7 :   -109.939423946832
           8 :    79.9135735583602
           9 :   -60.4220221850457
          10 :    46.2641311690803
          11 :   -33.6546915002708
          12 :    21.1877414740351
          13 :   -9.48056780087120
          14 :   2.324306055021452E-002
          15 :    6.05088164351986
          16 :   -8.69534708882287
          17 :    8.94229367407632
          18 :   -8.31633628349124
          19 :    8.07450691168788
          20 :   -8.69088979644499
          21 :    9.81459041229340
          22 :   -10.6563473167016
          23 :    10.5482072209732
          24 :   -9.35914547821420
          25 :    7.55515957184554
          26 :   -5.91516032589601
          27 :    5.09376374615982
          28 :   -5.27749857940478
          29 :    6.11640983705581
          30 :   -6.94619374915823
          31 :   -41.3251032027972
          32 :   -30.8855831866614

     Forces acting on atoms (Ry/au):

     negative rho (up, down):  7.921E-01 0.000E+00
     atom    1 type  1   force =     0.00091078    0.00052607    0.00561358
     atom    2 type  1   force =    -0.00090985    0.00052567    0.00561348
     atom    3 type  1   force =     0.00000017   -0.00105105    0.00561358
     atom    4 type  1   force =     0.00000043   -0.00000002   -0.00705100
     atom    5 type  1   force =     0.00000094   -0.03822958    0.00546811
     atom    6 type  1   force =     0.00000140    0.00000151   -0.02535365
     atom    7 type  1   force =     0.03310772    0.01911366    0.00546727
     atom    8 type  1   force =    -0.03310813    0.01911512    0.00546545
     atom    9 type  1   force =    -0.00000062    0.00000115    0.00036947
     atom   10 type  1   force =     0.00000034    0.00074473   -0.00022721
     atom   11 type  1   force =     0.00064302   -0.00037259   -0.00023047
     atom   12 type  1   force =    -0.00064574   -0.00037444   -0.00022986
     atom   13 type  2   force =    -0.00000047   -0.00000022   -0.00051875

     Total force =     0.001492     Total SCF correction =     0.001287
     SCF correction compared to forces is large: reduce conv_thr to get better values

     entering subroutine stress ...

     negative rho (up, down):  7.921E-01 0.000E+00
          total   stress  (Ry/bohr**3)                   (kbar)     P=  -39.76
  -0.00035935   0.00000000  -0.00000001        -52.86      0.00     -0.00
   0.00000000  -0.00035935  -0.00000000          0.00    -52.86     -0.00
  -0.00000001  -0.00000000  -0.00009225         -0.00     -0.00    -13.57

     bfgs converged in  13 scf cycles and  12 bfgs steps
     (criteria: energy <  1.0E+00, force <  1.9E-03)

     End of BFGS Geometry Optimization

     Final energy   =   -1957.4005535947 Ry
Begin final coordinates

ATOMIC_POSITIONS (crystal)
W1       0.166666667   0.166666667   0.405441099    0   0   0
W1       0.666666667   0.166666667   0.405441099    0   0   0
W1       0.166666667   0.666666667   0.405441099    0   0   0
W1       0.666666667   0.666666667   0.405441099    0   0   0
W1       0.833333333   0.333333333   0.500000000    0   0   0
W1       0.333333333   0.333333333   0.500000000    0   0   0
W1       0.833333333   0.833333333   0.500000000    0   0   0
W1       0.333333333   0.833333333   0.500000000    0   0   0
W1      -0.000000964  -0.000001527   0.616383454
W1       0.503703814  -0.007412956   0.588424179
W1      -0.007413692   0.503704307   0.588424758
W1       0.503702471   0.503704679   0.588424541
O1       0.000000953  -0.000000658   0.686332133
End final coordinates

     Writing output data file calc.save

     General routines

     Parallel routines

   This run was terminated on:   6:52: 0   3May2018

   JOB DONE.
Job  /afs/slac/g/suncat/bin/suncat-tsmpirun -x LD_LIBRARY_PATH -wdir /scratch/qe622492_69q7E pw.x -npool 4 -in pw.inp

TID   HOST_NAME   COMMAND_LINE            STATUS            TERMINATION_TIME
00000 suncat0145 pw.x -npool 4 -i  Done                     05/03/2018 06:52:00
00001 suncat0145 pw.x -npool 4 -i  Done                     05/03/2018 06:52:00
00002 suncat0145 pw.x -npool 4 -i  Done                     05/03/2018 06:52:00
00003 suncat0145 pw.x -npool 4 -i  Done                     05/03/2018 06:52:00
00004 suncat0145 pw.x -npool 4 -i  Done                     05/03/2018 06:52:00
00005 suncat0145 pw.x -npool 4 -i  Done                     05/03/2018 06:52:00
00006 suncat0145 pw.x -npool 4 -i  Done                     05/03/2018 06:52:00
00007 suncat0145 pw.x -npool 4 -i  Done                     05/03/2018 06:52:00
00008 suncat0143 pw.x -npool 4 -i  Done                     05/03/2018 06:52:00
00009 suncat0143 pw.x -npool 4 -i  Done                     05/03/2018 06:52:00
00010 suncat0143 pw.x -npool 4 -i  Done                     05/03/2018 06:52:00
00011 suncat0143 pw.x -npool 4 -i  Done                     05/03/2018 06:52:00
00012 suncat0143 pw.x -npool 4 -i  Done                     05/03/2018 06:52:00
00013 suncat0143 pw.x -npool 4 -i  Done                     05/03/2018 06:52:00
00014 suncat0143 pw.x -npool 4 -i  Done                     05/03/2018 06:52:00
00015 suncat0143 pw.x -npool 4 -i  Done                     05/03/2018 06:52:00
00016 suncat0110 pw.x -npool 4 -i  Done                     05/03/2018 06:52:00
00017 suncat0110 pw.x -npool 4 -i  Done                     05/03/2018 06:52:00
00018 suncat0110 pw.x -npool 4 -i  Done                     05/03/2018 06:52:00
00019 suncat0110 pw.x -npool 4 -i  Done                     05/03/2018 06:52:00
00020 suncat0110 pw.x -npool 4 -i  Done                     05/03/2018 06:52:00
00021 suncat0110 pw.x -npool 4 -i  Done                     05/03/2018 06:52:00
00022 suncat0110 pw.x -npool 4 -i  Done                     05/03/2018 06:52:00
00023 suncat0110 pw.x -npool 4 -i  Done                     05/03/2018 06:52:00
00024 suncat0241 pw.x -npool 4 -i  Done                     05/03/2018 06:52:00
00025 suncat0241 pw.x -npool 4 -i  Done                     05/03/2018 06:52:00
00026 suncat0241 pw.x -npool 4 -i  Done                     05/03/2018 06:52:00
00027 suncat0241 pw.x -npool 4 -i  Done                     05/03/2018 06:52:00
00028 suncat0241 pw.x -npool 4 -i  Done                     05/03/2018 06:52:00
00029 suncat0241 pw.x -npool 4 -i  Done                     05/03/2018 06:52:00
00030 suncat0241 pw.x -npool 4 -i  Done                     05/03/2018 06:52:00
00031 suncat0241 pw.x -npool 4 -i  Done                     05/03/2018 06:52:00