     Program PWSCF v.5.1rc2 (svn rev. 11289) starts on 30Apr2018 at 16:57:17

     Current dimensions of program PWSCF are:
     Max number of different atomic species (ntypx) = 10
     Max number of k-points (npk) =  40000
     Max angular momentum in pseudopotentials (lmaxx) =  3
     Presently stress not available with electric field

     IMPORTANT: XC functional enforced from input :
     Exchange-correlation      = BEEF-VDW ( 1  4 27 13 2)
     Any further DFT definition will be discarded
     Please, verify this is what you really want

     Subspace diagonalization in iterative solution of the eigenvalue problem:
     a serial algorithm will be used

     bravais-lattice index     =            0
     lattice parameter (alat)  =       1.8897  a.u.
     unit-cell volume          =    4650.5773 (a.u.)^3
     number of atoms/cell      =           13
     number of atomic types    =            2
     number of electrons       =        42.00
     number of Kohn-Sham states=           31
     kinetic-energy cutoff     =      36.7493  Ry
     charge density cutoff     =     367.4932  Ry
     convergence threshold     =      1.0E-05
     mixing beta               =       0.3000
     number of iterations used =           10  plain     mixing
     Exchange-correlation      = BEEF-VDW ( 1  4 27 13 2)
     nstep                     =           50

     celldm(1)=   1.889726  celldm(2)=   0.000000  celldm(3)=   0.000000
     celldm(4)=   0.000000  celldm(5)=   0.000000  celldm(6)=   0.000000

     crystal axes: (cart. coord. in units of alat)
               a(1) = (   5.682886   0.000000   0.000000 )
               a(2) = (   2.841443   4.921524   0.000000 )
               a(3) = (   0.000000   0.000000  24.640057 )

     reciprocal axes: (cart. coord. in units 2 pi/alat)
               b(1) = (  0.175967 -0.101595  0.000000 )
               b(2) = (  0.000000  0.203189  0.000000 )
               b(3) = (  0.000000  0.000000  0.040584 )

     PseudoPot. # 1 for Al read from file:
     /u/if/mamunm/psp/gbrv1.5pbe/Al.UPF
     MD5 check sum: 0a6289f5291fc8f409219462bc851e1f
     Pseudo is Ultrasoft + core correction, Zval =  3.0
     Generated by new atomic code, or converted to UPF format
     Using radial grid of  893 points,  3 beta functions with:
                l(1) =   0
                l(2) =   1
                l(3) =   2
     Q(r) pseudized with  8 coefficients,  rinner =    0.900   0.900   0.900
                                                       0.900   0.900

     PseudoPot. # 2 for O  read from file:
     /u/if/mamunm/psp/gbrv1.5pbe/O.UPF
     MD5 check sum: 734c27235a0248c51dbae37a1fbe46ec
     Pseudo is Ultrasoft + core correction, Zval =  6.0
     Generated by new atomic code, or converted to UPF format
     Using radial grid of  737 points,  5 beta functions with:
                l(1) =   0
                l(2) =   0
                l(3) =   1
                l(4) =   1
                l(5) =   2
     Q(r) pseudized with  8 coefficients,  rinner =    0.900   0.900   0.900
                                                       0.900   0.900

     vdW kernel table read from file vdW_kernel_table
     MD5 check sum: 095c7af220d748ca6e76c0b4c6cfb241

     atomic species   valence    mass     pseudopotential
        Al1            3.00    26.98154     Al( 1.00)
        O1             6.00    15.99900     O ( 1.00)

     No symmetry found

   Cartesian axes

     site n.     atom                  positions (alat units)
         1           Al1 tau(   1) = (   1.4207216   0.8202540  10.0000000  )
         2           Al1 tau(   2) = (   4.2621647   0.8202540  10.0000000  )
         3           Al1 tau(   3) = (   2.8414431   3.2810159  10.0000000  )
         4           Al1 tau(   4) = (   5.6828862   3.2810159  10.0000000  )
         5           Al1 tau(   5) = (   5.6828862   1.6405079  12.3200286  )
         6           Al1 tau(   6) = (   2.8414431   1.6405079  12.3200286  )
         7           Al1 tau(   7) = (   7.1036078   4.1012699  12.3200286  )
         8           Al1 tau(   8) = (   4.2621647   4.1012699  12.3200286  )
         9           Al1 tau(   9) = (   0.0000000   0.0000000  14.6400572  )
        10           Al1 tau(  10) = (   2.8414431   0.0000000  14.6400572  )
        11           Al1 tau(  11) = (   1.4207216   2.4607619  14.6400572  )
        12           Al1 tau(  12) = (   4.2621647   2.4607619  14.6400572  )
        13           O1  tau(  13) = (   2.8414431   1.6405079  15.8555572  )

     number of k points=    20  Fermi-Dirac smearing, width (Ry)=  0.0110
                       cart. coord. in units 2pi/alat
        k(    1) = (   0.0000000   0.0000000   0.0000000), wk =   0.0555556
        k(    2) = (   0.0000000   0.0338648   0.0000000), wk =   0.1111111
        k(    3) = (   0.0000000   0.0677297   0.0000000), wk =   0.1111111
        k(    4) = (   0.0000000  -0.1015945   0.0000000), wk =   0.0555556
        k(    5) = (   0.0293278  -0.0169324   0.0000000), wk =   0.1111111
        k(    6) = (   0.0293278   0.0169324   0.0000000), wk =   0.1111111
        k(    7) = (   0.0293278   0.0507973   0.0000000), wk =   0.1111111
        k(    8) = (   0.0293278  -0.1185270   0.0000000), wk =   0.1111111
        k(    9) = (   0.0293278  -0.0846621   0.0000000), wk =   0.1111111
        k(   10) = (   0.0293278  -0.0507973   0.0000000), wk =   0.1111111
        k(   11) = (   0.0586556  -0.0338648   0.0000000), wk =   0.1111111
        k(   12) = (   0.0586556   0.0000000   0.0000000), wk =   0.1111111
        k(   13) = (   0.0586556   0.0338648   0.0000000), wk =   0.1111111
        k(   14) = (   0.0586556  -0.1354594   0.0000000), wk =   0.1111111
        k(   15) = (   0.0586556  -0.1015945   0.0000000), wk =   0.1111111
        k(   16) = (   0.0586556  -0.0677297   0.0000000), wk =   0.1111111
        k(   17) = (  -0.0879835   0.0507973   0.0000000), wk =   0.0555556
        k(   18) = (  -0.0879835   0.0846621   0.0000000), wk =   0.1111111
        k(   19) = (  -0.0879835   0.1185270   0.0000000), wk =   0.1111111
        k(   20) = (  -0.0879835  -0.0507973   0.0000000), wk =   0.0555556

     Largest allocated arrays     est. size (Mb)     dimensions
     Largest temporary arrays     est. size (Mb)     dimensions

     Initial potential from superposition of free atoms
     Check: negative starting charge=   -0.000307

     starting charge   41.97041, renormalised to   42.00000

     negative rho (up, down):  3.070E-04 0.000E+00

     *
     * You are using vdW-DF for exchange-correlation in this calculation.
     * Please cite the following three references that made this development
     * possible:
     *
     *   M. Dion, H. Rydberg, E. Schroder, D. C. Langreth, and
     *   B. I. Lundqvist, Phys. Rev. Lett. 92, 246401 (2004).
     *
     *   T. Thonhauser, V. R. Cooper, S. Li, A. Puzder, P. Hyldgaard, and
     *   D. C. Langreth, Phys. Rev. B 76, 125112 (2007).
     *
     *   G. Roman-Perez and J. M. Soler, Phys. Rev. Lett. 103, 096102 (2009).
     *
     *
     * If you are using vdW-DF2, please also cite:
     *
     *   K. Lee, E. D. Murray, L. Kong, B. I. Lundqvist, and
     *   D. C. Langreth, Phys. Rev. B 82, 081101(R) (2010).
     *
     *
     * If you are calculating the stress with vdW-DF, please also cite:
     *
     *   R. Sabatini, E. Kucukbenli, B. Kolb, T. Thonhauser, and
     *   S. de Gironcoli, J. Phys.: Condens. Matter 24, 424209 (2012).
     *

     Carrying out vdW-DF run using the following parameters:

     Nqs =      20    Nr_points =    1024   r_max =   100.000
     q_mesh =
               0.00001000     0.04494208     0.09755937     0.15916263
               0.23128650     0.31572767     0.41458969     0.53033537
               0.66584808     0.82450364     1.01025438     1.22772762
               1.48234092     1.78043706     2.12944203     2.53805004
               3.01644009     3.57652955     4.23227104     5.00000000

     Gradients computed in reciprocal space

     Adding external electric field

     Computed dipole along edir(3) :
        Dipole               -0.0282 Ry au,         -0.0718 Debye
        Dipole field         -0.0001 Ry au

        Potential amp.        0.0069 Ry
        Total length         45.3989 bohr

     Starting wfc are   52 randomized atomic wfcs

     Self-consistent Calculation

     iteration #  1     ecut=    36.75 Ry     beta=0.30
     Davidson diagonalization with overlap
     ethr =  1.00E-02,  avg # of iterations =  3.0

[...]

     total energy              =    -114.71648448 Ry
     Harris-Foulkes estimate   =    -115.33092540 Ry
     estimated scf accuracy    <       1.41955270 Ry

[...]

     End of self-consistent calculation

          k = 0.0000 0.0000 0.0000 ( 17579 PWs)   bands (ev):

   -19.4450 -11.5395  -9.7512  -6.9919  -6.2723  -6.2723  -5.9400  -5.6467
    -5.5971  -5.5971  -5.2726  -5.2726  -4.9432  -4.2736  -4.2736  -3.8733
    -3.6744  -3.1053  -3.1053  -2.7761  -1.3634  -1.1370  -1.1370  -0.3955
    -0.3955  -0.2508   0.3436   1.6899   1.7165   1.7165   2.0131

[...]

          k =-0.0880 0.0508 0.0000 ( 17464 PWs)   bands (ev):

[...]

     the Fermi energy is    -0.9161 ev

!    total energy              =    -115.06256893 Ry
     Harris-Foulkes estimate   =    -115.06260635 Ry
     estimated scf accuracy    <       0.00000917 Ry

     The total energy is the sum of the following terms:

     one-electron contribution =    -807.72242768 Ry
     hartree contribution      =     413.02180800 Ry
     xc contribution           =     -60.73594443 Ry
     ewald contribution        =     340.40244632 Ry
     electric field correction =       0.00016520 Ry
     smearing contrib. (-TS)   =      -0.02861635 Ry

     convergence has been achieved in  10 iterations

 BEEF-vdW xc energy contributions
           1 :   -50.0361766916114
           2 :    42.9549125655987
           3 :   -32.0719645803022
           4 :    21.6535131370396
           5 :   -14.4426300686062
           6 :    10.6590831781346
           7 :   -8.79919631669677
           8 :    7.27283737874293
           9 :   -5.53626899198134
          10 :    4.03004179787506
          11 :   -3.31393030144825
          12 :    3.34021916005128
          13 :   -3.48055534150768
          14 :    3.13362079193885
          15 :   -2.25118526416653
          16 :    1.29445179478937
          17 :  -0.735791390309174
          18 :   0.632110417922377
          19 :  -0.652639903963646
          20 :   0.458221446001829
          21 :  -2.266677344600510E-002
          22 :  -0.396081944704719
          23 :   0.554430111862445
          24 :  -0.469356114806317
          25 :   0.380062611078763
          26 :  -0.491980756147363
          27 :   0.771874431945079
          28 :  -0.993349102874994
          29 :   0.971418584834787
          30 :  -0.742227943349086
          31 :   -7.28722180571901
          32 :   -5.26773648871512

     Forces acting on atoms (Ry/au):

     negative rho (up, down):  5.240E-04 0.000E+00
     atom    1 type  1   force =     0.00052462    0.00030289    0.00052475
     atom    2 type  1   force =    -0.00052467    0.00030290    0.00052479
     atom    3 type  1   force =    -0.00000003   -0.00060577    0.00052475
     atom    4 type  1   force =     0.00000001    0.00000000   -0.00279073
     atom    5 type  1   force =    -0.00000005   -0.00110616    0.00205322
     atom    6 type  1   force =     0.00000001    0.00000001    0.00084423
     atom    7 type  1   force =     0.00095790    0.00055310    0.00205330
     atom    8 type  1   force =    -0.00095806    0.00055310    0.00205329
     atom    9 type  1   force =    -0.00000001    0.00000010   -0.01685925
     atom   10 type  1   force =    -0.00000009    0.01847210    0.03861906
     atom   11 type  1   force =     0.01599722   -0.00923596    0.03861918
     atom   12 type  1   force =    -0.01599743   -0.00923614    0.03861904
     atom   13 type  2   force =     0.00000060   -0.00000018   -0.10478563

     Total force =     0.129469     Total SCF correction =     0.000826

     entering subroutine stress ...

     negative rho (up, down):  5.240E-04 0.000E+00
          total   stress  (Ry/bohr**3)                   (kbar)     P=  -11.93
  -0.00009249   0.00000000   0.00000000        -13.61      0.00      0.00
   0.00000000  -0.00009249  -0.00000000          0.00    -13.61     -0.00
   0.00000000  -0.00000000  -0.00005824          0.00     -0.00     -8.57

     BFGS Geometry Optimization

     number of scf cycles    =   1
     number of bfgs steps    =   0

     energy   new            =    -115.0625689349 Ry

     new trust radius        =       0.1047856301 bohr
     new conv_thr            =       0.0000099958 Ry

ATOMIC_POSITIONS (crystal)
Al1      0.166666667   0.166666667   0.405843214    0   0   0
Al1      0.666666667   0.166666667   0.405843214    0   0   0
Al1      0.166666667   0.666666667   0.405843214    0   0   0
Al1      0.666666667   0.666666667   0.405843214    0   0   0
Al1      0.833333333   0.333333333   0.500000000    0   0   0
Al1      0.333333333   0.333333333   0.500000000    0   0   0
Al1      0.833333333   0.833333333   0.500000000    0   0   0
Al1      0.333333333   0.833333333   0.500000000    0   0   0
Al1     -0.000000006   0.000000010   0.593794712
Al1      0.499006904   0.001986176   0.594986180
Al1      0.001986163   0.499006922   0.594986183
Al1      0.499006905   0.499006902   0.594986180
O1       0.333333399   0.333333314   0.641236621

     Writing output data file calc.save
     Check: negative starting charge=   -0.000307
     NEW-OLD atomic charge density approx. for the potential
     Check: negative starting charge=   -0.000309

[...]

     energy   old            =    -115.0625689349 Ry
     energy   new            =    -115.0772940446 Ry

     CASE: energy  _new < energy  _old

[...]

     Threshold (ethr) on eigenvalues was too large:
     Diagonalizing with lowered threshold

     Davidson diagonalization with overlap
     ethr =  1.05E-08,  avg # of iterations =  2.9

[...]

     WARNING: bfgs curvature condition failed, Theta= 0.851
     new trust radius        =       0.0052664587 bohr
     new conv_thr            =       0.0000001000 Ry

[...]

     Threshold (ethr) on eigenvalues was too large:
     Diagonalizing with lowered threshold

     Davidson diagonalization with overlap
     ethr =  4.80E-08,  avg # of iterations =  2.0

[...]

     number of scf cycles    =  11
     number of bfgs steps    =  10

     energy   old            =    -115.1016635607 Ry
     energy   new            =    -115.1017812930 Ry

     CASE: energy  _new < energy  _old

     new trust radius        =       0.0177742980 bohr
     new conv_thr            =       0.0000001000 Ry

ATOMIC_POSITIONS (crystal)
Al1      0.166666667   0.166666667   0.405843214    0   0   0
Al1      0.666666667   0.166666667   0.405843214    0   0   0
Al1      0.166666667   0.666666667   0.405843214    0   0   0
Al1      0.666666667   0.666666667   0.405843214    0   0   0
Al1      0.833333333   0.333333333   0.500000000    0   0   0
Al1      0.333333333   0.333333333   0.500000000    0   0   0
Al1      0.833333333   0.833333333   0.500000000    0   0   0
Al1      0.333333333   0.833333333   0.500000000    0   0   0
Al1      0.000000014  -0.000000004   0.589532087
Al1      0.505108486  -0.010216937   0.597013546
Al1     -0.010216914   0.505108468   0.597013551
Al1      0.505108490   0.505108458   0.597013544
O1       0.333333354   0.333333331   0.630307216

     Writing output data file calc.save
     Check: negative starting charge=   -0.000297
     NEW-OLD atomic charge density approx. for the potential
     Check: negative starting charge=   -0.000297

[...]

     Self-consistent Calculation

[...]

     total energy              =    -115.10190646 Ry
     Harris-Foulkes estimate   =    -115.10190649 Ry
     estimated scf accuracy    <       0.00000016 Ry

     iteration #  8     ecut=    36.75 Ry     beta=0.30
     Davidson diagonalization with overlap
     ethr =  3.72E-10,  avg # of iterations =  2.0

[...]

     negative rho (up, down):  4.964E-04 0.000E+00

     Adding external electric field

     Computed dipole along edir(3) :
        Dipole               -0.0391 Ry au,         -0.0995 Debye
        Dipole field         -0.0001 Ry au

        Potential amp.        0.0096 Ry
        Total length         45.3989 bohr

     End of self-consistent calculation

[...]

          k = 0.0587-0.0677 0.0000 ( 17495 PWs)   bands (ev):

[...]

          k =-0.0880-0.0508 0.0000 ( 17464 PWs)   bands (ev):

   -20.7181  -9.8846  -9.6469  -8.5072  -7.8655  -7.6864  -6.8641  -6.7380
    -6.4257  -5.7220  -5.2950  -4.8407  -4.5824  -3.8020  -2.4068  -2.2967
    -2.1460  -1.2502  -1.0526  -0.9458  -0.5944  -0.4945   0.4422   0.5263
     0.9727   0.9965   1.3485   1.4354   1.4922   1.7372   2.1967

     the Fermi energy is    -0.6044 ev

!    total energy              =    -115.10190646 Ry
     Harris-Foulkes estimate   =    -115.10190645 Ry
     estimated scf accuracy    <          9.2E-09 Ry

     The total energy is the sum of the following terms:

     one-electron contribution =    -827.57280398 Ry
     hartree contribution      =     423.11752720 Ry
     xc contribution           =     -60.89808913 Ry
     ewald contribution        =     350.28110061 Ry
     electric field correction =       0.00000414 Ry
     smearing contrib. (-TS)   =      -0.02964531 Ry

     convergence has been achieved in   8 iterations

 BEEF-vdW xc energy contributions
           1 :   -50.1955222092331
           2 :    43.1298055350377
           3 :   -32.2323865227879
           4 :    21.7414614294076
           5 :   -14.4179803440363
           6 :    10.5249749508031
           7 :   -8.59797245618380
           8 :    7.06111764529697
           9 :   -5.35476524628733
          10 :    3.88599785852621
          11 :   -3.18586065554101
          12 :    3.20150477538255
          13 :   -3.32418038688298
          14 :    2.97684145827723
          15 :   -2.11673840526271
          16 :    1.18939602414714
          17 :  -0.648849007426719
          18 :   0.547358365516004
          19 :  -0.563327750770355
          20 :   0.369258740755683
          21 :   5.763804698509745E-002
          22 :  -0.464365504120437
          23 :   0.611370814647259
          24 :  -0.511534283571436
          25 :   0.394955947426084
          26 :  -0.464248364968583
          27 :   0.698129248425168
          28 :  -0.890088325337103
          29 :   0.865207832638291
          30 :  -0.651717358903433
          31 :   -7.29632133911707
          32 :   -5.27538050488523

     Forces acting on atoms (Ry/au):

     negative rho (up, down):  4.964E-04 0.000E+00
     atom    1 type  1   force =     0.00200508    0.00115763   -0.00021570
     atom    2 type  1   force =    -0.00200508    0.00115763   -0.00021570
     atom    3 type  1   force =     0.00000000   -0.00231528   -0.00021571
     atom    4 type  1   force =     0.00000000   -0.00000000   -0.00249845
     atom    5 type  1   force =     0.00000000    0.00480634    0.00423579
     atom    6 type  1   force =    -0.00000001    0.00000000   -0.00438221
     atom    7 type  1   force =    -0.00416241   -0.00240317    0.00423579
     atom    8 type  1   force =     0.00416241   -0.00240317    0.00423578
     atom    9 type  1   force =     0.00000000   -0.00000000    0.00041090
     atom   10 type  1   force =    -0.00000001    0.00019157   -0.00136399
     atom   11 type  1   force =     0.00016589   -0.00009579   -0.00136401
     atom   12 type  1   force =    -0.00016590   -0.00009578   -0.00136399
     atom   13 type  2   force =     0.00000001   -0.00000001   -0.00149850

     Total force =     0.002847     Total SCF correction =     0.000146

     entering subroutine stress ...

     negative rho (up, down):  4.964E-04 0.000E+00
          total   stress  (Ry/bohr**3)                   (kbar)     P=   -6.55
  -0.00006526  -0.00000000  -0.00000000         -9.60     -0.00     -0.00
  -0.00000000  -0.00006526  -0.00000000         -0.00     -9.60     -0.00
  -0.00000000  -0.00000000  -0.00000309         -0.00     -0.00     -0.46

     bfgs converged in  12 scf cycles and  11 bfgs steps
     (criteria: energy <  1.0E+00, force <  1.9E-03)

     End of BFGS Geometry Optimization

     Final energy   =    -115.1019064617 Ry
Begin final coordinates

ATOMIC_POSITIONS (crystal)
Al1      0.166666667   0.166666667   0.405843214    0   0   0
Al1      0.666666667   0.166666667   0.405843214    0   0   0
Al1      0.166666667   0.666666667   0.405843214    0   0   0
Al1      0.666666667   0.666666667   0.405843214    0   0   0
Al1      0.833333333   0.333333333   0.500000000    0   0   0
Al1      0.333333333   0.333333333   0.500000000    0   0   0
Al1      0.833333333   0.833333333   0.500000000    0   0   0
Al1      0.333333333   0.833333333   0.500000000    0   0   0
Al1      0.000000014  -0.000000004   0.589532087
Al1      0.505108486  -0.010216937   0.597013546
Al1     -0.010216914   0.505108468   0.597013551
Al1      0.505108490   0.505108458   0.597013544
O1       0.333333354   0.333333331   0.630307216
End final coordinates

     Writing output data file calc.save

     General routines

     Parallel routines

   This run was terminated on:  17:23:19  30Apr2018

   JOB DONE.
Job  /afs/slac/g/suncat/bin/suncat-tsmpirun -x LD_LIBRARY_PATH -wdir /scratch/qe534771_HKihr pw.x -npool 4 -in pw.inp

TID   HOST_NAME   COMMAND_LINE            STATUS            TERMINATION_TIME
00000 suncat0259 pw.x -npool 4 -i  Done                     04/30/2018 17:23:19
00001 suncat0259 pw.x -npool 4 -i  Done                     04/30/2018 17:23:19
00002 suncat0259 pw.x -npool 4 -i  Done                     04/30/2018 17:23:19
00003 suncat0259 pw.x -npool 4 -i  Done                     04/30/2018 17:23:19
00004 suncat0259 pw.x -npool 4 -i  Done                     04/30/2018 17:23:19
00005 suncat0259 pw.x -npool 4 -i  Done                     04/30/2018 17:23:19
00006 suncat0259 pw.x -npool 4 -i  Done                     04/30/2018 17:23:19
00007 suncat0259 pw.x -npool 4 -i  Done                     04/30/2018 17:23:19
00008 suncat0258 pw.x -npool 4 -i  Done                     04/30/2018 17:23:19
00009 suncat0258 pw.x -npool 4 -i  Done                     04/30/2018 17:23:19
00010 suncat0258 pw.x -npool 4 -i  Done                     04/30/2018 17:23:19
00011 suncat0258 pw.x -npool 4 -i  Done                     04/30/2018 17:23:19
00012 suncat0258 pw.x -npool 4 -i  Done                     04/30/2018 17:23:19
00013 suncat0258 pw.x -npool 4 -i  Done                     04/30/2018 17:23:19
00014 suncat0258 pw.x -npool 4 -i  Done                     04/30/2018 17:23:19
00015 suncat0258 pw.x -npool 4 -i  Done                     04/30/2018 17:23:19
00016 suncat0248 pw.x -npool 4 -i  Done                     04/30/2018 17:23:19
00017 suncat0248 pw.x -npool 4 -i  Done                     04/30/2018 17:23:19
00018 suncat0248 pw.x -npool 4 -i  Done                     04/30/2018 17:23:19
00019 suncat0248 pw.x -npool 4 -i  Done                     04/30/2018 17:23:19
00020 suncat0248 pw.x -npool 4 -i  Done                     04/30/2018 17:23:19
00021 suncat0248 pw.x -npool 4 -i  Done                     04/30/2018 17:23:19
00022 suncat0248 pw.x -npool 4 -i  Done                     04/30/2018 17:23:19
00023 suncat0248 pw.x -npool 4 -i  Done                     04/30/2018 17:23:19
00024 suncat0217 pw.x -npool 4 -i  Done                     04/30/2018 17:23:19
00025 suncat0217 pw.x -npool 4 -i  Done                     04/30/2018 17:23:19
00026 suncat0217 pw.x -npool 4 -i  Done                     04/30/2018 17:23:19
00027 suncat0217 pw.x -npool 4 -i  Done                     04/30/2018 17:23:19
00028 suncat0217 pw.x -npool 4 -i  Done                     04/30/2018 17:23:19
00029 suncat0217 pw.x -npool 4 -i  Done                     04/30/2018 17:23:19
00030 suncat0217 pw.x -npool 4 -i  Done                     04/30/2018 17:23:19
00031 suncat0217 pw.x -npool 4 -i  Done                     04/30/2018 17:23:19