     Program PWSCF v.5.1rc2 (svn rev. ) starts on 18Apr2018 at 21:51:38

     Current dimensions of program PWSCF are:
     Max number of different atomic species (ntypx) = 10
     Max number of k-points (npk) =  40000
     Max angular momentum in pseudopotentials (lmaxx) =  3
     Presently stress not available with electric field

     IMPORTANT: XC functional enforced from input :
     Exchange-correlation      = BEEF-VDW ( 1  4 27 13 2)
     Any further DFT definition will be discarded
     Please, verify this is what you really want

     Subspace diagonalization in iterative solution of the eigenvalue problem:
     a serial algorithm will be used

     bravais-lattice index     =            0
     lattice parameter (alat)  =       1.8897  a.u.
     unit-cell volume          =    8507.0471 (a.u.)^3
     number of atoms/cell      =           14
     number of atomic types    =            3
     number of electrons       =       139.00
     number of Kohn-Sham states=           79
     kinetic-energy cutoff     =      36.7493  Ry
     charge density cutoff     =     367.4932  Ry
     convergence threshold     =      1.0E-05
     mixing beta               =       0.3000
     number of iterations used =           10  plain     mixing
     Exchange-correlation      = BEEF-VDW ( 1  4 27 13 2)
     nstep                     =           50

     celldm(1)=   1.889726  celldm(2)=   0.000000  celldm(3)=   0.000000
     celldm(4)=   0.000000  celldm(5)=   0.000000  celldm(6)=   0.000000

     crystal axes: (cart. coord. in units of alat)
               a(1) = (   7.468327   0.000000   0.000000 )
               a(2) = (   3.734164   6.467761   0.000000 )
               a(3) = (   0.000000   0.000000  26.097863 )

     reciprocal axes: (cart. coord. in units 2 pi/alat)
               b(1) = (  0.133899 -0.077307  0.000000 )
               b(2) = (  0.000000  0.154613  0.000000 )
               b(3) = (  0.000000  0.000000  0.038317 )

     PseudoPot. # 1 for La read from file:
     /home/mamunm/src/pseudo/gbrv1.5pbe/La.UPF
     MD5 check sum: 5937b0c7494ba0601a847275249473aa
     Pseudo is Ultrasoft + core correction, Zval = 11.0
     Generated by new atomic code, or converted to UPF format
     Using radial grid of  995 points,  8 beta functions with:
                l(1) =   0
                l(2) =   0
                l(3) =   1
                l(4) =   1
                l(5) =   2
                l(6) =   2
                l(7) =   3
                l(8) =   3
     Q(r) pseudized with  8 coefficients,  rinner =    1.700   1.700   1.700
                                                       1.700   1.700   1.700
                                                       1.700

     PseudoPot. # 2 for O  read from file:
     /home/mamunm/src/pseudo/gbrv1.5pbe/O.UPF
     MD5 check sum: 734c27235a0248c51dbae37a1fbe46ec
     Pseudo is Ultrasoft + core correction, Zval =  6.0
     Generated by new atomic code, or converted to UPF format
     Using radial grid of  737 points,  5 beta functions with:
                l(1) =   0
                l(2) =   0
                l(3) =   1
                l(4) =   1
                l(5) =   2
     Q(r) pseudized with  8 coefficients,  rinner =    0.900   0.900   0.900
                                                       0.900   0.900

     PseudoPot. # 3 for H  read from file:
     /home/mamunm/src/pseudo/gbrv1.5pbe/H.UPF
     MD5 check sum: 761ae9a214b05c3daf00ab9f6b793d6f
     Pseudo is Ultrasoft, Zval =  1.0
     Generated by new atomic code, or converted to UPF format
     Using radial grid of  615 points,  2 beta functions with:
                l(1) =   0
                l(2) =   0
     Q(r) pseudized with  8 coefficients,  rinner =    0.700

     vdW kernel table read from file vdW_kernel_table
     MD5 check sum: 095c7af220d748ca6e76c0b4c6cfb241

     atomic species   valence    mass     pseudopotential
        La1           11.00   138.90547     La( 1.00)
        O1             6.00    15.99900     O ( 1.00)
        H1             1.00     1.00800     H ( 1.00)

     No symmetry found

   Cartesian axes

     site n.     atom                  positions (alat units)
         1           La1 tau(   1) = (   1.8670818   1.0779602  10.0000000  )
         2           La1 tau(   2) = (   5.6012453   1.0779602  10.0000000  )
         3           La1 tau(   3) = (   3.7341635   4.3118406  10.0000000  )
         4           La1 tau(   4) = (   7.4683270   4.3118406  10.0000000  )
         5           La1 tau(   5) = (   7.4683270   2.1559203  13.0489317  )
         6           La1 tau(   6) = (   3.7341635   2.1559203  13.0489317  )
         7           La1 tau(   7) = (   9.3354088   5.3898008  13.0489317  )
         8           La1 tau(   8) = (   5.6012453   5.3898008  13.0489317  )
         9           La1 tau(   9) = (   0.0000000   0.0000000  16.0978635  )
        10           La1 tau(  10) = (   3.7341635   0.0000000  16.0978635  )
        11           La1 tau(  11) = (   1.8670818   3.2338805  16.0978635  )
        12           La1 tau(  12) = (   5.6012453   3.2338805  16.0978635  )
        13           O1  tau(  13) = (   1.8670818   1.0779602  17.8723635  )
        14           H1  tau(  14) = (   1.8670818   1.0779602  18.8223635  )

     number of k points=    20  Fermi-Dirac smearing, width (Ry)=  0.0110
                       cart. coord. in units 2pi/alat
        k(    1) = (   0.0000000   0.0000000   0.0000000), wk =   0.0555556
        k(    2) = (   0.0000000   0.0257688   0.0000000), wk =   0.1111111
        k(    3) = (   0.0000000   0.0515377   0.0000000), wk =   0.1111111
        k(    4) = (   0.0000000  -0.0773065   0.0000000), wk =   0.0555556
        k(    5) = (   0.0223165  -0.0128844   0.0000000), wk =   0.1111111
        k(    6) = (   0.0223165   0.0128844   0.0000000), wk =   0.1111111
        k(    7) = (   0.0223165   0.0386533   0.0000000), wk =   0.1111111
        k(    8) = (   0.0223165  -0.0901909   0.0000000), wk =   0.1111111
        k(    9) = (   0.0223165  -0.0644221   0.0000000), wk =   0.1111111
        k(   10) = (   0.0223165  -0.0386533   0.0000000), wk =   0.1111111
        k(   11) = (   0.0446329  -0.0257688   0.0000000), wk =   0.1111111
        k(   12) = (   0.0446329   0.0000000   0.0000000), wk =   0.1111111
        k(   13) = (   0.0446329   0.0257688   0.0000000), wk =   0.1111111
        k(   14) = (   0.0446329  -0.1030753   0.0000000), wk =   0.1111111
        k(   15) = (   0.0446329  -0.0773065   0.0000000), wk =   0.1111111
        k(   16) = (   0.0446329  -0.0515377   0.0000000), wk =   0.1111111
        k(   17) = (  -0.0669494   0.0386533   0.0000000), wk =   0.0555556
        k(   18) = (  -0.0669494   0.0644221   0.0000000), wk =   0.1111111
        k(   19) = (  -0.0669494   0.0901909   0.0000000), wk =   0.1111111
        k(   20) = (  -0.0669494  -0.0386533   0.0000000), wk =   0.0555556

     Largest allocated arrays     est. size (Mb)     dimensions
     Largest temporary arrays     est. size (Mb)     dimensions

     Initial potential from superposition of free atoms
     Check: negative starting charge=   -0.831199

     starting charge  138.61517, renormalised to  139.00000

     negative rho (up, down):  8.335E-01 0.000E+00

     *
     * You are using vdW-DF for exchange-correlation in this calculation.
     * Please cite the following three references that made this development
     * possible:
     *
     *   M. Dion, H. Rydberg, E. Schroder, D. C. Langreth, and
     *   B. I. Lundqvist, Phys. Rev. Lett. 92, 246401 (2004).
     *
     *   T. Thonhauser, V. R. Cooper, S. Li, A. Puzder, P. Hyldgaard, and
     *   D. C. Langreth, Phys. Rev. B 76, 125112 (2007).
     *
     *   G. Roman-Perez and J. M. Soler, Phys. Rev. Lett. 103, 096102 (2009).
     *
     *
     * If you are using vdW-DF2, please also cite:
     *
     *   K. Lee, E. D. Murray, L. Kong, B. I. Lundqvist, and
     *   D. C. Langreth, Phys. Rev. B 82, 081101(R) (2010).
     *
     *
     * If you are calculating the stress with vdW-DF, please also cite:
     *
     *   R. Sabatini, E. Kucukbenli, B. Kolb, T. Thonhauser, and
     *   S. de Gironcoli, J. Phys.: Condens. Matter 24, 424209 (2012).
     *

     Carrying out vdW-DF run using the following parameters:

     Nqs =      20    Nr_points =    1024   r_max =   100.000
     q_mesh =
               0.00001000     0.04494208     0.09755937     0.15916263
               0.23128650     0.31572767     0.41458969     0.53033537
               0.66584808     0.82450364     1.01025438     1.22772762
               1.48234092     1.78043706     2.12944203     2.53805004
               3.01644009     3.57652955     4.23227104     5.00000000

     Gradients computed in reciprocal space

     Adding external electric field

     Computed dipole along edir(3) :
        Dipole               -0.1820 Ry au,         -0.4626 Debye
        Dipole field         -0.0003 Ry au

        Potential amp.        0.0259 Ry
        Total length         48.0849 bohr

     Starting wfc are  245 randomized atomic wfcs

     Self-consistent Calculation

     iteration #  1     ecut=    36.75 Ry     beta=0.30
     Davidson diagonalization with overlap
     ethr =  1.00E-02,  avg # of iterations =  2.0

[...]

     total energy              =   -1279.15041164 Ry
     Harris-Foulkes estimate   =   -1283.07911899 Ry
     estimated scf accuracy    <       8.23715177 Ry

[...]

     iteration #  8     ecut=    36.75 Ry     beta=0.30
     Davidson diagonalization with overlap
     c_bands:  1 eigenvalues not converged
     ethr =  2.22E-04,  avg # of iterations =  7.8

[...]

     End of self-consistent calculation

          k = 0.0000 0.0000 0.0000 ( 31997 PWs)   bands (ev):

   -31.3172 -31.2908 -31.1867 -31.1828 -31.1815 -31.1599 -31.1596 -31.1590
   -30.8250 -30.7046 -30.7044 -30.6987 -18.1583 -15.4100 -15.4096 -15.3900
   -15.3379 -15.3378 -15.3193 -15.2276 -15.1415 -15.1412 -15.1396 -14.9459
   -14.7978 -14.7944 -14.7938 -14.6194 -14.6123 -14.6121 -14.5781 -14.5778
   -14.5747 -14.5430 -14.5429 -14.5400 -14.3204 -14.3204 -14.2955 -14.2955
   -14.2103 -14.2101 -14.2050 -14.1741 -14.1055 -14.1045 -14.1044 -13.8758
   -13.8757  -5.5815  -1.8658  -1.8658  -0.7098   0.0054   0.3782   0.4054
     0.4585   0.4586   0.6915   0.6916   0.7854   0.9208   0.9209   0.9708
     1.0621   1.0623   1.1503   1.8089   1.8091   2.0585   2.2357   2.4741
     2.6430   2.6430   2.6754   2.9072   3.1462   3.2461   3.2520

[...]

          k =-0.0669 0.0387 0.0000 ( 31970 PWs)   bands (ev):

[...]

     the Fermi energy is     2.0642 ev

!    total energy              =   -1282.11445568 Ry
     Harris-Foulkes estimate   =   -1282.11445030 Ry
     estimated scf accuracy    <       0.00000795 Ry

     The total energy is the sum of the following terms:

     one-electron contribution =   -4850.54914827 Ry
     hartree contribution      =    2440.63560370 Ry
     xc contribution           =    -616.93670017 Ry
     ewald contribution        =    1744.85898040 Ry
     electric field correction =       0.00004546 Ry
     smearing contrib. (-TS)   =      -0.12323680 Ry

     convergence has been achieved in  16 iterations

 BEEF-vdW xc energy contributions
           1 :   -546.414945281412
           2 :    502.374229448396
           3 :   -424.595742552414
           4 :    329.790311630518
           5 :   -235.599567324624
           6 :    155.886809353526
           7 :   -98.1566938227553
           8 :    63.3228045853418
           9 :   -47.2642753219419
          10 :    43.2365220904647
          11 :   -44.2413951299080
          12 :    44.7166219912914
          13 :   -41.3200319187666
          14 :    32.9607522574217
          15 :   -20.4218942595879
          16 :    5.82757519352492
          17 :    7.99027821900052
          18 :   -18.2592677050038
          19 :    23.0809521286754
          20 :   -22.0573241989326
          21 :    16.4630294470199
          22 :   -8.83643670026686
          23 :    2.08995242027822
          24 :    1.53240578372174
          25 :   -1.22632562908768
          26 :   -2.20504986393792
          27 :    6.84850312129788
          28 :   -10.5949296309124
          29 :    12.0323152234604
          30 :   -10.9290859129682
          31 :   -46.5782362756767
          32 :   -33.3802854420967

     Forces acting on atoms (Ry/au):

     negative rho (up, down):  5.869E-01 0.000E+00
     atom    1 type  1   force =     0.00001157    0.00001050    0.00375996
     atom    2 type  1   force =    -0.00000253   -0.00177992    0.00521646
     atom    3 type  1   force =    -0.00154687    0.00090049    0.00517954
     atom    4 type  1   force =     0.00156667    0.00090088    0.00524865
     atom    5 type  1   force =    -0.00231722    0.00145906   -0.00054449
     atom    6 type  1   force =     0.00232297    0.00130897   -0.00048336
     atom    7 type  1   force =    -0.00013945   -0.00005044   -0.00468366
     atom    8 type  1   force =     0.00012190   -0.00272562   -0.00051912
     atom    9 type  1   force =     0.01601430    0.00926874    0.01579167
     atom   10 type  1   force =    -0.01599894    0.00927686    0.01570121
     atom   11 type  1   force =     0.00000759   -0.01850264    0.01570950
     atom   12 type  1   force =     0.00000702   -0.00003131   -0.00930510
     atom   13 type  2   force =    -0.00004865   -0.00003637   -0.09768910
     atom   14 type  3   force =     0.00000163    0.00000081    0.04661783

     Total force =     0.116501     Total SCF correction =     0.006713

     entering subroutine stress ...

     negative rho (up, down):  5.869E-01 0.000E+00
          total   stress  (Ry/bohr**3)                   (kbar)     P=   -2.82
  -0.00001301  -0.00000001   0.00000001         -1.91     -0.00      0.00
  -0.00000001  -0.00001297   0.00000001         -0.00     -1.91      0.00
   0.00000001   0.00000001  -0.00003158          0.00      0.00     -4.65

     BFGS Geometry Optimization

     number of scf cycles    =   1
     number of bfgs steps    =   0

     energy   new            =   -1282.1144556845 Ry

     new trust radius        =       0.0976891148 bohr
     new conv_thr            =       0.0000099958 Ry

ATOMIC_POSITIONS (crystal)
La1      0.166666667   0.166666667   0.383173129    0   0   0
La1      0.666666667   0.166666667   0.383173129    0   0   0
La1      0.166666667   0.666666667   0.383173129    0   0   0
La1      0.666666667   0.666666667   0.383173129    0   0   0
La1      0.833333333   0.333333333   0.500000000    0   0   0
La1      0.333333333   0.333333333   0.500000000    0   0   0
La1      0.833333333   0.833333333   0.500000000    0   0   0
La1      0.333333333   0.833333333   0.500000000    0   0   0
La1      0.000755539   0.000758347   0.617147073
La1      0.498486870   0.000759011   0.617145239
La1      0.000757459   0.498486157   0.617145407
La1      0.500001778   0.499997438   0.616638195
O1       0.166664707   0.166663691   0.682840135
H1       0.166666749   0.166666733   0.722167643

     Writing output data file calc.save
     Check: negative starting charge=   -0.831199
     NEW-OLD atomic charge density approx. for the potential
     Check: negative starting charge=   -0.831424

[...]

     energy   old            =   -1282.1144556845 Ry
     energy   new            =   -1282.1168666673 Ry

     CASE: energy  _new < energy  _old

[...]

     iteration #  9     ecut=    36.75 Ry     beta=0.30
     Davidson diagonalization with overlap
     c_bands:  1 eigenvalues not converged
     c_bands:  1 eigenvalues not converged
     ethr =  8.60E-09,  avg # of iterations = 12.5

[...]

     Threshold (ethr) on eigenvalues was too large:
     Diagonalizing with lowered threshold

     Davidson diagonalization with overlap
     ethr =  4.88E-08,  avg # of iterations =  5.2

[...]

     Total force =     0.004282     Total SCF correction =     0.000441
     SCF correction compared to forces is large: reduce conv_thr to get better values

[...]

     Total force =     0.003956     Total SCF correction =     0.000234

[...]

     number of scf cycles    =  25
     number of bfgs steps    =  24

     energy   old            =   -1282.1393820807 Ry
     energy   new            =   -1282.1394258580 Ry

     CASE: energy  _new < energy  _old

     new trust radius        =       0.0041187589 bohr
     new conv_thr            =       0.0000001000 Ry

ATOMIC_POSITIONS (crystal)
La1      0.166666667   0.166666667   0.383173129    0   0   0
La1      0.666666667   0.166666667   0.383173129    0   0   0
La1      0.166666667   0.666666667   0.383173129    0   0   0
La1      0.666666667   0.666666667   0.383173129    0   0   0
La1      0.833333333   0.333333333   0.500000000    0   0   0
La1      0.333333333   0.333333333   0.500000000    0   0   0
La1      0.833333333   0.833333333   0.500000000    0   0   0
La1      0.333333333   0.833333333   0.500000000    0   0   0
La1      0.001679519   0.001681193   0.616081193
La1      0.496645449   0.001678800   0.616081608
La1      0.001676869   0.496648307   0.616081807
La1      0.499998174   0.499995574   0.611102464
O1       0.166665212   0.166660430   0.669237397
H1       0.166667836   0.166666347   0.706615518

     Writing output data file calc.save
     Check: negative starting charge=   -0.832454
     NEW-OLD atomic charge density approx. for the potential
     Check: negative starting charge=   -0.832532

[...]

     Self-consistent Calculation

[...]

     Threshold (ethr) on eigenvalues was too large:
     Diagonalizing with lowered threshold

     Davidson diagonalization with overlap
     ethr =  7.68E-09,  avg # of iterations =  9.2

[...]

     total energy              =   -1282.13943081 Ry
     Harris-Foulkes estimate   =   -1282.13943088 Ry
     estimated scf accuracy    <       0.00000013 Ry

     iteration #  9     ecut=    36.75 Ry     beta=0.30
     Davidson diagonalization with overlap
     ethr =  8.05E-11,  avg # of iterations =  3.8

[...]

     negative rho (up, down):  5.846E-01 0.000E+00

     Adding external electric field

     Computed dipole along edir(3) :
        Dipole                0.2043 Ry au,          0.5194 Debye
        Dipole field          0.0003 Ry au

        Potential amp.       -0.0290 Ry
        Total length         48.0849 bohr

     End of self-consistent calculation

[...]

          k = 0.0446-0.0515 0.0000 ( 31991 PWs)   bands (ev):

[...]

          k =-0.0669-0.0387 0.0000 ( 31970 PWs)   bands (ev):

   -31.1883 -31.1826 -31.1791 -31.1573 -31.1159 -31.1131 -31.1118 -31.0514
   -30.7025 -30.6837 -30.6341 -30.6233 -19.2945 -15.1609 -15.1574 -15.1010
   -15.0848 -15.0594 -15.0553 -14.9640 -14.9621 -14.9097 -14.8847 -14.8336
   -14.8306 -14.7978 -14.7937 -14.7770 -14.7342 -14.7128 -14.7097 -14.6844
   -14.6577 -14.4684 -14.4239 -14.4108 -14.3817 -14.3750 -14.3453 -14.2825
   -14.2781 -14.2371 -14.2250 -14.1264 -14.1004 -14.0759 -14.0584 -13.9269
   -13.9108  -6.4896  -3.0479  -2.9867   0.5283   0.5731   0.9425   1.0080
     1.2637   1.2757   1.3245   1.3480   1.3635   1.5285   1.7090   1.7637
     1.9005   1.9111   1.9348   1.9524   2.1575   2.2404   2.2820   2.3026
     2.3229   2.3303   2.3833   2.5196   2.6295   2.6388   2.6567

     the Fermi energy is     2.1125 ev

!    total energy              =   -1282.13943079 Ry
     Harris-Foulkes estimate   =   -1282.13943064 Ry
     estimated scf accuracy    <       0.00000003 Ry

     The total energy is the sum of the following terms:

     one-electron contribution =   -4945.67215809 Ry
     hartree contribution      =    2488.19215139 Ry
     xc contribution           =    -617.05583449 Ry
     ewald contribution        =    1792.51973905 Ry
     electric field correction =       0.00006168 Ry
     smearing contrib. (-TS)   =      -0.12339033 Ry

     convergence has been achieved in   9 iterations

 BEEF-vdW xc energy contributions
           1 :   -546.548201329578
           2 :    502.587156901982
           3 :   -424.872930917274
           4 :    330.032694124212
           5 :   -235.705752888424
           6 :    155.824376042043
           7 :   -97.9799096826666
           8 :    63.1333304167995
           9 :   -47.1502222571013
          10 :    43.2296255617252
          11 :   -44.3099399139248
          12 :    44.7927863916248
          13 :   -41.3447716504000
          14 :    32.9203541106601
          15 :   -20.3534452533478
          16 :    5.78842682691993
          17 :    7.96557230691951
          18 :   -18.1815755609178
          19 :    22.9966912966493
          20 :   -22.0175271377357
          21 :    16.4921153542185
          22 :   -8.91921439031717
          23 :    2.18262047617804
          24 :    1.47656518554618
          25 :   -1.23206934639472
          26 :   -2.14611530855177
          27 :    6.76975308592250
          28 :   -10.5327972270439
          29 :    12.0064670919387
          30 :   -10.9369194254909
          31 :   -46.5875208097580
          32 :   -33.4057918296882

     Forces acting on atoms (Ry/au):

     negative rho (up, down):  5.846E-01 0.000E+00
     atom    1 type  1   force =     0.00000022   -0.00000013    0.00193229
     atom    2 type  1   force =    -0.00000009   -0.00219688    0.00438858
     atom    3 type  1   force =    -0.00190256    0.00109842    0.00438843
     atom    4 type  1   force =     0.00190264    0.00109857    0.00438849
     atom    5 type  1   force =    -0.00058826    0.00034053   -0.00307509
     atom    6 type  1   force =     0.00058789    0.00033959   -0.00307562
     atom    7 type  1   force =     0.00000050    0.00000064   -0.00549254
     atom    8 type  1   force =     0.00000041   -0.00068011   -0.00307499
     atom    9 type  1   force =     0.00005300    0.00002985   -0.00009797
     atom   10 type  1   force =    -0.00006036    0.00003335   -0.00009735
     atom   11 type  1   force =    -0.00000084   -0.00007220   -0.00009708
     atom   12 type  1   force =     0.00000318    0.00000339   -0.00012808
     atom   13 type  2   force =     0.00000536    0.00000601    0.00068632
     atom   14 type  3   force =    -0.00000109   -0.00000103   -0.00064539

     Total force =     0.000973     Total SCF correction =     0.000318
     SCF correction compared to forces is large: reduce conv_thr to get better values

     entering subroutine stress ...

     negative rho (up, down):  5.846E-01 0.000E+00
          total   stress  (Ry/bohr**3)                   (kbar)     P=    0.01
   0.00000596   0.00000000   0.00000000          0.88      0.00      0.00
   0.00000000   0.00000596   0.00000000          0.00      0.88      0.00
   0.00000000   0.00000000  -0.00001179          0.00      0.00     -1.73

     bfgs converged in  26 scf cycles and  25 bfgs steps
     (criteria: energy <  1.0E+00, force <  1.9E-03)

     End of BFGS Geometry Optimization

     Final energy   =   -1282.1394307851 Ry
Begin final coordinates

ATOMIC_POSITIONS (crystal)
La1      0.166666667   0.166666667   0.383173129    0   0   0
La1      0.666666667   0.166666667   0.383173129    0   0   0
La1      0.166666667   0.666666667   0.383173129    0   0   0
La1      0.666666667   0.666666667   0.383173129    0   0   0
La1      0.833333333   0.333333333   0.500000000    0   0   0
La1      0.333333333   0.333333333   0.500000000    0   0   0
La1      0.833333333   0.833333333   0.500000000    0   0   0
La1      0.333333333   0.833333333   0.500000000    0   0   0
La1      0.001679519   0.001681193   0.616081193
La1      0.496645449   0.001678800   0.616081608
La1      0.001676869   0.496648307   0.616081807
La1      0.499998174   0.499995574   0.611102464
O1       0.166665212   0.166660430   0.669237397
H1       0.166667836   0.166666347   0.706615518
End final coordinates

     Writing output data file calc.save

     General routines

     Parallel routines

   This run was terminated on:   2:14:20  19Apr2018

   JOB DONE.