     Program PWSCF v.5.1rc2 (svn rev. 11289) starts on  3May2018 at  1:19:57

     Current dimensions of program PWSCF are:
     Max number of different atomic species (ntypx) = 10
     Max number of k-points (npk) =  40000
     Max angular momentum in pseudopotentials (lmaxx) =  3
     Presently stress not available with electric field

     IMPORTANT: XC functional enforced from input :
     Exchange-correlation      = BEEF-VDW ( 1  4 27 13 2)
     Any further DFT definition will be discarded
     Please, verify this is what you really want

     Subspace diagonalization in iterative solution of the eigenvalue problem:
     a serial algorithm will be used

     bravais-lattice index     =            0
     lattice parameter (alat)  =       1.8897  a.u.
     unit-cell volume          =    7725.1200 (a.u.)^3
     number of atoms/cell      =           13
     number of atomic types    =            2
     number of electrons       =       138.00
     number of Kohn-Sham states=           79
     kinetic-energy cutoff     =      36.7493  Ry
     charge density cutoff     =     367.4932  Ry
     convergence threshold     =      1.0E-05
     mixing beta               =       0.3000
     number of iterations used =           10  plain     mixing
     Exchange-correlation      = BEEF-VDW ( 1  4 27 13 2)
     nstep                     =           50

     celldm(1)=   1.889726  celldm(2)=   0.000000  celldm(3)=   0.000000
     celldm(4)=   0.000000  celldm(5)=   0.000000  celldm(6)=   0.000000

     crystal axes: (cart. coord. in units of alat)
               a(1) = (   7.152277   0.000000   0.000000 )
               a(2) = (   3.576139   6.194054   0.000000 )
               a(3) = (   0.000000   0.000000  25.839810 )

     reciprocal axes: (cart. coord. in units 2 pi/alat)
               b(1) = (  0.139816 -0.080723  0.000000 )
               b(2) = (  0.000000  0.161445  0.000000 )
               b(3) = (  0.000000  0.000000  0.038700 )

     PseudoPot. # 1 for Y  read from file:
     /u/if/mamunm/psp/gbrv1.5pbe/Y.UPF
     MD5 check sum: d034151ed7554c50b6e82763ed42c788
     Pseudo is Ultrasoft + core correction, Zval = 11.0
     Generated by new atomic code, or converted to UPF format
     Using radial grid of  885 points,  6 beta functions with:
                l(1) =   0
                l(2) =   0
                l(3) =   1
                l(4) =   1
                l(5) =   2
                l(6) =   2
     Q(r) pseudized with  8 coefficients,  rinner =    1.200   1.200   1.200
                                                       1.200   1.200

     PseudoPot. # 2 for S  read from file:
     /u/if/mamunm/psp/gbrv1.5pbe/S.UPF
     MD5 check sum: 88d86576ff6df21479756cfb9bdac1df
     Pseudo is Ultrasoft + core correction, Zval =  6.0
     Generated by new atomic code, or converted to UPF format
     Using radial grid of  907 points,  6 beta functions with:
                l(1) =   0
                l(2) =   0
                l(3) =   1
                l(4) =   1
                l(5) =   2
                l(6) =   2
     Q(r) pseudized with  8 coefficients,  rinner =    1.300   1.300   1.300
                                                       1.300   1.300

     vdW kernel table read from file vdW_kernel_table
     MD5 check sum: 095c7af220d748ca6e76c0b4c6cfb241

     atomic species   valence    mass     pseudopotential
        Y1            11.00    88.90584     Y ( 1.00)
        S1             6.00    32.06000     S ( 1.00)

     No symmetry found

   Cartesian axes

     site n.     atom                  positions (alat units)
         1           Y1  tau(   1) = (   1.7880693   1.0323423  10.0000000  )
         2           Y1  tau(   2) = (   5.3642080   1.0323423  10.0000000  )
         3           Y1  tau(   3) = (   3.5761386   4.1293692  10.0000000  )
         4           Y1  tau(   4) = (   7.1522773   4.1293692  10.0000000  )
         5           Y1  tau(   5) = (   7.1522773   2.0646846  12.9199050  )
         6           Y1  tau(   6) = (   3.5761386   2.0646846  12.9199050  )
         7           Y1  tau(   7) = (   8.9403466   5.1617115  12.9199050  )
         8           Y1  tau(   8) = (   5.3642080   5.1617115  12.9199050  )
         9           Y1  tau(   9) = (   0.0000000   0.0000000  15.8398100  )
        10           Y1  tau(  10) = (   3.5761386   0.0000000  15.8398100  )
        11           Y1  tau(  11) = (   1.7880693   3.0970269  15.8398100  )
        12           Y1  tau(  12) = (   5.3642080   3.0970269  15.8398100  )
        13           S1  tau(  13) = (   3.5761386   2.0646846  17.7573100  )

     number of k points=    20  Fermi-Dirac smearing, width (Ry)=  0.0110
                       cart. coord. in units 2pi/alat
        k(    1) = (   0.0000000   0.0000000   0.0000000), wk =   0.0555556
        k(    2) = (   0.0000000   0.0269075   0.0000000), wk =   0.1111111
        k(    3) = (   0.0000000   0.0538151   0.0000000), wk =   0.1111111
        k(    4) = (   0.0000000  -0.0807226   0.0000000), wk =   0.0555556
        k(    5) = (   0.0233026  -0.0134538   0.0000000), wk =   0.1111111
        k(    6) = (   0.0233026   0.0134538   0.0000000), wk =   0.1111111
        k(    7) = (   0.0233026   0.0403613   0.0000000), wk =   0.1111111
        k(    8) = (   0.0233026  -0.0941763   0.0000000), wk =   0.1111111
        k(    9) = (   0.0233026  -0.0672688   0.0000000), wk =   0.1111111
        k(   10) = (   0.0233026  -0.0403613   0.0000000), wk =   0.1111111
        k(   11) = (   0.0466052  -0.0269075   0.0000000), wk =   0.1111111
        k(   12) = (   0.0466052   0.0000000   0.0000000), wk =   0.1111111
        k(   13) = (   0.0466052   0.0269075   0.0000000), wk =   0.1111111
        k(   14) = (   0.0466052  -0.1076301   0.0000000), wk =   0.1111111
        k(   15) = (   0.0466052  -0.0807226   0.0000000), wk =   0.1111111
        k(   16) = (   0.0466052  -0.0538151   0.0000000), wk =   0.1111111
        k(   17) = (  -0.0699078   0.0403613   0.0000000), wk =   0.0555556
        k(   18) = (  -0.0699078   0.0672688   0.0000000), wk =   0.1111111
        k(   19) = (  -0.0699078   0.0941763   0.0000000), wk =   0.1111111
        k(   20) = (  -0.0699078  -0.0403613   0.0000000), wk =   0.0555556

     Largest allocated arrays     est. size (Mb)     dimensions
     Largest temporary arrays     est. size (Mb)     dimensions

     Initial potential from superposition of free atoms
     Check: negative starting charge=   -0.000547

     starting charge  137.94633, renormalised to  138.00000

     negative rho (up, down):  5.476E-04 0.000E+00

     *
     * You are using vdW-DF for exchange-correlation in this calculation.
     * Please cite the following three references that made this development
     * possible:
     *
     *   M. Dion, H. Rydberg, E. Schroder, D. C. Langreth, and
     *   B. I. Lundqvist, Phys. Rev. Lett. 92, 246401 (2004).
     *
     *   T. Thonhauser, V. R. Cooper, S. Li, A. Puzder, P. Hyldgaard, and
     *   D. C. Langreth, Phys. Rev. B 76, 125112 (2007).
     *
     *   G. Roman-Perez and J. M. Soler, Phys. Rev. Lett. 103, 096102 (2009).
     *
     *
     * If you are using vdW-DF2, please also cite:
     *
     *   K. Lee, E. D. Murray, L. Kong, B. I. Lundqvist, and
     *   D. C. Langreth, Phys. Rev. B 82, 081101(R) (2010).
     *
     *
     * If you are calculating the stress with vdW-DF, please also cite:
     *
     *   R. Sabatini, E. Kucukbenli, B. Kolb, T. Thonhauser, and
     *   S. de Gironcoli, J. Phys.: Condens. Matter 24, 424209 (2012).
     *

     Carrying out vdW-DF run using the following parameters:

     Nqs =      20    Nr_points =    1024   r_max =   100.000
     q_mesh =
               0.00001000     0.04494208     0.09755937     0.15916263
               0.23128650     0.31572767     0.41458969     0.53033537
               0.66584808     0.82450364     1.01025438     1.22772762
               1.48234092     1.78043706     2.12944203     2.53805004
               3.01644009     3.57652955     4.23227104     5.00000000

     Gradients computed in reciprocal space

     Adding external electric field

     Computed dipole along edir(3) :
        Dipole               -0.0210 Ry au,         -0.0534 Debye
        Dipole field         -0.0000 Ry au

        Potential amp.        0.0033 Ry
        Total length         47.6094 bohr

     Starting wfc are  160 randomized atomic wfcs

     Self-consistent Calculation

     iteration #  1     ecut=    36.75 Ry     beta=0.30
     Davidson diagonalization with overlap
     ethr =  1.00E-02,  avg # of iterations =  2.0

[...]

     total energy              =   -1147.18792613 Ry
     Harris-Foulkes estimate   =   -1149.27015738 Ry
     estimated scf accuracy    <       4.50066153 Ry

[...]

     End of self-consistent calculation

          k = 0.0000 0.0000 0.0000 ( 28997 PWs)   bands (ev):

   -42.6054 -42.4730 -42.4318 -42.4299 -42.4287 -42.3364 -42.3051 -42.3049
   -41.9254 -41.8871 -41.8868 -41.8685 -22.6741 -22.6061 -22.6061 -22.5774
   -22.5762 -22.5758 -22.5084 -22.4681 -22.4371 -22.4345 -22.4335 -22.3532
   -22.3099 -22.3097 -22.2540 -22.2535 -22.2532 -22.2293 -22.2293 -22.1589
   -22.1544 -22.1544 -22.0557 -22.0557 -22.0416 -22.0276 -22.0275 -21.8362
   -21.8142 -21.8140 -21.7920 -21.7491 -21.7371 -21.7370 -21.6438 -21.6438
   -11.0961  -3.4109  -2.5770  -1.9613  -1.9613  -1.8470  -1.3023  -0.7257
    -0.6552  -0.6551  -0.6060  -0.6060  -0.5278  -0.1855  -0.1855   0.0678
     0.2010   0.2010   0.2055   0.6885   0.6887   0.7172   1.0589   1.4561
     1.5553   1.5583   1.5585   1.6809   1.8669   1.8670   2.0911

[...]

          k =-0.0699 0.0404 0.0000 ( 29048 PWs)   bands (ev):

[...]

     the Fermi energy is     0.8725 ev

!    total energy              =   -1148.91654488 Ry
     Harris-Foulkes estimate   =   -1148.91657534 Ry
     estimated scf accuracy    <       0.00000552 Ry

     The total energy is the sum of the following terms:

     one-electron contribution =   -5540.05002794 Ry
     hartree contribution      =    2763.51620194 Ry
     xc contribution           =    -347.69818197 Ry
     ewald contribution        =    1975.43639815 Ry
     electric field correction =       0.00022687 Ry
     smearing contrib. (-TS)   =      -0.12116192 Ry

     convergence has been achieved in  14 iterations

 BEEF-vdW xc energy contributions
           1 :   -303.090881128848
           2 :    272.017111136799
           3 :   -218.540207564979
           4 :    155.818112879915
           5 :   -96.0947809402982
           6 :    47.0853343110488
           7 :   -11.4146768772871
           8 :   -11.6294893052282
           9 :    23.8273310085696
          10 :   -26.7409708573196
          11 :    21.7845610613920
          12 :   -11.0094874254686
          13 :   -2.39895597667868
          14 :    14.5412844859031
          15 :   -22.0133749539279
          16 :    23.1505694547849
          17 :   -18.5006941849398
          18 :    10.2598947959726
          19 :   -1.10791092419754
          20 :   -6.81375422882127
          21 :    12.2962242013749
          22 :   -14.8902147629523
          23 :    14.5776464373915
          24 :   -11.6417720110201
          25 :    6.76248930657152
          26 :   -1.09531590598476
          27 :   -3.91584334613475
          28 :    7.00774473213374
          29 :   -7.60206929824824
          30 :    6.01964107359572
          31 :   -29.1653975923619
          32 :   -19.9368984650746

     Forces acting on atoms (Ry/au):

     negative rho (up, down):  2.076E-05 0.000E+00
     atom    1 type  1   force =     0.00027820    0.00016066    0.00547950
     atom    2 type  1   force =    -0.00028057    0.00021274    0.00556977
     atom    3 type  1   force =     0.00004199   -0.00034773    0.00555038
     atom    4 type  1   force =    -0.00004732   -0.00004618    0.00449174
     atom    5 type  1   force =     0.00004104   -0.00344644    0.00099192
     atom    6 type  1   force =    -0.00013956   -0.00005590   -0.01226014
     atom    7 type  1   force =     0.00296183    0.00168565    0.00096063
     atom    8 type  1   force =    -0.00297259    0.00177734    0.00101012
     atom    9 type  1   force =     0.00010622    0.00008910   -0.01160250
     atom   10 type  1   force =     0.00001032    0.02162248    0.01718472
     atom   11 type  1   force =     0.01871084   -0.01081868    0.01721794
     atom   12 type  1   force =    -0.01871128   -0.01082897    0.01716301
     atom   13 type  2   force =     0.00000087   -0.00000406   -0.05175710

     Total force =     0.071427     Total SCF correction =     0.002625

     entering subroutine stress ...

     negative rho (up, down):  2.076E-05 0.000E+00
          total   stress  (Ry/bohr**3)                   (kbar)     P=   -3.51
  -0.00001195   0.00000000   0.00000000         -1.76      0.00      0.00
   0.00000000  -0.00001196  -0.00000000          0.00     -1.76     -0.00
   0.00000000  -0.00000000  -0.00004767          0.00     -0.00     -7.01

     BFGS Geometry Optimization

     number of scf cycles    =   1
     number of bfgs steps    =   0

     energy   new            =   -1148.9165448759 Ry

     new trust radius        =       0.0517570978 bohr
     new conv_thr            =       0.0000099958 Ry

ATOMIC_POSITIONS (crystal)
Y1       0.166666667   0.166666667   0.386999750    0   0   0
Y1       0.666666667   0.166666667   0.386999750    0   0   0
Y1       0.166666667   0.666666667   0.386999750    0   0   0
Y1       0.666666667   0.666666667   0.386999750    0   0   0
Y1       0.833333333   0.333333333   0.500000000    0   0   0
Y1       0.333333333   0.333333333   0.500000000    0   0   0
Y1       0.833333333   0.833333333   0.500000000    0   0   0
Y1       0.333333333   0.833333333   0.500000000    0   0   0
Y1       0.000004053   0.000007612   0.612762640
Y1       0.499077126   0.001847275   0.613352178
Y1       0.001846500   0.499075726   0.613352858
Y1       0.499078181   0.499074847   0.613351734
S1       0.333333571   0.333332986   0.686147511

     Writing output data file calc.save
     Check: negative starting charge=   -0.000547
     NEW-OLD atomic charge density approx. for the potential
     Check: negative starting charge=   -0.000549

[...]

     energy   old            =   -1148.9165448759 Ry
     energy   new            =   -1148.9211664307 Ry

     CASE: energy  _new < energy  _old

[...]

     Threshold (ethr) on eigenvalues was too large:
     Diagonalizing with lowered threshold

     Davidson diagonalization with overlap
     ethr =  7.30E-08,  avg # of iterations =  7.2

[...]

     WARNING: bfgs curvature condition failed, Theta= 0.853
     new trust radius        =       0.0123870857 bohr
     new conv_thr            =       0.0000001000 Ry

[...]

     Threshold (ethr) on eigenvalues was too large:
     Diagonalizing with lowered threshold

     Davidson diagonalization with overlap
     ethr =  4.74E-08,  avg # of iterations = 10.3

[...]

     Total force =     0.008144     Total SCF correction =     0.000488

[...]

     Total force =     0.005671     Total SCF correction =     0.000932
     SCF correction compared to forces is large: reduce conv_thr to get better values

[...]

     number of scf cycles    =  10
     number of bfgs steps    =   9

     energy   old            =   -1148.9295683180 Ry
     energy   new            =   -1148.9298829996 Ry

     CASE: energy  _new < energy  _old

     new trust radius        =       0.0627096216 bohr
     new conv_thr            =       0.0000001000 Ry

ATOMIC_POSITIONS (crystal)
Y1       0.166666667   0.166666667   0.386999750    0   0   0
Y1       0.666666667   0.166666667   0.386999750    0   0   0
Y1       0.166666667   0.666666667   0.386999750    0   0   0
Y1       0.666666667   0.666666667   0.386999750    0   0   0
Y1       0.833333333   0.333333333   0.500000000    0   0   0
Y1       0.333333333   0.333333333   0.500000000    0   0   0
Y1       0.833333333   0.833333333   0.500000000    0   0   0
Y1       0.333333333   0.833333333   0.500000000    0   0   0
Y1       0.000006451   0.000008040   0.607790982
Y1       0.498557795   0.002879436   0.614437178
Y1       0.002878861   0.498557918   0.614437609
Y1       0.498563615   0.498563624   0.614436910
S1       0.333334085   0.333332713   0.680594668

     Writing output data file calc.save
     Check: negative starting charge=   -0.000560
     NEW-OLD atomic charge density approx. for the potential
     Check: negative starting charge=   -0.000560

[...]

     Self-consistent Calculation

[...]

     total energy              =   -1148.93012047 Ry
     Harris-Foulkes estimate   =   -1148.93012099 Ry
     estimated scf accuracy    <       0.00000023 Ry

     iteration # 12     ecut=    36.75 Ry     beta=0.30
     Davidson diagonalization with overlap
     ethr =  1.70E-10,  avg # of iterations =  8.7

[...]

     negative rho (up, down):  2.110E-05 0.000E+00

     Adding external electric field

     Computed dipole along edir(3) :
        Dipole               -0.2849 Ry au,         -0.7241 Debye
        Dipole field         -0.0005 Ry au

        Potential amp.        0.0441 Ry
        Total length         47.6094 bohr

     End of self-consistent calculation

[...]

          k = 0.0466-0.0538 0.0000 ( 29098 PWs)   bands (ev):

[...]

          k =-0.0699-0.0404 0.0000 ( 29048 PWs)   bands (ev):

   -42.3815 -42.3788 -42.3683 -42.3522 -42.3468 -42.2197 -42.2071 -42.1969
   -41.8257 -41.8169 -41.8005 -41.7957 -22.4715 -22.4244 -22.4167 -22.3979
   -22.3845 -22.3747 -22.3542 -22.3464 -22.3128 -22.2969 -22.2940 -22.2807
   -22.2611 -22.2563 -22.2435 -22.2250 -22.2054 -22.1841 -22.1346 -22.1281
   -22.1234 -22.1211 -22.0552 -21.9821 -21.8896 -21.8758 -21.7725 -21.7659
   -21.7399 -21.7398 -21.7326 -21.7308 -21.7242 -21.7199 -21.6172 -21.6026
   -11.4443  -2.6243  -2.3761  -2.3062  -1.9922  -1.9275  -1.1633  -0.9844
    -0.4244  -0.4144  -0.2216  -0.0974   0.0179   0.0212   0.6619   0.6649
     0.7099   0.7598   0.7983   0.8410   0.9658   0.9963   1.0762   1.0782
     1.1233   1.2255   1.3589   1.4293   1.4517   1.4862   1.4864

     the Fermi energy is     0.9530 ev

!    total energy              =   -1148.93012050 Ry
     Harris-Foulkes estimate   =   -1148.93012043 Ry
     estimated scf accuracy    <       0.00000004 Ry

     The total energy is the sum of the following terms:

     one-electron contribution =   -5570.52594662 Ry
     hartree contribution      =    2779.12028957 Ry
     xc contribution           =    -347.80307200 Ry
     ewald contribution        =    1990.40052854 Ry
     electric field correction =       0.00013200 Ry
     smearing contrib. (-TS)   =      -0.12205199 Ry

     convergence has been achieved in  12 iterations

 BEEF-vdW xc energy contributions
           1 :   -303.197484818453
           2 :    272.159415238506
           3 :   -218.713929917538
           4 :    155.983311296774
           5 :   -96.2098919330761
           6 :    47.1337678879264
           7 :   -11.4067321223099
           8 :   -11.6708489543067
           9 :    23.8798248181342
          10 :   -26.7904441135784
          11 :    21.8289051136894
          12 :   -11.0568664037517
          13 :   -2.34037343671184
          14 :    14.4751801118464
          15 :   -21.9561554911866
          16 :    23.1188158755790
          17 :   -18.4978756184861
          18 :    10.2750102859904
          19 :   -1.12443170831023
          20 :   -6.80854725989144
          21 :    12.3070716462850
          22 :   -14.9137192635978
          23 :    14.6042460689139
          24 :   -11.6605846209523
          25 :    6.76748104305182
          26 :   -1.08757087529091
          27 :   -3.93149137529883
          28 :    7.02668502463246
          29 :   -7.61942944007814
          30 :    6.02714053246581
          31 :   -29.1732046776128
          32 :   -19.9521379873205

     Forces acting on atoms (Ry/au):

     negative rho (up, down):  2.110E-05 0.000E+00
     atom    1 type  1   force =     0.00062359    0.00036035    0.00514305
     atom    2 type  1   force =    -0.00062338    0.00035957    0.00514331
     atom    3 type  1   force =    -0.00000026   -0.00071959    0.00514312
     atom    4 type  1   force =     0.00000068    0.00000039    0.00530944
     atom    5 type  1   force =     0.00000044   -0.00176602   -0.00152066
     atom    6 type  1   force =     0.00000002   -0.00000058   -0.01035992
     atom    7 type  1   force =     0.00153132    0.00088501   -0.00151681
     atom    8 type  1   force =    -0.00152893    0.00088381   -0.00152077
     atom    9 type  1   force =    -0.00001194   -0.00000839   -0.00154283
     atom   10 type  1   force =     0.00000943    0.00025253   -0.00148183
     atom   11 type  1   force =     0.00022259   -0.00011803   -0.00148230
     atom   12 type  1   force =    -0.00022632   -0.00013091   -0.00147800
     atom   13 type  2   force =     0.00000276    0.00000186    0.00016420

     Total force =     0.003030     Total SCF correction =     0.000396
     SCF correction compared to forces is large: reduce conv_thr to get better values

     entering subroutine stress ...

     negative rho (up, down):  2.110E-05 0.000E+00
          total   stress  (Ry/bohr**3)                   (kbar)     P=   -0.68
   0.00000309  -0.00000000   0.00000000          0.45     -0.00      0.00
  -0.00000000   0.00000309   0.00000000         -0.00      0.45      0.00
   0.00000000   0.00000000  -0.00002007          0.00      0.00     -2.95

     bfgs converged in  11 scf cycles and  10 bfgs steps
     (criteria: energy <  1.0E+00, force <  1.9E-03)

     End of BFGS Geometry Optimization

     Final energy   =   -1148.9301204989 Ry
Begin final coordinates

ATOMIC_POSITIONS (crystal)
Y1       0.166666667   0.166666667   0.386999750    0   0   0
Y1       0.666666667   0.166666667   0.386999750    0   0   0
Y1       0.166666667   0.666666667   0.386999750    0   0   0
Y1       0.666666667   0.666666667   0.386999750    0   0   0
Y1       0.833333333   0.333333333   0.500000000    0   0   0
Y1       0.333333333   0.333333333   0.500000000    0   0   0
Y1       0.833333333   0.833333333   0.500000000    0   0   0
Y1       0.333333333   0.833333333   0.500000000    0   0   0
Y1       0.000006451   0.000008040   0.607790982
Y1       0.498557795   0.002879436   0.614437178
Y1       0.002878861   0.498557918   0.614437609
Y1       0.498563615   0.498563624   0.614436910
S1       0.333334085   0.333332713   0.680594668
End final coordinates

     Writing output data file calc.save

     General routines

     Parallel routines

   This run was terminated on:   3:16:26   3May2018

   JOB DONE.
Job  /afs/slac/g/suncat/bin/suncat-tsmpirun -x LD_LIBRARY_PATH -wdir /scratch/qe587832_Bz0Ve pw.x -npool 4 -in pw.inp

TID   HOST_NAME   COMMAND_LINE            STATUS            TERMINATION_TIME
00000 suncat0172 pw.x -npool 4 -i  Done                     05/03/2018 03:16:26
00001 suncat0172 pw.x -npool 4 -i  Done                     05/03/2018 03:16:26
00002 suncat0172 pw.x -npool 4 -i  Done                     05/03/2018 03:16:26
00003 suncat0172 pw.x -npool 4 -i  Done                     05/03/2018 03:16:26
00004 suncat0172 pw.x -npool 4 -i  Done                     05/03/2018 03:16:26
00005 suncat0172 pw.x -npool 4 -i  Done                     05/03/2018 03:16:26
00006 suncat0172 pw.x -npool 4 -i  Done                     05/03/2018 03:16:26
00007 suncat0172 pw.x -npool 4 -i  Done                     05/03/2018 03:16:26
00008 suncat0150 pw.x -npool 4 -i  Done                     05/03/2018 03:16:26
00009 suncat0150 pw.x -npool 4 -i  Done                     05/03/2018 03:16:26
00010 suncat0150 pw.x -npool 4 -i  Done                     05/03/2018 03:16:26
00011 suncat0150 pw.x -npool 4 -i  Done                     05/03/2018 03:16:26
00012 suncat0150 pw.x -npool 4 -i  Done                     05/03/2018 03:16:26
00013 suncat0150 pw.x -npool 4 -i  Done                     05/03/2018 03:16:26
00014 suncat0150 pw.x -npool 4 -i  Done                     05/03/2018 03:16:26
00015 suncat0150 pw.x -npool 4 -i  Done                     05/03/2018 03:16:26
00016 suncat0145 pw.x -npool 4 -i  Done                     05/03/2018 03:16:26
00017 suncat0145 pw.x -npool 4 -i  Done                     05/03/2018 03:16:26
00018 suncat0145 pw.x -npool 4 -i  Done                     05/03/2018 03:16:26
00019 suncat0145 pw.x -npool 4 -i  Done                     05/03/2018 03:16:26
00020 suncat0145 pw.x -npool 4 -i  Done                     05/03/2018 03:16:26
00021 suncat0145 pw.x -npool 4 -i  Done                     05/03/2018 03:16:26
00022 suncat0145 pw.x -npool 4 -i  Done                     05/03/2018 03:16:26
00023 suncat0145 pw.x -npool 4 -i  Done                     05/03/2018 03:16:26
00024 suncat0143 pw.x -npool 4 -i  Done                     05/03/2018 03:16:26
00025 suncat0143 pw.x -npool 4 -i  Done                     05/03/2018 03:16:26
00026 suncat0143 pw.x -npool 4 -i  Done                     05/03/2018 03:16:26
00027 suncat0143 pw.x -npool 4 -i  Done                     05/03/2018 03:16:26
00028 suncat0143 pw.x -npool 4 -i  Done                     05/03/2018 03:16:26
00029 suncat0143 pw.x -npool 4 -i  Done                     05/03/2018 03:16:26
00030 suncat0143 pw.x -npool 4 -i  Done                     05/03/2018 03:16:26
00031 suncat0143 pw.x -npool 4 -i  Done                     05/03/2018 03:16:26