     Program PWSCF v.5.1rc2 (svn rev. 11289) starts on 23Apr2018 at 14:43:18

     Current dimensions of program PWSCF are:
     Max number of different atomic species (ntypx) = 10
     Max number of k-points (npk) =  40000
     Max angular momentum in pseudopotentials (lmaxx) =  3
     Presently stress not available with electric field

     IMPORTANT: XC functional enforced from input :
     Exchange-correlation      = BEEF-VDW ( 1  4 27 13 2)
     Any further DFT definition will be discarded
     Please, verify this is what you really want

     Subspace diagonalization in iterative solution of the eigenvalue problem:
     a serial algorithm will be used

     bravais-lattice index     =            0
     lattice parameter (alat)  =       1.8897  a.u.
     unit-cell volume          =    4301.6107 (a.u.)^3
     number of atoms/cell      =           16
     number of atomic types    =            3
     number of electrons       =       187.00
     number of Kohn-Sham states=          103
     kinetic-energy cutoff     =      36.7493  Ry
     charge density cutoff     =     367.4932  Ry
     convergence threshold     =      1.0E-05
     mixing beta               =       0.3000
     number of iterations used =           10  plain     mixing
     Exchange-correlation      = BEEF-VDW ( 1  4 27 13 2)
     nstep                     =           50

     celldm(1)=   1.889726  celldm(2)=   0.000000  celldm(3)=   0.000000
     celldm(4)=   0.000000  celldm(5)=   0.000000  celldm(6)=   0.000000

     crystal axes: (cart. coord. in units of alat)
               a(1) = (   5.483647   0.000000   0.000000 )
               a(2) = (   2.741823   4.748977   0.000000 )
               a(3) = (   0.000000   0.000000  24.477379 )

     reciprocal axes: (cart. coord. in units 2 pi/alat)
               b(1) = (  0.182360 -0.105286  0.000000 )
               b(2) = (  0.000000  0.210572  0.000000 )
               b(3) = (  0.000000  0.000000  0.040854 )

     PseudoPot. # 1 for Tc read from file:
     /u/if/mamunm/psp/gbrv1.5pbe/Tc.UPF
     MD5 check sum: 9eb49e5b028550b2339a02317eb7b844
     Pseudo is Ultrasoft + core correction, Zval = 15.0
     Generated by new atomic code, or converted to UPF format
     Using radial grid of  965 points,  6 beta functions with:
                l(1) =   0
                l(2) =   0
                l(3) =   1
                l(4) =   1
                l(5) =   2
                l(6) =   2
     Q(r) pseudized with  8 coefficients,  rinner =    1.300   1.300   1.300
                                                       1.300   1.300

     PseudoPot. # 2 for C  read from file:
     /u/if/mamunm/psp/gbrv1.5pbe/C.UPF
     MD5 check sum: d1aef80898a10debaa0f26306b886e00
     Pseudo is Ultrasoft + core correction, Zval =  4.0
     Generated by new atomic code, or converted to UPF format
     Using radial grid of  721 points,  4 beta functions with:
                l(1) =   0
                l(2) =   0
                l(3) =   1
                l(4) =   1
     Q(r) pseudized with  8 coefficients,  rinner =    1.100   1.100   1.100

     PseudoPot. # 3 for H  read from file:
     /u/if/mamunm/psp/gbrv1.5pbe/H.UPF
     MD5 check sum: 761ae9a214b05c3daf00ab9f6b793d6f
     Pseudo is Ultrasoft, Zval =  1.0
     Generated by new atomic code, or converted to UPF format
     Using radial grid of  615 points,  2 beta functions with:
                l(1) =   0
                l(2) =   0
     Q(r) pseudized with  8 coefficients,  rinner =    0.700

     vdW kernel table read from file vdW_kernel_table
     MD5 check sum: 095c7af220d748ca6e76c0b4c6cfb241

     atomic species   valence    mass     pseudopotential
        Tc1           15.00    97.90721     Tc( 1.00)
        C1             4.00    12.01100     C ( 1.00)
        H1             1.00     1.00800     H ( 1.00)

     No symmetry found

   Cartesian axes

     site n.     atom                  positions (alat units)
         1           Tc1 tau(   1) = (   1.3709117   0.7914962  10.0000000  )
         2           Tc1 tau(   2) = (   4.1127351   0.7914962  10.0000000  )
         3           Tc1 tau(   3) = (   2.7418234   3.1659850  10.0000000  )
         4           Tc1 tau(   4) = (   5.4836469   3.1659850  10.0000000  )
         5           Tc1 tau(   5) = (   5.4836469   1.5829925  12.2386895  )
         6           Tc1 tau(   6) = (   2.7418234   1.5829925  12.2386895  )
         7           Tc1 tau(   7) = (   6.8545586   3.9574812  12.2386895  )
         8           Tc1 tau(   8) = (   4.1127351   3.9574812  12.2386895  )
         9           Tc1 tau(   9) = (   0.0000000   0.0000000  14.4773789  )
        10           Tc1 tau(  10) = (   2.7418234   0.0000000  14.4773789  )
        11           Tc1 tau(  11) = (   1.3709117   2.3744887  14.4773789  )
        12           Tc1 tau(  12) = (   4.1127351   2.3744887  14.4773789  )
        13           C1  tau(  13) = (   0.0000000   0.0000000  16.3728789  )
        14           H1  tau(  14) = (   1.0900000   0.0000000  17.0028789  )
        15           H1  tau(  15) = (   5.0336469   0.8895000  17.0028789  )
        16           H1  tau(  16) = (   2.2918234   3.8594775  17.0028789  )

     number of k points=    20  Fermi-Dirac smearing, width (Ry)=  0.0110
                       cart. coord. in units 2pi/alat
        k(    1) = (   0.0000000   0.0000000   0.0000000), wk =   0.0555556
        k(    2) = (   0.0000000   0.0350953   0.0000000), wk =   0.1111111
        k(    3) = (   0.0000000   0.0701905   0.0000000), wk =   0.1111111
        k(    4) = (   0.0000000  -0.1052858   0.0000000), wk =   0.0555556
        k(    5) = (   0.0303934  -0.0175476   0.0000000), wk =   0.1111111
        k(    6) = (   0.0303934   0.0175476   0.0000000), wk =   0.1111111
        k(    7) = (   0.0303934   0.0526429   0.0000000), wk =   0.1111111
        k(    8) = (   0.0303934  -0.1228335   0.0000000), wk =   0.1111111
        k(    9) = (   0.0303934  -0.0877382   0.0000000), wk =   0.1111111
        k(   10) = (   0.0303934  -0.0526429   0.0000000), wk =   0.1111111
        k(   11) = (   0.0607868  -0.0350953   0.0000000), wk =   0.1111111
        k(   12) = (   0.0607868   0.0000000   0.0000000), wk =   0.1111111
        k(   13) = (   0.0607868   0.0350953   0.0000000), wk =   0.1111111
        k(   14) = (   0.0607868  -0.1403811   0.0000000), wk =   0.1111111
        k(   15) = (   0.0607868  -0.1052858   0.0000000), wk =   0.1111111
        k(   16) = (   0.0607868  -0.0701905   0.0000000), wk =   0.1111111
        k(   17) = (  -0.0911802   0.0526429   0.0000000), wk =   0.0555556
        k(   18) = (  -0.0911802   0.0877382   0.0000000), wk =   0.1111111
        k(   19) = (  -0.0911802   0.1228335   0.0000000), wk =   0.1111111
        k(   20) = (  -0.0911802  -0.0526429   0.0000000), wk =   0.0555556

     Largest allocated arrays     est. size (Mb)     dimensions
     Largest temporary arrays     est. size (Mb)     dimensions

     Check: negative/imaginary core charge=   -0.000022    0.000000

     Initial potential from superposition of free atoms
     Check: negative starting charge=   -1.504743

     starting charge  174.99960, renormalised to  187.00000

     negative rho (up, down):  1.608E+00 0.000E+00

     *
     * You are using vdW-DF for exchange-correlation in this calculation.
     * Please cite the following three references that made this development
     * possible:
     *
     *   M. Dion, H. Rydberg, E. Schroder, D. C. Langreth, and
     *   B. I. Lundqvist, Phys. Rev. Lett. 92, 246401 (2004).
     *
     *   T. Thonhauser, V. R. Cooper, S. Li, A. Puzder, P. Hyldgaard, and
     *   D. C. Langreth, Phys. Rev. B 76, 125112 (2007).
     *
     *   G. Roman-Perez and J. M. Soler, Phys. Rev. Lett. 103, 096102 (2009).
     *
     *
     * If you are using vdW-DF2, please also cite:
     *
     *   K. Lee, E. D. Murray, L. Kong, B. I. Lundqvist, and
     *   D. C. Langreth, Phys. Rev. B 82, 081101(R) (2010).
     *
     *
     * If you are calculating the stress with vdW-DF, please also cite:
     *
     *   R. Sabatini, E. Kucukbenli, B. Kolb, T. Thonhauser, and
     *   S. de Gironcoli, J. Phys.: Condens. Matter 24, 424209 (2012).
     *

     Carrying out vdW-DF run using the following parameters:

     Nqs =      20    Nr_points =    1024   r_max =   100.000
     q_mesh =
               0.00001000     0.04494208     0.09755937     0.15916263
               0.23128650     0.31572767     0.41458969     0.53033537
               0.66584808     0.82450364     1.01025438     1.22772762
               1.48234092     1.78043706     2.12944203     2.53805004
               3.01644009     3.57652955     4.23227104     5.00000000

     Gradients computed in reciprocal space

     Adding external electric field

     Computed dipole along edir(3) :
        Dipole               -3.9944 Ry au,        -10.1529 Debye
        Dipole field         -0.0117 Ry au

        Potential amp.        1.0525 Ry
        Total length         45.0992 bohr

     Starting wfc are  163 randomized atomic wfcs

     Self-consistent Calculation

     iteration #  1     ecut=    36.75 Ry     beta=0.30
     Davidson diagonalization with overlap
     ethr =  1.00E-02,  avg # of iterations =  8.0

[...]

     total energy              =   -1848.04633140 Ry
     Harris-Foulkes estimate   =   -2114.13738974 Ry
     estimated scf accuracy    <     558.87240075 Ry

[...]

     End of self-consistent calculation

          k = 0.0000 0.0000 0.0000 ( 16073 PWs)   bands (ev):

   -64.3980 -64.2625 -64.2312 -64.2305 -64.1702 -64.1481 -64.0495 -64.0398
   -64.0324 -64.0312 -63.9964 -63.9938 -36.8365 -36.8362 -36.8145 -36.7287
   -36.6500 -36.6489 -36.6461 -36.5229 -36.5213 -36.5011 -36.2891 -36.1819
   -36.1701 -36.1698 -36.1308 -36.1000 -36.0991 -36.0986 -36.0656 -36.0639
   -35.9762 -35.9285 -35.9270 -35.8699 -35.8675 -35.8673 -35.8428 -35.8428
   -35.8329 -35.8064 -35.8063 -35.7955 -35.6288 -35.6287 -35.6124 -35.6121
    -9.3391  -3.6428  -2.6800  -2.5098  -2.3348  -2.2945  -2.2336  -2.2032
    -2.1503  -2.0917  -1.8917  -1.8904  -1.7152  -1.5766  -1.5064  -1.3664
    -1.3606  -1.3525  -1.0914  -0.1801   0.0406   0.0875   0.6752   0.7121
     0.7323   0.9273   1.1994   1.1995   1.2748   1.5174   1.5177   1.5884
     1.5898   1.5976   1.7610   1.7611   2.1290   2.1334   2.4902   3.1202
     3.1917   3.1930   3.2336   3.4197   3.4249   3.4384   3.5881   3.5890
     3.9514   4.0495   4.0513   4.5654   4.5727   4.8833   4.8851

[...]

          k =-0.0912 0.0526 0.0000 ( 16164 PWs)   bands (ev):

[...]

     the Fermi energy is     2.8816 ev

!    total energy              =   -2118.48566176 Ry
     Harris-Foulkes estimate   =   -2118.48565273 Ry
     estimated scf accuracy    <       0.00000354 Ry

     The total energy is the sum of the following terms:

     one-electron contribution =  -19013.19090613 Ry
     hartree contribution      =    9510.58342323 Ry
     xc contribution           =    -402.96213529 Ry
     ewald contribution        =    7787.17881791 Ry
     electric field correction =       0.00011202 Ry
     smearing contrib. (-TS)   =      -0.09497352 Ry

     convergence has been achieved in  33 iterations

 BEEF-vdW xc energy contributions
           1 :   -352.845855740293
           2 :    324.200852359595
           3 :   -273.390407497946
           4 :    210.729784711926
           5 :   -147.073128094305
           6 :    90.8744053509655
           7 :   -46.6132983840816
           8 :    14.7226964328878
           9 :    7.15792542536087
          10 :   -22.3457322111974
          11 :    33.4446606527305
          12 :   -41.4826144049881
          13 :    45.9757123682063
          14 :   -45.7287614395444
          15 :    39.8800371605609
          16 :   -28.7262651071516
          17 :    13.9731964439523
          18 :    1.64473284439975
          19 :   -15.1900362932827
          20 :    24.4065295059434
          21 :   -28.3061738834190
          22 :    27.2400660787458
          23 :   -22.4973570432434
          24 :    15.6630332450633
          25 :   -8.05560516767963
          26 :   0.465802735455384
          27 :    6.75556910437314
          28 :   -13.3981187716522
          29 :    19.0944711455053
          30 :   -23.2086452740418
          31 :   -33.7708413974793
          32 :   -24.7600767173568

     Forces acting on atoms (Ry/au):

     negative rho (up, down):  1.587E+00 0.000E+00
     atom    1 type  1   force =     0.00058646    0.00041036    0.02730365
     atom    2 type  1   force =    -0.00048404    0.00028061    0.02739029
     atom    3 type  1   force =     0.00001768   -0.00053042    0.02744793
     atom    4 type  1   force =    -0.00004025   -0.00001953    0.03557483
     atom    5 type  1   force =    -0.00025601    0.00339023   -0.00366850
     atom    6 type  1   force =     0.00018849    0.00010041   -0.00451973
     atom    7 type  1   force =    -0.00300179   -0.00195319   -0.00339842
     atom    8 type  1   force =     0.00297780   -0.00169788   -0.00390147
     atom    9 type  1   force =    -0.00063892   -0.00000137   -0.14740362
     atom   10 type  1   force =    -0.00003167   -0.00556851   -0.04124974
     atom   11 type  1   force =    -0.00456387    0.00232696   -0.04392932
     atom   12 type  1   force =     0.00453133    0.00318031   -0.04375520
     atom   13 type  2   force =     0.04325908    0.00007994    0.33696701
     atom   14 type  3   force =    -0.07241770    0.00022095   -0.06579939
     atom   15 type  3   force =     0.01477501   -0.04057265   -0.04850847
     atom   16 type  3   force =     0.01509840    0.04035379   -0.04854987

     Total force =     0.400980     Total SCF correction =     0.008166

     entering subroutine stress ...

     negative rho (up, down):  1.587E+00 0.000E+00
          total   stress  (Ry/bohr**3)                   (kbar)     P=  -29.83
  -0.00024619   0.00000035  -0.00001123        -36.22      0.05     -1.65
   0.00000035  -0.00023601  -0.00000005          0.05    -34.72     -0.01
  -0.00001123  -0.00000005  -0.00012607         -1.65     -0.01    -18.55

     BFGS Geometry Optimization

     number of scf cycles    =   1
     number of bfgs steps    =   0

     energy   new            =   -2118.4856617595 Ry

     new trust radius        =       0.3397324214 bohr
     new conv_thr            =       0.0000099958 Ry

ATOMIC_POSITIONS (crystal)
Tc1      0.166666667   0.166666667   0.408540475    0   0   0
Tc1      0.666666667   0.166666667   0.408540475    0   0   0
Tc1      0.166666667   0.666666667   0.408540475    0   0   0
Tc1      0.666666667   0.666666667   0.408540475    0   0   0
Tc1      0.833333333   0.333333333   0.500000000    0   0   0
Tc1      0.333333333   0.333333333   0.500000000    0   0   0
Tc1      0.833333333   0.833333333   0.500000000    0   0   0
Tc1      0.333333333   0.833333333   0.500000000    0   0   0
Tc1     -0.000061580  -0.000000153   0.588272802
Tc1      0.500307193  -0.000620498   0.590567746
Tc1     -0.000570064   0.500259293   0.590509816
Tc1      0.500260088   0.500354381   0.590513580
C1       0.004170089   0.000008908   0.676183272
H1       0.191772141   0.000024621   0.693213903
H1       0.827972386   0.182782479   0.693587716
H1       0.010798266   0.817193133   0.693586821

     Writing output data file calc.save
     Check: negative starting charge=   -1.504743
     NEW-OLD atomic charge density approx. for the potential

     Check: negative/imaginary core charge=   -0.000022    0.000000
     Check: negative starting charge=   -1.511769

[...]

     iteration #  1     ecut=    36.75 Ry     beta=0.30
     Davidson diagonalization with overlap
     c_bands:  1 eigenvalues not converged
     ethr =  1.00E-06,  avg # of iterations = 14.2

[...]

     energy   old            =   -2118.4856617595 Ry
     energy   new            =   -2118.5665957835 Ry

     CASE: energy  _new < energy  _old

[...]

     iteration #  1     ecut=    36.75 Ry     beta=0.30
     Davidson diagonalization with overlap
     c_bands:  1 eigenvalues not converged
     ethr =  1.00E-06,  avg # of iterations =  7.2

[...]

     Total force =     0.006251     Total SCF correction =     0.000459

[...]

     Total force =     0.003034     Total SCF correction =     0.000772
     SCF correction compared to forces is large: reduce conv_thr to get better values

[...]

     number of scf cycles    =  15
     number of bfgs steps    =  14

     energy   old            =   -2118.5867081635 Ry
     energy   new            =   -2118.5867570901 Ry

     CASE: energy  _new < energy  _old

     new trust radius        =       0.0051356231 bohr
     new conv_thr            =       0.0000001000 Ry

ATOMIC_POSITIONS (crystal)
Tc1      0.166666667   0.166666667   0.408540475    0   0   0
Tc1      0.666666667   0.166666667   0.408540475    0   0   0
Tc1      0.166666667   0.666666667   0.408540475    0   0   0
Tc1      0.666666667   0.666666667   0.408540475    0   0   0
Tc1      0.833333333   0.333333333   0.500000000    0   0   0
Tc1      0.333333333   0.333333333   0.500000000    0   0   0
Tc1      0.833333333   0.833333333   0.500000000    0   0   0
Tc1      0.333333333   0.833333333   0.500000000    0   0   0
Tc1     -0.000124407   0.000208669   0.593619715
Tc1      0.502953613  -0.001814113   0.586113349
Tc1     -0.000953467   0.498989556   0.586135260
Tc1      0.499654006   0.502586096   0.586062662
C1       0.010235254   0.000095324   0.683475320
H1       0.196474311   0.001441588   0.699204080
H1       0.822687535   0.186191321   0.699213907
H1       0.011685145   0.812444115   0.699156959

     Writing output data file calc.save
     Check: negative starting charge=   -1.507915
     NEW-OLD atomic charge density approx. for the potential

     Check: negative/imaginary core charge=   -0.000022    0.000000
     Check: negative starting charge=   -1.507907

[...]

     Self-consistent Calculation

[...]

     total energy              =   -2118.58676939 Ry
     Harris-Foulkes estimate   =   -2118.58676943 Ry
     estimated scf accuracy    <       0.00000022 Ry

     iteration # 11     ecut=    36.75 Ry     beta=0.30
     Davidson diagonalization with overlap
     ethr =  1.19E-10,  avg # of iterations =  1.0

[...]

     negative rho (up, down):  1.591E+00 0.000E+00

     Adding external electric field

     Computed dipole along edir(3) :
        Dipole                0.0663 Ry au,          0.1684 Debye
        Dipole field          0.0002 Ry au

        Potential amp.       -0.0175 Ry
        Total length         45.0992 bohr

     End of self-consistent calculation

[...]

          k = 0.0608-0.0702 0.0000 ( 16203 PWs)   bands (ev):

[...]

          k =-0.0912-0.0526 0.0000 ( 16164 PWs)   bands (ev):

   -64.5240 -64.5173 -64.4394 -64.4378 -64.2963 -64.2898 -64.2672 -64.2369
   -64.2329 -64.2237 -64.1950 -64.1809 -36.9062 -36.8992 -36.8518 -36.7970
   -36.7781 -36.7561 -36.6466 -36.6387 -36.5905 -36.5419 -36.5386 -36.5336
   -36.3086 -36.2958 -36.2870 -36.2790 -36.2728 -36.2698 -36.2449 -36.2357
   -36.2177 -36.2163 -36.2095 -36.1930 -36.1846 -36.1770 -36.1498 -36.1396
   -36.0654 -36.0390 -36.0016 -35.9808 -35.9303 -35.9258 -35.9001 -35.8660
    -9.3209  -2.6211  -2.5101  -2.3129  -2.2798  -1.6956  -1.6694  -1.5746
    -1.5614  -1.3449  -1.2529  -1.1778  -1.0825  -0.9533  -0.9304  -0.6712
    -0.6403  -0.6092  -0.4933  -0.1962  -0.1294  -0.0529   0.0348   0.2284
     0.2561   0.6006   0.7608   0.8452   0.9592   0.9864   1.1483   1.2031
     1.2263   1.3466   1.3957   1.4538   1.4621   1.4868   1.5814   1.6284
     1.6599   1.8197   1.8475   2.0293   2.4625   2.5539   2.6009   2.7143
     2.7509   2.9773   3.1535   3.1623   3.2632   3.3304   3.3896

     the Fermi energy is     2.6947 ev

!    total energy              =   -2118.58676937 Ry
     Harris-Foulkes estimate   =   -2118.58676947 Ry
     estimated scf accuracy    <       0.00000004 Ry

     The total energy is the sum of the following terms:

     one-electron contribution =  -19120.30104036 Ry
     hartree contribution      =    9563.08028564 Ry
     xc contribution           =    -403.19002404 Ry
     ewald contribution        =    7841.91606801 Ry
     electric field correction =       0.00001282 Ry
     smearing contrib. (-TS)   =      -0.09207145 Ry

     convergence has been achieved in  11 iterations

 BEEF-vdW xc energy contributions
           1 :   -353.050282463926
           2 :    324.383444925850
           3 :   -273.573903999929
           4 :    210.938322440488
           5 :   -147.282874743632
           6 :    91.0294035797089
           7 :   -46.6733814594682
           8 :    14.6967334745748
           9 :    7.21154397923181
          10 :   -22.3480849727634
          11 :    33.3370553402745
          12 :   -41.2568648006716
          13 :    45.6810239447690
          14 :   -45.4516561485087
          15 :    39.7064656243065
          16 :   -28.7029936642658
          17 :    14.0842722495574
          18 :    1.47440545967402
          19 :   -15.0635540064789
          20 :    24.4083327282982
          21 :   -28.4597252508796
          22 :    27.4906789125126
          23 :   -22.7334641701370
          24 :    15.7690568577487
          25 :   -7.96991426607849
          26 :   0.214851705602655
          27 :    7.06560523416090
          28 :   -13.6301373607307
          29 :    19.1438760947418
          30 :   -23.0517873740603
          31 :   -33.7835194522305
          32 :   -24.7689276085413

     Forces acting on atoms (Ry/au):

     negative rho (up, down):  1.591E+00 0.000E+00
     atom    1 type  1   force =     0.00018452    0.00052463    0.01910478
     atom    2 type  1   force =    -0.00032398   -0.00022150    0.01915821
     atom    3 type  1   force =     0.00039082   -0.00032513    0.01912203
     atom    4 type  1   force =     0.00033798    0.00001831    0.02409226
     atom    5 type  1   force =    -0.00000109   -0.00198133   -0.01940726
     atom    6 type  1   force =     0.00033040   -0.00005088   -0.02462765
     atom    7 type  1   force =     0.00099186    0.00009310   -0.02118488
     atom    8 type  1   force =    -0.00260674    0.00188245   -0.01764772
     atom    9 type  1   force =     0.00019130   -0.00002066    0.00194091
     atom   10 type  1   force =     0.00001260    0.00010523    0.00038104
     atom   11 type  1   force =     0.00007084    0.00008790    0.00013572
     atom   12 type  1   force =    -0.00008873   -0.00012340    0.00020985
     atom   13 type  2   force =     0.00092975   -0.00000415   -0.00055439
     atom   14 type  3   force =    -0.00040045    0.00007745   -0.00077044
     atom   15 type  3   force =    -0.00008013    0.00022823    0.00001395
     atom   16 type  3   force =     0.00006105   -0.00029024    0.00003359

     Total force =     0.002478     Total SCF correction =     0.000278
     SCF correction compared to forces is large: reduce conv_thr to get better values

     entering subroutine stress ...

     negative rho (up, down):  1.591E+00 0.000E+00
          total   stress  (Ry/bohr**3)                   (kbar)     P=  -23.01
  -0.00018632   0.00000081   0.00000044        -27.41      0.12      0.07
   0.00000081  -0.00018566   0.00000006          0.12    -27.31      0.01
   0.00000044   0.00000006  -0.00009734          0.07      0.01    -14.32

     bfgs converged in  16 scf cycles and  15 bfgs steps
     (criteria: energy <  1.0E+00, force <  1.9E-03)

     End of BFGS Geometry Optimization

     Final energy   =   -2118.5867693712 Ry
Begin final coordinates

ATOMIC_POSITIONS (crystal)
Tc1      0.166666667   0.166666667   0.408540475    0   0   0
Tc1      0.666666667   0.166666667   0.408540475    0   0   0
Tc1      0.166666667   0.666666667   0.408540475    0   0   0
Tc1      0.666666667   0.666666667   0.408540475    0   0   0
Tc1      0.833333333   0.333333333   0.500000000    0   0   0
Tc1      0.333333333   0.333333333   0.500000000    0   0   0
Tc1      0.833333333   0.833333333   0.500000000    0   0   0
Tc1      0.333333333   0.833333333   0.500000000    0   0   0
Tc1     -0.000124407   0.000208669   0.593619715
Tc1      0.502953613  -0.001814113   0.586113349
Tc1     -0.000953467   0.498989556   0.586135260
Tc1      0.499654006   0.502586096   0.586062662
C1       0.010235254   0.000095324   0.683475320
H1       0.196474311   0.001441588   0.699204080
H1       0.822687535   0.186191321   0.699213907
H1       0.011685145   0.812444115   0.699156959
End final coordinates

     Writing output data file calc.save

     General routines

     Parallel routines

   This run was terminated on:  15:51:59  23Apr2018

   JOB DONE.
Job  /afs/slac/g/suncat/bin/suncat-tsmpirun -x LD_LIBRARY_PATH -wdir /scratch/qe20384_0E5Pv pw.x -npool 3 -in pw.inp

TID   HOST_NAME   COMMAND_LINE            STATUS            TERMINATION_TIME
00000 suncat2065 pw.x -npool 3 -i  Done                     04/23/2018 15:51:59
00001 suncat2065 pw.x -npool 3 -i  Done                     04/23/2018 15:51:59
00002 suncat2065 pw.x -npool 3 -i  Done                     04/23/2018 15:51:59
00003 suncat2065 pw.x -npool 3 -i  Done                     04/23/2018 15:51:59
00004 suncat2015 pw.x -npool 3 -i  Done                     04/23/2018 15:51:59
00005 suncat2015 pw.x -npool 3 -i  Done                     04/23/2018 15:51:59
00006 suncat2015 pw.x -npool 3 -i  Done                     04/23/2018 15:51:59
00007 suncat2015 pw.x -npool 3 -i  Done                     04/23/2018 15:51:59
00008 suncat2015 pw.x -npool 3 -i  Done                     04/23/2018 15:51:59
00009 suncat2015 pw.x -npool 3 -i  Done                     04/23/2018 15:51:59
00010 suncat2015 pw.x -npool 3 -i  Done                     04/23/2018 15:51:59
00011 suncat2015 pw.x -npool 3 -i  Done                     04/23/2018 15:51:59
00012 suncat2015 pw.x -npool 3 -i  Done                     04/23/2018 15:51:59
00013 suncat2015 pw.x -npool 3 -i  Done                     04/23/2018 15:51:59
00014 suncat2015 pw.x -npool 3 -i  Done                     04/23/2018 15:51:59
00015 suncat2015 pw.x -npool 3 -i  Done                     04/23/2018 15:51:59
00016 suncat2015 pw.x -npool 3 -i  Done                     04/23/2018 15:51:59
00017 suncat2015 pw.x -npool 3 -i  Done                     04/23/2018 15:51:59
00018 suncat2015 pw.x -npool 3 -i  Done                     04/23/2018 15:51:59
00019 suncat2015 pw.x -npool 3 -i  Done                     04/23/2018 15:51:59
00020 suncat2007 pw.x -npool 3 -i  Done                     04/23/2018 15:51:59
00021 suncat2007 pw.x -npool 3 -i  Done                     04/23/2018 15:51:59
00022 suncat2007 pw.x -npool 3 -i  Done                     04/23/2018 15:51:59
00023 suncat2007 pw.x -npool 3 -i  Done                     04/23/2018 15:51:59
00024 suncat2007 pw.x -npool 3 -i  Done                     04/23/2018 15:51:59
00025 suncat2007 pw.x -npool 3 -i  Done                     04/23/2018 15:51:59
00026 suncat2007 pw.x -npool 3 -i  Done                     04/23/2018 15:51:59
00027 suncat2007 pw.x -npool 3 -i  Done                     04/23/2018 15:51:59
00028 suncat2007 pw.x -npool 3 -i  Done                     04/23/2018 15:51:59
00029 suncat2007 pw.x -npool 3 -i  Done                     04/23/2018 15:51:59
00030 suncat2007 pw.x -npool 3 -i  Done                     04/23/2018 15:51:59
00031 suncat2007 pw.x -npool 3 -i  Done                     04/23/2018 15:51:59
00032 suncat2007 pw.x -npool 3 -i  Done                     04/23/2018 15:51:59
00033 suncat2007 pw.x -npool 3 -i  Done                     04/23/2018 15:51:59
00034 suncat2007 pw.x -npool 3 -i  Done                     04/23/2018 15:51:59
00035 suncat2007 pw.x -npool 3 -i  Done                     04/23/2018 15:51:59