     Program PWSCF v.5.1rc2 (svn rev. 11289) starts on 16Jan2019 at 23:40:20

     Current dimensions of program PWSCF are:
     Max number of different atomic species (ntypx) = 10
     Max number of k-points (npk) =  40000
     Max angular momentum in pseudopotentials (lmaxx) =  3

     IMPORTANT: XC functional enforced from input :
     Exchange-correlation      = BEEF-VDW ( 1  4 27 13 2)
     Any further DFT definition will be discarded
     Please, verify this is what you really want

     Subspace diagonalization in iterative solution of the eigenvalue problem:
     a serial algorithm will be used

     bravais-lattice index     =            0
     lattice parameter (alat)  =      11.5057  a.u.
     unit-cell volume          =    5409.9594 (a.u.)^3
     number of atoms/cell      =           13
     number of atomic types    =            2
     number of electrons       =       233.00
     number of Kohn-Sham states=          126
     kinetic-energy cutoff     =      36.7493  Ry
     charge density cutoff     =     367.4933  Ry
     convergence threshold     =      1.0E-04
     mixing beta               =       0.2000
     number of iterations used =            8  plain     mixing
     Exchange-correlation      = BEEF-VDW ( 1  4 27 13 2)
     nstep                     =           50

     celldm(1)=  11.505670  celldm(2)=   0.000000  celldm(3)=   0.000000
     celldm(4)=   0.000000  celldm(5)=   0.000000  celldm(6)=   0.000000

     crystal axes: (cart. coord. in units of alat)
               a(1) = (   1.000000   0.000000   0.000000 )
               a(2) = (   0.500000   0.866025   0.000000 )
               a(3) = (   0.000000   0.000000   4.101357 )

     reciprocal axes: (cart. coord. in units 2 pi/alat)
               b(1) = (  1.000000 -0.577350  0.000000 )
               b(2) = (  0.000000  1.154701  0.000000 )
               b(3) = (  0.000000  0.000000  0.243822 )

     PseudoPot. # 1 for Ga read from file:
     /nfs/slac/g/suncatfs/mamunm/src/decaf-espresso/gbrv15pbe/Ga.UPF
     MD5 check sum: ccd671392a58a050fbb373893b4fcd66
     Pseudo is Ultrasoft + core correction, Zval = 19.0
     Generated by new atomic code, or converted to UPF format
     Using radial grid of  871 points,  6 beta functions with:
                l(1) =   0
                l(2) =   0
                l(3) =   1
                l(4) =   1
                l(5) =   2
                l(6) =   2
     Q(r) pseudized with  8 coefficients,  rinner =    1.250   1.250   1.250
                                                       1.250   1.250

     PseudoPot. # 2 for N  read from file:
     /nfs/slac/g/suncatfs/mamunm/src/decaf-espresso/gbrv15pbe/N.UPF
     MD5 check sum: 95339753478d7afb44899504a8723017
     Pseudo is Ultrasoft + core correction, Zval =  5.0
     Generated by new atomic code, or converted to UPF format
     Using radial grid of  729 points,  4 beta functions with:
                l(1) =   0
                l(2) =   0
                l(3) =   1
                l(4) =   1
     Q(r) pseudized with  8 coefficients,  rinner =    0.900   0.900   0.900

     vdW kernel table read from file vdW_kernel_table
     MD5 check sum: 095c7af220d748ca6e76c0b4c6cfb241

     atomic species   valence    mass     pseudopotential
        Ga            19.00    69.72300     Ga( 1.00)
        N              5.00    14.00700     N ( 1.00)

     No symmetry found

   Cartesian axes

     site n.     atom                  positions (alat units)
         1           Ga  tau(   1) = (   0.2500000   0.1443376   1.6424303  )
         2           Ga  tau(   2) = (   0.7500000   0.1443376   1.6424303  )
         3           Ga  tau(   3) = (   0.5000000   0.5773503   1.6424303  )
         4           Ga  tau(   4) = (   1.0000000   0.5773503   1.6424303  )
         5           Ga  tau(   5) = (   1.0000000   0.2886751   2.0506786  )
         6           Ga  tau(   6) = (   0.5000000   0.2886751   2.0506786  )
         7           Ga  tau(   7) = (   1.2500000   0.7216878   2.0506786  )
         8           Ga  tau(   8) = (   0.7500000   0.7216878   2.0506786  )
         9           Ga  tau(   9) = (  -0.0000014  -0.0000072   2.3698136  )
        10           Ga  tau(  10) = (   0.4999837  -0.0004685   2.5585896  )
        11           Ga  tau(  11) = (   0.2495890   0.4332183   2.5585812  )
        12           Ga  tau(  12) = (   0.7503953   0.4332409   2.5585675  )
        13           N   tau(  13) = (   0.0000377   0.0000237   2.6646966  )

     number of k points=    20  Fermi-Dirac smearing, width (Ry)=  0.0110
                       cart. coord. in units 2pi/alat
        k(    1) = (   0.0000000   0.0000000   0.0000000), wk =   0.0555556
        k(    2) = (   0.0000000   0.1924501   0.0000000), wk =   0.1111111
        k(    3) = (   0.0000000   0.3849002   0.0000000), wk =   0.1111111
        k(    4) = (   0.0000000  -0.5773503   0.0000000), wk =   0.0555556
        k(    5) = (   0.1666667  -0.0962250   0.0000000), wk =   0.1111111
        k(    6) = (   0.1666667   0.0962250   0.0000000), wk =   0.1111111
        k(    7) = (   0.1666667   0.2886751   0.0000000), wk =   0.1111111
        k(    8) = (   0.1666667  -0.6735753   0.0000000), wk =   0.1111111
        k(    9) = (   0.1666667  -0.4811252   0.0000000), wk =   0.1111111
        k(   10) = (   0.1666667  -0.2886751   0.0000000), wk =   0.1111111
        k(   11) = (   0.3333333  -0.1924501   0.0000000), wk =   0.1111111
        k(   12) = (   0.3333333   0.0000000   0.0000000), wk =   0.1111111
        k(   13) = (   0.3333333   0.1924501   0.0000000), wk =   0.1111111
        k(   14) = (   0.3333333  -0.7698004   0.0000000), wk =   0.1111111
        k(   15) = (   0.3333333  -0.5773503   0.0000000), wk =   0.1111111
        k(   16) = (   0.3333333  -0.3849002   0.0000000), wk =   0.1111111
        k(   17) = (  -0.5000000   0.2886751   0.0000000), wk =   0.0555556
        k(   18) = (  -0.5000000   0.4811252   0.0000000), wk =   0.1111111
        k(   19) = (  -0.5000000   0.6735753   0.0000000), wk =   0.1111111
        k(   20) = (  -0.5000000  -0.2886751   0.0000000), wk =   0.0555556

     Largest allocated arrays     est. size (Mb)     dimensions
     Largest temporary arrays     est. size (Mb)     dimensions

     Initial potential from superposition of free atoms
     Check: negative starting charge=   -0.001200

     starting charge  220.99998, renormalised to  233.00000

     negative rho (up, down):  1.265E-03 0.000E+00

     *
     * You are using vdW-DF for exchange-correlation in this calculation.
     * Please cite the following three references that made this development
     * possible:
     *
     *   M. Dion, H. Rydberg, E. Schroder, D. C. Langreth, and
     *   B. I. Lundqvist, Phys. Rev. Lett. 92, 246401 (2004).
     *
     *   T. Thonhauser, V. R. Cooper, S. Li, A. Puzder, P. Hyldgaard, and
     *   D. C. Langreth, Phys. Rev. B 76, 125112 (2007).
     *
     *   G. Roman-Perez and J. M. Soler, Phys. Rev. Lett. 103, 096102 (2009).
     *
     *
     * If you are using vdW-DF2, please also cite:
     *
     *   K. Lee, E. D. Murray, L. Kong, B. I. Lundqvist, and
     *   D. C. Langreth, Phys. Rev. B 82, 081101(R) (2010).
     *
     *
     * If you are calculating the stress with vdW-DF, please also cite:
     *
     *   R. Sabatini, E. Kucukbenli, B. Kolb, T. Thonhauser, and
     *   S. de Gironcoli, J. Phys.: Condens. Matter 24, 424209 (2012).
     *

     Carrying out vdW-DF run using the following parameters:

     Nqs =      20    Nr_points =    1024   r_max =   100.000
     q_mesh =
               0.00001000     0.04494208     0.09755937     0.15916263
               0.23128650     0.31572767     0.41458969     0.53033537
               0.66584808     0.82450364     1.01025438     1.22772762
               1.48234092     1.78043706     2.12944203     2.53805004
               3.01644009     3.57652955     4.23227104     5.00000000

     Gradients computed in reciprocal space

     Adding external electric field

     Computed dipole along edir(3) :
        Dipole               -1.8633 Ry au,         -4.7361 Debye
        Dipole field         -0.0043 Ry au

        Potential amp.        0.3676 Ry
        Total length         42.4700 bohr

     Starting wfc are  148 randomized atomic wfcs

     Self-consistent Calculation

     iteration #  1     ecut=    36.75 Ry     beta=0.20
     Davidson diagonalization with overlap
     ethr =  1.00E-02,  avg # of iterations =  6.7

[...]

     total energy              =   -4884.55723295 Ry
     Harris-Foulkes estimate   =   -5040.18479410 Ry
     estimated scf accuracy    <     457.89122507 Ry

[...]

     End of self-consistent calculation

          k = 0.0000 0.0000 0.0000 ( 20347 PWs)   bands (ev):

   -94.9876 -94.9874 -94.9874 -94.9682 -94.9681 -94.9676 -94.9531 -94.9517
   -94.9516 -94.8750 -94.8542 -94.8530 -94.8529 -94.8511 -94.8510 -94.8506
   -94.8506 -94.8501 -94.8343 -94.8341 -94.8340 -94.8331 -94.8329 -94.8329
   -94.8199 -94.8199 -94.8193 -94.8187 -94.8172 -94.8172 -94.8162 -94.8162
   -94.8135 -94.5786 -94.5786 -94.4651 -15.5984 -15.4011 -15.3737 -15.3737
   -15.3414 -15.3344 -15.3317 -15.3317 -15.3143 -15.3143 -15.2986 -15.2928
   -15.2928 -15.2788 -15.2761 -15.2760 -15.2716 -15.2672 -15.2609 -15.2609
   -15.2529 -15.2478 -15.2478 -15.2398 -15.2397 -15.2397 -15.2300 -15.2300
   -15.2129 -15.2106 -15.2106 -15.2012 -15.2012 -15.1916 -15.1916 -15.1790
   -15.1581 -15.1421 -15.1421 -15.1274 -15.1274 -15.0995 -15.0870 -15.0870
   -15.0838 -15.0739 -15.0739 -15.0635 -15.0635 -15.0617 -15.0566 -15.0436
   -15.0436 -15.0287 -15.0287 -15.0190 -14.9082 -14.9082 -14.8242 -14.8242
   -12.5347 -10.0051  -8.1077  -6.7434  -5.1190  -4.9526  -4.9525  -4.7115
    -4.1621  -4.1620  -3.6016  -3.4451  -3.4448  -3.0067  -3.0065  -2.4588
    -2.0053  -1.8705  -1.7594  -1.7593  -1.3866  -1.2160  -1.2160   0.6129
     1.2271   1.2272   1.4499   2.6689   2.7929   2.7930

[...]

          k =-0.5000 0.2887 0.0000 ( 20384 PWs)   bands (ev):

[...]

     the Fermi energy is    -0.0479 ev

!    total energy              =   -5019.15940207 Ry
     Harris-Foulkes estimate   =   -5019.15942477 Ry
     estimated scf accuracy    <       0.00003040 Ry

     The total energy is the sum of the following terms:

     one-electron contribution =  -26458.38513029 Ry
     hartree contribution      =   13233.65016381 Ry
     xc contribution           =    -601.73328674 Ry
     ewald contribution        =    8807.34154193 Ry
     electric field correction =       0.00015418 Ry
     smearing contrib. (-TS)   =      -0.03284496 Ry

     convergence has been achieved in  15 iterations

     Forces acting on atoms (Ry/au):

     negative rho (up, down):  1.112E-03 0.000E+00
     atom    1 type  1   force =    -0.00304147   -0.00174985    0.01181197
     atom    2 type  1   force =     0.00304565   -0.00174164    0.01158703
     atom    3 type  1   force =     0.00001444    0.00352210    0.01144710
     atom    4 type  1   force =     0.00000780   -0.00001637    0.01098122
     atom    5 type  1   force =    -0.00000430    0.02050254   -0.00802221
     atom    6 type  1   force =     0.00001056   -0.00001525    0.00904010
     atom    7 type  1   force =    -0.01775784   -0.01023792   -0.00797330
     atom    8 type  1   force =     0.01774843   -0.01026212   -0.00804991
     atom    9 type  1   force =    -0.00001946   -0.00002006   -0.00557885
     atom   10 type  1   force =    -0.00001383    0.00034770   -0.00733288
     atom   11 type  1   force =     0.00030121   -0.00017907   -0.00720113
     atom   12 type  1   force =    -0.00031973   -0.00017024   -0.00705370
     atom   13 type  2   force =     0.00002854    0.00002020   -0.00365543

     Total force =     0.014151     Total SCF correction =     0.004918
     SCF correction compared to forces is large: reduce conv_thr to get better values

     BFGS Geometry Optimization

     number of scf cycles    =   1
     number of bfgs steps    =   0

     energy   new            =   -5019.1594020745 Ry

     new trust radius        =       0.0073411282 bohr
     new conv_thr            =       0.0001000000 Ry

ATOMIC_POSITIONS (angstrom)
Ga       1.522134641   0.878804845  10.000000000    0   0   0
Ga       4.566403923   0.878804845  10.000000000    0   0   0
Ga       3.044269282   3.515219379  10.000000000    0   0   0
Ga       6.088538565   3.515219379  10.000000000    0   0   0
Ga       6.088538565   1.757609690  12.485635460    0   0   0
Ga       3.044269282   1.757609690  12.485635460    0   0   0
Ga       7.610673206   4.394024224  12.485635460    0   0   0
Ga       4.566403923   4.394024224  12.485635460    0   0   0
Ga      -0.000019092  -0.000054434  14.425749593
Ga       3.044162480  -0.002668222  15.574190917
Ga       1.519791705   2.637571274  15.574209416
Ga       4.568641823   2.637714032  15.574204207
N        0.000244706   0.000155137  16.222173556

     Writing output data file calc.save
     Check: negative starting charge=   -0.001200
     NEW-OLD atomic charge density approx. for the potential
     Check: negative starting charge=   -0.001199

[...]

     energy   old            =   -5019.1594020745 Ry
     energy   new            =   -5019.1594199664 Ry

     CASE: energy  _new < energy  _old

[...]

     Threshold (ethr) on eigenvalues was too large:
     Diagonalizing with lowered threshold

     Davidson diagonalization with overlap
     ethr =  5.85E-08,  avg # of iterations =  3.0

[...]

     number of scf cycles    =   3
     number of bfgs steps    =   2

     energy   old            =   -5019.1594199664 Ry
     energy   new            =   -5019.1594200322 Ry

     CASE: energy  _new > energy  _old

     new trust radius        =       0.0014876593 bohr
     new conv_thr            =       0.0000010000 Ry

ATOMIC_POSITIONS (angstrom)
Ga       1.522134641   0.878804845  10.000000000    0   0   0
Ga       4.566403923   0.878804845  10.000000000    0   0   0
Ga       3.044269282   3.515219379  10.000000000    0   0   0
Ga       6.088538565   3.515219379  10.000000000    0   0   0
Ga       6.088538565   1.757609690  12.485635460    0   0   0
Ga       3.044269282   1.757609690  12.485635460    0   0   0
Ga       7.610673206   4.394024224  12.485635460    0   0   0
Ga       4.566403923   4.394024224  12.485635460    0   0   0
Ga      -0.000021023  -0.000053470  14.424962360
Ga       3.044157482  -0.002564250  15.574427480
Ga       1.519875845   2.637512646  15.574446961
Ga       4.568551082   2.637658851  15.574438076
N        0.000253786   0.000161160  16.222604808

     Writing output data file calc.save
     Check: negative starting charge=   -0.001199
     NEW-OLD atomic charge density approx. for the potential
     Check: negative starting charge=   -0.001199

[...]

     Self-consistent Calculation

[...]

     Threshold (ethr) on eigenvalues was too large:
     Diagonalizing with lowered threshold

     Davidson diagonalization with overlap
     ethr =  2.15E-08,  avg # of iterations =  3.0

[...]

     total energy              =   -5019.15941800 Ry
     Harris-Foulkes estimate   =   -5019.15942118 Ry
     estimated scf accuracy    <       0.00011180 Ry

     iteration #  4     ecut=    36.75 Ry     beta=0.20
     Davidson diagonalization with overlap
     ethr =  2.20E-08,  avg # of iterations =  2.4

     negative rho (up, down):  1.110E-03 0.000E+00

     Adding external electric field

     Computed dipole along edir(3) :
        Dipole               -0.2711 Ry au,         -0.6891 Debye
        Dipole field         -0.0006 Ry au

        Potential amp.        0.0535 Ry
        Total length         42.4700 bohr

     End of self-consistent calculation

[...]

          k = 0.3333-0.3849 0.0000 ( 20377 PWs)   bands (ev):

[...]

          k =-0.5000-0.2887 0.0000 ( 20384 PWs)   bands (ev):

   -95.0030 -95.0030 -95.0029 -94.9847 -94.9845 -94.9843 -94.9692 -94.9687
   -94.9682 -94.8969 -94.8731 -94.8730 -94.8683 -94.8678 -94.8674 -94.8651
   -94.8650 -94.8647 -94.8565 -94.8565 -94.8565 -94.8482 -94.8482 -94.8481
   -94.8422 -94.8420 -94.8418 -94.8405 -94.8401 -94.8396 -94.8316 -94.8316
   -94.8294 -94.5950 -94.5950 -94.4834 -15.5917 -15.3922 -15.3413 -15.3347
   -15.3223 -15.3186 -15.3145 -15.3134 -15.3121 -15.3100 -15.3081 -15.3041
   -15.3024 -15.2968 -15.2890 -15.2886 -15.2848 -15.2702 -15.2673 -15.2658
   -15.2586 -15.2584 -15.2537 -15.2509 -15.2493 -15.2384 -15.2353 -15.2304
   -15.2260 -15.2116 -15.2115 -15.2073 -15.2039 -15.2019 -15.1962 -15.1906
   -15.1823 -15.1773 -15.1653 -15.1606 -15.1555 -15.1507 -15.1467 -15.1453
   -15.1398 -15.1327 -15.1289 -15.1239 -15.1222 -15.1141 -15.1110 -15.0948
   -15.0941 -15.0850 -15.0707 -15.0634 -14.9280 -14.9240 -14.8461 -14.8403
   -12.5213  -8.8497  -8.5406  -7.1400  -6.9916  -6.0059  -5.9137  -5.6222
    -5.3159  -4.5919  -4.2371  -3.2120  -3.0513  -1.4146  -1.2899  -1.0842
    -0.9759  -0.4303  -0.4247  -0.3775   0.2157   0.3037   0.7556   0.8934
     1.2883   1.8414   1.8966   2.0467   2.4939   2.5650

     the Fermi energy is    -0.0685 ev

!    total energy              =   -5019.15942174 Ry
     Harris-Foulkes estimate   =   -5019.15942354 Ry
     estimated scf accuracy    <       0.00000023 Ry

     The total energy is the sum of the following terms:

     one-electron contribution =  -26469.88667361 Ry
     hartree contribution      =   13239.33007377 Ry
     xc contribution           =    -601.73036766 Ry
     ewald contribution        =    8813.16022270 Ry
     electric field correction =       0.00017075 Ry
     smearing contrib. (-TS)   =      -0.03284768 Ry

     convergence has been achieved in   4 iterations

     Forces acting on atoms (Ry/au):

     negative rho (up, down):  1.110E-03 0.000E+00
     atom    1 type  1   force =    -0.00346386   -0.00199874    0.00279418
     atom    2 type  1   force =     0.00345939   -0.00199947    0.00280111
     atom    3 type  1   force =    -0.00000254    0.00399466    0.00280582
     atom    4 type  1   force =    -0.00000100    0.00000034    0.00150892
     atom    5 type  1   force =    -0.00000461    0.01790327   -0.00620195
     atom    6 type  1   force =    -0.00000047    0.00000264    0.00980066
     atom    7 type  1   force =    -0.01550365   -0.00895333   -0.00621573
     atom    8 type  1   force =     0.01550309   -0.00895698   -0.00621156
     atom    9 type  1   force =     0.00000186    0.00001209   -0.00180073
     atom   10 type  1   force =    -0.00001619    0.00071578    0.00034976
     atom   11 type  1   force =     0.00060290   -0.00038004    0.00034453
     atom   12 type  1   force =    -0.00060908   -0.00036311    0.00034051
     atom   13 type  2   force =     0.00003417    0.00002288   -0.00031553

     Total force =     0.002286     Total SCF correction =     0.003487
     SCF correction compared to forces is large: reduce conv_thr to get better values

     bfgs converged in   4 scf cycles and   2 bfgs steps
     (criteria: energy <  1.0E+12, force <  1.9E-03)

     End of BFGS Geometry Optimization

     Final energy   =   -5019.1594217419 Ry
Begin final coordinates

ATOMIC_POSITIONS (angstrom)
Ga       1.522134641   0.878804845  10.000000000    0   0   0
Ga       4.566403923   0.878804845  10.000000000    0   0   0
Ga       3.044269282   3.515219379  10.000000000    0   0   0
Ga       6.088538565   3.515219379  10.000000000    0   0   0
Ga       6.088538565   1.757609690  12.485635460    0   0   0
Ga       3.044269282   1.757609690  12.485635460    0   0   0
Ga       7.610673206   4.394024224  12.485635460    0   0   0
Ga       4.566403923   4.394024224  12.485635460    0   0   0
Ga      -0.000021023  -0.000053470  14.424962360
Ga       3.044157482  -0.002564250  15.574427480
Ga       1.519875845   2.637512646  15.574446961
Ga       4.568551082   2.637658851  15.574438076
N        0.000253786   0.000161160  16.222604808
End final coordinates

     Writing output data file calc.save

     General routines

     Parallel routines

   This run was terminated on:  23:55: 5  16Jan2019

   JOB DONE.
Job  /afs/slac/g/suncat/bin/suncat-tsmpirun -x LD_LIBRARY_PATH -wdir /tmp/qe_378585y6jjvkjk_scratch pw.x -npool 3 -in pw.pwi

TID   HOST_NAME   COMMAND_LINE            STATUS            TERMINATION_TIME
00000 suncat1043 pw.x -npool 3 -i  Done                     01/16/2019 23:55:05
00001 suncat1043 pw.x -npool 3 -i  Done                     01/16/2019 23:55:05
00002 suncat1043 pw.x -npool 3 -i  Done                     01/16/2019 23:55:05
00003 suncat1043 pw.x -npool 3 -i  Done                     01/16/2019 23:55:05
00004 suncat1043 pw.x -npool 3 -i  Done                     01/16/2019 23:55:05
00005 suncat1043 pw.x -npool 3 -i  Done                     01/16/2019 23:55:05
00006 suncat1043 pw.x -npool 3 -i  Done                     01/16/2019 23:55:05
00007 suncat1043 pw.x -npool 3 -i  Done                     01/16/2019 23:55:05
00008 suncat1043 pw.x -npool 3 -i  Done                     01/16/2019 23:55:05
00009 suncat1043 pw.x -npool 3 -i  Done                     01/16/2019 23:55:05
00010 suncat1043 pw.x -npool 3 -i  Done                     01/16/2019 23:55:05
00011 suncat1043 pw.x -npool 3 -i  Done                     01/16/2019 23:55:05
00012 suncat1042 pw.x -npool 3 -i  Done                     01/16/2019 23:55:05
00013 suncat1042 pw.x -npool 3 -i  Done                     01/16/2019 23:55:05
00014 suncat1042 pw.x -npool 3 -i  Done                     01/16/2019 23:55:05
00015 suncat1042 pw.x -npool 3 -i  Done                     01/16/2019 23:55:05
00016 suncat1042 pw.x -npool 3 -i  Done                     01/16/2019 23:55:05
00017 suncat1042 pw.x -npool 3 -i  Done                     01/16/2019 23:55:05
00018 suncat1042 pw.x -npool 3 -i  Done                     01/16/2019 23:55:05
00019 suncat1042 pw.x -npool 3 -i  Done                     01/16/2019 23:55:05
00020 suncat1042 pw.x -npool 3 -i  Done                     01/16/2019 23:55:05
00021 suncat1042 pw.x -npool 3 -i  Done                     01/16/2019 23:55:05
00022 suncat1042 pw.x -npool 3 -i  Done                     01/16/2019 23:55:05
00023 suncat1042 pw.x -npool 3 -i  Done                     01/16/2019 23:55:05
00024 suncat1025 pw.x -npool 3 -i  Done                     01/16/2019 23:55:05
00025 suncat1025 pw.x -npool 3 -i  Done                     01/16/2019 23:55:05
00026 suncat1025 pw.x -npool 3 -i  Done                     01/16/2019 23:55:05
00027 suncat1025 pw.x -npool 3 -i  Done                     01/16/2019 23:55:05
00028 suncat1025 pw.x -npool 3 -i  Done                     01/16/2019 23:55:05
00029 suncat1025 pw.x -npool 3 -i  Done                     01/16/2019 23:55:05
00030 suncat1025 pw.x -npool 3 -i  Done                     01/16/2019 23:55:05
00031 suncat1025 pw.x -npool 3 -i  Done                     01/16/2019 23:55:05
00032 suncat1025 pw.x -npool 3 -i  Done                     01/16/2019 23:55:05
00033 suncat1025 pw.x -npool 3 -i  Done                     01/16/2019 23:55:05
00034 suncat1025 pw.x -npool 3 -i  Done                     01/16/2019 23:55:05
00035 suncat1025 pw.x -npool 3 -i  Done                     01/16/2019 23:55:05