     Program PWSCF v.5.1rc2 (svn rev. 11289) starts on 25Apr2018 at 10:16:24

     Current dimensions of program PWSCF are:
     Max number of different atomic species (ntypx) = 10
     Max number of k-points (npk) =  40000
     Max angular momentum in pseudopotentials (lmaxx) =  3
     Presently stress not available with electric field

     IMPORTANT: XC functional enforced from input :
     Exchange-correlation      = BEEF-VDW ( 1  4 27 13 2)
     Any further DFT definition will be discarded
     Please, verify this is what you really want

     Subspace diagonalization in iterative solution of the eigenvalue problem:
     a serial algorithm will be used

     bravais-lattice index     =            0
     lattice parameter (alat)  =       1.8897  a.u.
     unit-cell volume          =    6082.7792 (a.u.)^3
     number of atoms/cell      =           14
     number of atomic types    =            3
     number of electrons       =       151.00
     number of Kohn-Sham states=           85
     kinetic-energy cutoff     =      36.7493  Ry
     charge density cutoff     =     367.4932  Ry
     convergence threshold     =      1.0E-05
     mixing beta               =       0.3000
     number of iterations used =           10  plain     mixing
     Exchange-correlation      = BEEF-VDW ( 1  4 27 13 2)
     nstep                     =           50

     celldm(1)=   1.889726  celldm(2)=   0.000000  celldm(3)=   0.000000
     celldm(4)=   0.000000  celldm(5)=   0.000000  celldm(6)=   0.000000

     crystal axes: (cart. coord. in units of alat)
               a(1) = (   6.421223   0.000000   0.000000 )
               a(2) = (   3.210611   5.560942   0.000000 )
               a(3) = (   0.000000   0.000000  25.242906 )

     reciprocal axes: (cart. coord. in units 2 pi/alat)
               b(1) = (  0.155734 -0.089913  0.000000 )
               b(2) = (  0.000000  0.179826  0.000000 )
               b(3) = (  0.000000  0.000000  0.039615 )

     PseudoPot. # 1 for Zr read from file:
     /u/if/mamunm/psp/gbrv1.5pbe/Zr.UPF
     MD5 check sum: 5db81b1e868ab7776c4564c113de050b
     Pseudo is Ultrasoft + core correction, Zval = 12.0
     Generated by new atomic code, or converted to UPF format
     Using radial grid of  887 points,  6 beta functions with:
                l(1) =   0
                l(2) =   0
                l(3) =   1
                l(4) =   1
                l(5) =   2
                l(6) =   2
     Q(r) pseudized with  6 coefficients,  rinner =    1.200   1.200   1.200
                                                       1.200   1.200

     PseudoPot. # 2 for S  read from file:
     /u/if/mamunm/psp/gbrv1.5pbe/S.UPF
     MD5 check sum: 88d86576ff6df21479756cfb9bdac1df
     Pseudo is Ultrasoft + core correction, Zval =  6.0
     Generated by new atomic code, or converted to UPF format
     Using radial grid of  907 points,  6 beta functions with:
                l(1) =   0
                l(2) =   0
                l(3) =   1
                l(4) =   1
                l(5) =   2
                l(6) =   2
     Q(r) pseudized with  8 coefficients,  rinner =    1.300   1.300   1.300
                                                       1.300   1.300

     PseudoPot. # 3 for H  read from file:
     /u/if/mamunm/psp/gbrv1.5pbe/H.UPF
     MD5 check sum: 761ae9a214b05c3daf00ab9f6b793d6f
     Pseudo is Ultrasoft, Zval =  1.0
     Generated by new atomic code, or converted to UPF format
     Using radial grid of  615 points,  2 beta functions with:
                l(1) =   0
                l(2) =   0
     Q(r) pseudized with  8 coefficients,  rinner =    0.700

     vdW kernel table read from file vdW_kernel_table
     MD5 check sum: 095c7af220d748ca6e76c0b4c6cfb241

     atomic species   valence    mass     pseudopotential
        Zr1           12.00    91.22400     Zr( 1.00)
        S1             6.00    32.06000     S ( 1.00)
        H1             1.00     1.00800     H ( 1.00)

     No symmetry found

   Cartesian axes

     site n.     atom                  positions (alat units)
         1           Zr1 tau(   1) = (   1.6053057   0.9268237  10.0000000  )
         2           Zr1 tau(   2) = (   4.8159170   0.9268237  10.0000000  )
         3           Zr1 tau(   3) = (   3.2106113   3.7072946  10.0000000  )
         4           Zr1 tau(   4) = (   6.4212227   3.7072946  10.0000000  )
         5           Zr1 tau(   5) = (   6.4212227   1.8536473  12.6214532  )
         6           Zr1 tau(   6) = (   3.2106113   1.8536473  12.6214532  )
         7           Zr1 tau(   7) = (   8.0265283   4.6341183  12.6214532  )
         8           Zr1 tau(   8) = (   4.8159170   4.6341183  12.6214532  )
         9           Zr1 tau(   9) = (   0.0000000   0.0000000  15.2429064  )
        10           Zr1 tau(  10) = (   3.2106113   0.0000000  15.2429064  )
        11           Zr1 tau(  11) = (   1.6053057   2.7804710  15.2429064  )
        12           Zr1 tau(  12) = (   4.8159170   2.7804710  15.2429064  )
        13           S1  tau(  13) = (   0.0000000   0.0000000  17.6229064  )
        14           H1  tau(  14) = (   0.0000000   0.0000000  18.8729064  )

     number of k points=    20  Fermi-Dirac smearing, width (Ry)=  0.0110
                       cart. coord. in units 2pi/alat
        k(    1) = (   0.0000000   0.0000000   0.0000000), wk =   0.0555556
        k(    2) = (   0.0000000   0.0299709   0.0000000), wk =   0.1111111
        k(    3) = (   0.0000000   0.0599419   0.0000000), wk =   0.1111111
        k(    4) = (   0.0000000  -0.0899128   0.0000000), wk =   0.0555556
        k(    5) = (   0.0259556  -0.0149855   0.0000000), wk =   0.1111111
        k(    6) = (   0.0259556   0.0149855   0.0000000), wk =   0.1111111
        k(    7) = (   0.0259556   0.0449564   0.0000000), wk =   0.1111111
        k(    8) = (   0.0259556  -0.1048983   0.0000000), wk =   0.1111111
        k(    9) = (   0.0259556  -0.0749274   0.0000000), wk =   0.1111111
        k(   10) = (   0.0259556  -0.0449564   0.0000000), wk =   0.1111111
        k(   11) = (   0.0519112  -0.0299709   0.0000000), wk =   0.1111111
        k(   12) = (   0.0519112   0.0000000   0.0000000), wk =   0.1111111
        k(   13) = (   0.0519112   0.0299709   0.0000000), wk =   0.1111111
        k(   14) = (   0.0519112  -0.1198838   0.0000000), wk =   0.1111111
        k(   15) = (   0.0519112  -0.0899128   0.0000000), wk =   0.1111111
        k(   16) = (   0.0519112  -0.0599419   0.0000000), wk =   0.1111111
        k(   17) = (  -0.0778668   0.0449564   0.0000000), wk =   0.0555556
        k(   18) = (  -0.0778668   0.0749274   0.0000000), wk =   0.1111111
        k(   19) = (  -0.0778668   0.1048983   0.0000000), wk =   0.1111111
        k(   20) = (  -0.0778668  -0.0449564   0.0000000), wk =   0.0555556

     Largest allocated arrays     est. size (Mb)     dimensions
     Largest temporary arrays     est. size (Mb)     dimensions

     Initial potential from superposition of free atoms
     Check: negative starting charge=   -0.729031

     starting charge  150.97416, renormalised to  151.00000

     negative rho (up, down):  7.292E-01 0.000E+00

     *
     * You are using vdW-DF for exchange-correlation in this calculation.
     * Please cite the following three references that made this development
     * possible:
     *
     *   M. Dion, H. Rydberg, E. Schroder, D. C. Langreth, and
     *   B. I. Lundqvist, Phys. Rev. Lett. 92, 246401 (2004).
     *
     *   T. Thonhauser, V. R. Cooper, S. Li, A. Puzder, P. Hyldgaard, and
     *   D. C. Langreth, Phys. Rev. B 76, 125112 (2007).
     *
     *   G. Roman-Perez and J. M. Soler, Phys. Rev. Lett. 103, 096102 (2009).
     *
     *
     * If you are using vdW-DF2, please also cite:
     *
     *   K. Lee, E. D. Murray, L. Kong, B. I. Lundqvist, and
     *   D. C. Langreth, Phys. Rev. B 82, 081101(R) (2010).
     *
     *
     * If you are calculating the stress with vdW-DF, please also cite:
     *
     *   R. Sabatini, E. Kucukbenli, B. Kolb, T. Thonhauser, and
     *   S. de Gironcoli, J. Phys.: Condens. Matter 24, 424209 (2012).
     *

     Carrying out vdW-DF run using the following parameters:

     Nqs =      20    Nr_points =    1024   r_max =   100.000
     q_mesh =
               0.00001000     0.04494208     0.09755937     0.15916263
               0.23128650     0.31572767     0.41458969     0.53033537
               0.66584808     0.82450364     1.01025438     1.22772762
               1.48234092     1.78043706     2.12944203     2.53805004
               3.01644009     3.57652955     4.23227104     5.00000000

     Gradients computed in reciprocal space

     Adding external electric field

     Computed dipole along edir(3) :
        Dipole               -0.0113 Ry au,         -0.0287 Debye
        Dipole field         -0.0000 Ry au

        Potential amp.        0.0022 Ry
        Total length         46.5096 bohr

     Starting wfc are  161 randomized atomic wfcs

     Self-consistent Calculation

     iteration #  1     ecut=    36.75 Ry     beta=0.30
     Davidson diagonalization with overlap
     ethr =  1.00E-02,  avg # of iterations =  2.0

[...]

     total energy              =   -1219.57041621 Ry
     Harris-Foulkes estimate   =   -1223.14124707 Ry
     estimated scf accuracy    <       7.47080793 Ry

[...]

     End of self-consistent calculation

          k = 0.0000 0.0000 0.0000 ( 22923 PWs)   bands (ev):

   -47.3596 -47.2904 -47.2810 -47.2800 -47.2237 -47.2040 -47.1990 -47.1980
   -46.9803 -46.9044 -46.8947 -46.8935 -25.6345 -25.6340 -25.6039 -25.5670
   -25.5569 -25.5565 -25.5479 -25.4706 -25.4470 -25.4463 -25.3576 -25.2794
   -25.2583 -25.2573 -25.1244 -25.0899 -25.0852 -25.0845 -25.0516 -25.0512
   -25.0235 -25.0229 -25.0224 -24.9083 -24.9082 -24.8594 -24.8594 -24.8254
   -24.8157 -24.8147 -24.8080 -24.7173 -24.7168 -24.7127 -24.5649 -24.5648
   -12.6046  -5.3709  -2.9282  -1.8418  -1.4918  -1.4917  -1.0603  -0.5723
    -0.5549  -0.5548  -0.4411  -0.4340  -0.4340  -0.0726  -0.0725  -0.0364
     0.1628   0.1968   0.1969   0.9827   1.1829   1.1831   1.8953   2.0693
     2.2128   2.2495   2.2495   2.5031   2.5776   2.6740   2.6745   2.8593
     2.8596   2.9685   3.1027   3.1074   3.1444

[...]

          k =-0.0779 0.0450 0.0000 ( 22880 PWs)   bands (ev):

[...]

     the Fermi energy is     1.9899 ev

!    total energy              =   -1222.53962233 Ry
     Harris-Foulkes estimate   =   -1222.53964125 Ry
     estimated scf accuracy    <       0.00000782 Ry

     The total energy is the sum of the following terms:

     one-electron contribution =   -8338.91828400 Ry
     hartree contribution      =    4164.52584980 Ry
     xc contribution           =    -230.11674591 Ry
     ewald contribution        =    3182.08907298 Ry
     electric field correction =       0.00018738 Ry
     smearing contrib. (-TS)   =      -0.11970258 Ry

     convergence has been achieved in  16 iterations

 BEEF-vdW xc energy contributions
           1 :   -196.974640051899
           2 :    177.963412589797
           3 :   -145.992046936411
           4 :    110.095126974384
           5 :   -78.3676075280939
           6 :    55.2049188528311
           7 :   -40.6507175681470
           8 :    31.7380091188594
           9 :   -24.7919892969910
          10 :    17.4103741994331
          11 :   -9.26082902823228
          12 :    1.59113473968276
          13 :    3.99128993388936
          14 :   -6.65993712762824
          15 :    6.82234870245767
          16 :   -5.76215944340547
          17 :    4.81766797512876
          18 :   -4.65727343357943
          19 :    5.07420238192512
          20 :   -5.34744616856395
          21 :    4.85767713514784
          22 :   -3.53193244804132
          23 :    1.86096574375216
          24 :  -0.540387659388472
          25 :   1.756009213519860E-002
          26 :  -0.245557558347940
          27 :   0.774221893879229
          28 :   -1.08124836012593
          29 :   0.907922777655671
          30 :  -0.387537244856730
          31 :   -22.8879579082634
          32 :   -16.9881808767903

     Forces acting on atoms (Ry/au):

     negative rho (up, down):  7.481E-01 0.000E+00
     atom    1 type  1   force =     0.00075771    0.00031131    0.01441402
     atom    2 type  1   force =    -0.00075890    0.00032798    0.01442449
     atom    3 type  1   force =     0.00001697   -0.00076242    0.01446352
     atom    4 type  1   force =    -0.00001007    0.00011216    0.01618205
     atom    5 type  1   force =    -0.00000388    0.00258290   -0.00850028
     atom    6 type  1   force =     0.00000389   -0.00004137    0.00219848
     atom    7 type  1   force =    -0.00225837   -0.00126884   -0.00848240
     atom    8 type  1   force =     0.00225536   -0.00126865   -0.00847634
     atom    9 type  1   force =    -0.00000228   -0.00008435   -0.00088596
     atom   10 type  1   force =    -0.00000069    0.00199404   -0.01857212
     atom   11 type  1   force =     0.00179318   -0.00095444   -0.01849898
     atom   12 type  1   force =    -0.00179434   -0.00095446   -0.01849599
     atom   13 type  2   force =     0.00000125    0.00000499   -0.10078918
     atom   14 type  3   force =     0.00000016    0.00000116    0.12101870

     Total force =     0.160768     Total SCF correction =     0.011936

     entering subroutine stress ...

     negative rho (up, down):  7.481E-01 0.000E+00
          total   stress  (Ry/bohr**3)                   (kbar)     P=   -7.78
  -0.00006797   0.00000000   0.00000000        -10.00      0.00      0.00
   0.00000000  -0.00006796   0.00000001          0.00    -10.00      0.00
   0.00000000   0.00000001  -0.00002276          0.00      0.00     -3.35

     BFGS Geometry Optimization

     number of scf cycles    =   1
     number of bfgs steps    =   0

     energy   new            =   -1222.5396223290 Ry

     new trust radius        =       0.1210186997 bohr
     new conv_thr            =       0.0000099958 Ry

ATOMIC_POSITIONS (crystal)
Zr1      0.166666667   0.166666667   0.396150897    0   0   0
Zr1      0.666666667   0.166666667   0.396150897    0   0   0
Zr1      0.166666667   0.666666667   0.396150897    0   0   0
Zr1      0.666666667   0.666666667   0.396150897    0   0   0
Zr1      0.833333333   0.333333333   0.500000000    0   0   0
Zr1      0.333333333   0.333333333   0.500000000    0   0   0
Zr1      0.833333333   0.833333333   0.500000000    0   0   0
Zr1      0.333333333   0.833333333   0.500000000    0   0   0
Zr1      0.000003825  -0.000008026   0.603830530
Zr1      0.499905067   0.000189752   0.603459768
Zr1      0.000193190   0.499909176   0.603461301
Zr1      0.499897541   0.499909173   0.603461364
S1      -0.000000134   0.000000474   0.696020132
H1      -0.000000042   0.000000110   0.750188842

     Writing output data file calc.save
     Check: negative starting charge=   -0.729031
     NEW-OLD atomic charge density approx. for the potential
     Check: negative starting charge=   -0.729038

[...]

     Total force =     0.069010     Total SCF correction =     0.007395
     SCF correction compared to forces is large: reduce conv_thr to get better values

[...]

     energy   old            =   -1222.5396223290 Ry
     energy   new            =   -1222.5476831112 Ry

     CASE: energy  _new < energy  _old

[...]

     iteration #  2     ecut=    36.75 Ry     beta=0.30
     Davidson diagonalization with overlap
     c_bands:  2 eigenvalues not converged
     c_bands:  2 eigenvalues not converged
     ethr =  5.53E-06,  avg # of iterations =  9.2

[...]

     iteration #  1     ecut=    36.75 Ry     beta=0.30
     Davidson diagonalization with overlap
     c_bands:  1 eigenvalues not converged
     ethr =  1.00E-06,  avg # of iterations = 14.6

[...]

     Threshold (ethr) on eigenvalues was too large:
     Diagonalizing with lowered threshold

     Davidson diagonalization with overlap
     ethr =  8.28E-08,  avg # of iterations =  1.7

[...]

     Total force =     0.006654     Total SCF correction =     0.000167

[...]

     number of scf cycles    =  18
     number of bfgs steps    =  17

     energy   old            =   -1222.5614506348 Ry
     energy   new            =   -1222.5614654661 Ry

     CASE: energy  _new < energy  _old

     new trust radius        =       0.0039259669 bohr
     new conv_thr            =       0.0000001000 Ry

ATOMIC_POSITIONS (crystal)
Zr1      0.166666667   0.166666667   0.396150897    0   0   0
Zr1      0.666666667   0.166666667   0.396150897    0   0   0
Zr1      0.166666667   0.666666667   0.396150897    0   0   0
Zr1      0.666666667   0.666666667   0.396150897    0   0   0
Zr1      0.833333333   0.333333333   0.500000000    0   0   0
Zr1      0.333333333   0.333333333   0.500000000    0   0   0
Zr1      0.833333333   0.833333333   0.500000000    0   0   0
Zr1      0.333333333   0.833333333   0.500000000    0   0   0
Zr1      0.000002767  -0.000006530   0.608553528
Zr1      0.498032309   0.003935347   0.597858494
Zr1      0.003941973   0.498030360   0.597861887
Zr1      0.498027493   0.498029993   0.597862528
S1      -0.000010037   0.000025982   0.703976289
H1       0.000003207  -0.000008119   0.757199086

     Writing output data file calc.save
     Check: negative starting charge=   -0.727707
     NEW-OLD atomic charge density approx. for the potential
     Check: negative starting charge=   -0.727669

[...]

     Self-consistent Calculation

[...]

     Threshold (ethr) on eigenvalues was too large:
     Diagonalizing with lowered threshold

     Davidson diagonalization with overlap
     ethr =  4.64E-08,  avg # of iterations =  2.0

[...]

     total energy              =   -1222.56147095 Ry
     Harris-Foulkes estimate   =   -1222.56147101 Ry
     estimated scf accuracy    <       0.00000013 Ry

     iteration #  8     ecut=    36.75 Ry     beta=0.30
     Davidson diagonalization with overlap
     ethr =  8.42E-11,  avg # of iterations =  2.8

[...]

     negative rho (up, down):  7.464E-01 0.000E+00

     Adding external electric field

     Computed dipole along edir(3) :
        Dipole                0.2029 Ry au,          0.5157 Debye
        Dipole field          0.0004 Ry au

        Potential amp.       -0.0390 Ry
        Total length         46.5096 bohr

     End of self-consistent calculation

[...]

          k = 0.0519-0.0599 0.0000 ( 22856 PWs)   bands (ev):

[...]

          k =-0.0779-0.0450 0.0000 ( 22880 PWs)   bands (ev):

   -47.4457 -47.3879 -47.3845 -47.3677 -47.3423 -47.3394 -47.3385 -47.3197
   -47.0387 -47.0240 -46.9979 -46.9502 -25.6312 -25.6157 -25.6027 -25.5792
   -25.5670 -25.5516 -25.5169 -25.5001 -25.4650 -25.4569 -25.4140 -25.4096
   -25.3983 -25.3615 -25.3525 -25.3468 -25.3052 -25.3048 -25.2947 -25.2852
   -25.1322 -25.1250 -25.0860 -25.0822 -25.0655 -25.0555 -24.9813 -24.9674
   -24.9445 -24.9075 -24.8940 -24.8802 -24.8666 -24.8199 -24.7459 -24.7080
   -12.0271  -4.9492  -1.7081  -1.6428  -1.2636  -1.1529  -0.6817  -0.6652
    -0.0559  -0.0275   0.0057   0.0445   0.0754   0.0973   0.7287   0.7753
     0.7760   0.8758   0.8854   0.9381   1.2071   1.2753   1.3373   1.3552
     1.3735   1.4616   1.5455   1.6717   1.7940   1.8207   1.8631   1.9749
     2.0580   2.0584   2.1246   2.2005   2.4437

     the Fermi energy is     1.8403 ev

!    total energy              =   -1222.56147094 Ry
     Harris-Foulkes estimate   =   -1222.56147022 Ry
     estimated scf accuracy    <       0.00000005 Ry

     The total energy is the sum of the following terms:

     one-electron contribution =   -8393.88397094 Ry
     hartree contribution      =    4191.69552204 Ry
     xc contribution           =    -230.15332146 Ry
     ewald contribution        =    3209.89602356 Ry
     electric field correction =       0.00008504 Ry
     smearing contrib. (-TS)   =      -0.11580919 Ry

     convergence has been achieved in   8 iterations

 BEEF-vdW xc energy contributions
           1 :   -197.017578380485
           2 :    178.030326327124
           3 :   -146.085487524891
           4 :    110.181715312576
           5 :   -78.3984191977949
           6 :    55.1561333119955
           7 :   -40.5447712272961
           8 :    31.6300745263990
           9 :   -24.7355067051516
          10 :    17.4269804841747
          11 :   -9.33020000369987
          12 :    1.66255500755929
          13 :    3.97220568946634
          14 :   -6.72063103393396
          15 :    6.94483792514256
          16 :   -5.89120820900831
          17 :    4.89516929047221
          18 :   -4.66190903610601
          19 :    5.03761212585130
          20 :   -5.33352397475770
          21 :    4.91873321476078
          22 :   -3.67201064393831
          23 :    2.03096323093808
          24 :  -0.667751802398243
          25 :   5.137328915904504E-002
          26 :  -0.188637213107711
          27 :   0.681881754748019
          28 :   -1.02722885304803
          29 :   0.938988136134014
          30 :  -0.495789611343497
          31 :   -22.8916617799247
          32 :   -16.9945261613985

     Forces acting on atoms (Ry/au):

     negative rho (up, down):  7.464E-01 0.000E+00
     atom    1 type  1   force =     0.00068283    0.00039659    0.01223345
     atom    2 type  1   force =    -0.00068272    0.00039614    0.01223445
     atom    3 type  1   force =    -0.00000056   -0.00078930    0.01222588
     atom    4 type  1   force =     0.00000048   -0.00000332    0.01616905
     atom    5 type  1   force =    -0.00000197   -0.00521656   -0.01066925
     atom    6 type  1   force =     0.00000168   -0.00000123   -0.02067756
     atom    7 type  1   force =     0.00451875    0.00260986   -0.01067563
     atom    8 type  1   force =    -0.00451847    0.00260741   -0.01067447
     atom    9 type  1   force =    -0.00000141   -0.00000008   -0.00001580
     atom   10 type  1   force =     0.00000106   -0.00013950   -0.00001968
     atom   11 type  1   force =    -0.00012388    0.00006801   -0.00003475
     atom   12 type  1   force =     0.00012342    0.00006679   -0.00003737
     atom   13 type  2   force =     0.00000138    0.00001007   -0.00018979
     atom   14 type  3   force =    -0.00000059   -0.00000487    0.00013146

     Total force =     0.000340     Total SCF correction =     0.000738
     SCF correction compared to forces is large: reduce conv_thr to get better values

     entering subroutine stress ...

     negative rho (up, down):  7.464E-01 0.000E+00
          total   stress  (Ry/bohr**3)                   (kbar)     P=   -7.35
  -0.00005339   0.00000000  -0.00000000         -7.85      0.00     -0.00
   0.00000000  -0.00005339   0.00000000          0.00     -7.85      0.00
  -0.00000000   0.00000000  -0.00004302         -0.00      0.00     -6.33

     bfgs converged in  19 scf cycles and  18 bfgs steps
     (criteria: energy <  1.0E+00, force <  1.9E-03)

     End of BFGS Geometry Optimization

     Final energy   =   -1222.5614709364 Ry
Begin final coordinates

ATOMIC_POSITIONS (crystal)
Zr1      0.166666667   0.166666667   0.396150897    0   0   0
Zr1      0.666666667   0.166666667   0.396150897    0   0   0
Zr1      0.166666667   0.666666667   0.396150897    0   0   0
Zr1      0.666666667   0.666666667   0.396150897    0   0   0
Zr1      0.833333333   0.333333333   0.500000000    0   0   0
Zr1      0.333333333   0.333333333   0.500000000    0   0   0
Zr1      0.833333333   0.833333333   0.500000000    0   0   0
Zr1      0.333333333   0.833333333   0.500000000    0   0   0
Zr1      0.000002767  -0.000006530   0.608553528
Zr1      0.498032309   0.003935347   0.597858494
Zr1      0.003941973   0.498030360   0.597861887
Zr1      0.498027493   0.498029993   0.597862528
S1      -0.000010037   0.000025982   0.703976289
H1       0.000003207  -0.000008119   0.757199086
End final coordinates

     Writing output data file calc.save

     General routines

     Parallel routines

   This run was terminated on:  12:47:19  25Apr2018

   JOB DONE.
Job  /afs/slac/g/suncat/bin/suncat-tsmpirun -x LD_LIBRARY_PATH -wdir /scratch/qe412584_wmHY1 pw.x -npool 4 -in pw.inp

TID   HOST_NAME   COMMAND_LINE            STATUS            TERMINATION_TIME
00000 suncat0198 pw.x -npool 4 -i  Done                     04/25/2018 12:47:19
00001 suncat0198 pw.x -npool 4 -i  Done                     04/25/2018 12:47:19
00002 suncat0198 pw.x -npool 4 -i  Done                     04/25/2018 12:47:19
00003 suncat0198 pw.x -npool 4 -i  Done                     04/25/2018 12:47:19
00004 suncat0198 pw.x -npool 4 -i  Done                     04/25/2018 12:47:19
00005 suncat0198 pw.x -npool 4 -i  Done                     04/25/2018 12:47:19
00006 suncat0198 pw.x -npool 4 -i  Done                     04/25/2018 12:47:19
00007 suncat0198 pw.x -npool 4 -i  Done                     04/25/2018 12:47:19
00008 suncat0196 pw.x -npool 4 -i  Done                     04/25/2018 12:47:19
00009 suncat0196 pw.x -npool 4 -i  Done                     04/25/2018 12:47:19
00010 suncat0196 pw.x -npool 4 -i  Done                     04/25/2018 12:47:19
00011 suncat0196 pw.x -npool 4 -i  Done                     04/25/2018 12:47:19
00012 suncat0196 pw.x -npool 4 -i  Done                     04/25/2018 12:47:19
00013 suncat0196 pw.x -npool 4 -i  Done                     04/25/2018 12:47:19
00014 suncat0196 pw.x -npool 4 -i  Done                     04/25/2018 12:47:19
00015 suncat0196 pw.x -npool 4 -i  Done                     04/25/2018 12:47:19
00016 suncat0189 pw.x -npool 4 -i  Unreachable
00017 suncat0189 pw.x -npool 4 -i  Unreachable
00018 suncat0189 pw.x -npool 4 -i  Unreachable
00019 suncat0189 pw.x -npool 4 -i  Unreachable
00020 suncat0189 pw.x -npool 4 -i  Unreachable
00021 suncat0189 pw.x -npool 4 -i  Unreachable
00022 suncat0189 pw.x -npool 4 -i  Unreachable
00023 suncat0189 pw.x -npool 4 -i  Unreachable
00024 suncat0205 pw.x -npool 4 -i  Done                     04/25/2018 12:47:19
00025 suncat0205 pw.x -npool 4 -i  Done                     04/25/2018 12:47:19
00026 suncat0205 pw.x -npool 4 -i  Done                     04/25/2018 12:47:19
00027 suncat0205 pw.x -npool 4 -i  Done                     04/25/2018 12:47:19
00028 suncat0205 pw.x -npool 4 -i  Done                     04/25/2018 12:47:19
00029 suncat0205 pw.x -npool 4 -i  Done                     04/25/2018 12:47:19
00030 suncat0205 pw.x -npool 4 -i  Done                     04/25/2018 12:47:19
00031 suncat0205 pw.x -npool 4 -i  Done                     04/25/2018 12:47:19