     Program PWSCF v.5.1rc2 (svn rev. 11289) starts on 25Apr2018 at  4:15: 6

     Current dimensions of program PWSCF are:
     Max number of different atomic species (ntypx) = 10
     Max number of k-points (npk) =  40000
     Max angular momentum in pseudopotentials (lmaxx) =  3
     Presently stress not available with electric field

     IMPORTANT: XC functional enforced from input :
     Exchange-correlation      = BEEF-VDW ( 1  4 27 13 2)
     Any further DFT definition will be discarded
     Please, verify this is what you really want

     Subspace diagonalization in iterative solution of the eigenvalue problem:
     a serial algorithm will be used

     bravais-lattice index     =            0
     lattice parameter (alat)  =       1.8897  a.u.
     unit-cell volume          =    4515.4205 (a.u.)^3
     number of atoms/cell      =           14
     number of atomic types    =            3
     number of electrons       =       246.00
     number of Kohn-Sham states=          133
     kinetic-energy cutoff     =      36.7493  Ry
     charge density cutoff     =     367.4932  Ry
     convergence threshold     =      1.0E-05
     mixing beta               =       0.3000
     number of iterations used =           10  plain     mixing
     Exchange-correlation      = BEEF-VDW ( 1  4 27 13 2)
     nstep                     =           50

     celldm(1)=   1.889726  celldm(2)=   0.000000  celldm(3)=   0.000000
     celldm(4)=   0.000000  celldm(5)=   0.000000  celldm(6)=   0.000000

     crystal axes: (cart. coord. in units of alat)
               a(1) = (   5.606773   0.000000   0.000000 )
               a(2) = (   2.803387   4.855608   0.000000 )
               a(3) = (   0.000000   0.000000  24.577911 )

     reciprocal axes: (cart. coord. in units 2 pi/alat)
               b(1) = (  0.178356 -0.102974  0.000000 )
               b(2) = (  0.000000  0.205947  0.000000 )
               b(3) = (  0.000000  0.000000  0.040687 )

     PseudoPot. # 1 for Zn read from file:
     /u/if/mamunm/psp/gbrv1.5pbe/Zn.UPF
     MD5 check sum: df62231357ef9e81f77b2b3087fa5675
     Pseudo is Ultrasoft, Zval = 20.0
     Generated by new atomic code, or converted to UPF format
     Using radial grid of  943 points,  6 beta functions with:
                l(1) =   0
                l(2) =   0
                l(3) =   1
                l(4) =   1
                l(5) =   2
                l(6) =   2
     Q(r) pseudized with  8 coefficients,  rinner =    1.100   1.100   1.100
                                                       1.100   1.100

     PseudoPot. # 2 for N  read from file:
     /u/if/mamunm/psp/gbrv1.5pbe/N.UPF
     MD5 check sum: 95339753478d7afb44899504a8723017
     Pseudo is Ultrasoft + core correction, Zval =  5.0
     Generated by new atomic code, or converted to UPF format
     Using radial grid of  729 points,  4 beta functions with:
                l(1) =   0
                l(2) =   0
                l(3) =   1
                l(4) =   1
     Q(r) pseudized with  8 coefficients,  rinner =    0.900   0.900   0.900

     PseudoPot. # 3 for H  read from file:
     /u/if/mamunm/psp/gbrv1.5pbe/H.UPF
     MD5 check sum: 761ae9a214b05c3daf00ab9f6b793d6f
     Pseudo is Ultrasoft, Zval =  1.0
     Generated by new atomic code, or converted to UPF format
     Using radial grid of  615 points,  2 beta functions with:
                l(1) =   0
                l(2) =   0
     Q(r) pseudized with  8 coefficients,  rinner =    0.700

     vdW kernel table read from file vdW_kernel_table
     MD5 check sum: 095c7af220d748ca6e76c0b4c6cfb241

     atomic species   valence    mass     pseudopotential
        Zn1           20.00    65.38000     Zn( 1.00)
        N1             5.00    14.00700     N ( 1.00)
        H1             1.00     1.00800     H ( 1.00)

     No symmetry found

   Cartesian axes

     site n.     atom                  positions (alat units)
         1           Zn1 tau(   1) = (   1.4016933   0.8092680  10.0000000  )
         2           Zn1 tau(   2) = (   4.2050800   0.8092680  10.0000000  )
         3           Zn1 tau(   3) = (   2.8033867   3.2370721  10.0000000  )
         4           Zn1 tau(   4) = (   5.6067733   3.2370721  10.0000000  )
         5           Zn1 tau(   5) = (   5.6067733   1.6185360  12.2889556  )
         6           Zn1 tau(   6) = (   2.8033867   1.6185360  12.2889556  )
         7           Zn1 tau(   7) = (   7.0084667   4.0463401  12.2889556  )
         8           Zn1 tau(   8) = (   4.2050800   4.0463401  12.2889556  )
         9           Zn1 tau(   9) = (   0.0000000   0.0000000  14.5779113  )
        10           Zn1 tau(  10) = (   2.8033867   0.0000000  14.5779113  )
        11           Zn1 tau(  11) = (   1.4016933   2.4278041  14.5779113  )
        12           Zn1 tau(  12) = (   4.2050800   2.4278041  14.5779113  )
        13           N1  tau(  13) = (   1.4016933   0.8092680  15.8324113  )
        14           H1  tau(  14) = (   1.4016933   0.8092680  16.8824113  )

     number of k points=    20  Fermi-Dirac smearing, width (Ry)=  0.0110
                       cart. coord. in units 2pi/alat
        k(    1) = (   0.0000000   0.0000000   0.0000000), wk =   0.0555556
        k(    2) = (   0.0000000   0.0343246   0.0000000), wk =   0.1111111
        k(    3) = (   0.0000000   0.0686491   0.0000000), wk =   0.1111111
        k(    4) = (   0.0000000  -0.1029737   0.0000000), wk =   0.0555556
        k(    5) = (   0.0297260  -0.0171623   0.0000000), wk =   0.1111111
        k(    6) = (   0.0297260   0.0171623   0.0000000), wk =   0.1111111
        k(    7) = (   0.0297260   0.0514869   0.0000000), wk =   0.1111111
        k(    8) = (   0.0297260  -0.1201360   0.0000000), wk =   0.1111111
        k(    9) = (   0.0297260  -0.0858114   0.0000000), wk =   0.1111111
        k(   10) = (   0.0297260  -0.0514869   0.0000000), wk =   0.1111111
        k(   11) = (   0.0594519  -0.0343246   0.0000000), wk =   0.1111111
        k(   12) = (   0.0594519   0.0000000   0.0000000), wk =   0.1111111
        k(   13) = (   0.0594519   0.0343246   0.0000000), wk =   0.1111111
        k(   14) = (   0.0594519  -0.1372983   0.0000000), wk =   0.1111111
        k(   15) = (   0.0594519  -0.1029737   0.0000000), wk =   0.1111111
        k(   16) = (   0.0594519  -0.0686491   0.0000000), wk =   0.1111111
        k(   17) = (  -0.0891779   0.0514869   0.0000000), wk =   0.0555556
        k(   18) = (  -0.0891779   0.0858114   0.0000000), wk =   0.1111111
        k(   19) = (  -0.0891779   0.1201360   0.0000000), wk =   0.1111111
        k(   20) = (  -0.0891779  -0.0514869   0.0000000), wk =   0.0555556

     Largest allocated arrays     est. size (Mb)     dimensions
     Largest temporary arrays     est. size (Mb)     dimensions

     Initial potential from superposition of free atoms
     Check: negative starting charge=   -0.000783

     starting charge  245.99829, renormalised to  246.00000

     negative rho (up, down):  7.825E-04 0.000E+00

     *
     * You are using vdW-DF for exchange-correlation in this calculation.
     * Please cite the following three references that made this development
     * possible:
     *
     *   M. Dion, H. Rydberg, E. Schroder, D. C. Langreth, and
     *   B. I. Lundqvist, Phys. Rev. Lett. 92, 246401 (2004).
     *
     *   T. Thonhauser, V. R. Cooper, S. Li, A. Puzder, P. Hyldgaard, and
     *   D. C. Langreth, Phys. Rev. B 76, 125112 (2007).
     *
     *   G. Roman-Perez and J. M. Soler, Phys. Rev. Lett. 103, 096102 (2009).
     *
     *
     * If you are using vdW-DF2, please also cite:
     *
     *   K. Lee, E. D. Murray, L. Kong, B. I. Lundqvist, and
     *   D. C. Langreth, Phys. Rev. B 82, 081101(R) (2010).
     *
     *
     * If you are calculating the stress with vdW-DF, please also cite:
     *
     *   R. Sabatini, E. Kucukbenli, B. Kolb, T. Thonhauser, and
     *   S. de Gironcoli, J. Phys.: Condens. Matter 24, 424209 (2012).
     *

     Carrying out vdW-DF run using the following parameters:

     Nqs =      20    Nr_points =    1024   r_max =   100.000
     q_mesh =
               0.00001000     0.04494208     0.09755937     0.15916263
               0.23128650     0.31572767     0.41458969     0.53033537
               0.66584808     0.82450364     1.01025438     1.22772762
               1.48234092     1.78043706     2.12944203     2.53805004
               3.01644009     3.57652955     4.23227104     5.00000000

     Gradients computed in reciprocal space

     Adding external electric field

     Computed dipole along edir(3) :
        Dipole               -0.0002 Ry au,         -0.0004 Debye
        Dipole field         -0.0000 Ry au

        Potential amp.        0.0000 Ry
        Total length         45.2844 bohr

     Starting wfc are  161 randomized atomic wfcs

     Self-consistent Calculation

     iteration #  1     ecut=    36.75 Ry     beta=0.30
     Davidson diagonalization with overlap
     ethr =  1.00E-02,  avg # of iterations =  2.1

     Threshold (ethr) on eigenvalues was too large:
     Diagonalizing with lowered threshold

     Davidson diagonalization with overlap
     ethr =  7.00E-04,  avg # of iterations =  2.4

[...]

     total energy              =   -5574.30874979 Ry
     Harris-Foulkes estimate   =   -5575.07028198 Ry
     estimated scf accuracy    <       1.73041582 Ry

[...]

     End of self-consistent calculation

          k = 0.0000 0.0000 0.0000 ( 16931 PWs)   bands (ev):

  -126.1546-126.1202-126.1193-126.1193-125.9452-125.9174-125.9165-125.9165
  -125.8469-125.8376-125.8367-125.8367 -80.3338 -80.3332 -80.3332 -80.3012
   -80.2983 -80.2983 -80.2966 -80.2961 -80.2961 -80.2934 -80.2881 -80.2881
   -80.1287 -80.1209 -80.1209 -80.1042 -80.1032 -80.1032 -80.0989 -80.0920
   -80.0920 -80.0863 -80.0855 -80.0855 -80.0551 -80.0516 -80.0516 -80.0463
   -80.0463 -80.0436 -80.0246 -80.0226 -80.0226 -79.9616 -79.9561 -79.9560
   -14.5064  -8.8690  -7.9281  -7.6825  -7.6825  -7.6724  -7.6681  -7.5998
    -7.5998  -7.5831  -7.5197  -7.4848  -7.4848  -7.4112  -7.3622  -7.3622
    -7.1402  -7.1402  -7.1401  -7.1044  -7.1044  -7.0935  -7.0935  -7.0904
    -7.0474  -7.0274  -7.0274  -7.0111  -6.9806  -6.9806  -6.9021  -6.9021
    -6.7491  -6.7491  -6.6927  -6.6927  -6.6820  -6.6662  -6.6589  -6.6589
    -6.6378  -6.6191  -6.6191  -6.5663  -6.5663  -6.5548  -6.5548  -6.5496
    -6.5185  -6.5184  -6.4752  -6.4604  -6.4604  -6.4384  -6.4306  -6.4306
    -6.3968  -6.3463  -6.3463  -6.3361  -6.2964  -6.2964  -6.2908  -4.7805
    -3.0706  -2.4776  -2.4776  -1.9321  -1.9321  -1.8227  -1.3312  -1.3018
    -1.3018  -0.5818  -0.0691  -0.0691  -0.0689   0.7464   0.7464   1.4680
     2.5935   2.5935   2.8558   3.0781   3.4564

[...]

          k =-0.0892 0.0515 0.0000 ( 17028 PWs)   bands (ev):

[...]

     the Fermi energy is     0.6474 ev

!    total energy              =   -5574.77137008 Ry
     Harris-Foulkes estimate   =   -5574.77138403 Ry
     estimated scf accuracy    <       0.00000872 Ry

     The total energy is the sum of the following terms:

     one-electron contribution =  -36186.57512746 Ry
     hartree contribution      =   18075.90747528 Ry
     xc contribution           =    -527.23372349 Ry
     ewald contribution        =   13063.15833874 Ry
     electric field correction =       0.00001295 Ry
     smearing contrib. (-TS)   =      -0.02834609 Ry

     convergence has been achieved in  10 iterations

 BEEF-vdW xc energy contributions
           1 :   -468.232350925729
           2 :    424.233881554369
           3 :   -350.486138295082
           4 :    268.403753914242
           5 :   -196.868377458169
           6 :    145.187846533785
           7 :   -111.891957946071
           8 :    89.0343169974855
           9 :   -68.6932827396365
          10 :    47.5928933659829
          11 :   -27.5579319548333
          12 :    12.4585211618974
          13 :   -4.41773986190140
          14 :    2.03420723920635
          15 :   -1.52233233493803
          16 :  -0.509744630967475
          17 :    4.88768748904192
          18 :   -9.81270557332704
          19 :    12.6981203552457
          20 :   -12.3300559309448
          21 :    9.72982266733931
          22 :   -7.23522262967901
          23 :    6.67693571863799
          24 :   -8.10670331630968
          25 :    9.97467221471516
          26 :   -10.4860703104905
          27 :    9.00606096733532
          28 :   -6.45136083204409
          29 :    4.46597017407942
          30 :   -4.11512925725003
          31 :   -36.4313883777099
          32 :   -24.8523184782865

     Forces acting on atoms (Ry/au):

     negative rho (up, down):  1.239E-03 0.000E+00
     atom    1 type  1   force =    -0.00000185   -0.00000157   -0.00525139
     atom    2 type  1   force =     0.00000270   -0.00017666   -0.00924508
     atom    3 type  1   force =    -0.00015531    0.00009150   -0.00924983
     atom    4 type  1   force =     0.00015463    0.00008908   -0.00924868
     atom    5 type  1   force =     0.00375359   -0.00216372    0.00150841
     atom    6 type  1   force =    -0.00375095   -0.00216455    0.00150372
     atom    7 type  1   force =    -0.00000087   -0.00000281    0.00729640
     atom    8 type  1   force =     0.00000253    0.00433237    0.00150256
     atom    9 type  1   force =    -0.01564884   -0.00902891    0.02331667
     atom   10 type  1   force =     0.01564626   -0.00904259    0.02331055
     atom   11 type  1   force =    -0.00000524    0.01806900    0.02330341
     atom   12 type  1   force =     0.00000125   -0.00000081   -0.00321987
     atom   13 type  2   force =     0.00000129   -0.00000057   -0.00465382
     atom   14 type  3   force =     0.00000081    0.00000024   -0.04087306

     Total force =     0.065667     Total SCF correction =     0.018899
     SCF correction compared to forces is large: reduce conv_thr to get better values

     entering subroutine stress ...

     negative rho (up, down):  1.239E-03 0.000E+00
          total   stress  (Ry/bohr**3)                   (kbar)     P=  -19.53
  -0.00015867   0.00000000   0.00000000        -23.34      0.00      0.00
   0.00000000  -0.00015867   0.00000000          0.00    -23.34      0.00
   0.00000000   0.00000000  -0.00008094          0.00      0.00    -11.91

     BFGS Geometry Optimization

     number of scf cycles    =   1
     number of bfgs steps    =   0

     energy   new            =   -5574.7713700752 Ry

     new trust radius        =       0.0408730609 bohr
     new conv_thr            =       0.0000099958 Ry

ATOMIC_POSITIONS (crystal)
Zn1      0.166666667   0.166666667   0.406869400    0   0   0
Zn1      0.666666667   0.166666667   0.406869400    0   0   0
Zn1      0.166666667   0.666666667   0.406869400    0   0   0
Zn1      0.666666667   0.666666667   0.406869400    0   0   0
Zn1      0.833333333   0.333333333   0.500000000    0   0   0
Zn1      0.333333333   0.333333333   0.500000000    0   0   0
Zn1      0.833333333   0.833333333   0.500000000    0   0   0
Zn1      0.333333333   0.833333333   0.500000000    0   0   0
Zn1     -0.000984968  -0.000983995   0.593632622
Zn1      0.501969465  -0.000985486   0.593632490
Zn1     -0.000985099   0.501969208   0.593632337
Zn1      0.500000162   0.499999912   0.593061275
N1       0.166666820   0.166666604   0.644072167
H1       0.166666730   0.166666693   0.686013632

     Writing output data file calc.save
     Check: negative starting charge=   -0.000783
     NEW-OLD atomic charge density approx. for the potential
     Check: negative starting charge=   -0.000790

[...]

     Total force =     0.061757     Total SCF correction =     0.003486

[...]

     energy   old            =   -5574.7713700752 Ry
     energy   new            =   -5574.7752698512 Ry

     CASE: energy  _new < energy  _old

[...]

     Total force =     0.008293     Total SCF correction =     0.000804

[...]

     number of scf cycles    =  18
     number of bfgs steps    =  17

     energy   old            =   -5574.8059502334 Ry
     energy   new            =   -5574.8059955919 Ry

     CASE: energy  _new < energy  _old

     new trust radius        =       0.0121999651 bohr
     new conv_thr            =       0.0000001000 Ry

ATOMIC_POSITIONS (crystal)
Zn1      0.166666667   0.166666667   0.406869400    0   0   0
Zn1      0.666666667   0.166666667   0.406869400    0   0   0
Zn1      0.166666667   0.666666667   0.406869400    0   0   0
Zn1      0.666666667   0.666666667   0.406869400    0   0   0
Zn1      0.833333333   0.333333333   0.500000000    0   0   0
Zn1      0.333333333   0.333333333   0.500000000    0   0   0
Zn1      0.833333333   0.833333333   0.500000000    0   0   0
Zn1      0.333333333   0.833333333   0.500000000    0   0   0
Zn1     -0.015698373  -0.015708976   0.606511932
Zn1      0.531393533  -0.015693675   0.606510821
Zn1     -0.015683593   0.531393242   0.606510903
Zn1      0.499994252   0.499998311   0.589143214
N1       0.166660186   0.166662781   0.641581689
H1       0.166665496   0.166675204   0.683232437

     Writing output data file calc.save
     Check: negative starting charge=   -0.000792
     NEW-OLD atomic charge density approx. for the potential
     Check: negative starting charge=   -0.000793

[...]

     Self-consistent Calculation

[...]

     Threshold (ethr) on eigenvalues was too large:
     Diagonalizing with lowered threshold

     Davidson diagonalization with overlap
     ethr =  9.84E-09,  avg # of iterations =  1.0

[...]

     total energy              =   -5574.80601515 Ry
     Harris-Foulkes estimate   =   -5574.80601499 Ry
     estimated scf accuracy    <       0.00000022 Ry

     iteration #  6     ecut=    36.75 Ry     beta=0.30
     Davidson diagonalization with overlap
     ethr =  8.88E-11,  avg # of iterations =  2.7

[...]

     negative rho (up, down):  1.183E-03 0.000E+00

     Adding external electric field

     Computed dipole along edir(3) :
        Dipole                0.1896 Ry au,          0.4818 Debye
        Dipole field          0.0005 Ry au

        Potential amp.       -0.0478 Ry
        Total length         45.2844 bohr

     End of self-consistent calculation

[...]

          k = 0.0595-0.0686 0.0000 ( 16986 PWs)   bands (ev):

[...]

          k =-0.0892-0.0515 0.0000 ( 17028 PWs)   bands (ev):

  -125.9331-125.9293-125.9290-125.9287-125.7920-125.7789-125.7786-125.7783
  -125.6977-125.6870-125.6850-125.6850 -80.1152 -80.1129 -80.1099 -80.1097
   -80.1088 -80.1082 -80.1079 -80.1049 -80.1037 -80.1024 -80.1012 -80.0969
   -79.9756 -79.9687 -79.9673 -79.9663 -79.9659 -79.9655 -79.9564 -79.9526
   -79.9525 -79.9515 -79.9508 -79.9462 -79.9100 -79.9032 -79.9027 -79.8892
   -79.8892 -79.8815 -79.8763 -79.8714 -79.8703 -79.8185 -79.8046 -79.8033
   -15.0332  -7.6173  -7.4409  -7.3809  -7.2598  -7.2333  -7.2171  -7.2129
    -7.1804  -7.1567  -7.1537  -7.1230  -7.1174  -7.0769  -7.0561  -7.0172
    -6.9925  -6.9802  -6.9461  -6.9228  -6.9125  -6.8914  -6.8903  -6.8619
    -6.8586  -6.8218  -6.8136  -6.7992  -6.7849  -6.7715  -6.7607  -6.7460
    -6.7196  -6.6837  -6.6619  -6.6532  -6.6527  -6.6342  -6.6247  -6.6222
    -6.6030  -6.5962  -6.5514  -6.5477  -6.5324  -6.5193  -6.4974  -6.4814
    -6.4744  -6.4483  -6.4413  -6.4287  -6.4124  -6.3973  -6.3718  -6.3279
    -6.3049  -6.3041  -6.3021  -6.2885  -6.2753  -6.2176  -6.2050  -5.2120
    -5.0687  -3.7669  -3.4469  -2.9626  -2.8013  -2.5798  -1.9635  -0.9323
    -0.4049  -0.0820   1.0462   1.5658   1.8678   2.6156   3.4812   3.5241
     3.6795   3.8721   4.0867   4.4838   4.6046

     the Fermi energy is     0.8402 ev

!    total energy              =   -5574.80601513 Ry
     Harris-Foulkes estimate   =   -5574.80601505 Ry
     estimated scf accuracy    <       0.00000009 Ry

     The total energy is the sum of the following terms:

     one-electron contribution =  -35257.44203003 Ry
     hartree contribution      =   17612.57832695 Ry
     xc contribution           =    -527.24161237 Ry
     ewald contribution        =   12597.32387045 Ry
     electric field correction =       0.00010000 Ry
     smearing contrib. (-TS)   =      -0.02467012 Ry

     convergence has been achieved in   6 iterations

 BEEF-vdW xc energy contributions
           1 :   -468.237080244771
           2 :    424.187733826667
           3 :   -350.351547648804
           4 :    268.177555607980
           5 :   -196.583575786947
           6 :    144.890499480183
           7 :   -111.617004820720
           8 :    88.7977229565340
           9 :   -68.4990054837999
          10 :    47.4410036101397
          11 :   -27.4433396062021
          12 :    12.3645825169034
          13 :   -4.31775455652928
          14 :    1.90682173820392
          15 :   -1.37220293033067
          16 :  -0.645298078335884
          17 :    4.95896156910942
          18 :   -9.79432951900458
          19 :    12.6138010300023
          20 :   -12.2431154317713
          21 :    9.70224019839458
          22 :   -7.28337759809153
          23 :    6.75806897906114
          24 :   -8.14843728086800
          25 :    9.92761596474975
          26 :   -10.3607216194531
          27 :    8.86610727309898
          28 :   -6.36830002755170
          29 :    4.46989200733458
          30 :   -4.18019015519371
          31 :   -36.4291284204023
          32 :   -24.8313079274831

     Forces acting on atoms (Ry/au):

     negative rho (up, down):  1.183E-03 0.000E+00
     atom    1 type  1   force =     0.00000018    0.00000002   -0.00801839
     atom    2 type  1   force =    -0.00000018   -0.00026954   -0.01079187
     atom    3 type  1   force =    -0.00023338    0.00013470   -0.01079194
     atom    4 type  1   force =     0.00023353    0.00013493   -0.01079187
     atom    5 type  1   force =     0.00818408   -0.00472498    0.00985715
     atom    6 type  1   force =    -0.00818561   -0.00472621    0.00985393
     atom    7 type  1   force =    -0.00000024    0.00000000    0.00898111
     atom    8 type  1   force =     0.00000044    0.00945093    0.00985618
     atom    9 type  1   force =     0.00002140    0.00001667   -0.00006817
     atom   10 type  1   force =    -0.00002013    0.00000523   -0.00007062
     atom   11 type  1   force =    -0.00000942   -0.00002078   -0.00007236
     atom   12 type  1   force =     0.00000660    0.00000011    0.00174220
     atom   13 type  2   force =     0.00000716    0.00000322    0.00050039
     atom   14 type  3   force =    -0.00000443   -0.00000428   -0.00018572

     Total force =     0.001827     Total SCF correction =     0.002412
     SCF correction compared to forces is large: reduce conv_thr to get better values

     entering subroutine stress ...

     negative rho (up, down):  1.183E-03 0.000E+00
          total   stress  (Ry/bohr**3)                   (kbar)     P=  -13.52
  -0.00013154   0.00000001  -0.00000000        -19.35      0.00     -0.00
   0.00000001  -0.00013154  -0.00000000          0.00    -19.35     -0.00
  -0.00000000  -0.00000000  -0.00001260         -0.00     -0.00     -1.85

     bfgs converged in  19 scf cycles and  18 bfgs steps
     (criteria: energy <  1.0E+00, force <  1.9E-03)

     End of BFGS Geometry Optimization

     Final energy   =   -5574.8060151253 Ry
Begin final coordinates

ATOMIC_POSITIONS (crystal)
Zn1      0.166666667   0.166666667   0.406869400    0   0   0
Zn1      0.666666667   0.166666667   0.406869400    0   0   0
Zn1      0.166666667   0.666666667   0.406869400    0   0   0
Zn1      0.666666667   0.666666667   0.406869400    0   0   0
Zn1      0.833333333   0.333333333   0.500000000    0   0   0
Zn1      0.333333333   0.333333333   0.500000000    0   0   0
Zn1      0.833333333   0.833333333   0.500000000    0   0   0
Zn1      0.333333333   0.833333333   0.500000000    0   0   0
Zn1     -0.015698373  -0.015708976   0.606511932
Zn1      0.531393533  -0.015693675   0.606510821
Zn1     -0.015683593   0.531393242   0.606510903
Zn1      0.499994252   0.499998311   0.589143214
N1       0.166660186   0.166662781   0.641581689
H1       0.166665496   0.166675204   0.683232437
End final coordinates

     Writing output data file calc.save

     General routines

     Parallel routines

   This run was terminated on:   5:50:21  25Apr2018

   JOB DONE.
Job  /afs/slac/g/suncat/bin/suncat-tsmpirun -x LD_LIBRARY_PATH -wdir /scratch/qe311131_ugaHz pw.x -npool 4 -in pw.inp

TID   HOST_NAME   COMMAND_LINE            STATUS            TERMINATION_TIME
00000 suncat0231 pw.x -npool 4 -i  Done                     04/25/2018 05:50:21
00001 suncat0231 pw.x -npool 4 -i  Done                     04/25/2018 05:50:21
00002 suncat0231 pw.x -npool 4 -i  Done                     04/25/2018 05:50:21
00003 suncat0231 pw.x -npool 4 -i  Done                     04/25/2018 05:50:21
00004 suncat0231 pw.x -npool 4 -i  Done                     04/25/2018 05:50:21
00005 suncat0231 pw.x -npool 4 -i  Done                     04/25/2018 05:50:21
00006 suncat0231 pw.x -npool 4 -i  Done                     04/25/2018 05:50:21
00007 suncat0231 pw.x -npool 4 -i  Done                     04/25/2018 05:50:21
00008 suncat0230 pw.x -npool 4 -i  Done                     04/25/2018 05:50:21
00009 suncat0230 pw.x -npool 4 -i  Done                     04/25/2018 05:50:21
00010 suncat0230 pw.x -npool 4 -i  Done                     04/25/2018 05:50:21
00011 suncat0230 pw.x -npool 4 -i  Done                     04/25/2018 05:50:21
00012 suncat0230 pw.x -npool 4 -i  Done                     04/25/2018 05:50:21
00013 suncat0230 pw.x -npool 4 -i  Done                     04/25/2018 05:50:21
00014 suncat0230 pw.x -npool 4 -i  Done                     04/25/2018 05:50:21
00015 suncat0230 pw.x -npool 4 -i  Done                     04/25/2018 05:50:21
00016 suncat0229 pw.x -npool 4 -i  Done                     04/25/2018 05:50:21
00017 suncat0229 pw.x -npool 4 -i  Done                     04/25/2018 05:50:21
00018 suncat0229 pw.x -npool 4 -i  Done                     04/25/2018 05:50:21
00019 suncat0229 pw.x -npool 4 -i  Done                     04/25/2018 05:50:21
00020 suncat0229 pw.x -npool 4 -i  Done                     04/25/2018 05:50:21
00021 suncat0229 pw.x -npool 4 -i  Done                     04/25/2018 05:50:21
00022 suncat0229 pw.x -npool 4 -i  Done                     04/25/2018 05:50:21
00023 suncat0229 pw.x -npool 4 -i  Done                     04/25/2018 05:50:21
00024 suncat0227 pw.x -npool 4 -i  Done                     04/25/2018 05:50:21
00025 suncat0227 pw.x -npool 4 -i  Done                     04/25/2018 05:50:21
00026 suncat0227 pw.x -npool 4 -i  Done                     04/25/2018 05:50:21
00027 suncat0227 pw.x -npool 4 -i  Done                     04/25/2018 05:50:21
00028 suncat0227 pw.x -npool 4 -i  Done                     04/25/2018 05:50:21
00029 suncat0227 pw.x -npool 4 -i  Done                     04/25/2018 05:50:21
00030 suncat0227 pw.x -npool 4 -i  Done                     04/25/2018 05:50:21
00031 suncat0227 pw.x -npool 4 -i  Done                     04/25/2018 05:50:21