     Program PWSCF v.5.1rc2 (svn rev. 11289) starts on 25Apr2018 at  2:41:49

     Current dimensions of program PWSCF are:
     Max number of different atomic species (ntypx) = 10
     Max number of k-points (npk) =  40000
     Max angular momentum in pseudopotentials (lmaxx) =  3
     Presently stress not available with electric field

     IMPORTANT: XC functional enforced from input :
     Exchange-correlation      = BEEF-VDW ( 1  4 27 13 2)
     Any further DFT definition will be discarded
     Please, verify this is what you really want

     Subspace diagonalization in iterative solution of the eigenvalue problem:
     a serial algorithm will be used

     bravais-lattice index     =            0
     lattice parameter (alat)  =       1.8897  a.u.
     unit-cell volume          =    4515.4205 (a.u.)^3
     number of atoms/cell      =           14
     number of atomic types    =            3
     number of electrons       =       247.00
     number of Kohn-Sham states=          133
     kinetic-energy cutoff     =      36.7493  Ry
     charge density cutoff     =     367.4932  Ry
     convergence threshold     =      1.0E-05
     mixing beta               =       0.3000
     number of iterations used =           10  plain     mixing
     Exchange-correlation      = BEEF-VDW ( 1  4 27 13 2)
     nstep                     =           50

     celldm(1)=   1.889726  celldm(2)=   0.000000  celldm(3)=   0.000000
     celldm(4)=   0.000000  celldm(5)=   0.000000  celldm(6)=   0.000000

     crystal axes: (cart. coord. in units of alat)
               a(1) = (   5.606773   0.000000   0.000000 )
               a(2) = (   2.803387   4.855608   0.000000 )
               a(3) = (   0.000000   0.000000  24.577911 )

     reciprocal axes: (cart. coord. in units 2 pi/alat)
               b(1) = (  0.178356 -0.102974  0.000000 )
               b(2) = (  0.000000  0.205947  0.000000 )
               b(3) = (  0.000000  0.000000  0.040687 )

     PseudoPot. # 1 for Zn read from file:
     /u/if/mamunm/psp/gbrv1.5pbe/Zn.UPF
     MD5 check sum: df62231357ef9e81f77b2b3087fa5675
     Pseudo is Ultrasoft, Zval = 20.0
     Generated by new atomic code, or converted to UPF format
     Using radial grid of  943 points,  6 beta functions with:
                l(1) =   0
                l(2) =   0
                l(3) =   1
                l(4) =   1
                l(5) =   2
                l(6) =   2
     Q(r) pseudized with  8 coefficients,  rinner =    1.100   1.100   1.100
                                                       1.100   1.100

     PseudoPot. # 2 for O  read from file:
     /u/if/mamunm/psp/gbrv1.5pbe/O.UPF
     MD5 check sum: 734c27235a0248c51dbae37a1fbe46ec
     Pseudo is Ultrasoft + core correction, Zval =  6.0
     Generated by new atomic code, or converted to UPF format
     Using radial grid of  737 points,  5 beta functions with:
                l(1) =   0
                l(2) =   0
                l(3) =   1
                l(4) =   1
                l(5) =   2
     Q(r) pseudized with  8 coefficients,  rinner =    0.900   0.900   0.900
                                                       0.900   0.900

     PseudoPot. # 3 for H  read from file:
     /u/if/mamunm/psp/gbrv1.5pbe/H.UPF
     MD5 check sum: 761ae9a214b05c3daf00ab9f6b793d6f
     Pseudo is Ultrasoft, Zval =  1.0
     Generated by new atomic code, or converted to UPF format
     Using radial grid of  615 points,  2 beta functions with:
                l(1) =   0
                l(2) =   0
     Q(r) pseudized with  8 coefficients,  rinner =    0.700

     vdW kernel table read from file vdW_kernel_table
     MD5 check sum: 095c7af220d748ca6e76c0b4c6cfb241

     atomic species   valence    mass     pseudopotential
        Zn1           20.00    65.38000     Zn( 1.00)
        O1             6.00    15.99900     O ( 1.00)
        H1             1.00     1.00800     H ( 1.00)

     No symmetry found

   Cartesian axes

     site n.     atom                  positions (alat units)
         1           Zn1 tau(   1) = (   1.4016933   0.8092680  10.0000000  )
         2           Zn1 tau(   2) = (   4.2050800   0.8092680  10.0000000  )
         3           Zn1 tau(   3) = (   2.8033867   3.2370721  10.0000000  )
         4           Zn1 tau(   4) = (   5.6067733   3.2370721  10.0000000  )
         5           Zn1 tau(   5) = (   5.6067733   1.6185360  12.2889556  )
         6           Zn1 tau(   6) = (   2.8033867   1.6185360  12.2889556  )
         7           Zn1 tau(   7) = (   7.0084667   4.0463401  12.2889556  )
         8           Zn1 tau(   8) = (   4.2050800   4.0463401  12.2889556  )
         9           Zn1 tau(   9) = (   0.0000000   0.0000000  14.5779113  )
        10           Zn1 tau(  10) = (   2.8033867   0.0000000  14.5779113  )
        11           Zn1 tau(  11) = (   1.4016933   2.4278041  14.5779113  )
        12           Zn1 tau(  12) = (   4.2050800   2.4278041  14.5779113  )
        13           O1  tau(  13) = (   2.8033867   1.6185360  15.7999113  )
        14           H1  tau(  14) = (   2.8033867   1.6185360  16.7499113  )

     number of k points=    20  Fermi-Dirac smearing, width (Ry)=  0.0110
                       cart. coord. in units 2pi/alat
        k(    1) = (   0.0000000   0.0000000   0.0000000), wk =   0.0555556
        k(    2) = (   0.0000000   0.0343246   0.0000000), wk =   0.1111111
        k(    3) = (   0.0000000   0.0686491   0.0000000), wk =   0.1111111
        k(    4) = (   0.0000000  -0.1029737   0.0000000), wk =   0.0555556
        k(    5) = (   0.0297260  -0.0171623   0.0000000), wk =   0.1111111
        k(    6) = (   0.0297260   0.0171623   0.0000000), wk =   0.1111111
        k(    7) = (   0.0297260   0.0514869   0.0000000), wk =   0.1111111
        k(    8) = (   0.0297260  -0.1201360   0.0000000), wk =   0.1111111
        k(    9) = (   0.0297260  -0.0858114   0.0000000), wk =   0.1111111
        k(   10) = (   0.0297260  -0.0514869   0.0000000), wk =   0.1111111
        k(   11) = (   0.0594519  -0.0343246   0.0000000), wk =   0.1111111
        k(   12) = (   0.0594519   0.0000000   0.0000000), wk =   0.1111111
        k(   13) = (   0.0594519   0.0343246   0.0000000), wk =   0.1111111
        k(   14) = (   0.0594519  -0.1372983   0.0000000), wk =   0.1111111
        k(   15) = (   0.0594519  -0.1029737   0.0000000), wk =   0.1111111
        k(   16) = (   0.0594519  -0.0686491   0.0000000), wk =   0.1111111
        k(   17) = (  -0.0891779   0.0514869   0.0000000), wk =   0.0555556
        k(   18) = (  -0.0891779   0.0858114   0.0000000), wk =   0.1111111
        k(   19) = (  -0.0891779   0.1201360   0.0000000), wk =   0.1111111
        k(   20) = (  -0.0891779  -0.0514869   0.0000000), wk =   0.0555556

     Largest allocated arrays     est. size (Mb)     dimensions
     Largest temporary arrays     est. size (Mb)     dimensions

     Initial potential from superposition of free atoms
     Check: negative starting charge=   -0.000846

     starting charge  246.99830, renormalised to  247.00000

     negative rho (up, down):  8.459E-04 0.000E+00

     *
     * You are using vdW-DF for exchange-correlation in this calculation.
     * Please cite the following three references that made this development
     * possible:
     *
     *   M. Dion, H. Rydberg, E. Schroder, D. C. Langreth, and
     *   B. I. Lundqvist, Phys. Rev. Lett. 92, 246401 (2004).
     *
     *   T. Thonhauser, V. R. Cooper, S. Li, A. Puzder, P. Hyldgaard, and
     *   D. C. Langreth, Phys. Rev. B 76, 125112 (2007).
     *
     *   G. Roman-Perez and J. M. Soler, Phys. Rev. Lett. 103, 096102 (2009).
     *
     *
     * If you are using vdW-DF2, please also cite:
     *
     *   K. Lee, E. D. Murray, L. Kong, B. I. Lundqvist, and
     *   D. C. Langreth, Phys. Rev. B 82, 081101(R) (2010).
     *
     *
     * If you are calculating the stress with vdW-DF, please also cite:
     *
     *   R. Sabatini, E. Kucukbenli, B. Kolb, T. Thonhauser, and
     *   S. de Gironcoli, J. Phys.: Condens. Matter 24, 424209 (2012).
     *

     Carrying out vdW-DF run using the following parameters:

     Nqs =      20    Nr_points =    1024   r_max =   100.000
     q_mesh =
               0.00001000     0.04494208     0.09755937     0.15916263
               0.23128650     0.31572767     0.41458969     0.53033537
               0.66584808     0.82450364     1.01025438     1.22772762
               1.48234092     1.78043706     2.12944203     2.53805004
               3.01644009     3.57652955     4.23227104     5.00000000

     Gradients computed in reciprocal space

     Adding external electric field

     Computed dipole along edir(3) :
        Dipole               -0.0002 Ry au,         -0.0006 Debye
        Dipole field         -0.0000 Ry au

        Potential amp.        0.0001 Ry
        Total length         45.2844 bohr

     Starting wfc are  161 randomized atomic wfcs

     Self-consistent Calculation

     iteration #  1     ecut=    36.75 Ry     beta=0.30
     Davidson diagonalization with overlap
     ethr =  1.00E-02,  avg # of iterations =  2.5

     Threshold (ethr) on eigenvalues was too large:
     Diagonalizing with lowered threshold

     Davidson diagonalization with overlap
     ethr =  3.11E-04,  avg # of iterations =  5.6

[...]

     total energy              =   -5586.92944077 Ry
     Harris-Foulkes estimate   =   -5587.23373355 Ry
     estimated scf accuracy    <       0.77643640 Ry

[...]

     End of self-consistent calculation

          k = 0.0000 0.0000 0.0000 ( 16931 PWs)   bands (ev):

  -125.7428-125.7419-125.7419-125.7153-125.6168-125.6159-125.6159-125.5479
  -125.5196-125.5168-125.5160-125.5160 -79.9240 -79.9239 -79.9239 -79.9229
   -79.9229 -79.9220 -79.9171 -79.9097 -79.9097 -79.8908 -79.8908 -79.8848
   -79.8265 -79.8194 -79.8194 -79.8090 -79.8090 -79.8045 -79.7811 -79.7763
   -79.7763 -79.7326 -79.7188 -79.7188 -79.7070 -79.7041 -79.7033 -79.7033
   -79.6994 -79.6994 -79.6946 -79.6883 -79.6877 -79.6877 -79.6821 -79.6821
   -20.5196  -9.4124  -8.3308  -7.3201  -7.3201  -7.3030  -7.2885  -7.2730
    -7.2730  -7.2490  -7.1930  -7.1930  -7.1700  -7.0824  -7.0199  -7.0199
    -6.9114  -6.8913  -6.8913  -6.7569  -6.7569  -6.7334  -6.7334  -6.7228
    -6.7129  -6.7025  -6.7025  -6.6594  -6.6455  -6.6454  -6.5585  -6.5585
    -6.4804  -6.4804  -6.3961  -6.3723  -6.3723  -6.3456  -6.3456  -6.3379
    -6.3150  -6.2623  -6.2623  -6.2351  -6.2351  -6.1804  -6.1752  -6.1720
    -6.1720  -6.1406  -6.1387  -6.1387  -6.1168  -6.1168  -6.1062  -6.1062
    -6.0858  -6.0748  -6.0408  -6.0408  -5.9351  -5.9351  -5.9336  -5.4918
    -4.0742  -4.0742  -2.9381  -1.5364  -1.4457  -1.4457  -1.1818  -1.1818
    -0.9569  -0.3569  -0.1712  -0.1712   0.8130   0.9874   1.2766   1.2766
     2.7392   2.7731   3.1737   3.1737   3.6326

[...]

          k =-0.0892 0.0515 0.0000 ( 17028 PWs)   bands (ev):

[...]

     the Fermi energy is     1.0383 ev

!    total energy              =   -5587.05590507 Ry
     Harris-Foulkes estimate   =   -5587.05590936 Ry
     estimated scf accuracy    <       0.00000355 Ry

     The total energy is the sum of the following terms:

     one-electron contribution =  -36384.06758149 Ry
     hartree contribution      =   18177.75824146 Ry
     xc contribution           =    -529.42573109 Ry
     ewald contribution        =   13148.70153591 Ry
     electric field correction =       0.00032302 Ry
     smearing contrib. (-TS)   =      -0.02269289 Ry

     convergence has been achieved in   9 iterations

 BEEF-vdW xc energy contributions
           1 :   -470.127327502238
           2 :    425.852596900379
           3 :   -351.665016731748
           4 :    269.145607934251
           5 :   -197.299031700970
           6 :    145.467419520996
           7 :   -112.146678881830
           8 :    89.3259884957233
           9 :   -69.0231859472758
          10 :    47.9258784904043
          11 :   -27.8490381798961
          12 :    12.6738475413467
          13 :   -4.54467722091056
          14 :    2.07852342479475
          15 :   -1.50207362158085
          16 :  -0.565044908498180
          17 :    4.94055920716301
          18 :   -9.83179355013465
          19 :    12.6736583590229
          20 :   -12.2762187335602
          21 :    9.67177857693844
          22 :   -7.19198926088779
          23 :    6.65280732607755
          24 :   -8.09589297158163
          25 :    9.97353488087572
          26 :   -10.5009971931230
          27 :    9.04938071675303
          28 :   -6.52965022848747
          29 :    4.57077675085532
          30 :   -4.22326837799858
          31 :   -36.5881974726984
          32 :   -24.9382947316826

     Forces acting on atoms (Ry/au):

     negative rho (up, down):  1.011E-03 0.000E+00
     atom    1 type  1   force =     0.00266133    0.00153629   -0.00783918
     atom    2 type  1   force =    -0.00265959    0.00153723   -0.00783963
     atom    3 type  1   force =     0.00000171   -0.00307263   -0.00784368
     atom    4 type  1   force =    -0.00000013   -0.00000231   -0.00675385
     atom    5 type  1   force =    -0.00000250   -0.00027929   -0.00021302
     atom    6 type  1   force =     0.00000268    0.00000034    0.01147731
     atom    7 type  1   force =     0.00024562    0.00014463   -0.00021798
     atom    8 type  1   force =    -0.00024726    0.00014091   -0.00021515
     atom    9 type  1   force =    -0.00000006   -0.00000161   -0.00126678
     atom   10 type  1   force =    -0.00000007   -0.05245021   -0.01074868
     atom   11 type  1   force =    -0.04542340    0.02622129   -0.01074410
     atom   12 type  1   force =     0.04542055    0.02622384   -0.01074262
     atom   13 type  2   force =     0.00000050    0.00000088   -0.00810505
     atom   14 type  3   force =     0.00000063    0.00000064    0.06105241

     Total force =     0.111327     Total SCF correction =     0.002968

     entering subroutine stress ...

     negative rho (up, down):  1.011E-03 0.000E+00
          total   stress  (Ry/bohr**3)                   (kbar)     P=   -7.58
  -0.00010394  -0.00000000  -0.00000000        -15.29     -0.00     -0.00
  -0.00000000  -0.00010394  -0.00000000         -0.00    -15.29     -0.00
  -0.00000000  -0.00000000   0.00005320         -0.00     -0.00      7.83

     BFGS Geometry Optimization

     number of scf cycles    =   1
     number of bfgs steps    =   0

     energy   new            =   -5587.0559050673 Ry

     new trust radius        =       0.0610524069 bohr
     new conv_thr            =       0.0000099958 Ry

ATOMIC_POSITIONS (crystal)
Zn1      0.166666667   0.166666667   0.406869400    0   0   0
Zn1      0.666666667   0.166666667   0.406869400    0   0   0
Zn1      0.166666667   0.666666667   0.406869400    0   0   0
Zn1      0.666666667   0.666666667   0.406869400    0   0   0
Zn1      0.833333333   0.333333333   0.500000000    0   0   0
Zn1      0.333333333   0.333333333   0.500000000    0   0   0
Zn1      0.833333333   0.833333333   0.500000000    0   0   0
Zn1      0.333333333   0.833333333   0.500000000    0   0   0
Zn1      0.000000081  -0.000000175   0.593103326
Zn1      0.502858076  -0.005716164   0.592899175
Zn1     -0.005715975   0.502857666   0.592899273
Zn1      0.502857900   0.502857945   0.592899305
O1       0.333333333   0.333333429   0.642675534
H1       0.333333358   0.333333403   0.682817129

     Writing output data file calc.save
     Check: negative starting charge=   -0.000846
     NEW-OLD atomic charge density approx. for the potential
     Check: negative starting charge=   -0.000840

[...]

     Total force =     0.083558     Total SCF correction =     0.018004
     SCF correction compared to forces is large: reduce conv_thr to get better values

[...]

     energy   old            =   -5587.0559050673 Ry
     energy   new            =   -5587.0646487439 Ry

     CASE: energy  _new < energy  _old

[...]

     WARNING: bfgs curvature condition failed, Theta= 0.927
     new trust radius        =       0.0221619601 bohr
     new conv_thr            =       0.0000001000 Ry

[...]

     WARNING: bfgs curvature condition failed, Theta= 0.857
     new trust radius        =       0.0150871712 bohr
     new conv_thr            =       0.0000001000 Ry

[...]

     Threshold (ethr) on eigenvalues was too large:
     Diagonalizing with lowered threshold

     Davidson diagonalization with overlap
     ethr =  4.39E-08,  avg # of iterations =  1.0

[...]

     Total force =     0.005087     Total SCF correction =     0.000502

[...]

     number of scf cycles    =  16
     number of bfgs steps    =  15

     energy   old            =   -5587.0804984063 Ry
     energy   new            =   -5587.0807514395 Ry

     CASE: energy  _new < energy  _old

     new trust radius        =       0.0763788042 bohr
     new conv_thr            =       0.0000001000 Ry

ATOMIC_POSITIONS (crystal)
Zn1      0.166666667   0.166666667   0.406869400    0   0   0
Zn1      0.666666667   0.166666667   0.406869400    0   0   0
Zn1      0.166666667   0.666666667   0.406869400    0   0   0
Zn1      0.666666667   0.666666667   0.406869400    0   0   0
Zn1      0.833333333   0.333333333   0.500000000    0   0   0
Zn1      0.333333333   0.333333333   0.500000000    0   0   0
Zn1      0.833333333   0.833333333   0.500000000    0   0   0
Zn1      0.333333333   0.833333333   0.500000000    0   0   0
Zn1      0.000000177  -0.000000274   0.590687280
Zn1      0.513961347  -0.027922850   0.600025865
Zn1     -0.027922226   0.513961095   0.600025855
Zn1      0.513960699   0.513961363   0.600025806
O1       0.333333225   0.333333686   0.648919372
H1       0.333333498   0.333332883   0.688684208

     Writing output data file calc.save
     Check: negative starting charge=   -0.000789
     NEW-OLD atomic charge density approx. for the potential
     Check: negative starting charge=   -0.000785

[...]

     Self-consistent Calculation

[...]

     total energy              =   -5587.08091043 Ry
     Harris-Foulkes estimate   =   -5587.08091022 Ry
     estimated scf accuracy    <       0.00000025 Ry

     iteration #  8     ecut=    36.75 Ry     beta=0.30
     Davidson diagonalization with overlap
     ethr =  1.03E-10,  avg # of iterations =  2.5

[...]

     negative rho (up, down):  1.009E-03 0.000E+00

     Adding external electric field

     Computed dipole along edir(3) :
        Dipole                0.3188 Ry au,          0.8103 Debye
        Dipole field          0.0009 Ry au

        Potential amp.       -0.0803 Ry
        Total length         45.2844 bohr

     End of self-consistent calculation

[...]

          k = 0.0595-0.0686 0.0000 ( 16986 PWs)   bands (ev):

[...]

          k =-0.0892-0.0515 0.0000 ( 17028 PWs)   bands (ev):

  -125.7747-125.7744-125.7741-125.6798-125.6091-125.6082-125.6065-125.6065
  -125.5698-125.5695-125.5692-125.5654 -79.9561 -79.9556 -79.9551 -79.9543
   -79.9518 -79.9508 -79.9499 -79.9473 -79.9429 -79.8583 -79.8579 -79.8497
   -79.8185 -79.8087 -79.8078 -79.7971 -79.7970 -79.7941 -79.7910 -79.7806
   -79.7791 -79.7734 -79.7662 -79.7652 -79.7578 -79.7574 -79.7570 -79.7523
   -79.7479 -79.7476 -79.7443 -79.7423 -79.7397 -79.7391 -79.7364 -79.7352
   -19.7922  -8.3468  -7.3417  -7.2114  -7.1340  -7.1056  -7.0769  -7.0332
    -7.0182  -7.0182  -6.9902  -6.9549  -6.9509  -6.9461  -6.9080  -6.8773
    -6.8571  -6.8542  -6.8189  -6.7855  -6.7748  -6.7331  -6.7212  -6.7108
    -6.7057  -6.6631  -6.6486  -6.6453  -6.6396  -6.5880  -6.5869  -6.5609
    -6.5591  -6.5406  -6.5366  -6.4895  -6.4765  -6.4576  -6.4530  -6.4360
    -6.4223  -6.4130  -6.4118  -6.4112  -6.3813  -6.3571  -6.3457  -6.3401
    -6.3225  -6.2983  -6.2710  -6.2629  -6.2603  -6.2483  -6.2378  -6.2338
    -6.1671  -6.1670  -6.1582  -6.1426  -6.1315  -6.1044  -6.0881  -5.6349
    -5.0169  -4.0800  -3.9663  -3.4778  -2.7902  -2.7063  -1.7893  -1.4586
    -0.8683  -0.4532   1.1904   1.6062   1.6222   2.3357   3.5766   3.6416
     3.7760   3.7987   4.1297   4.2622   4.6931

     the Fermi energy is     1.0364 ev

!    total energy              =   -5587.08090929 Ry
     Harris-Foulkes estimate   =   -5587.08091038 Ry
     estimated scf accuracy    <       0.00000005 Ry

     The total energy is the sum of the following terms:

     one-electron contribution =  -35819.42885678 Ry
     hartree contribution      =   17895.37546821 Ry
     xc contribution           =    -529.29274703 Ry
     ewald contribution        =   12866.28785367 Ry
     electric field correction =       0.00028281 Ry
     smearing contrib. (-TS)   =      -0.02291018 Ry

     convergence has been achieved in   8 iterations

 BEEF-vdW xc energy contributions
           1 :   -469.988276680307
           2 :    425.643154069056
           3 :   -351.376070143607
           4 :    268.837898375931
           5 :   -197.057529997383
           6 :    145.337923652578
           7 :   -112.103950882386
           8 :    89.2995229372694
           9 :   -68.9565244759069
          10 :    47.8184081620479
          11 :   -27.7473317260180
          12 :    12.6230007329509
          13 :   -4.54457402500083
          14 :    2.08445526363062
          15 :   -1.46723143651462
          16 :  -0.644252778452710
          17 :    5.01672094111416
          18 :   -9.84547639070900
          19 :    12.6076104496782
          20 :   -12.1767117912635
          21 :    9.61509968378596
          22 :   -7.22163277446214
          23 :    6.74001183631412
          24 :   -8.15860261660885
          25 :    9.94145392942625
          26 :   -10.3753249467066
          27 :    8.90719212568160
          28 :   -6.46664495310046
          29 :    4.62670266005597
          30 :   -4.34938652116455
          31 :   -36.5783590562946
          32 :   -24.9112626810899

     Forces acting on atoms (Ry/au):

     negative rho (up, down):  1.009E-03 0.000E+00
     atom    1 type  1   force =     0.00233929    0.00135029   -0.00867288
     atom    2 type  1   force =    -0.00233925    0.00135034   -0.00867301
     atom    3 type  1   force =     0.00000010   -0.00270102   -0.00867272
     atom    4 type  1   force =    -0.00000004    0.00000015   -0.00840938
     atom    5 type  1   force =     0.00000001    0.00201449    0.00437697
     atom    6 type  1   force =    -0.00000002    0.00000014    0.01830332
     atom    7 type  1   force =    -0.00174449   -0.00100735    0.00437684
     atom    8 type  1   force =     0.00174449   -0.00100731    0.00437681
     atom    9 type  1   force =    -0.00000011    0.00000037    0.00175639
     atom   10 type  1   force =     0.00000006    0.00011806    0.00013164
     atom   11 type  1   force =     0.00010126   -0.00005881    0.00013183
     atom   12 type  1   force =    -0.00010124   -0.00005895    0.00013162
     atom   13 type  2   force =    -0.00000011   -0.00000066    0.00035794
     atom   14 type  3   force =     0.00000004    0.00000026    0.00048463

     Total force =     0.001882     Total SCF correction =     0.000962
     SCF correction compared to forces is large: reduce conv_thr to get better values

     entering subroutine stress ...

     negative rho (up, down):  1.009E-03 0.000E+00
          total   stress  (Ry/bohr**3)                   (kbar)     P=  -14.24
  -0.00013602   0.00000000   0.00000000        -20.01      0.00      0.00
   0.00000000  -0.00013602  -0.00000000          0.00    -20.01     -0.00
   0.00000000  -0.00000000  -0.00001828          0.00     -0.00     -2.69

     bfgs converged in  17 scf cycles and  16 bfgs steps
     (criteria: energy <  1.0E+00, force <  1.9E-03)

     End of BFGS Geometry Optimization

     Final energy   =   -5587.0809092884 Ry
Begin final coordinates

ATOMIC_POSITIONS (crystal)
Zn1      0.166666667   0.166666667   0.406869400    0   0   0
Zn1      0.666666667   0.166666667   0.406869400    0   0   0
Zn1      0.166666667   0.666666667   0.406869400    0   0   0
Zn1      0.666666667   0.666666667   0.406869400    0   0   0
Zn1      0.833333333   0.333333333   0.500000000    0   0   0
Zn1      0.333333333   0.333333333   0.500000000    0   0   0
Zn1      0.833333333   0.833333333   0.500000000    0   0   0
Zn1      0.333333333   0.833333333   0.500000000    0   0   0
Zn1      0.000000177  -0.000000274   0.590687280
Zn1      0.513961347  -0.027922850   0.600025865
Zn1     -0.027922226   0.513961095   0.600025855
Zn1      0.513960699   0.513961363   0.600025806
O1       0.333333225   0.333333686   0.648919372
H1       0.333333498   0.333332883   0.688684208
End final coordinates

     Writing output data file calc.save

     General routines

     Parallel routines

   This run was terminated on:   4: 6:56  25Apr2018

   JOB DONE.
Job  /afs/slac/g/suncat/bin/suncat-tsmpirun -x LD_LIBRARY_PATH -wdir /scratch/qe303482_qpHxH pw.x -npool 4 -in pw.inp

TID   HOST_NAME   COMMAND_LINE            STATUS            TERMINATION_TIME
00000 suncat0239 pw.x -npool 4 -i  Done                     04/25/2018 04:06:56
00001 suncat0239 pw.x -npool 4 -i  Done                     04/25/2018 04:06:56
00002 suncat0239 pw.x -npool 4 -i  Done                     04/25/2018 04:06:56
00003 suncat0239 pw.x -npool 4 -i  Done                     04/25/2018 04:06:56
00004 suncat0239 pw.x -npool 4 -i  Done                     04/25/2018 04:06:56
00005 suncat0239 pw.x -npool 4 -i  Done                     04/25/2018 04:06:56
00006 suncat0239 pw.x -npool 4 -i  Done                     04/25/2018 04:06:56
00007 suncat0239 pw.x -npool 4 -i  Done                     04/25/2018 04:06:56
00008 suncat0237 pw.x -npool 4 -i  Done                     04/25/2018 04:06:56
00009 suncat0237 pw.x -npool 4 -i  Done                     04/25/2018 04:06:56
00010 suncat0237 pw.x -npool 4 -i  Done                     04/25/2018 04:06:56
00011 suncat0237 pw.x -npool 4 -i  Done                     04/25/2018 04:06:56
00012 suncat0237 pw.x -npool 4 -i  Done                     04/25/2018 04:06:56
00013 suncat0237 pw.x -npool 4 -i  Done                     04/25/2018 04:06:56
00014 suncat0237 pw.x -npool 4 -i  Done                     04/25/2018 04:06:56
00015 suncat0237 pw.x -npool 4 -i  Done                     04/25/2018 04:06:56
00016 suncat0231 pw.x -npool 4 -i  Done                     04/25/2018 04:06:56
00017 suncat0231 pw.x -npool 4 -i  Done                     04/25/2018 04:06:56
00018 suncat0231 pw.x -npool 4 -i  Done                     04/25/2018 04:06:56
00019 suncat0231 pw.x -npool 4 -i  Done                     04/25/2018 04:06:56
00020 suncat0231 pw.x -npool 4 -i  Done                     04/25/2018 04:06:56
00021 suncat0231 pw.x -npool 4 -i  Done                     04/25/2018 04:06:56
00022 suncat0231 pw.x -npool 4 -i  Done                     04/25/2018 04:06:56
00023 suncat0231 pw.x -npool 4 -i  Done                     04/25/2018 04:06:56
00024 suncat0230 pw.x -npool 4 -i  Done                     04/25/2018 04:06:56
00025 suncat0230 pw.x -npool 4 -i  Done                     04/25/2018 04:06:56
00026 suncat0230 pw.x -npool 4 -i  Done                     04/25/2018 04:06:56
00027 suncat0230 pw.x -npool 4 -i  Done                     04/25/2018 04:06:56
00028 suncat0230 pw.x -npool 4 -i  Done                     04/25/2018 04:06:56
00029 suncat0230 pw.x -npool 4 -i  Done                     04/25/2018 04:06:56
00030 suncat0230 pw.x -npool 4 -i  Done                     04/25/2018 04:06:56
00031 suncat0230 pw.x -npool 4 -i  Done                     04/25/2018 04:06:56