     Program PWSCF v.5.1rc2 (svn rev. 11289) starts on  4May2018 at 10:24:23

     Current dimensions of program PWSCF are:
     Max number of different atomic species (ntypx) = 10
     Max number of k-points (npk) =  40000
     Max angular momentum in pseudopotentials (lmaxx) =  3
     Presently stress not available with electric field

     IMPORTANT: XC functional enforced from input :
     Exchange-correlation      = BEEF-VDW ( 1  4 27 13 2)
     Any further DFT definition will be discarded
     Please, verify this is what you really want

     Subspace diagonalization in iterative solution of the eigenvalue problem:
     a serial algorithm will be used

     bravais-lattice index     =            0
     lattice parameter (alat)  =       1.8897  a.u.
     unit-cell volume          =    5174.6160 (a.u.)^3
     number of atoms/cell      =           13
     number of atomic types    =            2
     number of electrons       =       229.00
     number of Kohn-Sham states=          124
     kinetic-energy cutoff     =      36.7493  Ry
     charge density cutoff     =     367.4932  Ry
     convergence threshold     =      1.0E-05
     mixing beta               =       0.3000
     number of iterations used =           10  plain     mixing
     Exchange-correlation      = BEEF-VDW ( 1  4 27 13 2)
     nstep                     =           50

     celldm(1)=   1.889726  celldm(2)=   0.000000  celldm(3)=   0.000000
     celldm(4)=   0.000000  celldm(5)=   0.000000  celldm(6)=   0.000000

     crystal axes: (cart. coord. in units of alat)
               a(1) = (   5.966546   0.000000   0.000000 )
               a(2) = (   2.983273   5.167181   0.000000 )
               a(3) = (   0.000000   0.000000  24.871665 )

     reciprocal axes: (cart. coord. in units 2 pi/alat)
               b(1) = (  0.167601 -0.096765  0.000000 )
               b(2) = (  0.000000  0.193529  0.000000 )
               b(3) = (  0.000000  0.000000  0.040206 )

     PseudoPot. # 1 for Ag read from file:
     /u/if/mamunm/psp/gbrv1.5pbe/Ag.UPF
     MD5 check sum: d66d668201baa78d5eb5b04ef7011058
     Pseudo is Ultrasoft + core correction, Zval = 19.0
     Generated by new atomic code, or converted to UPF format
     Using radial grid of  887 points,  6 beta functions with:
                l(1) =   0
                l(2) =   0
                l(3) =   1
                l(4) =   1
                l(5) =   2
                l(6) =   2
     Q(r) pseudized with  6 coefficients,  rinner =    1.300   1.300   1.300
                                                       1.300   1.300

     PseudoPot. # 2 for H  read from file:
     /u/if/mamunm/psp/gbrv1.5pbe/H.UPF
     MD5 check sum: 761ae9a214b05c3daf00ab9f6b793d6f
     Pseudo is Ultrasoft, Zval =  1.0
     Generated by new atomic code, or converted to UPF format
     Using radial grid of  615 points,  2 beta functions with:
                l(1) =   0
                l(2) =   0
     Q(r) pseudized with  8 coefficients,  rinner =    0.700

     vdW kernel table read from file vdW_kernel_table
     MD5 check sum: 095c7af220d748ca6e76c0b4c6cfb241

     atomic species   valence    mass     pseudopotential
        Ag1           19.00   107.86820     Ag( 1.00)
        H1             1.00     1.00800     H ( 1.00)

     No symmetry found

   Cartesian axes

     site n.     atom                  positions (alat units)
         1           Ag1 tau(   1) = (   1.4916366   0.8611968  10.0000000  )
         2           Ag1 tau(   2) = (   4.4749098   0.8611968  10.0000000  )
         3           Ag1 tau(   3) = (   2.9832732   3.4447871  10.0000000  )
         4           Ag1 tau(   4) = (   5.9665464   3.4447871  10.0000000  )
         5           Ag1 tau(   5) = (   5.9665464   1.7223936  12.4358324  )
         6           Ag1 tau(   6) = (   2.9832732   1.7223936  12.4358324  )
         7           Ag1 tau(   7) = (   7.4581830   4.3059839  12.4358324  )
         8           Ag1 tau(   8) = (   4.4749098   4.3059839  12.4358324  )
         9           Ag1 tau(   9) = (   0.0000000   0.0000000  14.8716647  )
        10           Ag1 tau(  10) = (   2.9832732   0.0000000  14.8716647  )
        11           Ag1 tau(  11) = (   1.4916366   2.5835904  14.8716647  )
        12           Ag1 tau(  12) = (   4.4749098   2.5835904  14.8716647  )
        13           H1  tau(  13) = (   1.4916366   0.0000000  16.1916647  )

     number of k points=    20  Fermi-Dirac smearing, width (Ry)=  0.0110
                       cart. coord. in units 2pi/alat
        k(    1) = (   0.0000000   0.0000000   0.0000000), wk =   0.0555556
        k(    2) = (   0.0000000   0.0322549   0.0000000), wk =   0.1111111
        k(    3) = (   0.0000000   0.0645097   0.0000000), wk =   0.1111111
        k(    4) = (   0.0000000  -0.0967646   0.0000000), wk =   0.0555556
        k(    5) = (   0.0279335  -0.0161274   0.0000000), wk =   0.1111111
        k(    6) = (   0.0279335   0.0161274   0.0000000), wk =   0.1111111
        k(    7) = (   0.0279335   0.0483823   0.0000000), wk =   0.1111111
        k(    8) = (   0.0279335  -0.1128920   0.0000000), wk =   0.1111111
        k(    9) = (   0.0279335  -0.0806371   0.0000000), wk =   0.1111111
        k(   10) = (   0.0279335  -0.0483823   0.0000000), wk =   0.1111111
        k(   11) = (   0.0558670  -0.0322549   0.0000000), wk =   0.1111111
        k(   12) = (   0.0558670   0.0000000   0.0000000), wk =   0.1111111
        k(   13) = (   0.0558670   0.0322549   0.0000000), wk =   0.1111111
        k(   14) = (   0.0558670  -0.1290194   0.0000000), wk =   0.1111111
        k(   15) = (   0.0558670  -0.0967646   0.0000000), wk =   0.1111111
        k(   16) = (   0.0558670  -0.0645097   0.0000000), wk =   0.1111111
        k(   17) = (  -0.0838006   0.0483823   0.0000000), wk =   0.0555556
        k(   18) = (  -0.0838006   0.0806371   0.0000000), wk =   0.1111111
        k(   19) = (  -0.0838006   0.1128920   0.0000000), wk =   0.1111111
        k(   20) = (  -0.0838006  -0.0483823   0.0000000), wk =   0.0555556

     Largest allocated arrays     est. size (Mb)     dimensions
     Largest temporary arrays     est. size (Mb)     dimensions

     Initial potential from superposition of free atoms
     Check: negative starting charge=   -0.002280

     starting charge  222.99942, renormalised to  229.00000

     negative rho (up, down):  2.341E-03 0.000E+00

     *
     * You are using vdW-DF for exchange-correlation in this calculation.
     * Please cite the following three references that made this development
     * possible:
     *
     *   M. Dion, H. Rydberg, E. Schroder, D. C. Langreth, and
     *   B. I. Lundqvist, Phys. Rev. Lett. 92, 246401 (2004).
     *
     *   T. Thonhauser, V. R. Cooper, S. Li, A. Puzder, P. Hyldgaard, and
     *   D. C. Langreth, Phys. Rev. B 76, 125112 (2007).
     *
     *   G. Roman-Perez and J. M. Soler, Phys. Rev. Lett. 103, 096102 (2009).
     *
     *
     * If you are using vdW-DF2, please also cite:
     *
     *   K. Lee, E. D. Murray, L. Kong, B. I. Lundqvist, and
     *   D. C. Langreth, Phys. Rev. B 82, 081101(R) (2010).
     *
     *
     * If you are calculating the stress with vdW-DF, please also cite:
     *
     *   R. Sabatini, E. Kucukbenli, B. Kolb, T. Thonhauser, and
     *   S. de Gironcoli, J. Phys.: Condens. Matter 24, 424209 (2012).
     *

     Carrying out vdW-DF run using the following parameters:

     Nqs =      20    Nr_points =    1024   r_max =   100.000
     q_mesh =
               0.00001000     0.04494208     0.09755937     0.15916263
               0.23128650     0.31572767     0.41458969     0.53033537
               0.66584808     0.82450364     1.01025438     1.22772762
               1.48234092     1.78043706     2.12944203     2.53805004
               3.01644009     3.57652955     4.23227104     5.00000000

     Gradients computed in reciprocal space

     Adding external electric field

     Computed dipole along edir(3) :
        Dipole               -0.1909 Ry au,         -0.4853 Debye
        Dipole field         -0.0005 Ry au

        Potential amp.        0.0425 Ry
        Total length         45.8256 bohr

     Starting wfc are  157 randomized atomic wfcs

     Self-consistent Calculation

     iteration #  1     ecut=    36.75 Ry     beta=0.30
     Davidson diagonalization with overlap
     ethr =  1.00E-02,  avg # of iterations =  5.8

[...]

     total energy              =   -3557.74903838 Ry
     Harris-Foulkes estimate   =   -3564.28433035 Ry
     estimated scf accuracy    <      14.73188003 Ry

[...]

     End of self-consistent calculation

          k = 0.0000 0.0000 0.0000 ( 19435 PWs)   bands (ev):

   -90.9518 -90.9272 -90.9239 -90.8639 -90.8421 -90.8386 -90.7301 -90.7246
   -90.7227 -90.6792 -90.6738 -90.6643 -54.4779 -54.4694 -54.4560 -54.4467
   -54.4258 -54.4212 -54.4114 -54.4067 -54.3949 -54.3717 -54.3583 -54.3523
   -54.3510 -54.3481 -54.3419 -54.3205 -54.3089 -54.2948 -54.2731 -54.2579
   -54.2550 -54.2114 -54.2093 -54.2078 -54.2055 -54.2041 -54.2038 -54.2009
   -54.1723 -54.1636 -54.1622 -54.1604 -54.1592 -54.1566 -54.1459 -54.1445
    -5.4421  -4.8977  -4.6672  -4.6616  -4.6601  -4.6073  -4.5196  -4.5146
    -4.5044  -4.4502  -4.4218  -4.4152  -4.2964  -4.2686  -4.2480  -3.9200
    -3.6765  -3.6596  -3.5868  -3.5796  -3.5787  -3.5032  -3.4847  -3.4836
    -3.3480  -3.3311  -3.2954  -3.2826  -3.2752  -3.2303  -3.2172  -2.9720
    -2.7806  -2.7314  -2.7037  -2.6754  -2.6582  -2.6511  -2.6367  -2.6260
    -2.4720  -2.4121  -2.4103  -2.3885  -2.3784  -2.1835  -2.1719  -2.1689
    -2.1114  -2.1040  -2.0902  -2.0897  -2.0567  -2.0196  -1.9991  -1.9985
    -1.8798  -1.8455  -1.8187  -1.8182  -1.8024  -1.7986  -1.0147   0.6715
     1.6107   1.6183   1.6352   2.0890   2.3533   2.3680   2.6518   2.7956
     2.8025   3.9860   4.7158   4.7332

[...]

          k =-0.0838 0.0484 0.0000 ( 19500 PWs)   bands (ev):

[...]

     the Fermi energy is     1.0899 ev

!    total energy              =   -3560.97597920 Ry
     Harris-Foulkes estimate   =   -3560.97597646 Ry
     estimated scf accuracy    <       0.00000139 Ry

     The total energy is the sum of the following terms:

     one-electron contribution =  -25764.24969943 Ry
     hartree contribution      =   12872.21046944 Ry
     xc contribution           =    -361.67710833 Ry
     ewald contribution        =    9692.76139125 Ry
     electric field correction =       0.00003017 Ry
     smearing contrib. (-TS)   =      -0.02106231 Ry

     convergence has been achieved in  11 iterations

 BEEF-vdW xc energy contributions
           1 :   -313.422969687729
           2 :    283.760299217212
           3 :   -234.284305929171
           4 :    179.972993389423
           5 :   -134.439909478348
           6 :    104.979100680835
           7 :   -91.1973544752718
           8 :    87.2288961907516
           9 :   -85.8393676165781
          10 :    82.0776594037442
          11 :   -74.8053244837110
          12 :    65.8442249604493
          13 :   -57.8161796572704
          14 :    52.2220754492304
          15 :   -48.8125073746056
          16 :    46.2709327819411
          17 :   -43.4207473319731
          18 :    40.0115655358005
          19 :   -36.6414040381848
          20 :    34.0568835255324
          21 :   -32.4683484279843
          22 :    31.3863946798421
          23 :   -30.0330181551001
          24 :    27.9552324694001
          25 :   -25.3687662343845
          26 :    22.9945757538248
          27 :   -21.5347432863028
          28 :    21.1785529490019
          29 :   -21.4863006322996
          30 :    21.7094025872403
          31 :   -31.2339039845314
          32 :   -22.7085528417593

     Forces acting on atoms (Ry/au):

     negative rho (up, down):  2.196E-03 0.000E+00
     atom    1 type  1   force =    -0.00000049   -0.00172146    0.00092961
     atom    2 type  1   force =     0.00000029   -0.00013679   -0.00075226
     atom    3 type  1   force =     0.00130312    0.00096511    0.00049744
     atom    4 type  1   force =    -0.00130324    0.00096466    0.00049734
     atom    5 type  1   force =    -0.00005020   -0.00032313    0.00019975
     atom    6 type  1   force =     0.00005004   -0.00032320    0.00020003
     atom    7 type  1   force =     0.00000022    0.00105309    0.00671919
     atom    8 type  1   force =     0.00000006    0.00029647   -0.00618731
     atom    9 type  1   force =     0.00771883   -0.00045767    0.01336553
     atom   10 type  1   force =    -0.00771860   -0.00045806    0.01336546
     atom   11 type  1   force =    -0.00000015    0.00109822   -0.00051452
     atom   12 type  1   force =     0.00000012   -0.00093401   -0.00113621
     atom   13 type  2   force =     0.00000000   -0.00002322   -0.02718405

     Total force =     0.034921     Total SCF correction =     0.001889

     entering subroutine stress ...

     negative rho (up, down):  2.196E-03 0.000E+00
          total   stress  (Ry/bohr**3)                   (kbar)     P=   -8.01
  -0.00006741  -0.00000000  -0.00000000         -9.92     -0.00     -0.00
  -0.00000000  -0.00005547  -0.00000076         -0.00     -8.16     -0.11
  -0.00000000  -0.00000076  -0.00004045         -0.00     -0.11     -5.95

     BFGS Geometry Optimization

     number of scf cycles    =   1
     number of bfgs steps    =   0

     energy   new            =   -3560.9759792045 Ry

     new trust radius        =       0.0271840551 bohr
     new conv_thr            =       0.0000099958 Ry

ATOMIC_POSITIONS (crystal)
Ag1      0.166666667   0.166666667   0.402063960    0   0   0
Ag1      0.666666667   0.166666667   0.402063960    0   0   0
Ag1      0.166666667   0.666666667   0.402063960    0   0   0
Ag1      0.666666667   0.666666667   0.402063960    0   0   0
Ag1      0.833333333   0.333333333   0.500000000    0   0   0
Ag1      0.333333333   0.333333333   0.500000000    0   0   0
Ag1      0.833333333   0.833333333   0.500000000    0   0   0
Ag1      0.333333333   0.833333333   0.500000000    0   0   0
Ag1      0.000708024  -0.000046871   0.598220409
Ag1      0.499338887  -0.000046910   0.598220408
Ag1     -0.000056248   0.500112470   0.597925093
Ag1      0.500047837   0.499904347   0.597911866
H1       0.250001189  -0.000002378   0.650430107

     Writing output data file calc.save
     Check: negative starting charge=   -0.002280
     NEW-OLD atomic charge density approx. for the potential
     Check: negative starting charge=   -0.002281

[...]

     Threshold (ethr) on eigenvalues was too large:
     Diagonalizing with lowered threshold

     Davidson diagonalization with overlap
     ethr =  5.91E-08,  avg # of iterations =  1.0

[...]

     Total force =     0.031337     Total SCF correction =     0.009196
     SCF correction compared to forces is large: reduce conv_thr to get better values

[...]

     energy   old            =   -3560.9759792045 Ry
     energy   new            =   -3560.9771324085 Ry

     CASE: energy  _new < energy  _old

     WARNING: bfgs curvature condition failed, Theta= 0.897
     new trust radius        =       0.0299024606 bohr
     new conv_thr            =       0.0000001000 Ry

[...]

     WARNING: bfgs curvature condition failed, Theta= 0.912
     new trust radius        =       0.0160761706 bohr
     new conv_thr            =       0.0000001000 Ry

[...]

     Threshold (ethr) on eigenvalues was too large:
     Diagonalizing with lowered threshold

     Davidson diagonalization with overlap
     ethr =  3.21E-08,  avg # of iterations =  1.0

[...]

     Total force =     0.005236     Total SCF correction =     0.000133

[...]

     number of scf cycles    =  15
     number of bfgs steps    =  14

     energy   old            =   -3560.9830275437 Ry
     energy   new            =   -3560.9831759782 Ry

     CASE: energy  _new < energy  _old

     new trust radius        =       0.0185562530 bohr
     new conv_thr            =       0.0000001000 Ry

ATOMIC_POSITIONS (crystal)
Ag1      0.166666667   0.166666667   0.402063960    0   0   0
Ag1      0.666666667   0.166666667   0.402063960    0   0   0
Ag1      0.166666667   0.666666667   0.402063960    0   0   0
Ag1      0.666666667   0.666666667   0.402063960    0   0   0
Ag1      0.833333333   0.333333333   0.500000000    0   0   0
Ag1      0.333333333   0.333333333   0.500000000    0   0   0
Ag1      0.833333333   0.833333333   0.500000000    0   0   0
Ag1      0.333333333   0.833333333   0.500000000    0   0   0
Ag1     -0.005678621  -0.002279169   0.598983052
Ag1      0.507957779  -0.002279101   0.598983053
Ag1      0.000998049   0.498004018   0.597162587
Ag1      0.500362500   0.499274984   0.596588117
H1       0.249132445   0.001735220   0.639968277

     Writing output data file calc.save
     Check: negative starting charge=   -0.002329
     NEW-OLD atomic charge density approx. for the potential
     Check: negative starting charge=   -0.002333

[...]

     Self-consistent Calculation

[...]

     total energy              =   -3560.98322884 Ry
     Harris-Foulkes estimate   =   -3560.98322878 Ry
     estimated scf accuracy    <       0.00000096 Ry

     iteration #  6     ecut=    36.75 Ry     beta=0.30
     Davidson diagonalization with overlap
     ethr =  4.19E-10,  avg # of iterations =  2.0

[...]

     negative rho (up, down):  2.232E-03 0.000E+00

     Adding external electric field

     Computed dipole along edir(3) :
        Dipole               -0.0626 Ry au,         -0.1592 Debye
        Dipole field         -0.0002 Ry au

        Potential amp.        0.0139 Ry
        Total length         45.8256 bohr

     End of self-consistent calculation

[...]

          k = 0.0559-0.0645 0.0000 ( 19479 PWs)   bands (ev):

[...]

          k =-0.0838-0.0484 0.0000 ( 19500 PWs)   bands (ev):

   -90.9062 -90.8818 -90.8805 -90.8766 -90.8764 -90.8108 -90.6751 -90.6672
   -90.6668 -90.6549 -90.6334 -90.6309 -54.4270 -54.4189 -54.4090 -54.3970
   -54.3923 -54.3866 -54.3815 -54.3788 -54.3746 -54.3739 -54.3662 -54.3659
   -54.3551 -54.3347 -54.3326 -54.3105 -54.3023 -54.2973 -54.2031 -54.1836
   -54.1770 -54.1729 -54.1679 -54.1656 -54.1553 -54.1501 -54.1473 -54.1464
   -54.1458 -54.1457 -54.1393 -54.1368 -54.1309 -54.1204 -54.1161 -54.1029
    -4.9504  -4.3753  -4.3463  -4.2263  -4.1978  -4.1931  -4.1543  -4.0840
    -4.0518  -3.9752  -3.9517  -3.9362  -3.9135  -3.8678  -3.8528  -3.7602
    -3.7373  -3.5418  -3.5350  -3.5148  -3.5073  -3.4930  -3.4690  -3.4091
    -3.3849  -3.2263  -3.1993  -3.1855  -3.1339  -3.1190  -3.0833  -3.0799
    -3.0433  -2.9778  -2.8740  -2.8647  -2.8451  -2.8381  -2.8349  -2.8018
    -2.7828  -2.7427  -2.6714  -2.6494  -2.6248  -2.6066  -2.5947  -2.5725
    -2.5552  -2.5403  -2.5070  -2.4954  -2.3852  -2.3666  -2.3168  -2.2957
    -2.0782  -2.0614  -2.0501  -2.0313  -1.9171  -1.8973  -1.4535  -1.1187
     0.3919   0.8944   1.0083   1.3464   1.9674   2.1998   3.2881   3.8995
     4.1778   4.3358   5.9508   6.0735

     the Fermi energy is     1.1355 ev

!    total energy              =   -3560.98322893 Ry
     Harris-Foulkes estimate   =   -3560.98322898 Ry
     estimated scf accuracy    <       0.00000007 Ry

     The total energy is the sum of the following terms:

     one-electron contribution =  -25782.98718056 Ry
     hartree contribution      =   12881.78582653 Ry
     xc contribution           =    -361.71124725 Ry
     ewald contribution        =    9701.94989128 Ry
     electric field correction =       0.00000953 Ry
     smearing contrib. (-TS)   =      -0.02052846 Ry

     convergence has been achieved in   6 iterations

 BEEF-vdW xc energy contributions
           1 :   -313.463290600651
           2 :    283.824408819652
           3 :   -234.368096499495
           4 :    180.043693315985
           5 :   -134.459483357303
           6 :    104.931487304174
           7 :   -91.1017091485286
           8 :    87.1298541362029
           9 :   -85.7806876819747
          10 :    82.0772067605447
          11 :   -74.8473275673664
          12 :    65.8925433501827
          13 :   -57.8391123624469
          14 :    52.2119194247462
          15 :   -48.7873473208703
          16 :    46.2590522994849
          17 :   -43.4397878638655
          18 :    40.0569064792189
          19 :   -36.6902296608729
          20 :    34.0834106184570
          21 :   -32.4597975403445
          22 :    31.3502397708720
          23 :   -29.9920160544655
          24 :    27.9338892390100
          25 :   -25.3796415413523
          26 :    23.0325702502992
          27 :   -21.5819001747547
          28 :    21.2150766672291
          29 :   -21.5000618663426
          30 :    21.6982349782032
          31 :   -31.2374510792252
          32 :   -22.7161147991544

     Forces acting on atoms (Ry/au):

     negative rho (up, down):  2.232E-03 0.000E+00
     atom    1 type  1   force =     0.00000000   -0.00150530    0.00144476
     atom    2 type  1   force =    -0.00000000   -0.00018205   -0.00071633
     atom    3 type  1   force =     0.00104175    0.00085270    0.00036156
     atom    4 type  1   force =    -0.00104175    0.00085270    0.00036156
     atom    5 type  1   force =    -0.00004403   -0.00091557   -0.00120561
     atom    6 type  1   force =     0.00004403   -0.00091557   -0.00120563
     atom    7 type  1   force =    -0.00000000    0.00074722    0.00565576
     atom    8 type  1   force =     0.00000000    0.00136320   -0.00536363
     atom    9 type  1   force =     0.00152668   -0.00025672   -0.00017263
     atom   10 type  1   force =    -0.00152664   -0.00025680   -0.00017266
     atom   11 type  1   force =    -0.00000005   -0.00031401    0.00054606
     atom   12 type  1   force =     0.00000004   -0.00012570    0.00062596
     atom   13 type  2   force =    -0.00000004    0.00065590   -0.00015918

     Total force =     0.002472     Total SCF correction =     0.001485
     SCF correction compared to forces is large: reduce conv_thr to get better values

     entering subroutine stress ...

     negative rho (up, down):  2.232E-03 0.000E+00
          total   stress  (Ry/bohr**3)                   (kbar)     P=   -6.28
  -0.00005169   0.00000000  -0.00000000         -7.60      0.00     -0.00
   0.00000000  -0.00005479  -0.00000016          0.00     -8.06     -0.02
  -0.00000000  -0.00000016  -0.00002157         -0.00     -0.02     -3.17

     bfgs converged in  16 scf cycles and  15 bfgs steps
     (criteria: energy <  1.0E+00, force <  1.9E-03)

     End of BFGS Geometry Optimization

     Final energy   =   -3560.9832289344 Ry
Begin final coordinates

ATOMIC_POSITIONS (crystal)
Ag1      0.166666667   0.166666667   0.402063960    0   0   0
Ag1      0.666666667   0.166666667   0.402063960    0   0   0
Ag1      0.166666667   0.666666667   0.402063960    0   0   0
Ag1      0.666666667   0.666666667   0.402063960    0   0   0
Ag1      0.833333333   0.333333333   0.500000000    0   0   0
Ag1      0.333333333   0.333333333   0.500000000    0   0   0
Ag1      0.833333333   0.833333333   0.500000000    0   0   0
Ag1      0.333333333   0.833333333   0.500000000    0   0   0
Ag1     -0.005678621  -0.002279169   0.598983052
Ag1      0.507957779  -0.002279101   0.598983053
Ag1      0.000998049   0.498004018   0.597162587
Ag1      0.500362500   0.499274984   0.596588117
H1       0.249132445   0.001735220   0.639968277
End final coordinates

     Writing output data file calc.save

     General routines

     Parallel routines

   This run was terminated on:  11:48:21   4May2018

   JOB DONE.
Job  /afs/slac/g/suncat/bin/suncat-tsmpirun -x LD_LIBRARY_PATH -wdir /scratch/qe934164_lomd5 pw.x -npool 4 -in pw.inp

TID   HOST_NAME   COMMAND_LINE            STATUS            TERMINATION_TIME
00000 suncat0020 pw.x -npool 4 -i  Done                     05/04/2018 11:48:21
00001 suncat0020 pw.x -npool 4 -i  Done                     05/04/2018 11:48:21
00002 suncat0020 pw.x -npool 4 -i  Done                     05/04/2018 11:48:21
00003 suncat0020 pw.x -npool 4 -i  Done                     05/04/2018 11:48:21
00004 suncat0020 pw.x -npool 4 -i  Done                     05/04/2018 11:48:21
00005 suncat0020 pw.x -npool 4 -i  Done                     05/04/2018 11:48:21
00006 suncat0020 pw.x -npool 4 -i  Done                     05/04/2018 11:48:21
00007 suncat0020 pw.x -npool 4 -i  Done                     05/04/2018 11:48:21
00008 suncat0012 pw.x -npool 4 -i  Done                     05/04/2018 11:48:21
00009 suncat0012 pw.x -npool 4 -i  Done                     05/04/2018 11:48:21
00010 suncat0012 pw.x -npool 4 -i  Done                     05/04/2018 11:48:21
00011 suncat0012 pw.x -npool 4 -i  Done                     05/04/2018 11:48:21
00012 suncat0012 pw.x -npool 4 -i  Done                     05/04/2018 11:48:21
00013 suncat0012 pw.x -npool 4 -i  Done                     05/04/2018 11:48:21
00014 suncat0012 pw.x -npool 4 -i  Done                     05/04/2018 11:48:21
00015 suncat0012 pw.x -npool 4 -i  Done                     05/04/2018 11:48:21
00016 suncat0186 pw.x -npool 4 -i  Done                     05/04/2018 11:48:21
00017 suncat0186 pw.x -npool 4 -i  Done                     05/04/2018 11:48:21
00018 suncat0186 pw.x -npool 4 -i  Done                     05/04/2018 11:48:21
00019 suncat0186 pw.x -npool 4 -i  Done                     05/04/2018 11:48:21
00020 suncat0186 pw.x -npool 4 -i  Done                     05/04/2018 11:48:21
00021 suncat0186 pw.x -npool 4 -i  Done                     05/04/2018 11:48:21
00022 suncat0186 pw.x -npool 4 -i  Done                     05/04/2018 11:48:21
00023 suncat0186 pw.x -npool 4 -i  Done                     05/04/2018 11:48:21
00024 suncat0164 pw.x -npool 4 -i  Done                     05/04/2018 11:48:21
00025 suncat0164 pw.x -npool 4 -i  Done                     05/04/2018 11:48:21
00026 suncat0164 pw.x -npool 4 -i  Done                     05/04/2018 11:48:21
00027 suncat0164 pw.x -npool 4 -i  Done                     05/04/2018 11:48:21
00028 suncat0164 pw.x -npool 4 -i  Done                     05/04/2018 11:48:21
00029 suncat0164 pw.x -npool 4 -i  Done                     05/04/2018 11:48:21
00030 suncat0164 pw.x -npool 4 -i  Done                     05/04/2018 11:48:21
00031 suncat0164 pw.x -npool 4 -i  Done                     05/04/2018 11:48:21