     Program PWSCF v.6.1 starts on  7Jan2019 at 19:57:48

     Current dimensions of program PWSCF are:
     Max number of different atomic species (ntypx) = 10
     Max number of k-points (npk) =  40000
     Max angular momentum in pseudopotentials (lmaxx) =  3

     IMPORTANT: XC functional enforced from input :
     Exchange-correlation      = BEEF-VDW ( 1  4 29 14 2 0)
     Any further DFT definition will be discarded
     Please, verify this is what you really want

     bravais-lattice index     =            0
     lattice parameter (alat)  =      13.1573  a.u.
     unit-cell volume          =    7276.7661 (a.u.)^3
     number of atoms/cell      =           13
     number of atomic types    =            2
     number of electrons       =       186.00
     number of Kohn-Sham states=          103
     kinetic-energy cutoff     =      36.7493  Ry
     charge density cutoff     =     367.4933  Ry
     convergence threshold     =      1.0E-04
     mixing beta               =       0.2000
     number of iterations used =            8  plain     mixing
     Exchange-correlation      = BEEF-VDW ( 1  4 29 14 2 0)
     nstep                     =           50

     celldm(1)=  13.157267  celldm(2)=   0.000000  celldm(3)=   0.000000
     celldm(4)=   0.000000  celldm(5)=   0.000000  celldm(6)=   0.000000

     crystal axes: (cart. coord. in units of alat)
               a(1) = (   1.000000   0.000000   0.000000 )
               a(2) = (   0.500000   0.866025   0.000000 )
               a(3) = (   0.000000   0.000000   3.689017 )

     reciprocal axes: (cart. coord. in units 2 pi/alat)
               b(1) = (  1.000000 -0.577350  0.000000 )
               b(2) = (  0.000000  1.154701  0.000000 )
               b(3) = (  0.000000  0.000000  0.271075 )

     PseudoPot. # 1 for Bi read from file:
     /home/users/jrboes/code/decaf-espresso/gbrv15pbe/Bi.UPF
     MD5 check sum: 81103212dc04adf40945787f699eab19
     Pseudo is Ultrasoft + core correction, Zval = 15.0
     Generated by new atomic code, or converted to UPF format
     Using radial grid of  899 points,  6 beta functions with:
                l(1) =   0
                l(2) =   0
                l(3) =   1
                l(4) =   1
                l(5) =   2
                l(6) =   2
     Q(r) pseudized with  6 coefficients,  rinner =    1.000   1.000   1.000
                                                       1.000   1.000

     PseudoPot. # 2 for O  read from file:
     /home/users/jrboes/code/decaf-espresso/gbrv15pbe/O.UPF
     MD5 check sum: 734c27235a0248c51dbae37a1fbe46ec
     Pseudo is Ultrasoft + core correction, Zval =  6.0
     Generated by new atomic code, or converted to UPF format
     Using radial grid of  737 points,  5 beta functions with:
                l(1) =   0
                l(2) =   0
                l(3) =   1
                l(4) =   1
                l(5) =   2
     Q(r) pseudized with  8 coefficients,  rinner =    0.900   0.900   0.900
                                                       0.900   0.900

     vdW kernel table read from file vdW_kernel_table
     MD5 check sum: 095c7af220d748ca6e76c0b4c6cfb241

     atomic species   valence    mass     pseudopotential
        Bi            15.00   208.98040     Bi( 1.00)
        O              6.00    15.99900     O ( 1.00)

     No symmetry found

   Cartesian axes

     site n.     atom                  positions (alat units)
         1           Bi  tau(   1) = (   0.2500000   0.1443376   1.4362603  )
         2           Bi  tau(   2) = (   0.7500000   0.1443376   1.4362603  )
         3           Bi  tau(   3) = (   0.5000000   0.5773503   1.4362603  )
         4           Bi  tau(   4) = (   1.0000000   0.5773503   1.4362603  )
         5           Bi  tau(   5) = (   1.0000000   0.2886751   1.8445086  )
         6           Bi  tau(   6) = (   0.5000000   0.2886751   1.8445086  )
         7           Bi  tau(   7) = (   1.2500000   0.7216878   1.8445086  )
         8           Bi  tau(   8) = (   0.7500000   0.7216878   1.8445086  )
         9           Bi  tau(   9) = (  -0.0094561  -0.0054587   2.2779847  )
        10           Bi  tau(  10) = (   0.5094680  -0.0054607   2.2779944  )
        11           Bi  tau(  11) = (   0.2500037   0.4439433   2.2779969  )
        12           Bi  tau(  12) = (   0.7499947   0.4330072   2.2683456  )
        13           O   tau(  13) = (   0.2500000   0.1443373   2.4175464  )

     number of k points=    20  Fermi-Dirac smearing, width (Ry)=  0.0110
                       cart. coord. in units 2pi/alat
        k(    1) = (   0.0000000   0.0000000   0.0000000), wk =   0.0555556
        k(    2) = (   0.0000000   0.1924501   0.0000000), wk =   0.1111111
        k(    3) = (   0.0000000   0.3849002   0.0000000), wk =   0.1111111
        k(    4) = (   0.0000000  -0.5773503   0.0000000), wk =   0.0555556
        k(    5) = (   0.1666667  -0.0962250   0.0000000), wk =   0.1111111
        k(    6) = (   0.1666667   0.0962250   0.0000000), wk =   0.1111111
        k(    7) = (   0.1666667   0.2886751   0.0000000), wk =   0.1111111
        k(    8) = (   0.1666667  -0.6735753   0.0000000), wk =   0.1111111
        k(    9) = (   0.1666667  -0.4811252   0.0000000), wk =   0.1111111
        k(   10) = (   0.1666667  -0.2886751   0.0000000), wk =   0.1111111
        k(   11) = (   0.3333333  -0.1924501   0.0000000), wk =   0.1111111
        k(   12) = (   0.3333333   0.0000000   0.0000000), wk =   0.1111111
        k(   13) = (   0.3333333   0.1924501   0.0000000), wk =   0.1111111
        k(   14) = (   0.3333333  -0.7698004   0.0000000), wk =   0.1111111
        k(   15) = (   0.3333333  -0.5773503   0.0000000), wk =   0.1111111
        k(   16) = (   0.3333333  -0.3849002   0.0000000), wk =   0.1111111
        k(   17) = (  -0.5000000   0.2886751   0.0000000), wk =   0.0555556
        k(   18) = (  -0.5000000   0.4811252   0.0000000), wk =   0.1111111
        k(   19) = (  -0.5000000   0.6735753   0.0000000), wk =   0.1111111
        k(   20) = (  -0.5000000  -0.2886751   0.0000000), wk =   0.0555556

     Check: negative/imaginary core charge=   -0.000001    0.000000

     Initial potential from superposition of free atoms
     Check: negative starting charge=   -0.505654

     starting charge  173.99950, renormalised to  186.00000

     negative rho (up, down):  5.405E-01 0.000E+00

     %%%%%%%%%%%%%%%%%%%%%%%%%%%%%%%%%%%%%%%%%%%%%%%%%%%%%%%%%%%%%%%%%%%%%%%%
     %                                                                      %
     % You are using vdW-DF, which was implemented by the Thonhauser group. %
     % Please cite the following two papers that made this development      %
     % possible and the two reviews that describe the various versions:     %
     %                                                                      %
     %   T. Thonhauser et al., PRL 115, 136402 (2015).                      %
     %   T. Thonhauser et al., PRB 76, 125112 (2007).                       %
     %   K. Berland et al., Rep. Prog. Phys. 78, 066501 (2015).             %
     %   D.C. Langreth et al., J. Phys.: Condens. Matter 21, 084203 (2009). %
     %                                                                      %
     %                                                                      %
     % If you are calculating the stress with vdW-DF, please also cite:     %
     %                                                                      %
     %   R. Sabatini et al., J. Phys.: Condens. Matter 24, 424209 (2012).   %
     %                                                                      %
     %%%%%%%%%%%%%%%%%%%%%%%%%%%%%%%%%%%%%%%%%%%%%%%%%%%%%%%%%%%%%%%%%%%%%%%%

     Adding external electric field

     Computed dipole along edir(3) :
        Dipole               -3.0785 Ry au,         -7.8249 Debye
        Dipole field         -0.0053 Ry au,

        Potential amp.        0.4645 Ry
        Total length         43.6836 bohr

     Starting wfc are  112 randomized atomic wfcs

     Self-consistent Calculation

     iteration #  1     ecut=    36.75 Ry     beta=0.20
     Davidson diagonalization with overlap
     ethr =  1.00E-02,  avg # of iterations =  8.1

[...]

     total energy              =   -2253.80170906 Ry
     Harris-Foulkes estimate   =   -2282.58784930 Ry
     estimated scf accuracy    <      84.41110365 Ry

[...]

     End of self-consistent calculation

          k = 0.0000 0.0000 0.0000 ( 27441 PWs)   bands (ev):

   -22.5123 -22.4980 -22.4980 -22.4887 -22.4492 -22.4451 -22.4451 -22.4410
   -22.4295 -22.4295 -22.3937 -22.3867 -22.3867 -22.3763 -22.3763 -22.3672
   -22.3672 -22.3528 -22.3229 -22.3229 -22.3226 -22.3123 -22.2891 -22.2890
   -22.2875 -22.2875 -22.2844 -22.2791 -22.2791 -22.2699 -22.2699 -22.2642
   -22.2603 -22.2566 -22.2566 -22.2291 -22.2291 -22.2275 -22.2254 -22.2254
   -22.1940 -22.1940 -22.1921 -22.1786 -22.1475 -22.1475 -22.1420 -22.1301
   -22.1300 -22.1195 -22.1072 -22.1072 -22.0896 -22.0896 -22.0861 -22.0777
   -22.0777 -22.0736 -22.0736 -22.0620 -16.9656 -12.1543 -11.0076 -10.1072
    -9.4476  -9.4476  -9.4038  -9.1118  -9.1117  -8.8533  -8.6401  -8.6401
    -8.4470  -3.8865  -3.8865  -3.7111  -3.2539  -3.0883  -3.0882  -2.8172
    -2.8172  -2.7757  -2.7532  -1.6987  -1.6986  -0.4783  -0.1671   0.8425
     0.8425   0.9152   1.2945   1.3289   1.3289   2.1385   2.2343   2.2344
     2.4248   2.8572   2.8573   3.1870   3.3062   3.6813   3.6813

[...]

          k =-0.5000 0.2887 0.0000 ( 27378 PWs)   bands (ev):

[...]

     the Fermi energy is     1.2660 ev

!    total energy              =   -2278.34246284 Ry
     Harris-Foulkes estimate   =   -2278.34247485 Ry
     estimated scf accuracy    <       0.00005093 Ry

     The total energy is the sum of the following terms:

     one-electron contribution =  -10885.69753795 Ry
     hartree contribution      =    5499.57246223 Ry
     xc contribution           =    -806.48988527 Ry
     ewald contribution        =    3914.33167832 Ry
     electric field correction =       0.00008211 Ry
     smearing contrib. (-TS)   =      -0.05926228 Ry

     convergence has been achieved in  13 iterations

[...]

     Forces acting on atoms (cartesian axes, Ry/au):

     atom    1 type  1   force =     0.00001105    0.00001981   -0.00375493
     atom    2 type  1   force =     0.00000018    0.00270931   -0.00995917
     atom    3 type  1   force =     0.00238916   -0.00135992   -0.00997363
     atom    4 type  1   force =    -0.00238369   -0.00136725   -0.00997228
     atom    5 type  1   force =     0.00338644   -0.00196030    0.00727942
     atom    6 type  1   force =    -0.00338898   -0.00197045    0.00725159
     atom    7 type  1   force =    -0.00000840    0.00000545    0.00972543
     atom    8 type  1   force =     0.00000110    0.00392391    0.00727032
     atom    9 type  1   force =    -0.00077685   -0.00045166   -0.00100338
     atom   10 type  1   force =     0.00077285   -0.00045262   -0.00100950
     atom   11 type  1   force =    -0.00000045    0.00090540   -0.00100217
     atom   12 type  1   force =    -0.00000204   -0.00000484    0.00036440
     atom   13 type  2   force =    -0.00000037    0.00000314    0.00478389

     Total force =     0.005336     Total SCF correction =     0.014478
     SCF correction compared to forces is large: reduce conv_thr to get better values

     BFGS Geometry Optimization

     number of scf cycles    =   1
     number of bfgs steps    =   0

     energy   new            =   -2278.3424628398 Ry

     new trust radius        =       0.0047838926 bohr
     new conv_thr            =       0.0001000000 Ry

ATOMIC_POSITIONS (angstrom)
Bi       1.740631498   1.004954064  10.000000000    0   0   0
Bi       5.221894494   1.004954064  10.000000000    0   0   0
Bi       3.481262996   4.019816256  10.000000000    0   0   0
Bi       6.962525992   4.019816256  10.000000000    0   0   0
Bi       6.962525992   2.009908128  12.842439334    0   0   0
Bi       3.481262996   2.009908128  12.842439334    0   0   0
Bi       8.703157491   5.024770320  12.842439334    0   0   0
Bi       5.221894494   5.024770320  12.842439334    0   0   0
Bi      -0.066249181  -0.038245138  15.859996526
Bi       3.547593384  -0.038259992  15.860060735
Bi       1.740657313   3.091445634  15.860082464
Bi       5.221856659   3.014821369  15.793608152
O        1.740631621   1.004953610  16.834761103

     Writing output data file calc.save
     Check: negative starting charge=   -0.505654
     NEW-OLD atomic charge density approx. for the potential

     Check: negative/imaginary core charge=   -0.000001    0.000000
     Check: negative starting charge=   -0.505612

[...]

     Self-consistent Calculation

[...]

     total energy              =   -2278.34051594 Ry
     Harris-Foulkes estimate   =   -2278.34440618 Ry
     estimated scf accuracy    <       0.08002756 Ry

     iteration #  3     ecut=    36.75 Ry     beta=0.20
     Davidson diagonalization with overlap
     ethr =  9.16E-07,  avg # of iterations =  4.2

[...]

     Adding external electric field

     Computed dipole along edir(3) :
        Dipole               -0.1894 Ry au,         -0.4814 Debye
        Dipole field         -0.0003 Ry au,

        Potential amp.        0.0286 Ry
        Total length         43.6836 bohr

     End of self-consistent calculation

[...]

          k = 0.3333-0.3849 0.0000 ( 27352 PWs)   bands (ev):

[...]

          k =-0.5000-0.2887 0.0000 ( 27378 PWs)   bands (ev):

   -22.4458 -22.4138 -22.4036 -22.3992 -22.3893 -22.3816 -22.3711 -22.3710
   -22.3696 -22.3690 -22.3668 -22.3648 -22.3643 -22.3513 -22.3403 -22.3187
   -22.3048 -22.3037 -22.2917 -22.2893 -22.2820 -22.2790 -22.2736 -22.2672
   -22.2554 -22.2419 -22.2414 -22.2368 -22.2358 -22.2299 -22.2261 -22.2242
   -22.2183 -22.2112 -22.2074 -22.2029 -22.1749 -22.1650 -22.1584 -22.1446
   -22.1382 -22.1330 -22.1298 -22.1216 -22.1196 -22.1188 -22.1184 -22.1153
   -22.1140 -22.1099 -22.1090 -22.0995 -22.0909 -22.0648 -22.0634 -22.0562
   -22.0539 -22.0392 -22.0369 -22.0255 -16.9049 -11.2362 -11.1414 -10.4497
   -10.0063  -9.6293  -9.5916  -9.4517  -9.2319  -9.1211  -8.7235  -8.5486
    -8.3800  -3.5753  -2.8225  -2.4279  -2.2227  -2.1008  -2.0416  -1.9134
    -1.8342  -1.8185  -1.4558  -0.7142  -0.7045  -0.5720  -0.4467  -0.1389
     0.3739   0.5757   0.6035   0.7129   0.7978   0.9181   0.9843   1.2470
     1.4769   1.6062   1.8190   2.2373   2.4518   2.9023   3.2716

     the Fermi energy is     1.3070 ev

!    total energy              =   -2278.34246230 Ry
     Harris-Foulkes estimate   =   -2278.34248614 Ry
     estimated scf accuracy    <       0.00001216 Ry

     The total energy is the sum of the following terms:

     one-electron contribution =  -10885.53804777 Ry
     hartree contribution      =    5499.42841540 Ry
     xc contribution           =    -806.48645314 Ry
     ewald contribution        =    3914.31277826 Ry
     electric field correction =       0.00006194 Ry
     smearing contrib. (-TS)   =      -0.05921698 Ry

     convergence has been achieved in   3 iterations

     negative rho (up, down):  5.283E-01 0.000E+00

     Forces acting on atoms (cartesian axes, Ry/au):

     atom    1 type  1   force =     0.00000276   -0.00000072   -0.00201835
     atom    2 type  1   force =    -0.00000348    0.00251355   -0.00728495
     atom    3 type  1   force =     0.00216027   -0.00126113   -0.00727975
     atom    4 type  1   force =    -0.00216765   -0.00125553   -0.00727049
     atom    5 type  1   force =     0.00278078   -0.00159537    0.00681131
     atom    6 type  1   force =    -0.00278105   -0.00159549    0.00682217
     atom    7 type  1   force =    -0.00000043   -0.00000557    0.00617667
     atom    8 type  1   force =     0.00000073    0.00320306    0.00680564
     atom    9 type  1   force =    -0.00034801   -0.00019985   -0.00035975
     atom   10 type  1   force =     0.00034642   -0.00020069   -0.00034992
     atom   11 type  1   force =     0.00000143    0.00039129   -0.00036223
     atom   12 type  1   force =     0.00000652    0.00000673    0.00007329
     atom   13 type  2   force =     0.00000172   -0.00000026   -0.00176364

     Total force =     0.001993     Total SCF correction =     0.005114
     SCF correction compared to forces is large: reduce conv_thr to get better values

     bfgs converged in   2 scf cycles and   1 bfgs steps
     (criteria: energy <  1.0E+12 Ry, force <  1.9E-03 Ry/Bohr)

     End of BFGS Geometry Optimization

     Final energy   =   -2278.3424623020 Ry
Begin final coordinates

ATOMIC_POSITIONS (angstrom)
Bi       1.740631498   1.004954064  10.000000000    0   0   0
Bi       5.221894494   1.004954064  10.000000000    0   0   0
Bi       3.481262996   4.019816256  10.000000000    0   0   0
Bi       6.962525992   4.019816256  10.000000000    0   0   0
Bi       6.962525992   2.009908128  12.842439334    0   0   0
Bi       3.481262996   2.009908128  12.842439334    0   0   0
Bi       8.703157491   5.024770320  12.842439334    0   0   0
Bi       5.221894494   5.024770320  12.842439334    0   0   0
Bi      -0.066249181  -0.038245138  15.859996526
Bi       3.547593384  -0.038259992  15.860060735
Bi       1.740657313   3.091445634  15.860082464
Bi       5.221856659   3.014821369  15.793608152
O        1.740631621   1.004953610  16.834761103
End final coordinates

     Writing output data file calc.save

     General routines

     Parallel routines

   This run was terminated on:  20: 3:24   7Jan2019

   JOB DONE.