     Program PWSCF v.5.1rc2 (svn rev. 11289) starts on 16Jan2018 at 10:40:21

     Current dimensions of program PWSCF are:
     Max number of different atomic species (ntypx) = 10
     Max number of k-points (npk) =  40000
     Max angular momentum in pseudopotentials (lmaxx) =  3
     Presently stress not available with electric field

     IMPORTANT: XC functional enforced from input :
     Exchange-correlation      = BEEF-VDW ( 1  4 27 13 2)
     Any further DFT definition will be discarded
     Please, verify this is what you really want

     Subspace diagonalization in iterative solution of the eigenvalue problem:
     a serial algorithm will be used

     bravais-lattice index     =            0
     lattice parameter (alat)  =       1.8897  a.u.
     unit-cell volume          =    6501.5726 (a.u.)^3
     number of atoms/cell      =           13
     number of atomic types    =            2
     number of electrons       =       157.00
     number of Kohn-Sham states=           88
     kinetic-energy cutoff     =      36.7493  Ry
     charge density cutoff     =     367.4932  Ry
     convergence threshold     =      1.0E-05
     mixing beta               =       0.3000
     number of iterations used =           10  plain     mixing
     Exchange-correlation      = BEEF-VDW ( 1  4 27 13 2)
     nstep                     =           50

     celldm(1)=   1.889726  celldm(2)=   0.000000  celldm(3)=   0.000000
     celldm(4)=   0.000000  celldm(5)=   0.000000  celldm(6)=   0.000000

     crystal axes: (cart. coord. in units of alat)
               a(1) = (   6.617606   0.000000   0.000000 )
               a(2) = (   3.308803   5.731015   0.000000 )
               a(3) = (   0.000000   0.000000  25.403253 )

     reciprocal axes: (cart. coord. in units 2 pi/alat)
               b(1) = (  0.151112 -0.087245  0.000000 )
               b(2) = (  0.000000  0.174489  0.000000 )
               b(3) = (  0.000000  0.000000  0.039365 )

     PseudoPot. # 1 for In read from file:
     /afs/slac.stanford.edu/u/if/mamunm/psp/gbrv1.5pbe/In.UPF
     MD5 check sum: 90777abd96fbb83f2e67db2a40c566b9
     Pseudo is Ultrasoft + core correction, Zval = 13.0
     Generated by new atomic code, or converted to UPF format
     Using radial grid of  889 points,  6 beta functions with:
                l(1) =   0
                l(2) =   0
                l(3) =   1
                l(4) =   1
                l(5) =   2
                l(6) =   2
     Q(r) pseudized with  6 coefficients,  rinner =    1.400   1.400   1.400
                                                       1.400   1.400

     PseudoPot. # 2 for H  read from file:
     /afs/slac.stanford.edu/u/if/mamunm/psp/gbrv1.5pbe/H.UPF
     MD5 check sum: 761ae9a214b05c3daf00ab9f6b793d6f
     Pseudo is Ultrasoft, Zval =  1.0
     Generated by new atomic code, or converted to UPF format
     Using radial grid of  615 points,  2 beta functions with:
                l(1) =   0
                l(2) =   0
     Q(r) pseudized with  8 coefficients,  rinner =    0.700

     vdW kernel table read from file vdW_kernel_table
     MD5 check sum: 095c7af220d748ca6e76c0b4c6cfb241

     atomic species   valence    mass     pseudopotential
        In1           13.00   114.81800     In( 1.00)
        H1             1.00     1.00800     H ( 1.00)

     No symmetry found

   Cartesian axes

     site n.     atom                  positions (alat units)
         1           In1 tau(   1) = (   1.6544016   0.9551692  10.0000000  )
         2           In1 tau(   2) = (   4.9632047   0.9551692  10.0000000  )
         3           In1 tau(   3) = (   3.3088031   3.8206768  10.0000000  )
         4           In1 tau(   4) = (   6.6176063   3.8206768  10.0000000  )
         5           In1 tau(   5) = (   6.6176063   1.9103384  12.7016265  )
         6           In1 tau(   6) = (   3.3088031   1.9103384  12.7016265  )
         7           In1 tau(   7) = (   8.2720078   4.7758460  12.7016265  )
         8           In1 tau(   8) = (   4.9632047   4.7758460  12.7016265  )
         9           In1 tau(   9) = (   0.0000000   0.0000000  15.4032529  )
        10           In1 tau(  10) = (   3.3088031   0.0000000  15.4032529  )
        11           In1 tau(  11) = (   1.6544016   2.8655076  15.4032529  )
        12           In1 tau(  12) = (   4.9632047   2.8655076  15.4032529  )
        13           H1  tau(  13) = (   3.3088031   1.9103384  17.1332529  )

     number of k points=    20  Fermi-Dirac smearing, width (Ry)=  0.0110
                       cart. coord. in units 2pi/alat
        k(    1) = (   0.0000000   0.0000000   0.0000000), wk =   0.0555556
        k(    2) = (   0.0000000   0.0290815   0.0000000), wk =   0.1111111
        k(    3) = (   0.0000000   0.0581631   0.0000000), wk =   0.1111111
        k(    4) = (   0.0000000  -0.0872446   0.0000000), wk =   0.0555556
        k(    5) = (   0.0251853  -0.0145408   0.0000000), wk =   0.1111111
        k(    6) = (   0.0251853   0.0145408   0.0000000), wk =   0.1111111
        k(    7) = (   0.0251853   0.0436223   0.0000000), wk =   0.1111111
        k(    8) = (   0.0251853  -0.1017853   0.0000000), wk =   0.1111111
        k(    9) = (   0.0251853  -0.0727038   0.0000000), wk =   0.1111111
        k(   10) = (   0.0251853  -0.0436223   0.0000000), wk =   0.1111111
        k(   11) = (   0.0503707  -0.0290815   0.0000000), wk =   0.1111111
        k(   12) = (   0.0503707   0.0000000   0.0000000), wk =   0.1111111
        k(   13) = (   0.0503707   0.0290815   0.0000000), wk =   0.1111111
        k(   14) = (   0.0503707  -0.1163261   0.0000000), wk =   0.1111111
        k(   15) = (   0.0503707  -0.0872446   0.0000000), wk =   0.1111111
        k(   16) = (   0.0503707  -0.0581631   0.0000000), wk =   0.1111111
        k(   17) = (  -0.0755560   0.0436223   0.0000000), wk =   0.0555556
        k(   18) = (  -0.0755560   0.0727038   0.0000000), wk =   0.1111111
        k(   19) = (  -0.0755560   0.1017853   0.0000000), wk =   0.1111111
        k(   20) = (  -0.0755560  -0.0436223   0.0000000), wk =   0.0555556

     Largest allocated arrays     est. size (Mb)     dimensions
     Largest temporary arrays     est. size (Mb)     dimensions

     Initial potential from superposition of free atoms
     Check: negative starting charge=   -0.000173

     starting charge  138.99999, renormalised to  157.00000

     negative rho (up, down):  1.957E-04 0.000E+00

     *
     * You are using vdW-DF for exchange-correlation in this calculation.
     * Please cite the following three references that made this development
     * possible:
     *
     *   M. Dion, H. Rydberg, E. Schroder, D. C. Langreth, and
     *   B. I. Lundqvist, Phys. Rev. Lett. 92, 246401 (2004).
     *
     *   T. Thonhauser, V. R. Cooper, S. Li, A. Puzder, P. Hyldgaard, and
     *   D. C. Langreth, Phys. Rev. B 76, 125112 (2007).
     *
     *   G. Roman-Perez and J. M. Soler, Phys. Rev. Lett. 103, 096102 (2009).
     *
     *
     * If you are using vdW-DF2, please also cite:
     *
     *   K. Lee, E. D. Murray, L. Kong, B. I. Lundqvist, and
     *   D. C. Langreth, Phys. Rev. B 82, 081101(R) (2010).
     *
     *
     * If you are calculating the stress with vdW-DF, please also cite:
     *
     *   R. Sabatini, E. Kucukbenli, B. Kolb, T. Thonhauser, and
     *   S. de Gironcoli, J. Phys.: Condens. Matter 24, 424209 (2012).
     *

     Carrying out vdW-DF run using the following parameters:

     Nqs =      20    Nr_points =    1024   r_max =   100.000
     q_mesh =
               0.00001000     0.04494208     0.09755937     0.15916263
               0.23128650     0.31572767     0.41458969     0.53033537
               0.66584808     0.82450364     1.01025438     1.22772762
               1.48234092     1.78043706     2.12944203     2.53805004
               3.01644009     3.57652955     4.23227104     5.00000000

     Gradients computed in reciprocal space

     Adding external electric field

     Computed dipole along edir(3) :
        Dipole               -1.0844 Ry au,         -2.7562 Debye
        Dipole field         -0.0021 Ry au

        Potential amp.        0.1962 Ry
        Total length         46.8051 bohr

     Starting wfc are  109 randomized atomic wfcs

     Self-consistent Calculation

     iteration #  1     ecut=    36.75 Ry     beta=0.30
     Davidson diagonalization with overlap
     ethr =  1.00E-02,  avg # of iterations =  8.6

[...]

     total energy              =   -1592.23378454 Ry
     Harris-Foulkes estimate   =   -1633.75975359 Ry
     estimated scf accuracy    <      90.21488644 Ry

[...]

     End of self-consistent calculation

          k = 0.0000 0.0000 0.0000 ( 24345 PWs)   bands (ev):

   -14.8216 -14.8216 -14.8203 -14.7310 -14.7310 -14.7268 -14.7213 -14.7169
   -14.7169 -14.7043 -14.6839 -14.6828 -14.6828 -14.6590 -14.6396 -14.6356
   -14.6356 -14.6296 -14.6296 -14.6285 -14.6041 -14.6041 -14.5949 -14.5916
   -14.5916 -14.5889 -14.5871 -14.5871 -14.5752 -14.5752 -14.4733 -14.4733
   -14.4556 -14.4519 -14.4519 -14.4130 -14.4130 -14.4051 -14.4051 -14.3995
   -14.3735 -14.3712 -14.3712 -14.3579 -14.3576 -14.3576 -14.3457 -14.3457
   -14.3222 -14.3222 -14.3145 -14.3145 -14.3140 -14.3137 -14.2858 -14.2836
   -14.2836 -14.2787 -14.2673 -14.2673  -8.8515  -7.4961  -5.4448  -4.0630
    -3.9967  -3.9967  -3.7228  -3.7168  -3.7168  -2.7370  -2.4601  -2.4601
    -2.4511  -2.2072  -2.2072  -2.0055  -0.9688  -0.5557  -0.5557  -0.5504
    -0.3388  -0.3388   0.4994   1.8453   3.0405   3.0405   3.0971   3.1699

[...]

          k =-0.0756 0.0436 0.0000 ( 24448 PWs)   bands (ev):

[...]

     the Fermi energy is     0.3455 ev

!    total energy              =   -1618.41135517 Ry
     Harris-Foulkes estimate   =   -1618.41135653 Ry
     estimated scf accuracy    <       0.00000076 Ry

     The total energy is the sum of the following terms:

     one-electron contribution =   -9208.68683709 Ry
     hartree contribution      =    4682.92884111 Ry
     xc contribution           =    -470.22699067 Ry
     ewald contribution        =    3377.61203026 Ry
     electric field correction =       0.00013898 Ry
     smearing contrib. (-TS)   =      -0.03853776 Ry

     convergence has been achieved in  15 iterations

 BEEF-vdW xc energy contributions
           1 :   -411.954765282623
           2 :    376.569952535330
           3 :   -316.802194886683
           4 :    249.460674750261
           5 :   -189.936131384299
           6 :    146.586327817115
           7 :   -119.122966123756
           8 :    101.187980600770
           9 :   -85.2178513990607
          10 :    66.7449455485697
          11 :   -46.0036352900316
          12 :    26.5075127733365
          13 :   -12.0235230618425
          14 :    4.02705768512823
          15 :   -1.06207510829091
          16 :   1.839575851869313E-002
          17 :    1.82136440230755
          18 :   -5.36817167359101
          19 :    9.68681818916087
          20 :   -13.0836724408385
          21 :    14.4177892791049
          22 :   -13.7688734376665
          23 :    12.1720922775452
          24 :   -10.7938132494625
          25 :    10.2099690985307
[...]
     ethr =  1.85E-05,  avg # of iterations =  4.6

[...]

     Total force =     0.047234     Total SCF correction =     0.004731
     SCF correction compared to forces is large: reduce conv_thr to get better values

[...]

   This run was terminated on:  10:49:57  16Jan2018

[...]

     Program PWSCF v.5.1rc2 (svn rev. 11289) starts on 16Jan2018 at 10:50: 3

[...]

     Program PWSCF v.5.1rc2 (svn rev. 11289) starts on 16Jan2018 at 10:55: 3

[...]

     Program PWSCF v.5.1rc2 (svn rev. 11289) starts on 16Jan2018 at 11: 0: 1

[...]

   This run was terminated on:  11: 4:51  16Jan2018

[...]

     Program PWSCF v.5.1rc2 (svn rev. 11289) starts on 16Jan2018 at 11: 4:56

[...]

     Total force =     0.032516     Total SCF correction =     0.003430
     SCF correction compared to forces is large: reduce conv_thr to get better values

[...]

   This run was terminated on:  11: 9:47  16Jan2018

[...]

     Program PWSCF v.5.1rc2 (svn rev. 11289) starts on 16Jan2018 at 11: 9:53

     Current dimensions of program PWSCF are:
     Max number of different atomic species (ntypx) = 10
     Max number of k-points (npk) =  40000
     Max angular momentum in pseudopotentials (lmaxx) =  3
     Presently stress not available with electric field

     IMPORTANT: XC functional enforced from input :
     Exchange-correlation      = BEEF-VDW ( 1  4 27 13 2)
     Any further DFT definition will be discarded
     Please, verify this is what you really want

     Subspace diagonalization in iterative solution of the eigenvalue problem:
     a serial algorithm will be used

     bravais-lattice index     =            0
     lattice parameter (alat)  =       1.8897  a.u.
     unit-cell volume          =    6501.5726 (a.u.)^3
     number of atoms/cell      =           13
     number of atomic types    =            2
     number of electrons       =       157.00
     number of Kohn-Sham states=           88
     kinetic-energy cutoff     =      36.7493  Ry
     charge density cutoff     =     367.4932  Ry
     convergence threshold     =      1.0E-05
     mixing beta               =       0.3000
     number of iterations used =           10  plain     mixing
     Exchange-correlation      = BEEF-VDW ( 1  4 27 13 2)
     nstep                     =           50

     celldm(1)=   1.889726  celldm(2)=   0.000000  celldm(3)=   0.000000
     celldm(4)=   0.000000  celldm(5)=   0.000000  celldm(6)=   0.000000

     crystal axes: (cart. coord. in units of alat)
               a(1) = (   6.617606   0.000000   0.000000 )
               a(2) = (   3.308803   5.731015   0.000000 )
               a(3) = (   0.000000   0.000000  25.403253 )

     reciprocal axes: (cart. coord. in units 2 pi/alat)
               b(1) = (  0.151112 -0.087245  0.000000 )
               b(2) = (  0.000000  0.174489  0.000000 )
               b(3) = (  0.000000  0.000000  0.039365 )

     PseudoPot. # 1 for In read from file:
     /afs/slac.stanford.edu/u/if/mamunm/psp/gbrv1.5pbe/In.UPF
     MD5 check sum: 90777abd96fbb83f2e67db2a40c566b9
     Pseudo is Ultrasoft + core correction, Zval = 13.0
     Generated by new atomic code, or converted to UPF format
     Using radial grid of  889 points,  6 beta functions with:
                l(1) =   0
                l(2) =   0
                l(3) =   1
                l(4) =   1
                l(5) =   2
                l(6) =   2
     Q(r) pseudized with  6 coefficients,  rinner =    1.400   1.400   1.400
                                                       1.400   1.400

     PseudoPot. # 2 for H  read from file:
     /afs/slac.stanford.edu/u/if/mamunm/psp/gbrv1.5pbe/H.UPF
     MD5 check sum: 761ae9a214b05c3daf00ab9f6b793d6f
     Pseudo is Ultrasoft, Zval =  1.0
     Generated by new atomic code, or converted to UPF format
     Using radial grid of  615 points,  2 beta functions with:
                l(1) =   0
                l(2) =   0
     Q(r) pseudized with  8 coefficients,  rinner =    0.700

     vdW kernel table read from file vdW_kernel_table
     MD5 check sum: 095c7af220d748ca6e76c0b4c6cfb241

     atomic species   valence    mass     pseudopotential
        In1           13.00   114.81800     In( 1.00)
        H1             1.00     1.00800     H ( 1.00)

     No symmetry found

   Cartesian axes

     site n.     atom                  positions (alat units)
         1           In1 tau(   1) = (   1.6544016   0.9551692  10.0000000  )
         2           In1 tau(   2) = (   4.9632047   0.9551692  10.0000000  )
         3           In1 tau(   3) = (   3.3088031   3.8206768  10.0000000  )
         4           In1 tau(   4) = (   6.6176063   3.8206768  10.0000000  )
         5           In1 tau(   5) = (   6.6176063   1.9103384  12.7016265  )
         6           In1 tau(   6) = (   3.3088031   1.9103384  12.7016265  )
         7           In1 tau(   7) = (   8.2720078   4.7758460  12.7016265  )
         8           In1 tau(   8) = (   4.9632047   4.7758460  12.7016265  )
         9           In1 tau(   9) = (   3.3088239   5.7310055  15.4887795  )
        10           In1 tau(  10) = (   6.6175965   5.7058146  15.6948132  )
        11           In1 tau(  11) = (   8.2502132   2.8780742  15.6947767  )
        12           In1 tau(  12) = (   4.9850175   2.8780900  15.6947317  )
        13           H1  tau(  13) = (   3.3088284   1.9103014  16.7211772  )

     number of k points=    20  Fermi-Dirac smearing, width (Ry)=  0.0110
                       cart. coord. in units 2pi/alat
        k(    1) = (   0.0000000   0.0000000   0.0000000), wk =   0.0555556
        k(    2) = (   0.0000000   0.0290815   0.0000000), wk =   0.1111111
        k(    3) = (   0.0000000   0.0581631   0.0000000), wk =   0.1111111
        k(    4) = (   0.0000000  -0.0872446   0.0000000), wk =   0.0555556
        k(    5) = (   0.0251853  -0.0145408   0.0000000), wk =   0.1111111
        k(    6) = (   0.0251853   0.0145408   0.0000000), wk =   0.1111111
        k(    7) = (   0.0251853   0.0436223   0.0000000), wk =   0.1111111
        k(    8) = (   0.0251853  -0.1017853   0.0000000), wk =   0.1111111
        k(    9) = (   0.0251853  -0.0727038   0.0000000), wk =   0.1111111
        k(   10) = (   0.0251853  -0.0436223   0.0000000), wk =   0.1111111
        k(   11) = (   0.0503707  -0.0290815   0.0000000), wk =   0.1111111
        k(   12) = (   0.0503707   0.0000000   0.0000000), wk =   0.1111111
        k(   13) = (   0.0503707   0.0290815   0.0000000), wk =   0.1111111
        k(   14) = (   0.0503707  -0.1163261   0.0000000), wk =   0.1111111
        k(   15) = (   0.0503707  -0.0872446   0.0000000), wk =   0.1111111
        k(   16) = (   0.0503707  -0.0581631   0.0000000), wk =   0.1111111
        k(   17) = (  -0.0755560   0.0436223   0.0000000), wk =   0.0555556
        k(   18) = (  -0.0755560   0.0727038   0.0000000), wk =   0.1111111
        k(   19) = (  -0.0755560   0.1017853   0.0000000), wk =   0.1111111
        k(   20) = (  -0.0755560  -0.0436223   0.0000000), wk =   0.0555556

     Largest allocated arrays     est. size (Mb)     dimensions
     Largest temporary arrays     est. size (Mb)     dimensions

     Initial potential from superposition of free atoms
     Check: negative starting charge=   -0.000185

     starting charge  138.99999, renormalised to  157.00000

[...]

     *
     * You are using vdW-DF for exchange-correlation in this calculation.
     * Please cite the following three references that made this development
     * possible:
     *
     *   M. Dion, H. Rydberg, E. Schroder, D. C. Langreth, and
     *   B. I. Lundqvist, Phys. Rev. Lett. 92, 246401 (2004).
     *
     *   T. Thonhauser, V. R. Cooper, S. Li, A. Puzder, P. Hyldgaard, and
     *   D. C. Langreth, Phys. Rev. B 76, 125112 (2007).
     *
     *   G. Roman-Perez and J. M. Soler, Phys. Rev. Lett. 103, 096102 (2009).
     *
     *
     * If you are using vdW-DF2, please also cite:
     *
     *   K. Lee, E. D. Murray, L. Kong, B. I. Lundqvist, and
     *   D. C. Langreth, Phys. Rev. B 82, 081101(R) (2010).
     *
     *
     * If you are calculating the stress with vdW-DF, please also cite:
     *
     *   R. Sabatini, E. Kucukbenli, B. Kolb, T. Thonhauser, and
     *   S. de Gironcoli, J. Phys.: Condens. Matter 24, 424209 (2012).
     *

     Carrying out vdW-DF run using the following parameters:

     Nqs =      20    Nr_points =    1024   r_max =   100.000
     q_mesh =
               0.00001000     0.04494208     0.09755937     0.15916263
               0.23128650     0.31572767     0.41458969     0.53033537
               0.66584808     0.82450364     1.01025438     1.22772762
               1.48234092     1.78043706     2.12944203     2.53805004
               3.01644009     3.57652955     4.23227104     5.00000000

     Gradients computed in reciprocal space

[...]

     Starting wfc are  109 randomized atomic wfcs

     Self-consistent Calculation

[...]

     total energy              =   -1618.44245477 Ry
     Harris-Foulkes estimate   =   -1618.44245593 Ry
     estimated scf accuracy    <       0.00002114 Ry

     iteration # 15     ecut=    36.75 Ry     beta=0.30
     Davidson diagonalization with overlap
     ethr =  1.35E-08,  avg # of iterations =  2.4

[...]

     negative rho (up, down):  1.116E-03 0.000E+00

     Adding external electric field

     Computed dipole along edir(3) :
        Dipole               -0.0001 Ry au,         -0.0003 Debye
        Dipole field         -0.0000 Ry au

        Potential amp.        0.0000 Ry
        Total length         46.8051 bohr

     End of self-consistent calculation

[...]

          k = 0.0504-0.0582 0.0000 ( 24479 PWs)   bands (ev):

[...]

          k =-0.0756-0.0436 0.0000 ( 24448 PWs)   bands (ev):

   -14.4419 -14.4368 -14.4190 -14.3907 -14.3849 -14.3834 -14.3781 -14.3780
   -14.3614 -14.3531 -14.3435 -14.3381 -14.3364 -14.3228 -14.3215 -14.3171
   -14.3132 -14.3088 -14.3024 -14.2913 -14.2891 -14.2775 -14.2671 -14.2621
   -14.2616 -14.2587 -14.2564 -14.2498 -14.2479 -14.2438 -14.2404 -14.2260
   -14.2198 -14.2003 -14.1946 -14.1895 -14.1874 -14.1825 -14.1812 -14.1756
   -14.1664 -14.1600 -14.1540 -14.1494 -14.1460 -14.1416 -14.1393 -14.1380
   -14.1354 -14.1339 -14.1278 -14.1271 -14.0924 -14.0846 -14.0759 -14.0703
   -14.0607 -14.0539 -14.0225 -14.0209  -7.1951  -7.1345  -6.3484  -5.9001
    -4.7873  -4.6059  -4.4421  -4.1265  -3.6307  -3.4439  -2.1149  -1.8815
    -1.0577  -0.3581   0.1041   0.3282   0.4919   0.7061   1.1538   1.4856
     1.5878   1.6562   1.7688   2.1711   2.3824   2.6329   3.0413   3.0619

     the Fermi energy is     0.6608 ev

!    total energy              =   -1618.44245860 Ry
     Harris-Foulkes estimate   =   -1618.44245702 Ry
     estimated scf accuracy    <       0.00000063 Ry

     The total energy is the sum of the following terms:

     one-electron contribution =   -8923.72333194 Ry
     hartree contribution      =    4541.81236101 Ry
     xc contribution           =    -470.18792422 Ry
     ewald contribution        =    3233.69427759 Ry
     electric field correction =       0.00000000 Ry
     smearing contrib. (-TS)   =      -0.03784104 Ry

     convergence has been achieved in  15 iterations

 BEEF-vdW xc energy contributions
           1 :   -411.911733213482
           2 :    376.465735228709
           3 :   -316.603858213138
           4 :    249.187684629388
           5 :   -189.651809961786
           6 :    146.356892457966
           7 :   -118.976841911114
           8 :    101.103126445196
           9 :   -85.1435856334034
          10 :    66.6406650527747
          11 :   -45.8667893629242
          12 :    26.3729694357206
          13 :   -11.9375162972017
          14 :    4.01572872178804
          15 :   -1.11548095743569
          16 :   9.875663009580649E-002
          17 :    1.75484072456396
          18 :   -5.33717215295241
          19 :    9.68875637798897
          20 :   -13.1023601762193
          21 :    14.4378622275318
          22 :   -13.7826420494317
          23 :    12.1759857772462
          24 :   -10.7809998748105
          25 :    10.1696380489683
          26 :   -10.1681024730846
          27 :    10.2260095646761
          28 :   -9.92234435741648
          29 :    9.21631408970347
          30 :   -8.33447208509909
          31 :   -37.3629504730165
          32 :   -27.1079282453753

     Forces acting on atoms (Ry/au):

     negative rho (up, down):  1.116E-03 0.000E+00
     atom    1 type  1   force =    -0.00119931   -0.00069634   -0.00986708
     atom    2 type  1   force =     0.00120270   -0.00068455   -0.00984710
     atom    3 type  1   force =     0.00000806    0.00138081   -0.00983414
     atom    4 type  1   force =     0.00000399   -0.00000199   -0.01024868
     atom    5 type  1   force =    -0.00000039    0.00087036    0.00892362
     atom    6 type  1   force =    -0.00000235   -0.00000619    0.01952043
     atom    7 type  1   force =    -0.00075693   -0.00043207    0.00891989
     atom    8 type  1   force =     0.00075610   -0.00043004    0.00892279
     atom    9 type  1   force =    -0.00000470   -0.00000064   -0.00093864
     atom   10 type  1   force =     0.00000039    0.00015022   -0.00122953
     atom   11 type  1   force =     0.00013022   -0.00007341   -0.00123582
     atom   12 type  1   force =    -0.00013693   -0.00007644   -0.00123064
     atom   13 type  2   force =    -0.00000086    0.00000029   -0.00185510

     Total force =     0.032139     Total SCF correction =     0.002871

     entering subroutine stress ...

     negative rho (up, down):  1.116E-03 0.000E+00
          total   stress  (Ry/bohr**3)                   (kbar)     P=    5.50
   0.00004736  -0.00000000   0.00000000          6.97     -0.00      0.00
  -0.00000000   0.00004736  -0.00000000         -0.00      6.97     -0.00
   0.00000000  -0.00000000   0.00001745          0.00     -0.00      2.57

 !ASE

     Writing output data file calc.save

     General routines

     Parallel routines

   This run was terminated on:  11:14:44  16Jan2018

   JOB DONE.
Job  /afs/slac/g/suncat/bin/suncat-tsmpirun -x LD_LIBRARY_PATH -wdir /scratch/qe842449_4Zivx pw.x -in pw.inp

TID   HOST_NAME   COMMAND_LINE            STATUS            TERMINATION_TIME
00000 suncat2070 pw.x -in pw.inp   Done                     01/16/2018 11:14:44
00001 suncat2070 pw.x -in pw.inp   Done                     01/16/2018 11:14:44
00002 suncat2070 pw.x -in pw.inp   Done                     01/16/2018 11:14:44
00003 suncat2070 pw.x -in pw.inp   Done                     01/16/2018 11:14:44
00004 suncat2070 pw.x -in pw.inp   Done                     01/16/2018 11:14:44
00005 suncat2070 pw.x -in pw.inp   Done                     01/16/2018 11:14:44
00006 suncat2070 pw.x -in pw.inp   Done                     01/16/2018 11:14:44
00007 suncat2070 pw.x -in pw.inp   Done                     01/16/2018 11:14:44
00008 suncat2070 pw.x -in pw.inp   Done                     01/16/2018 11:14:44
00009 suncat2070 pw.x -in pw.inp   Done                     01/16/2018 11:14:44
00010 suncat2070 pw.x -in pw.inp   Done                     01/16/2018 11:14:44
00011 suncat2070 pw.x -in pw.inp   Done                     01/16/2018 11:14:44
00012 suncat2070 pw.x -in pw.inp   Done                     01/16/2018 11:14:44
00013 suncat2070 pw.x -in pw.inp   Done                     01/16/2018 11:14:44
00014 suncat2070 pw.x -in pw.inp   Done                     01/16/2018 11:14:44
00015 suncat2070 pw.x -in pw.inp   Done                     01/16/2018 11:14:44
00016 suncat2062 pw.x -in pw.inp   Done                     01/16/2018 11:14:44
00017 suncat2062 pw.x -in pw.inp   Done                     01/16/2018 11:14:44
00018 suncat2062 pw.x -in pw.inp   Done                     01/16/2018 11:14:44
00019 suncat2062 pw.x -in pw.inp   Done                     01/16/2018 11:14:44
00020 suncat2062 pw.x -in pw.inp   Done                     01/16/2018 11:14:44
00021 suncat2062 pw.x -in pw.inp   Done                     01/16/2018 11:14:44
00022 suncat2062 pw.x -in pw.inp   Done                     01/16/2018 11:14:44
00023 suncat2062 pw.x -in pw.inp   Done                     01/16/2018 11:14:44
00024 suncat2062 pw.x -in pw.inp   Done                     01/16/2018 11:14:44
00025 suncat2062 pw.x -in pw.inp   Done                     01/16/2018 11:14:44
00026 suncat2062 pw.x -in pw.inp   Done                     01/16/2018 11:14:44
00027 suncat2062 pw.x -in pw.inp   Done                     01/16/2018 11:14:44
00028 suncat2062 pw.x -in pw.inp   Done                     01/16/2018 11:14:44
00029 suncat2062 pw.x -in pw.inp   Done                     01/16/2018 11:14:44
00030 suncat2062 pw.x -in pw.inp   Done                     01/16/2018 11:14:44
00031 suncat2062 pw.x -in pw.inp   Done                     01/16/2018 11:14:44