     Program PWSCF v.5.1rc2 (svn rev. 11289) starts on  3May2018 at  7:44:35

     Current dimensions of program PWSCF are:
     Max number of different atomic species (ntypx) = 10
     Max number of k-points (npk) =  40000
     Max angular momentum in pseudopotentials (lmaxx) =  3
     Presently stress not available with electric field

     IMPORTANT: XC functional enforced from input :
     Exchange-correlation      = BEEF-VDW ( 1  4 27 13 2)
     Any further DFT definition will be discarded
     Please, verify this is what you really want

     Subspace diagonalization in iterative solution of the eigenvalue problem:
     a serial algorithm will be used

     bravais-lattice index     =            0
     lattice parameter (alat)  =       1.8897  a.u.
     unit-cell volume          =    4569.9960 (a.u.)^3
     number of atoms/cell      =           13
     number of atomic types    =            2
     number of electrons       =       193.00
     number of Kohn-Sham states=          106
     kinetic-energy cutoff     =      36.7493  Ry
     charge density cutoff     =     367.4932  Ry
     convergence threshold     =      1.0E-05
     mixing beta               =       0.3000
     number of iterations used =           10  plain     mixing
     Exchange-correlation      = BEEF-VDW ( 1  4 27 13 2)
     nstep                     =           50

     celldm(1)=   1.889726  celldm(2)=   0.000000  celldm(3)=   0.000000
     celldm(4)=   0.000000  celldm(5)=   0.000000  celldm(6)=   0.000000

     crystal axes: (cart. coord. in units of alat)
               a(1) = (   5.637663   0.000000   0.000000 )
               a(2) = (   2.818831   4.882359   0.000000 )
               a(3) = (   0.000000   0.000000  24.603132 )

     reciprocal axes: (cart. coord. in units 2 pi/alat)
               b(1) = (  0.177378 -0.102410  0.000000 )
               b(2) = (  0.000000  0.204819  0.000000 )
               b(3) = (  0.000000  0.000000  0.040645 )

     PseudoPot. # 1 for Pd read from file:
     /u/if/mamunm/psp/gbrv1.5pbe/Pd.UPF
     MD5 check sum: 2d733d2bc2cbfd217af676df1668a4bc
     Pseudo is Ultrasoft + core correction, Zval = 16.0
     Generated by new atomic code, or converted to UPF format
     Using radial grid of  887 points,  6 beta functions with:
                l(1) =   0
                l(2) =   0
                l(3) =   1
                l(4) =   1
                l(5) =   2
                l(6) =   2
     Q(r) pseudized with  8 coefficients,  rinner =    1.130   1.130   1.130
                                                       1.130   1.130

     PseudoPot. # 2 for H  read from file:
     /u/if/mamunm/psp/gbrv1.5pbe/H.UPF
     MD5 check sum: 761ae9a214b05c3daf00ab9f6b793d6f
     Pseudo is Ultrasoft, Zval =  1.0
     Generated by new atomic code, or converted to UPF format
     Using radial grid of  615 points,  2 beta functions with:
                l(1) =   0
                l(2) =   0
     Q(r) pseudized with  8 coefficients,  rinner =    0.700

     vdW kernel table read from file vdW_kernel_table
     MD5 check sum: 095c7af220d748ca6e76c0b4c6cfb241

     atomic species   valence    mass     pseudopotential
        Pd1           16.00   106.42000     Pd( 1.00)
        H1             1.00     1.00800     H ( 1.00)

     No symmetry found

   Cartesian axes

     site n.     atom                  positions (alat units)
         1           Pd1 tau(   1) = (   1.4094157   0.8137265  10.0000000  )
         2           Pd1 tau(   2) = (   4.2282471   0.8137265  10.0000000  )
         3           Pd1 tau(   3) = (   2.8188314   3.2549061  10.0000000  )
         4           Pd1 tau(   4) = (   5.6376627   3.2549061  10.0000000  )
         5           Pd1 tau(   5) = (   5.6376627   1.6274531  12.3015662  )
         6           Pd1 tau(   6) = (   2.8188314   1.6274531  12.3015662  )
         7           Pd1 tau(   7) = (   7.0470784   4.0686326  12.3015662  )
         8           Pd1 tau(   8) = (   4.2282471   4.0686326  12.3015662  )
         9           Pd1 tau(   9) = (   0.0000000   0.0000000  14.6031324  )
        10           Pd1 tau(  10) = (   2.8188314   0.0000000  14.6031324  )
        11           Pd1 tau(  11) = (   1.4094157   2.4411796  14.6031324  )
        12           Pd1 tau(  12) = (   4.2282471   2.4411796  14.6031324  )
        13           H1  tau(  13) = (   0.0000000   0.0000000  16.0481324  )

     number of k points=    20  Fermi-Dirac smearing, width (Ry)=  0.0110
                       cart. coord. in units 2pi/alat
        k(    1) = (   0.0000000   0.0000000   0.0000000), wk =   0.0555556
        k(    2) = (   0.0000000   0.0341365   0.0000000), wk =   0.1111111
        k(    3) = (   0.0000000   0.0682730   0.0000000), wk =   0.1111111
        k(    4) = (   0.0000000  -0.1024095   0.0000000), wk =   0.0555556
        k(    5) = (   0.0295631  -0.0170683   0.0000000), wk =   0.1111111
        k(    6) = (   0.0295631   0.0170683   0.0000000), wk =   0.1111111
        k(    7) = (   0.0295631   0.0512048   0.0000000), wk =   0.1111111
        k(    8) = (   0.0295631  -0.1194778   0.0000000), wk =   0.1111111
        k(    9) = (   0.0295631  -0.0853413   0.0000000), wk =   0.1111111
        k(   10) = (   0.0295631  -0.0512048   0.0000000), wk =   0.1111111
        k(   11) = (   0.0591262  -0.0341365   0.0000000), wk =   0.1111111
        k(   12) = (   0.0591262  -0.0000000   0.0000000), wk =   0.1111111
        k(   13) = (   0.0591262   0.0341365   0.0000000), wk =   0.1111111
        k(   14) = (   0.0591262  -0.1365460   0.0000000), wk =   0.1111111
        k(   15) = (   0.0591262  -0.1024095   0.0000000), wk =   0.1111111
        k(   16) = (   0.0591262  -0.0682730   0.0000000), wk =   0.1111111
        k(   17) = (  -0.0886892   0.0512048   0.0000000), wk =   0.0555556
        k(   18) = (  -0.0886892   0.0853413   0.0000000), wk =   0.1111111
        k(   19) = (  -0.0886892   0.1194778   0.0000000), wk =   0.1111111
        k(   20) = (  -0.0886892  -0.0512048   0.0000000), wk =   0.0555556

     Largest allocated arrays     est. size (Mb)     dimensions
     Largest temporary arrays     est. size (Mb)     dimensions

     Initial potential from superposition of free atoms
     Check: negative starting charge=   -0.904081

     starting charge  186.99991, renormalised to  193.00000

     negative rho (up, down):  9.331E-01 0.000E+00

     *
     * You are using vdW-DF for exchange-correlation in this calculation.
     * Please cite the following three references that made this development
     * possible:
     *
     *   M. Dion, H. Rydberg, E. Schroder, D. C. Langreth, and
     *   B. I. Lundqvist, Phys. Rev. Lett. 92, 246401 (2004).
     *
     *   T. Thonhauser, V. R. Cooper, S. Li, A. Puzder, P. Hyldgaard, and
     *   D. C. Langreth, Phys. Rev. B 76, 125112 (2007).
     *
     *   G. Roman-Perez and J. M. Soler, Phys. Rev. Lett. 103, 096102 (2009).
     *
     *
     * If you are using vdW-DF2, please also cite:
     *
     *   K. Lee, E. D. Murray, L. Kong, B. I. Lundqvist, and
     *   D. C. Langreth, Phys. Rev. B 82, 081101(R) (2010).
     *
     *
     * If you are calculating the stress with vdW-DF, please also cite:
     *
     *   R. Sabatini, E. Kucukbenli, B. Kolb, T. Thonhauser, and
     *   S. de Gironcoli, J. Phys.: Condens. Matter 24, 424209 (2012).
     *

     Carrying out vdW-DF run using the following parameters:

     Nqs =      20    Nr_points =    1024   r_max =   100.000
     q_mesh =
               0.00001000     0.04494208     0.09755937     0.15916263
               0.23128650     0.31572767     0.41458969     0.53033537
               0.66584808     0.82450364     1.01025438     1.22772762
               1.48234092     1.78043706     2.12944203     2.53805004
               3.01644009     3.57652955     4.23227104     5.00000000

     Gradients computed in reciprocal space

     Adding external electric field

     Computed dipole along edir(3) :
        Dipole               -0.2271 Ry au,         -0.5772 Debye
        Dipole field         -0.0006 Ry au

        Potential amp.        0.0566 Ry
        Total length         45.3309 bohr

     Starting wfc are  145 randomized atomic wfcs

     Self-consistent Calculation

     iteration #  1     ecut=    36.75 Ry     beta=0.30
     Davidson diagonalization with overlap
     ethr =  1.00E-02,  avg # of iterations =  3.7

[...]

     total energy              =   -2392.21044574 Ry
     Harris-Foulkes estimate   =   -2402.51847477 Ry
     estimated scf accuracy    <      23.29534737 Ry

[...]

     End of self-consistent calculation

          k = 0.0000 0.0000 0.0000 ( 17231 PWs)   bands (ev):

   -49.6504 -49.2255 -49.2255 -49.0792 -49.0676 -49.0671 -48.9764 -48.9544
   -48.9409 -48.9401 -48.8967 -48.8962 -48.8830 -48.8378 -48.8317 -48.8316
   -48.8147 -48.8143 -48.8070 -48.7437 -48.7433 -48.6677 -48.6641 -48.6503
   -48.6499 -48.6171 -48.6167 -48.5917 -48.5916 -48.5421 -48.5205 -48.5199
   -48.5161 -48.5060 -48.5054 -48.4431  -5.0322  -4.3168  -3.7001  -3.5906
    -3.5905  -3.5854  -3.5439  -3.3902  -3.3901  -3.2761  -3.2599  -3.2598
    -3.0831  -3.0411  -3.0409  -3.0076  -2.2415  -2.2414  -2.0728  -1.8164
    -1.8164  -1.7568  -1.5922  -1.5922  -1.5770  -1.4421  -1.4420  -1.3248
    -1.3247  -1.2764  -1.2764  -1.2687  -1.0058  -0.6233  -0.6228  -0.4453
    -0.4453  -0.2409  -0.2309  -0.2308  -0.1201  -0.0534  -0.0531   0.0735
     0.1298   0.1298   0.5011   0.5013   0.5553   0.6089   0.6093   0.6291
     0.6292   0.7338   0.8023   0.8024   0.8194   0.9181   0.9183   1.0080
     1.0429   1.0431   1.0490   2.0465   3.0831   3.1043   3.1043   4.3336
     4.3436   4.3440

[...]

          k =-0.0887 0.0512 0.0000 ( 17240 PWs)   bands (ev):

[...]

     the Fermi energy is     0.8188 ev

!    total energy              =   -2398.57342478 Ry
     Harris-Foulkes estimate   =   -2398.57342575 Ry
     estimated scf accuracy    <       0.00000593 Ry

     The total energy is the sum of the following terms:

     one-electron contribution =  -20197.42506385 Ry
     hartree contribution      =   10147.38311787 Ry
     xc contribution           =    -390.88851486 Ry
     ewald contribution        =    8042.47158105 Ry
     electric field correction =       0.00000859 Ry
     smearing contrib. (-TS)   =      -0.11455357 Ry

     convergence has been achieved in  16 iterations

 BEEF-vdW xc energy contributions
           1 :   -340.347701305159
           2 :    310.984858184660
           3 :   -260.906555480012
           4 :    203.610833713782
           5 :   -152.159791583886
           6 :    114.853660041917
           7 :   -93.4359283783013
           8 :    84.1193351225660
           9 :   -80.5452166129951
          10 :    77.0821477893031
          11 :   -70.9772040397496
          12 :    62.6366039844104
          13 :   -54.3301836366238
          14 :    48.3115156658192
          15 :   -45.4421447526426
          16 :    44.9170884651123
          17 :   -44.9967801883938
          18 :    44.1307855991533
          19 :   -41.7675446060739
          20 :    38.4481209598650
          21 :   -35.2640983203202
          22 :    33.0997984571788
          23 :   -32.1311296833399
          24 :    31.8264542361978
          25 :   -31.3729845798861
          26 :    30.2131150279583
          27 :   -28.3535264037765
          28 :    26.2853256992435
          29 :   -24.6111527566838
          30 :    23.6429537251554
          31 :   -33.1262490048023
          32 :   -24.4569204615980

     Forces acting on atoms (Ry/au):

     negative rho (up, down):  9.416E-01 0.000E+00
     atom    1 type  1   force =    -0.00006507   -0.00008559    0.00000262
     atom    2 type  1   force =     0.00007367   -0.00001733   -0.00013295
     atom    3 type  1   force =     0.00006577    0.00008381   -0.00004531
     atom    4 type  1   force =    -0.00007088    0.00000982   -0.00553597
     atom    5 type  1   force =    -0.00000754    0.00057989   -0.00137889
     atom    6 type  1   force =     0.00001009   -0.00000030   -0.00149667
     atom    7 type  1   force =    -0.00052359   -0.00029657   -0.00141069
     atom    8 type  1   force =     0.00053376   -0.00030446   -0.00140786
     atom    9 type  1   force =     0.00005826   -0.00000366   -0.06670264
     atom   10 type  1   force =    -0.00007870   -0.00099220    0.00058920
     atom   11 type  1   force =    -0.00085695    0.00047418    0.00066494
     atom   12 type  1   force =     0.00085826    0.00055077    0.00053833
     atom   13 type  2   force =     0.00000292    0.00000164    0.07631589

     Total force =     0.101378     Total SCF correction =     0.004238

     entering subroutine stress ...

     negative rho (up, down):  9.416E-01 0.000E+00
          total   stress  (Ry/bohr**3)                   (kbar)     P=   -6.17
  -0.00008764  -0.00000001   0.00000001        -12.89     -0.00      0.00
  -0.00000001  -0.00008768   0.00000001         -0.00    -12.90      0.00
   0.00000001   0.00000001   0.00004953          0.00      0.00      7.29

     BFGS Geometry Optimization

     number of scf cycles    =   1
     number of bfgs steps    =   0

     energy   new            =   -2398.5734247770 Ry

     new trust radius        =       0.0763158949 bohr
     new conv_thr            =       0.0000099958 Ry

ATOMIC_POSITIONS (crystal)
Pd1      0.166666667   0.166666667   0.406452311    0   0   0
Pd1      0.666666667   0.166666667   0.406452311    0   0   0
Pd1      0.166666667   0.666666667   0.406452311    0   0   0
Pd1      0.666666667   0.666666667   0.406452311    0   0   0
Pd1      0.833333333   0.333333333   0.500000000    0   0   0
Pd1      0.333333333   0.333333333   0.500000000    0   0   0
Pd1      0.833333333   0.833333333   0.500000000    0   0   0
Pd1      0.333333333   0.833333333   0.500000000    0   0   0
Pd1      0.000005667  -0.000000397   0.592113013
Pd1      0.500046383  -0.000107540   0.593560362
Pd1     -0.000106135   0.500051394   0.593561991
Pd1      0.500050712   0.500059696   0.593559268
H1       0.000000186   0.000000177   0.653921491

     Writing output data file calc.save
     Check: negative starting charge=   -0.904081
     NEW-OLD atomic charge density approx. for the potential
     Check: negative starting charge=   -0.906868

[...]

     Total force =     0.020200     Total SCF correction =     0.011572
     SCF correction compared to forces is large: reduce conv_thr to get better values

[...]

     energy   old            =   -2398.5734247770 Ry
     energy   new            =   -2398.5792558397 Ry

     CASE: energy  _new < energy  _old

[...]

     Total force =     0.004160     Total SCF correction =     0.000291

[...]

     number of scf cycles    =   8
     number of bfgs steps    =   7

     energy   old            =   -2398.5806622887 Ry
     energy   new            =   -2398.5807522808 Ry

     CASE: energy  _new < energy  _old

     new trust radius        =       0.0060225203 bohr
     new conv_thr            =       0.0000001000 Ry

ATOMIC_POSITIONS (crystal)
Pd1      0.166666667   0.166666667   0.406452311    0   0   0
Pd1      0.666666667   0.166666667   0.406452311    0   0   0
Pd1      0.166666667   0.666666667   0.406452311    0   0   0
Pd1      0.666666667   0.666666667   0.406452311    0   0   0
Pd1      0.833333333   0.333333333   0.500000000    0   0   0
Pd1      0.333333333   0.333333333   0.500000000    0   0   0
Pd1      0.833333333   0.833333333   0.500000000    0   0   0
Pd1      0.333333333   0.833333333   0.500000000    0   0   0
Pd1     -0.000000422  -0.000002016   0.595203658
Pd1      0.500422832  -0.000842626   0.593601745
Pd1     -0.000840710   0.500423149   0.593599166
Pd1      0.500417269   0.500422994   0.593601809
H1      -0.000003605   0.000002345   0.658274191

     Writing output data file calc.save
     Check: negative starting charge=   -0.906056
     NEW-OLD atomic charge density approx. for the potential
     Check: negative starting charge=   -0.906407

[...]

     Self-consistent Calculation

[...]

     total energy              =   -2398.58076787 Ry
     Harris-Foulkes estimate   =   -2398.58076792 Ry
     estimated scf accuracy    <       0.00000036 Ry

     iteration #  8     ecut=    36.75 Ry     beta=0.30
     Davidson diagonalization with overlap
     ethr =  1.85E-10,  avg # of iterations =  1.1

[...]

     negative rho (up, down):  9.441E-01 0.000E+00

     Adding external electric field

     Computed dipole along edir(3) :
        Dipole               -0.0633 Ry au,         -0.1610 Debye
        Dipole field         -0.0002 Ry au

        Potential amp.        0.0158 Ry
        Total length         45.3309 bohr

     End of self-consistent calculation

[...]

          k = 0.0591-0.0683 0.0000 ( 17183 PWs)   bands (ev):

[...]

          k =-0.0887-0.0512 0.0000 ( 17240 PWs)   bands (ev):

   -49.4910 -49.1802 -49.1655 -49.0607 -49.0521 -48.9945 -48.9871 -48.9820
   -48.9749 -48.9735 -48.9692 -48.9620 -48.9577 -48.8946 -48.8864 -48.8260
   -48.8065 -48.8009 -48.7537 -48.7513 -48.7442 -48.7403 -48.7354 -48.7345
   -48.7303 -48.6965 -48.6661 -48.6587 -48.6394 -48.5606 -48.5549 -48.5482
   -48.5446 -48.5415 -48.5372 -48.4722  -4.0383  -3.5486  -3.4118  -3.0443
    -3.0091  -2.9322  -2.8895  -2.8293  -2.7680  -2.6925  -2.6460  -2.5770
    -2.5074  -2.4202  -2.3731  -2.3241  -2.3020  -2.0022  -1.9931  -1.9475
    -1.9175  -1.8921  -1.7897  -1.6441  -1.5558  -1.4300  -1.3793  -1.3704
    -1.3509  -1.2241  -1.1889  -1.1540  -1.0997  -1.0616  -1.0456  -1.0389
    -0.9994  -0.9844  -0.9804  -0.9210  -0.8175  -0.6657  -0.6362  -0.5497
    -0.4678  -0.4640  -0.3581  -0.3493  -0.2699  -0.2596  -0.2201  -0.1933
    -0.1175   0.0162   0.1322   0.1479   0.2425   0.5730   0.5755   0.5934
     0.6534   0.7040   0.8160   0.8419   1.9841   3.0578   3.2807   3.3082
     3.9815   4.3101

     the Fermi energy is     0.7891 ev

!    total energy              =   -2398.58076789 Ry
     Harris-Foulkes estimate   =   -2398.58076806 Ry
     estimated scf accuracy    <       0.00000003 Ry

     The total energy is the sum of the following terms:

     one-electron contribution =  -20156.13186223 Ry
     hartree contribution      =   10126.55584932 Ry
     xc contribution           =    -390.81898069 Ry
     ewald contribution        =    8021.92974250 Ry
     electric field correction =       0.00001103 Ry
     smearing contrib. (-TS)   =      -0.11552782 Ry

     convergence has been achieved in   8 iterations

 BEEF-vdW xc energy contributions
           1 :   -340.277990664130
           2 :    310.898191828809
           3 :   -260.800651400748
           4 :    203.501732814037
           5 :   -152.074237898517
           6 :    114.815165370972
           7 :   -93.4515219221995
           8 :    84.1747764953137
           9 :   -80.6115597550767
          10 :    77.1298342075222
          11 :   -70.9899765947207
          12 :    62.6175882221363
          13 :   -54.2970483532003
          14 :    48.2849015263495
          15 :   -45.4346395702361
          16 :    44.9283912526876
          17 :   -45.0168430448284
          18 :    44.1484062115939
          19 :   -41.7783354493640
          20 :    38.4562950965068
          21 :   -35.2774747924560
          22 :    33.1222449505894
          23 :   -32.1580047329879
          24 :    31.8465450398413
          25 :   -31.3759069643088
          26 :    30.1973173075448
          27 :   -28.3292689930561
          28 :    26.2698814436299
          29 :   -24.6186870571830
          30 :    23.6756496288550
          31 :   -33.1217326230181
          32 :   -24.4487771953962

     Forces acting on atoms (Ry/au):

     negative rho (up, down):  9.441E-01 0.000E+00
     atom    1 type  1   force =    -0.00009329   -0.00005363    0.00034316
     atom    2 type  1   force =     0.00009369   -0.00005498    0.00034437
     atom    3 type  1   force =    -0.00000123    0.00010892    0.00034207
     atom    4 type  1   force =     0.00000072    0.00000128   -0.00516698
     atom    5 type  1   force =    -0.00000255   -0.00163644    0.00171023
     atom    6 type  1   force =     0.00000233   -0.00000342   -0.00070149
     atom    7 type  1   force =     0.00141451    0.00082046    0.00170740
     atom    8 type  1   force =    -0.00141312    0.00081874    0.00171101
     atom    9 type  1   force =     0.00000166    0.00000538    0.00008337
     atom   10 type  1   force =    -0.00000251    0.00066891   -0.00001266
     atom   11 type  1   force =     0.00057335   -0.00033783   -0.00001230
     atom   12 type  1   force =    -0.00057344   -0.00033751   -0.00001792
     atom   13 type  2   force =    -0.00000011    0.00000014   -0.00033025

     Total force =     0.001204     Total SCF correction =     0.000408
     SCF correction compared to forces is large: reduce conv_thr to get better values

     entering subroutine stress ...

     negative rho (up, down):  9.441E-01 0.000E+00
          total   stress  (Ry/bohr**3)                   (kbar)     P=  -10.09
  -0.00009658   0.00000000  -0.00000000        -14.21      0.00     -0.00
   0.00000000  -0.00009657   0.00000000          0.00    -14.21      0.00
  -0.00000000   0.00000000  -0.00001266         -0.00      0.00     -1.86

     bfgs converged in   9 scf cycles and   8 bfgs steps
     (criteria: energy <  1.0E+00, force <  1.9E-03)

     End of BFGS Geometry Optimization

     Final energy   =   -2398.5807678900 Ry
Begin final coordinates

ATOMIC_POSITIONS (crystal)
Pd1      0.166666667   0.166666667   0.406452311    0   0   0
Pd1      0.666666667   0.166666667   0.406452311    0   0   0
Pd1      0.166666667   0.666666667   0.406452311    0   0   0
Pd1      0.666666667   0.666666667   0.406452311    0   0   0
Pd1      0.833333333   0.333333333   0.500000000    0   0   0
Pd1      0.333333333   0.333333333   0.500000000    0   0   0
Pd1      0.833333333   0.833333333   0.500000000    0   0   0
Pd1      0.333333333   0.833333333   0.500000000    0   0   0
Pd1     -0.000000422  -0.000002016   0.595203658
Pd1      0.500422832  -0.000842626   0.593601745
Pd1     -0.000840710   0.500423149   0.593599166
Pd1      0.500417269   0.500422994   0.593601809
H1      -0.000003605   0.000002345   0.658274191
End final coordinates

     Writing output data file calc.save

     General routines

     Parallel routines

   This run was terminated on:   8:37:20   3May2018

   JOB DONE.
Job  /afs/slac/g/suncat/bin/suncat-tsmpirun -x LD_LIBRARY_PATH -wdir /scratch/qe676914_WwgST pw.x -npool 4 -in pw.inp

TID   HOST_NAME   COMMAND_LINE            STATUS            TERMINATION_TIME
00000 suncat0088 pw.x -npool 4 -i  Done                     05/03/2018 08:37:20
00001 suncat0088 pw.x -npool 4 -i  Done                     05/03/2018 08:37:20
00002 suncat0088 pw.x -npool 4 -i  Done                     05/03/2018 08:37:20
00003 suncat0088 pw.x -npool 4 -i  Done                     05/03/2018 08:37:20
00004 suncat0088 pw.x -npool 4 -i  Done                     05/03/2018 08:37:20
00005 suncat0088 pw.x -npool 4 -i  Done                     05/03/2018 08:37:20
00006 suncat0088 pw.x -npool 4 -i  Done                     05/03/2018 08:37:20
00007 suncat0088 pw.x -npool 4 -i  Done                     05/03/2018 08:37:20
00008 suncat0066 pw.x -npool 4 -i  Done                     05/03/2018 08:37:20
00009 suncat0066 pw.x -npool 4 -i  Done                     05/03/2018 08:37:20
00010 suncat0066 pw.x -npool 4 -i  Done                     05/03/2018 08:37:20
00011 suncat0066 pw.x -npool 4 -i  Done                     05/03/2018 08:37:20
00012 suncat0066 pw.x -npool 4 -i  Done                     05/03/2018 08:37:20
00013 suncat0066 pw.x -npool 4 -i  Done                     05/03/2018 08:37:20
00014 suncat0066 pw.x -npool 4 -i  Done                     05/03/2018 08:37:20
00015 suncat0066 pw.x -npool 4 -i  Done                     05/03/2018 08:37:20
00016 suncat0008 pw.x -npool 4 -i  Done                     05/03/2018 08:37:20
00017 suncat0008 pw.x -npool 4 -i  Done                     05/03/2018 08:37:20
00018 suncat0008 pw.x -npool 4 -i  Done                     05/03/2018 08:37:20
00019 suncat0008 pw.x -npool 4 -i  Done                     05/03/2018 08:37:20
00020 suncat0008 pw.x -npool 4 -i  Done                     05/03/2018 08:37:20
00021 suncat0008 pw.x -npool 4 -i  Done                     05/03/2018 08:37:20
00022 suncat0008 pw.x -npool 4 -i  Done                     05/03/2018 08:37:20
00023 suncat0008 pw.x -npool 4 -i  Done                     05/03/2018 08:37:20
00024 suncat0001 pw.x -npool 4 -i  Done                     05/03/2018 08:37:20
00025 suncat0001 pw.x -npool 4 -i  Done                     05/03/2018 08:37:20
00026 suncat0001 pw.x -npool 4 -i  Done                     05/03/2018 08:37:20
00027 suncat0001 pw.x -npool 4 -i  Done                     05/03/2018 08:37:20
00028 suncat0001 pw.x -npool 4 -i  Done                     05/03/2018 08:37:20
00029 suncat0001 pw.x -npool 4 -i  Done                     05/03/2018 08:37:20
00030 suncat0001 pw.x -npool 4 -i  Done                     05/03/2018 08:37:20
00031 suncat0001 pw.x -npool 4 -i  Done                     05/03/2018 08:37:20