     Program PWSCF v.5.1rc2 (svn rev. 11289) starts on 24Apr2018 at 23:31:56

     Current dimensions of program PWSCF are:
     Max number of different atomic species (ntypx) = 10
     Max number of k-points (npk) =  40000
     Max angular momentum in pseudopotentials (lmaxx) =  3
     Presently stress not available with electric field

     IMPORTANT: XC functional enforced from input :
     Exchange-correlation      = BEEF-VDW ( 1  4 27 13 2)
     Any further DFT definition will be discarded
     Please, verify this is what you really want

     Subspace diagonalization in iterative solution of the eigenvalue problem:
     a serial algorithm will be used

     bravais-lattice index     =            0
     lattice parameter (alat)  =       1.8897  a.u.
     unit-cell volume          =    7725.1200 (a.u.)^3
     number of atoms/cell      =           14
     number of atomic types    =            3
     number of electrons       =       139.00
     number of Kohn-Sham states=           79
     kinetic-energy cutoff     =      36.7493  Ry
     charge density cutoff     =     367.4932  Ry
     convergence threshold     =      1.0E-05
     mixing beta               =       0.3000
     number of iterations used =           10  plain     mixing
     Exchange-correlation      = BEEF-VDW ( 1  4 27 13 2)
     nstep                     =           50

     celldm(1)=   1.889726  celldm(2)=   0.000000  celldm(3)=   0.000000
     celldm(4)=   0.000000  celldm(5)=   0.000000  celldm(6)=   0.000000

     crystal axes: (cart. coord. in units of alat)
               a(1) = (   7.152277   0.000000   0.000000 )
               a(2) = (   3.576139   6.194054   0.000000 )
               a(3) = (   0.000000   0.000000  25.839810 )

     reciprocal axes: (cart. coord. in units 2 pi/alat)
               b(1) = (  0.139816 -0.080723  0.000000 )
               b(2) = (  0.000000  0.161445  0.000000 )
               b(3) = (  0.000000  0.000000  0.038700 )

     PseudoPot. # 1 for Y  read from file:
     /u/if/mamunm/psp/gbrv1.5pbe/Y.UPF
     MD5 check sum: d034151ed7554c50b6e82763ed42c788
     Pseudo is Ultrasoft + core correction, Zval = 11.0
     Generated by new atomic code, or converted to UPF format
     Using radial grid of  885 points,  6 beta functions with:
                l(1) =   0
                l(2) =   0
                l(3) =   1
                l(4) =   1
                l(5) =   2
                l(6) =   2
     Q(r) pseudized with  8 coefficients,  rinner =    1.200   1.200   1.200
                                                       1.200   1.200

     PseudoPot. # 2 for S  read from file:
     /u/if/mamunm/psp/gbrv1.5pbe/S.UPF
     MD5 check sum: 88d86576ff6df21479756cfb9bdac1df
     Pseudo is Ultrasoft + core correction, Zval =  6.0
     Generated by new atomic code, or converted to UPF format
     Using radial grid of  907 points,  6 beta functions with:
                l(1) =   0
                l(2) =   0
                l(3) =   1
                l(4) =   1
                l(5) =   2
                l(6) =   2
     Q(r) pseudized with  8 coefficients,  rinner =    1.300   1.300   1.300
                                                       1.300   1.300

     PseudoPot. # 3 for H  read from file:
     /u/if/mamunm/psp/gbrv1.5pbe/H.UPF
     MD5 check sum: 761ae9a214b05c3daf00ab9f6b793d6f
     Pseudo is Ultrasoft, Zval =  1.0
     Generated by new atomic code, or converted to UPF format
     Using radial grid of  615 points,  2 beta functions with:
                l(1) =   0
                l(2) =   0
     Q(r) pseudized with  8 coefficients,  rinner =    0.700

     vdW kernel table read from file vdW_kernel_table
     MD5 check sum: 095c7af220d748ca6e76c0b4c6cfb241

     atomic species   valence    mass     pseudopotential
        Y1            11.00    88.90584     Y ( 1.00)
        S1             6.00    32.06000     S ( 1.00)
        H1             1.00     1.00800     H ( 1.00)

     No symmetry found

   Cartesian axes

     site n.     atom                  positions (alat units)
         1           Y1  tau(   1) = (   1.7880693   1.0323423  10.0000000  )
         2           Y1  tau(   2) = (   5.3642080   1.0323423  10.0000000  )
         3           Y1  tau(   3) = (   3.5761386   4.1293692  10.0000000  )
         4           Y1  tau(   4) = (   7.1522773   4.1293692  10.0000000  )
         5           Y1  tau(   5) = (   7.1522773   2.0646846  12.9199050  )
         6           Y1  tau(   6) = (   3.5761386   2.0646846  12.9199050  )
         7           Y1  tau(   7) = (   8.9403466   5.1617115  12.9199050  )
         8           Y1  tau(   8) = (   5.3642080   5.1617115  12.9199050  )
         9           Y1  tau(   9) = (   0.0000000   0.0000000  15.8398100  )
        10           Y1  tau(  10) = (   3.5761386   0.0000000  15.8398100  )
        11           Y1  tau(  11) = (   1.7880693   3.0970269  15.8398100  )
        12           Y1  tau(  12) = (   5.3642080   3.0970269  15.8398100  )
        13           S1  tau(  13) = (   3.5761386   2.0646846  17.7573100  )
        14           H1  tau(  14) = (   3.5761386   2.0646846  19.0073100  )

     number of k points=    20  Fermi-Dirac smearing, width (Ry)=  0.0110
                       cart. coord. in units 2pi/alat
        k(    1) = (   0.0000000   0.0000000   0.0000000), wk =   0.0555556
        k(    2) = (   0.0000000   0.0269075   0.0000000), wk =   0.1111111
        k(    3) = (   0.0000000   0.0538151   0.0000000), wk =   0.1111111
        k(    4) = (   0.0000000  -0.0807226   0.0000000), wk =   0.0555556
        k(    5) = (   0.0233026  -0.0134538   0.0000000), wk =   0.1111111
        k(    6) = (   0.0233026   0.0134538   0.0000000), wk =   0.1111111
        k(    7) = (   0.0233026   0.0403613   0.0000000), wk =   0.1111111
        k(    8) = (   0.0233026  -0.0941763   0.0000000), wk =   0.1111111
        k(    9) = (   0.0233026  -0.0672688   0.0000000), wk =   0.1111111
        k(   10) = (   0.0233026  -0.0403613   0.0000000), wk =   0.1111111
        k(   11) = (   0.0466052  -0.0269075   0.0000000), wk =   0.1111111
        k(   12) = (   0.0466052   0.0000000   0.0000000), wk =   0.1111111
        k(   13) = (   0.0466052   0.0269075   0.0000000), wk =   0.1111111
        k(   14) = (   0.0466052  -0.1076301   0.0000000), wk =   0.1111111
        k(   15) = (   0.0466052  -0.0807226   0.0000000), wk =   0.1111111
        k(   16) = (   0.0466052  -0.0538151   0.0000000), wk =   0.1111111
        k(   17) = (  -0.0699078   0.0403613   0.0000000), wk =   0.0555556
        k(   18) = (  -0.0699078   0.0672688   0.0000000), wk =   0.1111111
        k(   19) = (  -0.0699078   0.0941763   0.0000000), wk =   0.1111111
        k(   20) = (  -0.0699078  -0.0403613   0.0000000), wk =   0.0555556

     Largest allocated arrays     est. size (Mb)     dimensions
     Largest temporary arrays     est. size (Mb)     dimensions

     Initial potential from superposition of free atoms
     Check: negative starting charge=   -0.000495

     starting charge  138.94632, renormalised to  139.00000

     negative rho (up, down):  4.955E-04 0.000E+00

     *
     * You are using vdW-DF for exchange-correlation in this calculation.
     * Please cite the following three references that made this development
     * possible:
     *
     *   M. Dion, H. Rydberg, E. Schroder, D. C. Langreth, and
     *   B. I. Lundqvist, Phys. Rev. Lett. 92, 246401 (2004).
     *
     *   T. Thonhauser, V. R. Cooper, S. Li, A. Puzder, P. Hyldgaard, and
     *   D. C. Langreth, Phys. Rev. B 76, 125112 (2007).
     *
     *   G. Roman-Perez and J. M. Soler, Phys. Rev. Lett. 103, 096102 (2009).
     *
     *
     * If you are using vdW-DF2, please also cite:
     *
     *   K. Lee, E. D. Murray, L. Kong, B. I. Lundqvist, and
     *   D. C. Langreth, Phys. Rev. B 82, 081101(R) (2010).
     *
     *
     * If you are calculating the stress with vdW-DF, please also cite:
     *
     *   R. Sabatini, E. Kucukbenli, B. Kolb, T. Thonhauser, and
     *   S. de Gironcoli, J. Phys.: Condens. Matter 24, 424209 (2012).
     *

     Carrying out vdW-DF run using the following parameters:

     Nqs =      20    Nr_points =    1024   r_max =   100.000
     q_mesh =
               0.00001000     0.04494208     0.09755937     0.15916263
               0.23128650     0.31572767     0.41458969     0.53033537
               0.66584808     0.82450364     1.01025438     1.22772762
               1.48234092     1.78043706     2.12944203     2.53805004
               3.01644009     3.57652955     4.23227104     5.00000000

     Gradients computed in reciprocal space

     Adding external electric field

     Computed dipole along edir(3) :
        Dipole               -0.0252 Ry au,         -0.0640 Debye
        Dipole field         -0.0000 Ry au

        Potential amp.        0.0039 Ry
        Total length         47.6094 bohr

     Starting wfc are  161 randomized atomic wfcs

     Self-consistent Calculation

     iteration #  1     ecut=    36.75 Ry     beta=0.30
     Davidson diagonalization with overlap
     ethr =  1.00E-02,  avg # of iterations =  2.0

[...]

     total energy              =   -1148.22295183 Ry
     Harris-Foulkes estimate   =   -1150.44727449 Ry
     estimated scf accuracy    <       4.77230872 Ry

[...]

     End of self-consistent calculation

          k = 0.0000 0.0000 0.0000 ( 28997 PWs)   bands (ev):

   -42.0719 -42.0180 -41.9765 -41.9747 -41.9744 -41.9002 -41.8695 -41.8692
   -41.4693 -41.4303 -41.4301 -41.4160 -22.1333 -22.1266 -22.1265 -22.1227
   -22.1085 -22.1084 -22.0545 -22.0478 -21.9829 -21.9807 -21.9804 -21.9323
   -21.8814 -21.8812 -21.7989 -21.7987 -21.7977 -21.7687 -21.7687 -21.7182
   -21.6993 -21.6993 -21.6235 -21.6234 -21.5880 -21.5793 -21.5792 -21.3786
   -21.3557 -21.3555 -21.3334 -21.2917 -21.2838 -21.2837 -21.1892 -21.1892
   -13.6343  -6.3456  -2.8965  -2.7452  -2.7452  -1.9189  -0.9412  -0.2875
    -0.2176  -0.2176  -0.1633  -0.1632  -0.0941   0.2031   0.2038   0.2038
     0.6236   0.6467   0.6467   1.1034   1.1035   1.1495   1.4772   1.5583
     1.9083   1.9895   1.9895   2.0313   2.2278   2.2278   2.4746

[...]

          k =-0.0699 0.0404 0.0000 ( 29048 PWs)   bands (ev):

[...]

     the Fermi energy is     1.3286 ev

!    total energy              =   -1150.03701908 Ry
     Harris-Foulkes estimate   =   -1150.03701251 Ry
     estimated scf accuracy    <       0.00000719 Ry

     The total energy is the sum of the following terms:

     one-electron contribution =   -5549.54243429 Ry
     hartree contribution      =    2770.12820636 Ry
     xc contribution           =    -348.54062362 Ry
     ewald contribution        =    1978.04633781 Ry
     electric field correction =       0.00006498 Ry
     smearing contrib. (-TS)   =      -0.12857032 Ry

     convergence has been achieved in  16 iterations

 BEEF-vdW xc energy contributions
           1 :   -303.781273237469
           2 :    272.606650726333
           3 :   -218.965478820924
           4 :    156.069191029014
           5 :   -96.2191796988621
           6 :    47.1703268105300
           7 :   -11.5359552450621
           8 :   -11.4534995070024
           9 :    23.6313310374389
          10 :   -26.5709864445203
          11 :    21.6654941901418
          12 :   -10.9458428631871
          13 :   -2.40887940229982
          14 :    14.5023785417752
          15 :   -21.9385692090199
          16 :    23.0581973222290
          17 :   -18.4070835509045
          18 :    10.1793820128656
          19 :   -1.05793021168046
          20 :   -6.81597041469013
          21 :    12.2481743703756
          22 :   -14.8147390933477
          23 :    14.5149715946859
          24 :   -11.6277417114449
          25 :    6.81009108763362
          26 :   -1.19051221463690
          27 :   -3.80517341701329
          28 :    6.91608269572521
          29 :   -7.55051841607968
          30 :    6.00776210532479
          31 :   -29.2683655968345
          32 :   -20.0085866371145

     Forces acting on atoms (Ry/au):

     negative rho (up, down):  1.744E-05 0.000E+00
     atom    1 type  1   force =    -0.00038052   -0.00023941    0.00536257
     atom    2 type  1   force =     0.00039106   -0.00025304    0.00536863
     atom    3 type  1   force =    -0.00002368    0.00047156    0.00536515
     atom    4 type  1   force =     0.00001682    0.00002611    0.00491112
     atom    5 type  1   force =     0.00006470   -0.00099641    0.00000991
     atom    6 type  1   force =    -0.00008153    0.00006683    0.00323212
     atom    7 type  1   force =     0.00089043    0.00043801   -0.00001350
     atom    8 type  1   force =    -0.00088834    0.00050962   -0.00007191
     atom    9 type  1   force =    -0.00001868   -0.00004105   -0.01564495
     atom   10 type  1   force =     0.00001907    0.00002564   -0.00037931
     atom   11 type  1   force =     0.00004287    0.00000755   -0.00036950
     atom   12 type  1   force =    -0.00003724   -0.00001357   -0.00036848
     atom   13 type  2   force =     0.00000230    0.00000069   -0.13785857
     atom   14 type  3   force =     0.00000275   -0.00000253    0.13045672

     Total force =     0.190445     Total SCF correction =     0.009307

     entering subroutine stress ...

     negative rho (up, down):  1.744E-05 0.000E+00
          total   stress  (Ry/bohr**3)                   (kbar)     P=    0.01
  -0.00000375  -0.00000001   0.00000001         -0.55     -0.00      0.00
  -0.00000001  -0.00000378  -0.00000001         -0.00     -0.56     -0.00
   0.00000001  -0.00000001   0.00000776          0.00     -0.00      1.14

     BFGS Geometry Optimization

     number of scf cycles    =   1
     number of bfgs steps    =   0

     energy   new            =   -1150.0370190802 Ry

     new trust radius        =       0.1378585733 bohr
     new conv_thr            =       0.0000099958 Ry

ATOMIC_POSITIONS (crystal)
Y1       0.166666667   0.166666667   0.386999750    0   0   0
Y1       0.666666667   0.166666667   0.386999750    0   0   0
Y1       0.166666667   0.666666667   0.386999750    0   0   0
Y1       0.666666667   0.666666667   0.386999750    0   0   0
Y1       0.833333333   0.333333333   0.500000000    0   0   0
Y1       0.333333333   0.333333333   0.500000000    0   0   0
Y1       0.833333333   0.833333333   0.500000000    0   0   0
Y1       0.333333333   0.833333333   0.500000000    0   0   0
Y1       0.000000372  -0.000003507   0.612679854
Y1       0.500000316   0.000002190   0.612992482
Y1       0.000002849   0.500000645   0.612992683
Y1       0.499997824   0.499998841   0.612992704
S1       0.333333474   0.333333393   0.684384226
H1       0.333333645   0.333333117   0.738254063

     Writing output data file calc.save
     Check: negative starting charge=   -0.000495
     NEW-OLD atomic charge density approx. for the potential
     Check: negative starting charge=   -0.000492

[...]

     Total force =     0.029301     Total SCF correction =     0.007821
     SCF correction compared to forces is large: reduce conv_thr to get better values

[...]

     energy   old            =   -1150.0370190802 Ry
     energy   new            =   -1150.0498992260 Ry

     CASE: energy  _new < energy  _old

[...]

     Threshold (ethr) on eigenvalues was too large:
     Diagonalizing with lowered threshold

     Davidson diagonalization with overlap
     ethr =  3.21E-08,  avg # of iterations =  5.4

[...]

     WARNING: bfgs curvature condition failed, Theta= 0.954
     new trust radius        =       0.0023519835 bohr
     new conv_thr            =       0.0000001000 Ry

[...]

     Total force =     0.002204     Total SCF correction =     0.000422
     SCF correction compared to forces is large: reduce conv_thr to get better values

[...]

     number of scf cycles    =  14
     number of bfgs steps    =  13

     energy   old            =   -1150.0530255567 Ry
     energy   new            =   -1150.0530347303 Ry

     CASE: energy  _new < energy  _old

     new trust radius        =       0.0052919629 bohr
     new conv_thr            =       0.0000001000 Ry

ATOMIC_POSITIONS (crystal)
Y1       0.166666667   0.166666667   0.386999750    0   0   0
Y1       0.666666667   0.166666667   0.386999750    0   0   0
Y1       0.166666667   0.666666667   0.386999750    0   0   0
Y1       0.666666667   0.666666667   0.386999750    0   0   0
Y1       0.833333333   0.333333333   0.500000000    0   0   0
Y1       0.333333333   0.333333333   0.500000000    0   0   0
Y1       0.833333333   0.833333333   0.500000000    0   0   0
Y1       0.333333333   0.833333333   0.500000000    0   0   0
Y1       0.000000370   0.000000075   0.605953478
Y1       0.500206256  -0.000412389   0.612164242
Y1      -0.000411644   0.500205589   0.612164274
Y1       0.500206835   0.500205504   0.612164283
S1       0.333333610   0.333334116   0.683982120
H1       0.333333673   0.333332477   0.736910872

     Writing output data file calc.save
     Check: negative starting charge=   -0.000492
     NEW-OLD atomic charge density approx. for the potential
     Check: negative starting charge=   -0.000492

[...]

     Self-consistent Calculation

[...]

     Threshold (ethr) on eigenvalues was too large:
     Diagonalizing with lowered threshold

     Davidson diagonalization with overlap
     ethr =  5.15E-08,  avg # of iterations =  2.0

[...]

     total energy              =   -1150.05304569 Ry
     Harris-Foulkes estimate   =   -1150.05304576 Ry
     estimated scf accuracy    <       0.00000031 Ry

     iteration #  9     ecut=    36.75 Ry     beta=0.30
     Davidson diagonalization with overlap
     ethr =  2.20E-10,  avg # of iterations =  7.6

[...]

     negative rho (up, down):  1.738E-05 0.000E+00

     Adding external electric field

     Computed dipole along edir(3) :
        Dipole                0.1536 Ry au,          0.3903 Debye
        Dipole field          0.0002 Ry au

        Potential amp.       -0.0238 Ry
        Total length         47.6094 bohr

     End of self-consistent calculation

[...]

          k = 0.0466-0.0538 0.0000 ( 29098 PWs)   bands (ev):

[...]

          k =-0.0699-0.0404 0.0000 ( 29048 PWs)   bands (ev):

   -42.0352 -42.0267 -42.0100 -42.0053 -41.9432 -41.8851 -41.8723 -41.8630
   -41.4431 -41.4225 -41.4083 -41.4014 -22.0795 -22.0737 -22.0585 -22.0469
   -22.0236 -22.0121 -22.0055 -21.9856 -21.9699 -21.9506 -21.9489 -21.9227
   -21.9173 -21.9135 -21.8966 -21.8772 -21.8583 -21.8361 -21.7986 -21.7972
   -21.7842 -21.7786 -21.6847 -21.6483 -21.5047 -21.4850 -21.3916 -21.3745
   -21.3541 -21.3485 -21.3455 -21.3372 -21.3305 -21.3264 -21.2307 -21.2127
   -13.2239  -6.0201  -2.8923  -2.7640  -1.7392  -1.6847  -0.8558  -0.7513
    -0.0815  -0.0720   0.1021   0.1834   0.3541   0.3672   1.0024   1.0057
     1.0266   1.0548   1.1158   1.1820   1.2835   1.3094   1.3331   1.4014
     1.4271   1.5428   1.6301   1.6789   1.7082   1.8250   1.8259

     the Fermi energy is     1.3030 ev

!    total energy              =   -1150.05304574 Ry
     Harris-Foulkes estimate   =   -1150.05304600 Ry
     estimated scf accuracy    <          8.2E-09 Ry

     The total energy is the sum of the following terms:

     one-electron contribution =   -5603.12702919 Ry
     hartree contribution      =    2796.91557961 Ry
     xc contribution           =    -348.55211044 Ry
     ewald contribution        =    2004.83797997 Ry
     electric field correction =       0.00003836 Ry
     smearing contrib. (-TS)   =      -0.12750406 Ry

     convergence has been achieved in   9 iterations

 BEEF-vdW xc energy contributions
           1 :   -303.799398102220
           2 :    272.653128004505
           3 :   -219.037578974113
           4 :    156.131851846280
           5 :   -96.2345104319430
           6 :    47.1306022960908
           7 :   -11.4704628591122
           8 :   -11.5024918635937
           9 :    23.6414802189439
          10 :   -26.5550729864560
          11 :    21.6583692355498
          12 :   -10.9741434785642
          13 :   -2.35080387243403
          14 :    14.4511326743178
          15 :   -21.9339786774547
          16 :    23.1096655048333
          17 :   -18.4822357648139
          18 :    10.2270544177551
          19 :   -1.04791298707045
          20 :   -6.86981045148605
          21 :    12.3007699522523
          22 :   -14.8267833068879
          23 :    14.4820168957887
          24 :   -11.5786736177469
          25 :    6.77984276550558
          26 :   -1.19217956986455
          27 :   -3.78645426259448
          28 :    6.90533365285495
          29 :   -7.55781667891881
          30 :    6.01689151458220
          31 :   -29.2713017541745
          32 :   -20.0162948521370

     Forces acting on atoms (Ry/au):

     negative rho (up, down):  1.738E-05 0.000E+00
     atom    1 type  1   force =     0.00016224    0.00009325    0.00420058
     atom    2 type  1   force =    -0.00016222    0.00009361    0.00420056
     atom    3 type  1   force =     0.00000034   -0.00018707    0.00420065
     atom    4 type  1   force =    -0.00000011    0.00000015    0.00441073
     atom    5 type  1   force =     0.00000004    0.00015981   -0.00573650
     atom    6 type  1   force =     0.00000033   -0.00000039    0.00307915
     atom    7 type  1   force =    -0.00013842   -0.00007982   -0.00573647
     atom    8 type  1   force =     0.00013866   -0.00008001   -0.00573637
     atom    9 type  1   force =     0.00000022   -0.00000034    0.00020442
     atom   10 type  1   force =    -0.00000053   -0.00027960   -0.00056215
     atom   11 type  1   force =    -0.00024267    0.00014044   -0.00056232
     atom   12 type  1   force =     0.00024214    0.00014082   -0.00056371
     atom   13 type  2   force =    -0.00000024   -0.00000094    0.00013571
     atom   14 type  3   force =     0.00000020    0.00000008   -0.00153430

     Total force =     0.001897     Total SCF correction =     0.000046

     entering subroutine stress ...

     negative rho (up, down):  1.738E-05 0.000E+00
          total   stress  (Ry/bohr**3)                   (kbar)     P=   -0.66
   0.00000142  -0.00000000  -0.00000000          0.21     -0.00     -0.00
  -0.00000000   0.00000142  -0.00000000         -0.00      0.21     -0.00
  -0.00000000  -0.00000000  -0.00001637         -0.00     -0.00     -2.41

     bfgs converged in  15 scf cycles and  14 bfgs steps
     (criteria: energy <  1.0E+00, force <  1.9E-03)

     End of BFGS Geometry Optimization

     Final energy   =   -1150.0530457375 Ry
Begin final coordinates

ATOMIC_POSITIONS (crystal)
Y1       0.166666667   0.166666667   0.386999750    0   0   0
Y1       0.666666667   0.166666667   0.386999750    0   0   0
Y1       0.166666667   0.666666667   0.386999750    0   0   0
Y1       0.666666667   0.666666667   0.386999750    0   0   0
Y1       0.833333333   0.333333333   0.500000000    0   0   0
Y1       0.333333333   0.333333333   0.500000000    0   0   0
Y1       0.833333333   0.833333333   0.500000000    0   0   0
Y1       0.333333333   0.833333333   0.500000000    0   0   0
Y1       0.000000370   0.000000075   0.605953478
Y1       0.500206256  -0.000412389   0.612164242
Y1      -0.000411644   0.500205589   0.612164274
Y1       0.500206835   0.500205504   0.612164283
S1       0.333333610   0.333334116   0.683982120
H1       0.333333673   0.333332477   0.736910872
End final coordinates

     Writing output data file calc.save

     General routines

     Parallel routines

   This run was terminated on:   2: 5:18  25Apr2018

   JOB DONE.
Job  /afs/slac/g/suncat/bin/suncat-tsmpirun -x LD_LIBRARY_PATH -wdir /scratch/qe249668_X2V5m pw.x -npool 4 -in pw.inp

TID   HOST_NAME   COMMAND_LINE            STATUS            TERMINATION_TIME
00000 suncat0055 pw.x -npool 4 -i  Done                     04/25/2018 02:05:18
00001 suncat0055 pw.x -npool 4 -i  Done                     04/25/2018 02:05:18
00002 suncat0055 pw.x -npool 4 -i  Done                     04/25/2018 02:05:18
00003 suncat0055 pw.x -npool 4 -i  Done                     04/25/2018 02:05:18
00004 suncat0055 pw.x -npool 4 -i  Done                     04/25/2018 02:05:18
00005 suncat0055 pw.x -npool 4 -i  Done                     04/25/2018 02:05:18
00006 suncat0055 pw.x -npool 4 -i  Done                     04/25/2018 02:05:18
00007 suncat0055 pw.x -npool 4 -i  Done                     04/25/2018 02:05:18
00008 suncat0183 pw.x -npool 4 -i  Done                     04/25/2018 02:05:18
00009 suncat0183 pw.x -npool 4 -i  Done                     04/25/2018 02:05:18
00010 suncat0183 pw.x -npool 4 -i  Done                     04/25/2018 02:05:18
00011 suncat0183 pw.x -npool 4 -i  Done                     04/25/2018 02:05:18
00012 suncat0183 pw.x -npool 4 -i  Done                     04/25/2018 02:05:18
00013 suncat0183 pw.x -npool 4 -i  Done                     04/25/2018 02:05:18
00014 suncat0183 pw.x -npool 4 -i  Done                     04/25/2018 02:05:18
00015 suncat0183 pw.x -npool 4 -i  Done                     04/25/2018 02:05:18
00016 suncat0280 pw.x -npool 4 -i  Done                     04/25/2018 02:05:18
00017 suncat0280 pw.x -npool 4 -i  Done                     04/25/2018 02:05:18
00018 suncat0280 pw.x -npool 4 -i  Done                     04/25/2018 02:05:18
00019 suncat0280 pw.x -npool 4 -i  Done                     04/25/2018 02:05:18
00020 suncat0280 pw.x -npool 4 -i  Done                     04/25/2018 02:05:18
00021 suncat0280 pw.x -npool 4 -i  Done                     04/25/2018 02:05:18
00022 suncat0280 pw.x -npool 4 -i  Done                     04/25/2018 02:05:18
00023 suncat0280 pw.x -npool 4 -i  Done                     04/25/2018 02:05:18
00024 suncat0254 pw.x -npool 4 -i  Done                     04/25/2018 02:05:18
00025 suncat0254 pw.x -npool 4 -i  Done                     04/25/2018 02:05:18
00026 suncat0254 pw.x -npool 4 -i  Done                     04/25/2018 02:05:18
00027 suncat0254 pw.x -npool 4 -i  Done                     04/25/2018 02:05:18
00028 suncat0254 pw.x -npool 4 -i  Done                     04/25/2018 02:05:18
00029 suncat0254 pw.x -npool 4 -i  Done                     04/25/2018 02:05:18
00030 suncat0254 pw.x -npool 4 -i  Done                     04/25/2018 02:05:18
00031 suncat0254 pw.x -npool 4 -i  Done                     04/25/2018 02:05:18