     Program PWSCF v.5.1rc2 (svn rev. 11289) starts on 11Jan2019 at 23: 1:51

     Current dimensions of program PWSCF are:
     Max number of different atomic species (ntypx) = 10
     Max number of k-points (npk) =  40000
     Max angular momentum in pseudopotentials (lmaxx) =  3

     IMPORTANT: XC functional enforced from input :
     Exchange-correlation      = BEEF-VDW ( 1  4 27 13 2)
     Any further DFT definition will be discarded
     Please, verify this is what you really want

     Subspace diagonalization in iterative solution of the eigenvalue problem:
     a serial algorithm will be used

     bravais-lattice index     =            0
     lattice parameter (alat)  =      12.6383  a.u.
     unit-cell volume          =    6655.4372 (a.u.)^3
     number of atoms/cell      =           13
     number of atomic types    =            2
     number of electrons       =       162.00
     number of Kohn-Sham states=           91
     kinetic-energy cutoff     =      36.7493  Ry
     charge density cutoff     =     367.4933  Ry
     convergence threshold     =      1.0E-04
     mixing beta               =       0.2000
     number of iterations used =            8  plain     mixing
     Exchange-correlation      = BEEF-VDW ( 1  4 27 13 2)
     nstep                     =           50

     celldm(1)=  12.638304  celldm(2)=   0.000000  celldm(3)=   0.000000
     celldm(4)=   0.000000  celldm(5)=   0.000000  celldm(6)=   0.000000

     crystal axes: (cart. coord. in units of alat)
               a(1) = (   1.000000   0.000000   0.000000 )
               a(2) = (   0.500000   0.866025   0.000000 )
               a(3) = (   0.000000   0.000000   3.806971 )

     reciprocal axes: (cart. coord. in units 2 pi/alat)
               b(1) = (  1.000000 -0.577350  0.000000 )
               b(2) = (  0.000000  1.154701  0.000000 )
               b(3) = (  0.000000  0.000000  0.262676 )

     PseudoPot. # 1 for Tl read from file:
     /u/if/jboes/code/decaf-espresso/gbrv15pbe/Tl.UPF
     MD5 check sum: b76cf1f7e72655a2b2c53cf6385d7059
     Pseudo is Ultrasoft + core correction, Zval = 13.0
     Generated by new atomic code, or converted to UPF format
     Using radial grid of  899 points,  6 beta functions with:
                l(1) =   0
                l(2) =   0
                l(3) =   1
                l(4) =   1
                l(5) =   2
                l(6) =   2
     Q(r) pseudized with  6 coefficients,  rinner =    1.100   1.100   1.100
                                                       1.100   1.100

     PseudoPot. # 2 for O  read from file:
     /u/if/jboes/code/decaf-espresso/gbrv15pbe/O.UPF
     MD5 check sum: 734c27235a0248c51dbae37a1fbe46ec
     Pseudo is Ultrasoft + core correction, Zval =  6.0
     Generated by new atomic code, or converted to UPF format
     Using radial grid of  737 points,  5 beta functions with:
                l(1) =   0
                l(2) =   0
                l(3) =   1
                l(4) =   1
                l(5) =   2
     Q(r) pseudized with  8 coefficients,  rinner =    0.900   0.900   0.900
                                                       0.900   0.900

     vdW kernel table read from file vdW_kernel_table
     MD5 check sum: 095c7af220d748ca6e76c0b4c6cfb241

     atomic species   valence    mass     pseudopotential
        Tl            13.00   204.38000     Tl( 1.00)
        O              6.00    15.99900     O ( 1.00)

     No symmetry found

   Cartesian axes

     site n.     atom                  positions (alat units)
         1           Tl  tau(   1) = (   0.2500000   0.1443376   1.4952371  )
         2           Tl  tau(   2) = (   0.7500000   0.1443376   1.4952371  )
         3           Tl  tau(   3) = (   0.5000000   0.5773503   1.4952371  )
         4           Tl  tau(   4) = (   1.0000000   0.5773503   1.4952371  )
         5           Tl  tau(   5) = (   1.0000000   0.2886751   1.9034854  )
         6           Tl  tau(   6) = (   0.5000000   0.2886751   1.9034854  )
         7           Tl  tau(   7) = (   1.2500000   0.7216878   1.9034854  )
         8           Tl  tau(   8) = (   0.7500000   0.7216878   1.9034854  )
         9           Tl  tau(   9) = (   0.0000203  -0.0000593   2.3102072  )
        10           Tl  tau(  10) = (   0.4999999   0.0000896   2.5955685  )
        11           Tl  tau(  11) = (   0.2501519   0.4329166   2.5956204  )
        12           Tl  tau(  12) = (   0.7499477   0.4329049   2.5957261  )
        13           O   tau(  13) = (   0.0000044   0.0000468   2.6327546  )

     number of k points=    20  Fermi-Dirac smearing, width (Ry)=  0.0110
                       cart. coord. in units 2pi/alat
        k(    1) = (   0.0000000   0.0000000   0.0000000), wk =   0.0555556
        k(    2) = (   0.0000000   0.1924501   0.0000000), wk =   0.1111111
        k(    3) = (   0.0000000   0.3849002   0.0000000), wk =   0.1111111
        k(    4) = (   0.0000000  -0.5773503   0.0000000), wk =   0.0555556
        k(    5) = (   0.1666667  -0.0962250   0.0000000), wk =   0.1111111
        k(    6) = (   0.1666667   0.0962250   0.0000000), wk =   0.1111111
        k(    7) = (   0.1666667   0.2886751   0.0000000), wk =   0.1111111
        k(    8) = (   0.1666667  -0.6735753   0.0000000), wk =   0.1111111
        k(    9) = (   0.1666667  -0.4811252   0.0000000), wk =   0.1111111
        k(   10) = (   0.1666667  -0.2886751   0.0000000), wk =   0.1111111
        k(   11) = (   0.3333333  -0.1924501   0.0000000), wk =   0.1111111
        k(   12) = (   0.3333333  -0.0000000   0.0000000), wk =   0.1111111
        k(   13) = (   0.3333333   0.1924501   0.0000000), wk =   0.1111111
        k(   14) = (   0.3333333  -0.7698004   0.0000000), wk =   0.1111111
        k(   15) = (   0.3333333  -0.5773503   0.0000000), wk =   0.1111111
        k(   16) = (   0.3333333  -0.3849002   0.0000000), wk =   0.1111111
        k(   17) = (  -0.5000000   0.2886751   0.0000000), wk =   0.0555556
        k(   18) = (  -0.5000000   0.4811252   0.0000000), wk =   0.1111111
        k(   19) = (  -0.5000000   0.6735753   0.0000000), wk =   0.1111111
        k(   20) = (  -0.5000000  -0.2886751   0.0000000), wk =   0.0555556

     Largest allocated arrays     est. size (Mb)     dimensions
     Largest temporary arrays     est. size (Mb)     dimensions

     Check: negative/imaginary core charge=   -0.000002    0.000000

     Initial potential from superposition of free atoms
     Check: negative starting charge=   -0.604376

     starting charge  161.94161, renormalised to  162.00000

     negative rho (up, down):  6.046E-01 0.000E+00

     *
     * You are using vdW-DF for exchange-correlation in this calculation.
     * Please cite the following three references that made this development
     * possible:
     *
     *   M. Dion, H. Rydberg, E. Schroder, D. C. Langreth, and
     *   B. I. Lundqvist, Phys. Rev. Lett. 92, 246401 (2004).
     *
     *   T. Thonhauser, V. R. Cooper, S. Li, A. Puzder, P. Hyldgaard, and
     *   D. C. Langreth, Phys. Rev. B 76, 125112 (2007).
     *
     *   G. Roman-Perez and J. M. Soler, Phys. Rev. Lett. 103, 096102 (2009).
     *
     *
     * If you are using vdW-DF2, please also cite:
     *
     *   K. Lee, E. D. Murray, L. Kong, B. I. Lundqvist, and
     *   D. C. Langreth, Phys. Rev. B 82, 081101(R) (2010).
     *
     *
     * If you are calculating the stress with vdW-DF, please also cite:
     *
     *   R. Sabatini, E. Kucukbenli, B. Kolb, T. Thonhauser, and
     *   S. de Gironcoli, J. Phys.: Condens. Matter 24, 424209 (2012).
     *

     Carrying out vdW-DF run using the following parameters:

     Nqs =      20    Nr_points =    1024   r_max =   100.000
     q_mesh =
               0.00001000     0.04494208     0.09755937     0.15916263
               0.23128650     0.31572767     0.41458969     0.53033537
               0.66584808     0.82450364     1.01025438     1.22772762
               1.48234092     1.78043706     2.12944203     2.53805004
               3.01644009     3.57652955     4.23227104     5.00000000

     Gradients computed in reciprocal space

     Adding external electric field

     Computed dipole along edir(3) :
        Dipole               -0.0180 Ry au,         -0.0457 Debye
        Dipole field         -0.0000 Ry au

        Potential amp.        0.0029 Ry
        Total length         43.3023 bohr

     Starting wfc are  112 randomized atomic wfcs

     Self-consistent Calculation

     iteration #  1     ecut=    36.75 Ry     beta=0.20
     Davidson diagonalization with overlap
     ethr =  1.00E-02,  avg # of iterations =  2.0

[...]

     total energy              =   -1793.72591989 Ry
     Harris-Foulkes estimate   =   -1794.26985593 Ry
     estimated scf accuracy    <       1.67331144 Ry

[...]

     End of self-consistent calculation

          k = 0.0000 0.0000 0.0000 ( 24957 PWs)   bands (ev):

   -15.2903 -11.2184 -11.2064 -11.1991 -11.1991 -11.1020 -11.1020 -11.0846
   -11.0777 -11.0550 -11.0550 -11.0434 -11.0376 -11.0376 -10.9923 -10.9421
   -10.8839 -10.8839 -10.8829 -10.8745 -10.8745 -10.8598 -10.8529 -10.8529
   -10.8295 -10.8295 -10.7499 -10.7498 -10.7483 -10.7296 -10.7172 -10.7172
   -10.6907 -10.6907 -10.5966 -10.5965 -10.5794 -10.5794 -10.5194 -10.5194
   -10.4750 -10.4461 -10.4461 -10.4405 -10.4227 -10.4164 -10.4164 -10.3918
   -10.3918 -10.3697 -10.3332 -10.3332 -10.2934 -10.2881 -10.2881 -10.2613
   -10.2509 -10.2509 -10.1518 -10.1518  -9.9924  -8.6037  -6.6121  -6.1446
    -4.2801  -4.0171  -4.0170  -3.9572  -3.3032  -3.3031  -3.1366  -3.1365
    -3.0600  -1.1648  -1.1648  -0.9679  -0.7563  -0.7563  -0.7429  -0.4454
    -0.2086   0.0598   0.0598   0.9719   1.2901   2.1448   2.1452   3.3894
     3.3894   3.4367   3.7637

[...]

          k =-0.5000 0.2887 0.0000 ( 25090 PWs)   bands (ev):

[...]

     the Fermi energy is     1.2112 ev

!    total energy              =   -1793.99179749 Ry
     Harris-Foulkes estimate   =   -1793.99177064 Ry
     estimated scf accuracy    <       0.00007132 Ry

     The total energy is the sum of the following terms:

     one-electron contribution =   -7236.77603775 Ry
     hartree contribution      =    3704.44769110 Ry
     xc contribution           =    -775.57032534 Ry
     ewald contribution        =    2513.95356742 Ry
     electric field correction =       0.00002548 Ry
     smearing contrib. (-TS)   =      -0.04671840 Ry

     convergence has been achieved in  10 iterations

     Forces acting on atoms (Ry/au):

     negative rho (up, down):  6.296E-01 0.000E+00
     atom    1 type  1   force =     0.00054774    0.00033228   -0.02666984
     atom    2 type  1   force =    -0.00054539    0.00039682   -0.02665752
     atom    3 type  1   force =     0.00000086   -0.00064278   -0.02659919
     atom    4 type  1   force =    -0.00001874   -0.00000901   -0.02729115
     atom    5 type  1   force =     0.00000270    0.01381808    0.02389969
     atom    6 type  1   force =    -0.00001638    0.00004463    0.03258650
     atom    7 type  1   force =    -0.01195454   -0.00694966    0.02388396
     atom    8 type  1   force =     0.01196779   -0.00693990    0.02391806
     atom    9 type  1   force =     0.00002860   -0.00002436    0.00140706
     atom   10 type  1   force =     0.00000734   -0.00025107    0.00236415
     atom   11 type  1   force =    -0.00024587    0.00013854    0.00233186
     atom   12 type  1   force =     0.00023003    0.00006638    0.00236609
     atom   13 type  2   force =    -0.00000414    0.00002007   -0.00553967

     Total force =     0.007035     Total SCF correction =     0.008427
     SCF correction compared to forces is large: reduce conv_thr to get better values

     BFGS Geometry Optimization

     number of scf cycles    =   1
     number of bfgs steps    =   0

     energy   new            =   -1793.9917974865 Ry

     new trust radius        =       0.0055397033 bohr
     new conv_thr            =       0.0001000000 Ry

ATOMIC_POSITIONS (angstrom)
Tl       1.671975640   0.965315586  10.000000000    0   0   0
Tl       5.015926920   0.965315586  10.000000000    0   0   0
Tl       3.343951280   3.861262344  10.000000000    0   0   0
Tl       6.687902560   3.861262344  10.000000000    0   0   0
Tl       6.687902560   1.930631172  12.730324787    0   0   0
Tl       3.343951280   1.930631172  12.730324787    0   0   0
Tl       8.359878201   4.826577929  12.730324787    0   0   0
Tl       5.015926920   4.826577929  12.730324787    0   0   0
Tl       0.000150938  -0.000409267  15.451185290
Tl       3.343954531   0.000466414  17.360160234
Tl       1.672861429   2.895377151  17.360490457
Tl       5.015699154   2.895260867  17.361215252
O        0.000027517   0.000323566  17.604675048

     Writing output data file calc.save
     Check: negative starting charge=   -0.604376
     NEW-OLD atomic charge density approx. for the potential

     Check: negative/imaginary core charge=   -0.000002    0.000000
     Check: negative starting charge=   -0.604280

[...]

     energy   old            =   -1793.9917974865 Ry
     energy   new            =   -1793.9918927567 Ry

     CASE: energy  _new < energy  _old

[...]

     Threshold (ethr) on eigenvalues was too large:
     Diagonalizing with lowered threshold

     Davidson diagonalization with overlap
     ethr =  9.33E-08,  avg # of iterations =  1.2

[...]

     number of scf cycles    =   4
     number of bfgs steps    =   3

     energy   old            =   -1793.9919802211 Ry
     energy   new            =   -1793.9919870849 Ry

     CASE: energy  _new < energy  _old

     new trust radius        =       0.0078397916 bohr
     new conv_thr            =       0.0000010000 Ry

ATOMIC_POSITIONS (angstrom)
Tl       1.671975640   0.965315586  10.000000000    0   0   0
Tl       5.015926920   0.965315586  10.000000000    0   0   0
Tl       3.343951280   3.861262344  10.000000000    0   0   0
Tl       6.687902560   3.861262344  10.000000000    0   0   0
Tl       6.687902560   1.930631172  12.730324787    0   0   0
Tl       3.343951280   1.930631172  12.730324787    0   0   0
Tl       8.359878201   4.826577930  12.730324787    0   0   0
Tl       5.015926920   4.826577930  12.730324787    0   0   0
Tl       0.000185298  -0.000448317  15.456488465
Tl       3.343973481  -0.000020710  17.362442681
Tl       1.672405613   2.895627552  17.362753500
Tl       5.016142804   2.895386660  17.363517387
O        0.000007419   0.000410642  17.594396388

     Writing output data file calc.save
     Check: negative starting charge=   -0.604509
     NEW-OLD atomic charge density approx. for the potential

     Check: negative/imaginary core charge=   -0.000002    0.000000
     Check: negative starting charge=   -0.604351

[...]

     Self-consistent Calculation

[...]

     Threshold (ethr) on eigenvalues was too large:
     Diagonalizing with lowered threshold

     Davidson diagonalization with overlap
     ethr =  5.52E-08,  avg # of iterations =  2.3

[...]

     total energy              =   -1793.99199862 Ry
     Harris-Foulkes estimate   =   -1793.99199925 Ry
     estimated scf accuracy    <       0.00000189 Ry

     iteration #  5     ecut=    36.75 Ry     beta=0.20
     Davidson diagonalization with overlap
     ethr =  1.16E-09,  avg # of iterations =  4.5

     negative rho (up, down):  6.296E-01 0.000E+00

     Adding external electric field

     Computed dipole along edir(3) :
        Dipole               -0.0915 Ry au,         -0.2325 Debye
        Dipole field         -0.0002 Ry au

        Potential amp.        0.0150 Ry
        Total length         43.3023 bohr

     End of self-consistent calculation

[...]

          k = 0.3333-0.3849 0.0000 ( 25036 PWs)   bands (ev):

[...]

          k =-0.5000-0.2887 0.0000 ( 25090 PWs)   bands (ev):

   -15.3690 -11.1224 -11.0745 -11.0669 -10.9799 -10.9697 -10.9596 -10.9494
   -10.9440 -10.9420 -10.9291 -10.9272 -10.9055 -10.8948 -10.8482 -10.8416
   -10.8381 -10.8283 -10.8273 -10.8228 -10.8149 -10.8132 -10.8128 -10.8064
   -10.8027 -10.7996 -10.7730 -10.7702 -10.7674 -10.7575 -10.7570 -10.7151
   -10.6975 -10.6926 -10.6695 -10.6664 -10.6511 -10.6400 -10.6317 -10.5901
   -10.5825 -10.5695 -10.5519 -10.5501 -10.5387 -10.5219 -10.5216 -10.5116
   -10.5079 -10.4957 -10.4467 -10.4136 -10.4114 -10.3918 -10.3607 -10.3482
   -10.3116 -10.3112 -10.1736 -10.1524  -9.9741  -7.3499  -7.2567  -5.9251
    -5.5495  -5.0041  -4.9618  -4.7614  -4.7578  -3.9074  -3.6767  -3.0181
    -2.9350  -0.4312  -0.3857  -0.2211   0.3449   0.8954   0.9451   0.9914
     1.5079   1.5843   1.6108   1.7578   2.1812   2.3950   3.0253   3.2270
     3.5335   3.6939   4.0400

     the Fermi energy is     1.2146 ev

!    total energy              =   -1793.99199863 Ry
     Harris-Foulkes estimate   =   -1793.99199808 Ry
     estimated scf accuracy    <       0.00000053 Ry

     The total energy is the sum of the following terms:

     one-electron contribution =   -7235.13027368 Ry
     hartree contribution      =    3703.72047262 Ry
     xc contribution           =    -775.58912242 Ry
     ewald contribution        =    2513.05357070 Ry
     electric field correction =       0.00001580 Ry
     smearing contrib. (-TS)   =      -0.04666165 Ry

     convergence has been achieved in   5 iterations

     Forces acting on atoms (Ry/au):

     negative rho (up, down):  6.296E-01 0.000E+00
     atom    1 type  1   force =     0.00071225    0.00041464   -0.02286838
     atom    2 type  1   force =    -0.00071294    0.00041303   -0.02286931
     atom    3 type  1   force =    -0.00000136   -0.00082164   -0.02286415
     atom    4 type  1   force =     0.00000209   -0.00000316   -0.02461876
     atom    5 type  1   force =    -0.00000021    0.01107254    0.02034582
     atom    6 type  1   force =     0.00000065   -0.00000117    0.02939851
     atom    7 type  1   force =    -0.00959527   -0.00553520    0.02034031
     atom    8 type  1   force =     0.00959642   -0.00553636    0.02033616
     atom    9 type  1   force =     0.00000286   -0.00001968    0.00091833
     atom   10 type  1   force =     0.00000700   -0.00013557    0.00070171
     atom   11 type  1   force =    -0.00012305    0.00006326    0.00071415
     atom   12 type  1   force =     0.00012329    0.00003274    0.00072180
     atom   13 type  2   force =    -0.00001172    0.00005658   -0.00025619

     Total force =     0.001578     Total SCF correction =     0.001675
     SCF correction compared to forces is large: reduce conv_thr to get better values

     bfgs converged in   5 scf cycles and   4 bfgs steps
     (criteria: energy <  1.0E+12, force <  1.9E-03)

     End of BFGS Geometry Optimization

     Final energy   =   -1793.9919986307 Ry
Begin final coordinates

ATOMIC_POSITIONS (angstrom)
Tl       1.671975640   0.965315586  10.000000000    0   0   0
Tl       5.015926920   0.965315586  10.000000000    0   0   0
Tl       3.343951280   3.861262344  10.000000000    0   0   0
Tl       6.687902560   3.861262344  10.000000000    0   0   0
Tl       6.687902560   1.930631172  12.730324787    0   0   0
Tl       3.343951280   1.930631172  12.730324787    0   0   0
Tl       8.359878201   4.826577930  12.730324787    0   0   0
Tl       5.015926920   4.826577930  12.730324787    0   0   0
Tl       0.000185298  -0.000448317  15.456488465
Tl       3.343973481  -0.000020710  17.362442681
Tl       1.672405613   2.895627552  17.362753500
Tl       5.016142804   2.895386660  17.363517387
O        0.000007419   0.000410642  17.594396388
End final coordinates

     Writing output data file calc.save

     General routines

     Parallel routines

   This run was terminated on:  23:21:41  11Jan2019

   JOB DONE.
Job  /afs/slac/g/suncat/bin/suncat-tsmpirun -x LD_LIBRARY_PATH -wdir /tmp/qe_673728szl_eq36_scratch pw.x -npool 4 -in pw.pwi

TID   HOST_NAME   COMMAND_LINE            STATUS            TERMINATION_TIME
00000 suncat0190 pw.x -npool 4 -i  Done                     01/11/2019 23:21:41
00001 suncat0190 pw.x -npool 4 -i  Done                     01/11/2019 23:21:41
00002 suncat0190 pw.x -npool 4 -i  Done                     01/11/2019 23:21:41
00003 suncat0190 pw.x -npool 4 -i  Done                     01/11/2019 23:21:41
00004 suncat0190 pw.x -npool 4 -i  Done                     01/11/2019 23:21:41
00005 suncat0190 pw.x -npool 4 -i  Done                     01/11/2019 23:21:41
00006 suncat0190 pw.x -npool 4 -i  Done                     01/11/2019 23:21:41
00007 suncat0190 pw.x -npool 4 -i  Done                     01/11/2019 23:21:41
00008 suncat0005 pw.x -npool 4 -i  Done                     01/11/2019 23:21:41
00009 suncat0005 pw.x -npool 4 -i  Done                     01/11/2019 23:21:41
00010 suncat0005 pw.x -npool 4 -i  Done                     01/11/2019 23:21:41
00011 suncat0005 pw.x -npool 4 -i  Done                     01/11/2019 23:21:41
00012 suncat0005 pw.x -npool 4 -i  Done                     01/11/2019 23:21:41
00013 suncat0005 pw.x -npool 4 -i  Done                     01/11/2019 23:21:41
00014 suncat0005 pw.x -npool 4 -i  Done                     01/11/2019 23:21:41
00015 suncat0005 pw.x -npool 4 -i  Done                     01/11/2019 23:21:41
00016 suncat0188 pw.x -npool 4 -i  Done                     01/11/2019 23:21:41
00017 suncat0188 pw.x -npool 4 -i  Done                     01/11/2019 23:21:41
00018 suncat0188 pw.x -npool 4 -i  Done                     01/11/2019 23:21:41
00019 suncat0188 pw.x -npool 4 -i  Done                     01/11/2019 23:21:41
00020 suncat0188 pw.x -npool 4 -i  Done                     01/11/2019 23:21:41
00021 suncat0188 pw.x -npool 4 -i  Done                     01/11/2019 23:21:41
00022 suncat0188 pw.x -npool 4 -i  Done                     01/11/2019 23:21:41
00023 suncat0188 pw.x -npool 4 -i  Done                     01/11/2019 23:21:41
00024 suncat0267 pw.x -npool 4 -i  Done                     01/11/2019 23:21:41
00025 suncat0267 pw.x -npool 4 -i  Done                     01/11/2019 23:21:41
00026 suncat0267 pw.x -npool 4 -i  Done                     01/11/2019 23:21:41
00027 suncat0267 pw.x -npool 4 -i  Done                     01/11/2019 23:21:41
00028 suncat0267 pw.x -npool 4 -i  Done                     01/11/2019 23:21:41
00029 suncat0267 pw.x -npool 4 -i  Done                     01/11/2019 23:21:41
00030 suncat0267 pw.x -npool 4 -i  Done                     01/11/2019 23:21:41
00031 suncat0267 pw.x -npool 4 -i  Done                     01/11/2019 23:21:41