     Program PWSCF v.5.1rc2 (svn rev. 11289) starts on 16Apr2018 at 13:54:24

     Current dimensions of program PWSCF are:
     Max number of different atomic species (ntypx) = 10
     Max number of k-points (npk) =  40000
     Max angular momentum in pseudopotentials (lmaxx) =  3
     Presently stress not available with electric field

     IMPORTANT: XC functional enforced from input :
     Exchange-correlation      = BEEF-VDW ( 1  4 27 13 2)
     Any further DFT definition will be discarded
     Please, verify this is what you really want

     Subspace diagonalization in iterative solution of the eigenvalue problem:
     a serial algorithm will be used

     bravais-lattice index     =            0
     lattice parameter (alat)  =       1.8897  a.u.
     unit-cell volume          =    5739.2980 (a.u.)^3
     number of atoms/cell      =           14
     number of atomic types    =            3
     number of electrons       =       151.00
     number of Kohn-Sham states=           85
     kinetic-energy cutoff     =      36.7493  Ry
     charge density cutoff     =     367.4932  Ry
     convergence threshold     =      1.0E-05
     mixing beta               =       0.3000
     number of iterations used =           10  plain     mixing
     Exchange-correlation      = BEEF-VDW ( 1  4 27 13 2)
     nstep                     =           50

     celldm(1)=   1.889726  celldm(2)=   0.000000  celldm(3)=   0.000000
     celldm(4)=   0.000000  celldm(5)=   0.000000  celldm(6)=   0.000000

     crystal axes: (cart. coord. in units of alat)
               a(1) = (   6.254208   0.000000   0.000000 )
               a(2) = (   3.127104   5.416303   0.000000 )
               a(3) = (   0.000000   0.000000  25.106540 )

     reciprocal axes: (cart. coord. in units 2 pi/alat)
               b(1) = (  0.159892 -0.092314  0.000000 )
               b(2) = (  0.000000  0.184628  0.000000 )
               b(3) = (  0.000000  0.000000  0.039830 )

     PseudoPot. # 1 for Cd read from file:
     /u/if/mamunm/psp/gbrv1.5pbe/Cd.UPF
     MD5 check sum: 17164a7926edb8e0dc231208abae86a6
     Pseudo is Ultrasoft + core correction, Zval = 12.0
     Generated by new atomic code, or converted to UPF format
     Using radial grid of  889 points,  6 beta functions with:
                l(1) =   0
                l(2) =   0
                l(3) =   1
                l(4) =   1
                l(5) =   2
                l(6) =   2
     Q(r) pseudized with  6 coefficients,  rinner =    1.000   1.000   1.000
                                                       1.000   1.000

     PseudoPot. # 2 for S  read from file:
     /u/if/mamunm/psp/gbrv1.5pbe/S.UPF
     MD5 check sum: 88d86576ff6df21479756cfb9bdac1df
     Pseudo is Ultrasoft + core correction, Zval =  6.0
     Generated by new atomic code, or converted to UPF format
     Using radial grid of  907 points,  6 beta functions with:
                l(1) =   0
                l(2) =   0
                l(3) =   1
                l(4) =   1
                l(5) =   2
                l(6) =   2
     Q(r) pseudized with  8 coefficients,  rinner =    1.300   1.300   1.300
                                                       1.300   1.300

     PseudoPot. # 3 for H  read from file:
     /u/if/mamunm/psp/gbrv1.5pbe/H.UPF
     MD5 check sum: 761ae9a214b05c3daf00ab9f6b793d6f
     Pseudo is Ultrasoft, Zval =  1.0
     Generated by new atomic code, or converted to UPF format
     Using radial grid of  615 points,  2 beta functions with:
                l(1) =   0
                l(2) =   0
     Q(r) pseudized with  8 coefficients,  rinner =    0.700

     vdW kernel table read from file vdW_kernel_table
     MD5 check sum: 095c7af220d748ca6e76c0b4c6cfb241

     atomic species   valence    mass     pseudopotential
        Cd1           12.00   112.41400     Cd( 1.00)
        S1             6.00    32.06000     S ( 1.00)
        H1             1.00     1.00800     H ( 1.00)

     No symmetry found

   Cartesian axes

     site n.     atom                  positions (alat units)
         1           Cd1 tau(   1) = (   1.5635521   0.9027172  10.0000000  )
         2           Cd1 tau(   2) = (   4.6906562   0.9027172  10.0000000  )
         3           Cd1 tau(   3) = (   3.1271041   3.6108688  10.0000000  )
         4           Cd1 tau(   4) = (   6.2542083   3.6108688  10.0000000  )
         5           Cd1 tau(   5) = (   6.2542083   1.8054344  12.5532698  )
         6           Cd1 tau(   6) = (   3.1271041   1.8054344  12.5532698  )
         7           Cd1 tau(   7) = (   7.8177603   4.5135860  12.5532698  )
         8           Cd1 tau(   8) = (   4.6906562   4.5135860  12.5532698  )
         9           Cd1 tau(   9) = (   0.0000000   0.0000000  15.1065397  )
        10           Cd1 tau(  10) = (   3.1271041   0.0000000  15.1065397  )
        11           Cd1 tau(  11) = (   1.5635521   2.7081516  15.1065397  )
        12           Cd1 tau(  12) = (   4.6906562   2.7081516  15.1065397  )
        13           S1  tau(  13) = (   3.1271041   1.8054344  16.7250397  )
        14           H1  tau(  14) = (   3.1271041   1.8054344  17.9750397  )

     number of k points=    20  Fermi-Dirac smearing, width (Ry)=  0.0110
                       cart. coord. in units 2pi/alat
        k(    1) = (   0.0000000   0.0000000   0.0000000), wk =   0.0555556
        k(    2) = (   0.0000000   0.0307713   0.0000000), wk =   0.1111111
        k(    3) = (   0.0000000   0.0615426   0.0000000), wk =   0.1111111
        k(    4) = (   0.0000000  -0.0923139   0.0000000), wk =   0.0555556
        k(    5) = (   0.0266487  -0.0153856   0.0000000), wk =   0.1111111
        k(    6) = (   0.0266487   0.0153856   0.0000000), wk =   0.1111111
        k(    7) = (   0.0266487   0.0461569   0.0000000), wk =   0.1111111
        k(    8) = (   0.0266487  -0.1076995   0.0000000), wk =   0.1111111
        k(    9) = (   0.0266487  -0.0769282   0.0000000), wk =   0.1111111
        k(   10) = (   0.0266487  -0.0461569   0.0000000), wk =   0.1111111
        k(   11) = (   0.0532974  -0.0307713   0.0000000), wk =   0.1111111
        k(   12) = (   0.0532974   0.0000000   0.0000000), wk =   0.1111111
        k(   13) = (   0.0532974   0.0307713   0.0000000), wk =   0.1111111
        k(   14) = (   0.0532974  -0.1230852   0.0000000), wk =   0.1111111
        k(   15) = (   0.0532974  -0.0923139   0.0000000), wk =   0.1111111
        k(   16) = (   0.0532974  -0.0615426   0.0000000), wk =   0.1111111
        k(   17) = (  -0.0799462   0.0461569   0.0000000), wk =   0.0555556
        k(   18) = (  -0.0799462   0.0769282   0.0000000), wk =   0.1111111
        k(   19) = (  -0.0799462   0.1076995   0.0000000), wk =   0.1111111
        k(   20) = (  -0.0799462  -0.0461569   0.0000000), wk =   0.0555556

     Largest allocated arrays     est. size (Mb)     dimensions
     Largest temporary arrays     est. size (Mb)     dimensions

     Initial potential from superposition of free atoms
     Check: negative starting charge=   -0.257720

     starting charge  144.99946, renormalised to  151.00000

     negative rho (up, down):  2.684E-01 0.000E+00

     *
     * You are using vdW-DF for exchange-correlation in this calculation.
     * Please cite the following three references that made this development
     * possible:
     *
     *   M. Dion, H. Rydberg, E. Schroder, D. C. Langreth, and
     *   B. I. Lundqvist, Phys. Rev. Lett. 92, 246401 (2004).
     *
     *   T. Thonhauser, V. R. Cooper, S. Li, A. Puzder, P. Hyldgaard, and
     *   D. C. Langreth, Phys. Rev. B 76, 125112 (2007).
     *
     *   G. Roman-Perez and J. M. Soler, Phys. Rev. Lett. 103, 096102 (2009).
     *
     *
     * If you are using vdW-DF2, please also cite:
     *
     *   K. Lee, E. D. Murray, L. Kong, B. I. Lundqvist, and
     *   D. C. Langreth, Phys. Rev. B 82, 081101(R) (2010).
     *
     *
     * If you are calculating the stress with vdW-DF, please also cite:
     *
     *   R. Sabatini, E. Kucukbenli, B. Kolb, T. Thonhauser, and
     *   S. de Gironcoli, J. Phys.: Condens. Matter 24, 424209 (2012).
     *

     Carrying out vdW-DF run using the following parameters:

     Nqs =      20    Nr_points =    1024   r_max =   100.000
     q_mesh =
               0.00001000     0.04494208     0.09755937     0.15916263
               0.23128650     0.31572767     0.41458969     0.53033537
               0.66584808     0.82450364     1.01025438     1.22772762
               1.48234092     1.78043706     2.12944203     2.53805004
               3.01644009     3.57652955     4.23227104     5.00000000

     Gradients computed in reciprocal space

     Adding external electric field

     Computed dipole along edir(3) :
        Dipole               -2.3811 Ry au,         -6.0521 Debye
        Dipole field         -0.0052 Ry au

        Potential amp.        0.4823 Ry
        Total length         46.2584 bohr

     Starting wfc are  113 randomized atomic wfcs

     Self-consistent Calculation

     iteration #  1     ecut=    36.75 Ry     beta=0.30
     Davidson diagonalization with overlap
     ethr =  1.00E-02,  avg # of iterations =  5.5

[...]

     total energy              =   -1409.91778750 Ry
     Harris-Foulkes estimate   =   -1419.17913244 Ry
     estimated scf accuracy    <      19.28639711 Ry

[...]

     End of self-consistent calculation

          k = 0.0000 0.0000 0.0000 ( 21643 PWs)   bands (ev):

   -14.3658  -9.3101  -8.8345  -8.8345  -8.7798  -8.7179  -8.7178  -8.7014
    -8.6720  -8.6720  -8.6712  -8.5467  -8.5225  -8.5225  -8.4622  -8.4089
    -8.4089  -8.4085  -8.2973  -8.2972  -8.2479  -8.2399  -8.2399  -8.2035
    -8.2035  -8.1921  -8.1797  -8.1590  -8.1590  -8.0432  -8.0432  -7.9549
    -7.9548  -7.8409  -7.8408  -7.8385  -7.7755  -7.7755  -7.7308  -7.6840
    -7.6840  -7.6327  -7.5930  -7.5929  -7.5768  -7.5292  -7.5205  -7.5205
    -7.4777  -7.4776  -7.4717  -7.4717  -7.4484  -7.4484  -7.4403  -7.4237
    -7.4092  -7.4092  -7.2751  -7.2497  -7.2497  -7.2476  -6.3236  -4.7765
    -3.0926  -3.0926  -2.2863  -1.0961  -0.9962  -0.9962  -0.8443  -0.8443
    -0.6776  -0.0960   0.0412   0.0412   0.9594   1.0935   1.3307   1.3307
     2.5155   2.8397   2.8397   3.0332   3.1857

[...]

          k =-0.0799 0.0462 0.0000 ( 21576 PWs)   bands (ev):

[...]

     the Fermi energy is     1.1577 ev

!    total energy              =   -1418.57767365 Ry
     Harris-Foulkes estimate   =   -1418.57767604 Ry
     estimated scf accuracy    <       0.00000364 Ry

     The total energy is the sum of the following terms:

     one-electron contribution =   -9081.51407755 Ry
     hartree contribution      =    4637.58974731 Ry
     xc contribution           =    -499.49946686 Ry
     ewald contribution        =    3524.87181103 Ry
     electric field correction =       0.00013696 Ry
     smearing contrib. (-TS)   =      -0.02582453 Ry

     convergence has been achieved in  14 iterations

 BEEF-vdW xc energy contributions
           1 :   -437.447434412842
           2 :    399.970931417300
           3 :   -336.702278879283
           4 :    265.534021851917
           5 :   -203.019284536770
           6 :    158.536126400488
           7 :   -132.479809396553
           8 :    118.683253554962
           9 :   -109.191323594822
          10 :    98.6091680679411
          11 :   -85.9313950515388
          12 :    73.4782154489253
          13 :   -64.2272094937107
          14 :    59.4681209142323
          15 :   -58.1049218069148
          16 :    57.6606583447470
          17 :   -55.9953230704036
          18 :    52.5102519922942
          19 :   -48.1727634030177
          20 :    44.5596660502858
          21 :   -42.6980559286974
          22 :    42.4692594847739
          23 :   -42.8496163661954
          24 :    42.6838286758233
          25 :   -41.4081958947356
          26 :    39.2822800225029
          27 :   -37.0774596819925
          28 :    35.5161448856919
          29 :   -34.8495169722623
          30 :    34.7984585136770
          31 :   -39.6553628796477
          32 :   -28.9367902610609

     Forces acting on atoms (Ry/au):

     negative rho (up, down):  2.667E-01 0.000E+00
     atom    1 type  1   force =     0.00254323    0.00138416   -0.01700746
     atom    2 type  1   force =    -0.00250816    0.00149237   -0.01694344
     atom    3 type  1   force =     0.00007926   -0.00288127   -0.01693683
     atom    4 type  1   force =     0.00003825   -0.00002400   -0.01655685
     atom    5 type  1   force =    -0.00005129   -0.00034225    0.00012420
     atom    6 type  1   force =    -0.00002331    0.00000628    0.01145076
     atom    7 type  1   force =     0.00032673    0.00023303    0.00022214
     atom    8 type  1   force =    -0.00030496    0.00014928    0.00019501
     atom    9 type  1   force =    -0.00000589   -0.00000534    0.00830619
     atom   10 type  1   force =     0.00001705   -0.07716485   -0.03022357
     atom   11 type  1   force =    -0.06682118    0.03858296   -0.03035289
     atom   12 type  1   force =     0.06674586    0.03856831   -0.03028242
     atom   13 type  2   force =    -0.00001779   -0.00000314   -0.00353769
     atom   14 type  3   force =    -0.00001780    0.00000447    0.14154283

     Total force =     0.201788     Total SCF correction =     0.005775

     entering subroutine stress ...

     negative rho (up, down):  2.667E-01 0.000E+00
          total   stress  (Ry/bohr**3)                   (kbar)     P=   16.25
   0.00006264   0.00000000  -0.00000000          9.21      0.00     -0.00
   0.00000000   0.00006263  -0.00000000          0.00      9.21     -0.00
  -0.00000000  -0.00000000   0.00020617         -0.00     -0.00     30.33

     BFGS Geometry Optimization

     number of scf cycles    =   1
     number of bfgs steps    =   0

     energy   new            =   -1418.5776736514 Ry

     new trust radius        =       0.1415428312 bohr
     new conv_thr            =       0.0000099958 Ry

ATOMIC_POSITIONS (crystal)
Cd1      0.166666667   0.166666667   0.398302599    0   0   0
Cd1      0.666666667   0.166666667   0.398302599    0   0   0
Cd1      0.166666667   0.666666667   0.398302599    0   0   0
Cd1      0.666666667   0.666666667   0.398302599    0   0   0
Cd1      0.833333333   0.333333333   0.500000000    0   0   0
Cd1      0.333333333   0.333333333   0.500000000    0   0   0
Cd1      0.833333333   0.833333333   0.500000000    0   0   0
Cd1      0.333333333   0.833333333   0.500000000    0   0   0
Cd1     -0.000000237  -0.000000522   0.601872473
Cd1      0.503770977  -0.007539069   0.601060371
Cd1     -0.007538626   0.503769587   0.601057645
Cd1      0.503763382   0.503768156   0.601059131
S1       0.333331981   0.333333026   0.666088112
H1       0.333331609   0.333333770   0.718933837

     Writing output data file calc.save
     Check: negative starting charge=   -0.257720
     NEW-OLD atomic charge density approx. for the potential
     Check: negative starting charge=   -0.257622

[...]

     energy   old            =   -1418.5776736514 Ry
     energy   new            =   -1418.6079211730 Ry

     CASE: energy  _new < energy  _old

[...]

     iteration #  1     ecut=    36.75 Ry     beta=0.30
     Davidson diagonalization with overlap
     c_bands:  1 eigenvalues not converged
     ethr =  1.00E-06,  avg # of iterations =  8.8

[...]

     iteration #  1     ecut=    36.75 Ry     beta=0.30
     Davidson diagonalization with overlap
     c_bands:  1 eigenvalues not converged
     ethr =  1.00E-06,  avg # of iterations = 13.0

[...]

     Total force =     0.010567     Total SCF correction =     0.001203
     SCF correction compared to forces is large: reduce conv_thr to get better values

[...]

     WARNING: bfgs curvature condition failed, Theta= 0.875
     new trust radius        =       0.0612254295 bohr
     new conv_thr            =       0.0000001000 Ry

[...]

     WARNING: bfgs curvature condition failed, Theta= 0.863
     new trust radius        =       0.0120280533 bohr
     new conv_thr            =       0.0000001000 Ry

[...]

     Threshold (ethr) on eigenvalues was too large:
     Diagonalizing with lowered threshold

     Davidson diagonalization with overlap
     ethr =  7.87E-08,  avg # of iterations =  1.1

[...]

     Total force =     0.002902     Total SCF correction =     0.000079

[...]

     number of scf cycles    =  27
     number of bfgs steps    =  26

     energy   old            =   -1418.6739632196 Ry
     energy   new            =   -1418.6741134198 Ry

     CASE: energy  _new < energy  _old

     new trust radius        =       0.0913380297 bohr
     new conv_thr            =       0.0000001000 Ry

ATOMIC_POSITIONS (crystal)
Cd1      0.166666667   0.166666667   0.398302599    0   0   0
Cd1      0.666666667   0.166666667   0.398302599    0   0   0
Cd1      0.166666667   0.666666667   0.398302599    0   0   0
Cd1      0.666666667   0.666666667   0.398302599    0   0   0
Cd1      0.833333333   0.333333333   0.500000000    0   0   0
Cd1      0.333333333   0.333333333   0.500000000    0   0   0
Cd1      0.833333333   0.833333333   0.500000000    0   0   0
Cd1      0.333333333   0.833333333   0.500000000    0   0   0
Cd1      0.000004374   0.000017097   0.609717491
Cd1      0.506587140  -0.013222527   0.620645495
Cd1     -0.013197705   0.506574443   0.620644160
Cd1      0.506617766   0.506614412   0.620641963
S1       0.333305574   0.333342632   0.704135975
H1       0.333336467   0.333323880   0.758353233

     Writing output data file calc.save
     Check: negative starting charge=   -0.259138
     NEW-OLD atomic charge density approx. for the potential
     Check: negative starting charge=   -0.260366

[...]

     Self-consistent Calculation

[...]

     total energy              =   -1418.67425843 Ry
     Harris-Foulkes estimate   =   -1418.67425861 Ry
     estimated scf accuracy    <       0.00000012 Ry

     iteration #  8     ecut=    36.75 Ry     beta=0.30
     Davidson diagonalization with overlap
     ethr =  8.27E-11,  avg # of iterations =  4.0

[...]

     negative rho (up, down):  2.685E-01 0.000E+00

     Adding external electric field

     Computed dipole along edir(3) :
        Dipole               -0.1575 Ry au,         -0.4004 Debye
        Dipole field         -0.0003 Ry au

        Potential amp.        0.0319 Ry
        Total length         46.2584 bohr

     End of self-consistent calculation

[...]

          k = 0.0533-0.0615 0.0000 ( 21571 PWs)   bands (ev):

[...]

          k =-0.0799-0.0462 0.0000 ( 21576 PWs)   bands (ev):

   -12.4186  -8.9331  -8.9212  -8.8381  -8.8106  -8.7943  -8.7881  -8.7534
    -8.7465  -8.7253  -8.7236  -8.6566  -8.6254  -8.6140  -8.6100  -8.5771
    -8.5597  -8.5547  -8.5410  -8.4743  -8.4660  -8.4581  -8.4401  -8.3887
    -8.3885  -8.3660  -8.3536  -8.3413  -8.3359  -8.3304  -8.3230  -8.2839
    -8.2352  -8.2250  -8.2142  -8.2110  -8.2046  -8.1928  -8.1733  -8.1695
    -8.1358  -8.1140  -8.1095  -8.1078  -8.1050  -8.1044  -8.0845  -8.0445
    -8.0277  -8.0252  -7.9964  -7.9963  -7.9899  -7.9773  -7.9041  -7.8992
    -7.8802  -7.8441  -7.8402  -7.7757  -7.7552  -5.8112  -5.7438  -5.3067
    -4.3244  -3.5747  -2.6359  -2.5857  -2.4336  -1.9702  -1.8008  -1.0418
    -0.8395  -0.6256   0.7103   0.9921   1.4481   1.6448   2.9640   2.9830
     3.3096   3.3725   3.8415   4.0407   4.1481

     the Fermi energy is     0.7267 ev

!    total energy              =   -1418.67425837 Ry
     Harris-Foulkes estimate   =   -1418.67425838 Ry
     estimated scf accuracy    <       0.00000002 Ry

     The total energy is the sum of the following terms:

     one-electron contribution =   -8389.49030248 Ry
     hartree contribution      =    4290.45692456 Ry
     xc contribution           =    -499.05873467 Ry
     ewald contribution        =    3179.44562961 Ry
     electric field correction =       0.00005433 Ry
     smearing contrib. (-TS)   =      -0.02782972 Ry

     convergence has been achieved in   8 iterations

 BEEF-vdW xc energy contributions
           1 :   -436.966956108527
           2 :    399.170812157838
           3 :   -335.557399936729
           4 :    264.346675102396
           5 :   -202.194300900689
           6 :    158.286697527832
           7 :   -132.680983141748
           8 :    118.974835651515
           9 :   -109.241552922420
          10 :    98.3394190219528
          11 :   -85.5400983487671
          12 :    73.2587508673892
          13 :   -64.3284189100610
          14 :    59.7816098344785
          15 :   -58.3581438825759
          16 :    57.6339612615715
          17 :   -55.6902815033165
          18 :    52.1417629495624
          19 :   -47.9986324812922
          20 :    44.6845057501710
          21 :   -43.0010122108686
          22 :    42.7041370243795
          23 :   -42.8324732286342
          24 :    42.4221394406175
          25 :   -41.0791824346631
          26 :    39.0881546744333
          27 :   -37.0957800856202
          28 :    35.6568243420982
          29 :   -34.9403644935714
          30 :    34.7229571785019
          31 :   -39.6140563642899
          32 :   -28.8180582579180

     Forces acting on atoms (Ry/au):

     negative rho (up, down):  2.685E-01 0.000E+00
     atom    1 type  1   force =     0.00074087    0.00042802   -0.01813378
     atom    2 type  1   force =    -0.00074130    0.00042782   -0.01813363
     atom    3 type  1   force =    -0.00000037   -0.00085574   -0.01813336
     atom    4 type  1   force =     0.00000004   -0.00000000   -0.01927803
     atom    5 type  1   force =    -0.00000092    0.00149671    0.01691148
     atom    6 type  1   force =     0.00000026    0.00000005    0.02541020
     atom    7 type  1   force =    -0.00129559   -0.00074757    0.01691942
     atom    8 type  1   force =     0.00129554   -0.00074865    0.01691175
     atom    9 type  1   force =    -0.00002553   -0.00001842   -0.00134542
     atom   10 type  1   force =     0.00003075   -0.00011003   -0.00050835
     atom   11 type  1   force =    -0.00009510    0.00008896   -0.00051912
     atom   12 type  1   force =     0.00007480    0.00004203   -0.00050462
     atom   13 type  2   force =     0.00002134   -0.00000350   -0.00035315
     atom   14 type  3   force =    -0.00000479    0.00000031    0.00075659

     Total force =     0.001824     Total SCF correction =     0.000487
     SCF correction compared to forces is large: reduce conv_thr to get better values

     entering subroutine stress ...

     negative rho (up, down):  2.685E-01 0.000E+00
          total   stress  (Ry/bohr**3)                   (kbar)     P=   -0.94
  -0.00002628  -0.00000000   0.00000001         -3.87     -0.00      0.00
  -0.00000000  -0.00002628  -0.00000000         -0.00     -3.87     -0.00
   0.00000001  -0.00000000   0.00003331          0.00     -0.00      4.90

     bfgs converged in  28 scf cycles and  27 bfgs steps
     (criteria: energy <  1.0E+00, force <  1.9E-03)

     End of BFGS Geometry Optimization

     Final energy   =   -1418.6742583666 Ry
Begin final coordinates

ATOMIC_POSITIONS (crystal)
Cd1      0.166666667   0.166666667   0.398302599    0   0   0
Cd1      0.666666667   0.166666667   0.398302599    0   0   0
Cd1      0.166666667   0.666666667   0.398302599    0   0   0
Cd1      0.666666667   0.666666667   0.398302599    0   0   0
Cd1      0.833333333   0.333333333   0.500000000    0   0   0
Cd1      0.333333333   0.333333333   0.500000000    0   0   0
Cd1      0.833333333   0.833333333   0.500000000    0   0   0
Cd1      0.333333333   0.833333333   0.500000000    0   0   0
Cd1      0.000004374   0.000017097   0.609717491
Cd1      0.506587140  -0.013222527   0.620645495
Cd1     -0.013197705   0.506574443   0.620644160
Cd1      0.506617766   0.506614412   0.620641963
S1       0.333305574   0.333342632   0.704135975
H1       0.333336467   0.333323880   0.758353233
End final coordinates

     Writing output data file calc.save

     General routines

     Parallel routines

   This run was terminated on:  16:57:57  16Apr2018

   JOB DONE.
Job  /afs/slac/g/suncat/bin/suncat-tsmpirun -x LD_LIBRARY_PATH -wdir /scratch/qe132408_XMHKB pw.x -npool 4 -in pw.inp

TID   HOST_NAME   COMMAND_LINE            STATUS            TERMINATION_TIME
00000 suncat0003 pw.x -npool 4 -i  Done                     04/16/2018 16:57:57
00001 suncat0003 pw.x -npool 4 -i  Done                     04/16/2018 16:57:57
00002 suncat0003 pw.x -npool 4 -i  Done                     04/16/2018 16:57:57
00003 suncat0003 pw.x -npool 4 -i  Done                     04/16/2018 16:57:57
00004 suncat0003 pw.x -npool 4 -i  Done                     04/16/2018 16:57:57
00005 suncat0003 pw.x -npool 4 -i  Done                     04/16/2018 16:57:57
00006 suncat0003 pw.x -npool 4 -i  Done                     04/16/2018 16:57:57
00007 suncat0003 pw.x -npool 4 -i  Done                     04/16/2018 16:57:57
00008 suncat0183 pw.x -npool 4 -i  Done                     04/16/2018 16:57:57
00009 suncat0183 pw.x -npool 4 -i  Done                     04/16/2018 16:57:57
00010 suncat0183 pw.x -npool 4 -i  Done                     04/16/2018 16:57:57
00011 suncat0183 pw.x -npool 4 -i  Done                     04/16/2018 16:57:57
00012 suncat0183 pw.x -npool 4 -i  Done                     04/16/2018 16:57:57
00013 suncat0183 pw.x -npool 4 -i  Done                     04/16/2018 16:57:57
00014 suncat0183 pw.x -npool 4 -i  Done                     04/16/2018 16:57:57
00015 suncat0183 pw.x -npool 4 -i  Done                     04/16/2018 16:57:57
00016 suncat0167 pw.x -npool 4 -i  Done                     04/16/2018 16:57:57
00017 suncat0167 pw.x -npool 4 -i  Done                     04/16/2018 16:57:57
00018 suncat0167 pw.x -npool 4 -i  Done                     04/16/2018 16:57:57
00019 suncat0167 pw.x -npool 4 -i  Done                     04/16/2018 16:57:57
00020 suncat0167 pw.x -npool 4 -i  Done                     04/16/2018 16:57:57
00021 suncat0167 pw.x -npool 4 -i  Done                     04/16/2018 16:57:57
00022 suncat0167 pw.x -npool 4 -i  Done                     04/16/2018 16:57:57
00023 suncat0167 pw.x -npool 4 -i  Done                     04/16/2018 16:57:57
00024 suncat0162 pw.x -npool 4 -i  Done                     04/16/2018 16:57:57
00025 suncat0162 pw.x -npool 4 -i  Done                     04/16/2018 16:57:57
00026 suncat0162 pw.x -npool 4 -i  Done                     04/16/2018 16:57:57
00027 suncat0162 pw.x -npool 4 -i  Done                     04/16/2018 16:57:57
00028 suncat0162 pw.x -npool 4 -i  Done                     04/16/2018 16:57:57
00029 suncat0162 pw.x -npool 4 -i  Done                     04/16/2018 16:57:57
00030 suncat0162 pw.x -npool 4 -i  Done                     04/16/2018 16:57:57
00031 suncat0162 pw.x -npool 4 -i  Done                     04/16/2018 16:57:57