     Program PWSCF v.5.1rc2 (svn rev. 11289) starts on 16Apr2018 at 10: 1:21

     Current dimensions of program PWSCF are:
     Max number of different atomic species (ntypx) = 10
     Max number of k-points (npk) =  40000
     Max angular momentum in pseudopotentials (lmaxx) =  3
     Presently stress not available with electric field

     IMPORTANT: XC functional enforced from input :
     Exchange-correlation      = BEEF-VDW ( 1  4 27 13 2)
     Any further DFT definition will be discarded
     Please, verify this is what you really want

     Subspace diagonalization in iterative solution of the eigenvalue problem:
     a serial algorithm will be used

     bravais-lattice index     =            0
     lattice parameter (alat)  =       1.8897  a.u.
     unit-cell volume          =    5174.6160 (a.u.)^3
     number of atoms/cell      =           14
     number of atomic types    =            3
     number of electrons       =       235.00
     number of Kohn-Sham states=          127
     kinetic-energy cutoff     =      36.7493  Ry
     charge density cutoff     =     367.4932  Ry
     convergence threshold     =      1.0E-05
     mixing beta               =       0.3000
     number of iterations used =           10  plain     mixing
     Exchange-correlation      = BEEF-VDW ( 1  4 27 13 2)
     nstep                     =           50

     celldm(1)=   1.889726  celldm(2)=   0.000000  celldm(3)=   0.000000
     celldm(4)=   0.000000  celldm(5)=   0.000000  celldm(6)=   0.000000

     crystal axes: (cart. coord. in units of alat)
               a(1) = (   5.966546   0.000000   0.000000 )
               a(2) = (   2.983273   5.167181   0.000000 )
               a(3) = (   0.000000   0.000000  24.871665 )

     reciprocal axes: (cart. coord. in units 2 pi/alat)
               b(1) = (  0.167601 -0.096765  0.000000 )
               b(2) = (  0.000000  0.193529  0.000000 )
               b(3) = (  0.000000  0.000000  0.040206 )

     PseudoPot. # 1 for Ag read from file:
     /u/if/mamunm/psp/gbrv1.5pbe/Ag.UPF
     MD5 check sum: d66d668201baa78d5eb5b04ef7011058
     Pseudo is Ultrasoft + core correction, Zval = 19.0
     Generated by new atomic code, or converted to UPF format
     Using radial grid of  887 points,  6 beta functions with:
                l(1) =   0
                l(2) =   0
                l(3) =   1
                l(4) =   1
                l(5) =   2
                l(6) =   2
     Q(r) pseudized with  6 coefficients,  rinner =    1.300   1.300   1.300
                                                       1.300   1.300

     PseudoPot. # 2 for O  read from file:
     /u/if/mamunm/psp/gbrv1.5pbe/O.UPF
     MD5 check sum: 734c27235a0248c51dbae37a1fbe46ec
     Pseudo is Ultrasoft + core correction, Zval =  6.0
     Generated by new atomic code, or converted to UPF format
     Using radial grid of  737 points,  5 beta functions with:
                l(1) =   0
                l(2) =   0
                l(3) =   1
                l(4) =   1
                l(5) =   2
     Q(r) pseudized with  8 coefficients,  rinner =    0.900   0.900   0.900
                                                       0.900   0.900

     PseudoPot. # 3 for H  read from file:
     /u/if/mamunm/psp/gbrv1.5pbe/H.UPF
     MD5 check sum: 761ae9a214b05c3daf00ab9f6b793d6f
     Pseudo is Ultrasoft, Zval =  1.0
     Generated by new atomic code, or converted to UPF format
     Using radial grid of  615 points,  2 beta functions with:
                l(1) =   0
                l(2) =   0
     Q(r) pseudized with  8 coefficients,  rinner =    0.700

     vdW kernel table read from file vdW_kernel_table
     MD5 check sum: 095c7af220d748ca6e76c0b4c6cfb241

     atomic species   valence    mass     pseudopotential
        Ag1           19.00   107.86820     Ag( 1.00)
        O1             6.00    15.99900     O ( 1.00)
        H1             1.00     1.00800     H ( 1.00)

     No symmetry found

   Cartesian axes

     site n.     atom                  positions (alat units)
         1           Ag1 tau(   1) = (   1.4916366   0.8611968  10.0000000  )
         2           Ag1 tau(   2) = (   4.4749098   0.8611968  10.0000000  )
         3           Ag1 tau(   3) = (   2.9832732   3.4447871  10.0000000  )
         4           Ag1 tau(   4) = (   5.9665464   3.4447871  10.0000000  )
         5           Ag1 tau(   5) = (   5.9665464   1.7223936  12.4358324  )
         6           Ag1 tau(   6) = (   2.9832732   1.7223936  12.4358324  )
         7           Ag1 tau(   7) = (   7.4581830   4.3059839  12.4358324  )
         8           Ag1 tau(   8) = (   4.4749098   4.3059839  12.4358324  )
         9           Ag1 tau(   9) = (   0.0000000   0.0000000  14.8716647  )
        10           Ag1 tau(  10) = (   2.9832732   0.0000000  14.8716647  )
        11           Ag1 tau(  11) = (   1.4916366   2.5835904  14.8716647  )
        12           Ag1 tau(  12) = (   4.4749098   2.5835904  14.8716647  )
        13           O1  tau(  13) = (   2.9832732   1.7223936  16.2431647  )
        14           H1  tau(  14) = (   2.9832732   1.7223936  17.1931647  )

     number of k points=    20  Fermi-Dirac smearing, width (Ry)=  0.0110
                       cart. coord. in units 2pi/alat
        k(    1) = (   0.0000000   0.0000000   0.0000000), wk =   0.0555556
        k(    2) = (   0.0000000   0.0322549   0.0000000), wk =   0.1111111
        k(    3) = (   0.0000000   0.0645097   0.0000000), wk =   0.1111111
        k(    4) = (   0.0000000  -0.0967646   0.0000000), wk =   0.0555556
        k(    5) = (   0.0279335  -0.0161274   0.0000000), wk =   0.1111111
        k(    6) = (   0.0279335   0.0161274   0.0000000), wk =   0.1111111
        k(    7) = (   0.0279335   0.0483823   0.0000000), wk =   0.1111111
        k(    8) = (   0.0279335  -0.1128920   0.0000000), wk =   0.1111111
        k(    9) = (   0.0279335  -0.0806371   0.0000000), wk =   0.1111111
        k(   10) = (   0.0279335  -0.0483823   0.0000000), wk =   0.1111111
        k(   11) = (   0.0558670  -0.0322549   0.0000000), wk =   0.1111111
        k(   12) = (   0.0558670   0.0000000   0.0000000), wk =   0.1111111
        k(   13) = (   0.0558670   0.0322549   0.0000000), wk =   0.1111111
        k(   14) = (   0.0558670  -0.1290194   0.0000000), wk =   0.1111111
        k(   15) = (   0.0558670  -0.0967646   0.0000000), wk =   0.1111111
        k(   16) = (   0.0558670  -0.0645097   0.0000000), wk =   0.1111111
        k(   17) = (  -0.0838006   0.0483823   0.0000000), wk =   0.0555556
        k(   18) = (  -0.0838006   0.0806371   0.0000000), wk =   0.1111111
        k(   19) = (  -0.0838006   0.1128920   0.0000000), wk =   0.1111111
        k(   20) = (  -0.0838006  -0.0483823   0.0000000), wk =   0.0555556

     Largest allocated arrays     est. size (Mb)     dimensions
     Largest temporary arrays     est. size (Mb)     dimensions

     Initial potential from superposition of free atoms
     Check: negative starting charge=   -0.002103

     starting charge  228.99942, renormalised to  235.00000

     negative rho (up, down):  2.158E-03 0.000E+00

     *
     * You are using vdW-DF for exchange-correlation in this calculation.
     * Please cite the following three references that made this development
     * possible:
     *
     *   M. Dion, H. Rydberg, E. Schroder, D. C. Langreth, and
     *   B. I. Lundqvist, Phys. Rev. Lett. 92, 246401 (2004).
     *
     *   T. Thonhauser, V. R. Cooper, S. Li, A. Puzder, P. Hyldgaard, and
     *   D. C. Langreth, Phys. Rev. B 76, 125112 (2007).
     *
     *   G. Roman-Perez and J. M. Soler, Phys. Rev. Lett. 103, 096102 (2009).
     *
     *
     * If you are using vdW-DF2, please also cite:
     *
     *   K. Lee, E. D. Murray, L. Kong, B. I. Lundqvist, and
     *   D. C. Langreth, Phys. Rev. B 82, 081101(R) (2010).
     *
     *
     * If you are calculating the stress with vdW-DF, please also cite:
     *
     *   R. Sabatini, E. Kucukbenli, B. Kolb, T. Thonhauser, and
     *   S. de Gironcoli, J. Phys.: Condens. Matter 24, 424209 (2012).
     *

     Carrying out vdW-DF run using the following parameters:

     Nqs =      20    Nr_points =    1024   r_max =   100.000
     q_mesh =
               0.00001000     0.04494208     0.09755937     0.15916263
               0.23128650     0.31572767     0.41458969     0.53033537
               0.66584808     0.82450364     1.01025438     1.22772762
               1.48234092     1.78043706     2.12944203     2.53805004
               3.01644009     3.57652955     4.23227104     5.00000000

     Gradients computed in reciprocal space

     Adding external electric field

     Computed dipole along edir(3) :
        Dipole               -1.3667 Ry au,         -3.4737 Debye
        Dipole field         -0.0033 Ry au

        Potential amp.        0.3042 Ry
        Total length         45.8256 bohr

     Starting wfc are  161 randomized atomic wfcs

     Self-consistent Calculation

     iteration #  1     ecut=    36.75 Ry     beta=0.30
     Davidson diagonalization with overlap
     ethr =  1.00E-02,  avg # of iterations =  5.8

[...]

     total energy              =   -3577.21478083 Ry
     Harris-Foulkes estimate   =   -3596.46514382 Ry
     estimated scf accuracy    <      41.34017486 Ry

[...]

     End of self-consistent calculation

          k = 0.0000 0.0000 0.0000 ( 19435 PWs)   bands (ev):

   -90.4559 -90.4502 -90.4502 -90.4313 -90.2705 -90.2618 -90.2472 -90.2426
   -90.2426 -90.1779 -90.1727 -90.1727 -53.9938 -53.9864 -53.9864 -53.9536
   -53.9440 -53.9440 -53.9315 -53.9311 -53.9241 -53.9241 -53.9016 -53.9016
   -53.7979 -53.7979 -53.7934 -53.7934 -53.7905 -53.7533 -53.7404 -53.7372
   -53.7372 -53.7326 -53.7317 -53.7232 -53.7186 -53.7186 -53.7133 -53.7133
   -53.7070 -53.7070 -53.6882 -53.6742 -53.6742 -53.6423 -53.6208 -53.6208
   -18.3302  -6.7927  -4.8294  -4.1928  -4.1928  -4.1893  -4.1391  -4.1356
    -4.1356  -4.0255  -4.0059  -4.0059  -3.9447  -3.8947  -3.8257  -3.8257
    -3.5433  -3.4605  -3.4605  -3.1349  -3.1291  -3.1291  -3.0520  -3.0520
    -3.0189  -2.9912  -2.9912  -2.8337  -2.8337  -2.7980  -2.7722  -2.7722
    -2.5626  -2.5626  -2.5573  -2.2895  -2.2109  -2.2109  -2.1751  -2.1751
    -2.1316  -2.1272  -1.9771  -1.9771  -1.9116  -1.9116  -1.8069  -1.8069
    -1.6811  -1.6480  -1.6480  -1.6262  -1.6048  -1.6048  -1.5350  -1.5330
    -1.5330  -1.4943  -1.3663  -1.3663  -1.3462  -1.3397  -1.3397  -1.3072
    -0.4946  -0.4946   0.5975   2.1255   2.1256   2.1256   2.3434   2.8791
     2.8791   3.0478   3.2893   3.2893   3.9352   4.8124   5.2169

[...]

          k =-0.0838 0.0484 0.0000 ( 19500 PWs)   bands (ev):

[...]

     the Fermi energy is     1.5898 ev

!    total energy              =   -3593.56930368 Ry
     Harris-Foulkes estimate   =   -3593.56929224 Ry
     estimated scf accuracy    <       0.00000426 Ry

     The total energy is the sum of the following terms:

     one-electron contribution =  -26412.76429591 Ry
     hartree contribution      =   13203.11603323 Ry
     xc contribution           =    -369.50858596 Ry
     ewald contribution        =    9985.61203095 Ry
     electric field correction =       0.00013443 Ry
     smearing contrib. (-TS)   =      -0.02462043 Ry

     convergence has been achieved in  15 iterations

 BEEF-vdW xc energy contributions
           1 :   -320.071066249396
           2 :    289.534102781638
           3 :   -238.666881953291
           4 :    182.897593060701
           5 :   -136.156631375458
           6 :    105.864266780909
           7 :   -91.6038545327943
           8 :    87.4056694870699
           9 :   -85.9187121925743
          10 :    82.1073909418236
          11 :   -74.7945891923102
          12 :    65.7964423123531
          13 :   -57.7394082147148
          14 :    52.1217860278235
          15 :   -48.6829810392771
          16 :    46.1009493759016
          17 :   -43.2102398559856
          18 :    39.7810063002057
          19 :   -36.4249087757868
          20 :    33.8846107644435
          21 :   -32.3505383482519
          22 :    31.3103855585820
          23 :   -29.9753309879706
          24 :    27.8983329507244
          25 :   -25.3093567041953
          26 :    22.9390889962668
          27 :   -21.4886189878354
          28 :    21.1389460861714
          29 :   -21.4450440471286
          30 :    21.6633319834692
          31 :   -32.0030617502713
          32 :   -23.2190273870301

     Forces acting on atoms (Ry/au):

     negative rho (up, down):  2.142E-03 0.000E+00
     atom    1 type  1   force =     0.00071652    0.00041332    0.00110012
     atom    2 type  1   force =    -0.00071653    0.00041374    0.00110055
     atom    3 type  1   force =    -0.00000012   -0.00082717    0.00110052
     atom    4 type  1   force =     0.00000012   -0.00000003   -0.00034562
     atom    5 type  1   force =    -0.00000059    0.00129696    0.00515289
     atom    6 type  1   force =     0.00000039    0.00000028   -0.00466917
     atom    7 type  1   force =    -0.00112264   -0.00064833    0.00515277
     atom    8 type  1   force =     0.00112291   -0.00064850    0.00515284
     atom    9 type  1   force =     0.00000025    0.00000020   -0.00938581
     atom   10 type  1   force =    -0.00000029   -0.04271215   -0.02088315
     atom   11 type  1   force =    -0.03698988    0.02135558   -0.02088292
     atom   12 type  1   force =     0.03699003    0.02135591   -0.02088302
     atom   13 type  2   force =    -0.00000018    0.00000014    0.00762653
     atom   14 type  3   force =    -0.00000000    0.00000004    0.05066348

     Total force =     0.097439     Total SCF correction =     0.002842

     entering subroutine stress ...

     negative rho (up, down):  2.142E-03 0.000E+00
          total   stress  (Ry/bohr**3)                   (kbar)     P=   -1.36
  -0.00002031   0.00000000  -0.00000000         -2.99      0.00     -0.00
   0.00000000  -0.00002032   0.00000000          0.00     -2.99      0.00
  -0.00000000   0.00000000   0.00001280         -0.00      0.00      1.88

     BFGS Geometry Optimization

     number of scf cycles    =   1
     number of bfgs steps    =   0

     energy   new            =   -3593.5693036817 Ry

     new trust radius        =       0.0506634849 bohr
     new conv_thr            =       0.0000099958 Ry

ATOMIC_POSITIONS (crystal)
Ag1      0.166666667   0.166666667   0.402063960    0   0   0
Ag1      0.666666667   0.166666667   0.402063960    0   0   0
Ag1      0.166666667   0.666666667   0.402063960    0   0   0
Ag1      0.666666667   0.666666667   0.402063960    0   0   0
Ag1      0.833333333   0.333333333   0.500000000    0   0   0
Ag1      0.333333333   0.333333333   0.500000000    0   0   0
Ag1      0.833333333   0.833333333   0.500000000    0   0   0
Ag1      0.333333333   0.833333333   0.500000000    0   0   0
Ag1      0.000000012   0.000000020   0.597736345
Ag1      0.502187075  -0.004374203   0.597491724
Ag1     -0.004374184   0.502187051   0.597491729
Ag1      0.502187129   0.502187084   0.597491726
O1       0.333333310   0.333333348   0.653241377
H1       0.333333331   0.333333337   0.692353120

     Writing output data file calc.save
     Check: negative starting charge=   -0.002103
     NEW-OLD atomic charge density approx. for the potential
     Check: negative starting charge=   -0.002106

[...]

     energy   old            =   -3593.5693036817 Ry
     energy   new            =   -3593.5766735694 Ry

     CASE: energy  _new < energy  _old

[...]

     Threshold (ethr) on eigenvalues was too large:
     Diagonalizing with lowered threshold

     Davidson diagonalization with overlap
     ethr =  1.60E-08,  avg # of iterations =  1.0

[...]

     Total force =     0.005602     Total SCF correction =     0.000493

[...]

     number of scf cycles    =  10
     number of bfgs steps    =   9

     energy   old            =   -3593.5854158211 Ry
     energy   new            =   -3593.5854715823 Ry

     CASE: energy  _new < energy  _old

     new trust radius        =       0.0044630842 bohr
     new conv_thr            =       0.0000001000 Ry

ATOMIC_POSITIONS (crystal)
Ag1      0.166666667   0.166666667   0.402063960    0   0   0
Ag1      0.666666667   0.166666667   0.402063960    0   0   0
Ag1      0.166666667   0.666666667   0.402063960    0   0   0
Ag1      0.666666667   0.666666667   0.402063960    0   0   0
Ag1      0.833333333   0.333333333   0.500000000    0   0   0
Ag1      0.333333333   0.333333333   0.500000000    0   0   0
Ag1      0.833333333   0.833333333   0.500000000    0   0   0
Ag1      0.333333333   0.833333333   0.500000000    0   0   0
Ag1      0.000000003  -0.000000067   0.594217781
Ag1      0.506549069  -0.013098073   0.596659483
Ag1     -0.013098081   0.506549076   0.596659478
Ag1      0.506549005   0.506549018   0.596659481
O1       0.333333355   0.333333325   0.656912395
H1       0.333333321   0.333333347   0.696008715

     Writing output data file calc.save
     Check: negative starting charge=   -0.002123
     NEW-OLD atomic charge density approx. for the potential
     Check: negative starting charge=   -0.002122

[...]

     Self-consistent Calculation

[...]

     Threshold (ethr) on eigenvalues was too large:
     Diagonalizing with lowered threshold

     Davidson diagonalization with overlap
     ethr =  6.91E-09,  avg # of iterations =  1.0

[...]

     total energy              =   -3593.58548821 Ry
     Harris-Foulkes estimate   =   -3593.58548814 Ry
     estimated scf accuracy    <       0.00000011 Ry

     iteration #  6     ecut=    36.75 Ry     beta=0.30
     Davidson diagonalization with overlap
     ethr =  4.86E-11,  avg # of iterations =  3.0

[...]

     negative rho (up, down):  2.195E-03 0.000E+00

     Adding external electric field

     Computed dipole along edir(3) :
        Dipole                0.1238 Ry au,          0.3147 Debye
        Dipole field          0.0003 Ry au

        Potential amp.       -0.0276 Ry
        Total length         45.8256 bohr

     End of self-consistent calculation

[...]

          k = 0.0559-0.0645 0.0000 ( 19479 PWs)   bands (ev):

[...]

          k =-0.0838-0.0484 0.0000 ( 19500 PWs)   bands (ev):

   -90.6162 -90.6145 -90.6127 -90.5667 -90.4261 -90.3988 -90.3824 -90.3805
   -90.3789 -90.2693 -90.2655 -90.2643 -54.1412 -54.1238 -54.1177 -54.1166
   -54.1117 -54.1115 -54.1078 -54.1070 -54.0823 -54.0653 -54.0632 -54.0497
   -53.9372 -53.9320 -53.9213 -53.9125 -53.9118 -53.9009 -53.8870 -53.8842
   -53.8826 -53.8788 -53.8639 -53.8593 -53.8575 -53.8573 -53.8550 -53.8212
   -53.8078 -53.8033 -53.7872 -53.7797 -53.7680 -53.7216 -53.7098 -53.7017
   -17.5723  -5.8616  -4.1423  -4.0743  -3.9738  -3.9495  -3.8954  -3.8880
    -3.8297  -3.7616  -3.7137  -3.6853  -3.6764  -3.6550  -3.5614  -3.4994
    -3.4874  -3.4463  -3.3063  -3.2907  -3.2392  -3.2074  -3.2038  -3.1649
    -3.0748  -3.0691  -2.9485  -2.9340  -2.8927  -2.8655  -2.8497  -2.8049
    -2.7513  -2.7226  -2.6837  -2.6363  -2.5914  -2.5761  -2.5472  -2.5451
    -2.5161  -2.5002  -2.4736  -2.3904  -2.3365  -2.3136  -2.2895  -2.2854
    -2.2758  -2.2677  -2.2203  -2.2014  -2.1910  -2.0798  -2.0478  -2.0402
    -1.9630  -1.7841  -1.7338  -1.7109  -1.6986  -1.6139  -1.5902  -1.5766
    -1.2245  -0.5231  -0.3851  -0.1147   1.2433   1.2746   2.0576   2.1042
     2.7635   2.9867   4.4122   4.4941   5.0826   5.1269   6.0646

     the Fermi energy is     1.4460 ev

!    total energy              =   -3593.58548822 Ry
     Harris-Foulkes estimate   =   -3593.58548815 Ry
     estimated scf accuracy    <       0.00000002 Ry

     The total energy is the sum of the following terms:

     one-electron contribution =  -26520.05905970 Ry
     hartree contribution      =   13255.97297634 Ry
     xc contribution           =    -369.45895705 Ry
     ewald contribution        =   10039.98431885 Ry
     electric field correction =       0.00003723 Ry
     smearing contrib. (-TS)   =      -0.02480389 Ry

     convergence has been achieved in   6 iterations

 BEEF-vdW xc energy contributions
           1 :   -320.020232039383
           2 :    289.471909097229
           3 :   -238.601788005078
           4 :    182.849696271624
           5 :   -136.137257724682
           6 :    105.865740307602
           7 :   -91.6072753981841
           8 :    87.3990759583951
           9 :   -85.9072290806760
          10 :    82.1062688063470
          11 :   -74.8122989263717
          12 :    65.8231375740128
          13 :   -57.7526008111406
          14 :    52.1059992177061
          15 :   -48.6464918663191
          16 :    46.0742248338476
          17 :   -43.2246436249567
          18 :    39.8422538745546
          19 :   -36.5028444924446
          20 :    33.9314451429905
          21 :   -32.3360898812091
          22 :    31.2471647500487
          23 :   -29.9127765860285
          24 :    27.8880453727138
          25 :   -25.3666781703215
          26 :    23.0310072372973
          27 :   -21.5581387478429
          28 :    21.1487133433950
          29 :   -21.4073382800612
          30 :    21.6326039390317
          31 :   -32.0008435053134
          32 :   -23.2150517357920

     Forces acting on atoms (Ry/au):

     negative rho (up, down):  2.195E-03 0.000E+00
     atom    1 type  1   force =     0.00062262    0.00035947    0.00050150
     atom    2 type  1   force =    -0.00062262    0.00035947    0.00050150
     atom    3 type  1   force =     0.00000000   -0.00071894    0.00050150
     atom    4 type  1   force =     0.00000000   -0.00000000   -0.00083017
     atom    5 type  1   force =    -0.00000000    0.00168320   -0.00164080
     atom    6 type  1   force =    -0.00000001   -0.00000001   -0.00209236
     atom    7 type  1   force =    -0.00145770   -0.00084160   -0.00164084
     atom    8 type  1   force =     0.00145770   -0.00084160   -0.00164081
     atom    9 type  1   force =     0.00000005    0.00000007    0.00147930
     atom   10 type  1   force =    -0.00000006   -0.00009999    0.00126727
     atom   11 type  1   force =    -0.00008661    0.00004992    0.00126728
     atom   12 type  1   force =     0.00008665    0.00005001    0.00126726
     atom   13 type  2   force =    -0.00000004   -0.00000000   -0.00050554
     atom   14 type  3   force =     0.00000001   -0.00000000    0.00156491

     Total force =     0.003121     Total SCF correction =     0.000408
     SCF correction compared to forces is large: reduce conv_thr to get better values

     entering subroutine stress ...

     negative rho (up, down):  2.195E-03 0.000E+00
          total   stress  (Ry/bohr**3)                   (kbar)     P=   -3.50
  -0.00002827   0.00000000  -0.00000000         -4.16      0.00     -0.00
   0.00000000  -0.00002827   0.00000000          0.00     -4.16      0.00
  -0.00000000   0.00000000  -0.00001494         -0.00      0.00     -2.20

     bfgs converged in  11 scf cycles and  10 bfgs steps
     (criteria: energy <  1.0E+00, force <  1.9E-03)

     End of BFGS Geometry Optimization

     Final energy   =   -3593.5854882216 Ry
Begin final coordinates

ATOMIC_POSITIONS (crystal)
Ag1      0.166666667   0.166666667   0.402063960    0   0   0
Ag1      0.666666667   0.166666667   0.402063960    0   0   0
Ag1      0.166666667   0.666666667   0.402063960    0   0   0
Ag1      0.666666667   0.666666667   0.402063960    0   0   0
Ag1      0.833333333   0.333333333   0.500000000    0   0   0
Ag1      0.333333333   0.333333333   0.500000000    0   0   0
Ag1      0.833333333   0.833333333   0.500000000    0   0   0
Ag1      0.333333333   0.833333333   0.500000000    0   0   0
Ag1      0.000000003  -0.000000067   0.594217781
Ag1      0.506549069  -0.013098073   0.596659483
Ag1     -0.013098081   0.506549076   0.596659478
Ag1      0.506549005   0.506549018   0.596659481
O1       0.333333355   0.333333325   0.656912395
H1       0.333333321   0.333333347   0.696008715
End final coordinates

     Writing output data file calc.save

     General routines

     Parallel routines

   This run was terminated on:  11: 7:47  16Apr2018

   JOB DONE.
Job  /afs/slac/g/suncat/bin/suncat-tsmpirun -x LD_LIBRARY_PATH -wdir /scratch/qe101351_H2bzC pw.x -npool 4 -in pw.inp

TID   HOST_NAME   COMMAND_LINE            STATUS            TERMINATION_TIME
00000 suncat0066 pw.x -npool 4 -i  Done                     04/16/2018 11:07:47
00001 suncat0066 pw.x -npool 4 -i  Done                     04/16/2018 11:07:47
00002 suncat0066 pw.x -npool 4 -i  Done                     04/16/2018 11:07:47
00003 suncat0066 pw.x -npool 4 -i  Done                     04/16/2018 11:07:47
00004 suncat0066 pw.x -npool 4 -i  Done                     04/16/2018 11:07:47
00005 suncat0066 pw.x -npool 4 -i  Done                     04/16/2018 11:07:47
00006 suncat0066 pw.x -npool 4 -i  Done                     04/16/2018 11:07:47
00007 suncat0066 pw.x -npool 4 -i  Done                     04/16/2018 11:07:47
00008 suncat0062 pw.x -npool 4 -i  Done                     04/16/2018 11:07:47
00009 suncat0062 pw.x -npool 4 -i  Done                     04/16/2018 11:07:47
00010 suncat0062 pw.x -npool 4 -i  Done                     04/16/2018 11:07:47
00011 suncat0062 pw.x -npool 4 -i  Done                     04/16/2018 11:07:47
00012 suncat0062 pw.x -npool 4 -i  Done                     04/16/2018 11:07:47
00013 suncat0062 pw.x -npool 4 -i  Done                     04/16/2018 11:07:47
00014 suncat0062 pw.x -npool 4 -i  Done                     04/16/2018 11:07:47
00015 suncat0062 pw.x -npool 4 -i  Done                     04/16/2018 11:07:47
00016 suncat0171 pw.x -npool 4 -i  Done                     04/16/2018 11:07:47
00017 suncat0171 pw.x -npool 4 -i  Done                     04/16/2018 11:07:47
00018 suncat0171 pw.x -npool 4 -i  Done                     04/16/2018 11:07:47
00019 suncat0171 pw.x -npool 4 -i  Done                     04/16/2018 11:07:47
00020 suncat0171 pw.x -npool 4 -i  Done                     04/16/2018 11:07:47
00021 suncat0171 pw.x -npool 4 -i  Done                     04/16/2018 11:07:47
00022 suncat0171 pw.x -npool 4 -i  Done                     04/16/2018 11:07:47
00023 suncat0171 pw.x -npool 4 -i  Done                     04/16/2018 11:07:47
00024 suncat0168 pw.x -npool 4 -i  Done                     04/16/2018 11:07:47
00025 suncat0168 pw.x -npool 4 -i  Done                     04/16/2018 11:07:47
00026 suncat0168 pw.x -npool 4 -i  Done                     04/16/2018 11:07:47
00027 suncat0168 pw.x -npool 4 -i  Done                     04/16/2018 11:07:47
00028 suncat0168 pw.x -npool 4 -i  Done                     04/16/2018 11:07:47
00029 suncat0168 pw.x -npool 4 -i  Done                     04/16/2018 11:07:47
00030 suncat0168 pw.x -npool 4 -i  Done                     04/16/2018 11:07:47
00031 suncat0168 pw.x -npool 4 -i  Done                     04/16/2018 11:07:47