     Program PWSCF v.5.1rc2 (svn rev. ) starts on 18Apr2018 at 22:13:11

     Current dimensions of program PWSCF are:
     Max number of different atomic species (ntypx) = 10
     Max number of k-points (npk) =  40000
     Max angular momentum in pseudopotentials (lmaxx) =  3
     Presently stress not available with electric field

     IMPORTANT: XC functional enforced from input :
     Exchange-correlation      = BEEF-VDW ( 1  4 27 13 2)
     Any further DFT definition will be discarded
     Please, verify this is what you really want

     Subspace diagonalization in iterative solution of the eigenvalue problem:
     a serial algorithm will be used

     bravais-lattice index     =            0
     lattice parameter (alat)  =       1.8897  a.u.
     unit-cell volume          =    8507.0471 (a.u.)^3
     number of atoms/cell      =           14
     number of atomic types    =            3
     number of electrons       =       139.00
     number of Kohn-Sham states=           79
     kinetic-energy cutoff     =      36.7493  Ry
     charge density cutoff     =     367.4932  Ry
     convergence threshold     =      1.0E-05
     mixing beta               =       0.3000
     number of iterations used =           10  plain     mixing
     Exchange-correlation      = BEEF-VDW ( 1  4 27 13 2)
     nstep                     =           50

     celldm(1)=   1.889726  celldm(2)=   0.000000  celldm(3)=   0.000000
     celldm(4)=   0.000000  celldm(5)=   0.000000  celldm(6)=   0.000000

     crystal axes: (cart. coord. in units of alat)
               a(1) = (   7.468327   0.000000   0.000000 )
               a(2) = (   3.734164   6.467761   0.000000 )
               a(3) = (   0.000000   0.000000  26.097863 )

     reciprocal axes: (cart. coord. in units 2 pi/alat)
               b(1) = (  0.133899 -0.077307  0.000000 )
               b(2) = (  0.000000  0.154613  0.000000 )
               b(3) = (  0.000000  0.000000  0.038317 )

     PseudoPot. # 1 for La read from file:
     /home/mamunm/src/pseudo/gbrv1.5pbe/La.UPF
     MD5 check sum: 5937b0c7494ba0601a847275249473aa
     Pseudo is Ultrasoft + core correction, Zval = 11.0
     Generated by new atomic code, or converted to UPF format
     Using radial grid of  995 points,  8 beta functions with:
                l(1) =   0
                l(2) =   0
                l(3) =   1
                l(4) =   1
                l(5) =   2
                l(6) =   2
                l(7) =   3
                l(8) =   3
     Q(r) pseudized with  8 coefficients,  rinner =    1.700   1.700   1.700
                                                       1.700   1.700   1.700
                                                       1.700

     PseudoPot. # 2 for S  read from file:
     /home/mamunm/src/pseudo/gbrv1.5pbe/S.UPF
     MD5 check sum: 88d86576ff6df21479756cfb9bdac1df
     Pseudo is Ultrasoft + core correction, Zval =  6.0
     Generated by new atomic code, or converted to UPF format
     Using radial grid of  907 points,  6 beta functions with:
                l(1) =   0
                l(2) =   0
                l(3) =   1
                l(4) =   1
                l(5) =   2
                l(6) =   2
     Q(r) pseudized with  8 coefficients,  rinner =    1.300   1.300   1.300
                                                       1.300   1.300

     PseudoPot. # 3 for H  read from file:
     /home/mamunm/src/pseudo/gbrv1.5pbe/H.UPF
     MD5 check sum: 761ae9a214b05c3daf00ab9f6b793d6f
     Pseudo is Ultrasoft, Zval =  1.0
     Generated by new atomic code, or converted to UPF format
     Using radial grid of  615 points,  2 beta functions with:
                l(1) =   0
                l(2) =   0
     Q(r) pseudized with  8 coefficients,  rinner =    0.700

     vdW kernel table read from file vdW_kernel_table
     MD5 check sum: 095c7af220d748ca6e76c0b4c6cfb241

     atomic species   valence    mass     pseudopotential
        La1           11.00   138.90547     La( 1.00)
        S1             6.00    32.06000     S ( 1.00)
        H1             1.00     1.00800     H ( 1.00)

     No symmetry found

   Cartesian axes

     site n.     atom                  positions (alat units)
         1           La1 tau(   1) = (   1.8670818   1.0779602  10.0000000  )
         2           La1 tau(   2) = (   5.6012453   1.0779602  10.0000000  )
         3           La1 tau(   3) = (   3.7341635   4.3118406  10.0000000  )
         4           La1 tau(   4) = (   7.4683270   4.3118406  10.0000000  )
         5           La1 tau(   5) = (   7.4683270   2.1559203  13.0489317  )
         6           La1 tau(   6) = (   3.7341635   2.1559203  13.0489317  )
         7           La1 tau(   7) = (   9.3354088   5.3898008  13.0489317  )
         8           La1 tau(   8) = (   5.6012453   5.3898008  13.0489317  )
         9           La1 tau(   9) = (   0.0000000   0.0000000  16.0978635  )
        10           La1 tau(  10) = (   3.7341635   0.0000000  16.0978635  )
        11           La1 tau(  11) = (   1.8670818   3.2338805  16.0978635  )
        12           La1 tau(  12) = (   5.6012453   3.2338805  16.0978635  )
        13           S1  tau(  13) = (   1.8670818   1.0779602  18.1258635  )
        14           H1  tau(  14) = (   1.8670818   1.0779602  19.3758635  )

     number of k points=    20  Fermi-Dirac smearing, width (Ry)=  0.0110
                       cart. coord. in units 2pi/alat
        k(    1) = (   0.0000000   0.0000000   0.0000000), wk =   0.0555556
        k(    2) = (   0.0000000   0.0257688   0.0000000), wk =   0.1111111
        k(    3) = (   0.0000000   0.0515377   0.0000000), wk =   0.1111111
        k(    4) = (   0.0000000  -0.0773065   0.0000000), wk =   0.0555556
        k(    5) = (   0.0223165  -0.0128844   0.0000000), wk =   0.1111111
        k(    6) = (   0.0223165   0.0128844   0.0000000), wk =   0.1111111
        k(    7) = (   0.0223165   0.0386533   0.0000000), wk =   0.1111111
        k(    8) = (   0.0223165  -0.0901909   0.0000000), wk =   0.1111111
        k(    9) = (   0.0223165  -0.0644221   0.0000000), wk =   0.1111111
        k(   10) = (   0.0223165  -0.0386533   0.0000000), wk =   0.1111111
        k(   11) = (   0.0446329  -0.0257688   0.0000000), wk =   0.1111111
        k(   12) = (   0.0446329   0.0000000   0.0000000), wk =   0.1111111
        k(   13) = (   0.0446329   0.0257688   0.0000000), wk =   0.1111111
        k(   14) = (   0.0446329  -0.1030753   0.0000000), wk =   0.1111111
        k(   15) = (   0.0446329  -0.0773065   0.0000000), wk =   0.1111111
        k(   16) = (   0.0446329  -0.0515377   0.0000000), wk =   0.1111111
        k(   17) = (  -0.0669494   0.0386533   0.0000000), wk =   0.0555556
        k(   18) = (  -0.0669494   0.0644221   0.0000000), wk =   0.1111111
        k(   19) = (  -0.0669494   0.0901909   0.0000000), wk =   0.1111111
        k(   20) = (  -0.0669494  -0.0386533   0.0000000), wk =   0.0555556

     Largest allocated arrays     est. size (Mb)     dimensions
     Largest temporary arrays     est. size (Mb)     dimensions

     Initial potential from superposition of free atoms
     Check: negative starting charge=   -0.830900

     starting charge  138.61513, renormalised to  139.00000

     negative rho (up, down):  8.332E-01 0.000E+00

     *
     * You are using vdW-DF for exchange-correlation in this calculation.
     * Please cite the following three references that made this development
     * possible:
     *
     *   M. Dion, H. Rydberg, E. Schroder, D. C. Langreth, and
     *   B. I. Lundqvist, Phys. Rev. Lett. 92, 246401 (2004).
     *
     *   T. Thonhauser, V. R. Cooper, S. Li, A. Puzder, P. Hyldgaard, and
     *   D. C. Langreth, Phys. Rev. B 76, 125112 (2007).
     *
     *   G. Roman-Perez and J. M. Soler, Phys. Rev. Lett. 103, 096102 (2009).
     *
     *
     * If you are using vdW-DF2, please also cite:
     *
     *   K. Lee, E. D. Murray, L. Kong, B. I. Lundqvist, and
     *   D. C. Langreth, Phys. Rev. B 82, 081101(R) (2010).
     *
     *
     * If you are calculating the stress with vdW-DF, please also cite:
     *
     *   R. Sabatini, E. Kucukbenli, B. Kolb, T. Thonhauser, and
     *   S. de Gironcoli, J. Phys.: Condens. Matter 24, 424209 (2012).
     *

     Carrying out vdW-DF run using the following parameters:

     Nqs =      20    Nr_points =    1024   r_max =   100.000
     q_mesh =
               0.00001000     0.04494208     0.09755937     0.15916263
               0.23128650     0.31572767     0.41458969     0.53033537
               0.66584808     0.82450364     1.01025438     1.22772762
               1.48234092     1.78043706     2.12944203     2.53805004
               3.01644009     3.57652955     4.23227104     5.00000000

     Gradients computed in reciprocal space

     Adding external electric field

     Computed dipole along edir(3) :
        Dipole               -0.1926 Ry au,         -0.4895 Debye
        Dipole field         -0.0003 Ry au

        Potential amp.        0.0274 Ry
        Total length         48.0849 bohr

     Starting wfc are  245 randomized atomic wfcs

     Self-consistent Calculation

     iteration #  1     ecut=    36.75 Ry     beta=0.30
     Davidson diagonalization with overlap
     ethr =  1.00E-02,  avg # of iterations =  2.0

[...]

     total energy              =   -1270.98171232 Ry
     Harris-Foulkes estimate   =   -1274.75132047 Ry
     estimated scf accuracy    <       7.85230074 Ry

[...]

     iteration # 16     ecut=    36.75 Ry     beta=0.30
     Davidson diagonalization with overlap
     c_bands:  1 eigenvalues not converged
     ethr =  5.00E-08,  avg # of iterations =  8.2

[...]

     End of self-consistent calculation

          k = 0.0000 0.0000 0.0000 ( 31997 PWs)   bands (ev):

   -31.2578 -31.2458 -31.1272 -31.1244 -31.1237 -31.1232 -31.0663 -31.0663
   -30.7992 -30.6858 -30.6727 -30.6725 -15.4518 -15.3592 -15.3590 -15.3230
   -15.2894 -15.2893 -15.2105 -15.1204 -15.1039 -15.1038 -14.9417 -14.7850
   -14.7345 -14.7343 -14.5874 -14.5682 -14.5681 -14.5243 -14.5242 -14.5146
   -14.4978 -14.4977 -14.4628 -14.2614 -14.2614 -14.2371 -14.2371 -14.2115
   -14.1729 -14.1728 -14.1578 -14.0792 -14.0792 -14.0734 -13.8493 -13.8493
   -12.4440  -5.1719  -1.6217  -1.6217  -0.6557   0.0681   0.4112   0.4391
     0.5021   0.5021   0.7372   0.7372   0.8270   0.9628   0.9629   0.9691
     1.1150   1.1221   1.1221   1.8682   1.8682   2.0007   2.2923   2.5773
     2.6449   2.6450   2.7503   2.9163   3.1854   3.2924   3.3031

[...]

          k =-0.0669 0.0387 0.0000 ( 31970 PWs)   bands (ev):

[...]

     the Fermi energy is     2.0982 ev

!    total energy              =   -1273.94212637 Ry
     Harris-Foulkes estimate   =   -1273.94212418 Ry
     estimated scf accuracy    <       0.00000467 Ry

     The total energy is the sum of the following terms:

     one-electron contribution =   -4782.81034281 Ry
     hartree contribution      =    2405.87121173 Ry
     xc contribution           =    -618.20418257 Ry
     ewald contribution        =    1721.32374888 Ry
     electric field correction =       0.00001356 Ry
     smearing contrib. (-TS)   =      -0.12257516 Ry

     convergence has been achieved in  18 iterations

 BEEF-vdW xc energy contributions
           1 :   -547.453290105976
           2 :    503.331992559519
           3 :   -425.331319419612
           4 :    330.115222824805
           5 :   -235.388894984262
           6 :    155.189435756191
           7 :   -97.1939102276604
           8 :    62.3830664872812
           9 :   -46.5698821698135
          10 :    42.8596909596831
          11 :   -44.1018023916267
          12 :    44.6476169538838
          13 :   -41.1666503386357
          14 :    32.6657602191442
          15 :   -20.0556575656340
          16 :    5.54032424617128
          17 :    8.06515348590199
          18 :   -18.0840528056066
          19 :    22.7282216790575
          20 :   -21.6633570789025
          21 :    16.1566609198503
          22 :   -8.68240196844067
          23 :    2.07048307591049
          24 :    1.49523705002366
          25 :   -1.22319447249720
          26 :   -2.11718060383907
          27 :    6.66895280032338
          28 :   -10.3700442487379
          29 :    11.8272808461402
          30 :   -10.7996098305732
          31 :   -46.7759451450722
          32 :   -33.5412451443622

     Forces acting on atoms (Ry/au):

     negative rho (up, down):  5.863E-01 0.000E+00
     atom    1 type  1   force =     0.00001072    0.00000290    0.00331004
     atom    2 type  1   force =    -0.00001433   -0.00208423    0.00470359
     atom    3 type  1   force =    -0.00180761    0.00103615    0.00471463
     atom    4 type  1   force =     0.00181124    0.00104740    0.00472780
     atom    5 type  1   force =    -0.00366515    0.00205861   -0.00221344
     atom    6 type  1   force =     0.00366359    0.00209805   -0.00224662
     atom    7 type  1   force =     0.00004429    0.00003996   -0.00610066
     atom    8 type  1   force =    -0.00004169   -0.00419370   -0.00221150
     atom    9 type  1   force =    -0.00301957   -0.00174452   -0.00276706
     atom   10 type  1   force =     0.00301621   -0.00172695   -0.00276055
     atom   11 type  1   force =     0.00001060    0.00347580   -0.00275962
     atom   12 type  1   force =    -0.00000946   -0.00001262   -0.00497398
     atom   13 type  2   force =     0.00000139    0.00000216   -0.11909509
     atom   14 type  3   force =    -0.00000022    0.00000100    0.12767245

     Total force =     0.174837     Total SCF correction =     0.000979

     entering subroutine stress ...

     negative rho (up, down):  5.863E-01 0.000E+00
          total   stress  (Ry/bohr**3)                   (kbar)     P=    1.47
   0.00000332  -0.00000000  -0.00000000          0.49     -0.00     -0.00
  -0.00000000   0.00000333  -0.00000000         -0.00      0.49     -0.00
  -0.00000000  -0.00000000   0.00002333         -0.00     -0.00      3.43

     BFGS Geometry Optimization

     number of scf cycles    =   1
     number of bfgs steps    =   0

     energy   new            =   -1273.9421263654 Ry

     new trust radius        =       0.1276724528 bohr
     new conv_thr            =       0.0000099958 Ry

ATOMIC_POSITIONS (crystal)
La1      0.166666667   0.166666667   0.383173129    0   0   0
La1      0.666666667   0.166666667   0.383173129    0   0   0
La1      0.166666667   0.666666667   0.383173129    0   0   0
La1      0.666666667   0.666666667   0.383173129    0   0   0
La1      0.833333333   0.333333333   0.500000000    0   0   0
La1      0.333333333   0.333333333   0.500000000    0   0   0
La1      0.833333333   0.833333333   0.500000000    0   0   0
La1      0.333333333   0.833333333   0.500000000    0   0   0
La1     -0.000142589  -0.000142732   0.616770764
La1      0.500284364  -0.000141295   0.616770896
La1     -0.000141440   0.500284382   0.616770915
La1      0.499999846   0.499998967   0.616726015
S1       0.166666677   0.166666843   0.692119532
H1       0.166666610   0.166666748   0.745019792

     Writing output data file calc.save
     Check: negative starting charge=   -0.830900
     NEW-OLD atomic charge density approx. for the potential
     Check: negative starting charge=   -0.830659

[...]

     energy   old            =   -1273.9421263654 Ry
     energy   new            =   -1273.9523844675 Ry

     CASE: energy  _new < energy  _old

[...]

     iteration #  2     ecut=    36.75 Ry     beta=0.30
     Davidson diagonalization with overlap
     c_bands:  1 eigenvalues not converged
     c_bands:  1 eigenvalues not converged
     ethr =  2.51E-06,  avg # of iterations = 15.0

[...]

     Threshold (ethr) on eigenvalues was too large:
     Diagonalizing with lowered threshold

     Davidson diagonalization with overlap
     ethr =  7.47E-08,  avg # of iterations =  1.4

[...]

     Total force =     0.005333     Total SCF correction =     0.000935
     SCF correction compared to forces is large: reduce conv_thr to get better values

[...]

     Total force =     0.003844     Total SCF correction =     0.000309

[...]

     number of scf cycles    =  13
     number of bfgs steps    =  12

     energy   old            =   -1273.9543389253 Ry
     energy   new            =   -1273.9543645422 Ry

     CASE: energy  _new < energy  _old

     new trust radius        =       0.0037321107 bohr
     new conv_thr            =       0.0000001000 Ry

ATOMIC_POSITIONS (crystal)
La1      0.166666667   0.166666667   0.383173129    0   0   0
La1      0.666666667   0.166666667   0.383173129    0   0   0
La1      0.166666667   0.666666667   0.383173129    0   0   0
La1      0.666666667   0.666666667   0.383173129    0   0   0
La1      0.833333333   0.333333333   0.500000000    0   0   0
La1      0.333333333   0.333333333   0.500000000    0   0   0
La1      0.833333333   0.833333333   0.500000000    0   0   0
La1      0.333333333   0.833333333   0.500000000    0   0   0
La1     -0.000538031  -0.000538689   0.616092641
La1      0.501074195  -0.000536002   0.616092745
La1     -0.000536489   0.501074756   0.616092637
La1      0.499997920   0.499998966   0.613463451
S1       0.166666997   0.166666588   0.694653047
H1       0.166666042   0.166666294   0.746663156

     Writing output data file calc.save
     Check: negative starting charge=   -0.831820
     NEW-OLD atomic charge density approx. for the potential
     Check: negative starting charge=   -0.831790

[...]

     Self-consistent Calculation

[...]

     Threshold (ethr) on eigenvalues was too large:
     Diagonalizing with lowered threshold

     Davidson diagonalization with overlap
     ethr =  6.75E-09,  avg # of iterations = 10.2

[...]

     total energy              =   -1273.95437259 Ry
     Harris-Foulkes estimate   =   -1273.95437280 Ry
     estimated scf accuracy    <       0.00000197 Ry

     iteration #  7     ecut=    36.75 Ry     beta=0.30
     Davidson diagonalization with overlap
     ethr =  4.78E-10,  avg # of iterations =  6.6

[...]

     negative rho (up, down):  5.851E-01 0.000E+00

     Adding external electric field

     Computed dipole along edir(3) :
        Dipole                0.0359 Ry au,          0.0912 Debye
        Dipole field          0.0001 Ry au

        Potential amp.       -0.0051 Ry
        Total length         48.0849 bohr

     End of self-consistent calculation

[...]

          k = 0.0446-0.0515 0.0000 ( 31991 PWs)   bands (ev):

[...]

          k =-0.0669-0.0387 0.0000 ( 31970 PWs)   bands (ev):

   -31.2221 -31.2209 -31.2033 -31.1651 -31.1553 -31.1539 -31.1150 -31.0961
   -30.7612 -30.7438 -30.6938 -30.6828 -15.2378 -15.1985 -15.1638 -15.1322
   -15.1043 -15.0898 -15.0120 -14.9954 -14.9706 -14.9370 -14.8987 -14.8560
   -14.8519 -14.8336 -14.8277 -14.8085 -14.7536 -14.7477 -14.7461 -14.7194
   -14.4996 -14.4891 -14.4225 -14.4213 -14.3928 -14.3811 -14.3560 -14.3357
   -14.3003 -14.2877 -14.1753 -14.1555 -14.1415 -14.1285 -13.9849 -13.9702
   -11.9844  -4.8226  -1.5669  -1.4930   0.4970   0.5385   0.9254   0.9671
     1.2245   1.2383   1.2913   1.3090   1.3256   1.4839   1.6855   1.7344
     1.8660   1.8797   1.8935   1.9316   2.1396   2.1576   2.2476   2.2631
     2.2814   2.3063   2.3379   2.4924   2.5894   2.6134   2.6243

     the Fermi energy is     2.0691 ev

!    total energy              =   -1273.95437262 Ry
     Harris-Foulkes estimate   =   -1273.95437280 Ry
     estimated scf accuracy    <       0.00000006 Ry

     The total energy is the sum of the following terms:

     one-electron contribution =   -4802.31123987 Ry
     hartree contribution      =    2415.61018643 Ry
     xc contribution           =    -618.16924031 Ry
     ewald contribution        =    1731.03779915 Ry
     electric field correction =       0.00000190 Ry
     smearing contrib. (-TS)   =      -0.12187993 Ry

     convergence has been achieved in   7 iterations

 BEEF-vdW xc energy contributions
           1 :   -547.423789910486
           2 :    503.312661444312
           3 :   -425.325364111317
           4 :    330.114526226231
           5 :   -235.378407886082
           6 :    155.158804448272
           7 :   -97.1469905209101
           8 :    62.3380078890704
           9 :   -46.5483180535068
          10 :    42.8715298451002
          11 :   -44.1368219584210
          12 :    44.6808122021300
          13 :   -41.1745228279642
          14 :    32.6424363266733
          15 :   -20.0171345444027
          16 :    5.51392832915076
          17 :    8.05852308071189
          18 :   -18.0434504284167
          19 :    22.6737446528150
          20 :   -21.6240777428405
          21 :    16.1524354698357
          22 :   -8.71111597323375
          23 :    2.10984411797631
          24 :    1.47243971342891
          25 :   -1.23104243753414
          26 :   -2.08602879995965
          27 :    6.63662172731347
          28 :   -10.3577440821125
          29 :    11.8415517778003
          30 :   -10.8293028037758
          31 :   -46.7747708049621
          32 :   -33.5419130908583

     Forces acting on atoms (Ry/au):

     negative rho (up, down):  5.851E-01 0.000E+00
     atom    1 type  1   force =     0.00000042    0.00000017    0.00270896
     atom    2 type  1   force =    -0.00000024   -0.00198010    0.00437218
     atom    3 type  1   force =    -0.00171508    0.00098975    0.00437214
     atom    4 type  1   force =     0.00171498    0.00099025    0.00437193
     atom    5 type  1   force =    -0.00310176    0.00179035   -0.00408798
     atom    6 type  1   force =     0.00310156    0.00179068   -0.00408905
     atom    7 type  1   force =     0.00000006   -0.00000006   -0.00648942
     atom    8 type  1   force =    -0.00000016   -0.00358153   -0.00408791
     atom    9 type  1   force =    -0.00041552   -0.00023944    0.00077314
     atom   10 type  1   force =     0.00041638   -0.00024162    0.00077195
     atom   11 type  1   force =    -0.00000132    0.00048125    0.00077235
     atom   12 type  1   force =     0.00000151    0.00000035    0.00003862
     atom   13 type  2   force =    -0.00000111   -0.00000009    0.00112830
     atom   14 type  3   force =     0.00000027    0.00000004   -0.00055519

     Total force =     0.002017     Total SCF correction =     0.000603
     SCF correction compared to forces is large: reduce conv_thr to get better values

     entering subroutine stress ...

     negative rho (up, down):  5.851E-01 0.000E+00
          total   stress  (Ry/bohr**3)                   (kbar)     P=   -0.22
   0.00000245  -0.00000000  -0.00000000          0.36     -0.00     -0.00
  -0.00000000   0.00000245   0.00000000         -0.00      0.36      0.00
  -0.00000000   0.00000000  -0.00000944         -0.00      0.00     -1.39

     bfgs converged in  14 scf cycles and  13 bfgs steps
     (criteria: energy <  1.0E+00, force <  1.9E-03)

     End of BFGS Geometry Optimization

     Final energy   =   -1273.9543726196 Ry
Begin final coordinates

ATOMIC_POSITIONS (crystal)
La1      0.166666667   0.166666667   0.383173129    0   0   0
La1      0.666666667   0.166666667   0.383173129    0   0   0
La1      0.166666667   0.666666667   0.383173129    0   0   0
La1      0.666666667   0.666666667   0.383173129    0   0   0
La1      0.833333333   0.333333333   0.500000000    0   0   0
La1      0.333333333   0.333333333   0.500000000    0   0   0
La1      0.833333333   0.833333333   0.500000000    0   0   0
La1      0.333333333   0.833333333   0.500000000    0   0   0
La1     -0.000538031  -0.000538689   0.616092641
La1      0.501074195  -0.000536002   0.616092745
La1     -0.000536489   0.501074756   0.616092637
La1      0.499997920   0.499998966   0.613463451
S1       0.166666997   0.166666588   0.694653047
H1       0.166666042   0.166666294   0.746663156
End final coordinates

     Writing output data file calc.save

     General routines

     Parallel routines

   This run was terminated on:   0:30:35  19Apr2018

   JOB DONE.