     Program PWSCF v.5.1rc2 (svn rev. 11289) starts on  2May2018 at 14:42:11

     Current dimensions of program PWSCF are:
     Max number of different atomic species (ntypx) = 10
     Max number of k-points (npk) =  40000
     Max angular momentum in pseudopotentials (lmaxx) =  3
     Presently stress not available with electric field

     IMPORTANT: XC functional enforced from input :
     Exchange-correlation      = BEEF-VDW ( 1  4 27 13 2)
     Any further DFT definition will be discarded
     Please, verify this is what you really want

     Subspace diagonalization in iterative solution of the eigenvalue problem:
     a serial algorithm will be used

     bravais-lattice index     =            0
     lattice parameter (alat)  =       1.8897  a.u.
     unit-cell volume          =    6116.8020 (a.u.)^3
     number of atoms/cell      =           13
     number of atomic types    =            2
     number of electrons       =       133.00
     number of Kohn-Sham states=           76
     kinetic-energy cutoff     =      36.7493  Ry
     charge density cutoff     =     367.4932  Ry
     convergence threshold     =      1.0E-05
     mixing beta               =       0.3000
     number of iterations used =           10  plain     mixing
     Exchange-correlation      = BEEF-VDW ( 1  4 27 13 2)
     nstep                     =           50

     celldm(1)=   1.889726  celldm(2)=   0.000000  celldm(3)=   0.000000
     celldm(4)=   0.000000  celldm(5)=   0.000000  celldm(6)=   0.000000

     crystal axes: (cart. coord. in units of alat)
               a(1) = (   6.437465   0.000000   0.000000 )
               a(2) = (   3.218732   5.575008   0.000000 )
               a(3) = (   0.000000   0.000000  25.256168 )

     reciprocal axes: (cart. coord. in units 2 pi/alat)
               b(1) = (  0.155341 -0.089686  0.000000 )
               b(2) = (  0.000000  0.179372  0.000000 )
               b(3) = (  0.000000  0.000000  0.039594 )

     PseudoPot. # 1 for Sc read from file:
     /u/if/mamunm/psp/gbrv1.5pbe/Sc.UPF
     MD5 check sum: db30a2753ba66ef00f23801d899b7e7f
     Pseudo is Ultrasoft + core correction, Zval = 11.0
     Generated by new atomic code, or converted to UPF format
     Using radial grid of  849 points,  6 beta functions with:
                l(1) =   0
                l(2) =   0
                l(3) =   1
                l(4) =   1
                l(5) =   2
                l(6) =   2
     Q(r) pseudized with  6 coefficients,  rinner =    1.200   1.200   1.200
                                                       1.200   1.200

     PseudoPot. # 2 for H  read from file:
     /u/if/mamunm/psp/gbrv1.5pbe/H.UPF
     MD5 check sum: 761ae9a214b05c3daf00ab9f6b793d6f
     Pseudo is Ultrasoft, Zval =  1.0
     Generated by new atomic code, or converted to UPF format
     Using radial grid of  615 points,  2 beta functions with:
                l(1) =   0
                l(2) =   0
     Q(r) pseudized with  8 coefficients,  rinner =    0.700

     vdW kernel table read from file vdW_kernel_table
     MD5 check sum: 095c7af220d748ca6e76c0b4c6cfb241

     atomic species   valence    mass     pseudopotential
        Sc1           11.00    44.95591     Sc( 1.00)
        H1             1.00     1.00800     H ( 1.00)

     No symmetry found

   Cartesian axes

     site n.     atom                  positions (alat units)
         1           Sc1 tau(   1) = (   1.6093662   0.9291680  10.0000000  )
         2           Sc1 tau(   2) = (   4.8280986   0.9291680  10.0000000  )
         3           Sc1 tau(   3) = (   3.2187324   3.7166720  10.0000000  )
         4           Sc1 tau(   4) = (   6.4374648   3.7166720  10.0000000  )
         5           Sc1 tau(   5) = (   6.4374648   1.8583360  12.6280840  )
         6           Sc1 tau(   6) = (   3.2187324   1.8583360  12.6280840  )
         7           Sc1 tau(   7) = (   8.0468310   4.6458400  12.6280840  )
         8           Sc1 tau(   8) = (   4.8280986   4.6458400  12.6280840  )
         9           Sc1 tau(   9) = (   0.0000000   0.0000000  15.2561680  )
        10           Sc1 tau(  10) = (   3.2187324   0.0000000  15.2561680  )
        11           Sc1 tau(  11) = (   1.6093662   2.7875040  15.2561680  )
        12           Sc1 tau(  12) = (   4.8280986   2.7875040  15.2561680  )
        13           H1  tau(  13) = (   0.0000000   0.0000000  16.9646680  )

     number of k points=    20  Fermi-Dirac smearing, width (Ry)=  0.0110
                       cart. coord. in units 2pi/alat
        k(    1) = (   0.0000000   0.0000000   0.0000000), wk =   0.0555556
        k(    2) = (   0.0000000   0.0298953   0.0000000), wk =   0.1111111
        k(    3) = (   0.0000000   0.0597906   0.0000000), wk =   0.1111111
        k(    4) = (   0.0000000  -0.0896860   0.0000000), wk =   0.0555556
        k(    5) = (   0.0258901  -0.0149477   0.0000000), wk =   0.1111111
        k(    6) = (   0.0258901   0.0149477   0.0000000), wk =   0.1111111
        k(    7) = (   0.0258901   0.0448430   0.0000000), wk =   0.1111111
        k(    8) = (   0.0258901  -0.1046336   0.0000000), wk =   0.1111111
        k(    9) = (   0.0258901  -0.0747383   0.0000000), wk =   0.1111111
        k(   10) = (   0.0258901  -0.0448430   0.0000000), wk =   0.1111111
        k(   11) = (   0.0517802  -0.0298953   0.0000000), wk =   0.1111111
        k(   12) = (   0.0517802   0.0000000   0.0000000), wk =   0.1111111
        k(   13) = (   0.0517802   0.0298953   0.0000000), wk =   0.1111111
        k(   14) = (   0.0517802  -0.1195813   0.0000000), wk =   0.1111111
        k(   15) = (   0.0517802  -0.0896860   0.0000000), wk =   0.1111111
        k(   16) = (   0.0517802  -0.0597906   0.0000000), wk =   0.1111111
        k(   17) = (  -0.0776703   0.0448430   0.0000000), wk =   0.0555556
        k(   18) = (  -0.0776703   0.0747383   0.0000000), wk =   0.1111111
        k(   19) = (  -0.0776703   0.1046336   0.0000000), wk =   0.1111111
        k(   20) = (  -0.0776703  -0.0448430   0.0000000), wk =   0.0555556

     Largest allocated arrays     est. size (Mb)     dimensions
     Largest temporary arrays     est. size (Mb)     dimensions

     Initial potential from superposition of free atoms
     Check: negative starting charge=   -0.000283

     starting charge  132.97116, renormalised to  133.00000

     negative rho (up, down):  2.830E-04 0.000E+00

     *
     * You are using vdW-DF for exchange-correlation in this calculation.
     * Please cite the following three references that made this development
     * possible:
     *
     *   M. Dion, H. Rydberg, E. Schroder, D. C. Langreth, and
     *   B. I. Lundqvist, Phys. Rev. Lett. 92, 246401 (2004).
     *
     *   T. Thonhauser, V. R. Cooper, S. Li, A. Puzder, P. Hyldgaard, and
     *   D. C. Langreth, Phys. Rev. B 76, 125112 (2007).
     *
     *   G. Roman-Perez and J. M. Soler, Phys. Rev. Lett. 103, 096102 (2009).
     *
     *
     * If you are using vdW-DF2, please also cite:
     *
     *   K. Lee, E. D. Murray, L. Kong, B. I. Lundqvist, and
     *   D. C. Langreth, Phys. Rev. B 82, 081101(R) (2010).
     *
     *
     * If you are calculating the stress with vdW-DF, please also cite:
     *
     *   R. Sabatini, E. Kucukbenli, B. Kolb, T. Thonhauser, and
     *   S. de Gironcoli, J. Phys.: Condens. Matter 24, 424209 (2012).
     *

     Carrying out vdW-DF run using the following parameters:

     Nqs =      20    Nr_points =    1024   r_max =   100.000
     q_mesh =
               0.00001000     0.04494208     0.09755937     0.15916263
               0.23128650     0.31572767     0.41458969     0.53033537
               0.66584808     0.82450364     1.01025438     1.22772762
               1.48234092     1.78043706     2.12944203     2.53805004
               3.01644009     3.57652955     4.23227104     5.00000000

     Gradients computed in reciprocal space

     Adding external electric field

     Computed dipole along edir(3) :
        Dipole               -0.0017 Ry au,         -0.0043 Debye
        Dipole field         -0.0000 Ry au

        Potential amp.        0.0003 Ry
        Total length         46.5341 bohr

     Starting wfc are  157 randomized atomic wfcs

     Self-consistent Calculation

     iteration #  1     ecut=    36.75 Ry     beta=0.30
     Davidson diagonalization with overlap
     ethr =  1.00E-02,  avg # of iterations =  2.0

[...]

     total energy              =   -1136.39021001 Ry
     Harris-Foulkes estimate   =   -1139.30994976 Ry
     estimated scf accuracy    <       6.20525112 Ry

[...]

     End of self-consistent calculation

          k = 0.0000 0.0000 0.0000 ( 23031 PWs)   bands (ev):

   -49.6468 -49.6169 -49.6123 -49.6110 -49.5717 -49.5712 -49.5699 -49.1809
   -49.1361 -49.1359 -49.1344 -49.0748 -28.3522 -28.3439 -28.3308 -28.3306
   -28.3257 -28.3056 -28.3055 -28.3025 -28.3023 -28.2915 -28.2383 -28.2381
   -28.2378 -28.1217 -28.0708 -28.0691 -28.0689 -28.0425 -28.0415 -27.9909
   -27.9909 -27.9285 -27.8970 -27.8969 -27.7622 -27.7428 -27.7428 -27.7259
   -27.6953 -27.6952 -27.6618 -27.6618 -27.6557 -27.5850 -27.5849 -27.5644
    -4.4620  -3.4922  -2.3616  -1.8184  -1.1583  -1.1582  -1.1368  -1.0466
    -1.0465  -1.0019  -0.7785  -0.7784  -0.7009  -0.2345  -0.2345  -0.2191
     0.0183   0.0693   0.0694   0.4262   0.8107   0.8864   0.9393   0.9549
     0.9549   1.0774   1.0776   1.2780

[...]

          k =-0.0777 0.0448 0.0000 ( 23032 PWs)   bands (ev):

[...]

     the Fermi energy is     0.3328 ev

!    total energy              =   -1138.78602576 Ry
     Harris-Foulkes estimate   =   -1138.78602590 Ry
     estimated scf accuracy    <       0.00000213 Ry

     The total energy is the sum of the following terms:

     one-electron contribution =   -7155.33873121 Ry
     hartree contribution      =    3559.59649745 Ry
     xc contribution           =    -167.19559746 Ry
     ewald contribution        =    2624.28231807 Ry
     electric field correction =       0.00005467 Ry
     smearing contrib. (-TS)   =      -0.13056728 Ry

     convergence has been achieved in  19 iterations

 BEEF-vdW xc energy contributions
           1 :   -141.704281242750
           2 :    124.684138368304
           3 :   -98.1742618199827
           4 :    72.4646656297436
           5 :   -54.7828635039935
           6 :    46.3541135155558
           7 :   -43.6481374957925
           8 :    42.0585051452331
           9 :   -39.0484018538464
          10 :    34.8942048171488
          11 :   -31.2626502853779
          12 :    29.2578445937573
          13 :   -28.5186456396165
          14 :    27.7938239131052
          15 :   -26.1966783359986
          16 :    23.9395468453749
          17 :   -21.9825801364578
          18 :    21.0529799522338
          19 :   -20.9900236337465
          20 :    20.9607159583651
          21 :   -20.2513032511952
          22 :    18.8681536857131
          23 :   -17.4466065297420
          24 :    16.6270553520598
          25 :   -16.4974275881198
          26 :    16.5750905028252
          27 :   -16.2875919894252
          28 :    15.4823008643839
          29 :   -14.5143836599465
          30 :    13.8746388224832
          31 :   -16.6999613968424
          32 :   -11.9602593334189

     Forces acting on atoms (Ry/au):

     negative rho (up, down):  1.249E-04 0.000E+00
     atom    1 type  1   force =     0.00017584    0.00013064    0.00150150
     atom    2 type  1   force =    -0.00017619    0.00012291    0.00148402
     atom    3 type  1   force =    -0.00000560   -0.00022482    0.00148376
     atom    4 type  1   force =     0.00000066   -0.00002823    0.00127964
     atom    5 type  1   force =    -0.00007130    0.00529086    0.00085703
     atom    6 type  1   force =     0.00007318   -0.00010292    0.00290749
     atom    7 type  1   force =    -0.00466742   -0.00254898    0.00090903
     atom    8 type  1   force =     0.00466756   -0.00263466    0.00097357
     atom    9 type  1   force =    -0.00000409    0.00001394   -0.07269060
     atom   10 type  1   force =     0.00000735   -0.00200430   -0.00212824
     atom   11 type  1   force =    -0.00175570    0.00099243   -0.00226985
     atom   12 type  1   force =     0.00175422    0.00098931   -0.00226868
     atom   13 type  2   force =     0.00000151    0.00000382    0.06796134

     Total force =     0.099648     Total SCF correction =     0.002654

     entering subroutine stress ...

     negative rho (up, down):  1.249E-04 0.000E+00
          total   stress  (Ry/bohr**3)                   (kbar)     P=    3.57
   0.00002715   0.00000000   0.00000000          3.99      0.00      0.00
   0.00000000   0.00002714   0.00000000          0.00      3.99      0.00
   0.00000000   0.00000000   0.00001853          0.00      0.00      2.73

     BFGS Geometry Optimization

     number of scf cycles    =   1
     number of bfgs steps    =   0

     energy   new            =   -1138.7860257605 Ry

     new trust radius        =       0.0726906008 bohr
     new conv_thr            =       0.0000099958 Ry

ATOMIC_POSITIONS (crystal)
Sc1      0.166666667   0.166666667   0.395942884    0   0   0
Sc1      0.666666667   0.166666667   0.395942884    0   0   0
Sc1      0.166666667   0.666666667   0.395942884    0   0   0
Sc1      0.666666667   0.666666667   0.395942884    0   0   0
Sc1      0.833333333   0.333333333   0.500000000    0   0   0
Sc1      0.333333333   0.333333333   0.500000000    0   0   0
Sc1      0.833333333   0.833333333   0.500000000    0   0   0
Sc1      0.333333333   0.833333333   0.500000000    0   0   0
Sc1     -0.000000997   0.000001323   0.602534073
Sc1      0.500095727  -0.000190247   0.604012524
Sc1     -0.000191424   0.500094201   0.604009557
Sc1      0.500097249   0.500093905   0.604009581
H1      -0.000000057   0.000000362   0.673127910

     Writing output data file calc.save
     Check: negative starting charge=   -0.000283
     NEW-OLD atomic charge density approx. for the potential
     Check: negative starting charge=   -0.000283

[...]

     energy   old            =   -1138.7860257605 Ry
     energy   new            =   -1138.7937819372 Ry

     CASE: energy  _new < energy  _old

[...]

     Total force =     0.005189     Total SCF correction =     0.000746
     SCF correction compared to forces is large: reduce conv_thr to get better values

[...]

     number of scf cycles    =   4
     number of bfgs steps    =   3

     energy   old            =   -1138.7979593238 Ry
     energy   new            =   -1138.7986783596 Ry

     CASE: energy  _new < energy  _old

     new trust radius        =       0.0095995448 bohr
     new conv_thr            =       0.0000001000 Ry

ATOMIC_POSITIONS (crystal)
Sc1      0.166666667   0.166666667   0.395942884    0   0   0
Sc1      0.666666667   0.166666667   0.395942884    0   0   0
Sc1      0.166666667   0.666666667   0.395942884    0   0   0
Sc1      0.666666667   0.666666667   0.395942884    0   0   0
Sc1      0.833333333   0.333333333   0.500000000    0   0   0
Sc1      0.333333333   0.333333333   0.500000000    0   0   0
Sc1      0.833333333   0.833333333   0.500000000    0   0   0
Sc1      0.333333333   0.833333333   0.500000000    0   0   0
Sc1     -0.000012999   0.000021416   0.599777433
Sc1      0.500639133  -0.001273761   0.603809740
Sc1     -0.001286280   0.500628379   0.603795228
Sc1      0.500659847   0.500624602   0.603798140
H1      -0.000000463   0.000000419   0.675772900

     Writing output data file calc.save
     Check: negative starting charge=   -0.000278
     NEW-OLD atomic charge density approx. for the potential
     Check: negative starting charge=   -0.000278

[...]

     Self-consistent Calculation

[...]

     total energy              =   -1138.79872304 Ry
     Harris-Foulkes estimate   =   -1138.79872309 Ry
     estimated scf accuracy    <       0.00000015 Ry

     iteration # 12     ecut=    36.75 Ry     beta=0.30
     Davidson diagonalization with overlap
     ethr =  1.15E-10,  avg # of iterations =  6.5

[...]

     negative rho (up, down):  1.175E-04 0.000E+00

     Adding external electric field

     Computed dipole along edir(3) :
        Dipole               -0.1974 Ry au,         -0.5018 Debye
        Dipole field         -0.0004 Ry au

        Potential amp.        0.0377 Ry
        Total length         46.5341 bohr

     End of self-consistent calculation

[...]

          k = 0.0518-0.0598 0.0000 ( 23012 PWs)   bands (ev):

[...]

          k =-0.0777-0.0448 0.0000 ( 23032 PWs)   bands (ev):

   -49.6778 -49.6665 -49.6548 -49.6309 -49.6282 -49.6074 -49.6052 -49.2188
   -49.1849 -49.1526 -49.1393 -49.1318 -28.3736 -28.3590 -28.3435 -28.3348
   -28.3034 -28.3033 -28.3013 -28.2982 -28.2779 -28.2736 -28.2714 -28.2444
   -28.2230 -28.2052 -28.1983 -28.1962 -28.1714 -28.1705 -28.0929 -28.0673
   -28.0636 -27.8974 -27.8763 -27.8604 -27.8474 -27.7979 -27.7702 -27.7646
   -27.7449 -27.7328 -27.7216 -27.7107 -27.7047 -27.6395 -27.6357 -27.6256
    -3.2488  -3.1499  -2.5308  -2.1785  -1.6999  -1.2288  -1.2071  -0.9819
    -0.8164  -0.6868  -0.6256   0.0366   0.0382   0.0482   0.0563   0.1052
     0.1694   0.3144   0.3529   0.3724   0.3875   0.4503   0.4722   0.5888
     0.6210   0.7187   0.7759   0.7804

     the Fermi energy is     0.3010 ev

!    total energy              =   -1138.79872305 Ry
     Harris-Foulkes estimate   =   -1138.79872321 Ry
     estimated scf accuracy    <       0.00000002 Ry

     The total energy is the sum of the following terms:

     one-electron contribution =   -7181.82247459 Ry
     hartree contribution      =    3572.66766062 Ry
     xc contribution           =    -167.16226889 Ry
     ewald contribution        =    2637.64738312 Ry
     electric field correction =       0.00008007 Ry
     smearing contrib. (-TS)   =      -0.12910338 Ry

     convergence has been achieved in  12 iterations

 BEEF-vdW xc energy contributions
           1 :   -141.674223160009
           2 :    124.660947889254
           3 :   -98.1624065472609
           4 :    72.4622928077980
           5 :   -54.7828173571328
           6 :    46.3526930255134
           7 :   -43.6519026886336
           8 :    42.0784617281986
           9 :   -39.0853737167824
          10 :    34.9327798756493
          11 :   -31.2835258376330
          12 :    29.2571043594372
          13 :   -28.5130733170806
          14 :    27.8054989115197
          15 :   -26.2318249809095
          16 :    23.9822663669842
          17 :   -22.0092676382147
          18 :    21.0542545053464
          19 :   -20.9802823095296
          20 :    20.9659191599177
          21 :   -20.2854564928207
          22 :    18.9203365891786
          23 :   -17.4907947719621
          24 :    16.6455509053643
          25 :   -16.4959593499532
          26 :    16.5759901787355
          27 :   -16.3085854232442
          28 :    15.5215804907888
          29 :   -14.5554232877144
          30 :    13.9048504398916
          31 :   -16.6982125846291
          32 :   -11.9603239761474

     Forces acting on atoms (Ry/au):

     negative rho (up, down):  1.175E-04 0.000E+00
     atom    1 type  1   force =     0.00067423    0.00038617    0.00128408
     atom    2 type  1   force =    -0.00067423    0.00038703    0.00128721
     atom    3 type  1   force =     0.00000087   -0.00077625    0.00128374
     atom    4 type  1   force =    -0.00000094    0.00000286    0.00146859
     atom    5 type  1   force =     0.00000661    0.00647985   -0.00228368
     atom    6 type  1   force =    -0.00000666   -0.00000275    0.00414471
     atom    7 type  1   force =    -0.00561403   -0.00324241   -0.00226514
     atom    8 type  1   force =     0.00561402   -0.00323473   -0.00226895
     atom    9 type  1   force =     0.00000541   -0.00003200    0.00101063
     atom   10 type  1   force =    -0.00000553   -0.00157448   -0.00147313
     atom   11 type  1   force =    -0.00133779    0.00079912   -0.00145058
     atom   12 type  1   force =     0.00133836    0.00080616   -0.00145857
     atom   13 type  2   force =    -0.00000030    0.00000145    0.00072108

     Total force =     0.003911     Total SCF correction =     0.000238

     entering subroutine stress ...

     negative rho (up, down):  1.175E-04 0.000E+00
          total   stress  (Ry/bohr**3)                   (kbar)     P=    1.90
   0.00002404   0.00000000  -0.00000000          3.54      0.00     -0.00
   0.00000000   0.00002404   0.00000000          0.00      3.54      0.00
  -0.00000000   0.00000000  -0.00000931         -0.00      0.00     -1.37

     bfgs converged in   5 scf cycles and   4 bfgs steps
     (criteria: energy <  1.0E+00, force <  1.9E-03)

     End of BFGS Geometry Optimization

     Final energy   =   -1138.7987230472 Ry
Begin final coordinates

ATOMIC_POSITIONS (crystal)
Sc1      0.166666667   0.166666667   0.395942884    0   0   0
Sc1      0.666666667   0.166666667   0.395942884    0   0   0
Sc1      0.166666667   0.666666667   0.395942884    0   0   0
Sc1      0.666666667   0.666666667   0.395942884    0   0   0
Sc1      0.833333333   0.333333333   0.500000000    0   0   0
Sc1      0.333333333   0.333333333   0.500000000    0   0   0
Sc1      0.833333333   0.833333333   0.500000000    0   0   0
Sc1      0.333333333   0.833333333   0.500000000    0   0   0
Sc1     -0.000012999   0.000021416   0.599777433
Sc1      0.500639133  -0.001273761   0.603809740
Sc1     -0.001286280   0.500628379   0.603795228
Sc1      0.500659847   0.500624602   0.603798140
H1      -0.000000463   0.000000419   0.675772900
End final coordinates

     Writing output data file calc.save

     General routines

     Parallel routines

   This run was terminated on:  15:21:29   2May2018

   JOB DONE.
Job  /afs/slac/g/suncat/bin/suncat-tsmpirun -x LD_LIBRARY_PATH -wdir /scratch/qe763060_RMTNR pw.x -npool 4 -in pw.inp

TID   HOST_NAME   COMMAND_LINE            STATUS            TERMINATION_TIME
00000 suncat0091 pw.x -npool 4 -i  Done                     05/02/2018 15:21:29
00001 suncat0091 pw.x -npool 4 -i  Done                     05/02/2018 15:21:29
00002 suncat0091 pw.x -npool 4 -i  Done                     05/02/2018 15:21:29
00003 suncat0091 pw.x -npool 4 -i  Done                     05/02/2018 15:21:29
00004 suncat0091 pw.x -npool 4 -i  Done                     05/02/2018 15:21:29
00005 suncat0091 pw.x -npool 4 -i  Done                     05/02/2018 15:21:29
00006 suncat0091 pw.x -npool 4 -i  Done                     05/02/2018 15:21:29
00007 suncat0091 pw.x -npool 4 -i  Done                     05/02/2018 15:21:29
00008 suncat0090 pw.x -npool 4 -i  Done                     05/02/2018 15:21:29
00009 suncat0090 pw.x -npool 4 -i  Done                     05/02/2018 15:21:29
00010 suncat0090 pw.x -npool 4 -i  Done                     05/02/2018 15:21:29
00011 suncat0090 pw.x -npool 4 -i  Done                     05/02/2018 15:21:29
00012 suncat0090 pw.x -npool 4 -i  Done                     05/02/2018 15:21:29
00013 suncat0090 pw.x -npool 4 -i  Done                     05/02/2018 15:21:29
00014 suncat0090 pw.x -npool 4 -i  Done                     05/02/2018 15:21:29
00015 suncat0090 pw.x -npool 4 -i  Done                     05/02/2018 15:21:29
00016 suncat0048 pw.x -npool 4 -i  Done                     05/02/2018 15:21:29
00017 suncat0048 pw.x -npool 4 -i  Done                     05/02/2018 15:21:29
00018 suncat0048 pw.x -npool 4 -i  Done                     05/02/2018 15:21:29
00019 suncat0048 pw.x -npool 4 -i  Done                     05/02/2018 15:21:29
00020 suncat0048 pw.x -npool 4 -i  Done                     05/02/2018 15:21:29
00021 suncat0048 pw.x -npool 4 -i  Done                     05/02/2018 15:21:29
00022 suncat0048 pw.x -npool 4 -i  Done                     05/02/2018 15:21:29
00023 suncat0048 pw.x -npool 4 -i  Done                     05/02/2018 15:21:29
00024 suncat0047 pw.x -npool 4 -i  Done                     05/02/2018 15:21:29
00025 suncat0047 pw.x -npool 4 -i  Done                     05/02/2018 15:21:29
00026 suncat0047 pw.x -npool 4 -i  Done                     05/02/2018 15:21:29
00027 suncat0047 pw.x -npool 4 -i  Done                     05/02/2018 15:21:29
00028 suncat0047 pw.x -npool 4 -i  Done                     05/02/2018 15:21:29
00029 suncat0047 pw.x -npool 4 -i  Done                     05/02/2018 15:21:29
00030 suncat0047 pw.x -npool 4 -i  Done                     05/02/2018 15:21:29
00031 suncat0047 pw.x -npool 4 -i  Done                     05/02/2018 15:21:29