     Program PWSCF v.5.1rc2 (svn rev. 11289) starts on 21Apr2018 at 17: 2: 8

     Current dimensions of program PWSCF are:
     Max number of different atomic species (ntypx) = 10
     Max number of k-points (npk) =  40000
     Max angular momentum in pseudopotentials (lmaxx) =  3
     Presently stress not available with electric field

     IMPORTANT: XC functional enforced from input :
     Exchange-correlation      = BEEF-VDW ( 1  4 27 13 2)
     Any further DFT definition will be discarded
     Please, verify this is what you really want

     Subspace diagonalization in iterative solution of the eigenvalue problem:
     a serial algorithm will be used

     bravais-lattice index     =            0
     lattice parameter (alat)  =       1.8897  a.u.
     unit-cell volume          =    7171.5276 (a.u.)^3
     number of atoms/cell      =           14
     number of atomic types    =            3
     number of electrons       =       175.00
     number of Kohn-Sham states=           97
     kinetic-energy cutoff     =      36.7493  Ry
     charge density cutoff     =     367.4932  Ry
     convergence threshold     =      1.0E-05
     mixing beta               =       0.3000
     number of iterations used =           10  plain     mixing
     Exchange-correlation      = BEEF-VDW ( 1  4 27 13 2)
     nstep                     =           50

     celldm(1)=   1.889726  celldm(2)=   0.000000  celldm(3)=   0.000000
     celldm(4)=   0.000000  celldm(5)=   0.000000  celldm(6)=   0.000000

     crystal axes: (cart. coord. in units of alat)
               a(1) = (   6.917003   0.000000   0.000000 )
               a(2) = (   3.458501   5.990300   0.000000 )
               a(3) = (   0.000000   0.000000  25.647709 )

     reciprocal axes: (cart. coord. in units 2 pi/alat)
               b(1) = (  0.144571 -0.083468  0.000000 )
               b(2) = (  0.000000  0.166937  0.000000 )
               b(3) = (  0.000000  0.000000  0.038990 )

     PseudoPot. # 1 for Pb read from file:
     /u/if/mamunm/psp/gbrv1.5pbe/Pb.UPF
     MD5 check sum: 3d1c1779aa92214d1e8f3a7db79003e2
     Pseudo is Ultrasoft + core correction, Zval = 14.0
     Generated by new atomic code, or converted to UPF format
     Using radial grid of  899 points,  6 beta functions with:
                l(1) =   0
                l(2) =   0
                l(3) =   1
                l(4) =   1
                l(5) =   2
                l(6) =   2
     Q(r) pseudized with  6 coefficients,  rinner =    1.000   1.000   1.000
                                                       1.000   1.000

     PseudoPot. # 2 for S  read from file:
     /u/if/mamunm/psp/gbrv1.5pbe/S.UPF
     MD5 check sum: 88d86576ff6df21479756cfb9bdac1df
     Pseudo is Ultrasoft + core correction, Zval =  6.0
     Generated by new atomic code, or converted to UPF format
     Using radial grid of  907 points,  6 beta functions with:
                l(1) =   0
                l(2) =   0
                l(3) =   1
                l(4) =   1
                l(5) =   2
                l(6) =   2
     Q(r) pseudized with  8 coefficients,  rinner =    1.300   1.300   1.300
                                                       1.300   1.300

     PseudoPot. # 3 for H  read from file:
     /u/if/mamunm/psp/gbrv1.5pbe/H.UPF
     MD5 check sum: 761ae9a214b05c3daf00ab9f6b793d6f
     Pseudo is Ultrasoft, Zval =  1.0
     Generated by new atomic code, or converted to UPF format
     Using radial grid of  615 points,  2 beta functions with:
                l(1) =   0
                l(2) =   0
     Q(r) pseudized with  8 coefficients,  rinner =    0.700

     vdW kernel table read from file vdW_kernel_table
     MD5 check sum: 095c7af220d748ca6e76c0b4c6cfb241

     atomic species   valence    mass     pseudopotential
        Pb1           14.00   207.20000     Pb( 1.00)
        S1             6.00    32.06000     S ( 1.00)
        H1             1.00     1.00800     H ( 1.00)

     No symmetry found

   Cartesian axes

     site n.     atom                  positions (alat units)
         1           Pb1 tau(   1) = (   1.7292506   0.9983833  10.0000000  )
         2           Pb1 tau(   2) = (   5.1877519   0.9983833  10.0000000  )
         3           Pb1 tau(   3) = (   3.4585013   3.9935333  10.0000000  )
         4           Pb1 tau(   4) = (   6.9170025   3.9935333  10.0000000  )
         5           Pb1 tau(   5) = (   6.9170025   1.9967666  12.8238544  )
         6           Pb1 tau(   6) = (   3.4585013   1.9967666  12.8238544  )
         7           Pb1 tau(   7) = (   8.6462531   4.9919166  12.8238544  )
         8           Pb1 tau(   8) = (   5.1877519   4.9919166  12.8238544  )
         9           Pb1 tau(   9) = (   0.0000000   0.0000000  15.6477089  )
        10           Pb1 tau(  10) = (   3.4585013   0.0000000  15.6477089  )
        11           Pb1 tau(  11) = (   1.7292506   2.9951499  15.6477089  )
        12           Pb1 tau(  12) = (   5.1877519   2.9951499  15.6477089  )
        13           S1  tau(  13) = (   3.4585013   1.9967666  17.2792089  )
        14           H1  tau(  14) = (   3.4585013   1.9967666  18.5292089  )

     number of k points=    20  Fermi-Dirac smearing, width (Ry)=  0.0110
                       cart. coord. in units 2pi/alat
        k(    1) = (   0.0000000   0.0000000   0.0000000), wk =   0.0555556
        k(    2) = (   0.0000000   0.0278228   0.0000000), wk =   0.1111111
        k(    3) = (   0.0000000   0.0556455   0.0000000), wk =   0.1111111
        k(    4) = (   0.0000000  -0.0834683   0.0000000), wk =   0.0555556
        k(    5) = (   0.0240952  -0.0139114   0.0000000), wk =   0.1111111
        k(    6) = (   0.0240952   0.0139114   0.0000000), wk =   0.1111111
        k(    7) = (   0.0240952   0.0417341   0.0000000), wk =   0.1111111
        k(    8) = (   0.0240952  -0.0973797   0.0000000), wk =   0.1111111
        k(    9) = (   0.0240952  -0.0695569   0.0000000), wk =   0.1111111
        k(   10) = (   0.0240952  -0.0417341   0.0000000), wk =   0.1111111
        k(   11) = (   0.0481904  -0.0278228   0.0000000), wk =   0.1111111
        k(   12) = (   0.0481904   0.0000000   0.0000000), wk =   0.1111111
        k(   13) = (   0.0481904   0.0278228   0.0000000), wk =   0.1111111
        k(   14) = (   0.0481904  -0.1112910   0.0000000), wk =   0.1111111
        k(   15) = (   0.0481904  -0.0834683   0.0000000), wk =   0.1111111
        k(   16) = (   0.0481904  -0.0556455   0.0000000), wk =   0.1111111
        k(   17) = (  -0.0722856   0.0417341   0.0000000), wk =   0.0555556
        k(   18) = (  -0.0722856   0.0695569   0.0000000), wk =   0.1111111
        k(   19) = (  -0.0722856   0.0973797   0.0000000), wk =   0.1111111
        k(   20) = (  -0.0722856  -0.0417341   0.0000000), wk =   0.0555556

     Largest allocated arrays     est. size (Mb)     dimensions
     Largest temporary arrays     est. size (Mb)     dimensions

     Check: negative/imaginary core charge=   -0.000001    0.000000

     Initial potential from superposition of free atoms
     Check: negative starting charge=   -0.197696

     starting charge  174.97174, renormalised to  175.00000

     negative rho (up, down):  1.977E-01 0.000E+00

     *
     * You are using vdW-DF for exchange-correlation in this calculation.
     * Please cite the following three references that made this development
     * possible:
     *
     *   M. Dion, H. Rydberg, E. Schroder, D. C. Langreth, and
     *   B. I. Lundqvist, Phys. Rev. Lett. 92, 246401 (2004).
     *
     *   T. Thonhauser, V. R. Cooper, S. Li, A. Puzder, P. Hyldgaard, and
     *   D. C. Langreth, Phys. Rev. B 76, 125112 (2007).
     *
     *   G. Roman-Perez and J. M. Soler, Phys. Rev. Lett. 103, 096102 (2009).
     *
     *
     * If you are using vdW-DF2, please also cite:
     *
     *   K. Lee, E. D. Murray, L. Kong, B. I. Lundqvist, and
     *   D. C. Langreth, Phys. Rev. B 82, 081101(R) (2010).
     *
     *
     * If you are calculating the stress with vdW-DF, please also cite:
     *
     *   R. Sabatini, E. Kucukbenli, B. Kolb, T. Thonhauser, and
     *   S. de Gironcoli, J. Phys.: Condens. Matter 24, 424209 (2012).
     *

     Carrying out vdW-DF run using the following parameters:

     Nqs =      20    Nr_points =    1024   r_max =   100.000
     q_mesh =
               0.00001000     0.04494208     0.09755937     0.15916263
               0.23128650     0.31572767     0.41458969     0.53033537
               0.66584808     0.82450364     1.01025438     1.22772762
               1.48234092     1.78043706     2.12944203     2.53805004
               3.01644009     3.57652955     4.23227104     5.00000000

     Gradients computed in reciprocal space

     Adding external electric field

     Computed dipole along edir(3) :
        Dipole               -0.0095 Ry au,         -0.0241 Debye
        Dipole field         -0.0000 Ry au

        Potential amp.        0.0016 Ry
        Total length         47.2555 bohr

     Starting wfc are  113 randomized atomic wfcs

     Self-consistent Calculation

     iteration #  1     ecut=    36.75 Ry     beta=0.30
     Davidson diagonalization with overlap
     ethr =  1.00E-02,  avg # of iterations =  2.0

     Threshold (ethr) on eigenvalues was too large:
     Diagonalizing with lowered threshold

     Davidson diagonalization with overlap
     ethr =  1.33E-04,  avg # of iterations =  4.0

[...]

     total energy              =   -2017.71201724 Ry
     Harris-Foulkes estimate   =   -2017.80578458 Ry
     estimated scf accuracy    <       0.25805028 Ry

[...]

     End of self-consistent calculation

          k = 0.0000 0.0000 0.0000 ( 27033 PWs)   bands (ev):

   -16.4256 -16.1363 -16.1363 -16.1347 -16.0591 -16.0591 -16.0199 -15.9911
   -15.9911 -15.9732 -15.9661 -15.9661 -15.9370 -15.9317 -15.9317 -15.9278
   -15.9278 -15.9008 -15.8962 -15.8885 -15.8835 -15.8834 -15.8620 -15.8620
   -15.8547 -15.8459 -15.8459 -15.8344 -15.8235 -15.8235 -15.7897 -15.7897
   -15.7820 -15.7809 -15.7809 -15.7607 -15.7265 -15.7265 -15.7022 -15.7022
   -15.6821 -15.6539 -15.6539 -15.6382 -15.6382 -15.6382 -15.6297 -15.6174
   -15.6174 -15.6111 -15.6110 -15.5861 -15.5841 -15.5841 -15.5767 -15.5767
   -15.5724 -15.5543 -15.5415 -15.5415 -13.5941  -9.9903  -9.0053  -7.6377
    -6.7178  -6.7178  -6.6202  -6.2595  -6.2595  -6.1517  -5.5406  -5.5406
    -5.4803  -5.0510  -2.4867  -2.4867  -2.1451  -2.1450  -1.9644  -1.5364
    -1.0745  -1.0205  -1.0205  -0.3848  -0.3848  -0.1232   1.3406   2.6861
     2.6861   2.7484   3.1983   3.1983   3.3082   3.6008   4.1360   4.1380
     4.1380

[...]

          k =-0.0723 0.0417 0.0000 ( 26962 PWs)   bands (ev):

[...]

     the Fermi energy is     1.6485 ev

!    total energy              =   -2017.75361285 Ry
     Harris-Foulkes estimate   =   -2017.75363593 Ry
     estimated scf accuracy    <       0.00000250 Ry

     The total energy is the sum of the following terms:

     one-electron contribution =   -9694.64362647 Ry
     hartree contribution      =    4921.15592097 Ry
     xc contribution           =    -793.69839725 Ry
     ewald contribution        =    3549.47458192 Ry
     electric field correction =       0.00006377 Ry
     smearing contrib. (-TS)   =      -0.04215579 Ry

     convergence has been achieved in   9 iterations

 BEEF-vdW xc energy contributions
           1 :   -707.174712566332
           2 :    656.606223643063
           3 :   -567.577773688539
           4 :    459.581022677229
           5 :   -352.721279917480
           6 :    261.760200113201
           7 :   -192.929866069179
           8 :    144.277514764466
           9 :   -108.905462654063
          10 :    79.3547030678618
          11 :   -51.1065827112585
          12 :    23.8317476966107
          13 :  -0.265194502257941
          14 :   -16.2763169033498
          15 :    24.2315278411553
          16 :   -24.8116094843963
          17 :    21.3677375756807
          18 :   -17.6713042934945
          19 :    16.1524839940593
          20 :   -17.0371084892740
          21 :    18.7367390788517
          22 :   -19.1424328221955
          23 :    17.0212338327482
          24 :   -12.7424299995211
          25 :    8.00110784704827
          26 :   -4.79113272133168
          27 :    4.26881433522817
          28 :   -6.15348492516080
          29 :    8.96039866171884
          30 :   -10.8819076658518
          31 :   -56.8640509386299
          32 :   -41.6704386770318

     Forces acting on atoms (Ry/au):

     negative rho (up, down):  2.149E-01 0.000E+00
     atom    1 type  1   force =     0.00032283    0.00014787   -0.00610787
     atom    2 type  1   force =    -0.00031787    0.00019492   -0.00610991
     atom    3 type  1   force =     0.00002422   -0.00035510   -0.00607166
     atom    4 type  1   force =    -0.00000952    0.00001454   -0.00371725
     atom    5 type  1   force =     0.00000667   -0.00195517   -0.01271958
     atom    6 type  1   force =    -0.00003193    0.00001701   -0.00298790
     atom    7 type  1   force =     0.00167808    0.00097620   -0.01272865
     atom    8 type  1   force =    -0.00169611    0.00095138   -0.01273358
     atom    9 type  1   force =     0.00001186    0.00001206    0.00318171
     atom   10 type  1   force =    -0.00000503   -0.05765904   -0.03036010
     atom   11 type  1   force =    -0.04990707    0.02882771   -0.03034074
     atom   12 type  1   force =     0.04991802    0.02882165   -0.03035599
     atom   13 type  2   force =     0.00000265    0.00000290    0.01042080
     atom   14 type  3   force =     0.00000319    0.00000308    0.14063071

     Total force =     0.180633     Total SCF correction =     0.003450

     entering subroutine stress ...

     negative rho (up, down):  2.149E-01 0.000E+00
          total   stress  (Ry/bohr**3)                   (kbar)     P=   22.48
   0.00014123   0.00000000   0.00000000         20.78      0.00      0.00
   0.00000000   0.00014123  -0.00000000          0.00     20.78     -0.00
   0.00000000  -0.00000000   0.00017594          0.00     -0.00     25.88

     BFGS Geometry Optimization

     number of scf cycles    =   1
     number of bfgs steps    =   0

     energy   new            =   -2017.7536128459 Ry

     new trust radius        =       0.1406307110 bohr
     new conv_thr            =       0.0000099958 Ry

ATOMIC_POSITIONS (crystal)
Pb1      0.166666667   0.166666667   0.389898374    0   0   0
Pb1      0.666666667   0.166666667   0.389898374    0   0   0
Pb1      0.166666667   0.666666667   0.389898374    0   0   0
Pb1      0.666666667   0.666666667   0.389898374    0   0   0
Pb1      0.833333333   0.333333333   0.500000000    0   0   0
Pb1      0.333333333   0.333333333   0.500000000    0   0   0
Pb1      0.833333333   0.833333333   0.500000000    0   0   0
Pb1      0.333333333   0.833333333   0.500000000    0   0   0
Pb1      0.000000375   0.000001065   0.610167273
Pb1      0.502546386  -0.005093543   0.609475220
Pb1     -0.005091388   0.502546612   0.609475619
Pb1      0.502545882   0.502546076   0.609475305
S1       0.333333408   0.333333590   0.673928553
H1       0.333333441   0.333333605   0.725352410

     Writing output data file calc.save
     Check: negative starting charge=   -0.197696
     NEW-OLD atomic charge density approx. for the potential

     Check: negative/imaginary core charge=   -0.000001    0.000000
     Check: negative starting charge=   -0.197340

[...]

     energy   old            =   -2017.7536128459 Ry
     energy   new            =   -2017.7781968601 Ry

     CASE: energy  _new < energy  _old

[...]

     Total force =     0.022887     Total SCF correction =     0.002604
     SCF correction compared to forces is large: reduce conv_thr to get better values

[...]

     CASE: energy  _new > energy  _old

[...]

     CASE: energy  _new > energy  _old

[...]

     Total force =     0.003992     Total SCF correction =     0.000351

[...]

     number of scf cycles    =  28
     number of bfgs steps    =  24

     energy   old            =   -2017.8624308003 Ry
     energy   new            =   -2017.8624416808 Ry

     CASE: energy  _new < energy  _old

     WARNING: bfgs curvature condition failed, Theta= 0.658
     uphill step: resetting bfgs history

     new trust radius        =       0.0044170840 bohr
     new conv_thr            =       0.0000001000 Ry

ATOMIC_POSITIONS (crystal)
Pb1      0.166666667   0.166666667   0.389898374    0   0   0
Pb1      0.666666667   0.166666667   0.389898374    0   0   0
Pb1      0.166666667   0.666666667   0.389898374    0   0   0
Pb1      0.666666667   0.666666667   0.389898374    0   0   0
Pb1      0.833333333   0.333333333   0.500000000    0   0   0
Pb1      0.333333333   0.333333333   0.500000000    0   0   0
Pb1      0.833333333   0.833333333   0.500000000    0   0   0
Pb1      0.333333333   0.833333333   0.500000000    0   0   0
Pb1      0.000001051  -0.000000242   0.613179633
Pb1      0.501671845  -0.003343613   0.625479329
Pb1     -0.003335857   0.501665659   0.625482624
Pb1      0.501668757   0.501664950   0.625486845
S1       0.333335314   0.333321692   0.713117104
H1       0.333331518   0.333352887   0.766046451

     Writing output data file calc.save
     Check: negative starting charge=   -0.195194
     NEW-OLD atomic charge density approx. for the potential

     Check: negative/imaginary core charge=   -0.000001    0.000000
     Check: negative starting charge=   -0.195208

[...]

     Self-consistent Calculation

[...]

     Threshold (ethr) on eigenvalues was too large:
     Diagonalizing with lowered threshold

     Davidson diagonalization with overlap
     ethr =  1.08E-08,  avg # of iterations =  4.0

[...]

     total energy              =   -2017.86245802 Ry
     Harris-Foulkes estimate   =   -2017.86245854 Ry
     estimated scf accuracy    <       0.00000025 Ry

     iteration #  5     ecut=    36.75 Ry     beta=0.30
     Davidson diagonalization with overlap
     ethr =  1.44E-10,  avg # of iterations =  3.1

[...]

     negative rho (up, down):  2.116E-01 0.000E+00

     Adding external electric field

     Computed dipole along edir(3) :
        Dipole               -0.2178 Ry au,         -0.5536 Debye
        Dipole field         -0.0004 Ry au

        Potential amp.        0.0361 Ry
        Total length         47.2555 bohr

     End of self-consistent calculation

[...]

          k = 0.0482-0.0556 0.0000 ( 26956 PWs)   bands (ev):

[...]

          k =-0.0723-0.0417 0.0000 ( 26962 PWs)   bands (ev):

   -16.3916 -16.3387 -16.3306 -16.3272 -16.3251 -16.3043 -16.2924 -16.2829
   -16.2798 -16.2737 -16.2710 -16.2649 -16.2620 -16.2605 -16.2550 -16.2542
   -16.2484 -16.2478 -16.2459 -16.2418 -16.2320 -16.2281 -16.2165 -16.2143
   -16.2080 -16.1999 -16.1969 -16.1957 -16.1905 -16.1904 -16.1716 -16.1647
   -16.1594 -16.1535 -16.1473 -16.1295 -16.1282 -16.1250 -16.1217 -16.1159
   -16.1108 -16.1079 -16.0995 -16.0933 -16.0749 -16.0667 -16.0601 -16.0589
   -16.0565 -16.0555 -16.0504 -16.0487 -16.0481 -16.0217 -16.0176 -16.0144
   -16.0107 -15.9913 -15.9576 -15.9481 -11.8981  -9.0956  -9.0434  -8.1802
    -8.1294  -7.1441  -7.1024  -7.0708  -7.0016  -6.4702  -6.4432  -5.7523
    -5.7128  -4.1470  -1.5035  -1.0631  -0.7752  -0.7314  -0.6734  -0.5410
    -0.5154  -0.4406   0.0051   0.2311   0.7299   0.9738   1.0858   1.2452
     1.8338   1.9447   2.0309   2.1766   2.3152   2.4054   2.4086   2.5147
     2.6332

     the Fermi energy is     1.2385 ev

!    total energy              =   -2017.86245770 Ry
     Harris-Foulkes estimate   =   -2017.86245804 Ry
     estimated scf accuracy    <       0.00000006 Ry

     The total energy is the sum of the following terms:

     one-electron contribution =   -9077.82666652 Ry
     hartree contribution      =    4611.05842700 Ry
     xc contribution           =    -793.19627467 Ry
     ewald contribution        =    3242.14577590 Ry
     electric field correction =       0.00008312 Ry
     smearing contrib. (-TS)   =      -0.04380253 Ry

     convergence has been achieved in   5 iterations

 BEEF-vdW xc energy contributions
           1 :   -706.648893329861
           2 :    655.814482507429
           3 :   -566.494613580432
           4 :    458.457673223767
           5 :   -351.929554995397
           6 :    261.560923286226
           7 :   -193.302128324239
           8 :    144.914086959944
           9 :   -109.377963215534
          10 :    79.3532476845502
          11 :   -50.6126710293133
          12 :    23.1210074063438
          13 :   0.261760687981905
          14 :   -16.3338493396790
          15 :    23.8160308766936
          16 :   -24.1973751129242
          17 :    20.9376627249476
          18 :   -17.6862004192919
          19 :    16.5969252009247
          20 :   -17.6319450176688
          21 :    19.1088638111604
          22 :   -19.0489933214993
          23 :    16.4944551079927
          24 :   -12.0701211061735
          25 :    7.55661801741053
          26 :   -4.81498702281260
          27 :    4.73058182533669
          28 :   -6.77359493962604
          29 :    9.37688614017361
          30 :   -10.8621233789253
          31 :   -56.8207555056338
          32 :   -41.5625053905590

     Forces acting on atoms (Ry/au):

     negative rho (up, down):  2.116E-01 0.000E+00
     atom    1 type  1   force =     0.00147409    0.00085132   -0.00602032
     atom    2 type  1   force =    -0.00147435    0.00085161   -0.00602119
     atom    3 type  1   force =     0.00000008   -0.00170352   -0.00602195
     atom    4 type  1   force =     0.00000005   -0.00000064   -0.00431213
     atom    5 type  1   force =    -0.00000008    0.00148126    0.00585118
     atom    6 type  1   force =     0.00000028    0.00000010    0.00771867
     atom    7 type  1   force =    -0.00128283   -0.00074054    0.00585077
     atom    8 type  1   force =     0.00128294   -0.00074050    0.00585094
     atom    9 type  1   force =    -0.00000026   -0.00000043   -0.00131178
     atom   10 type  1   force =     0.00000053   -0.00163950   -0.00013085
     atom   11 type  1   force =    -0.00141703    0.00081962   -0.00012803
     atom   12 type  1   force =     0.00141543    0.00081815   -0.00012725
     atom   13 type  2   force =    -0.00000052    0.00000028   -0.00053268
     atom   14 type  3   force =     0.00000169    0.00000277   -0.00066539

     Total force =     0.003246     Total SCF correction =     0.000527
     SCF correction compared to forces is large: reduce conv_thr to get better values

     entering subroutine stress ...

     negative rho (up, down):  2.116E-01 0.000E+00
          total   stress  (Ry/bohr**3)                   (kbar)     P=    6.84
   0.00006331  -0.00000000   0.00000000          9.31     -0.00      0.00
  -0.00000000   0.00006331   0.00000000         -0.00      9.31      0.00
   0.00000000   0.00000000   0.00001290          0.00      0.00      1.90

     bfgs converged in  29 scf cycles and  25 bfgs steps
     (criteria: energy <  1.0E+00, force <  1.9E-03)

     End of BFGS Geometry Optimization

     Final energy   =   -2017.8624576962 Ry
Begin final coordinates

ATOMIC_POSITIONS (crystal)
Pb1      0.166666667   0.166666667   0.389898374    0   0   0
Pb1      0.666666667   0.166666667   0.389898374    0   0   0
Pb1      0.166666667   0.666666667   0.389898374    0   0   0
Pb1      0.666666667   0.666666667   0.389898374    0   0   0
Pb1      0.833333333   0.333333333   0.500000000    0   0   0
Pb1      0.333333333   0.333333333   0.500000000    0   0   0
Pb1      0.833333333   0.833333333   0.500000000    0   0   0
Pb1      0.333333333   0.833333333   0.500000000    0   0   0
Pb1      0.000001051  -0.000000242   0.613179633
Pb1      0.501671845  -0.003343613   0.625479329
Pb1     -0.003335857   0.501665659   0.625482624
Pb1      0.501668757   0.501664950   0.625486845
S1       0.333335314   0.333321692   0.713117104
H1       0.333331518   0.333352887   0.766046451
End final coordinates

     Writing output data file calc.save

     General routines

     Parallel routines

   This run was terminated on:  21: 9:18  21Apr2018

   JOB DONE.
Job  /afs/slac/g/suncat/bin/suncat-tsmpirun -x LD_LIBRARY_PATH -wdir /scratch/qe318043_QKKEd pw.x -npool 4 -in pw.inp

TID   HOST_NAME   COMMAND_LINE            STATUS            TERMINATION_TIME
00000 suncat0135 pw.x -npool 4 -i  Done                     04/21/2018 21:09:18
00001 suncat0135 pw.x -npool 4 -i  Done                     04/21/2018 21:09:18
00002 suncat0135 pw.x -npool 4 -i  Done                     04/21/2018 21:09:18
00003 suncat0135 pw.x -npool 4 -i  Done                     04/21/2018 21:09:18
00004 suncat0135 pw.x -npool 4 -i  Done                     04/21/2018 21:09:18
00005 suncat0135 pw.x -npool 4 -i  Done                     04/21/2018 21:09:18
00006 suncat0135 pw.x -npool 4 -i  Done                     04/21/2018 21:09:18
00007 suncat0135 pw.x -npool 4 -i  Done                     04/21/2018 21:09:18
00008 suncat0132 pw.x -npool 4 -i  Done                     04/21/2018 21:09:18
00009 suncat0132 pw.x -npool 4 -i  Done                     04/21/2018 21:09:18
00010 suncat0132 pw.x -npool 4 -i  Done                     04/21/2018 21:09:18
00011 suncat0132 pw.x -npool 4 -i  Done                     04/21/2018 21:09:18
00012 suncat0132 pw.x -npool 4 -i  Done                     04/21/2018 21:09:18
00013 suncat0132 pw.x -npool 4 -i  Done                     04/21/2018 21:09:18
00014 suncat0132 pw.x -npool 4 -i  Done                     04/21/2018 21:09:18
00015 suncat0132 pw.x -npool 4 -i  Done                     04/21/2018 21:09:18
00016 suncat0213 pw.x -npool 4 -i  Done                     04/21/2018 21:09:18
00017 suncat0213 pw.x -npool 4 -i  Done                     04/21/2018 21:09:18
00018 suncat0213 pw.x -npool 4 -i  Done                     04/21/2018 21:09:18
00019 suncat0213 pw.x -npool 4 -i  Done                     04/21/2018 21:09:18
00020 suncat0213 pw.x -npool 4 -i  Done                     04/21/2018 21:09:18
00021 suncat0213 pw.x -npool 4 -i  Done                     04/21/2018 21:09:18
00022 suncat0213 pw.x -npool 4 -i  Done                     04/21/2018 21:09:18
00023 suncat0213 pw.x -npool 4 -i  Done                     04/21/2018 21:09:18
00024 suncat0207 pw.x -npool 4 -i  Done                     04/21/2018 21:09:18
00025 suncat0207 pw.x -npool 4 -i  Done                     04/21/2018 21:09:18
00026 suncat0207 pw.x -npool 4 -i  Done                     04/21/2018 21:09:18
00027 suncat0207 pw.x -npool 4 -i  Done                     04/21/2018 21:09:18
00028 suncat0207 pw.x -npool 4 -i  Done                     04/21/2018 21:09:18
00029 suncat0207 pw.x -npool 4 -i  Done                     04/21/2018 21:09:18
00030 suncat0207 pw.x -npool 4 -i  Done                     04/21/2018 21:09:18
00031 suncat0207 pw.x -npool 4 -i  Done                     04/21/2018 21:09:18