     Program PWSCF v.5.1rc2 (svn rev. 11289) starts on  2May2018 at 21: 1:38

     Current dimensions of program PWSCF are:
     Max number of different atomic species (ntypx) = 10
     Max number of k-points (npk) =  40000
     Max angular momentum in pseudopotentials (lmaxx) =  3
     Presently stress not available with electric field

     IMPORTANT: XC functional enforced from input :
     Exchange-correlation      = BEEF-VDW ( 1  4 27 13 2)
     Any further DFT definition will be discarded
     Please, verify this is what you really want

     Subspace diagonalization in iterative solution of the eigenvalue problem:
     a serial algorithm will be used

     bravais-lattice index     =            0
     lattice parameter (alat)  =       1.8897  a.u.
     unit-cell volume          =    4515.4205 (a.u.)^3
     number of atoms/cell      =           13
     number of atomic types    =            2
     number of electrons       =       241.00
     number of Kohn-Sham states=          130
     kinetic-energy cutoff     =      36.7493  Ry
     charge density cutoff     =     367.4932  Ry
     convergence threshold     =      1.0E-05
     mixing beta               =       0.3000
     number of iterations used =           10  plain     mixing
     Exchange-correlation      = BEEF-VDW ( 1  4 27 13 2)
     nstep                     =           50

     celldm(1)=   1.889726  celldm(2)=   0.000000  celldm(3)=   0.000000
     celldm(4)=   0.000000  celldm(5)=   0.000000  celldm(6)=   0.000000

     crystal axes: (cart. coord. in units of alat)
               a(1) = (   5.606773   0.000000   0.000000 )
               a(2) = (   2.803387   4.855608   0.000000 )
               a(3) = (   0.000000   0.000000  24.577911 )

     reciprocal axes: (cart. coord. in units 2 pi/alat)
               b(1) = (  0.178356 -0.102974  0.000000 )
               b(2) = (  0.000000  0.205947  0.000000 )
               b(3) = (  0.000000  0.000000  0.040687 )

     PseudoPot. # 1 for Zn read from file:
     /u/if/mamunm/psp/gbrv1.5pbe/Zn.UPF
     MD5 check sum: df62231357ef9e81f77b2b3087fa5675
     Pseudo is Ultrasoft, Zval = 20.0
     Generated by new atomic code, or converted to UPF format
     Using radial grid of  943 points,  6 beta functions with:
                l(1) =   0
                l(2) =   0
                l(3) =   1
                l(4) =   1
                l(5) =   2
                l(6) =   2
     Q(r) pseudized with  8 coefficients,  rinner =    1.100   1.100   1.100
                                                       1.100   1.100

     PseudoPot. # 2 for H  read from file:
     /u/if/mamunm/psp/gbrv1.5pbe/H.UPF
     MD5 check sum: 761ae9a214b05c3daf00ab9f6b793d6f
     Pseudo is Ultrasoft, Zval =  1.0
     Generated by new atomic code, or converted to UPF format
     Using radial grid of  615 points,  2 beta functions with:
                l(1) =   0
                l(2) =   0
     Q(r) pseudized with  8 coefficients,  rinner =    0.700

     vdW kernel table read from file vdW_kernel_table
     MD5 check sum: 095c7af220d748ca6e76c0b4c6cfb241

     atomic species   valence    mass     pseudopotential
        Zn1           20.00    65.38000     Zn( 1.00)
        H1             1.00     1.00800     H ( 1.00)

     No symmetry found

   Cartesian axes

     site n.     atom                  positions (alat units)
         1           Zn1 tau(   1) = (   1.4016933   0.8092680  10.0000000  )
         2           Zn1 tau(   2) = (   4.2050800   0.8092680  10.0000000  )
         3           Zn1 tau(   3) = (   2.8033867   3.2370721  10.0000000  )
         4           Zn1 tau(   4) = (   5.6067733   3.2370721  10.0000000  )
         5           Zn1 tau(   5) = (   5.6067733   1.6185360  12.2889556  )
         6           Zn1 tau(   6) = (   2.8033867   1.6185360  12.2889556  )
         7           Zn1 tau(   7) = (   7.0084667   4.0463401  12.2889556  )
         8           Zn1 tau(   8) = (   4.2050800   4.0463401  12.2889556  )
         9           Zn1 tau(   9) = (   0.0000000   0.0000000  14.5779113  )
        10           Zn1 tau(  10) = (   2.8033867   0.0000000  14.5779113  )
        11           Zn1 tau(  11) = (   1.4016933   2.4278041  14.5779113  )
        12           Zn1 tau(  12) = (   4.2050800   2.4278041  14.5779113  )
        13           H1  tau(  13) = (   0.0000000   0.0000000  15.8784113  )

     number of k points=    20  Fermi-Dirac smearing, width (Ry)=  0.0110
                       cart. coord. in units 2pi/alat
        k(    1) = (   0.0000000   0.0000000   0.0000000), wk =   0.0555556
        k(    2) = (   0.0000000   0.0343246   0.0000000), wk =   0.1111111
        k(    3) = (   0.0000000   0.0686491   0.0000000), wk =   0.1111111
        k(    4) = (   0.0000000  -0.1029737   0.0000000), wk =   0.0555556
        k(    5) = (   0.0297260  -0.0171623   0.0000000), wk =   0.1111111
        k(    6) = (   0.0297260   0.0171623   0.0000000), wk =   0.1111111
        k(    7) = (   0.0297260   0.0514869   0.0000000), wk =   0.1111111
        k(    8) = (   0.0297260  -0.1201360   0.0000000), wk =   0.1111111
        k(    9) = (   0.0297260  -0.0858114   0.0000000), wk =   0.1111111
        k(   10) = (   0.0297260  -0.0514869   0.0000000), wk =   0.1111111
        k(   11) = (   0.0594519  -0.0343246   0.0000000), wk =   0.1111111
        k(   12) = (   0.0594519   0.0000000   0.0000000), wk =   0.1111111
        k(   13) = (   0.0594519   0.0343246   0.0000000), wk =   0.1111111
        k(   14) = (   0.0594519  -0.1372983   0.0000000), wk =   0.1111111
        k(   15) = (   0.0594519  -0.1029737   0.0000000), wk =   0.1111111
        k(   16) = (   0.0594519  -0.0686491   0.0000000), wk =   0.1111111
        k(   17) = (  -0.0891779   0.0514869   0.0000000), wk =   0.0555556
        k(   18) = (  -0.0891779   0.0858114   0.0000000), wk =   0.1111111
        k(   19) = (  -0.0891779   0.1201360   0.0000000), wk =   0.1111111
        k(   20) = (  -0.0891779  -0.0514869   0.0000000), wk =   0.0555556

     Largest allocated arrays     est. size (Mb)     dimensions
     Largest temporary arrays     est. size (Mb)     dimensions

     Initial potential from superposition of free atoms
     Check: negative starting charge=   -0.000852

     starting charge  240.99830, renormalised to  241.00000

     negative rho (up, down):  8.520E-04 0.000E+00

     *
     * You are using vdW-DF for exchange-correlation in this calculation.
     * Please cite the following three references that made this development
     * possible:
     *
     *   M. Dion, H. Rydberg, E. Schroder, D. C. Langreth, and
     *   B. I. Lundqvist, Phys. Rev. Lett. 92, 246401 (2004).
     *
     *   T. Thonhauser, V. R. Cooper, S. Li, A. Puzder, P. Hyldgaard, and
     *   D. C. Langreth, Phys. Rev. B 76, 125112 (2007).
     *
     *   G. Roman-Perez and J. M. Soler, Phys. Rev. Lett. 103, 096102 (2009).
     *
     *
     * If you are using vdW-DF2, please also cite:
     *
     *   K. Lee, E. D. Murray, L. Kong, B. I. Lundqvist, and
     *   D. C. Langreth, Phys. Rev. B 82, 081101(R) (2010).
     *
     *
     * If you are calculating the stress with vdW-DF, please also cite:
     *
     *   R. Sabatini, E. Kucukbenli, B. Kolb, T. Thonhauser, and
     *   S. de Gironcoli, J. Phys.: Condens. Matter 24, 424209 (2012).
     *

     Carrying out vdW-DF run using the following parameters:

     Nqs =      20    Nr_points =    1024   r_max =   100.000
     q_mesh =
               0.00001000     0.04494208     0.09755937     0.15916263
               0.23128650     0.31572767     0.41458969     0.53033537
               0.66584808     0.82450364     1.01025438     1.22772762
               1.48234092     1.78043706     2.12944203     2.53805004
               3.01644009     3.57652955     4.23227104     5.00000000

     Gradients computed in reciprocal space

     Adding external electric field

     Computed dipole along edir(3) :
        Dipole                0.0000 Ry au,          0.0000 Debye
        Dipole field          0.0000 Ry au

        Potential amp.       -0.0000 Ry
        Total length         45.2844 bohr

     Starting wfc are  157 randomized atomic wfcs

     Self-consistent Calculation

     iteration #  1     ecut=    36.75 Ry     beta=0.30
     Davidson diagonalization with overlap
     ethr =  1.00E-02,  avg # of iterations =  2.0

     Threshold (ethr) on eigenvalues was too large:
     Diagonalizing with lowered threshold

     Davidson diagonalization with overlap
     ethr =  1.50E-04,  avg # of iterations =  3.4

[...]

     total energy              =   -5554.30968423 Ry
     Harris-Foulkes estimate   =   -5554.42827781 Ry
     estimated scf accuracy    <       0.37205647 Ry

[...]

     End of self-consistent calculation

          k = 0.0000 0.0000 0.0000 ( 16931 PWs)   bands (ev):

  -126.5821-126.4621-126.4443-126.4434-126.4434-126.2488-126.2223-126.2214
  -126.2214-126.2131-126.2122-126.2122 -80.8133 -80.7203 -80.7203 -80.6451
   -80.6400 -80.6400 -80.6246 -80.6240 -80.6240 -80.6211 -80.6178 -80.6170
   -80.6170 -80.6122 -80.6122 -80.4419 -80.4214 -80.4214 -80.4139 -80.4130
   -80.4130 -80.4036 -80.4036 -80.4002 -80.3994 -80.3994 -80.3985 -80.3944
   -80.3903 -80.3895 -80.3895 -80.3850 -80.3826 -80.3826 -80.3780 -80.3780
    -9.2228  -8.4229  -8.0076  -8.0076  -8.0064  -7.9545  -7.9420  -7.9304
    -7.9304  -7.8565  -7.8565  -7.8407  -7.7936  -7.7129  -7.7129  -7.6549
    -7.5350  -7.5350  -7.4587  -7.4587  -7.4310  -7.4310  -7.4170  -7.3927
    -7.3539  -7.3539  -7.3396  -7.3374  -7.3164  -7.3164  -7.2261  -7.2261
    -7.0994  -7.0994  -7.0543  -7.0543  -7.0030  -7.0030  -6.9728  -6.9545
    -6.9545  -6.9512  -6.9002  -6.9002  -6.8867  -6.8841  -6.8841  -6.8763
    -6.8416  -6.8416  -6.8169  -6.8061  -6.8061  -6.7844  -6.7844  -6.7709
    -6.7164  -6.7164  -6.6434  -6.6424  -6.6424  -6.6294  -4.4358  -2.3830
    -2.2570  -2.2570  -2.0910  -1.8700  -1.8700  -1.8378  -0.8590  -0.8205
    -0.8205  -0.3913   0.2242   0.2242   0.8193   2.1137   2.1137   2.3941
     2.6043   2.6043

[...]

          k =-0.0892 0.0515 0.0000 ( 17028 PWs)   bands (ev):

[...]

     the Fermi energy is     0.3158 ev

!    total energy              =   -5554.36163126 Ry
     Harris-Foulkes estimate   =   -5554.36162830 Ry
     estimated scf accuracy    <       0.00000250 Ry

     The total energy is the sum of the following terms:

     one-electron contribution =  -35513.31874872 Ry
     hartree contribution      =   17734.39109152 Ry
     xc contribution           =    -521.64533125 Ry
     ewald contribution        =   12746.23583727 Ry
     electric field correction =       0.00001822 Ry
     smearing contrib. (-TS)   =      -0.02449830 Ry

     convergence has been achieved in   9 iterations

 BEEF-vdW xc energy contributions
           1 :   -463.518034023326
           2 :    420.088524717285
           3 :   -347.248097453328
           4 :    266.132759742596
           5 :   -195.440620653920
           6 :    144.415283524159
           7 :   -111.601948398257
           8 :    89.0935372877896
           9 :   -68.9887036101142
          10 :    48.0036917731636
          11 :   -27.9522160947913
          12 :    12.7277528753665
          13 :   -4.52445527258931
          14 :    2.02978631572819
          15 :   -1.51539129559910
          16 :  -0.417565562505672
          17 :    4.66219504764388
          18 :   -9.50418660190508
          19 :    12.4015384705200
          20 :   -12.1189035854206
          21 :    9.61329076859340
          22 :   -7.16546180871984
          23 :    6.59545702431808
          24 :   -7.99285741453798
          25 :    9.85988729624069
          26 :   -10.4248681053169
          27 :    9.02899248997653
          28 :   -6.53827488385133
          29 :    4.55989470110978
          30 :   -4.16415798469097
          31 :   -35.8235903105317
          32 :   -24.4209045181531

     Forces acting on atoms (Ry/au):

     atom    1 type  1   force =    -0.00330311   -0.00190853   -0.00707961
     atom    2 type  1   force =     0.00330412   -0.00190428   -0.00707782
     atom    3 type  1   force =     0.00000131    0.00381395   -0.00708032
     atom    4 type  1   force =    -0.00000045   -0.00000160   -0.00727116
     atom    5 type  1   force =     0.00000046   -0.00720970    0.00662194
     atom    6 type  1   force =     0.00000031   -0.00000055   -0.00668328
     atom    7 type  1   force =     0.00624551    0.00360451    0.00661893
     atom    8 type  1   force =    -0.00624574    0.00360291    0.00662118
     atom    9 type  1   force =     0.00000111    0.00000203   -0.20879691
     atom   10 type  1   force =    -0.00000089   -0.00380521    0.00110197
     atom   11 type  1   force =    -0.00329704    0.00190349    0.00110416
     atom   12 type  1   force =     0.00329464    0.00190275    0.00110243
     atom   13 type  2   force =    -0.00000024    0.00000021    0.22081847

     Total force =     0.303980     Total SCF correction =     0.001344

     entering subroutine stress ...

          total   stress  (Ry/bohr**3)                   (kbar)     P=   -8.25
  -0.00013942  -0.00000000   0.00000000        -20.51     -0.00      0.00
  -0.00000000  -0.00013942  -0.00000000         -0.00    -20.51     -0.00
   0.00000000  -0.00000000   0.00011058          0.00     -0.00     16.27

     BFGS Geometry Optimization

     number of scf cycles    =   1
     number of bfgs steps    =   0

     energy   new            =   -5554.3616312580 Ry

     new trust radius        =       0.2208184709 bohr
     new conv_thr            =       0.0000099958 Ry

ATOMIC_POSITIONS (crystal)
Zn1      0.166666667   0.166666667   0.406869400    0   0   0
Zn1      0.666666667   0.166666667   0.406869400    0   0   0
Zn1      0.166666667   0.666666667   0.406869400    0   0   0
Zn1      0.666666667   0.666666667   0.406869400    0   0   0
Zn1      0.833333333   0.333333333   0.500000000    0   0   0
Zn1      0.333333333   0.333333333   0.500000000    0   0   0
Zn1      0.833333333   0.833333333   0.500000000    0   0   0
Zn1      0.333333333   0.833333333   0.500000000    0   0   0
Zn1     -0.000000006   0.000000222   0.588635077
Zn1      0.500207267  -0.000414702   0.593154326
Zn1     -0.000414904   0.500207448   0.593154373
Zn1      0.500207271   0.500207367   0.593154336
H1      -0.000000034   0.000000023   0.650798320

     Writing output data file calc.save
     Check: negative starting charge=   -0.000852
     NEW-OLD atomic charge density approx. for the potential
     Check: negative starting charge=   -0.000845

[...]

     Total force =     0.031979     Total SCF correction =     0.006703
     SCF correction compared to forces is large: reduce conv_thr to get better values

[...]

     energy   old            =   -5554.3616312580 Ry
     energy   new            =   -5554.4050859826 Ry

     CASE: energy  _new < energy  _old

[...]

     Total force =     0.009704     Total SCF correction =     0.000427

[...]

     number of scf cycles    =  13
     number of bfgs steps    =  12

     energy   old            =   -5554.4116640006 Ry
     energy   new            =   -5554.4118531093 Ry

     CASE: energy  _new < energy  _old

     new trust radius        =       0.0223478004 bohr
     new conv_thr            =       0.0000001000 Ry

ATOMIC_POSITIONS (crystal)
Zn1      0.166666667   0.166666667   0.406869400    0   0   0
Zn1      0.666666667   0.166666667   0.406869400    0   0   0
Zn1      0.166666667   0.666666667   0.406869400    0   0   0
Zn1      0.666666667   0.666666667   0.406869400    0   0   0
Zn1      0.833333333   0.333333333   0.500000000    0   0   0
Zn1      0.333333333   0.333333333   0.500000000    0   0   0
Zn1      0.833333333   0.833333333   0.500000000    0   0   0
Zn1      0.333333333   0.833333333   0.500000000    0   0   0
Zn1     -0.000000168   0.000000411   0.599471534
Zn1      0.501400757  -0.002801527   0.595937202
Zn1     -0.002801540   0.501400937   0.595937053
Zn1      0.501400565   0.501400900   0.595936832
H1      -0.000000021   0.000000069   0.663918804

     Writing output data file calc.save
     Check: negative starting charge=   -0.000834
     NEW-OLD atomic charge density approx. for the potential
     Check: negative starting charge=   -0.000833

[...]

     Self-consistent Calculation

[...]

     Threshold (ethr) on eigenvalues was too large:
     Diagonalizing with lowered threshold

     Davidson diagonalization with overlap
     ethr =  7.95E-09,  avg # of iterations =  2.0

[...]

     total energy              =   -5554.41191505 Ry
     Harris-Foulkes estimate   =   -5554.41191547 Ry
     estimated scf accuracy    <       0.00000034 Ry

     iteration #  6     ecut=    36.75 Ry     beta=0.30
     Davidson diagonalization with overlap
     ethr =  1.43E-10,  avg # of iterations =  2.0

[...]

     negative rho (up, down):  1.100E-03 0.000E+00

     Adding external electric field

     Computed dipole along edir(3) :
        Dipole               -0.1835 Ry au,         -0.4664 Debye
        Dipole field         -0.0005 Ry au

        Potential amp.        0.0463 Ry
        Total length         45.2844 bohr

     End of self-consistent calculation

[...]

          k = 0.0595-0.0686 0.0000 ( 16986 PWs)   bands (ev):

[...]

          k =-0.0892-0.0515 0.0000 ( 17028 PWs)   bands (ev):

  -126.5285-126.5115-126.5112-126.5109-126.3579-126.3153-126.3150-126.3147
  -126.2521-126.2518-126.2513-126.2512 -80.7123 -80.7049 -80.7034 -80.6932
   -80.6897 -80.6888 -80.6887 -80.6868 -80.6863 -80.6861 -80.6859 -80.6817
   -80.5537 -80.5285 -80.5281 -80.5044 -80.5040 -80.5036 -80.4921 -80.4890
   -80.4888 -80.4873 -80.4846 -80.4803 -80.4448 -80.4444 -80.4439 -80.4404
   -80.4385 -80.4310 -80.4280 -80.4269 -80.4213 -80.4179 -80.4138 -80.3881
    -8.0201  -8.0116  -7.8218  -7.8161  -7.8099  -7.8081  -7.7359  -7.7300
    -7.7092  -7.7042  -7.7032  -7.6945  -7.5714  -7.5674  -7.5585  -7.5575
    -7.5064  -7.4851  -7.4783  -7.4732  -7.4485  -7.4132  -7.4016  -7.3930
    -7.3383  -7.3290  -7.3077  -7.3031  -7.2769  -7.2673  -7.2611  -7.2474
    -7.2399  -7.2262  -7.1915  -7.1854  -7.1692  -7.1504  -7.1323  -7.1205
    -7.1070  -7.1031  -7.0913  -7.0863  -7.0510  -7.0346  -7.0299  -7.0142
    -7.0122  -6.9993  -6.9852  -6.9779  -6.9492  -6.9433  -6.8851  -6.8752
    -6.8716  -6.8536  -6.8437  -6.8221  -6.8142  -6.8072  -5.5220  -5.3246
    -3.7134  -3.6491  -3.3338  -2.6487  -2.0989  -1.9712  -0.8752   0.5036
     0.5971   0.7418   2.1148   2.8115   2.8536   2.9766   2.9889   3.9603
     3.9669   3.9872

     the Fermi energy is     0.2593 ev

!    total energy              =   -5554.41191507 Ry
     Harris-Foulkes estimate   =   -5554.41191518 Ry
     estimated scf accuracy    <       0.00000002 Ry

     The total energy is the sum of the following terms:

     one-electron contribution =  -35074.13999725 Ry
     hartree contribution      =   17514.56654184 Ry
     xc contribution           =    -521.52000245 Ry
     ewald contribution        =   12526.70617871 Ry
     electric field correction =       0.00009371 Ry
     smearing contrib. (-TS)   =      -0.02472964 Ry

     convergence has been achieved in   6 iterations

 BEEF-vdW xc energy contributions
           1 :   -463.383466217418
           2 :    419.884152850294
           3 :   -346.978325504297
           4 :    265.880415939003
           5 :   -195.303249877815
           6 :    144.427926349661
           7 :   -111.704029356255
           8 :    89.1677588303278
           9 :   -68.9445050988531
          10 :    47.8430979607130
          11 :   -27.7676797971535
          12 :    12.6328354396920
          13 :   -4.56918588303921
          14 :    2.16439558359968
          15 :   -1.62916255770881
          16 :  -0.413098429533079
          17 :    4.76975344473988
          18 :   -9.64328182106544
          19 :    12.4730970102614
          20 :   -12.0814451197587
          21 :    9.51192907788231
          22 :   -7.09288792284519
          23 :    6.61680148297722
          24 :   -8.09335902068761
          25 :    9.95575564759372
          26 :   -10.4279737600617
          27 :    8.91525499912785
          28 :   -6.36881278827389
          29 :    4.44095861701641
          30 :   -4.17685158118491
          31 :   -35.8120352696233
          32 :   -24.3957607159225

     Forces acting on atoms (Ry/au):

     atom    1 type  1   force =    -0.00373338   -0.00215545   -0.00719021
     atom    2 type  1   force =     0.00373337   -0.00215547   -0.00719022
     atom    3 type  1   force =    -0.00000001    0.00431091   -0.00719022
     atom    4 type  1   force =     0.00000001    0.00000001   -0.00810295
     atom    5 type  1   force =     0.00000005   -0.00666877    0.01110074
     atom    6 type  1   force =    -0.00000006   -0.00000008   -0.00040309
     atom    7 type  1   force =     0.00577526    0.00333441    0.01110075
     atom    8 type  1   force =    -0.00577525    0.00333446    0.01110071
     atom    9 type  1   force =    -0.00000005   -0.00000005   -0.00090578
     atom   10 type  1   force =     0.00000004   -0.00049370   -0.00135899
     atom   11 type  1   force =    -0.00042759    0.00024689   -0.00135874
     atom   12 type  1   force =     0.00042762    0.00024686   -0.00135843
     atom   13 type  2   force =     0.00000000   -0.00000000    0.00175643

     Total force =     0.003190     Total SCF correction =     0.001145
     SCF correction compared to forces is large: reduce conv_thr to get better values

     entering subroutine stress ...

          total   stress  (Ry/bohr**3)                   (kbar)     P=  -16.13
  -0.00015192   0.00000000   0.00000000        -22.35      0.00      0.00
   0.00000000  -0.00015192  -0.00000000          0.00    -22.35     -0.00
   0.00000000  -0.00000000  -0.00002509          0.00     -0.00     -3.69

     bfgs converged in  14 scf cycles and  13 bfgs steps
     (criteria: energy <  1.0E+00, force <  1.9E-03)

     End of BFGS Geometry Optimization

     Final energy   =   -5554.4119150658 Ry
Begin final coordinates

ATOMIC_POSITIONS (crystal)
Zn1      0.166666667   0.166666667   0.406869400    0   0   0
Zn1      0.666666667   0.166666667   0.406869400    0   0   0
Zn1      0.166666667   0.666666667   0.406869400    0   0   0
Zn1      0.666666667   0.666666667   0.406869400    0   0   0
Zn1      0.833333333   0.333333333   0.500000000    0   0   0
Zn1      0.333333333   0.333333333   0.500000000    0   0   0
Zn1      0.833333333   0.833333333   0.500000000    0   0   0
Zn1      0.333333333   0.833333333   0.500000000    0   0   0
Zn1     -0.000000168   0.000000411   0.599471534
Zn1      0.501400757  -0.002801527   0.595937202
Zn1     -0.002801540   0.501400937   0.595937053
Zn1      0.501400565   0.501400900   0.595936832
H1      -0.000000021   0.000000069   0.663918804
End final coordinates

     Writing output data file calc.save

     General routines

     Parallel routines

   This run was terminated on:  22: 7:20   2May2018

   JOB DONE.
Job  /afs/slac/g/suncat/bin/suncat-tsmpirun -x LD_LIBRARY_PATH -wdir /scratch/qe193460_kSue8 pw.x -npool 4 -in pw.inp

TID   HOST_NAME   COMMAND_LINE            STATUS            TERMINATION_TIME
00000 suncat0058 pw.x -npool 4 -i  Done                     05/02/2018 22:07:20
00001 suncat0058 pw.x -npool 4 -i  Done                     05/02/2018 22:07:20
00002 suncat0058 pw.x -npool 4 -i  Done                     05/02/2018 22:07:20
00003 suncat0058 pw.x -npool 4 -i  Done                     05/02/2018 22:07:20
00004 suncat0058 pw.x -npool 4 -i  Done                     05/02/2018 22:07:20
00005 suncat0058 pw.x -npool 4 -i  Done                     05/02/2018 22:07:20
00006 suncat0058 pw.x -npool 4 -i  Done                     05/02/2018 22:07:20
00007 suncat0058 pw.x -npool 4 -i  Done                     05/02/2018 22:07:20
00008 suncat0052 pw.x -npool 4 -i  Done                     05/02/2018 22:07:20
00009 suncat0052 pw.x -npool 4 -i  Done                     05/02/2018 22:07:20
00010 suncat0052 pw.x -npool 4 -i  Done                     05/02/2018 22:07:20
00011 suncat0052 pw.x -npool 4 -i  Done                     05/02/2018 22:07:20
00012 suncat0052 pw.x -npool 4 -i  Done                     05/02/2018 22:07:20
00013 suncat0052 pw.x -npool 4 -i  Done                     05/02/2018 22:07:20
00014 suncat0052 pw.x -npool 4 -i  Done                     05/02/2018 22:07:20
00015 suncat0052 pw.x -npool 4 -i  Done                     05/02/2018 22:07:20
00016 suncat0238 pw.x -npool 4 -i  Done                     05/02/2018 22:07:20
00017 suncat0238 pw.x -npool 4 -i  Done                     05/02/2018 22:07:20
00018 suncat0238 pw.x -npool 4 -i  Done                     05/02/2018 22:07:20
00019 suncat0238 pw.x -npool 4 -i  Done                     05/02/2018 22:07:20
00020 suncat0238 pw.x -npool 4 -i  Done                     05/02/2018 22:07:20
00021 suncat0238 pw.x -npool 4 -i  Done                     05/02/2018 22:07:20
00022 suncat0238 pw.x -npool 4 -i  Done                     05/02/2018 22:07:20
00023 suncat0238 pw.x -npool 4 -i  Done                     05/02/2018 22:07:20
00024 suncat0218 pw.x -npool 4 -i  Done                     05/02/2018 22:07:20
00025 suncat0218 pw.x -npool 4 -i  Done                     05/02/2018 22:07:20
00026 suncat0218 pw.x -npool 4 -i  Done                     05/02/2018 22:07:20
00027 suncat0218 pw.x -npool 4 -i  Done                     05/02/2018 22:07:20
00028 suncat0218 pw.x -npool 4 -i  Done                     05/02/2018 22:07:20
00029 suncat0218 pw.x -npool 4 -i  Done                     05/02/2018 22:07:20
00030 suncat0218 pw.x -npool 4 -i  Done                     05/02/2018 22:07:20
00031 suncat0218 pw.x -npool 4 -i  Done                     05/02/2018 22:07:20