     Program PWSCF v.5.1rc2 (svn rev. 11289) starts on 24Apr2018 at 15:38:44

     Current dimensions of program PWSCF are:
     Max number of different atomic species (ntypx) = 10
     Max number of k-points (npk) =  40000
     Max angular momentum in pseudopotentials (lmaxx) =  3
     Presently stress not available with electric field

     IMPORTANT: XC functional enforced from input :
     Exchange-correlation      = BEEF-VDW ( 1  4 27 13 2)
     Any further DFT definition will be discarded
     Please, verify this is what you really want

     Subspace diagonalization in iterative solution of the eigenvalue problem:
     a serial algorithm will be used

     bravais-lattice index     =            0
     lattice parameter (alat)  =       1.8897  a.u.
     unit-cell volume          =    4704.3541 (a.u.)^3
     number of atoms/cell      =           14
     number of atomic types    =            3
     number of electrons       =       173.00
     number of Kohn-Sham states=           96
     kinetic-energy cutoff     =      36.7493  Ry
     charge density cutoff     =     367.4932  Ry
     convergence threshold     =      1.0E-05
     mixing beta               =       0.3000
     number of iterations used =           10  plain     mixing
     Exchange-correlation      = BEEF-VDW ( 1  4 27 13 2)
     nstep                     =           50

     celldm(1)=   1.889726  celldm(2)=   0.000000  celldm(3)=   0.000000
     celldm(4)=   0.000000  celldm(5)=   0.000000  celldm(6)=   0.000000

     crystal axes: (cart. coord. in units of alat)
               a(1) = (   5.712816   0.000000   0.000000 )
               a(2) = (   2.856408   4.947444   0.000000 )
               a(3) = (   0.000000   0.000000  24.664495 )

     reciprocal axes: (cart. coord. in units 2 pi/alat)
               b(1) = (  0.175045 -0.101062  0.000000 )
               b(2) = (  0.000000  0.202125  0.000000 )
               b(3) = (  0.000000  0.000000  0.040544 )

     PseudoPot. # 1 for W  read from file:
     /u/if/mamunm/psp/gbrv1.5pbe/W.UPF
     MD5 check sum: 9c083fa34c2a2ea0f02f1f893e16e1c8
     Pseudo is Ultrasoft + core correction, Zval = 14.0
     Generated by new atomic code, or converted to UPF format
     Using radial grid of  923 points,  8 beta functions with:
                l(1) =   0
                l(2) =   0
                l(3) =   0
                l(4) =   1
                l(5) =   1
                l(6) =   2
                l(7) =   2
                l(8) =   3
     Q(r) pseudized with  6 coefficients,  rinner =    1.350   1.350   1.350
                                                       1.350   1.350   1.350
                                                       1.350

     PseudoPot. # 2 for C  read from file:
     /u/if/mamunm/psp/gbrv1.5pbe/C.UPF
     MD5 check sum: d1aef80898a10debaa0f26306b886e00
     Pseudo is Ultrasoft + core correction, Zval =  4.0
     Generated by new atomic code, or converted to UPF format
     Using radial grid of  721 points,  4 beta functions with:
                l(1) =   0
                l(2) =   0
                l(3) =   1
                l(4) =   1
     Q(r) pseudized with  8 coefficients,  rinner =    1.100   1.100   1.100

     PseudoPot. # 3 for H  read from file:
     /u/if/mamunm/psp/gbrv1.5pbe/H.UPF
     MD5 check sum: 761ae9a214b05c3daf00ab9f6b793d6f
     Pseudo is Ultrasoft, Zval =  1.0
     Generated by new atomic code, or converted to UPF format
     Using radial grid of  615 points,  2 beta functions with:
                l(1) =   0
                l(2) =   0
     Q(r) pseudized with  8 coefficients,  rinner =    0.700

     vdW kernel table read from file vdW_kernel_table
     MD5 check sum: 095c7af220d748ca6e76c0b4c6cfb241

     atomic species   valence    mass     pseudopotential
        W1            14.00   183.84000     W ( 1.00)
        C1             4.00    12.01100     C ( 1.00)
        H1             1.00     1.00800     H ( 1.00)

     No symmetry found

   Cartesian axes

     site n.     atom                  positions (alat units)
         1           W1  tau(   1) = (   1.4282041   0.8245740  10.0000000  )
         2           W1  tau(   2) = (   4.2846123   0.8245740  10.0000000  )
         3           W1  tau(   3) = (   2.8564082   3.2982961  10.0000000  )
         4           W1  tau(   4) = (   5.7128165   3.2982961  10.0000000  )
         5           W1  tau(   5) = (   5.7128165   1.6491481  12.3322476  )
         6           W1  tau(   6) = (   2.8564082   1.6491481  12.3322476  )
         7           W1  tau(   7) = (   7.1410206   4.1228701  12.3322476  )
         8           W1  tau(   8) = (   4.2846123   4.1228701  12.3322476  )
         9           W1  tau(   9) = (   0.0000000   0.0000000  14.6644951  )
        10           W1  tau(  10) = (   2.8564082   0.0000000  14.6644951  )
        11           W1  tau(  11) = (   1.4282041   2.4737221  14.6644951  )
        12           W1  tau(  12) = (   4.2846123   2.4737221  14.6644951  )
        13           C1  tau(  13) = (   2.8564082   1.6491481  16.2114951  )
        14           H1  tau(  14) = (   2.8564082   1.6491481  17.3114951  )

     number of k points=    20  Fermi-Dirac smearing, width (Ry)=  0.0110
                       cart. coord. in units 2pi/alat
        k(    1) = (   0.0000000   0.0000000   0.0000000), wk =   0.0555556
        k(    2) = (   0.0000000   0.0336874   0.0000000), wk =   0.1111111
        k(    3) = (   0.0000000   0.0673749   0.0000000), wk =   0.1111111
        k(    4) = (   0.0000000  -0.1010623   0.0000000), wk =   0.0555556
        k(    5) = (   0.0291742  -0.0168437   0.0000000), wk =   0.1111111
        k(    6) = (   0.0291742   0.0168437   0.0000000), wk =   0.1111111
        k(    7) = (   0.0291742   0.0505311   0.0000000), wk =   0.1111111
        k(    8) = (   0.0291742  -0.1179060   0.0000000), wk =   0.1111111
        k(    9) = (   0.0291742  -0.0842186   0.0000000), wk =   0.1111111
        k(   10) = (   0.0291742  -0.0505311   0.0000000), wk =   0.1111111
        k(   11) = (   0.0583483  -0.0336874   0.0000000), wk =   0.1111111
        k(   12) = (   0.0583483  -0.0000000   0.0000000), wk =   0.1111111
        k(   13) = (   0.0583483   0.0336874   0.0000000), wk =   0.1111111
        k(   14) = (   0.0583483  -0.1347497   0.0000000), wk =   0.1111111
        k(   15) = (   0.0583483  -0.1010623   0.0000000), wk =   0.1111111
        k(   16) = (   0.0583483  -0.0673749   0.0000000), wk =   0.1111111
        k(   17) = (  -0.0875225   0.0505311   0.0000000), wk =   0.0555556
        k(   18) = (  -0.0875225   0.0842186   0.0000000), wk =   0.1111111
        k(   19) = (  -0.0875225   0.1179060   0.0000000), wk =   0.1111111
        k(   20) = (  -0.0875225  -0.0505311   0.0000000), wk =   0.0555556

     Largest allocated arrays     est. size (Mb)     dimensions
     Largest temporary arrays     est. size (Mb)     dimensions

     Initial potential from superposition of free atoms
     Check: negative starting charge=   -0.760266

     starting charge  171.79587, renormalised to  173.00000

     negative rho (up, down):  7.656E-01 0.000E+00

     *
     * You are using vdW-DF for exchange-correlation in this calculation.
     * Please cite the following three references that made this development
     * possible:
     *
     *   M. Dion, H. Rydberg, E. Schroder, D. C. Langreth, and
     *   B. I. Lundqvist, Phys. Rev. Lett. 92, 246401 (2004).
     *
     *   T. Thonhauser, V. R. Cooper, S. Li, A. Puzder, P. Hyldgaard, and
     *   D. C. Langreth, Phys. Rev. B 76, 125112 (2007).
     *
     *   G. Roman-Perez and J. M. Soler, Phys. Rev. Lett. 103, 096102 (2009).
     *
     *
     * If you are using vdW-DF2, please also cite:
     *
     *   K. Lee, E. D. Murray, L. Kong, B. I. Lundqvist, and
     *   D. C. Langreth, Phys. Rev. B 82, 081101(R) (2010).
     *
     *
     * If you are calculating the stress with vdW-DF, please also cite:
     *
     *   R. Sabatini, E. Kucukbenli, B. Kolb, T. Thonhauser, and
     *   S. de Gironcoli, J. Phys.: Condens. Matter 24, 424209 (2012).
     *

     Carrying out vdW-DF run using the following parameters:

     Nqs =      20    Nr_points =    1024   r_max =   100.000
     q_mesh =
               0.00001000     0.04494208     0.09755937     0.15916263
               0.23128650     0.31572767     0.41458969     0.53033537
               0.66584808     0.82450364     1.01025438     1.22772762
               1.48234092     1.78043706     2.12944203     2.53805004
               3.01644009     3.57652955     4.23227104     5.00000000

     Gradients computed in reciprocal space

     Adding external electric field

     Computed dipole along edir(3) :
        Dipole               -0.2711 Ry au,         -0.6890 Debye
        Dipole field         -0.0007 Ry au

        Potential amp.        0.0658 Ry
        Total length         45.4439 bohr

     Starting wfc are  161 randomized atomic wfcs

     Self-consistent Calculation

     iteration #  1     ecut=    36.75 Ry     beta=0.30
     Davidson diagonalization with overlap
     ethr =  1.00E-02,  avg # of iterations =  2.0

[...]

     total energy              =   -1936.17684494 Ry
     Harris-Foulkes estimate   =   -1937.97437850 Ry
     estimated scf accuracy    <       4.00149565 Ry

[...]

     End of self-consistent calculation

          k = 0.0000 0.0000 0.0000 ( 17753 PWs)   bands (ev):

   -71.6138 -71.5657 -71.5450 -71.5239 -71.5236 -71.5186 -71.4946 -71.4944
   -71.4858 -71.4676 -71.4651 -71.4649 -36.1715 -36.1602 -36.1602 -36.0992
   -36.0876 -36.0875 -36.0872 -35.9778 -35.9777 -35.9723 -35.7582 -35.6550
   -35.6234 -35.6231 -35.6117 -35.5979 -35.5978 -35.4970 -35.4938 -35.4938
   -35.3989 -35.3938 -35.3938 -35.3804 -35.3804 -35.3784 -35.3241 -35.2853
   -35.2853 -35.2828 -35.2617 -35.2616 -35.1904 -35.1904 -35.1105 -35.1105
    -8.3502  -5.5124  -4.0036  -3.1845  -2.6867  -2.4283  -2.4283  -2.3564
    -2.2503  -2.2503  -1.7621  -1.5105  -1.5105  -1.3714  -1.3506  -1.3506
    -0.6818  -0.0891  -0.0890   0.5668   0.8811   0.8811   1.2584   1.4177
     1.4177   1.6178   1.8056   2.0522   2.0522   2.1887   2.3177   2.3177
     2.4121   2.4122   2.4664   2.5607   2.5880   2.5880   2.9046   2.9046
     3.3029   3.6254   3.6255   4.0157   4.3004   4.4101   4.4101   4.5347

[...]

          k =-0.0875 0.0505 0.0000 ( 17668 PWs)   bands (ev):

[...]

     the Fermi energy is     2.6374 ev

!    total energy              =   -1937.53910556 Ry
     Harris-Foulkes estimate   =   -1937.53910672 Ry
     estimated scf accuracy    <       0.00000666 Ry

     The total energy is the sum of the following terms:

     one-electron contribution =  -14964.97166326 Ry
     hartree contribution      =    7468.56705322 Ry
     xc contribution           =    -514.69250545 Ry
     ewald contribution        =    6073.65423624 Ry
     electric field correction =       0.00003753 Ry
     smearing contrib. (-TS)   =      -0.09626383 Ry

     convergence has been achieved in  13 iterations

 BEEF-vdW xc energy contributions
           1 :   -452.749161441274
           2 :    418.866952452050
           3 :   -359.205846845639
           4 :    286.835448891299
           5 :   -215.352085032110
           6 :    154.956494999934
           7 :   -110.273966535559
           8 :    80.4390430027829
           9 :   -61.0432844996518
          10 :    46.8577036429783
          11 :   -34.0990936415001
          12 :    21.4261623628637
          13 :   -9.57014035457354
          14 :   0.118036453883292
          15 :    5.77880118142025
          16 :   -8.14255606873837
          17 :    8.12416926750205
          18 :   -7.36161911297842
          19 :    7.16863150075028
          20 :   -7.99258524466694
          21 :    9.38491507652043
          22 :   -10.4364097822007
          23 :    10.3957824716704
          24 :   -9.12457361576304
          25 :    7.16342896082966
          26 :   -5.41039687953207
          27 :    4.61591950005959
          28 :   -4.98243931733077
          29 :    6.08107605235853
          30 :   -7.11409896420378
          31 :   -41.1154041622952
          32 :   -30.8119940872872

     Forces acting on atoms (Ry/au):

     negative rho (up, down):  7.926E-01 0.000E+00
     atom    1 type  1   force =    -0.00224579   -0.00128153   -0.00290024
     atom    2 type  1   force =     0.00224562   -0.00130216   -0.00287550
     atom    3 type  1   force =    -0.00001861    0.00259215   -0.00288417
     atom    4 type  1   force =     0.00003099   -0.00000875   -0.00564627
     atom    5 type  1   force =     0.00000873    0.00129396   -0.00938552
     atom    6 type  1   force =    -0.00000761    0.00001697    0.01265443
     atom    7 type  1   force =    -0.00110678   -0.00066203   -0.00939778
     atom    8 type  1   force =     0.00110102   -0.00064839   -0.00940301
     atom    9 type  1   force =    -0.00002427   -0.00000286   -0.03041125
     atom   10 type  1   force =     0.00001616   -0.00967268    0.06581262
     atom   11 type  1   force =    -0.00837883    0.00484908    0.06579156
     atom   12 type  1   force =     0.00837838    0.00482696    0.06581554
     atom   13 type  2   force =    -0.00000044    0.00000027   -0.12387455
     atom   14 type  3   force =     0.00000144   -0.00000099   -0.01329585

     Total force =     0.172391     Total SCF correction =     0.003160

     entering subroutine stress ...

     negative rho (up, down):  7.926E-01 0.000E+00
          total   stress  (Ry/bohr**3)                   (kbar)     P=  -50.00
  -0.00044492   0.00000000  -0.00000001        -65.45      0.00     -0.00
   0.00000000  -0.00044494   0.00000000          0.00    -65.45      0.00
  -0.00000001   0.00000000  -0.00012992         -0.00      0.00    -19.11

     BFGS Geometry Optimization

     number of scf cycles    =   1
     number of bfgs steps    =   0

     energy   new            =   -1937.5391055564 Ry

     new trust radius        =       0.1238745533 bohr
     new conv_thr            =       0.0000099958 Ry

ATOMIC_POSITIONS (crystal)
W1       0.166666667   0.166666667   0.405441099    0   0   0
W1       0.666666667   0.166666667   0.405441099    0   0   0
W1       0.166666667   0.666666667   0.405441099    0   0   0
W1       0.666666667   0.666666667   0.405441099    0   0   0
W1       0.833333333   0.333333333   0.500000000    0   0   0
W1       0.333333333   0.333333333   0.500000000    0   0   0
W1       0.833333333   0.833333333   0.500000000    0   0   0
W1       0.333333333   0.833333333   0.500000000    0   0   0
W1      -0.000002096  -0.000000305   0.593906427
W1       0.500518790  -0.001034587   0.595970912
W1      -0.001035458   0.500518656   0.595970460
W1       0.500517943   0.500516290   0.595970975
C1       0.333333278   0.333333362   0.654622908
H1       0.333333520   0.333333227   0.701593897

     Writing output data file calc.save
     Check: negative starting charge=   -0.760266
     NEW-OLD atomic charge density approx. for the potential
     Check: negative starting charge=   -0.760833

[...]

     energy   old            =   -1937.5391055564 Ry
     energy   new            =   -1937.5610167202 Ry

     CASE: energy  _new < energy  _old

[...]

     Threshold (ethr) on eigenvalues was too large:
     Diagonalizing with lowered threshold

     Davidson diagonalization with overlap
     ethr =  2.02E-08,  avg # of iterations =  4.4

[...]

     Total force =     0.005418     Total SCF correction =     0.000695
     SCF correction compared to forces is large: reduce conv_thr to get better values

[...]

     Total force =     0.004848     Total SCF correction =     0.000387

[...]

     number of scf cycles    =  12
     number of bfgs steps    =  11

     energy   old            =   -1937.5960399121 Ry
     energy   new            =   -1937.5960751949 Ry

     CASE: energy  _new < energy  _old

     new trust radius        =       0.0158202819 bohr
     new conv_thr            =       0.0000001000 Ry

ATOMIC_POSITIONS (crystal)
W1       0.166666667   0.166666667   0.405441099    0   0   0
W1       0.666666667   0.166666667   0.405441099    0   0   0
W1       0.166666667   0.666666667   0.405441099    0   0   0
W1       0.666666667   0.666666667   0.405441099    0   0   0
W1       0.833333333   0.333333333   0.500000000    0   0   0
W1       0.333333333   0.333333333   0.500000000    0   0   0
W1       0.833333333   0.833333333   0.500000000    0   0   0
W1       0.333333333   0.833333333   0.500000000    0   0   0
W1      -0.000001571  -0.000000143   0.584015879
W1       0.502748234  -0.005493445   0.598147322
W1      -0.005495258   0.502748287   0.598147156
W1       0.502746318   0.502744697   0.598147417
C1       0.333333866   0.333333322   0.649156230
H1       0.333333065   0.333333336   0.693724649

     Writing output data file calc.save
     Check: negative starting charge=   -0.760164
     NEW-OLD atomic charge density approx. for the potential
     Check: negative starting charge=   -0.759760

[...]

     Self-consistent Calculation

[...]

     Threshold (ethr) on eigenvalues was too large:
     Diagonalizing with lowered threshold

     Davidson diagonalization with overlap
     ethr =  4.48E-08,  avg # of iterations =  2.1

[...]

     total energy              =   -1937.59610049 Ry
     Harris-Foulkes estimate   =   -1937.59610052 Ry
     estimated scf accuracy    <       0.00000017 Ry

     iteration #  9     ecut=    36.75 Ry     beta=0.30
     Davidson diagonalization with overlap
     ethr =  9.65E-11,  avg # of iterations =  2.5

[...]

     negative rho (up, down):  7.928E-01 0.000E+00

     Adding external electric field

     Computed dipole along edir(3) :
        Dipole                0.1739 Ry au,          0.4421 Debye
        Dipole field          0.0005 Ry au

        Potential amp.       -0.0422 Ry
        Total length         45.4439 bohr

     End of self-consistent calculation

[...]

          k = 0.0583-0.0674 0.0000 ( 17692 PWs)   bands (ev):

[...]

          k =-0.0875-0.0505 0.0000 ( 17668 PWs)   bands (ev):

   -71.5634 -71.4844 -71.4682 -71.4475 -71.4445 -71.4317 -71.4142 -71.4010
   -71.3989 -71.3919 -71.3805 -71.3398 -36.0062 -35.9613 -35.9172 -35.9033
   -35.8848 -35.8778 -35.8043 -35.7697 -35.7480 -35.7307 -35.7129 -35.6719
   -35.5990 -35.5629 -35.5284 -35.5143 -35.5114 -35.5105 -35.5041 -35.4817
   -35.4562 -35.4281 -35.4270 -35.4194 -35.3865 -35.3753 -35.3335 -35.3194
   -35.3181 -35.2675 -35.2131 -35.1872 -35.1541 -35.1261 -35.0947 -35.0863
    -8.6444  -3.7287  -3.6099  -3.1197  -2.2060  -1.7893  -1.5035  -1.3296
    -1.2491  -1.2134  -1.1418  -0.8474  -0.7093  -0.4771  -0.2355  -0.1757
    -0.0061   0.0479   0.1061   0.3208   0.4853   0.6654   0.7298   0.7401
     0.8761   1.0313   1.1816   1.4352   1.4786   1.5546   1.6255   1.6291
     1.6770   1.7644   1.9214   2.1478   2.2577   2.2641   2.3890   2.7076
     2.9742   3.0436   3.2551   3.4839   3.5724   3.7834   3.8688   4.0416

     the Fermi energy is     2.7239 ev

!    total energy              =   -1937.59610048 Ry
     Harris-Foulkes estimate   =   -1937.59610039 Ry
     estimated scf accuracy    <       0.00000004 Ry

     The total energy is the sum of the following terms:

     one-electron contribution =  -15009.40618354 Ry
     hartree contribution      =    7491.17298419 Ry
     xc contribution           =    -514.93699465 Ry
     ewald contribution        =    6095.66247247 Ry
     electric field correction =       0.00008081 Ry
     smearing contrib. (-TS)   =      -0.08845975 Ry

     convergence has been achieved in   9 iterations

 BEEF-vdW xc energy contributions
           1 :   -452.987710471153
           2 :    419.141879013664
           3 :   -359.523430150368
           4 :    287.168261485561
           5 :   -215.650021970499
           6 :    155.161303557109
           7 :   -110.338807822755
           8 :    80.3491915242502
           9 :   -60.8290307935676
          10 :    46.5883342920587
          11 :   -33.8551977408762
          12 :    21.2611722816225
          13 :   -9.48195476328641
          14 :   5.028640350730029E-002
          15 :    5.90331892295546
          16 :   -8.37471513238813
          17 :    8.45363542008914
          18 :   -7.71523639537236
          19 :    7.44517808106718
          20 :   -8.11365901040307
          21 :    9.33330308926821
          22 :   -10.2630778359986
          23 :    10.1943396844097
          24 :   -8.98793136045293
          25 :    7.14315819859843
          26 :   -5.49667418118628
          27 :    4.74639368135973
          28 :   -5.07524159421058
          29 :    6.07641550835518
          30 :   -7.00517263377679
          31 :   -41.1300444409673
          32 :   -30.8337072797048

     Forces acting on atoms (Ry/au):

     negative rho (up, down):  7.928E-01 0.000E+00
     atom    1 type  1   force =    -0.00213551   -0.00123298   -0.00174737
     atom    2 type  1   force =     0.00213558   -0.00123284   -0.00174696
     atom    3 type  1   force =     0.00000016    0.00246589   -0.00174723
     atom    4 type  1   force =    -0.00000008   -0.00000002    0.00278938
     atom    5 type  1   force =    -0.00000011    0.02380941   -0.01735597
     atom    6 type  1   force =     0.00000082   -0.00000002    0.05497165
     atom    7 type  1   force =    -0.02061984   -0.01190477   -0.01735763
     atom    8 type  1   force =     0.02061938   -0.01190459   -0.01735449
     atom    9 type  1   force =     0.00000500    0.00000009   -0.00035719
     atom   10 type  1   force =    -0.00000719   -0.00042511   -0.00004736
     atom   11 type  1   force =    -0.00036562    0.00020675   -0.00004518
     atom   12 type  1   force =     0.00037144    0.00021839   -0.00004916
     atom   13 type  2   force =    -0.00000370   -0.00000019    0.00142374
     atom   14 type  3   force =    -0.00000032    0.00000001   -0.00137623

     Total force =     0.002144     Total SCF correction =     0.000736
     SCF correction compared to forces is large: reduce conv_thr to get better values

     entering subroutine stress ...

     negative rho (up, down):  7.928E-01 0.000E+00
          total   stress  (Ry/bohr**3)                   (kbar)     P=  -39.43
  -0.00036181   0.00000000  -0.00000000        -53.22      0.00     -0.00
   0.00000000  -0.00036181  -0.00000000          0.00    -53.22     -0.00
  -0.00000000  -0.00000000  -0.00008057         -0.00     -0.00    -11.85

     bfgs converged in  13 scf cycles and  12 bfgs steps
     (criteria: energy <  1.0E+00, force <  1.9E-03)

     End of BFGS Geometry Optimization

     Final energy   =   -1937.5961004786 Ry
Begin final coordinates

ATOMIC_POSITIONS (crystal)
W1       0.166666667   0.166666667   0.405441099    0   0   0
W1       0.666666667   0.166666667   0.405441099    0   0   0
W1       0.166666667   0.666666667   0.405441099    0   0   0
W1       0.666666667   0.666666667   0.405441099    0   0   0
W1       0.833333333   0.333333333   0.500000000    0   0   0
W1       0.333333333   0.333333333   0.500000000    0   0   0
W1       0.833333333   0.833333333   0.500000000    0   0   0
W1       0.333333333   0.833333333   0.500000000    0   0   0
W1      -0.000001571  -0.000000143   0.584015879
W1       0.502748234  -0.005493445   0.598147322
W1      -0.005495258   0.502748287   0.598147156
W1       0.502746318   0.502744697   0.598147417
C1       0.333333866   0.333333322   0.649156230
H1       0.333333065   0.333333336   0.693724649
End final coordinates

     Writing output data file calc.save

     General routines

     Parallel routines

   This run was terminated on:  17:27:20  24Apr2018

   JOB DONE.
Job  /afs/slac/g/suncat/bin/suncat-tsmpirun -x LD_LIBRARY_PATH -wdir /scratch/qe894075_ZUsQg pw.x -npool 4 -in pw.inp

TID   HOST_NAME   COMMAND_LINE            STATUS            TERMINATION_TIME
00000 suncat0160 pw.x -npool 4 -i  Done                     04/24/2018 17:27:20
00001 suncat0160 pw.x -npool 4 -i  Done                     04/24/2018 17:27:20
00002 suncat0160 pw.x -npool 4 -i  Done                     04/24/2018 17:27:20
00003 suncat0160 pw.x -npool 4 -i  Done                     04/24/2018 17:27:20
00004 suncat0160 pw.x -npool 4 -i  Done                     04/24/2018 17:27:20
00005 suncat0160 pw.x -npool 4 -i  Done                     04/24/2018 17:27:20
00006 suncat0160 pw.x -npool 4 -i  Done                     04/24/2018 17:27:20
00007 suncat0160 pw.x -npool 4 -i  Done                     04/24/2018 17:27:20
00008 suncat0156 pw.x -npool 4 -i  Done                     04/24/2018 17:27:20
00009 suncat0156 pw.x -npool 4 -i  Done                     04/24/2018 17:27:20
00010 suncat0156 pw.x -npool 4 -i  Done                     04/24/2018 17:27:20
00011 suncat0156 pw.x -npool 4 -i  Done                     04/24/2018 17:27:20
00012 suncat0156 pw.x -npool 4 -i  Done                     04/24/2018 17:27:20
00013 suncat0156 pw.x -npool 4 -i  Done                     04/24/2018 17:27:20
00014 suncat0156 pw.x -npool 4 -i  Done                     04/24/2018 17:27:20
00015 suncat0156 pw.x -npool 4 -i  Done                     04/24/2018 17:27:20
00016 suncat0151 pw.x -npool 4 -i  Done                     04/24/2018 17:27:20
00017 suncat0151 pw.x -npool 4 -i  Done                     04/24/2018 17:27:20
00018 suncat0151 pw.x -npool 4 -i  Done                     04/24/2018 17:27:20
00019 suncat0151 pw.x -npool 4 -i  Done                     04/24/2018 17:27:20
00020 suncat0151 pw.x -npool 4 -i  Done                     04/24/2018 17:27:20
00021 suncat0151 pw.x -npool 4 -i  Done                     04/24/2018 17:27:20
00022 suncat0151 pw.x -npool 4 -i  Done                     04/24/2018 17:27:20
00023 suncat0151 pw.x -npool 4 -i  Done                     04/24/2018 17:27:20
00024 suncat0256 pw.x -npool 4 -i  Done                     04/24/2018 17:27:20
00025 suncat0256 pw.x -npool 4 -i  Done                     04/24/2018 17:27:20
00026 suncat0256 pw.x -npool 4 -i  Done                     04/24/2018 17:27:20
00027 suncat0256 pw.x -npool 4 -i  Done                     04/24/2018 17:27:20
00028 suncat0256 pw.x -npool 4 -i  Done                     04/24/2018 17:27:20
00029 suncat0256 pw.x -npool 4 -i  Done                     04/24/2018 17:27:20
00030 suncat0256 pw.x -npool 4 -i  Done                     04/24/2018 17:27:20
00031 suncat0256 pw.x -npool 4 -i  Done                     04/24/2018 17:27:20