     Program PWSCF v.5.1rc2 (svn rev. 11289) starts on  2May2018 at 17:56:31

     Current dimensions of program PWSCF are:
     Max number of different atomic species (ntypx) = 10
     Max number of k-points (npk) =  40000
     Max angular momentum in pseudopotentials (lmaxx) =  3
     Presently stress not available with electric field

     IMPORTANT: XC functional enforced from input :
     Exchange-correlation      = BEEF-VDW ( 1  4 27 13 2)
     Any further DFT definition will be discarded
     Please, verify this is what you really want

     Subspace diagonalization in iterative solution of the eigenvalue problem:
     a serial algorithm will be used

     bravais-lattice index     =            0
     lattice parameter (alat)  =       1.8897  a.u.
     unit-cell volume          =    4158.3597 (a.u.)^3
     number of atoms/cell      =           13
     number of atomic types    =            2
     number of electrons       =       162.00
     number of Kohn-Sham states=           91
     kinetic-energy cutoff     =      36.7493  Ry
     charge density cutoff     =     367.4932  Ry
     convergence threshold     =      1.0E-05
     mixing beta               =       0.3000
     number of iterations used =           10  plain     mixing
     Exchange-correlation      = BEEF-VDW ( 1  4 27 13 2)
     nstep                     =           50

     celldm(1)=   1.889726  celldm(2)=   0.000000  celldm(3)=   0.000000
     celldm(4)=   0.000000  celldm(5)=   0.000000  celldm(6)=   0.000000

     crystal axes: (cart. coord. in units of alat)
               a(1) = (   5.399178   0.000000   0.000000 )
               a(2) = (   2.699589   4.675825   0.000000 )
               a(3) = (   0.000000   0.000000  24.408411 )

     reciprocal axes: (cart. coord. in units 2 pi/alat)
               b(1) = (  0.185213 -0.106933  0.000000 )
               b(2) = (  0.000000  0.213866  0.000000 )
               b(3) = (  0.000000  0.000000  0.040969 )

     PseudoPot. # 1 for V  read from file:
     /u/if/mamunm/psp/gbrv1.5pbe/V.UPF
     MD5 check sum: 22b79981416ebb76fdaf5b1b8640f6fb
     Pseudo is Ultrasoft + core correction, Zval = 13.0
     Generated by new atomic code, or converted to UPF format
     Using radial grid of  853 points,  6 beta functions with:
                l(1) =   0
                l(2) =   0
                l(3) =   1
                l(4) =   1
                l(5) =   2
                l(6) =   2
     Q(r) pseudized with  8 coefficients,  rinner =    1.100   1.100   1.100
                                                       1.100   1.100

     PseudoPot. # 2 for S  read from file:
     /u/if/mamunm/psp/gbrv1.5pbe/S.UPF
     MD5 check sum: 88d86576ff6df21479756cfb9bdac1df
     Pseudo is Ultrasoft + core correction, Zval =  6.0
     Generated by new atomic code, or converted to UPF format
     Using radial grid of  907 points,  6 beta functions with:
                l(1) =   0
                l(2) =   0
                l(3) =   1
                l(4) =   1
                l(5) =   2
                l(6) =   2
     Q(r) pseudized with  8 coefficients,  rinner =    1.300   1.300   1.300
                                                       1.300   1.300

     vdW kernel table read from file vdW_kernel_table
     MD5 check sum: 095c7af220d748ca6e76c0b4c6cfb241

     atomic species   valence    mass     pseudopotential
        V1            13.00    50.94150     V ( 1.00)
        S1             6.00    32.06000     S ( 1.00)

     No symmetry found

   Cartesian axes

     site n.     atom                  positions (alat units)
         1           V1  tau(   1) = (   1.3497945   0.7793042  10.0000000  )
         2           V1  tau(   2) = (   4.0493836   0.7793042  10.0000000  )
         3           V1  tau(   3) = (   2.6995891   3.1172170  10.0000000  )
         4           V1  tau(   4) = (   5.3991782   3.1172170  10.0000000  )
         5           V1  tau(   5) = (   5.3991782   1.5586085  12.2042053  )
         6           V1  tau(   6) = (   2.6995891   1.5586085  12.2042053  )
         7           V1  tau(   7) = (   6.7489727   3.8965212  12.2042053  )
         8           V1  tau(   8) = (   4.0493836   3.8965212  12.2042053  )
         9           V1  tau(   9) = (   0.0000000   0.0000000  14.4084105  )
        10           V1  tau(  10) = (   2.6995891   0.0000000  14.4084105  )
        11           V1  tau(  11) = (   1.3497945   2.3379127  14.4084105  )
        12           V1  tau(  12) = (   4.0493836   2.3379127  14.4084105  )
        13           S1  tau(  13) = (   0.0000000   0.0000000  16.6014105  )

     number of k points=    20  Fermi-Dirac smearing, width (Ry)=  0.0110
                       cart. coord. in units 2pi/alat
        k(    1) = (   0.0000000   0.0000000   0.0000000), wk =   0.0555556
        k(    2) = (   0.0000000   0.0356443   0.0000000), wk =   0.1111111
        k(    3) = (   0.0000000   0.0712887   0.0000000), wk =   0.1111111
        k(    4) = (   0.0000000  -0.1069330   0.0000000), wk =   0.0555556
        k(    5) = (   0.0308689  -0.0178222   0.0000000), wk =   0.1111111
        k(    6) = (   0.0308689   0.0178222   0.0000000), wk =   0.1111111
        k(    7) = (   0.0308689   0.0534665   0.0000000), wk =   0.1111111
        k(    8) = (   0.0308689  -0.1247552   0.0000000), wk =   0.1111111
        k(    9) = (   0.0308689  -0.0891108   0.0000000), wk =   0.1111111
        k(   10) = (   0.0308689  -0.0534665   0.0000000), wk =   0.1111111
        k(   11) = (   0.0617378  -0.0356443   0.0000000), wk =   0.1111111
        k(   12) = (   0.0617378   0.0000000   0.0000000), wk =   0.1111111
        k(   13) = (   0.0617378   0.0356443   0.0000000), wk =   0.1111111
        k(   14) = (   0.0617378  -0.1425773   0.0000000), wk =   0.1111111
        k(   15) = (   0.0617378  -0.1069330   0.0000000), wk =   0.1111111
        k(   16) = (   0.0617378  -0.0712887   0.0000000), wk =   0.1111111
        k(   17) = (  -0.0926067   0.0534665   0.0000000), wk =   0.0555556
        k(   18) = (  -0.0926067   0.0891108   0.0000000), wk =   0.1111111
        k(   19) = (  -0.0926067   0.1247552   0.0000000), wk =   0.1111111
        k(   20) = (  -0.0926067  -0.0534665   0.0000000), wk =   0.0555556

     Largest allocated arrays     est. size (Mb)     dimensions
     Largest temporary arrays     est. size (Mb)     dimensions

     Check: negative/imaginary core charge=   -0.000001    0.000000

     Initial potential from superposition of free atoms
     Check: negative starting charge=   -0.011524

     starting charge  161.98523, renormalised to  162.00000

     negative rho (up, down):  1.153E-02 0.000E+00

     *
     * You are using vdW-DF for exchange-correlation in this calculation.
     * Please cite the following three references that made this development
     * possible:
     *
     *   M. Dion, H. Rydberg, E. Schroder, D. C. Langreth, and
     *   B. I. Lundqvist, Phys. Rev. Lett. 92, 246401 (2004).
     *
     *   T. Thonhauser, V. R. Cooper, S. Li, A. Puzder, P. Hyldgaard, and
     *   D. C. Langreth, Phys. Rev. B 76, 125112 (2007).
     *
     *   G. Roman-Perez and J. M. Soler, Phys. Rev. Lett. 103, 096102 (2009).
     *
     *
     * If you are using vdW-DF2, please also cite:
     *
     *   K. Lee, E. D. Murray, L. Kong, B. I. Lundqvist, and
     *   D. C. Langreth, Phys. Rev. B 82, 081101(R) (2010).
     *
     *
     * If you are calculating the stress with vdW-DF, please also cite:
     *
     *   R. Sabatini, E. Kucukbenli, B. Kolb, T. Thonhauser, and
     *   S. de Gironcoli, J. Phys.: Condens. Matter 24, 424209 (2012).
     *

     Carrying out vdW-DF run using the following parameters:

     Nqs =      20    Nr_points =    1024   r_max =   100.000
     q_mesh =
               0.00001000     0.04494208     0.09755937     0.15916263
               0.23128650     0.31572767     0.41458969     0.53033537
               0.66584808     0.82450364     1.01025438     1.22772762
               1.48234092     1.78043706     2.12944203     2.53805004
               3.01644009     3.57652955     4.23227104     5.00000000

     Gradients computed in reciprocal space

     Adding external electric field

     Computed dipole along edir(3) :
        Dipole               -0.0042 Ry au,         -0.0108 Debye
        Dipole field         -0.0000 Ry au

        Potential amp.        0.0012 Ry
        Total length         44.9721 bohr

     Starting wfc are  124 randomized atomic wfcs

     Self-consistent Calculation

     iteration #  1     ecut=    36.75 Ry     beta=0.30
     Davidson diagonalization with overlap
     ethr =  1.00E-02,  avg # of iterations =  2.4

[...]

     total energy              =   -1767.01428830 Ry
     Harris-Foulkes estimate   =   -1774.14728086 Ry
     estimated scf accuracy    <      14.55285353 Ry

[...]

     End of self-consistent calculation

          k = 0.0000 0.0000 0.0000 ( 15569 PWs)   bands (ev):

   -63.3075 -63.2247 -63.1913 -63.1905 -63.1755 -63.1546 -63.1194 -63.0967
   -63.0965 -63.0728 -63.0691 -63.0685 -37.3832 -37.3830 -37.3531 -37.3400
   -37.3341 -37.3338 -37.3032 -37.2381 -37.2376 -37.2308 -37.1068 -37.0541
   -37.0535 -37.0480 -36.9458 -36.9437 -36.9431 -36.9226 -36.8675 -36.8674
   -36.8264 -36.8077 -36.8011 -36.8007 -36.7951 -36.7949 -36.7652 -36.7271
   -36.7268 -36.7199 -36.7085 -36.7082 -36.6594 -36.6594 -36.5995 -36.5995
   -11.0127  -5.0576  -3.5423  -2.4310  -2.1270  -2.1269  -2.0527  -2.0014
    -1.8031  -1.8030  -1.5409  -1.5408  -1.4987  -1.3224  -1.3223  -1.3034
    -1.1450  -1.1449  -1.1038  -0.4140  -0.0975  -0.0974   0.5299   0.6357
     0.7663   0.7663   0.8743   1.0369   1.1703   1.1703   1.2508   1.2511
     1.3253   1.3254   1.4123   1.4217   1.4218   1.4342   1.4519   1.4519
     1.8786   2.1837   2.1840

[...]

          k =-0.0926 0.0535 0.0000 ( 15660 PWs)   bands (ev):

[...]

     the Fermi energy is     1.0296 ev

!    total energy              =   -1773.37217739 Ry
     Harris-Foulkes estimate   =   -1773.37217264 Ry
     estimated scf accuracy    <       0.00000585 Ry

     The total energy is the sum of the following terms:

     one-electron contribution =  -15183.49920209 Ry
     hartree contribution      =    7581.07625993 Ry
     xc contribution           =    -252.96204765 Ry
     ewald contribution        =    6082.15664551 Ry
     electric field correction =       0.00012915 Ry
     smearing contrib. (-TS)   =      -0.14396224 Ry

     convergence has been achieved in  28 iterations

 BEEF-vdW xc energy contributions
           1 :   -217.839585785301
           2 :    195.268910260431
           3 :   -158.020502152498
           4 :    117.800689733968
           5 :   -84.7653169727170
           6 :    63.7507765586622
           7 :   -53.6528918832107
           8 :    49.6533524742499
           9 :   -46.6150585943298
          10 :    41.6808940329635
          11 :   -34.9592665188893
          12 :    28.4115700519417
          13 :   -23.9933478317312
          14 :    22.2749978215532
          15 :   -22.2560137801010
          16 :    22.2440206750215
          17 :   -21.0541180785904
          18 :    18.6918051181663
          19 :   -16.1384669524095
          20 :    14.5011798820938
          21 :   -14.1932382257004
          22 :    14.7047689410826
          23 :   -15.0501631731594
          24 :    14.4975643168228
          25 :   -13.0450756620159
          26 :    11.3453929641977
          27 :   -10.1916954403170
          28 :    9.95715927111056
          29 :   -10.3733185852201
          30 :    10.7672708621167
          31 :   -22.6913822039098
          32 :   -16.3228574990391

     Forces acting on atoms (Ry/au):

     negative rho (up, down):  1.532E-02 0.000E+00
     atom    1 type  1   force =     0.00005216    0.00003585   -0.00172417
     atom    2 type  1   force =    -0.00005528    0.00004487   -0.00177368
     atom    3 type  1   force =     0.00000677   -0.00007980   -0.00175738
     atom    4 type  1   force =    -0.00000217   -0.00001067   -0.00058156
     atom    5 type  1   force =    -0.00001117    0.00463944   -0.00694448
     atom    6 type  1   force =     0.00000512    0.00001192    0.00717049
     atom    7 type  1   force =    -0.00399696   -0.00232868   -0.00698237
     atom    8 type  1   force =     0.00400103   -0.00232627   -0.00697736
     atom    9 type  1   force =    -0.00001406    0.00001503    0.07300101
     atom   10 type  1   force =     0.00001377    0.00277704    0.00264914
     atom   11 type  1   force =     0.00240428   -0.00138111    0.00269599
     atom   12 type  1   force =    -0.00240026   -0.00139014    0.00261148
     atom   13 type  2   force =    -0.00000322   -0.00000749   -0.06138711

     Total force =     0.095612     Total SCF correction =     0.000689

     entering subroutine stress ...

     negative rho (up, down):  1.532E-02 0.000E+00
          total   stress  (Ry/bohr**3)                   (kbar)     P=  -19.78
  -0.00018177   0.00000003   0.00000001        -26.74      0.00      0.00
   0.00000003  -0.00018191   0.00000001          0.00    -26.76      0.00
   0.00000001   0.00000001  -0.00003972          0.00      0.00     -5.84

     BFGS Geometry Optimization

     number of scf cycles    =   1
     number of bfgs steps    =   0

     energy   new            =   -1773.3721773867 Ry

     new trust radius        =       0.0730010081 bohr
     new conv_thr            =       0.0000099958 Ry

ATOMIC_POSITIONS (crystal)
V1       0.166666667   0.166666667   0.409694847    0   0   0
V1       0.666666667   0.166666667   0.409694847    0   0   0
V1       0.166666667   0.666666667   0.409694847    0   0   0
V1       0.666666667   0.666666667   0.409694847    0   0   0
V1       0.833333333   0.333333333   0.500000000    0   0   0
V1       0.333333333   0.333333333   0.500000000    0   0   0
V1       0.833333333   0.833333333   0.500000000    0   0   0
V1       0.333333333   0.833333333   0.500000000    0   0   0
V1      -0.000002228   0.000001700   0.591887824
V1       0.499844206   0.000314286   0.590362587
V1       0.000313797   0.499843696   0.590363603
V1       0.499843412   0.499842674   0.590361771
S1       0.000000108  -0.000000847   0.678820354

     Writing output data file calc.save
     Check: negative starting charge=   -0.011524
     NEW-OLD atomic charge density approx. for the potential

     Check: negative/imaginary core charge=   -0.000001    0.000000
     Check: negative starting charge=   -0.011583

[...]

     Total force =     0.041472     Total SCF correction =     0.010370
     SCF correction compared to forces is large: reduce conv_thr to get better values

[...]

     energy   old            =   -1773.3721773867 Ry
     energy   new            =   -1773.3788768396 Ry

     CASE: energy  _new < energy  _old

[...]

     Threshold (ethr) on eigenvalues was too large:
     Diagonalizing with lowered threshold

     Davidson diagonalization with overlap
     ethr =  2.01E-08,  avg # of iterations =  7.5

[...]

     Total force =     0.006483     Total SCF correction =     0.000247

[...]

     WARNING: bfgs curvature condition failed, Theta= 0.875
     new trust radius        =       0.0095748883 bohr
     new conv_thr            =       0.0000001000 Ry

[...]

     number of scf cycles    =   8
     number of bfgs steps    =   7

     energy   old            =   -1773.3803983672 Ry
     energy   new            =   -1773.3805302366 Ry

     CASE: energy  _new < energy  _old

     new trust radius        =       0.0323152481 bohr
     new conv_thr            =       0.0000001000 Ry

ATOMIC_POSITIONS (crystal)
V1       0.166666667   0.166666667   0.409694847    0   0   0
V1       0.666666667   0.166666667   0.409694847    0   0   0
V1       0.166666667   0.666666667   0.409694847    0   0   0
V1       0.666666667   0.666666667   0.409694847    0   0   0
V1       0.833333333   0.333333333   0.500000000    0   0   0
V1       0.333333333   0.333333333   0.500000000    0   0   0
V1       0.833333333   0.833333333   0.500000000    0   0   0
V1       0.333333333   0.833333333   0.500000000    0   0   0
V1      -0.000001790   0.000003812   0.594709918
V1       0.498878314   0.002245805   0.589719737
V1       0.002242832   0.498880137   0.589719144
V1       0.498879129   0.498877973   0.589717722
S1       0.000000649  -0.000002252   0.680053728

     Writing output data file calc.save
     Check: negative starting charge=   -0.011455
     NEW-OLD atomic charge density approx. for the potential

     Check: negative/imaginary core charge=   -0.000001    0.000000
     Check: negative starting charge=   -0.011265

[...]

     Self-consistent Calculation

[...]

     total energy              =   -1773.38062304 Ry
     Harris-Foulkes estimate   =   -1773.38062307 Ry
     estimated scf accuracy    <       0.00000014 Ry

     iteration # 20     ecut=    36.75 Ry     beta=0.30
     Davidson diagonalization with overlap
     ethr =  7.91E-11,  avg # of iterations =  1.2

[...]

     negative rho (up, down):  1.519E-02 0.000E+00

     Adding external electric field

     Computed dipole along edir(3) :
        Dipole               -0.1820 Ry au,         -0.4626 Debye
        Dipole field         -0.0006 Ry au

        Potential amp.        0.0495 Ry
        Total length         44.9721 bohr

     End of self-consistent calculation

[...]

          k = 0.0617-0.0713 0.0000 ( 15642 PWs)   bands (ev):

[...]

          k =-0.0926-0.0535 0.0000 ( 15660 PWs)   bands (ev):

   -63.2305 -63.2079 -63.1667 -63.1562 -63.1436 -63.1082 -63.0978 -63.0849
   -63.0821 -63.0815 -63.0511 -63.0502 -37.2505 -37.2387 -37.2282 -37.2185
   -37.1982 -37.1905 -37.1180 -37.1173 -37.1063 -37.1018 -37.0730 -37.0657
   -37.0082 -36.9758 -36.9559 -36.9398 -36.9309 -36.9260 -36.9174 -36.8860
   -36.8664 -36.8530 -36.8528 -36.8497 -36.8430 -36.8420 -36.7729 -36.7602
   -36.7545 -36.7465 -36.7363 -36.7268 -36.7062 -36.6981 -36.6428 -36.6364
   -11.0555  -3.3468  -3.3368  -2.3556  -2.2552  -1.8106  -1.7038  -1.6265
    -1.3145  -1.2991  -1.2185  -1.1889  -1.0865  -0.9964  -0.5268  -0.4951
    -0.4519  -0.3940  -0.3557  -0.2608   0.0587   0.0721   0.1185   0.1429
     0.2264   0.2829   0.4248   0.4790   0.5913   0.6313   0.6591   0.7820
     0.8618   0.9268   0.9694   0.9895   1.1944   1.2146   1.2667   1.4245
     1.4514   1.7352   1.8577

     the Fermi energy is     1.0496 ev

!    total energy              =   -1773.38062298 Ry
     Harris-Foulkes estimate   =   -1773.38062317 Ry
     estimated scf accuracy    <       0.00000008 Ry

     The total energy is the sum of the following terms:

     one-electron contribution =  -15154.43477837 Ry
     hartree contribution      =    7566.62631351 Ry
     xc contribution           =    -252.98521202 Ry
     ewald contribution        =    6067.55404937 Ry
     electric field correction =       0.00010011 Ry
     smearing contrib. (-TS)   =      -0.14109558 Ry

     convergence has been achieved in  20 iterations

 BEEF-vdW xc energy contributions
           1 :   -217.863947376840
           2 :    195.300014462426
           3 :   -158.059680753970
           4 :    117.841681141454
           5 :   -84.7988892815319
           6 :    63.7717239605017
           7 :   -53.6614518590395
           8 :    49.6512847535640
           9 :   -46.6038539956496
          10 :    41.6642303314354
          11 :   -34.9451331641797
          12 :    28.4090143703881
          13 :   -24.0041427817563
          14 :    22.2878505281154
          15 :   -22.2509111378580
          16 :    22.2055131643872
          17 :   -20.9834510205283
          18 :    18.6079170501835
          19 :   -16.0664052612108
          20 :    14.4560989442558
          21 :   -14.1709895246632
          22 :    14.6859609145426
          23 :   -15.0144790665075
          24 :    14.4387143854598
          25 :   -12.9763189984232
          26 :    11.2912389092506
          27 :   -10.1711453499341
          28 :    9.97045397653014
          29 :   -10.4016096228851
          30 :    10.7854074040354
          31 :   -22.6929163163392
          32 :   -16.3257253026867

     Forces acting on atoms (Ry/au):

     negative rho (up, down):  1.519E-02 0.000E+00
     atom    1 type  1   force =    -0.00044909   -0.00026061   -0.00174299
     atom    2 type  1   force =     0.00044936   -0.00026103   -0.00174377
     atom    3 type  1   force =     0.00000014    0.00052003   -0.00174174
     atom    4 type  1   force =    -0.00000030    0.00000048   -0.00070773
     atom    5 type  1   force =     0.00000057   -0.00031521    0.00057860
     atom    6 type  1   force =    -0.00000246    0.00000016    0.00373423
     atom    7 type  1   force =     0.00027226    0.00015497    0.00058166
     atom    8 type  1   force =    -0.00027121    0.00015822    0.00057862
     atom    9 type  1   force =     0.00000202   -0.00000073    0.00087557
     atom   10 type  1   force =    -0.00000123   -0.00087609   -0.00017649
     atom   11 type  1   force =    -0.00075833    0.00043994   -0.00016960
     atom   12 type  1   force =     0.00075808    0.00044124   -0.00016986
     atom   13 type  2   force =     0.00000020   -0.00000139    0.00010350

     Total force =     0.001781     Total SCF correction =     0.000647
     SCF correction compared to forces is large: reduce conv_thr to get better values

     entering subroutine stress ...

     negative rho (up, down):  1.519E-02 0.000E+00
          total   stress  (Ry/bohr**3)                   (kbar)     P=  -17.97
  -0.00018324  -0.00000000   0.00000000        -26.96     -0.00      0.00
  -0.00000000  -0.00018324   0.00000000         -0.00    -26.96      0.00
   0.00000000   0.00000000   0.00000002          0.00      0.00      0.00

     bfgs converged in   9 scf cycles and   8 bfgs steps
     (criteria: energy <  1.0E+00, force <  1.9E-03)

     End of BFGS Geometry Optimization

     Final energy   =   -1773.3806229790 Ry
Begin final coordinates

ATOMIC_POSITIONS (crystal)
V1       0.166666667   0.166666667   0.409694847    0   0   0
V1       0.666666667   0.166666667   0.409694847    0   0   0
V1       0.166666667   0.666666667   0.409694847    0   0   0
V1       0.666666667   0.666666667   0.409694847    0   0   0
V1       0.833333333   0.333333333   0.500000000    0   0   0
V1       0.333333333   0.333333333   0.500000000    0   0   0
V1       0.833333333   0.833333333   0.500000000    0   0   0
V1       0.333333333   0.833333333   0.500000000    0   0   0
V1      -0.000001790   0.000003812   0.594709918
V1       0.498878314   0.002245805   0.589719737
V1       0.002242832   0.498880137   0.589719144
V1       0.498879129   0.498877973   0.589717722
S1       0.000000649  -0.000002252   0.680053728
End final coordinates

     Writing output data file calc.save

     General routines

     Parallel routines

   This run was terminated on:  19: 1: 2   2May2018

   JOB DONE.
Job  /afs/slac/g/suncat/bin/suncat-tsmpirun -x LD_LIBRARY_PATH -wdir /scratch/qe822723_RaFtn pw.x -npool 4 -in pw.inp

TID   HOST_NAME   COMMAND_LINE            STATUS            TERMINATION_TIME
00000 suncat0094 pw.x -npool 4 -i  Done                     05/02/2018 19:01:02
00001 suncat0094 pw.x -npool 4 -i  Done                     05/02/2018 19:01:02
00002 suncat0094 pw.x -npool 4 -i  Done                     05/02/2018 19:01:02
00003 suncat0094 pw.x -npool 4 -i  Done                     05/02/2018 19:01:02
00004 suncat0094 pw.x -npool 4 -i  Done                     05/02/2018 19:01:02
00005 suncat0094 pw.x -npool 4 -i  Done                     05/02/2018 19:01:02
00006 suncat0094 pw.x -npool 4 -i  Done                     05/02/2018 19:01:02
00007 suncat0094 pw.x -npool 4 -i  Done                     05/02/2018 19:01:02
00008 suncat0059 pw.x -npool 4 -i  Done                     05/02/2018 19:01:02
00009 suncat0059 pw.x -npool 4 -i  Done                     05/02/2018 19:01:02
00010 suncat0059 pw.x -npool 4 -i  Done                     05/02/2018 19:01:02
00011 suncat0059 pw.x -npool 4 -i  Done                     05/02/2018 19:01:02
00012 suncat0059 pw.x -npool 4 -i  Done                     05/02/2018 19:01:02
00013 suncat0059 pw.x -npool 4 -i  Done                     05/02/2018 19:01:02
00014 suncat0059 pw.x -npool 4 -i  Done                     05/02/2018 19:01:02
00015 suncat0059 pw.x -npool 4 -i  Done                     05/02/2018 19:01:02
00016 suncat0142 pw.x -npool 4 -i  Done                     05/02/2018 19:01:02
00017 suncat0142 pw.x -npool 4 -i  Done                     05/02/2018 19:01:02
00018 suncat0142 pw.x -npool 4 -i  Done                     05/02/2018 19:01:02
00019 suncat0142 pw.x -npool 4 -i  Done                     05/02/2018 19:01:02
00020 suncat0142 pw.x -npool 4 -i  Done                     05/02/2018 19:01:02
00021 suncat0142 pw.x -npool 4 -i  Done                     05/02/2018 19:01:02
00022 suncat0142 pw.x -npool 4 -i  Done                     05/02/2018 19:01:02
00023 suncat0142 pw.x -npool 4 -i  Done                     05/02/2018 19:01:02
00024 suncat0126 pw.x -npool 4 -i  Done                     05/02/2018 19:01:02
00025 suncat0126 pw.x -npool 4 -i  Done                     05/02/2018 19:01:02
00026 suncat0126 pw.x -npool 4 -i  Done                     05/02/2018 19:01:02
00027 suncat0126 pw.x -npool 4 -i  Done                     05/02/2018 19:01:02
00028 suncat0126 pw.x -npool 4 -i  Done                     05/02/2018 19:01:02
00029 suncat0126 pw.x -npool 4 -i  Done                     05/02/2018 19:01:02
00030 suncat0126 pw.x -npool 4 -i  Done                     05/02/2018 19:01:02
00031 suncat0126 pw.x -npool 4 -i  Done                     05/02/2018 19:01:02