     Program PWSCF v.5.1rc2 (svn rev. 11289) starts on  3May2018 at  6:39:18

     Current dimensions of program PWSCF are:
     Max number of different atomic species (ntypx) = 10
     Max number of k-points (npk) =  40000
     Max angular momentum in pseudopotentials (lmaxx) =  3
     Presently stress not available with electric field

     IMPORTANT: XC functional enforced from input :
     Exchange-correlation      = BEEF-VDW ( 1  4 27 13 2)
     Any further DFT definition will be discarded
     Please, verify this is what you really want

     Subspace diagonalization in iterative solution of the eigenvalue problem:
     a serial algorithm will be used

     bravais-lattice index     =            0
     lattice parameter (alat)  =       1.8897  a.u.
     unit-cell volume          =    5185.0501 (a.u.)^3
     number of atoms/cell      =           13
     number of atomic types    =            2
     number of electrons       =       160.00
     number of Kohn-Sham states=           90
     kinetic-energy cutoff     =      36.7493  Ry
     charge density cutoff     =     367.4932  Ry
     convergence threshold     =      1.0E-05
     mixing beta               =       0.3000
     number of iterations used =           10  plain     mixing
     Exchange-correlation      = BEEF-VDW ( 1  4 27 13 2)
     nstep                     =           50

     celldm(1)=   1.889726  celldm(2)=   0.000000  celldm(3)=   0.000000
     celldm(4)=   0.000000  celldm(5)=   0.000000  celldm(6)=   0.000000

     crystal axes: (cart. coord. in units of alat)
               a(1) = (   5.972022   0.000000   0.000000 )
               a(2) = (   2.986011   5.171923   0.000000 )
               a(3) = (   0.000000   0.000000  24.876136 )

     reciprocal axes: (cart. coord. in units 2 pi/alat)
               b(1) = (  0.167447 -0.096676  0.000000 )
               b(2) = (  0.000000  0.193352  0.000000 )
               b(3) = (  0.000000  0.000000  0.040199 )

     PseudoPot. # 1 for Ta read from file:
     /u/if/mamunm/psp/gbrv1.5pbe/Ta.UPF
     MD5 check sum: f8bbe9446314a3b8ea5d9f3e3836c939
     Pseudo is Ultrasoft + core correction, Zval = 13.0
     Generated by new atomic code, or converted to UPF format
     Using radial grid of  921 points,  7 beta functions with:
                l(1) =   0
                l(2) =   0
                l(3) =   1
                l(4) =   1
                l(5) =   2
                l(6) =   2
                l(7) =   3
     Q(r) pseudized with  6 coefficients,  rinner =    1.300   1.300   1.300
                                                       1.300   1.300   1.300
                                                       1.300

     PseudoPot. # 2 for C  read from file:
     /u/if/mamunm/psp/gbrv1.5pbe/C.UPF
     MD5 check sum: d1aef80898a10debaa0f26306b886e00
     Pseudo is Ultrasoft + core correction, Zval =  4.0
     Generated by new atomic code, or converted to UPF format
     Using radial grid of  721 points,  4 beta functions with:
                l(1) =   0
                l(2) =   0
                l(3) =   1
                l(4) =   1
     Q(r) pseudized with  8 coefficients,  rinner =    1.100   1.100   1.100

     vdW kernel table read from file vdW_kernel_table
     MD5 check sum: 095c7af220d748ca6e76c0b4c6cfb241

     atomic species   valence    mass     pseudopotential
        Ta1           13.00   180.94788     Ta( 1.00)
        C1             4.00    12.01100     C ( 1.00)

     No symmetry found

   Cartesian axes

     site n.     atom                  positions (alat units)
         1           Ta1 tau(   1) = (   1.4930055   0.8619871  10.0000000  )
         2           Ta1 tau(   2) = (   4.4790165   0.8619871  10.0000000  )
         3           Ta1 tau(   3) = (   2.9860110   3.4479485  10.0000000  )
         4           Ta1 tau(   4) = (   5.9720221   3.4479485  10.0000000  )
         5           Ta1 tau(   5) = (   5.9720221   1.7239743  12.4380678  )
         6           Ta1 tau(   6) = (   2.9860110   1.7239743  12.4380678  )
         7           Ta1 tau(   7) = (   7.4650276   4.3099357  12.4380678  )
         8           Ta1 tau(   8) = (   4.4790165   4.3099357  12.4380678  )
         9           Ta1 tau(   9) = (   0.0000000   0.0000000  14.8761356  )
        10           Ta1 tau(  10) = (   2.9860110   0.0000000  14.8761356  )
        11           Ta1 tau(  11) = (   1.4930055   2.5859614  14.8761356  )
        12           Ta1 tau(  12) = (   4.4790165   2.5859614  14.8761356  )
        13           C1  tau(  13) = (   1.4930055   0.8619871  16.4751356  )

     number of k points=    20  Fermi-Dirac smearing, width (Ry)=  0.0110
                       cart. coord. in units 2pi/alat
        k(    1) = (   0.0000000   0.0000000   0.0000000), wk =   0.0555556
        k(    2) = (   0.0000000   0.0322253   0.0000000), wk =   0.1111111
        k(    3) = (   0.0000000   0.0644506   0.0000000), wk =   0.1111111
        k(    4) = (   0.0000000  -0.0966758   0.0000000), wk =   0.0555556
        k(    5) = (   0.0279079  -0.0161126   0.0000000), wk =   0.1111111
        k(    6) = (   0.0279079   0.0161126   0.0000000), wk =   0.1111111
        k(    7) = (   0.0279079   0.0483379   0.0000000), wk =   0.1111111
        k(    8) = (   0.0279079  -0.1127885   0.0000000), wk =   0.1111111
        k(    9) = (   0.0279079  -0.0805632   0.0000000), wk =   0.1111111
        k(   10) = (   0.0279079  -0.0483379   0.0000000), wk =   0.1111111
        k(   11) = (   0.0558158  -0.0322253   0.0000000), wk =   0.1111111
        k(   12) = (   0.0558158   0.0000000   0.0000000), wk =   0.1111111
        k(   13) = (   0.0558158   0.0322253   0.0000000), wk =   0.1111111
        k(   14) = (   0.0558158  -0.1289011   0.0000000), wk =   0.1111111
        k(   15) = (   0.0558158  -0.0966758   0.0000000), wk =   0.1111111
        k(   16) = (   0.0558158  -0.0644506   0.0000000), wk =   0.1111111
        k(   17) = (  -0.0837237   0.0483379   0.0000000), wk =   0.0555556
        k(   18) = (  -0.0837237   0.0805632   0.0000000), wk =   0.1111111
        k(   19) = (  -0.0837237   0.1127885   0.0000000), wk =   0.1111111
        k(   20) = (  -0.0837237  -0.0483379   0.0000000), wk =   0.0555556

     Largest allocated arrays     est. size (Mb)     dimensions
     Largest temporary arrays     est. size (Mb)     dimensions

     Initial potential from superposition of free atoms
     Check: negative starting charge=   -1.121515

     starting charge  159.98661, renormalised to  160.00000

     negative rho (up, down):  1.122E+00 0.000E+00

     *
     * You are using vdW-DF for exchange-correlation in this calculation.
     * Please cite the following three references that made this development
     * possible:
     *
     *   M. Dion, H. Rydberg, E. Schroder, D. C. Langreth, and
     *   B. I. Lundqvist, Phys. Rev. Lett. 92, 246401 (2004).
     *
     *   T. Thonhauser, V. R. Cooper, S. Li, A. Puzder, P. Hyldgaard, and
     *   D. C. Langreth, Phys. Rev. B 76, 125112 (2007).
     *
     *   G. Roman-Perez and J. M. Soler, Phys. Rev. Lett. 103, 096102 (2009).
     *
     *
     * If you are using vdW-DF2, please also cite:
     *
     *   K. Lee, E. D. Murray, L. Kong, B. I. Lundqvist, and
     *   D. C. Langreth, Phys. Rev. B 82, 081101(R) (2010).
     *
     *
     * If you are calculating the stress with vdW-DF, please also cite:
     *
     *   R. Sabatini, E. Kucukbenli, B. Kolb, T. Thonhauser, and
     *   S. de Gironcoli, J. Phys.: Condens. Matter 24, 424209 (2012).
     *

     Carrying out vdW-DF run using the following parameters:

     Nqs =      20    Nr_points =    1024   r_max =   100.000
     q_mesh =
               0.00001000     0.04494208     0.09755937     0.15916263
               0.23128650     0.31572767     0.41458969     0.53033537
               0.66584808     0.82450364     1.01025438     1.22772762
               1.48234092     1.78043706     2.12944203     2.53805004
               3.01644009     3.57652955     4.23227104     5.00000000

     Gradients computed in reciprocal space

     Adding external electric field

     Computed dipole along edir(3) :
        Dipole               -0.0022 Ry au,         -0.0057 Debye
        Dipole field         -0.0000 Ry au

        Potential amp.        0.0005 Ry
        Total length         45.8339 bohr

     Starting wfc are  160 randomized atomic wfcs

     Self-consistent Calculation

     iteration #  1     ecut=    36.75 Ry     beta=0.30
     Davidson diagonalization with overlap
     ethr =  1.00E-02,  avg # of iterations =  2.0

[...]

     total energy              =   -1727.30585506 Ry
     Harris-Foulkes estimate   =   -1730.12886920 Ry
     estimated scf accuracy    <       6.14816656 Ry

[...]

     End of self-consistent calculation

          k = 0.0000 0.0000 0.0000 ( 19447 PWs)   bands (ev):

   -66.7501 -66.6409 -66.5851 -66.5820 -66.5820 -66.5527 -66.5096 -66.5096
   -66.5082 -66.4690 -66.4690 -66.3983 -33.3755 -33.3632 -33.3632 -33.3327
   -33.2878 -33.2878 -33.2814 -33.2737 -33.2737 -33.2066 -33.1174 -32.9802
   -32.9408 -32.9408 -32.9092 -32.8538 -32.8538 -32.7603 -32.7603 -32.7540
   -32.7149 -32.7149 -32.6907 -32.6695 -32.6695 -32.6606 -32.5930 -32.5930
   -32.5906 -32.5812 -32.5516 -32.5516 -32.5043 -32.5043 -32.4330 -32.4330
    -7.4809  -5.5847  -3.9032  -2.9888  -2.3861  -2.3861  -2.3099  -2.2871
    -2.2871  -2.1852  -1.6167  -1.6167  -1.5191  -1.2618  -1.2618  -1.2394
    -0.2287  -0.2287  -0.0555   0.7925   0.7925   0.9966   1.2731   1.4326
     1.4326   1.5003   1.6145   1.8089   1.8089   1.8488   2.0072   2.0825
     2.0825   2.3677   2.3677   2.4417   2.4713   2.4713   2.5859   2.5859
     2.8924   2.8924

[...]

          k =-0.0837 0.0483 0.0000 ( 19532 PWs)   bands (ev):

[...]

     the Fermi energy is     1.6760 ev

!    total energy              =   -1729.77385673 Ry
     Harris-Foulkes estimate   =   -1729.77385475 Ry
     estimated scf accuracy    <       0.00000136 Ry

     The total energy is the sum of the following terms:

     one-electron contribution =  -11620.97484051 Ry
     hartree contribution      =    5792.72603239 Ry
     xc contribution           =    -526.17813876 Ry
     ewald contribution        =    4624.75640474 Ry
     electric field correction =       0.00027152 Ry
     smearing contrib. (-TS)   =      -0.10358610 Ry

     convergence has been achieved in  17 iterations

 BEEF-vdW xc energy contributions
           1 :   -463.192081790954
           2 :    427.595729724635
           3 :   -365.443612784859
           4 :    291.104441606416
           5 :   -218.997331700295
           6 :    159.148048481683
           7 :   -115.184824216890
           8 :    85.1559554557763
           9 :   -64.2525314590176
          10 :    47.8314050683288
          11 :   -33.3234689025554
          12 :    20.4596154656260
          13 :   -10.2089360993039
          14 :    3.37324095224415
          15 :   0.281656237058826
          16 :   -1.99172371178105
          17 :    3.28016967194446
          18 :   -5.12005329574515
          19 :    7.50287710635189
          20 :   -9.63216260036143
          21 :    10.5691028206725
          22 :   -9.90726700784739
          23 :    8.06914768189051
          24 :   -6.07090804644474
          25 :    4.93109372178503
          26 :   -5.10116434993574
          27 :    6.25648859297240
          28 :   -7.54797236982739
          29 :    8.13272092665687
          30 :   -7.64970615080307
          31 :   -41.4573579526934
          32 :   -30.7867205889615

     Forces acting on atoms (Ry/au):

     negative rho (up, down):  1.177E+00 0.000E+00
     atom    1 type  1   force =     0.00000658    0.00000172    0.00392459
     atom    2 type  1   force =    -0.00000687    0.00108555    0.00321515
     atom    3 type  1   force =     0.00093605   -0.00054680    0.00321654
     atom    4 type  1   force =    -0.00093616   -0.00053975    0.00321211
     atom    5 type  1   force =     0.00209860   -0.00122278    0.00367926
     atom    6 type  1   force =    -0.00209697   -0.00122133    0.00367348
     atom    7 type  1   force =     0.00000201    0.00001506   -0.00066231
     atom    8 type  1   force =    -0.00000282    0.00243645    0.00369841
     atom    9 type  1   force =     0.01935457    0.01117324    0.06208637
     atom   10 type  1   force =    -0.01935361    0.01118169    0.06208175
     atom   11 type  1   force =     0.00000684   -0.02235181    0.06208248
     atom   12 type  1   force =    -0.00000532   -0.00000634   -0.01470302
     atom   13 type  2   force =    -0.00000290   -0.00000491   -0.19550482

     Total force =     0.226936     Total SCF correction =     0.002153

     entering subroutine stress ...

     negative rho (up, down):  1.177E+00 0.000E+00
          total   stress  (Ry/bohr**3)                   (kbar)     P=  -36.24
  -0.00027201  -0.00000000  -0.00000000        -40.01     -0.00     -0.00
  -0.00000000  -0.00027200  -0.00000000         -0.00    -40.01     -0.00
  -0.00000000  -0.00000000  -0.00019513         -0.00     -0.00    -28.70

     BFGS Geometry Optimization

     number of scf cycles    =   1
     number of bfgs steps    =   0

     energy   new            =   -1729.7738567251 Ry

     new trust radius        =       0.1955048164 bohr
     new conv_thr            =       0.0000099958 Ry

ATOMIC_POSITIONS (crystal)
Ta1      0.166666667   0.166666667   0.401991699    0   0   0
Ta1      0.666666667   0.166666667   0.401991699    0   0   0
Ta1      0.166666667   0.666666667   0.401991699    0   0   0
Ta1      0.666666667   0.666666667   0.401991699    0   0   0
Ta1      0.833333333   0.333333333   0.500000000    0   0   0
Ta1      0.333333333   0.333333333   0.500000000    0   0   0
Ta1      0.833333333   0.833333333   0.500000000    0   0   0
Ta1      0.333333333   0.833333333   0.500000000    0   0   0
Ta1      0.001143388   0.001143216   0.599329033
Ta1      0.497713048   0.001144080   0.599328934
Ta1      0.001144095   0.497713023   0.599328950
Ta1      0.499999853   0.499999351   0.597695532
C1       0.166666661   0.166666165   0.658127901

     Writing output data file calc.save
     Check: negative starting charge=   -1.121515
     NEW-OLD atomic charge density approx. for the potential
     Check: negative starting charge=   -1.122038

[...]

     iteration #  1     ecut=    36.75 Ry     beta=0.30
     Davidson diagonalization with overlap
     c_bands:  1 eigenvalues not converged
     ethr =  1.00E-06,  avg # of iterations = 10.3

[...]

     energy   old            =   -1729.7738567251 Ry
     energy   new            =   -1729.8220299736 Ry

     CASE: energy  _new < energy  _old

     WARNING: bfgs curvature condition failed, Theta= 0.940
     new trust radius        =       0.2150552981 bohr
     new conv_thr            =       0.0000001000 Ry

[...]

     WARNING: bfgs curvature condition failed, Theta= 0.927
     new trust radius        =       0.0253956802 bohr
     new conv_thr            =       0.0000001000 Ry

[...]

     number of scf cycles    =   9
     number of bfgs steps    =   8

     energy   old            =   -1729.9023483457 Ry
     energy   new            =   -1729.9034132902 Ry

     CASE: energy  _new < energy  _old

     new trust radius        =       0.0571402805 bohr
     new conv_thr            =       0.0000001000 Ry

ATOMIC_POSITIONS (crystal)
Ta1      0.166666667   0.166666667   0.401991699    0   0   0
Ta1      0.666666667   0.166666667   0.401991699    0   0   0
Ta1      0.166666667   0.666666667   0.401991699    0   0   0
Ta1      0.666666667   0.666666667   0.401991699    0   0   0
Ta1      0.833333333   0.333333333   0.500000000    0   0   0
Ta1      0.333333333   0.333333333   0.500000000    0   0   0
Ta1      0.833333333   0.833333333   0.500000000    0   0   0
Ta1      0.333333333   0.833333333   0.500000000    0   0   0
Ta1     -0.003467408  -0.003468073   0.599992743
Ta1      0.506935544  -0.003468261   0.599992711
Ta1     -0.003467632   0.506934876   0.599992725
Ta1      0.500000095   0.499999727   0.590507619
C1       0.166666772   0.166666428   0.640840696

     Writing output data file calc.save
     Check: negative starting charge=   -1.124132
     NEW-OLD atomic charge density approx. for the potential
     Check: negative starting charge=   -1.124227

[...]

     Self-consistent Calculation

[...]

     total energy              =   -1729.90420570 Ry
     Harris-Foulkes estimate   =   -1729.90420577 Ry
     estimated scf accuracy    <       0.00000015 Ry

     iteration # 11     ecut=    36.75 Ry     beta=0.30
     Davidson diagonalization with overlap
     ethr =  9.25E-11,  avg # of iterations =  3.2

[...]

     negative rho (up, down):  1.181E+00 0.000E+00

     Adding external electric field

     Computed dipole along edir(3) :
        Dipole               -0.1704 Ry au,         -0.4331 Debye
        Dipole field         -0.0004 Ry au

        Potential amp.        0.0379 Ry
        Total length         45.8339 bohr

     End of self-consistent calculation

[...]

          k = 0.0558-0.0645 0.0000 ( 19521 PWs)   bands (ev):

[...]

          k =-0.0837-0.0483 0.0000 ( 19532 PWs)   bands (ev):

   -66.4478 -66.4467 -66.4187 -66.4178 -66.3666 -66.3178 -66.3062 -66.2954
   -66.2662 -66.2338 -66.2176 -66.2060 -33.1042 -33.0347 -33.0305 -33.0161
   -32.9993 -32.9969 -32.9313 -32.9207 -32.8740 -32.8538 -32.8256 -32.8166
   -32.7491 -32.7424 -32.7255 -32.6906 -32.6877 -32.6608 -32.6330 -32.6214
   -32.5789 -32.5727 -32.5689 -32.5477 -32.5380 -32.5324 -32.4909 -32.4815
   -32.4446 -32.4266 -32.4174 -32.3969 -32.3830 -32.3712 -32.3214 -32.2649
    -7.9432  -3.8643  -3.6728  -2.5975  -2.1232  -1.6813  -1.5635  -1.4103
    -1.2864  -1.2063  -1.1542  -0.8858  -0.4864  -0.2510  -0.2131  -0.1153
     0.0059   0.0564   0.1670   0.2785   0.4747   0.5722   0.6185   0.7839
     0.7893   0.8611   0.9977   1.2179   1.2291   1.2912   1.3857   1.4672
     1.5704   1.6104   1.8671   2.0864   2.1314   2.2628   2.6026   2.9038
     3.0175   3.2081

     the Fermi energy is     1.8381 ev

!    total energy              =   -1729.90420575 Ry
     Harris-Foulkes estimate   =   -1729.90420548 Ry
     estimated scf accuracy    <       0.00000004 Ry

     The total energy is the sum of the following terms:

     one-electron contribution =  -11729.79490207 Ry
     hartree contribution      =    5848.16802653 Ry
     xc contribution           =    -526.63253112 Ry
     ewald contribution        =    4678.45331274 Ry
     electric field correction =       0.00007037 Ry
     smearing contrib. (-TS)   =      -0.09818219 Ry

     convergence has been achieved in  11 iterations

 BEEF-vdW xc energy contributions
           1 :   -463.640052093168
           2 :    428.125941899132
           3 :   -366.051566544125
           4 :    291.691863662190
           5 :   -219.429746452287
           6 :    159.324876290496
           7 :   -115.085495188553
           8 :    84.8444125899520
           9 :   -63.8447040139019
          10 :    47.4443673491443
          11 :   -33.0295650651454
          12 :    20.2644385620285
          13 :   -10.0616637110402
          14 :    3.20366910642969
          15 :   0.519194162951919
          16 :   -2.29004907972677
          17 :    3.58024220432503
          18 :   -5.34218623142277
          19 :    7.59145115612085
          20 :   -9.58644673520797
          21 :    10.4427007761541
          22 :   -9.77884999410895
          23 :    8.00280115613617
          24 :   -6.08813083940356
          25 :    5.00751436191632
          26 :   -5.18686118834898
          27 :    6.30730825671594
          28 :   -7.55048870600018
          29 :    8.10993568811824
          30 :   -7.64607471891571
          31 :   -41.4857934370841
          32 :   -30.8290794950109

     Forces acting on atoms (Ry/au):

     negative rho (up, down):  1.181E+00 0.000E+00
     atom    1 type  1   force =    -0.00000072    0.00000088    0.00328468
     atom    2 type  1   force =     0.00000065    0.00075071    0.00301109
     atom    3 type  1   force =     0.00064939   -0.00037524    0.00300799
     atom    4 type  1   force =    -0.00064957   -0.00037613    0.00301039
     atom    5 type  1   force =     0.01937646   -0.01118735   -0.00472409
     atom    6 type  1   force =    -0.01937666   -0.01118911   -0.00472268
     atom    7 type  1   force =    -0.00000134    0.00000114    0.00719219
     atom    8 type  1   force =     0.00000150    0.02237547   -0.00472267
     atom    9 type  1   force =     0.00071871    0.00041688   -0.00182836
     atom   10 type  1   force =    -0.00071918    0.00041623   -0.00182701
     atom   11 type  1   force =    -0.00000079   -0.00083135   -0.00182866
     atom   12 type  1   force =     0.00000167   -0.00000194    0.00164752
     atom   13 type  2   force =    -0.00000010   -0.00000019   -0.00150040

     Total force =     0.004131     Total SCF correction =     0.000287

     entering subroutine stress ...

     negative rho (up, down):  1.181E+00 0.000E+00
          total   stress  (Ry/bohr**3)                   (kbar)     P=  -21.29
  -0.00018460  -0.00000000   0.00000000        -27.16     -0.00      0.00
  -0.00000000  -0.00018460  -0.00000000         -0.00    -27.16     -0.00
   0.00000000  -0.00000000  -0.00006494          0.00     -0.00     -9.55

     bfgs converged in  10 scf cycles and   9 bfgs steps
     (criteria: energy <  1.0E+00, force <  1.9E-03)

     End of BFGS Geometry Optimization

     Final energy   =   -1729.9042057507 Ry
Begin final coordinates

ATOMIC_POSITIONS (crystal)
Ta1      0.166666667   0.166666667   0.401991699    0   0   0
Ta1      0.666666667   0.166666667   0.401991699    0   0   0
Ta1      0.166666667   0.666666667   0.401991699    0   0   0
Ta1      0.666666667   0.666666667   0.401991699    0   0   0
Ta1      0.833333333   0.333333333   0.500000000    0   0   0
Ta1      0.333333333   0.333333333   0.500000000    0   0   0
Ta1      0.833333333   0.833333333   0.500000000    0   0   0
Ta1      0.333333333   0.833333333   0.500000000    0   0   0
Ta1     -0.003467408  -0.003468073   0.599992743
Ta1      0.506935544  -0.003468261   0.599992711
Ta1     -0.003467632   0.506934876   0.599992725
Ta1      0.500000095   0.499999727   0.590507619
C1       0.166666772   0.166666428   0.640840696
End final coordinates

     Writing output data file calc.save

     General routines

     Parallel routines

   This run was terminated on:   8:14: 4   3May2018

   JOB DONE.
Job  /afs/slac/g/suncat/bin/suncat-tsmpirun -x LD_LIBRARY_PATH -wdir /scratch/qe640815_Szokt pw.x -npool 4 -in pw.inp

TID   HOST_NAME   COMMAND_LINE            STATUS            TERMINATION_TIME
00000 suncat0198 pw.x -npool 4 -i  Done                     05/03/2018 08:14:04
00001 suncat0198 pw.x -npool 4 -i  Done                     05/03/2018 08:14:04
00002 suncat0198 pw.x -npool 4 -i  Done                     05/03/2018 08:14:04
00003 suncat0198 pw.x -npool 4 -i  Done                     05/03/2018 08:14:04
00004 suncat0198 pw.x -npool 4 -i  Done                     05/03/2018 08:14:04
00005 suncat0198 pw.x -npool 4 -i  Done                     05/03/2018 08:14:04
00006 suncat0198 pw.x -npool 4 -i  Done                     05/03/2018 08:14:04
00007 suncat0198 pw.x -npool 4 -i  Done                     05/03/2018 08:14:04
00008 suncat0192 pw.x -npool 4 -i  Done                     05/03/2018 08:14:04
00009 suncat0192 pw.x -npool 4 -i  Done                     05/03/2018 08:14:04
00010 suncat0192 pw.x -npool 4 -i  Done                     05/03/2018 08:14:04
00011 suncat0192 pw.x -npool 4 -i  Done                     05/03/2018 08:14:04
00012 suncat0192 pw.x -npool 4 -i  Done                     05/03/2018 08:14:04
00013 suncat0192 pw.x -npool 4 -i  Done                     05/03/2018 08:14:04
00014 suncat0192 pw.x -npool 4 -i  Done                     05/03/2018 08:14:04
00015 suncat0192 pw.x -npool 4 -i  Done                     05/03/2018 08:14:04
00016 suncat0227 pw.x -npool 4 -i  Done                     05/03/2018 08:14:04
00017 suncat0227 pw.x -npool 4 -i  Done                     05/03/2018 08:14:04
00018 suncat0227 pw.x -npool 4 -i  Done                     05/03/2018 08:14:04
00019 suncat0227 pw.x -npool 4 -i  Done                     05/03/2018 08:14:04
00020 suncat0227 pw.x -npool 4 -i  Done                     05/03/2018 08:14:04
00021 suncat0227 pw.x -npool 4 -i  Done                     05/03/2018 08:14:04
00022 suncat0227 pw.x -npool 4 -i  Done                     05/03/2018 08:14:04
00023 suncat0227 pw.x -npool 4 -i  Done                     05/03/2018 08:14:04
00024 suncat0226 pw.x -npool 4 -i  Done                     05/03/2018 08:14:04
00025 suncat0226 pw.x -npool 4 -i  Done                     05/03/2018 08:14:04
00026 suncat0226 pw.x -npool 4 -i  Done                     05/03/2018 08:14:04
00027 suncat0226 pw.x -npool 4 -i  Done                     05/03/2018 08:14:04
00028 suncat0226 pw.x -npool 4 -i  Done                     05/03/2018 08:14:04
00029 suncat0226 pw.x -npool 4 -i  Done                     05/03/2018 08:14:04
00030 suncat0226 pw.x -npool 4 -i  Done                     05/03/2018 08:14:04
00031 suncat0226 pw.x -npool 4 -i  Done                     05/03/2018 08:14:04