     Program PWSCF v.5.1rc2 (svn rev. ) starts on  4Feb2018 at 13:57:57

     Current dimensions of program PWSCF are:
     Max number of different atomic species (ntypx) = 10
     Max number of k-points (npk) =  40000
     Max angular momentum in pseudopotentials (lmaxx) =  3
     Presently stress not available with electric field

     IMPORTANT: XC functional enforced from input :
     Exchange-correlation      = BEEF-VDW ( 1  4 27 13 2)
     Any further DFT definition will be discarded
     Please, verify this is what you really want

     Subspace diagonalization in iterative solution of the eigenvalue problem:
     a serial algorithm will be used

     bravais-lattice index     =            0
     lattice parameter (alat)  =       1.8897  a.u.
     unit-cell volume          =    5739.2980 (a.u.)^3
     number of atoms/cell      =           13
     number of atomic types    =            2
     number of electrons       =       150.00
     number of Kohn-Sham states=           85
     kinetic-energy cutoff     =      36.7493  Ry
     charge density cutoff     =     367.4932  Ry
     convergence threshold     =      1.0E-05
     mixing beta               =       0.3000
     number of iterations used =           10  plain     mixing
     Exchange-correlation      = BEEF-VDW ( 1  4 27 13 2)
     nstep                     =           50

     celldm(1)=   1.889726  celldm(2)=   0.000000  celldm(3)=   0.000000
     celldm(4)=   0.000000  celldm(5)=   0.000000  celldm(6)=   0.000000

     crystal axes: (cart. coord. in units of alat)
               a(1) = (   6.254208   0.000000   0.000000 )
               a(2) = (   3.127104   5.416303   0.000000 )
               a(3) = (   0.000000   0.000000  25.106540 )

     reciprocal axes: (cart. coord. in units 2 pi/alat)
               b(1) = (  0.159892 -0.092314  0.000000 )
               b(2) = (  0.000000  0.184628  0.000000 )
               b(3) = (  0.000000  0.000000  0.039830 )

     PseudoPot. # 1 for Cd read from file:
     /home/mamunm/src/pseudo/gbrv1.5pbe/Cd.UPF
     MD5 check sum: 17164a7926edb8e0dc231208abae86a6
     Pseudo is Ultrasoft + core correction, Zval = 12.0
     Generated by new atomic code, or converted to UPF format
     Using radial grid of  889 points,  6 beta functions with:
                l(1) =   0
                l(2) =   0
                l(3) =   1
                l(4) =   1
                l(5) =   2
                l(6) =   2
     Q(r) pseudized with  6 coefficients,  rinner =    1.000   1.000   1.000
                                                       1.000   1.000

     PseudoPot. # 2 for O  read from file:
     /home/mamunm/src/pseudo/gbrv1.5pbe/O.UPF
     MD5 check sum: 734c27235a0248c51dbae37a1fbe46ec
     Pseudo is Ultrasoft + core correction, Zval =  6.0
     Generated by new atomic code, or converted to UPF format
     Using radial grid of  737 points,  5 beta functions with:
                l(1) =   0
                l(2) =   0
                l(3) =   1
                l(4) =   1
                l(5) =   2
     Q(r) pseudized with  8 coefficients,  rinner =    0.900   0.900   0.900
                                                       0.900   0.900

     vdW kernel table read from file vdW_kernel_table
     MD5 check sum: 095c7af220d748ca6e76c0b4c6cfb241

     atomic species   valence    mass     pseudopotential
        Cd1           12.00   112.41400     Cd( 1.00)
        O1             6.00    15.99900     O ( 1.00)

     No symmetry found

   Cartesian axes

     site n.     atom                  positions (alat units)
         1           Cd1 tau(   1) = (   1.5635521   0.9027172  10.0000000  )
         2           Cd1 tau(   2) = (   4.6906562   0.9027172  10.0000000  )
         3           Cd1 tau(   3) = (   3.1271041   3.6108688  10.0000000  )
         4           Cd1 tau(   4) = (   6.2542083   3.6108688  10.0000000  )
         5           Cd1 tau(   5) = (   6.2542083   1.8054344  12.5532698  )
         6           Cd1 tau(   6) = (   3.1271041   1.8054344  12.5532698  )
         7           Cd1 tau(   7) = (   7.8177603   4.5135860  12.5532698  )
         8           Cd1 tau(   8) = (   4.6906562   4.5135860  12.5532698  )
         9           Cd1 tau(   9) = (   0.0000000   0.0000000  15.1065397  )
        10           Cd1 tau(  10) = (   3.1271041   0.0000000  15.1065397  )
        11           Cd1 tau(  11) = (   1.5635521   2.7081516  15.1065397  )
        12           Cd1 tau(  12) = (   4.6906562   2.7081516  15.1065397  )
        13           O1  tau(  13) = (   1.5635521   0.9027172  16.4715397  )

     number of k points=    20  Fermi-Dirac smearing, width (Ry)=  0.0110
                       cart. coord. in units 2pi/alat
        k(    1) = (   0.0000000   0.0000000   0.0000000), wk =   0.0555556
        k(    2) = (   0.0000000   0.0307713   0.0000000), wk =   0.1111111
        k(    3) = (   0.0000000   0.0615426   0.0000000), wk =   0.1111111
        k(    4) = (   0.0000000  -0.0923139   0.0000000), wk =   0.0555556
        k(    5) = (   0.0266487  -0.0153856   0.0000000), wk =   0.1111111
        k(    6) = (   0.0266487   0.0153856   0.0000000), wk =   0.1111111
        k(    7) = (   0.0266487   0.0461569   0.0000000), wk =   0.1111111
        k(    8) = (   0.0266487  -0.1076995   0.0000000), wk =   0.1111111
        k(    9) = (   0.0266487  -0.0769282   0.0000000), wk =   0.1111111
        k(   10) = (   0.0266487  -0.0461569   0.0000000), wk =   0.1111111
        k(   11) = (   0.0532974  -0.0307713   0.0000000), wk =   0.1111111
        k(   12) = (   0.0532974   0.0000000   0.0000000), wk =   0.1111111
        k(   13) = (   0.0532974   0.0307713   0.0000000), wk =   0.1111111
        k(   14) = (   0.0532974  -0.1230852   0.0000000), wk =   0.1111111
        k(   15) = (   0.0532974  -0.0923139   0.0000000), wk =   0.1111111
        k(   16) = (   0.0532974  -0.0615426   0.0000000), wk =   0.1111111
        k(   17) = (  -0.0799462   0.0461569   0.0000000), wk =   0.0555556
        k(   18) = (  -0.0799462   0.0769282   0.0000000), wk =   0.1111111
        k(   19) = (  -0.0799462   0.1076995   0.0000000), wk =   0.1111111
        k(   20) = (  -0.0799462  -0.0461569   0.0000000), wk =   0.0555556

     Largest allocated arrays     est. size (Mb)     dimensions
     Largest temporary arrays     est. size (Mb)     dimensions

     Initial potential from superposition of free atoms
     Check: negative starting charge=   -0.258035

     starting charge  143.99950, renormalised to  150.00000

     negative rho (up, down):  2.688E-01 0.000E+00

     *
     * You are using vdW-DF for exchange-correlation in this calculation.
     * Please cite the following three references that made this development
     * possible:
     *
     *   M. Dion, H. Rydberg, E. Schroder, D. C. Langreth, and
     *   B. I. Lundqvist, Phys. Rev. Lett. 92, 246401 (2004).
     *
     *   T. Thonhauser, V. R. Cooper, S. Li, A. Puzder, P. Hyldgaard, and
     *   D. C. Langreth, Phys. Rev. B 76, 125112 (2007).
     *
     *   G. Roman-Perez and J. M. Soler, Phys. Rev. Lett. 103, 096102 (2009).
     *
     *
     * If you are using vdW-DF2, please also cite:
     *
     *   K. Lee, E. D. Murray, L. Kong, B. I. Lundqvist, and
     *   D. C. Langreth, Phys. Rev. B 82, 081101(R) (2010).
     *
     *
     * If you are calculating the stress with vdW-DF, please also cite:
     *
     *   R. Sabatini, E. Kucukbenli, B. Kolb, T. Thonhauser, and
     *   S. de Gironcoli, J. Phys.: Condens. Matter 24, 424209 (2012).
     *

     Carrying out vdW-DF run using the following parameters:

     Nqs =      20    Nr_points =    1024   r_max =   100.000
     q_mesh =
               0.00001000     0.04494208     0.09755937     0.15916263
               0.23128650     0.31572767     0.41458969     0.53033537
               0.66584808     0.82450364     1.01025438     1.22772762
               1.48234092     1.78043706     2.12944203     2.53805004
               3.01644009     3.57652955     4.23227104     5.00000000

     Gradients computed in reciprocal space

     Adding external electric field

     Computed dipole along edir(3) :
        Dipole               -1.8513 Ry au,         -4.7054 Debye
        Dipole field         -0.0041 Ry au

        Potential amp.        0.3750 Ry
        Total length         46.2584 bohr

     Starting wfc are  112 randomized atomic wfcs

     Self-consistent Calculation

     iteration #  1     ecut=    36.75 Ry     beta=0.30
     Davidson diagonalization with overlap
     ethr =  1.00E-02,  avg # of iterations =  6.0

[...]

     total energy              =   -1421.53313673 Ry
     Harris-Foulkes estimate   =   -1426.07169896 Ry
     estimated scf accuracy    <       9.44688760 Ry

[...]

     End of self-consistent calculation

          k = 0.0000 0.0000 0.0000 ( 21643 PWs)   bands (ev):

   -16.6833  -9.7729  -9.7729  -9.7682  -9.6300  -9.6300  -9.6254  -9.6227
    -9.5212  -9.5211  -9.5063  -9.4000  -9.4000  -9.3331  -9.2989  -9.2428
    -9.2428  -9.1901  -9.1890  -9.1890  -9.1051  -9.1002  -9.1001  -9.0919
    -9.0808  -9.0808  -9.0733  -9.0732  -8.9565  -8.9340  -8.9340  -8.7468
    -8.7468  -8.6600  -8.6599  -8.6407  -8.6076  -8.5958  -8.5955  -8.5462
    -8.5462  -8.5385  -8.5384  -8.4836  -8.4836  -8.4726  -8.4708  -8.4153
    -8.4153  -8.3757  -8.3529  -8.3529  -8.3041  -8.2895  -8.2894  -8.2847
    -8.2845  -8.2764  -8.1155  -8.1154  -8.0789  -8.0548  -6.2087  -3.3951
    -2.5762  -2.5762  -2.3941  -2.0661  -2.0661  -1.9512  -1.6061  -1.6061
    -1.4425  -0.7304  -0.4992  -0.4992  -0.4229   0.2144   0.2144   0.8375
     1.7518   1.7519   2.0281   2.5824   2.9047

[...]

          k =-0.0799 0.0462 0.0000 ( 21576 PWs)   bands (ev):

[...]

     the Fermi energy is     0.1527 ev

!    total energy              =   -1425.51997470 Ry
     Harris-Foulkes estimate   =   -1425.51996117 Ry
     estimated scf accuracy    <       0.00000550 Ry

     The total energy is the sum of the following terms:

     one-electron contribution =   -9132.59191386 Ry
     hartree contribution      =    4660.21511699 Ry
     xc contribution           =    -497.27431225 Ry
     ewald contribution        =    3544.16223191 Ry
     electric field correction =       0.00055257 Ry
     smearing contrib. (-TS)   =      -0.03165005 Ry

     convergence has been achieved in  14 iterations

 BEEF-vdW xc energy contributions
           1 :   -435.596284165382
           2 :    398.243340001225
           3 :   -335.287029654692
           4 :    264.664414173273
           5 :   -202.846548804911
           6 :    158.996633298017
           7 :   -133.295973998571
           8 :    119.510117490828
           9 :   -109.802641796552
          10 :    98.9918594651396
          11 :   -86.2353539358900
          12 :    73.8713615032402
          13 :   -64.7603716661751
          14 :    60.0370209138885
          15 :   -58.5275395710221
          16 :    57.8039904936166
          17 :   -55.8562623157870
          18 :    52.2029226587161
          19 :   -47.8479455948784
          20 :    44.3190769921401
          21 :   -42.5571694569149
          22 :    42.3794927866325
          23 :   -42.7490494992982
          24 :    42.5359639286905
          25 :   -41.2106832257645
          26 :    39.0541361604468
          27 :   -36.8455910709004
          28 :    35.3094522286490
          29 :   -34.6931716927447
          30 :    34.7046339353714
          31 :   -39.3474716157163
          32 :   -28.6838416723090

     Forces acting on atoms (Ry/au):

     negative rho (up, down):  2.665E-01 0.000E+00
     atom    1 type  1   force =     0.00004755    0.00007147   -0.01772534
     atom    2 type  1   force =     0.00000937   -0.00045206   -0.02087331
     atom    3 type  1   force =    -0.00050905    0.00010572   -0.02083257
     atom    4 type  1   force =     0.00059139    0.00025762   -0.02083136
     atom    5 type  1   force =     0.00184444   -0.00105079   -0.00018321
     atom    6 type  1   force =    -0.00184874   -0.00108221   -0.00027347
     atom    7 type  1   force =     0.00000792    0.00001640    0.00436618
     atom    8 type  1   force =     0.00000439    0.00214167   -0.00014702
     atom    9 type  1   force =    -0.00638843   -0.00366396    0.03376795
     atom   10 type  1   force =     0.00629980   -0.00364859    0.03373679
     atom   11 type  1   force =    -0.00000325    0.00732489    0.03370327
     atom   12 type  1   force =    -0.00004549   -0.00002119    0.01406344
     atom   13 type  2   force =    -0.00000989    0.00000103   -0.03877134

     Total force =     0.072638     Total SCF correction =     0.002813

     entering subroutine stress ...

     negative rho (up, down):  2.665E-01 0.000E+00
          total   stress  (Ry/bohr**3)                   (kbar)     P=    3.58
   0.00000387  -0.00000001  -0.00000000          0.57     -0.00     -0.00
  -0.00000001   0.00000388   0.00000000         -0.00      0.57      0.00
  -0.00000000   0.00000000   0.00006516         -0.00      0.00      9.59

     BFGS Geometry Optimization

     number of scf cycles    =   1
     number of bfgs steps    =   0

     energy   new            =   -1425.5199747014 Ry

     new trust radius        =       0.0387713462 bohr
     new conv_thr            =       0.0000099958 Ry

ATOMIC_POSITIONS (crystal)
Cd1      0.166666667   0.166666667   0.398302599    0   0   0
Cd1      0.666666667   0.166666667   0.398302599    0   0   0
Cd1      0.166666667   0.666666667   0.398302599    0   0   0
Cd1      0.666666667   0.666666667   0.398302599    0   0   0
Cd1      0.833333333   0.333333333   0.500000000    0   0   0
Cd1      0.333333333   0.333333333   0.500000000    0   0   0
Cd1      0.833333333   0.833333333   0.500000000    0   0   0
Cd1      0.333333333   0.833333333   0.500000000    0   0   0
Cd1     -0.000361548  -0.000357971   0.602409137
Cd1      0.500711270  -0.000356471   0.602408480
Cd1     -0.000358099   0.500715647   0.602407774
Cd1      0.499997186   0.499997930   0.601993820
O1       0.166665779   0.166666767   0.655248512

     Writing output data file calc.save
     Check: negative starting charge=   -0.258035
     NEW-OLD atomic charge density approx. for the potential
     Check: negative starting charge=   -0.259595

[...]

     energy   old            =   -1425.5199747014 Ry
     energy   new            =   -1425.5247390821 Ry

     CASE: energy  _new < energy  _old

[...]

     Total force =     0.007237     Total SCF correction =     0.001704
     SCF correction compared to forces is large: reduce conv_thr to get better values

[...]

     Threshold (ethr) on eigenvalues was too large:
     Diagonalizing with lowered threshold

     Davidson diagonalization with overlap
     ethr =  3.47E-08,  avg # of iterations =  1.4

[...]

     Total force =     0.002797     Total SCF correction =     0.000235

[...]

     number of scf cycles    =  23
     number of bfgs steps    =  22

     energy   old            =   -1425.5635236634 Ry
     energy   new            =   -1425.5636330448 Ry

     CASE: energy  _new < energy  _old

     new trust radius        =       0.0532310647 bohr
     new conv_thr            =       0.0000001000 Ry

ATOMIC_POSITIONS (crystal)
Cd1      0.166666667   0.166666667   0.398302599    0   0   0
Cd1      0.666666667   0.166666667   0.398302599    0   0   0
Cd1      0.166666667   0.666666667   0.398302599    0   0   0
Cd1      0.666666667   0.666666667   0.398302599    0   0   0
Cd1      0.833333333   0.333333333   0.500000000    0   0   0
Cd1      0.333333333   0.333333333   0.500000000    0   0   0
Cd1      0.833333333   0.833333333   0.500000000    0   0   0
Cd1      0.333333333   0.833333333   0.500000000    0   0   0
Cd1     -0.013704757  -0.013702062   0.624022920
Cd1      0.527352824  -0.013670963   0.624018939
Cd1     -0.013679154   0.527354917   0.624025253
Cd1      0.499971336   0.499963027   0.608643046
O1       0.166644672   0.166640138   0.659515067

     Writing output data file calc.save
     Check: negative starting charge=   -0.261034
     NEW-OLD atomic charge density approx. for the potential
     Check: negative starting charge=   -0.260042

[...]

     Self-consistent Calculation

[...]

     total energy              =   -1425.56376496 Ry
     Harris-Foulkes estimate   =   -1425.56376480 Ry
     estimated scf accuracy    <       0.00000012 Ry

     iteration #  8     ecut=    36.75 Ry     beta=0.30
     Davidson diagonalization with overlap
     ethr =  7.85E-11,  avg # of iterations =  2.3

[...]

     negative rho (up, down):  2.682E-01 0.000E+00

     Adding external electric field

     Computed dipole along edir(3) :
        Dipole               -0.2217 Ry au,         -0.5635 Debye
        Dipole field         -0.0005 Ry au

        Potential amp.        0.0449 Ry
        Total length         46.2584 bohr

     End of self-consistent calculation

[...]

          k = 0.0533-0.0615 0.0000 ( 21571 PWs)   bands (ev):

[...]

          k =-0.0799-0.0462 0.0000 ( 21576 PWs)   bands (ev):

   -17.1410  -9.1680  -9.1641  -9.0679  -9.0555  -9.0297  -9.0278  -8.9902
    -8.9878  -8.9750  -8.9596  -8.9562  -8.8633  -8.8519  -8.8303  -8.8214
    -8.7943  -8.7829  -8.7452  -8.7118  -8.7057  -8.6782  -8.6594  -8.6374
    -8.6146  -8.6110  -8.5958  -8.5937  -8.5744  -8.5656  -8.5111  -8.5096
    -8.4670  -8.4655  -8.4511  -8.4499  -8.4436  -8.4199  -8.4019  -8.3810
    -8.3796  -8.3652  -8.3503  -8.3474  -8.3381  -8.2816  -8.2713  -8.2406
    -8.2145  -8.2124  -8.2041  -8.1959  -8.1795  -8.0985  -8.0842  -8.0828
    -8.0723  -8.0371  -7.9871  -7.8215  -7.7818  -5.9983  -5.8771  -4.7332
    -4.0090  -3.2780  -2.9280  -2.8204  -2.6233  -2.2337  -1.9747  -1.4859
    -0.5801  -0.2782   0.8163   1.0679   1.0907   1.7228   2.7628   2.7678
     3.1858   3.2216   3.4597   3.7757   3.8092

     the Fermi energy is     0.4838 ev

!    total energy              =   -1425.56376507 Ry
     Harris-Foulkes estimate   =   -1425.56376512 Ry
     estimated scf accuracy    <          9.7E-09 Ry

     The total energy is the sum of the following terms:

     one-electron contribution =   -8581.65219891 Ry
     hartree contribution      =    4386.29878970 Ry
     xc contribution           =    -497.19636675 Ry
     ewald contribution        =    3267.01024144 Ry
     electric field correction =       0.00010762 Ry
     smearing contrib. (-TS)   =      -0.02433817 Ry

     convergence has been achieved in   8 iterations

 BEEF-vdW xc energy contributions
           1 :   -435.502982413533
           2 :    398.006465261107
           3 :   -334.865253876510
           4 :    264.162856360831
           5 :   -202.444734877847
           6 :    158.806428410387
           7 :   -133.274861946929
           8 :    119.502644598688
           9 :   -109.671280134329
          10 :    98.7272884443122
          11 :   -85.9569682116360
          12 :    73.7230145741456
          13 :   -64.7919370691775
          14 :    60.1671336252820
          15 :   -58.6121714722244
          16 :    57.7545071652902
          17 :   -55.7107845466319
          18 :    52.0889361659310
          19 :   -47.8684043831887
          20 :    44.4619874527769
          21 :   -42.7049249385882
          22 :    42.4073544897363
          23 :   -42.6299641334156
          24 :    42.3652648649879
          25 :   -41.1302012683431
          26 :    39.1369037322995
          27 :   -37.0324342110727
          28 :    35.4503317337588
          29 :   -34.6655348121526
          30 :    34.5138145460022
          31 :   -39.3340668599266
          32 :   -28.6295958254043

     Forces acting on atoms (Ry/au):

     negative rho (up, down):  2.682E-01 0.000E+00
     atom    1 type  1   force =     0.00000133    0.00000035   -0.01888479
     atom    2 type  1   force =     0.00000073    0.00022707   -0.01918122
     atom    3 type  1   force =     0.00019734   -0.00011273   -0.01918150
     atom    4 type  1   force =    -0.00019512   -0.00011224   -0.01918209
     atom    5 type  1   force =     0.00358346   -0.00206637    0.01984177
     atom    6 type  1   force =    -0.00358463   -0.00206930    0.01983601
     atom    7 type  1   force =     0.00000110    0.00000027    0.01612960
     atom    8 type  1   force =     0.00000189    0.00413588    0.01984363
     atom    9 type  1   force =    -0.00018601   -0.00011206    0.00049607
     atom   10 type  1   force =     0.00016198   -0.00012843    0.00049849
     atom   11 type  1   force =    -0.00002611    0.00021286    0.00049895
     atom   12 type  1   force =     0.00002852    0.00002168   -0.00106620
     atom   13 type  2   force =     0.00001553    0.00000302    0.00035129

     Total force =     0.001463     Total SCF correction =     0.000275
     SCF correction compared to forces is large: reduce conv_thr to get better values

     entering subroutine stress ...

     negative rho (up, down):  2.682E-01 0.000E+00
          total   stress  (Ry/bohr**3)                   (kbar)     P=    0.92
  -0.00000908   0.00000001   0.00000000         -1.34      0.00      0.00
   0.00000001  -0.00000909  -0.00000000          0.00     -1.34     -0.00
   0.00000000  -0.00000000   0.00003698          0.00     -0.00      5.44

     bfgs converged in  24 scf cycles and  23 bfgs steps
     (criteria: energy <  1.0E+00, force <  1.9E-03)

     End of BFGS Geometry Optimization

     Final energy   =   -1425.5637650712 Ry
Begin final coordinates

ATOMIC_POSITIONS (crystal)
Cd1      0.166666667   0.166666667   0.398302599    0   0   0
Cd1      0.666666667   0.166666667   0.398302599    0   0   0
Cd1      0.166666667   0.666666667   0.398302599    0   0   0
Cd1      0.666666667   0.666666667   0.398302599    0   0   0
Cd1      0.833333333   0.333333333   0.500000000    0   0   0
Cd1      0.333333333   0.333333333   0.500000000    0   0   0
Cd1      0.833333333   0.833333333   0.500000000    0   0   0
Cd1      0.333333333   0.833333333   0.500000000    0   0   0
Cd1     -0.013704757  -0.013702062   0.624022920
Cd1      0.527352824  -0.013670963   0.624018939
Cd1     -0.013679154   0.527354917   0.624025253
Cd1      0.499971336   0.499963027   0.608643046
O1       0.166644672   0.166640138   0.659515067
End final coordinates

     Writing output data file calc.save

     General routines

     Parallel routines

   This run was terminated on:  15:20:41   4Feb2018

   JOB DONE.