     Program PWSCF v.5.1rc2 (svn rev. ) starts on 16Apr2018 at 10:13:12

     Current dimensions of program PWSCF are:
     Max number of different atomic species (ntypx) = 10
     Max number of k-points (npk) =  40000
     Max angular momentum in pseudopotentials (lmaxx) =  3
     Presently stress not available with electric field

     IMPORTANT: XC functional enforced from input :
     Exchange-correlation      = BEEF-VDW ( 1  4 27 13 2)
     Any further DFT definition will be discarded
     Please, verify this is what you really want

     Subspace diagonalization in iterative solution of the eigenvalue problem:
     a serial algorithm will be used

     bravais-lattice index     =            0
     lattice parameter (alat)  =       1.8897  a.u.
     unit-cell volume          =    5174.6160 (a.u.)^3
     number of atoms/cell      =           16
     number of atomic types    =            3
     number of electrons       =       235.00
     number of Kohn-Sham states=          127
     kinetic-energy cutoff     =      36.7493  Ry
     charge density cutoff     =     367.4932  Ry
     convergence threshold     =      1.0E-05
     mixing beta               =       0.3000
     number of iterations used =           10  plain     mixing
     Exchange-correlation      = BEEF-VDW ( 1  4 27 13 2)
     nstep                     =           50

     celldm(1)=   1.889726  celldm(2)=   0.000000  celldm(3)=   0.000000
     celldm(4)=   0.000000  celldm(5)=   0.000000  celldm(6)=   0.000000

     crystal axes: (cart. coord. in units of alat)
               a(1) = (   5.966546   0.000000   0.000000 )
               a(2) = (   2.983273   5.167181   0.000000 )
               a(3) = (   0.000000   0.000000  24.871665 )

     reciprocal axes: (cart. coord. in units 2 pi/alat)
               b(1) = (  0.167601 -0.096765  0.000000 )
               b(2) = (  0.000000  0.193529  0.000000 )
               b(3) = (  0.000000  0.000000  0.040206 )

     PseudoPot. # 1 for Ag read from file:
     /home/mamunm/src/pseudo/gbrv1.5pbe/Ag.UPF
     MD5 check sum: d66d668201baa78d5eb5b04ef7011058
     Pseudo is Ultrasoft + core correction, Zval = 19.0
     Generated by new atomic code, or converted to UPF format
     Using radial grid of  887 points,  6 beta functions with:
                l(1) =   0
                l(2) =   0
                l(3) =   1
                l(4) =   1
                l(5) =   2
                l(6) =   2
     Q(r) pseudized with  6 coefficients,  rinner =    1.300   1.300   1.300
                                                       1.300   1.300

     PseudoPot. # 2 for C  read from file:
     /home/mamunm/src/pseudo/gbrv1.5pbe/C.UPF
     MD5 check sum: d1aef80898a10debaa0f26306b886e00
     Pseudo is Ultrasoft + core correction, Zval =  4.0
     Generated by new atomic code, or converted to UPF format
     Using radial grid of  721 points,  4 beta functions with:
                l(1) =   0
                l(2) =   0
                l(3) =   1
                l(4) =   1
     Q(r) pseudized with  8 coefficients,  rinner =    1.100   1.100   1.100

     PseudoPot. # 3 for H  read from file:
     /home/mamunm/src/pseudo/gbrv1.5pbe/H.UPF
     MD5 check sum: 761ae9a214b05c3daf00ab9f6b793d6f
     Pseudo is Ultrasoft, Zval =  1.0
     Generated by new atomic code, or converted to UPF format
     Using radial grid of  615 points,  2 beta functions with:
                l(1) =   0
                l(2) =   0
     Q(r) pseudized with  8 coefficients,  rinner =    0.700

     vdW kernel table read from file vdW_kernel_table
     MD5 check sum: 095c7af220d748ca6e76c0b4c6cfb241

     atomic species   valence    mass     pseudopotential
        Ag1           19.00   107.86820     Ag( 1.00)
        C1             4.00    12.01100     C ( 1.00)
        H1             1.00     1.00800     H ( 1.00)

     No symmetry found

   Cartesian axes

     site n.     atom                  positions (alat units)
         1           Ag1 tau(   1) = (   1.4916366   0.8611968  10.0000000  )
         2           Ag1 tau(   2) = (   4.4749098   0.8611968  10.0000000  )
         3           Ag1 tau(   3) = (   2.9832732   3.4447871  10.0000000  )
         4           Ag1 tau(   4) = (   5.9665464   3.4447871  10.0000000  )
         5           Ag1 tau(   5) = (   5.9665464   1.7223936  12.4358324  )
         6           Ag1 tau(   6) = (   2.9832732   1.7223936  12.4358324  )
         7           Ag1 tau(   7) = (   7.4581830   4.3059839  12.4358324  )
         8           Ag1 tau(   8) = (   4.4749098   4.3059839  12.4358324  )
         9           Ag1 tau(   9) = (   0.0000000   0.0000000  14.8716647  )
        10           Ag1 tau(  10) = (   2.9832732   0.0000000  14.8716647  )
        11           Ag1 tau(  11) = (   1.4916366   2.5835904  14.8716647  )
        12           Ag1 tau(  12) = (   4.4749098   2.5835904  14.8716647  )
        13           C1  tau(  13) = (   0.0000000   0.0000000  16.7501647  )
        14           H1  tau(  14) = (   1.0900000   0.0000000  17.3801647  )
        15           H1  tau(  15) = (   5.5165464   0.8895000  17.3801647  )
        16           H1  tau(  16) = (   2.5332732   4.2776807  17.3801647  )

     number of k points=    20  Fermi-Dirac smearing, width (Ry)=  0.0110
                       cart. coord. in units 2pi/alat
        k(    1) = (   0.0000000   0.0000000   0.0000000), wk =   0.0555556
        k(    2) = (   0.0000000   0.0322549   0.0000000), wk =   0.1111111
        k(    3) = (   0.0000000   0.0645097   0.0000000), wk =   0.1111111
        k(    4) = (   0.0000000  -0.0967646   0.0000000), wk =   0.0555556
        k(    5) = (   0.0279335  -0.0161274   0.0000000), wk =   0.1111111
        k(    6) = (   0.0279335   0.0161274   0.0000000), wk =   0.1111111
        k(    7) = (   0.0279335   0.0483823   0.0000000), wk =   0.1111111
        k(    8) = (   0.0279335  -0.1128920   0.0000000), wk =   0.1111111
        k(    9) = (   0.0279335  -0.0806371   0.0000000), wk =   0.1111111
        k(   10) = (   0.0279335  -0.0483823   0.0000000), wk =   0.1111111
        k(   11) = (   0.0558670  -0.0322549   0.0000000), wk =   0.1111111
        k(   12) = (   0.0558670   0.0000000   0.0000000), wk =   0.1111111
        k(   13) = (   0.0558670   0.0322549   0.0000000), wk =   0.1111111
        k(   14) = (   0.0558670  -0.1290194   0.0000000), wk =   0.1111111
        k(   15) = (   0.0558670  -0.0967646   0.0000000), wk =   0.1111111
        k(   16) = (   0.0558670  -0.0645097   0.0000000), wk =   0.1111111
        k(   17) = (  -0.0838006   0.0483823   0.0000000), wk =   0.0555556
        k(   18) = (  -0.0838006   0.0806371   0.0000000), wk =   0.1111111
        k(   19) = (  -0.0838006   0.1128920   0.0000000), wk =   0.1111111
        k(   20) = (  -0.0838006  -0.0483823   0.0000000), wk =   0.0555556

     Largest allocated arrays     est. size (Mb)     dimensions
     Largest temporary arrays     est. size (Mb)     dimensions

     Initial potential from superposition of free atoms
     Check: negative starting charge=   -0.001906

     starting charge  228.99936, renormalised to  235.00000

     negative rho (up, down):  1.956E-03 0.000E+00

     *
     * You are using vdW-DF for exchange-correlation in this calculation.
     * Please cite the following three references that made this development
     * possible:
     *
     *   M. Dion, H. Rydberg, E. Schroder, D. C. Langreth, and
     *   B. I. Lundqvist, Phys. Rev. Lett. 92, 246401 (2004).
     *
     *   T. Thonhauser, V. R. Cooper, S. Li, A. Puzder, P. Hyldgaard, and
     *   D. C. Langreth, Phys. Rev. B 76, 125112 (2007).
     *
     *   G. Roman-Perez and J. M. Soler, Phys. Rev. Lett. 103, 096102 (2009).
     *
     *
     * If you are using vdW-DF2, please also cite:
     *
     *   K. Lee, E. D. Murray, L. Kong, B. I. Lundqvist, and
     *   D. C. Langreth, Phys. Rev. B 82, 081101(R) (2010).
     *
     *
     * If you are calculating the stress with vdW-DF, please also cite:
     *
     *   R. Sabatini, E. Kucukbenli, B. Kolb, T. Thonhauser, and
     *   S. de Gironcoli, J. Phys.: Condens. Matter 24, 424209 (2012).
     *

     Carrying out vdW-DF run using the following parameters:

     Nqs =      20    Nr_points =    1024   r_max =   100.000
     q_mesh =
               0.00001000     0.04494208     0.09755937     0.15916263
               0.23128650     0.31572767     0.41458969     0.53033537
               0.66584808     0.82450364     1.01025438     1.22772762
               1.48234092     1.78043706     2.12944203     2.53805004
               3.01644009     3.57652955     4.23227104     5.00000000

     Gradients computed in reciprocal space

     Adding external electric field

     Computed dipole along edir(3) :
        Dipole               -1.5885 Ry au,         -4.0374 Debye
        Dipole field         -0.0039 Ry au

        Potential amp.        0.3535 Ry
        Total length         45.8256 bohr

     Starting wfc are  163 randomized atomic wfcs

     Self-consistent Calculation

     iteration #  1     ecut=    36.75 Ry     beta=0.30
     Davidson diagonalization with overlap
     ethr =  1.00E-02,  avg # of iterations =  5.3

[...]

     total energy              =   -3560.57837130 Ry
     Harris-Foulkes estimate   =   -3578.10722156 Ry
     estimated scf accuracy    <      37.67026280 Ry

[...]

     End of self-consistent calculation

          k = 0.0000 0.0000 0.0000 ( 19435 PWs)   bands (ev):

   -91.1092 -90.6296 -90.6058 -90.6013 -90.6002 -90.4478 -90.4192 -90.4142
   -90.4135 -90.3807 -90.3758 -90.3753 -54.7759 -54.5117 -54.5111 -54.1559
   -54.1556 -54.1414 -54.1282 -54.1034 -54.0992 -54.0981 -54.0892 -54.0891
   -54.0824 -54.0624 -54.0620 -53.9724 -53.9639 -53.9637 -53.9341 -53.9340
   -53.9334 -53.9199 -53.9028 -53.8976 -53.8971 -53.8961 -53.8950 -53.8947
   -53.8850 -53.8848 -53.8668 -53.8586 -53.8535 -53.8529 -53.8469 -53.8467
   -10.6105  -5.1073  -4.9083  -4.5477  -4.4816  -4.3487  -4.3400  -4.3267
    -4.2863  -4.2465  -4.2463  -4.1944  -4.1265  -4.0111  -4.0070  -4.0008
    -3.9089  -3.8811  -3.8529  -3.3579  -3.2942  -3.2937  -3.2343  -3.1775
    -3.1774  -3.1002  -3.0979  -3.0951  -3.0384  -3.0322  -2.9638  -2.9255
    -2.9254  -2.8171  -2.7149  -2.4332  -2.4326  -2.4215  -2.3613  -2.3521
    -2.3420  -2.3097  -2.2954  -2.1405  -2.1105  -2.1070  -1.9635  -1.9620
    -1.9212  -1.8801  -1.8482  -1.8239  -1.8108  -1.8039  -1.7693  -1.7424
    -1.7146  -1.7053  -1.6860  -1.6497  -1.6494  -1.5293  -1.4983  -1.4980
    -1.4749  -0.2882   1.2570   1.8989   1.9540   1.9577   2.3971   2.6472
     2.7330   2.7394   3.0715   3.1708   3.1770   4.8099   4.9950

[...]

          k =-0.0838 0.0484 0.0000 ( 19500 PWs)   bands (ev):

[...]

     the Fermi energy is     1.4125 ev

!    total energy              =   -3574.91954974 Ry
     Harris-Foulkes estimate   =   -3574.91954867 Ry
     estimated scf accuracy    <       0.00000338 Ry

     The total energy is the sum of the following terms:

     one-electron contribution =  -26108.78239666 Ry
     hartree contribution      =   13048.74560136 Ry
     xc contribution           =    -366.90197515 Ry
     ewald contribution        =    9852.04317537 Ry
     electric field correction =       0.00000018 Ry
     smearing contrib. (-TS)   =      -0.02395484 Ry

     convergence has been achieved in  15 iterations

 BEEF-vdW xc energy contributions
           1 :   -317.732592395450
           2 :    287.465074292185
           3 :   -237.097224676909
           4 :    181.913086631863
           5 :   -135.650905392073
           6 :    105.627439467330
           7 :   -91.4602473843092
           8 :    87.2938761096315
           9 :   -85.8714145634723
          10 :    82.1696893113374
          11 :   -74.9573089227447
          12 :    65.9899939677821
          13 :   -57.8806227056976
          14 :    52.1774204062908
          15 :   -48.7003069899174
          16 :    46.1756042129059
          17 :   -43.4155222917473
          18 :    40.1148469552608
          19 :   -36.8105809678015
          20 :    34.2211865039667
          21 :   -32.5760152107541
          22 :    31.4325988253381
          23 :   -30.0513175126144
          24 :    27.9834774177561
          25 :   -25.4185897842277
          26 :    23.0472289996833
          27 :   -21.5625195443479
          28 :    21.1714009419121
          29 :   -21.4619900325191
          30 :    21.6999393110417
          31 :   -31.8809505296598
          32 :   -23.1632710325953

     Forces acting on atoms (Ry/au):

     negative rho (up, down):  1.968E-03 0.000E+00
     atom    1 type  1   force =    -0.00160342   -0.00092087    0.00066784
     atom    2 type  1   force =     0.00159656   -0.00094128    0.00065736
     atom    3 type  1   force =    -0.00000352    0.00185811    0.00069974
     atom    4 type  1   force =     0.00001785    0.00001038    0.00204711
     atom    5 type  1   force =     0.00010846   -0.00255596   -0.00059973
     atom    6 type  1   force =    -0.00001892   -0.00005923    0.00227482
     atom    7 type  1   force =     0.00211702    0.00136147   -0.00060241
     atom    8 type  1   force =    -0.00220522    0.00123623   -0.00059485
     atom    9 type  1   force =    -0.00055196    0.00001951   -0.15521269
     atom   10 type  1   force =    -0.00014827    0.00055852   -0.00755857
     atom   11 type  1   force =     0.00060753    0.00004574   -0.00809756
     atom   12 type  1   force =    -0.00035036   -0.00060144   -0.00809323
     atom   13 type  2   force =     0.05007156   -0.00000982    0.37043543
     atom   14 type  3   force =    -0.08286512    0.00000369   -0.07696744
     atom   15 type  3   force =     0.01661352   -0.04629581   -0.05952620
     atom   16 type  3   force =     0.01661430    0.04629074   -0.05952963

     Total force =     0.434426     Total SCF correction =     0.003969

     entering subroutine stress ...

     negative rho (up, down):  1.968E-03 0.000E+00
          total   stress  (Ry/bohr**3)                   (kbar)     P=   -5.11
  -0.00008321   0.00000001  -0.00001110        -12.24      0.00     -1.63
   0.00000001  -0.00007414  -0.00000000          0.00    -10.91     -0.00
  -0.00001110  -0.00000000   0.00005316         -1.63     -0.00      7.82

     BFGS Geometry Optimization

     number of scf cycles    =   1
     number of bfgs steps    =   0

     energy   new            =   -3574.9195497425 Ry

     new trust radius        =       0.3738041860 bohr
     new conv_thr            =       0.0000099958 Ry

ATOMIC_POSITIONS (crystal)
Ag1      0.166666667   0.166666667   0.402063960    0   0   0
Ag1      0.666666667   0.166666667   0.402063960    0   0   0
Ag1      0.166666667   0.666666667   0.402063960    0   0   0
Ag1      0.666666667   0.666666667   0.402063960    0   0   0
Ag1      0.833333333   0.333333333   0.500000000    0   0   0
Ag1      0.333333333   0.333333333   0.500000000    0   0   0
Ag1      0.833333333   0.833333333   0.500000000    0   0   0
Ag1      0.333333333   0.833333333   0.500000000    0   0   0
Ag1     -0.000049953   0.000001998   0.594633687
Ag1      0.499958250   0.000057198   0.597775222
Ag1      0.000051540   0.500004685   0.597763754
Ag1      0.499999723   0.499938406   0.597763846
C1       0.004441385  -0.000001005   0.681345253
H1       0.175335693   0.000000378   0.697156202
H1       0.842351473   0.167402953   0.697527287
H1       0.009754754   0.832596528   0.697527214

     Writing output data file calc.save
     Check: negative starting charge=   -0.001906
     NEW-OLD atomic charge density approx. for the potential
     Check: negative starting charge=   -0.001915

[...]

     iteration #  1     ecut=    36.75 Ry     beta=0.30
     Davidson diagonalization with overlap
     c_bands:  1 eigenvalues not converged
     c_bands:  1 eigenvalues not converged
     c_bands:  1 eigenvalues not converged
     ethr =  1.00E-06,  avg # of iterations = 12.1

[...]

     energy   old            =   -3574.9195497425 Ry
     energy   new            =   -3575.0098304702 Ry

     CASE: energy  _new < energy  _old

[...]

     Total force =     0.011561     Total SCF correction =     0.000944

[...]

     Total force =     0.006937     Total SCF correction =     0.000906
     SCF correction compared to forces is large: reduce conv_thr to get better values

[...]

     number of scf cycles    =  19
     number of bfgs steps    =  18

     energy   old            =   -3575.0197957697 Ry
     energy   new            =   -3575.0199563314 Ry

     CASE: energy  _new < energy  _old

     new trust radius        =       0.0128318948 bohr
     new conv_thr            =       0.0000001000 Ry

ATOMIC_POSITIONS (crystal)
Ag1      0.166666667   0.166666667   0.402063960    0   0   0
Ag1      0.666666667   0.166666667   0.402063960    0   0   0
Ag1      0.166666667   0.666666667   0.402063960    0   0   0
Ag1      0.666666667   0.666666667   0.402063960    0   0   0
Ag1      0.833333333   0.333333333   0.500000000    0   0   0
Ag1      0.333333333   0.333333333   0.500000000    0   0   0
Ag1      0.833333333   0.833333333   0.500000000    0   0   0
Ag1      0.333333333   0.833333333   0.500000000    0   0   0
Ag1      0.000728625   0.000003803   0.602797230
Ag1      0.500351382   0.000257152   0.595736007
Ag1      0.000159272   0.499891692   0.595742081
Ag1      0.499797191   0.499856077   0.595736807
C1       0.007375262   0.000004690   0.692185833
H1       0.181851901   0.000067290   0.704883030
H1       0.833797027   0.173345628   0.705625077
H1       0.007263034   0.826595367   0.705625618

     Writing output data file calc.save
     Check: negative starting charge=   -0.001894
     NEW-OLD atomic charge density approx. for the potential
     Check: negative starting charge=   -0.001894

[...]

     Self-consistent Calculation

[...]

     total energy              =   -3575.01999396 Ry
     Harris-Foulkes estimate   =   -3575.01999392 Ry
     estimated scf accuracy    <       0.00000083 Ry

     iteration #  6     ecut=    36.75 Ry     beta=0.30
     Davidson diagonalization with overlap
     ethr =  3.54E-10,  avg # of iterations =  2.0

[...]

     negative rho (up, down):  1.941E-03 0.000E+00

     Adding external electric field

     Computed dipole along edir(3) :
        Dipole               -0.0407 Ry au,         -0.1034 Debye
        Dipole field         -0.0001 Ry au

        Potential amp.        0.0091 Ry
        Total length         45.8256 bohr

     End of self-consistent calculation

[...]

          k = 0.0559-0.0645 0.0000 ( 19479 PWs)   bands (ev):

[...]

          k =-0.0838-0.0484 0.0000 ( 19500 PWs)   bands (ev):

   -90.7042 -90.6536 -90.6530 -90.6499 -90.6287 -90.4912 -90.4625 -90.4606
   -90.4589 -90.4363 -90.4335 -90.4328 -54.2135 -54.2040 -54.2001 -54.1776
   -54.1600 -54.1526 -54.1515 -54.1488 -54.1480 -54.1462 -54.1397 -54.1344
   -54.1190 -54.0949 -54.0905 -54.0027 -53.9962 -53.9911 -53.9759 -53.9716
   -53.9641 -53.9606 -53.9598 -53.9504 -53.9484 -53.9465 -53.9450 -53.9409
   -53.9375 -53.9370 -53.9339 -53.9275 -53.9150 -53.9119 -53.9114 -53.9083
   -10.8483  -4.2702  -4.2386  -4.1701  -4.1461  -4.0166  -3.9774  -3.9723
    -3.9640  -3.8728  -3.7973  -3.7603  -3.7465  -3.7250  -3.7149  -3.6437
    -3.6151  -3.5474  -3.4933  -3.3854  -3.3242  -3.3193  -3.3006  -3.2676
    -3.2664  -3.2161  -3.1468  -3.0101  -2.9727  -2.9216  -2.9186  -2.9153
    -2.8814  -2.8505  -2.8044  -2.7220  -2.6675  -2.6479  -2.6455  -2.6291
    -2.6078  -2.6063  -2.5670  -2.5117  -2.4654  -2.4462  -2.4212  -2.3917
    -2.3587  -2.3464  -2.3174  -2.3123  -2.2743  -2.2508  -2.2248  -2.1562
    -2.1467  -2.1218  -2.0658  -1.9146  -1.8410  -1.8066  -1.7933  -1.7187
    -1.6613  -1.0886  -0.8201   0.5632   1.1274   1.1429   1.6461   2.1842
     2.5023   2.8537   4.2249   4.3099   4.6429   5.3458   5.8727

     the Fermi energy is     1.3578 ev

!    total energy              =   -3575.01999401 Ry
     Harris-Foulkes estimate   =   -3575.01999407 Ry
     estimated scf accuracy    <       0.00000004 Ry

     The total energy is the sum of the following terms:

     one-electron contribution =  -25999.83440995 Ry
     hartree contribution      =   12994.18659689 Ry
     xc contribution           =    -367.00167895 Ry
     ewald contribution        =    9797.65446513 Ry
     electric field correction =       0.00000402 Ry
     smearing contrib. (-TS)   =      -0.02497114 Ry

     convergence has been achieved in   6 iterations

 BEEF-vdW xc energy contributions
           1 :   -317.797459926685
           2 :    287.435801053748
           3 :   -236.964830071956
           4 :    181.739546371951
           5 :   -135.514296438244
           6 :    105.586274139149
           7 :   -91.5307352495233
           8 :    87.4402369717069
           9 :   -86.0217064171832
          10 :    82.2545963506519
          11 :   -74.9504475967887
          12 :    65.9227817180862
          13 :   -57.8221126773548
          14 :    52.1900932781047
          15 :   -48.8006247959921
          16 :    46.3264873474541
          17 :   -43.5514658566347
          18 :    40.1810740537435
          19 :   -36.7929607805253
          20 :    34.1487509899745
          21 :   -32.4964942094704
          22 :    31.3808755980696
          23 :   -30.0332360005990
          24 :    27.9822938280205
          25 :   -25.4139067289188
          26 :    23.0297686026555
          27 :   -21.5350506718897
          28 :    21.1377392441775
          29 :   -21.4140312798304
          30 :    21.6152840228763
          31 :   -31.8832917990001
          32 :   -23.1454869791743

     Forces acting on atoms (Ry/au):

     negative rho (up, down):  1.941E-03 0.000E+00
     atom    1 type  1   force =    -0.00148668   -0.00087365    0.00063526
     atom    2 type  1   force =     0.00148613   -0.00084194    0.00057469
     atom    3 type  1   force =     0.00003742    0.00171619    0.00060420
     atom    4 type  1   force =    -0.00002834    0.00000110    0.00137327
     atom    5 type  1   force =     0.00001594   -0.00536814   -0.00002121
     atom    6 type  1   force =    -0.00002931    0.00000183   -0.00280910
     atom    7 type  1   force =     0.00470964    0.00270259    0.00012375
     atom    8 type  1   force =    -0.00459080    0.00266318   -0.00016113
     atom    9 type  1   force =    -0.00011900   -0.00000331    0.00041287
     atom   10 type  1   force =     0.00011806    0.00008336   -0.00008916
     atom   11 type  1   force =     0.00013582    0.00000863   -0.00004532
     atom   12 type  1   force =    -0.00001585   -0.00009015   -0.00004767
     atom   13 type  2   force =    -0.00085079   -0.00004058   -0.00140132
     atom   14 type  3   force =    -0.00024750    0.00000547    0.00050864
     atom   15 type  3   force =     0.00041724    0.00146426    0.00017908
     atom   16 type  3   force =     0.00044800   -0.00142883    0.00016315

     Total force =     0.002806     Total SCF correction =     0.000454
     SCF correction compared to forces is large: reduce conv_thr to get better values

     entering subroutine stress ...

     negative rho (up, down):  1.941E-03 0.000E+00
          total   stress  (Ry/bohr**3)                   (kbar)     P=   -6.20
  -0.00005181  -0.00000004  -0.00000021         -7.62     -0.01     -0.03
  -0.00000004  -0.00005060   0.00000001         -0.01     -7.44      0.00
  -0.00000021   0.00000001  -0.00002408         -0.03      0.00     -3.54

     bfgs converged in  20 scf cycles and  19 bfgs steps
     (criteria: energy <  1.0E+00, force <  1.9E-03)

     End of BFGS Geometry Optimization

     Final energy   =   -3575.0199940051 Ry
Begin final coordinates

ATOMIC_POSITIONS (crystal)
Ag1      0.166666667   0.166666667   0.402063960    0   0   0
Ag1      0.666666667   0.166666667   0.402063960    0   0   0
Ag1      0.166666667   0.666666667   0.402063960    0   0   0
Ag1      0.666666667   0.666666667   0.402063960    0   0   0
Ag1      0.833333333   0.333333333   0.500000000    0   0   0
Ag1      0.333333333   0.333333333   0.500000000    0   0   0
Ag1      0.833333333   0.833333333   0.500000000    0   0   0
Ag1      0.333333333   0.833333333   0.500000000    0   0   0
Ag1      0.000728625   0.000003803   0.602797230
Ag1      0.500351382   0.000257152   0.595736007
Ag1      0.000159272   0.499891692   0.595742081
Ag1      0.499797191   0.499856077   0.595736807
C1       0.007375262   0.000004690   0.692185833
H1       0.181851901   0.000067290   0.704883030
H1       0.833797027   0.173345628   0.705625077
H1       0.007263034   0.826595367   0.705625618
End final coordinates

     Writing output data file calc.save

     General routines

     Parallel routines

   This run was terminated on:  11:31:44  16Apr2018

   JOB DONE.