     Program PWSCF v.5.1rc2 (svn rev. 11289) starts on 17Jan2018 at  4:42:51

     Current dimensions of program PWSCF are:
     Max number of different atomic species (ntypx) = 10
     Max number of k-points (npk) =  40000
     Max angular momentum in pseudopotentials (lmaxx) =  3
     Presently stress not available with electric field

     IMPORTANT: XC functional enforced from input :
     Exchange-correlation      = BEEF-VDW ( 1  4 27 13 2)
     Any further DFT definition will be discarded
     Please, verify this is what you really want

     Subspace diagonalization in iterative solution of the eigenvalue problem:
     a serial algorithm will be used

     bravais-lattice index     =            0
     lattice parameter (alat)  =       1.8897  a.u.
     unit-cell volume          =    4198.3539 (a.u.)^3
     number of atoms/cell      =           13
     number of atomic types    =            2
     number of electrons       =       198.00
     number of Kohn-Sham states=          109
     kinetic-energy cutoff     =      36.7493  Ry
     charge density cutoff     =     367.4932  Ry
     convergence threshold     =      1.0E-05
     mixing beta               =       0.3000
     number of iterations used =           10  plain     mixing
     Exchange-correlation      = BEEF-VDW ( 1  4 27 13 2)
     nstep                     =           50

     celldm(1)=   1.889726  celldm(2)=   0.000000  celldm(3)=   0.000000
     celldm(4)=   0.000000  celldm(5)=   0.000000  celldm(6)=   0.000000

     crystal axes: (cart. coord. in units of alat)
               a(1) = (   5.422927   0.000000   0.000000 )
               a(2) = (   2.711463   4.696392   0.000000 )
               a(3) = (   0.000000   0.000000  24.427801 )

     reciprocal axes: (cart. coord. in units 2 pi/alat)
               b(1) = (  0.184402 -0.106465  0.000000 )
               b(2) = (  0.000000  0.212929  0.000000 )
               b(3) = (  0.000000  0.000000  0.040937 )

     PseudoPot. # 1 for Ru read from file:
     /afs/slac.stanford.edu/u/if/mamunm/psp/gbrv1.5pbe/Ru.UPF
     MD5 check sum: 7158a806dd851261a58e6920c40ebe78
     Pseudo is Ultrasoft + core correction, Zval = 16.0
     Generated by new atomic code, or converted to UPF format
     Using radial grid of  967 points,  6 beta functions with:
                l(1) =   0
                l(2) =   0
                l(3) =   1
                l(4) =   1
                l(5) =   2
                l(6) =   2
     Q(r) pseudized with  8 coefficients,  rinner =    1.300   1.300   1.300
                                                       1.300   1.300

     PseudoPot. # 2 for O  read from file:
     /afs/slac.stanford.edu/u/if/mamunm/psp/gbrv1.5pbe/O.UPF
     MD5 check sum: 734c27235a0248c51dbae37a1fbe46ec
     Pseudo is Ultrasoft + core correction, Zval =  6.0
     Generated by new atomic code, or converted to UPF format
     Using radial grid of  737 points,  5 beta functions with:
                l(1) =   0
                l(2) =   0
                l(3) =   1
                l(4) =   1
                l(5) =   2
     Q(r) pseudized with  8 coefficients,  rinner =    0.900   0.900   0.900
                                                       0.900   0.900

     vdW kernel table read from file vdW_kernel_table
     MD5 check sum: 095c7af220d748ca6e76c0b4c6cfb241

     atomic species   valence    mass     pseudopotential
        Ru1           16.00   101.07000     Ru( 1.00)
        O1             6.00    15.99900     O ( 1.00)

     No symmetry found

   Cartesian axes

     site n.     atom                  positions (alat units)
         1           Ru1 tau(   1) = (   1.3557316   0.7827320  10.0000000  )
         2           Ru1 tau(   2) = (   4.0671949   0.7827320  10.0000000  )
         3           Ru1 tau(   3) = (   2.7114633   3.1309281  10.0000000  )
         4           Ru1 tau(   4) = (   5.4229265   3.1309281  10.0000000  )
         5           Ru1 tau(   5) = (   5.4229265   1.5654640  12.2139005  )
         6           Ru1 tau(   6) = (   2.7114633   1.5654640  12.2139005  )
         7           Ru1 tau(   7) = (   6.7786581   3.9136601  12.2139005  )
         8           Ru1 tau(   8) = (   4.0671949   3.9136601  12.2139005  )
         9           Ru1 tau(   9) = (   0.0000000   0.0000000  14.4278010  )
        10           Ru1 tau(  10) = (   2.7114633   0.0000000  14.4278010  )
        11           Ru1 tau(  11) = (   1.3557316   2.3481961  14.4278010  )
        12           Ru1 tau(  12) = (   4.0671949   2.3481961  14.4278010  )
        13           O1  tau(  13) = (   1.3557316   0.7827320  16.5478010  )

     number of k points=    20  Fermi-Dirac smearing, width (Ry)=  0.0110
                       cart. coord. in units 2pi/alat
        k(    1) = (   0.0000000   0.0000000   0.0000000), wk =   0.0555556
        k(    2) = (   0.0000000   0.0354882   0.0000000), wk =   0.1111111
        k(    3) = (   0.0000000   0.0709765   0.0000000), wk =   0.1111111
        k(    4) = (   0.0000000  -0.1064647   0.0000000), wk =   0.0555556
        k(    5) = (   0.0307337  -0.0177441   0.0000000), wk =   0.1111111
        k(    6) = (   0.0307337   0.0177441   0.0000000), wk =   0.1111111
        k(    7) = (   0.0307337   0.0532324   0.0000000), wk =   0.1111111
        k(    8) = (   0.0307337  -0.1242088   0.0000000), wk =   0.1111111
        k(    9) = (   0.0307337  -0.0887206   0.0000000), wk =   0.1111111
        k(   10) = (   0.0307337  -0.0532324   0.0000000), wk =   0.1111111
        k(   11) = (   0.0614674  -0.0354882   0.0000000), wk =   0.1111111
        k(   12) = (   0.0614674   0.0000000   0.0000000), wk =   0.1111111
        k(   13) = (   0.0614674   0.0354882   0.0000000), wk =   0.1111111
        k(   14) = (   0.0614674  -0.1419529   0.0000000), wk =   0.1111111
        k(   15) = (   0.0614674  -0.1064647   0.0000000), wk =   0.1111111
        k(   16) = (   0.0614674  -0.0709765   0.0000000), wk =   0.1111111
        k(   17) = (  -0.0922011   0.0532324   0.0000000), wk =   0.0555556
        k(   18) = (  -0.0922011   0.0887206   0.0000000), wk =   0.1111111
        k(   19) = (  -0.0922011   0.1242088   0.0000000), wk =   0.1111111
        k(   20) = (  -0.0922011  -0.0532324   0.0000000), wk =   0.0555556

     Largest allocated arrays     est. size (Mb)     dimensions
     Largest temporary arrays     est. size (Mb)     dimensions

     Initial potential from superposition of free atoms
     Check: negative starting charge=   -0.873755

     starting charge  185.99981, renormalised to  198.00000

     negative rho (up, down):  9.301E-01 0.000E+00

     *
     * You are using vdW-DF for exchange-correlation in this calculation.
     * Please cite the following three references that made this development
     * possible:
     *
     *   M. Dion, H. Rydberg, E. Schroder, D. C. Langreth, and
     *   B. I. Lundqvist, Phys. Rev. Lett. 92, 246401 (2004).
     *
     *   T. Thonhauser, V. R. Cooper, S. Li, A. Puzder, P. Hyldgaard, and
     *   D. C. Langreth, Phys. Rev. B 76, 125112 (2007).
     *
     *   G. Roman-Perez and J. M. Soler, Phys. Rev. Lett. 103, 096102 (2009).
     *
     *
     * If you are using vdW-DF2, please also cite:
     *
     *   K. Lee, E. D. Murray, L. Kong, B. I. Lundqvist, and
     *   D. C. Langreth, Phys. Rev. B 82, 081101(R) (2010).
     *
     *
     * If you are calculating the stress with vdW-DF, please also cite:
     *
     *   R. Sabatini, E. Kucukbenli, B. Kolb, T. Thonhauser, and
     *   S. de Gironcoli, J. Phys.: Condens. Matter 24, 424209 (2012).
     *

     Carrying out vdW-DF run using the following parameters:

     Nqs =      20    Nr_points =    1024   r_max =   100.000
     q_mesh =
               0.00001000     0.04494208     0.09755937     0.15916263
               0.23128650     0.31572767     0.41458969     0.53033537
               0.66584808     0.82450364     1.01025438     1.22772762
               1.48234092     1.78043706     2.12944203     2.53805004
               3.01644009     3.57652955     4.23227104     5.00000000

     Gradients computed in reciprocal space

     Adding external electric field

     Computed dipole along edir(3) :
        Dipole               -3.1703 Ry au,         -8.0581 Debye
        Dipole field         -0.0095 Ry au

        Potential amp.        0.8542 Ry
        Total length         45.0078 bohr

     Starting wfc are  160 randomized atomic wfcs

     Self-consistent Calculation

     iteration #  1     ecut=    36.75 Ry     beta=0.30
     Davidson diagonalization with overlap
     ethr =  1.00E-02,  avg # of iterations =  6.2

[...]

     total energy              =   -2117.98533604 Ry
     Harris-Foulkes estimate   =   -2369.58054309 Ry
     estimated scf accuracy    <     527.23155765 Ry

[...]

     End of self-consistent calculation

          k = 0.0000 0.0000 0.0000 ( 15761 PWs)   bands (ev):

   -71.7962 -71.7061 -71.7057 -71.6018 -71.4057 -71.3256 -71.3254 -71.2845
   -71.1895 -71.1879 -71.1874 -71.1865 -42.0757 -42.0418 -42.0416 -41.9015
   -41.8087 -41.8084 -41.7895 -41.6098 -41.5831 -41.5830 -41.5155 -41.4866
   -41.4864 -41.4376 -41.4373 -41.4051 -41.3113 -41.3112 -41.2892 -41.2299
   -41.2297 -41.1408 -41.1135 -41.1008 -41.1007 -41.0858 -41.0855 -41.0832
   -41.0681 -41.0085 -41.0083 -41.0061 -40.9159 -40.9158 -40.8448 -40.8448
   -14.1245  -5.2128  -4.0116  -3.9926  -3.9925  -3.8999  -3.7522  -3.6365
    -3.6262  -3.6261  -3.4059  -3.3736  -3.3735  -3.0345  -3.0153  -3.0152
    -1.9317  -1.8637  -1.8636  -1.2678  -1.2595  -1.2595  -1.0271  -0.8806
    -0.8806  -0.6705  -0.5015  -0.5015  -0.4508  -0.4507  -0.4506  -0.2289
    -0.2289   0.0576   0.0577   0.0624   0.4727   0.6595   0.6596   1.1762
     1.2138   1.2138   1.3219   1.3219   1.4362   1.5017   1.5018   1.9182
     1.9183   1.9427   2.5482   2.5512   2.5512   2.5725   2.6697   2.6697
     2.7462   2.7463   3.0512   3.0849   3.0850

[...]

          k =-0.0922 0.0532 0.0000 ( 15808 PWs)   bands (ev):

[...]

     the Fermi energy is     1.5066 ev

!    total energy              =   -2373.62383060 Ry
     Harris-Foulkes estimate   =   -2373.62393945 Ry
     estimated scf accuracy    <       0.00000997 Ry

     The total energy is the sum of the following terms:

     one-electron contribution =  -22233.48428389 Ry
     hartree contribution      =   11114.45968800 Ry
     xc contribution           =    -328.95624275 Ry
     ewald contribution        =    9074.45100122 Ry
     electric field correction =       0.00108900 Ry
     smearing contrib. (-TS)   =      -0.09508218 Ry

     convergence has been achieved in  25 iterations

 BEEF-vdW xc energy contributions
           1 :   -285.142513898347
           2 :    261.344177960425
           3 :   -220.331703375501
           4 :    172.430966602237
           5 :   -127.941537661766
           6 :    94.0549213132747
           7 :   -73.2956674807951
           8 :    63.7639994998141
           9 :   -60.8249756903451
          10 :    59.4046905074456
          11 :   -55.9433237456567
          12 :    49.3215997624549
          13 :   -40.6209515288180
          14 :    32.0707516994038
          15 :   -25.7594157721720
[...]

[...]

   This run was terminated on:   7: 6: 9  17Jan2018

[...]

   This run was terminated on:   7:26: 0  17Jan2018

[...]

     Program PWSCF v.5.1rc2 (svn rev. 11289) starts on 17Jan2018 at  7:45:19

[...]

   This run was terminated on:   8: 5:52  17Jan2018

[...]

     Program PWSCF v.5.1rc2 (svn rev. 11289) starts on 17Jan2018 at  8: 5:58

[...]

     Total force =     0.088316     Total SCF correction =     0.020421
     SCF correction compared to forces is large: reduce conv_thr to get better values

[...]

     Program PWSCF v.5.1rc2 (svn rev. 11289) starts on 17Jan2018 at  8:25: 4

     Current dimensions of program PWSCF are:
     Max number of different atomic species (ntypx) = 10
     Max number of k-points (npk) =  40000
     Max angular momentum in pseudopotentials (lmaxx) =  3
     Presently stress not available with electric field

     IMPORTANT: XC functional enforced from input :
     Exchange-correlation      = BEEF-VDW ( 1  4 27 13 2)
     Any further DFT definition will be discarded
     Please, verify this is what you really want

     Subspace diagonalization in iterative solution of the eigenvalue problem:
     a serial algorithm will be used

     bravais-lattice index     =            0
     lattice parameter (alat)  =       1.8897  a.u.
     unit-cell volume          =    4198.3539 (a.u.)^3
     number of atoms/cell      =           13
     number of atomic types    =            2
     number of electrons       =       198.00
     number of Kohn-Sham states=          109
     kinetic-energy cutoff     =      36.7493  Ry
     charge density cutoff     =     367.4932  Ry
     convergence threshold     =      1.0E-05
     mixing beta               =       0.3000
     number of iterations used =           10  plain     mixing
     Exchange-correlation      = BEEF-VDW ( 1  4 27 13 2)
     nstep                     =           50

     celldm(1)=   1.889726  celldm(2)=   0.000000  celldm(3)=   0.000000
     celldm(4)=   0.000000  celldm(5)=   0.000000  celldm(6)=   0.000000

     crystal axes: (cart. coord. in units of alat)
               a(1) = (   5.422927   0.000000   0.000000 )
               a(2) = (   2.711463   4.696392   0.000000 )
               a(3) = (   0.000000   0.000000  24.427801 )

     reciprocal axes: (cart. coord. in units 2 pi/alat)
               b(1) = (  0.184402 -0.106465  0.000000 )
               b(2) = (  0.000000  0.212929  0.000000 )
               b(3) = (  0.000000  0.000000  0.040937 )

     PseudoPot. # 1 for Ru read from file:
     /afs/slac.stanford.edu/u/if/mamunm/psp/gbrv1.5pbe/Ru.UPF
     MD5 check sum: 7158a806dd851261a58e6920c40ebe78
     Pseudo is Ultrasoft + core correction, Zval = 16.0
     Generated by new atomic code, or converted to UPF format
     Using radial grid of  967 points,  6 beta functions with:
                l(1) =   0
                l(2) =   0
                l(3) =   1
                l(4) =   1
                l(5) =   2
                l(6) =   2
     Q(r) pseudized with  8 coefficients,  rinner =    1.300   1.300   1.300
                                                       1.300   1.300

     PseudoPot. # 2 for O  read from file:
     /afs/slac.stanford.edu/u/if/mamunm/psp/gbrv1.5pbe/O.UPF
     MD5 check sum: 734c27235a0248c51dbae37a1fbe46ec
     Pseudo is Ultrasoft + core correction, Zval =  6.0
     Generated by new atomic code, or converted to UPF format
     Using radial grid of  737 points,  5 beta functions with:
                l(1) =   0
                l(2) =   0
                l(3) =   1
                l(4) =   1
                l(5) =   2
     Q(r) pseudized with  8 coefficients,  rinner =    0.900   0.900   0.900
                                                       0.900   0.900

     vdW kernel table read from file vdW_kernel_table
     MD5 check sum: 095c7af220d748ca6e76c0b4c6cfb241

     atomic species   valence    mass     pseudopotential
        Ru1           16.00   101.07000     Ru( 1.00)
        O1             6.00    15.99900     O ( 1.00)

     No symmetry found

   Cartesian axes

     site n.     atom                  positions (alat units)
         1           Ru1 tau(   1) = (   1.3557316   0.7827320  10.0000000  )
         2           Ru1 tau(   2) = (   4.0671949   0.7827320  10.0000000  )
         3           Ru1 tau(   3) = (   2.7114633   3.1309281  10.0000000  )
         4           Ru1 tau(   4) = (   5.4229265   3.1309281  10.0000000  )
         5           Ru1 tau(   5) = (   5.4229265   1.5654640  12.2139005  )
         6           Ru1 tau(   6) = (   2.7114633   1.5654640  12.2139005  )
         7           Ru1 tau(   7) = (   6.7786581   3.9136601  12.2139005  )
         8           Ru1 tau(   8) = (   4.0671949   3.9136601  12.2139005  )
         9           Ru1 tau(   9) = (   8.0580140   4.6523550  14.3956126  )
        10           Ru1 tau(  10) = (   5.4993221   4.6521623  14.3958402  )
        11           Ru1 tau(  11) = (   6.7784834   2.4363082  14.3958854  )
        12           Ru1 tau(  12) = (   4.0674414   2.3482915  14.3074204  )
        13           O1  tau(  13) = (   1.3555798   0.7824605  15.5716055  )

     number of k points=    20  Fermi-Dirac smearing, width (Ry)=  0.0110
                       cart. coord. in units 2pi/alat
        k(    1) = (   0.0000000   0.0000000   0.0000000), wk =   0.0555556
        k(    2) = (   0.0000000   0.0354882   0.0000000), wk =   0.1111111
        k(    3) = (   0.0000000   0.0709765   0.0000000), wk =   0.1111111
        k(    4) = (   0.0000000  -0.1064647   0.0000000), wk =   0.0555556
        k(    5) = (   0.0307337  -0.0177441   0.0000000), wk =   0.1111111
        k(    6) = (   0.0307337   0.0177441   0.0000000), wk =   0.1111111
        k(    7) = (   0.0307337   0.0532324   0.0000000), wk =   0.1111111
        k(    8) = (   0.0307337  -0.1242088   0.0000000), wk =   0.1111111
        k(    9) = (   0.0307337  -0.0887206   0.0000000), wk =   0.1111111
        k(   10) = (   0.0307337  -0.0532324   0.0000000), wk =   0.1111111
        k(   11) = (   0.0614674  -0.0354882   0.0000000), wk =   0.1111111
        k(   12) = (   0.0614674   0.0000000   0.0000000), wk =   0.1111111
        k(   13) = (   0.0614674   0.0354882   0.0000000), wk =   0.1111111
        k(   14) = (   0.0614674  -0.1419529   0.0000000), wk =   0.1111111
        k(   15) = (   0.0614674  -0.1064647   0.0000000), wk =   0.1111111
        k(   16) = (   0.0614674  -0.0709765   0.0000000), wk =   0.1111111
        k(   17) = (  -0.0922011   0.0532324   0.0000000), wk =   0.0555556
        k(   18) = (  -0.0922011   0.0887206   0.0000000), wk =   0.1111111
        k(   19) = (  -0.0922011   0.1242088   0.0000000), wk =   0.1111111
        k(   20) = (  -0.0922011  -0.0532324   0.0000000), wk =   0.0555556

     Largest allocated arrays     est. size (Mb)     dimensions
     Largest temporary arrays     est. size (Mb)     dimensions

     Initial potential from superposition of free atoms
     Check: negative starting charge=   -0.880272

     starting charge  185.99981, renormalised to  198.00000

[...]

     *
     * You are using vdW-DF for exchange-correlation in this calculation.
     * Please cite the following three references that made this development
     * possible:
     *
     *   M. Dion, H. Rydberg, E. Schroder, D. C. Langreth, and
     *   B. I. Lundqvist, Phys. Rev. Lett. 92, 246401 (2004).
     *
     *   T. Thonhauser, V. R. Cooper, S. Li, A. Puzder, P. Hyldgaard, and
     *   D. C. Langreth, Phys. Rev. B 76, 125112 (2007).
     *
     *   G. Roman-Perez and J. M. Soler, Phys. Rev. Lett. 103, 096102 (2009).
     *
     *
     * If you are using vdW-DF2, please also cite:
     *
     *   K. Lee, E. D. Murray, L. Kong, B. I. Lundqvist, and
     *   D. C. Langreth, Phys. Rev. B 82, 081101(R) (2010).
     *
     *
     * If you are calculating the stress with vdW-DF, please also cite:
     *
     *   R. Sabatini, E. Kucukbenli, B. Kolb, T. Thonhauser, and
     *   S. de Gironcoli, J. Phys.: Condens. Matter 24, 424209 (2012).
     *

     Carrying out vdW-DF run using the following parameters:

     Nqs =      20    Nr_points =    1024   r_max =   100.000
     q_mesh =
               0.00001000     0.04494208     0.09755937     0.15916263
               0.23128650     0.31572767     0.41458969     0.53033537
               0.66584808     0.82450364     1.01025438     1.22772762
               1.48234092     1.78043706     2.12944203     2.53805004
               3.01644009     3.57652955     4.23227104     5.00000000

     Gradients computed in reciprocal space

[...]

     Starting wfc are  160 randomized atomic wfcs

     Self-consistent Calculation

[...]

     total energy              =   -2373.82488920 Ry
     Harris-Foulkes estimate   =   -2373.82488987 Ry
     estimated scf accuracy    <       0.00001974 Ry

     iteration # 27     ecut=    36.75 Ry     beta=0.30
     Davidson diagonalization with overlap
     ethr =  9.97E-09,  avg # of iterations =  2.9

[...]

     negative rho (up, down):  9.177E-01 0.000E+00

     Adding external electric field

     Computed dipole along edir(3) :
        Dipole               -0.0927 Ry au,         -0.2357 Debye
        Dipole field         -0.0003 Ry au

        Potential amp.        0.0250 Ry
        Total length         45.0078 bohr

     End of self-consistent calculation

[...]

          k = 0.0615-0.0710 0.0000 ( 15803 PWs)   bands (ev):

[...]

          k =-0.0922-0.0532 0.0000 ( 15808 PWs)   bands (ev):

   -70.9338 -70.9200 -70.8791 -70.8481 -70.7998 -70.7679 -70.7523 -70.4218
   -70.4097 -70.3730 -70.3695 -70.3485 -41.3266 -41.1338 -41.1215 -41.0624
   -41.0368 -40.9881 -40.9735 -40.9220 -40.9046 -40.8758 -40.8317 -40.8316
   -40.7705 -40.6954 -40.6666 -40.6096 -40.5912 -40.5738 -40.5546 -40.5376
   -40.5185 -40.5003 -40.4418 -40.3691 -40.3605 -40.3328 -40.3218 -40.3193
   -40.3005 -40.2823 -40.2802 -40.2474 -40.2306 -40.1791 -40.1069 -40.0932
   -16.6049  -3.8506  -3.1265  -3.1218  -2.8665  -2.8162  -2.3856  -2.3588
    -2.2400  -2.1272  -1.9960  -1.9936  -1.8576  -1.7527  -1.6974  -1.6434
    -1.4969  -1.3390  -1.2792  -1.1280  -0.9385  -0.8553  -0.8095  -0.7590
    -0.5974  -0.5692  -0.2516  -0.1796   0.0340   0.0509   0.3611   0.3624
     0.3784   0.4473   0.5819   0.6249   0.6691   0.6794   0.6990   0.7312
     0.7584   1.1198   1.1559   1.2871   1.3552   1.5020   1.6028   1.6614
     1.7983   1.8156   1.9264   2.0017   2.2186   2.2489   2.5205   2.5221
     2.6297   2.7511   2.9013   2.9496   2.9806

     the Fermi energy is     2.3529 ev

!    total energy              =   -2373.82488872 Ry
     Harris-Foulkes estimate   =   -2373.82489220 Ry
     estimated scf accuracy    <       0.00000166 Ry

     The total energy is the sum of the following terms:

     one-electron contribution =  -22790.19936575 Ry
     hartree contribution      =   11397.02470099 Ry
     xc contribution           =    -329.54820274 Ry
     ewald contribution        =    9348.98372922 Ry
     electric field correction =       0.00002574 Ry
     smearing contrib. (-TS)   =      -0.08577618 Ry

     convergence has been achieved in  27 iterations

 BEEF-vdW xc energy contributions
           1 :   -285.767218921033
           2 :    262.215195920453
           3 :   -221.454997332816
           4 :    173.562890673709
           5 :   -128.753481457228
           6 :    94.3175026425654
           7 :   -72.9915201713033
           8 :    63.0912750170674
           9 :   -60.1022698652713
          10 :    58.9286211376145
          11 :   -55.8670548163265
          12 :    49.6118103141723
          13 :   -41.1021964866046
          14 :    32.5191559202462
          15 :   -25.9996047095912
          16 :    22.6300704941109
          17 :   -22.0833924870935
          18 :    22.9485809019526
          19 :   -23.5072501057726
          20 :    22.5486976021003
          21 :   -19.8496101861931
          22 :    16.1393070243551
          23 :   -12.6265305758781
          24 :    10.3550444488184
          25 :   -9.71067103630378
          26 :    10.2989696684991
          27 :   -11.2117144363074
          28 :    11.5138714461644
          29 :   -10.6960839882837
          30 :    8.87598171828199
          31 :   -29.6982188834140
          32 :   -22.4865569280165

     Forces acting on atoms (Ry/au):

     negative rho (up, down):  9.177E-01 0.000E+00
     atom    1 type  1   force =     0.00000237    0.00001713    0.02686078
     atom    2 type  1   force =     0.00000292    0.00298741    0.03172231
     atom    3 type  1   force =     0.00258064   -0.00150362    0.03169971
     atom    4 type  1   force =    -0.00258004   -0.00151180    0.03171193
     atom    5 type  1   force =    -0.00307569    0.00176844   -0.02578498
     atom    6 type  1   force =     0.00308747    0.00175169   -0.02574376
     atom    7 type  1   force =    -0.00003556    0.00000866   -0.04566340
     atom    8 type  1   force =     0.00002352   -0.00355189   -0.02576650
     atom    9 type  1   force =    -0.00031587   -0.00019356    0.00024659
     atom   10 type  1   force =     0.00030973   -0.00010214    0.00019595
     atom   11 type  1   force =     0.00007754    0.00034963    0.00014799
     atom   12 type  1   force =    -0.00010799   -0.00005438    0.00017524
     atom   13 type  2   force =     0.00003098    0.00003444    0.00019815

     Total force =     0.088770     Total SCF correction =     0.007271

     entering subroutine stress ...

     negative rho (up, down):  9.177E-01 0.000E+00
          total   stress  (Ry/bohr**3)                   (kbar)     P=  -20.58
  -0.00014641  -0.00000002   0.00000002        -21.54     -0.00      0.00
  -0.00000002  -0.00014648   0.00000005         -0.00    -21.55      0.01
   0.00000002   0.00000005  -0.00012685          0.00      0.01    -18.66

 !ASE

     Writing output data file calc.save

     General routines

     Parallel routines

   This run was terminated on:   8:45:51  17Jan2018

   JOB DONE.
Job  /afs/slac/g/suncat/bin/suncat-tsmpirun -x LD_LIBRARY_PATH -wdir /scratch/qe842477_gPd4x pw.x -in pw.inp

TID   HOST_NAME   COMMAND_LINE            STATUS            TERMINATION_TIME
00000 suncat0153 pw.x -in pw.inp   Done                     01/17/2018 08:45:51
00001 suncat0153 pw.x -in pw.inp   Done                     01/17/2018 08:45:51
00002 suncat0153 pw.x -in pw.inp   Done                     01/17/2018 08:45:51
00003 suncat0153 pw.x -in pw.inp   Done                     01/17/2018 08:45:51
00004 suncat0153 pw.x -in pw.inp   Done                     01/17/2018 08:45:51
00005 suncat0153 pw.x -in pw.inp   Done                     01/17/2018 08:45:51
00006 suncat0153 pw.x -in pw.inp   Done                     01/17/2018 08:45:51
00007 suncat0153 pw.x -in pw.inp   Done                     01/17/2018 08:45:51
00008 suncat0146 pw.x -in pw.inp   Done                     01/17/2018 08:45:51
00009 suncat0146 pw.x -in pw.inp   Done                     01/17/2018 08:45:51
00010 suncat0146 pw.x -in pw.inp   Done                     01/17/2018 08:45:51
00011 suncat0146 pw.x -in pw.inp   Done                     01/17/2018 08:45:51
00012 suncat0146 pw.x -in pw.inp   Done                     01/17/2018 08:45:51
00013 suncat0146 pw.x -in pw.inp   Done                     01/17/2018 08:45:51
00014 suncat0146 pw.x -in pw.inp   Done                     01/17/2018 08:45:51
00015 suncat0146 pw.x -in pw.inp   Done                     01/17/2018 08:45:51
00016 suncat0115 pw.x -in pw.inp   Done                     01/17/2018 08:45:51
00017 suncat0115 pw.x -in pw.inp   Done                     01/17/2018 08:45:51
00018 suncat0115 pw.x -in pw.inp   Done                     01/17/2018 08:45:51
00019 suncat0115 pw.x -in pw.inp   Done                     01/17/2018 08:45:51
00020 suncat0115 pw.x -in pw.inp   Done                     01/17/2018 08:45:51
00021 suncat0115 pw.x -in pw.inp   Done                     01/17/2018 08:45:51
00022 suncat0115 pw.x -in pw.inp   Done                     01/17/2018 08:45:51
00023 suncat0115 pw.x -in pw.inp   Done                     01/17/2018 08:45:51
00024 suncat0114 pw.x -in pw.inp   Done                     01/17/2018 08:45:51
00025 suncat0114 pw.x -in pw.inp   Done                     01/17/2018 08:45:51
00026 suncat0114 pw.x -in pw.inp   Done                     01/17/2018 08:45:51
00027 suncat0114 pw.x -in pw.inp   Done                     01/17/2018 08:45:51
00028 suncat0114 pw.x -in pw.inp   Done                     01/17/2018 08:45:51
00029 suncat0114 pw.x -in pw.inp   Done                     01/17/2018 08:45:51
00030 suncat0114 pw.x -in pw.inp   Done                     01/17/2018 08:45:51
00031 suncat0114 pw.x -in pw.inp   Done                     01/17/2018 08:45:51