     Program PWSCF v.5.1rc2 (svn rev. 11289) starts on  4May2018 at 10:33: 4

     Current dimensions of program PWSCF are:
     Max number of different atomic species (ntypx) = 10
     Max number of k-points (npk) =  40000
     Max angular momentum in pseudopotentials (lmaxx) =  3
     Presently stress not available with electric field

     IMPORTANT: XC functional enforced from input :
     Exchange-correlation      = BEEF-VDW ( 1  4 27 13 2)
     Any further DFT definition will be discarded
     Please, verify this is what you really want

     Subspace diagonalization in iterative solution of the eigenvalue problem:
     a serial algorithm will be used

     bravais-lattice index     =            0
     lattice parameter (alat)  =       1.8897  a.u.
     unit-cell volume          =    5174.6160 (a.u.)^3
     number of atoms/cell      =           13
     number of atomic types    =            2
     number of electrons       =       229.00
     number of Kohn-Sham states=          124
     kinetic-energy cutoff     =      36.7493  Ry
     charge density cutoff     =     367.4932  Ry
     convergence threshold     =      1.0E-05
     mixing beta               =       0.3000
     number of iterations used =           10  plain     mixing
     Exchange-correlation      = BEEF-VDW ( 1  4 27 13 2)
     nstep                     =           50

     celldm(1)=   1.889726  celldm(2)=   0.000000  celldm(3)=   0.000000
     celldm(4)=   0.000000  celldm(5)=   0.000000  celldm(6)=   0.000000

     crystal axes: (cart. coord. in units of alat)
               a(1) = (   5.966546   0.000000   0.000000 )
               a(2) = (   2.983273   5.167181   0.000000 )
               a(3) = (   0.000000   0.000000  24.871665 )

     reciprocal axes: (cart. coord. in units 2 pi/alat)
               b(1) = (  0.167601 -0.096765  0.000000 )
               b(2) = (  0.000000  0.193529  0.000000 )
               b(3) = (  0.000000  0.000000  0.040206 )

     PseudoPot. # 1 for Ag read from file:
     /u/if/mamunm/psp/gbrv1.5pbe/Ag.UPF
     MD5 check sum: d66d668201baa78d5eb5b04ef7011058
     Pseudo is Ultrasoft + core correction, Zval = 19.0
     Generated by new atomic code, or converted to UPF format
     Using radial grid of  887 points,  6 beta functions with:
                l(1) =   0
                l(2) =   0
                l(3) =   1
                l(4) =   1
                l(5) =   2
                l(6) =   2
     Q(r) pseudized with  6 coefficients,  rinner =    1.300   1.300   1.300
                                                       1.300   1.300

     PseudoPot. # 2 for H  read from file:
     /u/if/mamunm/psp/gbrv1.5pbe/H.UPF
     MD5 check sum: 761ae9a214b05c3daf00ab9f6b793d6f
     Pseudo is Ultrasoft, Zval =  1.0
     Generated by new atomic code, or converted to UPF format
     Using radial grid of  615 points,  2 beta functions with:
                l(1) =   0
                l(2) =   0
     Q(r) pseudized with  8 coefficients,  rinner =    0.700

     vdW kernel table read from file vdW_kernel_table
     MD5 check sum: 095c7af220d748ca6e76c0b4c6cfb241

     atomic species   valence    mass     pseudopotential
        Ag1           19.00   107.86820     Ag( 1.00)
        H1             1.00     1.00800     H ( 1.00)

     No symmetry found

   Cartesian axes

     site n.     atom                  positions (alat units)
         1           Ag1 tau(   1) = (   1.4916366   0.8611968  10.0000000  )
         2           Ag1 tau(   2) = (   4.4749098   0.8611968  10.0000000  )
         3           Ag1 tau(   3) = (   2.9832732   3.4447871  10.0000000  )
         4           Ag1 tau(   4) = (   5.9665464   3.4447871  10.0000000  )
         5           Ag1 tau(   5) = (   5.9665464   1.7223936  12.4358324  )
         6           Ag1 tau(   6) = (   2.9832732   1.7223936  12.4358324  )
         7           Ag1 tau(   7) = (   7.4581830   4.3059839  12.4358324  )
         8           Ag1 tau(   8) = (   4.4749098   4.3059839  12.4358324  )
         9           Ag1 tau(   9) = (   0.0000000   0.0000000  14.8716647  )
        10           Ag1 tau(  10) = (   2.9832732   0.0000000  14.8716647  )
        11           Ag1 tau(  11) = (   1.4916366   2.5835904  14.8716647  )
        12           Ag1 tau(  12) = (   4.4749098   2.5835904  14.8716647  )
        13           H1  tau(  13) = (   1.4916366   0.8611968  16.0156647  )

     number of k points=    20  Fermi-Dirac smearing, width (Ry)=  0.0110
                       cart. coord. in units 2pi/alat
        k(    1) = (   0.0000000   0.0000000   0.0000000), wk =   0.0555556
        k(    2) = (   0.0000000   0.0322549   0.0000000), wk =   0.1111111
        k(    3) = (   0.0000000   0.0645097   0.0000000), wk =   0.1111111
        k(    4) = (   0.0000000  -0.0967646   0.0000000), wk =   0.0555556
        k(    5) = (   0.0279335  -0.0161274   0.0000000), wk =   0.1111111
        k(    6) = (   0.0279335   0.0161274   0.0000000), wk =   0.1111111
        k(    7) = (   0.0279335   0.0483823   0.0000000), wk =   0.1111111
        k(    8) = (   0.0279335  -0.1128920   0.0000000), wk =   0.1111111
        k(    9) = (   0.0279335  -0.0806371   0.0000000), wk =   0.1111111
        k(   10) = (   0.0279335  -0.0483823   0.0000000), wk =   0.1111111
        k(   11) = (   0.0558670  -0.0322549   0.0000000), wk =   0.1111111
        k(   12) = (   0.0558670   0.0000000   0.0000000), wk =   0.1111111
        k(   13) = (   0.0558670   0.0322549   0.0000000), wk =   0.1111111
        k(   14) = (   0.0558670  -0.1290194   0.0000000), wk =   0.1111111
        k(   15) = (   0.0558670  -0.0967646   0.0000000), wk =   0.1111111
        k(   16) = (   0.0558670  -0.0645097   0.0000000), wk =   0.1111111
        k(   17) = (  -0.0838006   0.0483823   0.0000000), wk =   0.0555556
        k(   18) = (  -0.0838006   0.0806371   0.0000000), wk =   0.1111111
        k(   19) = (  -0.0838006   0.1128920   0.0000000), wk =   0.1111111
        k(   20) = (  -0.0838006  -0.0483823   0.0000000), wk =   0.0555556

     Largest allocated arrays     est. size (Mb)     dimensions
     Largest temporary arrays     est. size (Mb)     dimensions

     Initial potential from superposition of free atoms
     Check: negative starting charge=   -0.002304

     starting charge  222.99942, renormalised to  229.00000

     negative rho (up, down):  2.366E-03 0.000E+00

     *
     * You are using vdW-DF for exchange-correlation in this calculation.
     * Please cite the following three references that made this development
     * possible:
     *
     *   M. Dion, H. Rydberg, E. Schroder, D. C. Langreth, and
     *   B. I. Lundqvist, Phys. Rev. Lett. 92, 246401 (2004).
     *
     *   T. Thonhauser, V. R. Cooper, S. Li, A. Puzder, P. Hyldgaard, and
     *   D. C. Langreth, Phys. Rev. B 76, 125112 (2007).
     *
     *   G. Roman-Perez and J. M. Soler, Phys. Rev. Lett. 103, 096102 (2009).
     *
     *
     * If you are using vdW-DF2, please also cite:
     *
     *   K. Lee, E. D. Murray, L. Kong, B. I. Lundqvist, and
     *   D. C. Langreth, Phys. Rev. B 82, 081101(R) (2010).
     *
     *
     * If you are calculating the stress with vdW-DF, please also cite:
     *
     *   R. Sabatini, E. Kucukbenli, B. Kolb, T. Thonhauser, and
     *   S. de Gironcoli, J. Phys.: Condens. Matter 24, 424209 (2012).
     *

     Carrying out vdW-DF run using the following parameters:

     Nqs =      20    Nr_points =    1024   r_max =   100.000
     q_mesh =
               0.00001000     0.04494208     0.09755937     0.15916263
               0.23128650     0.31572767     0.41458969     0.53033537
               0.66584808     0.82450364     1.01025438     1.22772762
               1.48234092     1.78043706     2.12944203     2.53805004
               3.01644009     3.57652955     4.23227104     5.00000000

     Gradients computed in reciprocal space

     Adding external electric field

     Computed dipole along edir(3) :
        Dipole               -0.1820 Ry au,         -0.4625 Debye
        Dipole field         -0.0004 Ry au

        Potential amp.        0.0405 Ry
        Total length         45.8256 bohr

     Starting wfc are  157 randomized atomic wfcs

     Self-consistent Calculation

     iteration #  1     ecut=    36.75 Ry     beta=0.30
     Davidson diagonalization with overlap
     ethr =  1.00E-02,  avg # of iterations =  5.8

[...]

     total energy              =   -3557.77510634 Ry
     Harris-Foulkes estimate   =   -3564.28371779 Ry
     estimated scf accuracy    <      14.67911834 Ry

[...]

     End of self-consistent calculation

          k = 0.0000 0.0000 0.0000 ( 19435 PWs)   bands (ev):

   -90.9228 -90.8675 -90.8623 -90.8623 -90.7795 -90.7742 -90.7742 -90.6916
   -90.6862 -90.6862 -90.6315 -90.6272 -54.4393 -54.4393 -54.4144 -54.4082
   -54.3687 -54.3642 -54.3642 -54.3598 -54.3598 -54.3437 -54.3296 -54.3296
   -54.3138 -54.3028 -54.3028 -54.2649 -54.2497 -54.2497 -54.2497 -54.2394
   -54.2394 -54.2360 -54.2174 -54.2174 -54.1723 -54.1692 -54.1676 -54.1675
   -54.1648 -54.1648 -54.1296 -54.1296 -54.1188 -54.1188 -54.1171 -54.0968
    -5.5189  -5.0335  -4.6305  -4.6305  -4.6263  -4.5805  -4.4880  -4.4880
    -4.4770  -4.4252  -4.3887  -4.3887  -4.2697  -4.2243  -4.2243  -3.8085
    -3.6391  -3.6391  -3.5496  -3.5416  -3.5416  -3.4689  -3.4481  -3.4481
    -3.3135  -3.3135  -3.2508  -3.2489  -3.2489  -3.1885  -3.1885  -2.9320
    -2.7335  -2.7335  -2.6598  -2.6249  -2.6220  -2.6220  -2.6079  -2.6079
    -2.4817  -2.3647  -2.3647  -2.3620  -2.3620  -2.1418  -2.1418  -2.1387
    -2.0738  -2.0738  -2.0552  -2.0507  -2.0507  -1.9723  -1.9723  -1.9639
    -1.8559  -1.8189  -1.8189  -1.7821  -1.7628  -1.7628  -1.0371   0.6421
     1.6506   1.6506   1.6596   2.0707   2.3921   2.3921   2.6908   2.8219
     2.8219   4.0649   4.7537   4.7674

[...]

          k =-0.0838 0.0484 0.0000 ( 19500 PWs)   bands (ev):

[...]

     the Fermi energy is     1.1266 ev

!    total energy              =   -3560.98534441 Ry
     Harris-Foulkes estimate   =   -3560.98533754 Ry
     estimated scf accuracy    <       0.00000477 Ry

     The total energy is the sum of the following terms:

     one-electron contribution =  -25775.85545518 Ry
     hartree contribution      =   12878.28921805 Ry
     xc contribution           =    -361.69336662 Ry
     ewald contribution        =    9698.29476953 Ry
     electric field correction =       0.00001965 Ry
     smearing contrib. (-TS)   =      -0.02052983 Ry

     convergence has been achieved in  11 iterations

 BEEF-vdW xc energy contributions
           1 :   -313.441863988492
           2 :    283.791856355278
           3 :   -234.327013344172
           4 :    180.012657102119
           5 :   -134.462117522045
           6 :    104.979656710716
           7 :   -91.1836640530579
           8 :    87.2129445226791
           9 :   -85.8288792579374
          10 :    82.0722951901655
          11 :   -74.7998545896393
          12 :    65.8350210795728
          13 :   -57.8053157825042
          14 :    52.2156894582319
          15 :   -48.8149125394420
          16 :    46.2796855608042
          17 :   -43.4275465712940
          18 :    40.0088742103690
          19 :   -36.6292160557164
          20 :    34.0433645650556
          21 :   -32.4639251118289
          22 :    31.3964588535181
          23 :   -30.0544321241402
          24 :    27.9786408525495
          25 :   -25.3846348960101
          26 :    22.9986314414821
          27 :   -21.5296551910664
          28 :    21.1710622907825
          29 :   -21.4819653706461
          30 :    21.7090653227000
          31 :   -31.2355522736502
          32 :   -22.7130462848648

     Forces acting on atoms (Ry/au):

     negative rho (up, down):  2.204E-03 0.000E+00
     atom    1 type  1   force =    -0.00000042   -0.00000029    0.00067793
     atom    2 type  1   force =     0.00000006    0.00029917   -0.00058344
     atom    3 type  1   force =     0.00025878   -0.00014924   -0.00058349
     atom    4 type  1   force =    -0.00025863   -0.00014939   -0.00058273
     atom    5 type  1   force =    -0.00020521    0.00011788   -0.00323026
     atom    6 type  1   force =     0.00020492    0.00011775   -0.00322983
     atom    7 type  1   force =    -0.00000003    0.00000110    0.00875247
     atom    8 type  1   force =     0.00000029   -0.00023602   -0.00323010
     atom    9 type  1   force =     0.00283594    0.00163660    0.00900240
     atom   10 type  1   force =    -0.00283611    0.00163698    0.00900234
     atom   11 type  1   force =     0.00000017   -0.00327465    0.00900173
     atom   12 type  1   force =     0.00000024    0.00000022   -0.00285946
     atom   13 type  2   force =     0.00000001   -0.00000009   -0.02213757

     Total force =     0.027812     Total SCF correction =     0.002988
     SCF correction compared to forces is large: reduce conv_thr to get better values

     entering subroutine stress ...

     negative rho (up, down):  2.204E-03 0.000E+00
          total   stress  (Ry/bohr**3)                   (kbar)     P=   -6.53
  -0.00005390   0.00000000   0.00000000         -7.93      0.00      0.00
   0.00000000  -0.00005390   0.00000000          0.00     -7.93      0.00
   0.00000000   0.00000000  -0.00002540          0.00      0.00     -3.74

     BFGS Geometry Optimization

     number of scf cycles    =   1
     number of bfgs steps    =   0

     energy   new            =   -3560.9853444058 Ry

     new trust radius        =       0.0221375671 bohr
     new conv_thr            =       0.0000099958 Ry

ATOMIC_POSITIONS (crystal)
Ag1      0.166666667   0.166666667   0.402063960    0   0   0
Ag1      0.666666667   0.166666667   0.402063960    0   0   0
Ag1      0.166666667   0.666666667   0.402063960    0   0   0
Ag1      0.666666667   0.666666667   0.402063960    0   0   0
Ag1      0.833333333   0.333333333   0.500000000    0   0   0
Ag1      0.333333333   0.333333333   0.500000000    0   0   0
Ag1      0.833333333   0.833333333   0.500000000    0   0   0
Ag1      0.333333333   0.833333333   0.500000000    0   0   0
Ag1      0.000167718   0.000167606   0.598127578
Ag1      0.499664641   0.000167645   0.598127577
Ag1      0.000167695   0.499664639   0.598127564
Ag1      0.500000010   0.500000023   0.597875201
H1       0.166666672   0.166666658   0.643461151

     Writing output data file calc.save
     Check: negative starting charge=   -0.002304
     NEW-OLD atomic charge density approx. for the potential
     Check: negative starting charge=   -0.002304

[...]

     energy   old            =   -3560.9853444057 Ry
     energy   new            =   -3560.9860880839 Ry

     CASE: energy  _new < energy  _old

     WARNING: bfgs curvature condition failed, Theta= 0.871
     new trust radius        =       0.0243513238 bohr
     new conv_thr            =       0.0000001000 Ry

[...]

     Threshold (ethr) on eigenvalues was too large:
     Diagonalizing with lowered threshold

     Davidson diagonalization with overlap
     ethr =  7.29E-08,  avg # of iterations =  1.0

[...]

     Total force =     0.023460     Total SCF correction =     0.000894

[...]

     Total force =     0.005024     Total SCF correction =     0.000470

[...]

     number of scf cycles    =  16
     number of bfgs steps    =  15

     energy   old            =   -3560.9922145674 Ry
     energy   new            =   -3560.9922998893 Ry

     CASE: energy  _new < energy  _old

     new trust radius        =       0.0395858928 bohr
     new conv_thr            =       0.0000001000 Ry

ATOMIC_POSITIONS (crystal)
Ag1      0.166666667   0.166666667   0.402063960    0   0   0
Ag1      0.666666667   0.166666667   0.402063960    0   0   0
Ag1      0.166666667   0.666666667   0.402063960    0   0   0
Ag1      0.666666667   0.666666667   0.402063960    0   0   0
Ag1      0.833333333   0.333333333   0.500000000    0   0   0
Ag1      0.333333333   0.333333333   0.500000000    0   0   0
Ag1      0.833333333   0.833333333   0.500000000    0   0   0
Ag1      0.333333333   0.833333333   0.500000000    0   0   0
Ag1     -0.003114893  -0.003115051   0.599028543
Ag1      0.506230163  -0.003115134   0.599028537
Ag1     -0.003114785   0.506229644   0.599028509
Ag1      0.500000223   0.499999636   0.596169449
H1       0.166666709   0.166666516   0.631691784

     Writing output data file calc.save
     Check: negative starting charge=   -0.002348
     NEW-OLD atomic charge density approx. for the potential
     Check: negative starting charge=   -0.002350

[...]

     Self-consistent Calculation

[...]

     Threshold (ethr) on eigenvalues was too large:
     Diagonalizing with lowered threshold

     Davidson diagonalization with overlap
     ethr =  5.16E-08,  avg # of iterations =  1.0

[...]

     total energy              =   -3560.99234714 Ry
     Harris-Foulkes estimate   =   -3560.99234706 Ry
     estimated scf accuracy    <       0.00000040 Ry

     iteration #  6     ecut=    36.75 Ry     beta=0.30
     Davidson diagonalization with overlap
     ethr =  1.73E-10,  avg # of iterations =  2.0

[...]

     negative rho (up, down):  2.224E-03 0.000E+00

     Adding external electric field

     Computed dipole along edir(3) :
        Dipole               -0.0336 Ry au,         -0.0855 Debye
        Dipole field         -0.0001 Ry au

        Potential amp.        0.0075 Ry
        Total length         45.8256 bohr

     End of self-consistent calculation

[...]

          k = 0.0559-0.0645 0.0000 ( 19479 PWs)   bands (ev):

[...]

          k =-0.0838-0.0484 0.0000 ( 19500 PWs)   bands (ev):

   -90.8752 -90.8188 -90.8170 -90.8153 -90.7948 -90.7925 -90.7909 -90.6363
   -90.6347 -90.6329 -90.6070 -90.5987 -54.3848 -54.3735 -54.3700 -54.3462
   -54.3337 -54.3202 -54.3191 -54.3178 -54.3153 -54.3153 -54.3148 -54.3093
   -54.3037 -54.2994 -54.2920 -54.2905 -54.2861 -54.2738 -54.2523 -54.2482
   -54.2453 -54.1668 -54.1516 -54.1407 -54.1388 -54.1348 -54.1155 -54.1138
   -54.1124 -54.1109 -54.1099 -54.1057 -54.1054 -54.0961 -54.0889 -54.0690
    -5.3862  -4.3286  -4.3081  -4.1690  -4.1427  -4.1345  -4.1237  -4.0395
    -4.0182  -3.9357  -3.9256  -3.8967  -3.8696  -3.8211  -3.7757  -3.7163
    -3.7145  -3.5089  -3.4881  -3.4729  -3.4714  -3.4462  -3.4456  -3.3575
    -3.3428  -3.2098  -3.1752  -3.1354  -3.1086  -3.0842  -3.0690  -3.0523
    -2.9858  -2.9297  -2.8808  -2.8353  -2.8289  -2.8002  -2.7927  -2.7771
    -2.7204  -2.7117  -2.6682  -2.6288  -2.6121  -2.5853  -2.5648  -2.5591
    -2.5195  -2.5139  -2.4872  -2.4606  -2.3552  -2.3336  -2.3146  -2.2700
    -2.0591  -2.0491  -2.0116  -1.9969  -1.8829  -1.8762  -1.4521  -1.0912
     0.3735   0.9110   1.0640   1.3680   1.9689   2.1969   3.4500   3.9310
     4.1724   4.3591   6.0305   6.0851

     the Fermi energy is     1.1704 ev

!    total energy              =   -3560.99234716 Ry
     Harris-Foulkes estimate   =   -3560.99234713 Ry
     estimated scf accuracy    <       0.00000005 Ry

     The total energy is the sum of the following terms:

     one-electron contribution =  -25762.46473370 Ry
     hartree contribution      =   12871.71855740 Ry
     xc contribution           =    -361.71990285 Ry
     ewald contribution        =    9691.49369097 Ry
     electric field correction =       0.00000275 Ry
     smearing contrib. (-TS)   =      -0.01996172 Ry

     convergence has been achieved in   6 iterations

 BEEF-vdW xc energy contributions
           1 :   -313.473814544915
           2 :    283.841532812623
           3 :   -234.389180639485
           4 :    180.059292661436
           5 :   -134.462020794313
           6 :    104.920380179808
           7 :   -91.0822954271733
           8 :    87.1081481371032
           9 :   -85.7588595910746
          10 :    82.0536958739598
          11 :   -74.8210703214215
          12 :    65.8672540375212
          13 :   -57.8233256768600
          14 :    52.2136159905687
          15 :   -48.8067210389329
          16 :    46.2854975271096
          17 :   -43.4568198797864
          18 :    40.0524692931635
          19 :   -36.6651517767360
          20 :    34.0514679498201
          21 :   -32.4392699418803
          22 :    31.3534982974555
          23 :   -30.0196147244632
          24 :    27.9758025489253
          25 :   -25.4218684303435
          26 :    23.0641109269432
          27 :   -21.5980707357676
          28 :    21.2158506135236
          29 :   -21.4854567411460
          30 :    21.6646085975157
          31 :   -31.2383913834328
          32 :   -22.7183113585404

     Forces acting on atoms (Ry/au):

     negative rho (up, down):  2.224E-03 0.000E+00
     atom    1 type  1   force =    -0.00000000    0.00000000    0.00198058
     atom    2 type  1   force =     0.00000000    0.00014414   -0.00015279
     atom    3 type  1   force =     0.00012483   -0.00007207   -0.00015279
     atom    4 type  1   force =    -0.00012483   -0.00007207   -0.00015280
     atom    5 type  1   force =     0.00040018   -0.00023106   -0.00329951
     atom    6 type  1   force =    -0.00040017   -0.00023106   -0.00329950
     atom    7 type  1   force =     0.00000002   -0.00000002    0.00760332
     atom    8 type  1   force =     0.00000000    0.00046206   -0.00329942
     atom    9 type  1   force =     0.00016084    0.00009269    0.00020668
     atom   10 type  1   force =    -0.00016095    0.00009278    0.00020672
     atom   11 type  1   force =     0.00000003   -0.00018555    0.00020674
     atom   12 type  1   force =    -0.00000001    0.00000020    0.00035575
     atom   13 type  2   force =     0.00000007   -0.00000004   -0.00020297

     Total force =     0.000632     Total SCF correction =     0.000968
     SCF correction compared to forces is large: reduce conv_thr to get better values

     entering subroutine stress ...

     negative rho (up, down):  2.224E-03 0.000E+00
          total   stress  (Ry/bohr**3)                   (kbar)     P=   -6.33
  -0.00005374  -0.00000000  -0.00000000         -7.90     -0.00     -0.00
  -0.00000000  -0.00005374   0.00000000         -0.00     -7.90      0.00
  -0.00000000   0.00000000  -0.00002158         -0.00      0.00     -3.18

     bfgs converged in  17 scf cycles and  16 bfgs steps
     (criteria: energy <  1.0E+00, force <  1.9E-03)

     End of BFGS Geometry Optimization

     Final energy   =   -3560.9923471627 Ry
Begin final coordinates

ATOMIC_POSITIONS (crystal)
Ag1      0.166666667   0.166666667   0.402063960    0   0   0
Ag1      0.666666667   0.166666667   0.402063960    0   0   0
Ag1      0.166666667   0.666666667   0.402063960    0   0   0
Ag1      0.666666667   0.666666667   0.402063960    0   0   0
Ag1      0.833333333   0.333333333   0.500000000    0   0   0
Ag1      0.333333333   0.333333333   0.500000000    0   0   0
Ag1      0.833333333   0.833333333   0.500000000    0   0   0
Ag1      0.333333333   0.833333333   0.500000000    0   0   0
Ag1     -0.003114893  -0.003115051   0.599028543
Ag1      0.506230163  -0.003115134   0.599028537
Ag1     -0.003114785   0.506229644   0.599028509
Ag1      0.500000223   0.499999636   0.596169449
H1       0.166666709   0.166666516   0.631691784
End final coordinates

     Writing output data file calc.save

     General routines

     Parallel routines

   This run was terminated on:  12: 5:14   4May2018

   JOB DONE.
Job  /afs/slac/g/suncat/bin/suncat-tsmpirun -x LD_LIBRARY_PATH -wdir /scratch/qe936951_vYqEO pw.x -npool 4 -in pw.inp

TID   HOST_NAME   COMMAND_LINE            STATUS            TERMINATION_TIME
00000 suncat0065 pw.x -npool 4 -i  Done                     05/04/2018 12:05:14
00001 suncat0065 pw.x -npool 4 -i  Done                     05/04/2018 12:05:14
00002 suncat0065 pw.x -npool 4 -i  Done                     05/04/2018 12:05:14
00003 suncat0065 pw.x -npool 4 -i  Done                     05/04/2018 12:05:14
00004 suncat0065 pw.x -npool 4 -i  Done                     05/04/2018 12:05:14
00005 suncat0065 pw.x -npool 4 -i  Done                     05/04/2018 12:05:14
00006 suncat0065 pw.x -npool 4 -i  Done                     05/04/2018 12:05:14
00007 suncat0065 pw.x -npool 4 -i  Done                     05/04/2018 12:05:14
00008 suncat0198 pw.x -npool 4 -i  Done                     05/04/2018 12:05:14
00009 suncat0198 pw.x -npool 4 -i  Done                     05/04/2018 12:05:14
00010 suncat0198 pw.x -npool 4 -i  Done                     05/04/2018 12:05:14
00011 suncat0198 pw.x -npool 4 -i  Done                     05/04/2018 12:05:14
00012 suncat0198 pw.x -npool 4 -i  Done                     05/04/2018 12:05:14
00013 suncat0198 pw.x -npool 4 -i  Done                     05/04/2018 12:05:14
00014 suncat0198 pw.x -npool 4 -i  Done                     05/04/2018 12:05:14
00015 suncat0198 pw.x -npool 4 -i  Done                     05/04/2018 12:05:14
00016 suncat0178 pw.x -npool 4 -i  Done                     05/04/2018 12:05:14
00017 suncat0178 pw.x -npool 4 -i  Done                     05/04/2018 12:05:14
00018 suncat0178 pw.x -npool 4 -i  Done                     05/04/2018 12:05:14
00019 suncat0178 pw.x -npool 4 -i  Done                     05/04/2018 12:05:14
00020 suncat0178 pw.x -npool 4 -i  Done                     05/04/2018 12:05:14
00021 suncat0178 pw.x -npool 4 -i  Done                     05/04/2018 12:05:14
00022 suncat0178 pw.x -npool 4 -i  Done                     05/04/2018 12:05:14
00023 suncat0178 pw.x -npool 4 -i  Done                     05/04/2018 12:05:14
00024 suncat0105 pw.x -npool 4 -i  Done                     05/04/2018 12:05:14
00025 suncat0105 pw.x -npool 4 -i  Done                     05/04/2018 12:05:14
00026 suncat0105 pw.x -npool 4 -i  Done                     05/04/2018 12:05:14
00027 suncat0105 pw.x -npool 4 -i  Done                     05/04/2018 12:05:14
00028 suncat0105 pw.x -npool 4 -i  Done                     05/04/2018 12:05:14
00029 suncat0105 pw.x -npool 4 -i  Done                     05/04/2018 12:05:14
00030 suncat0105 pw.x -npool 4 -i  Done                     05/04/2018 12:05:14
00031 suncat0105 pw.x -npool 4 -i  Done                     05/04/2018 12:05:14