     Program PWSCF v.5.1rc2 (svn rev. 11289) starts on  2May2018 at 23:21:24

     Current dimensions of program PWSCF are:
     Max number of different atomic species (ntypx) = 10
     Max number of k-points (npk) =  40000
     Max angular momentum in pseudopotentials (lmaxx) =  3
     Presently stress not available with electric field

     IMPORTANT: XC functional enforced from input :
     Exchange-correlation      = BEEF-VDW ( 1  4 27 13 2)
     Any further DFT definition will be discarded
     Please, verify this is what you really want

     Subspace diagonalization in iterative solution of the eigenvalue problem:
     a serial algorithm will be used

     bravais-lattice index     =            0
     lattice parameter (alat)  =       1.8897  a.u.
     unit-cell volume          =    7725.1200 (a.u.)^3
     number of atoms/cell      =           13
     number of atomic types    =            2
     number of electrons       =       136.00
     number of Kohn-Sham states=           78
     kinetic-energy cutoff     =      36.7493  Ry
     charge density cutoff     =     367.4932  Ry
     convergence threshold     =      1.0E-05
     mixing beta               =       0.3000
     number of iterations used =           10  plain     mixing
     Exchange-correlation      = BEEF-VDW ( 1  4 27 13 2)
     nstep                     =           50

     celldm(1)=   1.889726  celldm(2)=   0.000000  celldm(3)=   0.000000
     celldm(4)=   0.000000  celldm(5)=   0.000000  celldm(6)=   0.000000

     crystal axes: (cart. coord. in units of alat)
               a(1) = (   7.152277   0.000000   0.000000 )
               a(2) = (   3.576139   6.194054   0.000000 )
               a(3) = (   0.000000   0.000000  25.839810 )

     reciprocal axes: (cart. coord. in units 2 pi/alat)
               b(1) = (  0.139816 -0.080723  0.000000 )
               b(2) = (  0.000000  0.161445  0.000000 )
               b(3) = (  0.000000  0.000000  0.038700 )

     PseudoPot. # 1 for Y  read from file:
     /u/if/mamunm/psp/gbrv1.5pbe/Y.UPF
     MD5 check sum: d034151ed7554c50b6e82763ed42c788
     Pseudo is Ultrasoft + core correction, Zval = 11.0
     Generated by new atomic code, or converted to UPF format
     Using radial grid of  885 points,  6 beta functions with:
                l(1) =   0
                l(2) =   0
                l(3) =   1
                l(4) =   1
                l(5) =   2
                l(6) =   2
     Q(r) pseudized with  8 coefficients,  rinner =    1.200   1.200   1.200
                                                       1.200   1.200

     PseudoPot. # 2 for C  read from file:
     /u/if/mamunm/psp/gbrv1.5pbe/C.UPF
     MD5 check sum: d1aef80898a10debaa0f26306b886e00
     Pseudo is Ultrasoft + core correction, Zval =  4.0
     Generated by new atomic code, or converted to UPF format
     Using radial grid of  721 points,  4 beta functions with:
                l(1) =   0
                l(2) =   0
                l(3) =   1
                l(4) =   1
     Q(r) pseudized with  8 coefficients,  rinner =    1.100   1.100   1.100

     vdW kernel table read from file vdW_kernel_table
     MD5 check sum: 095c7af220d748ca6e76c0b4c6cfb241

     atomic species   valence    mass     pseudopotential
        Y1            11.00    88.90584     Y ( 1.00)
        C1             4.00    12.01100     C ( 1.00)

     No symmetry found

   Cartesian axes

     site n.     atom                  positions (alat units)
         1           Y1  tau(   1) = (   1.7880693   1.0323423  10.0000000  )
         2           Y1  tau(   2) = (   5.3642080   1.0323423  10.0000000  )
         3           Y1  tau(   3) = (   3.5761386   4.1293692  10.0000000  )
         4           Y1  tau(   4) = (   7.1522773   4.1293692  10.0000000  )
         5           Y1  tau(   5) = (   7.1522773   2.0646846  12.9199050  )
         6           Y1  tau(   6) = (   3.5761386   2.0646846  12.9199050  )
         7           Y1  tau(   7) = (   8.9403466   5.1617115  12.9199050  )
         8           Y1  tau(   8) = (   5.3642080   5.1617115  12.9199050  )
         9           Y1  tau(   9) = (   0.0000000   0.0000000  15.8398100  )
        10           Y1  tau(  10) = (   3.5761386   0.0000000  15.8398100  )
        11           Y1  tau(  11) = (   1.7880693   3.0970269  15.8398100  )
        12           Y1  tau(  12) = (   5.3642080   3.0970269  15.8398100  )
        13           C1  tau(  13) = (   1.7880693   1.0323423  17.5688100  )

     number of k points=    20  Fermi-Dirac smearing, width (Ry)=  0.0110
                       cart. coord. in units 2pi/alat
        k(    1) = (   0.0000000   0.0000000   0.0000000), wk =   0.0555556
        k(    2) = (   0.0000000   0.0269075   0.0000000), wk =   0.1111111
        k(    3) = (   0.0000000   0.0538151   0.0000000), wk =   0.1111111
        k(    4) = (   0.0000000  -0.0807226   0.0000000), wk =   0.0555556
        k(    5) = (   0.0233026  -0.0134538   0.0000000), wk =   0.1111111
        k(    6) = (   0.0233026   0.0134538   0.0000000), wk =   0.1111111
        k(    7) = (   0.0233026   0.0403613   0.0000000), wk =   0.1111111
        k(    8) = (   0.0233026  -0.0941763   0.0000000), wk =   0.1111111
        k(    9) = (   0.0233026  -0.0672688   0.0000000), wk =   0.1111111
        k(   10) = (   0.0233026  -0.0403613   0.0000000), wk =   0.1111111
        k(   11) = (   0.0466052  -0.0269075   0.0000000), wk =   0.1111111
        k(   12) = (   0.0466052   0.0000000   0.0000000), wk =   0.1111111
        k(   13) = (   0.0466052   0.0269075   0.0000000), wk =   0.1111111
        k(   14) = (   0.0466052  -0.1076301   0.0000000), wk =   0.1111111
        k(   15) = (   0.0466052  -0.0807226   0.0000000), wk =   0.1111111
        k(   16) = (   0.0466052  -0.0538151   0.0000000), wk =   0.1111111
        k(   17) = (  -0.0699078   0.0403613   0.0000000), wk =   0.0555556
        k(   18) = (  -0.0699078   0.0672688   0.0000000), wk =   0.1111111
        k(   19) = (  -0.0699078   0.0941763   0.0000000), wk =   0.1111111
        k(   20) = (  -0.0699078  -0.0403613   0.0000000), wk =   0.0555556

     Largest allocated arrays     est. size (Mb)     dimensions
     Largest temporary arrays     est. size (Mb)     dimensions

     Initial potential from superposition of free atoms
     Check: negative starting charge=   -0.000573

     starting charge  135.94633, renormalised to  136.00000

     negative rho (up, down):  5.736E-04 0.000E+00

     *
     * You are using vdW-DF for exchange-correlation in this calculation.
     * Please cite the following three references that made this development
     * possible:
     *
     *   M. Dion, H. Rydberg, E. Schroder, D. C. Langreth, and
     *   B. I. Lundqvist, Phys. Rev. Lett. 92, 246401 (2004).
     *
     *   T. Thonhauser, V. R. Cooper, S. Li, A. Puzder, P. Hyldgaard, and
     *   D. C. Langreth, Phys. Rev. B 76, 125112 (2007).
     *
     *   G. Roman-Perez and J. M. Soler, Phys. Rev. Lett. 103, 096102 (2009).
     *
     *
     * If you are using vdW-DF2, please also cite:
     *
     *   K. Lee, E. D. Murray, L. Kong, B. I. Lundqvist, and
     *   D. C. Langreth, Phys. Rev. B 82, 081101(R) (2010).
     *
     *
     * If you are calculating the stress with vdW-DF, please also cite:
     *
     *   R. Sabatini, E. Kucukbenli, B. Kolb, T. Thonhauser, and
     *   S. de Gironcoli, J. Phys.: Condens. Matter 24, 424209 (2012).
     *

     Carrying out vdW-DF run using the following parameters:

     Nqs =      20    Nr_points =    1024   r_max =   100.000
     q_mesh =
               0.00001000     0.04494208     0.09755937     0.15916263
               0.23128650     0.31572767     0.41458969     0.53033537
               0.66584808     0.82450364     1.01025438     1.22772762
               1.48234092     1.78043706     2.12944203     2.53805004
               3.01644009     3.57652955     4.23227104     5.00000000

     Gradients computed in reciprocal space

     Adding external electric field

     Computed dipole along edir(3) :
        Dipole               -0.0135 Ry au,         -0.0344 Debye
        Dipole field         -0.0000 Ry au

        Potential amp.        0.0021 Ry
        Total length         47.6094 bohr

     Starting wfc are  160 randomized atomic wfcs

     Self-consistent Calculation

     iteration #  1     ecut=    36.75 Ry     beta=0.30
     Davidson diagonalization with overlap
     ethr =  1.00E-02,  avg # of iterations =  2.0

[...]

     total energy              =   -1132.67492338 Ry
     Harris-Foulkes estimate   =   -1136.06046218 Ry
     estimated scf accuracy    <       7.38123577 Ry

[...]

     End of self-consistent calculation

          k = 0.0000 0.0000 0.0000 ( 28997 PWs)   bands (ev):

   -42.8505 -42.7735 -42.7329 -42.7295 -42.7294 -42.4598 -42.4278 -42.4278
   -42.2586 -42.1973 -42.1716 -42.1715 -22.8906 -22.8792 -22.8791 -22.8778
   -22.8277 -22.8276 -22.8059 -22.7352 -22.7345 -22.7343 -22.6113 -22.5546
   -22.5545 -22.5526 -22.4758 -22.4757 -22.4548 -22.4548 -22.4503 -22.4018
   -22.4017 -22.3274 -22.3141 -22.3141 -22.3041 -22.1562 -22.1439 -22.1438
   -22.1095 -22.0907 -22.0906 -22.0551 -22.0550 -22.0355 -21.9479 -21.9479
    -7.4176  -3.6561  -2.6446  -1.6471  -1.0677  -1.0677  -1.0228  -0.9585
    -0.9585  -0.9065  -0.7087  -0.7087  -0.6534  -0.1388  -0.1014  -0.1014
     0.2154   0.2154   0.2934   0.5998   0.5998   0.7619   0.8796   1.1958
     1.2959   1.3034   1.3034   1.5766   1.6551   1.6551

[...]

          k =-0.0699 0.0404 0.0000 ( 29048 PWs)   bands (ev):

[...]

     the Fermi energy is     0.5741 ev

!    total energy              =   -1135.63739032 Ry
     Harris-Foulkes estimate   =   -1135.63739631 Ry
     estimated scf accuracy    <       0.00000705 Ry

     The total energy is the sum of the following terms:

     one-electron contribution =   -5492.53121166 Ry
     hartree contribution      =    2738.11278805 Ry
     xc contribution           =    -342.20992547 Ry
     ewald contribution        =    1961.12661872 Ry
     electric field correction =       0.00063434 Ry
     smearing contrib. (-TS)   =      -0.13629430 Ry

     convergence has been achieved in  17 iterations

 BEEF-vdW xc energy contributions
           1 :   -298.429071318725
           2 :    268.006561972882
           3 :   -215.610571750196
           4 :    154.100868440752
           5 :   -95.4664065021759
           6 :    47.2541499847172
           7 :   -12.0199741026688
           8 :   -10.9188909732616
           9 :    23.2297936674982
          10 :   -26.3201045044882
          11 :    21.4709045241028
          12 :   -10.6777876331059
          13 :   -2.83914684965930
          14 :    15.0911924267460
          15 :   -22.5894958118993
          16 :    23.6354677216257
          17 :   -18.8071210975421
          18 :    10.3726175397451
          19 :   -1.08337656266553
          20 :   -6.88455192879712
          21 :    12.3376194249772
          22 :   -14.8749817736076
          23 :    14.5257536461086
          24 :   -11.5923976588791
          25 :    6.74367064569628
          26 :   -1.11043571458890
          27 :   -3.88389444387974
          28 :    6.98591897475308
          29 :   -7.61889059833334
          30 :    6.09983716693830
          31 :   -28.6411981447924
          32 :   -19.6008977747919

     Forces acting on atoms (Ry/au):

     negative rho (up, down):  1.171E-04 0.000E+00
     atom    1 type  1   force =    -0.00001663   -0.00000186    0.00421186
     atom    2 type  1   force =     0.00002295   -0.00108646    0.00477917
     atom    3 type  1   force =    -0.00093483    0.00055410    0.00477515
     atom    4 type  1   force =     0.00093725    0.00053546    0.00480458
     atom    5 type  1   force =    -0.00345586    0.00201252   -0.00289922
     atom    6 type  1   force =     0.00346275    0.00199222   -0.00287601
     atom    7 type  1   force =    -0.00002987   -0.00000182   -0.01039765
     atom    8 type  1   force =     0.00002549   -0.00399642   -0.00289272
     atom    9 type  1   force =     0.05011220    0.02893628    0.03747432
     atom   10 type  1   force =    -0.05013053    0.02891616    0.03749374
     atom   11 type  1   force =    -0.00001959   -0.05786977    0.03747938
     atom   12 type  1   force =     0.00002119    0.00001003    0.00538874
     atom   13 type  2   force =     0.00000549   -0.00000044   -0.11734134

     Total force =     0.167510     Total SCF correction =     0.005001

     entering subroutine stress ...

     negative rho (up, down):  1.171E-04 0.000E+00
          total   stress  (Ry/bohr**3)                   (kbar)     P=   -6.97
  -0.00003708  -0.00000000   0.00000000         -5.45     -0.00      0.00
  -0.00000000  -0.00003708  -0.00000000         -0.00     -5.45     -0.00
   0.00000000  -0.00000000  -0.00006793          0.00     -0.00     -9.99

     BFGS Geometry Optimization

     number of scf cycles    =   1
     number of bfgs steps    =   0

     energy   new            =   -1135.6373903183 Ry

     new trust radius        =       0.1173413371 bohr
     new conv_thr            =       0.0000099958 Ry

ATOMIC_POSITIONS (crystal)
Y1       0.166666667   0.166666667   0.386999750    0   0   0
Y1       0.666666667   0.166666667   0.386999750    0   0   0
Y1       0.166666667   0.666666667   0.386999750    0   0   0
Y1       0.666666667   0.666666667   0.386999750    0   0   0
Y1       0.833333333   0.333333333   0.500000000    0   0   0
Y1       0.333333333   0.333333333   0.500000000    0   0   0
Y1       0.833333333   0.833333333   0.500000000    0   0   0
Y1       0.333333333   0.833333333   0.500000000    0   0   0
Y1       0.002471605   0.002472116   0.613767692
Y1       0.495055782   0.002470397   0.613768089
Y1       0.002470548   0.495056006   0.613767795
Y1       0.500001139   0.500000857   0.613110606
C1       0.166667092   0.166666629   0.677509456

     Writing output data file calc.save
     Check: negative starting charge=   -0.000573
     NEW-OLD atomic charge density approx. for the potential
     Check: negative starting charge=   -0.000579

[...]

     energy   old            =   -1135.6373903183 Ry
     energy   new            =   -1135.6648734416 Ry

     CASE: energy  _new < energy  _old

     WARNING: bfgs curvature condition failed, Theta= 0.838
     new trust radius        =       0.1290754708 bohr
     new conv_thr            =       0.0000001000 Ry

[...]

     iteration #  1     ecut=    36.75 Ry     beta=0.30
     Davidson diagonalization with overlap
     c_bands:  1 eigenvalues not converged
     c_bands:  2 eigenvalues not converged
     ethr =  1.00E-06,  avg # of iterations = 17.2

[...]

     WARNING: bfgs curvature condition failed, Theta= 0.972
     new trust radius        =       0.0626110400 bohr
     new conv_thr            =       0.0000001000 Ry

[...]

     Total force =     0.006411     Total SCF correction =     0.000791
     SCF correction compared to forces is large: reduce conv_thr to get better values

[...]

     iteration # 13     ecut=    36.75 Ry     beta=0.30
     Davidson diagonalization with overlap
     c_bands:  1 eigenvalues not converged
     ethr =  1.57E-10,  avg # of iterations =  7.0

[...]

     number of scf cycles    =  17
     number of bfgs steps    =  16

     energy   old            =   -1135.7670436295 Ry
     energy   new            =   -1135.7672464954 Ry

     CASE: energy  _new < energy  _old

     new trust radius        =       0.0203942707 bohr
     new conv_thr            =       0.0000001000 Ry

ATOMIC_POSITIONS (crystal)
Y1       0.166666667   0.166666667   0.386999750    0   0   0
Y1       0.666666667   0.166666667   0.386999750    0   0   0
Y1       0.166666667   0.666666667   0.386999750    0   0   0
Y1       0.666666667   0.666666667   0.386999750    0   0   0
Y1       0.833333333   0.333333333   0.500000000    0   0   0
Y1       0.333333333   0.333333333   0.500000000    0   0   0
Y1       0.833333333   0.833333333   0.500000000    0   0   0
Y1       0.333333333   0.833333333   0.500000000    0   0   0
Y1       0.000123821   0.000119092   0.617135476
Y1       0.499743955   0.000133789   0.617138884
Y1       0.000136154   0.499746594   0.617139169
Y1       0.500003011   0.500009538   0.610410870
C1       0.166659194   0.166660728   0.644184131

     Writing output data file calc.save
     Check: negative starting charge=   -0.000617
     NEW-OLD atomic charge density approx. for the potential
     Check: negative starting charge=   -0.000619

[...]

     Self-consistent Calculation

[...]

     total energy              =   -1135.76730919 Ry
     Harris-Foulkes estimate   =   -1135.76730917 Ry
     estimated scf accuracy    <       0.00000011 Ry

     iteration # 11     ecut=    36.75 Ry     beta=0.30
     Davidson diagonalization with overlap
     ethr =  8.25E-11,  avg # of iterations =  3.8

[...]

     negative rho (up, down):  1.207E-04 0.000E+00

     Adding external electric field

     Computed dipole along edir(3) :
        Dipole               -0.2065 Ry au,         -0.5249 Debye
        Dipole field         -0.0003 Ry au

        Potential amp.        0.0320 Ry
        Total length         47.6094 bohr

     End of self-consistent calculation

[...]

          k = 0.0466-0.0538 0.0000 ( 29098 PWs)   bands (ev):

[...]

          k =-0.0699-0.0404 0.0000 ( 29048 PWs)   bands (ev):

   -42.4576 -42.4438 -42.4349 -42.4183 -42.4135 -41.9891 -41.9388 -41.9262
   -41.9174 -41.7282 -41.7158 -41.7043 -22.5075 -22.4900 -22.4846 -22.4608
   -22.4527 -22.4208 -22.4147 -22.3962 -22.3669 -22.3620 -22.3541 -22.3279
   -22.3224 -22.1942 -22.1885 -22.0455 -22.0276 -21.9733 -21.9481 -21.9351
   -21.8987 -21.8851 -21.8813 -21.8618 -21.8478 -21.8202 -21.7767 -21.7587
   -21.7498 -21.7463 -21.7325 -21.7196 -21.7029 -21.6985 -21.6064 -21.4766
    -7.2234  -2.2482  -2.1217  -1.5268  -1.1613  -0.7388  -0.6548  -0.5506
    -0.3444  -0.3049  -0.2014   0.0395   0.2519   0.2913   0.6079   0.6230
     0.7318   0.7596   0.7917   0.8509   0.9323   0.9442   1.0318   1.1064
     1.1202   1.1668   1.3040   1.4202   1.4351   1.5511

     the Fermi energy is     0.8782 ev

!    total energy              =   -1135.76730922 Ry
     Harris-Foulkes estimate   =   -1135.76730904 Ry
     estimated scf accuracy    <       0.00000001 Ry

     The total energy is the sum of the following terms:

     one-electron contribution =   -5538.59006219 Ry
     hartree contribution      =    2763.03478980 Ry
     xc contribution           =    -342.67234563 Ry
     ewald contribution        =    1982.59494412 Ry
     electric field correction =       0.00006937 Ry
     smearing contrib. (-TS)   =      -0.13470469 Ry

     convergence has been achieved in  11 iterations

 BEEF-vdW xc energy contributions
           1 :   -298.883705696529
           2 :    268.533618892144
           3 :   -216.197183571013
           4 :    154.647254019293
           5 :   -95.8351664207734
           6 :    47.3244481276859
           7 :   -11.7419721002310
           8 :   -11.4856410137486
           9 :    23.9267542732226
          10 :   -26.9612971427960
          11 :    21.9400242601195
          12 :   -10.9842545192379
          13 :   -2.58823511591680
          14 :    14.7824269336000
          15 :   -22.1898459124188
          16 :    23.2119331060385
          17 :   -18.4686186350994
          18 :    10.1820964410398
          19 :   -1.00869947789255
          20 :   -6.94528171368455
          21 :    12.4786818799837
          22 :   -15.1174041426988
          23 :    14.8164158310960
          24 :   -11.8642353227893
          25 :    6.98096612622982
          26 :   -1.36208030137840
          27 :   -3.55126069555109
          28 :    6.55069719332647
          29 :   -7.12915484782621
          30 :    5.64051187423382
          31 :   -28.6721084637816
          32 :   -19.6437129833357

     Forces acting on atoms (Ry/au):

     negative rho (up, down):  1.207E-04 0.000E+00
     atom    1 type  1   force =    -0.00000011    0.00000000    0.00750750
     atom    2 type  1   force =    -0.00000001   -0.00090462    0.00685675
     atom    3 type  1   force =    -0.00078354    0.00045235    0.00685599
     atom    4 type  1   force =     0.00078365    0.00045219    0.00685697
     atom    5 type  1   force =    -0.00585163    0.00337963   -0.00641916
     atom    6 type  1   force =     0.00585592    0.00338103   -0.00641575
     atom    7 type  1   force =    -0.00000248   -0.00000147   -0.00893420
     atom    8 type  1   force =     0.00000082   -0.00675735   -0.00642002
     atom    9 type  1   force =    -0.00081765   -0.00046741   -0.00106006
     atom   10 type  1   force =     0.00081882   -0.00047290   -0.00106260
     atom   11 type  1   force =    -0.00000580    0.00094111   -0.00106132
     atom   12 type  1   force =     0.00000299   -0.00000392    0.00178760
     atom   13 type  2   force =    -0.00000098    0.00000136    0.00150830

     Total force =     0.003394     Total SCF correction =     0.000056

     entering subroutine stress ...

     negative rho (up, down):  1.207E-04 0.000E+00
          total   stress  (Ry/bohr**3)                   (kbar)     P=    0.83
   0.00001921   0.00000000  -0.00000000          2.83      0.00     -0.00
   0.00000000   0.00001921  -0.00000000          0.00      2.83     -0.00
  -0.00000000  -0.00000000  -0.00002143         -0.00     -0.00     -3.15

     bfgs converged in  18 scf cycles and  17 bfgs steps
     (criteria: energy <  1.0E+00, force <  1.9E-03)

     End of BFGS Geometry Optimization

     Final energy   =   -1135.7673092151 Ry
Begin final coordinates

ATOMIC_POSITIONS (crystal)
Y1       0.166666667   0.166666667   0.386999750    0   0   0
Y1       0.666666667   0.166666667   0.386999750    0   0   0
Y1       0.166666667   0.666666667   0.386999750    0   0   0
Y1       0.666666667   0.666666667   0.386999750    0   0   0
Y1       0.833333333   0.333333333   0.500000000    0   0   0
Y1       0.333333333   0.333333333   0.500000000    0   0   0
Y1       0.833333333   0.833333333   0.500000000    0   0   0
Y1       0.333333333   0.833333333   0.500000000    0   0   0
Y1       0.000123821   0.000119092   0.617135476
Y1       0.499743955   0.000133789   0.617138884
Y1       0.000136154   0.499746594   0.617139169
Y1       0.500003011   0.500009538   0.610410870
C1       0.166659194   0.166660728   0.644184131
End final coordinates

     Writing output data file calc.save

     General routines

     Parallel routines

   This run was terminated on:   2:51:22   3May2018

   JOB DONE.
Job  /afs/slac/g/suncat/bin/suncat-tsmpirun -x LD_LIBRARY_PATH -wdir /scratch/qe540905_pjg5r pw.x -npool 4 -in pw.inp

TID   HOST_NAME   COMMAND_LINE            STATUS            TERMINATION_TIME
00000 suncat0002 pw.x -npool 4 -i  Done                     05/03/2018 02:51:22
00001 suncat0002 pw.x -npool 4 -i  Done                     05/03/2018 02:51:22
00002 suncat0002 pw.x -npool 4 -i  Done                     05/03/2018 02:51:22
00003 suncat0002 pw.x -npool 4 -i  Done                     05/03/2018 02:51:22
00004 suncat0002 pw.x -npool 4 -i  Done                     05/03/2018 02:51:22
00005 suncat0002 pw.x -npool 4 -i  Done                     05/03/2018 02:51:22
00006 suncat0002 pw.x -npool 4 -i  Done                     05/03/2018 02:51:22
00007 suncat0002 pw.x -npool 4 -i  Done                     05/03/2018 02:51:22
00008 suncat0185 pw.x -npool 4 -i  Done                     05/03/2018 02:51:22
00009 suncat0185 pw.x -npool 4 -i  Done                     05/03/2018 02:51:22
00010 suncat0185 pw.x -npool 4 -i  Done                     05/03/2018 02:51:22
00011 suncat0185 pw.x -npool 4 -i  Done                     05/03/2018 02:51:22
00012 suncat0185 pw.x -npool 4 -i  Done                     05/03/2018 02:51:22
00013 suncat0185 pw.x -npool 4 -i  Done                     05/03/2018 02:51:22
00014 suncat0185 pw.x -npool 4 -i  Done                     05/03/2018 02:51:22
00015 suncat0185 pw.x -npool 4 -i  Done                     05/03/2018 02:51:22
00016 suncat0184 pw.x -npool 4 -i  Done                     05/03/2018 02:51:22
00017 suncat0184 pw.x -npool 4 -i  Done                     05/03/2018 02:51:22
00018 suncat0184 pw.x -npool 4 -i  Done                     05/03/2018 02:51:22
00019 suncat0184 pw.x -npool 4 -i  Done                     05/03/2018 02:51:22
00020 suncat0184 pw.x -npool 4 -i  Done                     05/03/2018 02:51:22
00021 suncat0184 pw.x -npool 4 -i  Done                     05/03/2018 02:51:22
00022 suncat0184 pw.x -npool 4 -i  Done                     05/03/2018 02:51:22
00023 suncat0184 pw.x -npool 4 -i  Done                     05/03/2018 02:51:22
00024 suncat0171 pw.x -npool 4 -i  Done                     05/03/2018 02:51:22
00025 suncat0171 pw.x -npool 4 -i  Done                     05/03/2018 02:51:22
00026 suncat0171 pw.x -npool 4 -i  Done                     05/03/2018 02:51:22
00027 suncat0171 pw.x -npool 4 -i  Done                     05/03/2018 02:51:22
00028 suncat0171 pw.x -npool 4 -i  Done                     05/03/2018 02:51:22
00029 suncat0171 pw.x -npool 4 -i  Done                     05/03/2018 02:51:22
00030 suncat0171 pw.x -npool 4 -i  Done                     05/03/2018 02:51:22
00031 suncat0171 pw.x -npool 4 -i  Done                     05/03/2018 02:51:22