     Program PWSCF v.5.1rc2 starts on  6Jul2018 at  2: 4:14

     Current dimensions of program PWSCF are:
     Max number of different atomic species (ntypx) = 10
     Max number of k-points (npk) =  40000
     Max angular momentum in pseudopotentials (lmaxx) =  3
     Presently stress not available with electric field

     IMPORTANT: XC functional enforced from input :
     Exchange-correlation      = BEEF-VDW ( 1  4 27 13 2)
     Any further DFT definition will be discarded
     Please, verify this is what you really want

     Generating pointlists ...
     new r_m :   0.4125 (alat units)  0.7795 (a.u.) for type    1
     new r_m :   0.4125 (alat units)  0.7795 (a.u.) for type    2

     bravais-lattice index     =            0
     lattice parameter (alat)  =       1.8897  a.u.
     unit-cell volume          =    3537.7769 (a.u.)^3
     number of atoms/cell      =           13
     number of atomic types    =            2
     number of electrons       =       210.00
     number of Kohn-Sham states=          115
     kinetic-energy cutoff     =      36.7493  Ry
     charge density cutoff     =     367.4932  Ry
     convergence threshold     =      1.0E-05
     mixing beta               =       0.3000
     number of iterations used =           10  plain     mixing
     Exchange-correlation      = BEEF-VDW ( 1  4 27 13 2)
     nstep                     =           50

     celldm(1)=   1.889726  celldm(2)=   0.000000  celldm(3)=   0.000000
     celldm(4)=   0.000000  celldm(5)=   0.000000  celldm(6)=   0.000000

     crystal axes: (cart. coord. in units of alat)
               a(1) = (   5.012549   0.000000   0.000000 )
               a(2) = (   2.506274   4.340995   0.000000 )
               a(3) = (   0.000000   0.000000  24.092729 )

     reciprocal axes: (cart. coord. in units 2 pi/alat)
               b(1) = (  0.199499 -0.115181  0.000000 )
               b(2) = (  0.000000  0.230362  0.000000 )
               b(3) = (  0.000000  0.000000  0.041506 )

     PseudoPot. # 1 for Co read from file:
     /home/users/mamunm/src/pseudo/gbrv1.5pbe/Co.UPF
     MD5 check sum: 5f91765df6ddd3222702df6e7b74a16d
     Pseudo is Ultrasoft + core correction, Zval = 17.0
     Generated by new atomic code, or converted to UPF format
     Using radial grid of  863 points,  6 beta functions with:
                l(1) =   0
                l(2) =   0
                l(3) =   1
                l(4) =   1
                l(5) =   2
                l(6) =   2
     Q(r) pseudized with  8 coefficients,  rinner =    1.200   1.200   1.200
                                                       1.200   1.200

     PseudoPot. # 2 for O  read from file:
     /home/users/mamunm/src/pseudo/gbrv1.5pbe/O.UPF
     MD5 check sum: 734c27235a0248c51dbae37a1fbe46ec
     Pseudo is Ultrasoft + core correction, Zval =  6.0
     Generated by new atomic code, or converted to UPF format
     Using radial grid of  737 points,  5 beta functions with:
                l(1) =   0
                l(2) =   0
                l(3) =   1
                l(4) =   1
                l(5) =   2
     Q(r) pseudized with  8 coefficients,  rinner =    0.900   0.900   0.900
                                                       0.900   0.900

     vdW kernel table read from file vdW_kernel_table
     MD5 check sum: 095c7af220d748ca6e76c0b4c6cfb241

     atomic species   valence    mass     pseudopotential
        Co1           17.00    58.93319     Co( 1.00)
        O1             6.00    15.99900     O ( 1.00)

     Starting magnetic structure
     atomic species   magnetization
        Co1          0.118
        O1           0.000

     No symmetry found

   Cartesian axes

     site n.     atom                  positions (alat units)
         1           Co1 tau(   1) = (   1.2531372   0.7234991  10.0000000  )
         2           Co1 tau(   2) = (   3.7594115   0.7234991  10.0000000  )
         3           Co1 tau(   3) = (   2.5062744   2.8939963  10.0000000  )
         4           Co1 tau(   4) = (   5.0125487   2.8939963  10.0000000  )
         5           Co1 tau(   5) = (   5.0125487   1.4469982  12.0463644  )
         6           Co1 tau(   6) = (   2.5062744   1.4469982  12.0463644  )
         7           Co1 tau(   7) = (   6.2656859   3.6174954  12.0463644  )
         8           Co1 tau(   8) = (   3.7594115   3.6174954  12.0463644  )
         9           Co1 tau(   9) = (   0.0000000   0.0000000  14.0927289  )
        10           Co1 tau(  10) = (   2.5062744   0.0000000  14.0927289  )
        11           Co1 tau(  11) = (   1.2531372   2.1704973  14.0927289  )
        12           Co1 tau(  12) = (   3.7594115   2.1704973  14.0927289  )
        13           O1  tau(  13) = (   1.2531372   0.7234991  15.3407289  )

     number of k points=    40  Fermi-Dirac smearing, width (Ry)=  0.0110
                       cart. coord. in units 2pi/alat
        k(    1) = (   0.0000000   0.0000000   0.0000000), wk =   0.0277778
        k(    2) = (   0.0000000   0.0383937   0.0000000), wk =   0.0555556
        k(    3) = (   0.0000000   0.0767873   0.0000000), wk =   0.0555556
        k(    4) = (   0.0000000  -0.1151810   0.0000000), wk =   0.0277778
        k(    5) = (   0.0332499  -0.0191968   0.0000000), wk =   0.0555556
        k(    6) = (   0.0332499   0.0191968   0.0000000), wk =   0.0555556
        k(    7) = (   0.0332499   0.0575905   0.0000000), wk =   0.0555556
        k(    8) = (   0.0332499  -0.1343778   0.0000000), wk =   0.0555556
        k(    9) = (   0.0332499  -0.0959841   0.0000000), wk =   0.0555556
        k(   10) = (   0.0332499  -0.0575905   0.0000000), wk =   0.0555556
        k(   11) = (   0.0664998  -0.0383937   0.0000000), wk =   0.0555556
        k(   12) = (   0.0664998  -0.0000000   0.0000000), wk =   0.0555556
        k(   13) = (   0.0664998   0.0383937   0.0000000), wk =   0.0555556
        k(   14) = (   0.0664998  -0.1535746   0.0000000), wk =   0.0555556
        k(   15) = (   0.0664998  -0.1151810   0.0000000), wk =   0.0555556
        k(   16) = (   0.0664998  -0.0767873   0.0000000), wk =   0.0555556
        k(   17) = (  -0.0997497   0.0575905   0.0000000), wk =   0.0277778
        k(   18) = (  -0.0997497   0.0959841   0.0000000), wk =   0.0555556
        k(   19) = (  -0.0997497   0.1343778   0.0000000), wk =   0.0555556
        k(   20) = (  -0.0997497  -0.0575905   0.0000000), wk =   0.0277778
        k(   21) = (   0.0000000   0.0000000   0.0000000), wk =   0.0277778
        k(   22) = (   0.0000000   0.0383937   0.0000000), wk =   0.0555556
        k(   23) = (   0.0000000   0.0767873   0.0000000), wk =   0.0555556
        k(   24) = (   0.0000000  -0.1151810   0.0000000), wk =   0.0277778
        k(   25) = (   0.0332499  -0.0191968   0.0000000), wk =   0.0555556
        k(   26) = (   0.0332499   0.0191968   0.0000000), wk =   0.0555556
        k(   27) = (   0.0332499   0.0575905   0.0000000), wk =   0.0555556
        k(   28) = (   0.0332499  -0.1343778   0.0000000), wk =   0.0555556
        k(   29) = (   0.0332499  -0.0959841   0.0000000), wk =   0.0555556
        k(   30) = (   0.0332499  -0.0575905   0.0000000), wk =   0.0555556
        k(   31) = (   0.0664998  -0.0383937   0.0000000), wk =   0.0555556
        k(   32) = (   0.0664998  -0.0000000   0.0000000), wk =   0.0555556
        k(   33) = (   0.0664998   0.0383937   0.0000000), wk =   0.0555556
        k(   34) = (   0.0664998  -0.1535746   0.0000000), wk =   0.0555556
        k(   35) = (   0.0664998  -0.1151810   0.0000000), wk =   0.0555556
        k(   36) = (   0.0664998  -0.0767873   0.0000000), wk =   0.0555556
        k(   37) = (  -0.0997497   0.0575905   0.0000000), wk =   0.0277778
        k(   38) = (  -0.0997497   0.0959841   0.0000000), wk =   0.0555556
        k(   39) = (  -0.0997497   0.1343778   0.0000000), wk =   0.0555556
        k(   40) = (  -0.0997497  -0.0575905   0.0000000), wk =   0.0277778

     Largest allocated arrays     est. size (Mb)     dimensions
     Largest temporary arrays     est. size (Mb)     dimensions

     Check: negative/imaginary core charge=   -0.000007    0.000000

     Initial potential from superposition of free atoms
     Check: negative starting charge=(component1):   -0.000253
     Check: negative starting charge=(component2):   -0.000216

     starting charge  197.99991, renormalised to  210.00000

     negative rho (up, down):  2.681E-04 2.293E-04

     *
     * You are using vdW-DF for exchange-correlation in this calculation.
     * Please cite the following three references that made this development
     * possible:
     *
     *   M. Dion, H. Rydberg, E. Schroder, D. C. Langreth, and
     *   B. I. Lundqvist, Phys. Rev. Lett. 92, 246401 (2004).
     *
     *   T. Thonhauser, V. R. Cooper, S. Li, A. Puzder, P. Hyldgaard, and
     *   D. C. Langreth, Phys. Rev. B 76, 125112 (2007).
     *
     *   G. Roman-Perez and J. M. Soler, Phys. Rev. Lett. 103, 096102 (2009).
     *
     *
     * If you are using vdW-DF2, please also cite:
     *
     *   K. Lee, E. D. Murray, L. Kong, B. I. Lundqvist, and
     *   D. C. Langreth, Phys. Rev. B 82, 081101(R) (2010).
     *
     *
     * If you are calculating the stress with vdW-DF, please also cite:
     *
     *   R. Sabatini, E. Kucukbenli, B. Kolb, T. Thonhauser, and
     *   S. de Gironcoli, J. Phys.: Condens. Matter 24, 424209 (2012).
     *

     Carrying out vdW-DF run using the following parameters:

     Nqs =      20    Nr_points =    1024   r_max =   100.000
     q_mesh =
               0.00001000     0.04494208     0.09755937     0.15916263
               0.23128650     0.31572767     0.41458969     0.53033537
               0.66584808     0.82450364     1.01025438     1.22772762
               1.48234092     1.78043706     2.12944203     2.53805004
               3.01644009     3.57652955     4.23227104     5.00000000

     Gradients computed in reciprocal space

     Adding external electric field

     Computed dipole along edir(3) :
        Dipole               -2.2638 Ry au,         -5.7540 Debye
        Dipole field         -0.0080 Ry au

        Potential amp.        0.7139 Ry
        Total length         44.3904 bohr

[...]

     Starting wfc are  160 randomized atomic wfcs

     Self-consistent Calculation

     iteration #  1     ecut=    36.75 Ry     beta=0.30
     Davidson diagonalization with overlap
     ethr =  1.00E-02,  avg # of iterations =  8.2

[...]

     Magnetic moment per site:
     atom:    1    charge:    8.2643    magn:    0.8671    constr:    0.0000
     atom:    2    charge:    8.2653    magn:    0.8677    constr:    0.0000
     atom:    3    charge:    8.2652    magn:    0.8677    constr:    0.0000
     atom:    4    charge:    8.2654    magn:    0.8677    constr:    0.0000
     atom:    5    charge:    7.9950    magn:    0.8500    constr:    0.0000
     atom:    6    charge:    7.9950    magn:    0.8500    constr:    0.0000
     atom:    7    charge:    8.0001    magn:    0.8508    constr:    0.0000
     atom:    8    charge:    7.9950    magn:    0.8500    constr:    0.0000
     atom:    9    charge:    7.6654    magn:    0.7557    constr:    0.0000
[...]
     Harris-Foulkes estimate   =   -3615.90184773 Ry
     estimated scf accuracy    <    1299.94119752 Ry

     total magnetization       =     9.06 Bohr mag/cell
     absolute magnetization    =    10.02 Bohr mag/cell

     iteration #  2     ecut=    36.75 Ry     beta=0.30
     Davidson diagonalization with overlap
     c_bands:  5 eigenvalues not converged
     ethr =  1.00E-02,  avg # of iterations = 24.7

[...]

     iteration #  3     ecut=    36.75 Ry     beta=0.30
     Davidson diagonalization with overlap
     c_bands:  2 eigenvalues not converged
     c_bands:  1 eigenvalues not converged
     c_bands:  3 eigenvalues not converged
     c_bands:  1 eigenvalues not converged
     c_bands:  1 eigenvalues not converged
     c_bands:  2 eigenvalues not converged
     c_bands:  3 eigenvalues not converged
     c_bands:  3 eigenvalues not converged
     c_bands:  2 eigenvalues not converged
     c_bands:  2 eigenvalues not converged
     c_bands:  1 eigenvalues not converged
     c_bands:  1 eigenvalues not converged
     c_bands:  2 eigenvalues not converged
     c_bands:  2 eigenvalues not converged
     c_bands:  1 eigenvalues not converged
     ethr =  1.00E-02,  avg # of iterations = 19.1

[...]

     End of self-consistent calculation

 ------ SPIN UP ------------

          k = 0.0000 0.0000 0.0000 ( 13257 PWs)   bands (ev):

   -95.9158 -95.8895 -95.8886 -95.8025 -95.7796 -95.7511 -95.7492 -95.7476
   -95.7000 -95.6673 -95.6517 -95.6505 -59.3041 -59.2687 -59.2514 -59.2510
   -59.2218 -59.1806 -59.1799 -59.1641 -59.1626 -59.0988 -59.0907 -59.0749
   -59.0699 -59.0692 -59.0389 -59.0386 -59.0060 -59.0010 -59.0009 -58.9967
   -58.9964 -58.9842 -58.9739 -58.9640 -58.9629 -58.9457 -58.9090 -58.9077
   -58.8529 -58.8458 -58.8452 -58.8432 -58.8429 -58.8326 -58.7849 -58.7848
   -18.0665  -7.4001  -5.5695  -4.8261  -4.8259  -4.8241  -4.4127  -4.3130
    -4.2682  -4.2681  -4.0314  -3.9160  -3.9159  -3.7790  -3.7789  -3.6711
    -3.4270  -3.4269  -3.0899  -2.7912  -2.7909  -2.4640  -2.4471  -2.4471
    -2.3934  -2.2821  -2.2193  -2.2193  -2.0437  -2.0435  -2.0379  -1.9413
    -1.9410  -1.9090  -1.8839  -1.8838  -1.7391  -1.6274  -1.6268  -1.2270
    -1.2267  -1.2217  -1.1925  -1.1923  -0.9750  -0.9745  -0.8296  -0.8293
    -0.7454  -0.6456  -0.6284  -0.6280  -0.5723  -0.5721  -0.5000  -0.3794
    -0.3469  -0.3466  -0.2712  -0.2705  -0.2249  -0.1143  -0.1138  -0.1022
    -0.0011   0.0323   0.0331

[...]

          k =-0.0997 0.0576 0.0000 ( 13378 PWs)   bands (ev):

[...]

 ------ SPIN DOWN ----------

[...]

     the Fermi energy is     0.6312 ev

!    total energy              =   -3626.89067273 Ry
     Harris-Foulkes estimate   =   -3626.89068359 Ry
     estimated scf accuracy    <       0.00000712 Ry

     The total energy is the sum of the following terms:

     one-electron contribution =  -32107.44249116 Ry
     hartree contribution      =   16060.83454995 Ry
     xc contribution           =    -412.81301088 Ry
     ewald contribution        =   12832.60758230 Ry
     electric field correction =       0.00012464 Ry
     smearing contrib. (-TS)   =      -0.07742758 Ry

[...]

     convergence has been achieved in  66 iterations

 BEEF-vdW xc energy contributions
           1 :   -363.408450717608
           2 :    329.220333730952
           3 :   -271.140385463127
           4 :    204.861904630996
           5 :   -144.789759337323
           6 :    98.9639445983794
           7 :   -67.7423128867836
           8 :    46.2039819216265
           9 :   -28.4260857645966
          10 :    11.0659378921816
          11 :    5.47685401086949
          12 :   -18.4483574946950
          13 :    25.3139570193333
          14 :   -25.7373817074052
          15 :    21.8391737528847
          16 :   -16.8713370320987
          17 :    13.3544533766540
          18 :   -11.9154034138854
          19 :    11.4361036468144
          20 :   -10.2484389160974
          21 :    7.46669178311612
          22 :   -3.59918226003884
          23 :   0.129330681775855
          24 :    1.53126354687680
          25 :  -0.977015015165875
          26 :  -0.980584649713478
          27 :    2.89385249653964
          28 :   -3.61750810222065
          29 :    2.96368625812033
          30 :   -1.68745041244858
          31 :   -30.9051783733574
          32 :   -21.4003170903712

     Forces acting on atoms (Ry/au):

     negative rho (up, down):  7.094E-04 3.752E-04
     atom    1 type  1   force =     0.00009943    0.00005744    0.00968435
     atom    2 type  1   force =    -0.00009943   -0.00240012    0.01125509
     atom    3 type  1   force =    -0.00213220    0.00111650    0.01125972
     atom    4 type  1   force =     0.00214144    0.00123172    0.01114292
     atom    5 type  1   force =    -0.00135011    0.00057661   -0.00324862
     atom    6 type  1   force =     0.00135846    0.00079350   -0.00344000
     atom    7 type  1   force =     0.00018646    0.00010523   -0.01203170
     atom    8 type  1   force =    -0.00018588   -0.00147438   -0.00326821
     atom    9 type  1   force =    -0.00519170   -0.00300344    0.01570332
     atom   10 type  1   force =     0.00522562   -0.00289050    0.01559712
     atom   11 type  1   force =     0.00012005    0.00592632    0.01558525
     atom   12 type  1   force =    -0.00010981   -0.00007152   -0.02202257
     atom   13 type  2   force =    -0.00006231    0.00003264   -0.04621667

     Total force =     0.058826     Total SCF correction =     0.005680

     entering subroutine stress ...

     negative rho (up, down):  7.094E-04 3.752E-04
          total   stress  (Ry/bohr**3)                   (kbar)     P=  -22.30
  -0.00016187   0.00000005   0.00000007        -23.81      0.01      0.01
   0.00000005  -0.00016184  -0.00000003          0.01    -23.81     -0.00
   0.00000007  -0.00000003  -0.00013113          0.01     -0.00    -19.29

     BFGS Geometry Optimization

     number of scf cycles    =   1
     number of bfgs steps    =   0

     energy   new            =   -3626.8906727311 Ry

     new trust radius        =       0.0462167239 bohr
     new conv_thr            =       0.0000099958 Ry

ATOMIC_POSITIONS (crystal)
Co1      0.166666667   0.166666667   0.415062986    0   0   0
Co1      0.666666667   0.166666667   0.415062986    0   0   0
Co1      0.166666667   0.666666667   0.415062986    0   0   0
Co1      0.666666667   0.666666667   0.415062986    0   0   0
Co1      0.833333333   0.333333333   0.500000000    0   0   0
Co1      0.333333333   0.333333333   0.500000000    0   0   0
Co1      0.833333333   0.833333333   0.500000000    0   0   0
Co1      0.333333333   0.833333333   0.500000000    0   0   0
Co1     -0.000365028  -0.000366126   0.585281924
Co1      0.500727850  -0.000352359   0.585279592
Co1     -0.000348542   0.500722432   0.585279331
Co1      0.499992766   0.499991282   0.584453306
O1       0.166658099   0.166670645   0.635721763

     Writing output data file calc.save
     Check: negative starting charge=(component1):   -0.000468
     NEW-OLD atomic charge density approx. for the potential

     Check: negative/imaginary core charge=   -0.000007    0.000000
     Check: negative starting charge=(component1):   -0.000459

[...]

     Total force =     0.042017     Total SCF correction =     0.008398
     SCF correction compared to forces is large: reduce conv_thr to get better values

[...]

     energy   old            =   -3626.8906727311 Ry
     energy   new            =   -3626.8936166741 Ry

     CASE: energy  _new < energy  _old

[...]

     Total force =     0.005561     Total SCF correction =     0.000549

[...]

     number of scf cycles    =   9
     number of bfgs steps    =   8

     energy   old            =   -3626.8991586741 Ry
     energy   new            =   -3626.8991921786 Ry

     CASE: energy  _new < energy  _old

     new trust radius        =       0.0030584675 bohr
     new conv_thr            =       0.0000001000 Ry

ATOMIC_POSITIONS (crystal)
Co1      0.166666667   0.166666667   0.415062986    0   0   0
Co1      0.666666667   0.166666667   0.415062986    0   0   0
Co1      0.166666667   0.666666667   0.415062986    0   0   0
Co1      0.666666667   0.666666667   0.415062986    0   0   0
Co1      0.833333333   0.333333333   0.500000000    0   0   0
Co1      0.333333333   0.333333333   0.500000000    0   0   0
Co1      0.833333333   0.833333333   0.500000000    0   0   0
Co1      0.333333333   0.833333333   0.500000000    0   0   0
Co1     -0.004465801  -0.004465840   0.585635414
Co1      0.508933604  -0.004471116   0.585637785
Co1     -0.004468094   0.508928894   0.585635016
Co1      0.500013991   0.499996834   0.580505375
O1       0.166661615   0.166668872   0.632237409

     Writing output data file calc.save
     Check: negative starting charge=(component1):   -0.000457
     NEW-OLD atomic charge density approx. for the potential

     Check: negative/imaginary core charge=   -0.000007    0.000000
     Check: negative starting charge=(component1):   -0.000457

[...]

     Self-consistent Calculation

[...]

     total energy              =   -3626.89920256 Ry
     Harris-Foulkes estimate   =   -3626.89920254 Ry
     estimated scf accuracy    <       0.00000043 Ry

[...]

     iteration # 16     ecut=    36.75 Ry     beta=0.30
     Davidson diagonalization with overlap
     ethr =  7.15E-11,  avg # of iterations =  2.2

[...]

     negative rho (up, down):  6.919E-04 3.691E-04

[...]

     Adding external electric field

     Computed dipole along edir(3) :
        Dipole               -0.1459 Ry au,         -0.3708 Debye
        Dipole field         -0.0005 Ry au

        Potential amp.        0.0460 Ry
        Total length         44.3904 bohr

     Magnetic moment per site:
     atom:    1    charge:    8.2919    magn:    0.9820    constr:    0.0000
     atom:    2    charge:    8.2919    magn:    0.9683    constr:    0.0000
     atom:    3    charge:    8.2919    magn:    0.9682    constr:    0.0000
     atom:    4    charge:    8.2918    magn:    0.9683    constr:    0.0000
     atom:    5    charge:    8.2779    magn:    0.9980    constr:    0.0000
     atom:    6    charge:    8.2778    magn:    0.9981    constr:    0.0000
     atom:    7    charge:    8.2762    magn:    0.9534    constr:    0.0000
     atom:    8    charge:    8.2779    magn:    0.9980    constr:    0.0000
     atom:    9    charge:    8.2382    magn:    0.8851    constr:    0.0000
     atom:   10    charge:    8.2381    magn:    0.8851    constr:    0.0000
     atom:   11    charge:    8.2382    magn:    0.8850    constr:    0.0000
     atom:   12    charge:    7.9680    magn:    0.9892    constr:    0.0000
     atom:   13    charge:    1.9905    magn:    0.0518    constr:    0.0000

     End of self-consistent calculation

 ------ SPIN UP ------------

[...]

 ------ SPIN DOWN ----------

[...]

          k = 0.0665-0.0768 0.0000 ( 13313 PWs)   bands (ev):

[...]

          k =-0.0997-0.0576 0.0000 ( 13378 PWs)   bands (ev):

   -93.4995 -93.4867 -93.4784 -93.3987 -93.3773 -93.3657 -93.3593 -93.1975
   -93.1948 -93.1799 -93.1778 -93.1470 -57.0872 -57.0229 -56.9822 -56.8300
   -56.8189 -56.8167 -56.8044 -56.7866 -56.7765 -56.7643 -56.7568 -56.7535
   -56.7419 -56.7239 -56.7199 -56.7068 -56.6973 -56.6742 -56.6689 -56.6473
   -56.6433 -56.6208 -56.6185 -56.5601 -56.5561 -56.5438 -56.5407 -56.5141
   -56.5046 -56.4930 -56.4895 -56.4894 -56.4847 -56.4764 -56.4697 -56.4688
   -18.2039  -5.7402  -5.5589  -4.6333  -4.4353  -4.2999  -3.5188  -3.2242
    -2.8947  -2.8702  -2.4292  -2.4000  -2.3140  -2.1748  -1.8532  -1.7920
    -1.7043  -1.7008  -1.4935  -1.4697  -1.2524  -1.1820  -1.1649  -1.1480
    -1.1014  -1.0572  -0.8526  -0.7494  -0.7148  -0.6179  -0.5756  -0.5644
    -0.4956  -0.4354  -0.3080  -0.1544  -0.1479  -0.1168  -0.0471   0.0049
     0.1165   0.2226   0.3319   0.4923   0.5236   0.5354   0.6077   0.6168
     0.7391   0.7669   0.8358   0.8686   0.9267   0.9546   1.1168   1.1244
     1.1877   1.2808   1.2865   1.3512   1.3874   1.6009   1.6017   1.7191
     1.8119   1.9167   2.0332

     the Fermi energy is     0.7086 ev

!    total energy              =   -3626.89920255 Ry
     Harris-Foulkes estimate   =   -3626.89920286 Ry
     estimated scf accuracy    <       0.00000004 Ry

     The total energy is the sum of the following terms:

     one-electron contribution =  -32217.93199091 Ry
     hartree contribution      =   16116.46801837 Ry
     xc contribution           =    -412.88845166 Ry
     ewald contribution        =   12887.53045701 Ry
     electric field correction =       0.00007561 Ry
     smearing contrib. (-TS)   =      -0.07731097 Ry

     total magnetization       =    19.81 Bohr mag/cell
     absolute magnetization    =    22.35 Bohr mag/cell

     convergence has been achieved in  16 iterations

 BEEF-vdW xc energy contributions
           1 :   -363.490288645988
           2 :    329.337046969151
           3 :   -271.284679411809
           4 :    204.984460008110
           5 :   -144.834495577293
           6 :    98.9076132405806
           7 :   -67.6118360445913
           8 :    46.0620647308822
           9 :   -28.3346670070056
          10 :    11.0511038418239
          11 :    5.43737584354562
          12 :   -18.4066659449417
          13 :    25.3148860505791
          14 :   -25.7885813164550
          15 :    21.9082035204409
          16 :   -16.9103329417653
          17 :    13.3353125846802
          18 :   -11.8507322339039
          19 :    11.3711889321922
          20 :   -10.2307563733777
          21 :    7.51485228773663
          22 :   -3.69154564070988
          23 :   0.218100486747574
          24 :    1.49024621795201
          25 :  -0.997005935465609
          26 :  -0.924514506355592
          27 :    2.84775671607065
          28 :   -3.61804351064268
          29 :    3.01389298868776
          30 :   -1.75493293943441
          31 :   -30.9112715287885
          32 :   -21.4113190579911

     Forces acting on atoms (Ry/au):

     negative rho (up, down):  6.919E-04 3.691E-04
     atom    1 type  1   force =     0.00002296    0.00002360    0.00889811
     atom    2 type  1   force =    -0.00002222   -0.00174825    0.01110151
     atom    3 type  1   force =    -0.00153390    0.00084955    0.01109155
     atom    4 type  1   force =     0.00153390    0.00087507    0.01106407
     atom    5 type  1   force =     0.00283424   -0.00163773   -0.00933819
     atom    6 type  1   force =    -0.00283119   -0.00163870   -0.00932676
     atom    7 type  1   force =    -0.00000314    0.00000465   -0.01305888
     atom    8 type  1   force =     0.00000217    0.00327445   -0.00932791
     atom    9 type  1   force =     0.00015490    0.00008847   -0.00002851
     atom   10 type  1   force =    -0.00014953    0.00013282   -0.00006705
     atom   11 type  1   force =     0.00004063   -0.00019680   -0.00006217
     atom   12 type  1   force =    -0.00004845   -0.00002576    0.00063276
     atom   13 type  2   force =    -0.00000037   -0.00000137   -0.00157853

     Total force =     0.001737     Total SCF correction =     0.000390
     SCF correction compared to forces is large: reduce conv_thr to get better values

     entering subroutine stress ...

     negative rho (up, down):  6.919E-04 3.691E-04
          total   stress  (Ry/bohr**3)                   (kbar)     P=  -19.99
  -0.00015493   0.00000000   0.00000001        -22.79      0.00      0.00
   0.00000000  -0.00015494   0.00000001          0.00    -22.79      0.00
   0.00000001   0.00000001  -0.00009783          0.00      0.00    -14.39

     bfgs converged in  10 scf cycles and   9 bfgs steps
     (criteria: energy <  1.0E+00, force <  1.9E-03)

     End of BFGS Geometry Optimization

     Final energy   =   -3626.8992025483 Ry
Begin final coordinates

ATOMIC_POSITIONS (crystal)
Co1      0.166666667   0.166666667   0.415062986    0   0   0
Co1      0.666666667   0.166666667   0.415062986    0   0   0
Co1      0.166666667   0.666666667   0.415062986    0   0   0
Co1      0.666666667   0.666666667   0.415062986    0   0   0
Co1      0.833333333   0.333333333   0.500000000    0   0   0
Co1      0.333333333   0.333333333   0.500000000    0   0   0
Co1      0.833333333   0.833333333   0.500000000    0   0   0
Co1      0.333333333   0.833333333   0.500000000    0   0   0
Co1     -0.004465801  -0.004465840   0.585635414
Co1      0.508933604  -0.004471116   0.585637785
Co1     -0.004468094   0.508928894   0.585635016
Co1      0.500013991   0.499996834   0.580505375
O1       0.166661615   0.166668872   0.632237409
End final coordinates

     Writing output data file calc.save

     General routines

     Parallel routines

   This run was terminated on:   3:10:26   6Jul2018

   JOB DONE.