     Program PWSCF v.5.1rc2 (svn rev. 11289) starts on 20Jan2018 at 17:47:51

     Current dimensions of program PWSCF are:
     Max number of different atomic species (ntypx) = 10
     Max number of k-points (npk) =  40000
     Max angular momentum in pseudopotentials (lmaxx) =  3
     Presently stress not available with electric field

     IMPORTANT: XC functional enforced from input :
     Exchange-correlation      = BEEF-VDW ( 1  4 27 13 2)
     Any further DFT definition will be discarded
     Please, verify this is what you really want

     Subspace diagonalization in iterative solution of the eigenvalue problem:
     a serial algorithm will be used

     bravais-lattice index     =            0
     lattice parameter (alat)  =       1.8897  a.u.
     unit-cell volume          =    4481.2752 (a.u.)^3
     number of atoms/cell      =           13
     number of atomic types    =            2
     number of electrons       =       198.00
     number of Kohn-Sham states=          109
     kinetic-energy cutoff     =      36.7493  Ry
     charge density cutoff     =     367.4932  Ry
     convergence threshold     =      1.0E-05
     mixing beta               =       0.3000
     number of iterations used =           10  plain     mixing
     Exchange-correlation      = BEEF-VDW ( 1  4 27 13 2)
     nstep                     =           50

     celldm(1)=   1.889726  celldm(2)=   0.000000  celldm(3)=   0.000000
     celldm(4)=   0.000000  celldm(5)=   0.000000  celldm(6)=   0.000000

     crystal axes: (cart. coord. in units of alat)
               a(1) = (   5.587338   0.000000   0.000000 )
               a(2) = (   2.793669   4.838777   0.000000 )
               a(3) = (   0.000000   0.000000  24.562042 )

     reciprocal axes: (cart. coord. in units 2 pi/alat)
               b(1) = (  0.178976 -0.103332  0.000000 )
               b(2) = (  0.000000  0.206664  0.000000 )
               b(3) = (  0.000000  0.000000  0.040713 )

     PseudoPot. # 1 for Pt read from file:
     /afs/slac.stanford.edu/u/if/mamunm/psp/gbrv1.5pbe/Pt.UPF
     MD5 check sum: f09d6de1a584b5a045c4fc126da2d0c4
     Pseudo is Ultrasoft + core correction, Zval = 16.0
     Generated by new atomic code, or converted to UPF format
     Using radial grid of  985 points,  6 beta functions with:
                l(1) =   0
                l(2) =   0
                l(3) =   1
                l(4) =   1
                l(5) =   2
                l(6) =   2
     Q(r) pseudized with  8 coefficients,  rinner =    1.300   1.300   1.300
                                                       1.300   1.300

     PseudoPot. # 2 for S  read from file:
     /afs/slac.stanford.edu/u/if/mamunm/psp/gbrv1.5pbe/S.UPF
     MD5 check sum: 88d86576ff6df21479756cfb9bdac1df
     Pseudo is Ultrasoft + core correction, Zval =  6.0
     Generated by new atomic code, or converted to UPF format
     Using radial grid of  907 points,  6 beta functions with:
                l(1) =   0
                l(2) =   0
                l(3) =   1
                l(4) =   1
                l(5) =   2
                l(6) =   2
     Q(r) pseudized with  8 coefficients,  rinner =    1.300   1.300   1.300
                                                       1.300   1.300

     vdW kernel table read from file vdW_kernel_table
     MD5 check sum: 095c7af220d748ca6e76c0b4c6cfb241

     atomic species   valence    mass     pseudopotential
        Pt1           16.00   195.08400     Pt( 1.00)
        S1             6.00    32.06000     S ( 1.00)

     No symmetry found

   Cartesian axes

     site n.     atom                  positions (alat units)
         1           Pt1 tau(   1) = (   1.3968345   0.8064628  10.0000000  )
         2           Pt1 tau(   2) = (   4.1905036   0.8064628  10.0000000  )
         3           Pt1 tau(   3) = (   2.7936691   3.2258512  10.0000000  )
         4           Pt1 tau(   4) = (   5.5873381   3.2258512  10.0000000  )
         5           Pt1 tau(   5) = (   5.5873381   1.6129256  12.2810212  )
         6           Pt1 tau(   6) = (   2.7936691   1.6129256  12.2810212  )
         7           Pt1 tau(   7) = (   6.9841727   4.0323140  12.2810212  )
         8           Pt1 tau(   8) = (   4.1905036   4.0323140  12.2810212  )
         9           Pt1 tau(   9) = (   0.0000000   0.0000000  14.5620425  )
        10           Pt1 tau(  10) = (   2.7936691   0.0000000  14.5620425  )
        11           Pt1 tau(  11) = (   1.3968345   2.4193884  14.5620425  )
        12           Pt1 tau(  12) = (   4.1905036   2.4193884  14.5620425  )
        13           S1  tau(  13) = (   1.3968345   0.0000000  16.9720425  )

     number of k points=    20  Fermi-Dirac smearing, width (Ry)=  0.0110
                       cart. coord. in units 2pi/alat
        k(    1) = (   0.0000000   0.0000000   0.0000000), wk =   0.0555556
        k(    2) = (   0.0000000   0.0344440   0.0000000), wk =   0.1111111
        k(    3) = (   0.0000000   0.0688879   0.0000000), wk =   0.1111111
        k(    4) = (   0.0000000  -0.1033319   0.0000000), wk =   0.0555556
        k(    5) = (   0.0298294  -0.0172220   0.0000000), wk =   0.1111111
        k(    6) = (   0.0298294   0.0172220   0.0000000), wk =   0.1111111
        k(    7) = (   0.0298294   0.0516660   0.0000000), wk =   0.1111111
        k(    8) = (   0.0298294  -0.1205539   0.0000000), wk =   0.1111111
        k(    9) = (   0.0298294  -0.0861099   0.0000000), wk =   0.1111111
        k(   10) = (   0.0298294  -0.0516660   0.0000000), wk =   0.1111111
        k(   11) = (   0.0596587  -0.0344440   0.0000000), wk =   0.1111111
        k(   12) = (   0.0596587   0.0000000   0.0000000), wk =   0.1111111
        k(   13) = (   0.0596587   0.0344440   0.0000000), wk =   0.1111111
        k(   14) = (   0.0596587  -0.1377759   0.0000000), wk =   0.1111111
        k(   15) = (   0.0596587  -0.1033319   0.0000000), wk =   0.1111111
        k(   16) = (   0.0596587  -0.0688879   0.0000000), wk =   0.1111111
        k(   17) = (  -0.0894881   0.0516660   0.0000000), wk =   0.0555556
        k(   18) = (  -0.0894881   0.0861099   0.0000000), wk =   0.1111111
        k(   19) = (  -0.0894881   0.1205539   0.0000000), wk =   0.1111111
        k(   20) = (  -0.0894881  -0.0516660   0.0000000), wk =   0.0555556

     Largest allocated arrays     est. size (Mb)     dimensions
     Largest temporary arrays     est. size (Mb)     dimensions

     Initial potential from superposition of free atoms
     Check: negative starting charge=   -2.200725

     starting charge  191.99983, renormalised to  198.00000

     negative rho (up, down):  2.269E+00 0.000E+00

     *
     * You are using vdW-DF for exchange-correlation in this calculation.
     * Please cite the following three references that made this development
     * possible:
     *
     *   M. Dion, H. Rydberg, E. Schroder, D. C. Langreth, and
     *   B. I. Lundqvist, Phys. Rev. Lett. 92, 246401 (2004).
     *
     *   T. Thonhauser, V. R. Cooper, S. Li, A. Puzder, P. Hyldgaard, and
     *   D. C. Langreth, Phys. Rev. B 76, 125112 (2007).
     *
     *   G. Roman-Perez and J. M. Soler, Phys. Rev. Lett. 103, 096102 (2009).
     *
     *
     * If you are using vdW-DF2, please also cite:
     *
     *   K. Lee, E. D. Murray, L. Kong, B. I. Lundqvist, and
     *   D. C. Langreth, Phys. Rev. B 82, 081101(R) (2010).
     *
     *
     * If you are calculating the stress with vdW-DF, please also cite:
     *
     *   R. Sabatini, E. Kucukbenli, B. Kolb, T. Thonhauser, and
     *   S. de Gironcoli, J. Phys.: Condens. Matter 24, 424209 (2012).
     *

     Carrying out vdW-DF run using the following parameters:

     Nqs =      20    Nr_points =    1024   r_max =   100.000
     q_mesh =
               0.00001000     0.04494208     0.09755937     0.15916263
               0.23128650     0.31572767     0.41458969     0.53033537
               0.66584808     0.82450364     1.01025438     1.22772762
               1.48234092     1.78043706     2.12944203     2.53805004
               3.01644009     3.57652955     4.23227104     5.00000000

     Gradients computed in reciprocal space

     Adding external electric field

     Computed dipole along edir(3) :
        Dipole               -1.6619 Ry au,         -4.2240 Debye
        Dipole field         -0.0047 Ry au

        Potential amp.        0.4218 Ry
        Total length         45.2551 bohr

     Starting wfc are  148 randomized atomic wfcs

     Self-consistent Calculation

     iteration #  1     ecut=    36.75 Ry     beta=0.30
     Davidson diagonalization with overlap
     ethr =  1.00E-02,  avg # of iterations =  3.9

[...]

     total energy              =   -2540.04681839 Ry
     Harris-Foulkes estimate   =   -2575.12732582 Ry
     estimated scf accuracy    <      74.04244680 Ry

[...]

     End of self-consistent calculation

          k = 0.0000 0.0000 0.0000 ( 16787 PWs)   bands (ev):

   -51.1786 -51.1724 -51.1314 -51.1060 -51.0373 -51.0170 -51.0001 -50.9674
   -50.9256 -50.9155 -50.9079 -50.9007 -50.8898 -50.8497 -50.8178 -50.8159
   -50.7837 -50.7823 -50.7791 -50.7583 -50.7162 -50.6679 -50.5798 -50.5635
   -50.5599 -50.5501 -50.5471 -50.5031 -50.4775 -50.4770 -50.3877 -50.3635
   -50.3551 -50.3422 -50.3399 -50.3312  -9.4913  -6.9173  -5.1950  -4.7792
    -4.4325  -4.4223  -4.4198  -4.2241  -4.2066  -4.2047  -3.7811  -3.7575
    -3.7544  -3.6094  -3.6004  -3.5806  -2.3523  -2.2538  -2.1906  -1.8357
    -1.8315  -1.8251  -1.6597  -1.5439  -1.5410  -1.3217  -1.2617  -1.2560
    -1.1284  -1.1175  -1.0961  -1.0202  -1.0184  -0.8491  -0.6057  -0.4686
    -0.1016   0.2532   0.3215   0.3485   0.4343   0.4378   0.4506   0.5677
     0.7523   0.7955   1.0356   1.0546   1.2286   1.5504   1.5921   1.6015
     1.6305   1.7518   1.7610   1.8011   1.9984   2.0069   2.0156   2.0274
     2.0777   2.2450   2.2851   2.3227   2.3985   2.3988   2.4008   3.0584
     3.2030   3.3001   4.0097   4.8243   4.8410

[...]

          k =-0.0895 0.0517 0.0000 ( 16880 PWs)   bands (ev):

[...]

     the Fermi energy is     1.8744 ev

!    total energy              =   -2572.55190660 Ry
     Harris-Foulkes estimate   =   -2572.55189828 Ry
     estimated scf accuracy    <       0.00000560 Ry

     The total energy is the sum of the following terms:

     one-electron contribution =  -20435.41432939 Ry
     hartree contribution      =   10257.32431046 Ry
     xc contribution           =    -711.99894042 Ry
     ewald contribution        =    8317.65178978 Ry
     electric field correction =       0.00007625 Ry
     smearing contrib. (-TS)   =      -0.11481328 Ry

     convergence has been achieved in  19 iterations

 BEEF-vdW xc energy contributions
           1 :   -633.627411626720
           2 :    589.392135261688
           3 :   -510.139415797258
           4 :    411.020685366771
           5 :   -308.558536171155
           6 :    216.457134879069
           7 :   -142.882842832266
           8 :    89.7608998235494
           9 :   -54.0364590396770
          10 :    30.1595059780572
          11 :   -12.7294035701615
          12 :   -1.68759712563326
          13 :    14.0442561483879
          14 :   -23.4840517432516
[...]

[...]

   This run was terminated on:  22:24: 7  20Jan2018

[...]

     Program PWSCF v.5.1rc2 (svn rev. 11289) starts on 20Jan2018 at 23:34: 0

[...]

   This run was terminated on:   0: 9:20  21Jan2018

[...]

     Program PWSCF v.5.1rc2 (svn rev. 11289) starts on 21Jan2018 at  0: 9:26

[...]

     Total force =     0.060873     Total SCF correction =     0.005100

[...]

     Program PWSCF v.5.1rc2 (svn rev. 11289) starts on 21Jan2018 at  0:26:41

     Current dimensions of program PWSCF are:
     Max number of different atomic species (ntypx) = 10
     Max number of k-points (npk) =  40000
     Max angular momentum in pseudopotentials (lmaxx) =  3
     Presently stress not available with electric field

     IMPORTANT: XC functional enforced from input :
     Exchange-correlation      = BEEF-VDW ( 1  4 27 13 2)
     Any further DFT definition will be discarded
     Please, verify this is what you really want

     Subspace diagonalization in iterative solution of the eigenvalue problem:
     a serial algorithm will be used

     bravais-lattice index     =            0
     lattice parameter (alat)  =       1.8897  a.u.
     unit-cell volume          =    4481.2752 (a.u.)^3
     number of atoms/cell      =           13
     number of atomic types    =            2
     number of electrons       =       198.00
     number of Kohn-Sham states=          109
     kinetic-energy cutoff     =      36.7493  Ry
     charge density cutoff     =     367.4932  Ry
     convergence threshold     =      1.0E-05
     mixing beta               =       0.3000
     number of iterations used =           10  plain     mixing
     Exchange-correlation      = BEEF-VDW ( 1  4 27 13 2)
     nstep                     =           50

     celldm(1)=   1.889726  celldm(2)=   0.000000  celldm(3)=   0.000000
     celldm(4)=   0.000000  celldm(5)=   0.000000  celldm(6)=   0.000000

     crystal axes: (cart. coord. in units of alat)
               a(1) = (   5.587338   0.000000   0.000000 )
               a(2) = (   2.793669   4.838777   0.000000 )
               a(3) = (   0.000000   0.000000  24.562042 )

     reciprocal axes: (cart. coord. in units 2 pi/alat)
               b(1) = (  0.178976 -0.103332  0.000000 )
               b(2) = (  0.000000  0.206664  0.000000 )
               b(3) = (  0.000000  0.000000  0.040713 )

     PseudoPot. # 1 for Pt read from file:
     /afs/slac.stanford.edu/u/if/mamunm/psp/gbrv1.5pbe/Pt.UPF
     MD5 check sum: f09d6de1a584b5a045c4fc126da2d0c4
     Pseudo is Ultrasoft + core correction, Zval = 16.0
     Generated by new atomic code, or converted to UPF format
     Using radial grid of  985 points,  6 beta functions with:
                l(1) =   0
                l(2) =   0
                l(3) =   1
                l(4) =   1
                l(5) =   2
                l(6) =   2
     Q(r) pseudized with  8 coefficients,  rinner =    1.300   1.300   1.300
                                                       1.300   1.300

     PseudoPot. # 2 for S  read from file:
     /afs/slac.stanford.edu/u/if/mamunm/psp/gbrv1.5pbe/S.UPF
     MD5 check sum: 88d86576ff6df21479756cfb9bdac1df
     Pseudo is Ultrasoft + core correction, Zval =  6.0
     Generated by new atomic code, or converted to UPF format
     Using radial grid of  907 points,  6 beta functions with:
                l(1) =   0
                l(2) =   0
                l(3) =   1
                l(4) =   1
                l(5) =   2
                l(6) =   2
     Q(r) pseudized with  8 coefficients,  rinner =    1.300   1.300   1.300
                                                       1.300   1.300

     vdW kernel table read from file vdW_kernel_table
     MD5 check sum: 095c7af220d748ca6e76c0b4c6cfb241

     atomic species   valence    mass     pseudopotential
        Pt1           16.00   195.08400     Pt( 1.00)
        S1             6.00    32.06000     S ( 1.00)

     No symmetry found

   Cartesian axes

     site n.     atom                  positions (alat units)
         1           Pt1 tau(   1) = (   1.3968345   0.8064628  10.0000000  )
         2           Pt1 tau(   2) = (   4.1905036   0.8064628  10.0000000  )
         3           Pt1 tau(   3) = (   2.7936691   3.2258512  10.0000000  )
         4           Pt1 tau(   4) = (   5.5873381   3.2258512  10.0000000  )
         5           Pt1 tau(   5) = (   5.5873381   1.6129256  12.2810212  )
         6           Pt1 tau(   6) = (   2.7936691   1.6129256  12.2810212  )
         7           Pt1 tau(   7) = (   6.9841727   4.0323140  12.2810212  )
         8           Pt1 tau(   8) = (   4.1905036   4.0323140  12.2810212  )
         9           Pt1 tau(   9) = (   8.3370816   4.8103760  14.6673386  )
        10           Pt1 tau(  10) = (   5.6310644   4.8106064  14.6672783  )
        11           Pt1 tau(  11) = (   6.9842663   2.4688519  14.6702562  )
        12           Pt1 tau(  12) = (   4.1903723   2.4169291  14.5818174  )
        13           S1  tau(  13) = (   1.3969433   0.8026266  16.2413020  )

     number of k points=    20  Fermi-Dirac smearing, width (Ry)=  0.0110
                       cart. coord. in units 2pi/alat
        k(    1) = (   0.0000000   0.0000000   0.0000000), wk =   0.0555556
        k(    2) = (   0.0000000   0.0344440   0.0000000), wk =   0.1111111
        k(    3) = (   0.0000000   0.0688879   0.0000000), wk =   0.1111111
        k(    4) = (   0.0000000  -0.1033319   0.0000000), wk =   0.0555556
        k(    5) = (   0.0298294  -0.0172220   0.0000000), wk =   0.1111111
        k(    6) = (   0.0298294   0.0172220   0.0000000), wk =   0.1111111
        k(    7) = (   0.0298294   0.0516660   0.0000000), wk =   0.1111111
        k(    8) = (   0.0298294  -0.1205539   0.0000000), wk =   0.1111111
        k(    9) = (   0.0298294  -0.0861099   0.0000000), wk =   0.1111111
        k(   10) = (   0.0298294  -0.0516660   0.0000000), wk =   0.1111111
        k(   11) = (   0.0596587  -0.0344440   0.0000000), wk =   0.1111111
        k(   12) = (   0.0596587   0.0000000   0.0000000), wk =   0.1111111
        k(   13) = (   0.0596587   0.0344440   0.0000000), wk =   0.1111111
        k(   14) = (   0.0596587  -0.1377759   0.0000000), wk =   0.1111111
        k(   15) = (   0.0596587  -0.1033319   0.0000000), wk =   0.1111111
        k(   16) = (   0.0596587  -0.0688879   0.0000000), wk =   0.1111111
        k(   17) = (  -0.0894881   0.0516660   0.0000000), wk =   0.0555556
        k(   18) = (  -0.0894881   0.0861099   0.0000000), wk =   0.1111111
        k(   19) = (  -0.0894881   0.1205539   0.0000000), wk =   0.1111111
        k(   20) = (  -0.0894881  -0.0516660   0.0000000), wk =   0.0555556

     Largest allocated arrays     est. size (Mb)     dimensions
     Largest temporary arrays     est. size (Mb)     dimensions

     Initial potential from superposition of free atoms
     Check: negative starting charge=   -2.204191

     starting charge  191.99983, renormalised to  198.00000

[...]

     *
     * You are using vdW-DF for exchange-correlation in this calculation.
     * Please cite the following three references that made this development
     * possible:
     *
     *   M. Dion, H. Rydberg, E. Schroder, D. C. Langreth, and
     *   B. I. Lundqvist, Phys. Rev. Lett. 92, 246401 (2004).
     *
     *   T. Thonhauser, V. R. Cooper, S. Li, A. Puzder, P. Hyldgaard, and
     *   D. C. Langreth, Phys. Rev. B 76, 125112 (2007).
     *
     *   G. Roman-Perez and J. M. Soler, Phys. Rev. Lett. 103, 096102 (2009).
     *
     *
     * If you are using vdW-DF2, please also cite:
     *
     *   K. Lee, E. D. Murray, L. Kong, B. I. Lundqvist, and
     *   D. C. Langreth, Phys. Rev. B 82, 081101(R) (2010).
     *
     *
     * If you are calculating the stress with vdW-DF, please also cite:
     *
     *   R. Sabatini, E. Kucukbenli, B. Kolb, T. Thonhauser, and
     *   S. de Gironcoli, J. Phys.: Condens. Matter 24, 424209 (2012).
     *

     Carrying out vdW-DF run using the following parameters:

     Nqs =      20    Nr_points =    1024   r_max =   100.000
     q_mesh =
               0.00001000     0.04494208     0.09755937     0.15916263
               0.23128650     0.31572767     0.41458969     0.53033537
               0.66584808     0.82450364     1.01025438     1.22772762
               1.48234092     1.78043706     2.12944203     2.53805004
               3.01644009     3.57652955     4.23227104     5.00000000

     Gradients computed in reciprocal space

[...]

     Starting wfc are  148 randomized atomic wfcs

     Self-consistent Calculation

[...]

     total energy              =   -2572.70569983 Ry
     Harris-Foulkes estimate   =   -2572.70569403 Ry
     estimated scf accuracy    <       0.00006765 Ry

     iteration # 19     ecut=    36.75 Ry     beta=0.30
     Davidson diagonalization with overlap
     ethr =  3.42E-08,  avg # of iterations =  1.1

[...]

     negative rho (up, down):  2.120E+00 0.000E+00

     Adding external electric field

     Computed dipole along edir(3) :
        Dipole                0.1593 Ry au,          0.4049 Debye
        Dipole field          0.0004 Ry au

        Potential amp.       -0.0404 Ry
        Total length         45.2551 bohr

     End of self-consistent calculation

[...]

          k = 0.0597-0.0689 0.0000 ( 16875 PWs)   bands (ev):

[...]

          k =-0.0895-0.0517 0.0000 ( 16880 PWs)   bands (ev):

   -51.0796 -50.9855 -50.9321 -50.7394 -50.7267 -50.6627 -50.6615 -50.6232
   -50.6025 -50.5818 -50.5573 -50.5388 -50.5159 -50.5104 -50.5060 -50.4986
   -50.4599 -50.4509 -50.4402 -50.4277 -50.3799 -50.3231 -50.3188 -50.2517
   -50.2235 -50.2172 -50.2005 -50.1176 -50.1126 -50.1054 -50.0853 -49.9804
   -49.9197 -49.9128 -49.9061 -49.8172 -11.7947  -4.9542  -4.6622  -4.0474
    -3.6220  -3.4461  -3.2913  -3.1520  -3.0401  -2.9808  -2.9393  -2.8864
    -2.8235  -2.4593  -2.3690  -2.3664  -2.3389  -2.1833  -2.1418  -2.0619
    -1.8042  -1.7682  -1.6998  -1.6698  -1.6142  -1.5807  -1.3226  -1.2016
    -1.1181  -1.0245  -0.8712  -0.8203  -0.6711  -0.6449  -0.5570  -0.5528
    -0.5330  -0.4605  -0.3619  -0.3361  -0.2453  -0.1193  -0.0535   0.1227
     0.2200   0.2708   0.3164   0.4367   0.4525   0.6640   0.6887   0.7923
     0.8018   0.9094   1.1028   1.1847   1.2324   1.3864   1.4964   1.6130
     1.8950   2.0176   2.0457   2.1681   2.4115   2.5949   2.7478   3.4182
     4.2059   4.4157   4.6117   4.7963   5.5362

     the Fermi energy is     2.2487 ev

!    total energy              =   -2572.70569766 Ry
     Harris-Foulkes estimate   =   -2572.70568835 Ry
     estimated scf accuracy    <       0.00000497 Ry

     The total energy is the sum of the following terms:

     one-electron contribution =  -20472.27482519 Ry
     hartree contribution      =   10277.40498934 Ry
     xc contribution           =    -712.31699468 Ry
     ewald contribution        =    8334.57781354 Ry
     electric field correction =       0.00007115 Ry
     smearing contrib. (-TS)   =      -0.09675182 Ry

     convergence has been achieved in  19 iterations

 BEEF-vdW xc energy contributions
           1 :   -633.964419022135
           2 :    589.891263515846
           3 :   -510.830235125913
           4 :    411.787306628851
           5 :   -309.226825806520
           6 :    216.895087779778
           7 :   -143.060097360846
           8 :    89.7477523348989
           9 :   -53.9523615095245
          10 :    30.1049627451298
          11 :   -12.7381593446501
          12 :   -1.65352964324052
          13 :    14.0590924757746
          14 :   -23.6070163282652
          15 :    28.8694484247269
          16 :   -29.1249197934250
          17 :    25.0222199159221
          18 :   -18.4526475408607
          19 :    11.8132615872840
          20 :   -7.09054956857904
          21 :    5.19588761759667
          22 :   -5.81699617361494
          23 :    7.77689900703331
          24 :   -9.67794604508060
          25 :    10.5147441829696
          26 :   -10.0050064482134
          27 :    8.54643201710473
          28 :   -6.88954507407811
          29 :    5.72063528580179
          30 :   -5.35733320066720
          31 :   -52.2275389664649
          32 :   -38.6319370736037

     Forces acting on atoms (Ry/au):

     negative rho (up, down):  2.120E+00 0.000E+00
     atom    1 type  1   force =    -0.00002252    0.00001526   -0.01195978
     atom    2 type  1   force =     0.00003364   -0.00181522   -0.01992611
     atom    3 type  1   force =    -0.00152625    0.00095687   -0.01991795
     atom    4 type  1   force =     0.00151835    0.00091184   -0.01993578
     atom    5 type  1   force =     0.00084523   -0.00047480    0.00876296
     atom    6 type  1   force =    -0.00083887   -0.00046029    0.00873047
     atom    7 type  1   force =    -0.00000099   -0.00022145    0.04565493
     atom    8 type  1   force =    -0.00001139    0.00075806    0.00855967
     atom    9 type  1   force =    -0.00050660    0.00020866    0.00040168
     atom   10 type  1   force =     0.00059880    0.00001905    0.00037250
     atom   11 type  1   force =    -0.00011893    0.00003734    0.00001839
     atom   12 type  1   force =     0.00009583   -0.00010558   -0.00106309
     atom   13 type  2   force =    -0.00006630    0.00017028    0.00030211

     Total force =     0.060492     Total SCF correction =     0.018148
     SCF correction compared to forces is large: reduce conv_thr to get better values

     entering subroutine stress ...

     negative rho (up, down):  2.120E+00 0.000E+00
          total   stress  (Ry/bohr**3)                   (kbar)     P=   -4.86
  -0.00007575  -0.00000001  -0.00000004        -11.14     -0.00     -0.01
  -0.00000001  -0.00007582   0.00000037         -0.00    -11.15      0.06
  -0.00000004   0.00000037   0.00005240         -0.01      0.06      7.71

 !ASE

     Writing output data file calc.save

     General routines

     Parallel routines

   This run was terminated on:   0:43:13  21Jan2018

   JOB DONE.
Job  /afs/slac/g/suncat/bin/suncat-tsmpirun -x LD_LIBRARY_PATH -wdir /scratch/qe864735_iEqrV pw.x -in pw.inp

TID   HOST_NAME   COMMAND_LINE            STATUS            TERMINATION_TIME
00000 suncat0018 pw.x -in pw.inp   Done                     01/21/2018 00:43:13
00001 suncat0018 pw.x -in pw.inp   Done                     01/21/2018 00:43:13
00002 suncat0018 pw.x -in pw.inp   Done                     01/21/2018 00:43:13
00003 suncat0018 pw.x -in pw.inp   Done                     01/21/2018 00:43:13
00004 suncat0018 pw.x -in pw.inp   Done                     01/21/2018 00:43:13
00005 suncat0018 pw.x -in pw.inp   Done                     01/21/2018 00:43:13
00006 suncat0018 pw.x -in pw.inp   Done                     01/21/2018 00:43:13
00007 suncat0018 pw.x -in pw.inp   Done                     01/21/2018 00:43:13
00008 suncat0165 pw.x -in pw.inp   Done                     01/21/2018 00:43:13
00009 suncat0165 pw.x -in pw.inp   Done                     01/21/2018 00:43:13
00010 suncat0165 pw.x -in pw.inp   Done                     01/21/2018 00:43:13
00011 suncat0165 pw.x -in pw.inp   Done                     01/21/2018 00:43:13
00012 suncat0165 pw.x -in pw.inp   Done                     01/21/2018 00:43:13
00013 suncat0165 pw.x -in pw.inp   Done                     01/21/2018 00:43:13
00014 suncat0165 pw.x -in pw.inp   Done                     01/21/2018 00:43:13
00015 suncat0165 pw.x -in pw.inp   Done                     01/21/2018 00:43:13
00016 suncat0277 pw.x -in pw.inp   Done                     01/21/2018 00:43:13
00017 suncat0277 pw.x -in pw.inp   Done                     01/21/2018 00:43:13
00018 suncat0277 pw.x -in pw.inp   Done                     01/21/2018 00:43:13
00019 suncat0277 pw.x -in pw.inp   Done                     01/21/2018 00:43:13
00020 suncat0277 pw.x -in pw.inp   Done                     01/21/2018 00:43:13
00021 suncat0277 pw.x -in pw.inp   Done                     01/21/2018 00:43:13
00022 suncat0277 pw.x -in pw.inp   Done                     01/21/2018 00:43:13
00023 suncat0277 pw.x -in pw.inp   Done                     01/21/2018 00:43:13
00024 suncat0253 pw.x -in pw.inp   Done                     01/21/2018 00:43:13
00025 suncat0253 pw.x -in pw.inp   Done                     01/21/2018 00:43:13
00026 suncat0253 pw.x -in pw.inp   Done                     01/21/2018 00:43:13
00027 suncat0253 pw.x -in pw.inp   Done                     01/21/2018 00:43:13
00028 suncat0253 pw.x -in pw.inp   Done                     01/21/2018 00:43:13
00029 suncat0253 pw.x -in pw.inp   Done                     01/21/2018 00:43:13
00030 suncat0253 pw.x -in pw.inp   Done                     01/21/2018 00:43:13
00031 suncat0253 pw.x -in pw.inp   Done                     01/21/2018 00:43:13