     Program PWSCF v.5.1rc2 (svn rev. 11289) starts on  3May2018 at 14:13: 7

     Current dimensions of program PWSCF are:
     Max number of different atomic species (ntypx) = 10
     Max number of k-points (npk) =  40000
     Max angular momentum in pseudopotentials (lmaxx) =  3
     Presently stress not available with electric field

     IMPORTANT: XC functional enforced from input :
     Exchange-correlation      = BEEF-VDW ( 1  4 27 13 2)
     Any further DFT definition will be discarded
     Please, verify this is what you really want

     Subspace diagonalization in iterative solution of the eigenvalue problem:
     a serial algorithm will be used

     bravais-lattice index     =            0
     lattice parameter (alat)  =       1.8897  a.u.
     unit-cell volume          =    6024.3322 (a.u.)^3
     number of atoms/cell      =           13
     number of atomic types    =            2
     number of electrons       =       145.00
     number of Kohn-Sham states=           82
     kinetic-energy cutoff     =      36.7493  Ry
     charge density cutoff     =     367.4932  Ry
     convergence threshold     =      1.0E-05
     mixing beta               =       0.3000
     number of iterations used =           10  plain     mixing
     Exchange-correlation      = BEEF-VDW ( 1  4 27 13 2)
     nstep                     =           50

     celldm(1)=   1.889726  celldm(2)=   0.000000  celldm(3)=   0.000000
     celldm(4)=   0.000000  celldm(5)=   0.000000  celldm(6)=   0.000000

     crystal axes: (cart. coord. in units of alat)
               a(1) = (   6.393197   0.000000   0.000000 )
               a(2) = (   3.196599   5.536671   0.000000 )
               a(3) = (   0.000000   0.000000  25.220024 )

     reciprocal axes: (cart. coord. in units 2 pi/alat)
               b(1) = (  0.156416 -0.090307  0.000000 )
               b(2) = (  0.000000  0.180614  0.000000 )
               b(3) = (  0.000000  0.000000  0.039651 )

     PseudoPot. # 1 for Hf read from file:
     /u/if/mamunm/psp/gbrv1.5pbe/Hf.UPF
     MD5 check sum: 8ee9378dfe14276e333edf04c5e4aa26
     Pseudo is Ultrasoft + core correction, Zval = 12.0
     Generated by new atomic code, or converted to UPF format
     Using radial grid of  921 points,  8 beta functions with:
                l(1) =   0
                l(2) =   0
                l(3) =   0
                l(4) =   1
                l(5) =   1
                l(6) =   2
                l(7) =   2
                l(8) =   3
     Q(r) pseudized with  6 coefficients,  rinner =    1.200   1.200   1.200
                                                       1.200   1.200   1.200
                                                       1.200

     PseudoPot. # 2 for H  read from file:
     /u/if/mamunm/psp/gbrv1.5pbe/H.UPF
     MD5 check sum: 761ae9a214b05c3daf00ab9f6b793d6f
     Pseudo is Ultrasoft, Zval =  1.0
     Generated by new atomic code, or converted to UPF format
     Using radial grid of  615 points,  2 beta functions with:
                l(1) =   0
                l(2) =   0
     Q(r) pseudized with  8 coefficients,  rinner =    0.700

     vdW kernel table read from file vdW_kernel_table
     MD5 check sum: 095c7af220d748ca6e76c0b4c6cfb241

     atomic species   valence    mass     pseudopotential
        Hf1           12.00   178.49000     Hf( 1.00)
        H1             1.00     1.00800     H ( 1.00)

     No symmetry found

   Cartesian axes

     site n.     atom                  positions (alat units)
         1           Hf1 tau(   1) = (   1.5982993   0.9227785  10.0000000  )
         2           Hf1 tau(   2) = (   4.7948978   0.9227785  10.0000000  )
         3           Hf1 tau(   3) = (   3.1965986   3.6911141  10.0000000  )
         4           Hf1 tau(   4) = (   6.3931971   3.6911141  10.0000000  )
         5           Hf1 tau(   5) = (   6.3931971   1.8455570  12.6100118  )
         6           Hf1 tau(   6) = (   3.1965986   1.8455570  12.6100118  )
         7           Hf1 tau(   7) = (   7.9914964   4.6138926  12.6100118  )
         8           Hf1 tau(   8) = (   4.7948978   4.6138926  12.6100118  )
         9           Hf1 tau(   9) = (   0.0000000   0.0000000  15.2200236  )
        10           Hf1 tau(  10) = (   3.1965986   0.0000000  15.2200236  )
        11           Hf1 tau(  11) = (   1.5982993   2.7683356  15.2200236  )
        12           Hf1 tau(  12) = (   4.7948978   2.7683356  15.2200236  )
        13           H1  tau(  13) = (   1.5982993   0.9227785  16.5590236  )

     number of k points=    20  Fermi-Dirac smearing, width (Ry)=  0.0110
                       cart. coord. in units 2pi/alat
        k(    1) = (   0.0000000   0.0000000   0.0000000), wk =   0.0555556
        k(    2) = (   0.0000000   0.0301023   0.0000000), wk =   0.1111111
        k(    3) = (   0.0000000   0.0602046   0.0000000), wk =   0.1111111
        k(    4) = (   0.0000000  -0.0903070   0.0000000), wk =   0.0555556
        k(    5) = (   0.0260694  -0.0150512   0.0000000), wk =   0.1111111
        k(    6) = (   0.0260694   0.0150512   0.0000000), wk =   0.1111111
        k(    7) = (   0.0260694   0.0451535   0.0000000), wk =   0.1111111
        k(    8) = (   0.0260694  -0.1053581   0.0000000), wk =   0.1111111
        k(    9) = (   0.0260694  -0.0752558   0.0000000), wk =   0.1111111
        k(   10) = (   0.0260694  -0.0451535   0.0000000), wk =   0.1111111
        k(   11) = (   0.0521388  -0.0301023   0.0000000), wk =   0.1111111
        k(   12) = (   0.0521388   0.0000000   0.0000000), wk =   0.1111111
        k(   13) = (   0.0521388   0.0301023   0.0000000), wk =   0.1111111
        k(   14) = (   0.0521388  -0.1204093   0.0000000), wk =   0.1111111
        k(   15) = (   0.0521388  -0.0903070   0.0000000), wk =   0.1111111
        k(   16) = (   0.0521388  -0.0602046   0.0000000), wk =   0.1111111
        k(   17) = (  -0.0782081   0.0451535   0.0000000), wk =   0.0555556
        k(   18) = (  -0.0782081   0.0752558   0.0000000), wk =   0.1111111
        k(   19) = (  -0.0782081   0.1053581   0.0000000), wk =   0.1111111
        k(   20) = (  -0.0782081  -0.0451535   0.0000000), wk =   0.0555556

     Largest allocated arrays     est. size (Mb)     dimensions
     Largest temporary arrays     est. size (Mb)     dimensions

     Check: negative/imaginary core charge=   -0.000003    0.000000

     Initial potential from superposition of free atoms
     Check: negative starting charge=   -1.301378

     starting charge  120.99997, renormalised to  145.00000

     negative rho (up, down):  1.560E+00 0.000E+00

     *
     * You are using vdW-DF for exchange-correlation in this calculation.
     * Please cite the following three references that made this development
     * possible:
     *
     *   M. Dion, H. Rydberg, E. Schroder, D. C. Langreth, and
     *   B. I. Lundqvist, Phys. Rev. Lett. 92, 246401 (2004).
     *
     *   T. Thonhauser, V. R. Cooper, S. Li, A. Puzder, P. Hyldgaard, and
     *   D. C. Langreth, Phys. Rev. B 76, 125112 (2007).
     *
     *   G. Roman-Perez and J. M. Soler, Phys. Rev. Lett. 103, 096102 (2009).
     *
     *
     * If you are using vdW-DF2, please also cite:
     *
     *   K. Lee, E. D. Murray, L. Kong, B. I. Lundqvist, and
     *   D. C. Langreth, Phys. Rev. B 82, 081101(R) (2010).
     *
     *
     * If you are calculating the stress with vdW-DF, please also cite:
     *
     *   R. Sabatini, E. Kucukbenli, B. Kolb, T. Thonhauser, and
     *   S. de Gironcoli, J. Phys.: Condens. Matter 24, 424209 (2012).
     *

     Carrying out vdW-DF run using the following parameters:

     Nqs =      20    Nr_points =    1024   r_max =   100.000
     q_mesh =
               0.00001000     0.04494208     0.09755937     0.15916263
               0.23128650     0.31572767     0.41458969     0.53033537
               0.66584808     0.82450364     1.01025438     1.22772762
               1.48234092     1.78043706     2.12944203     2.53805004
               3.01644009     3.57652955     4.23227104     5.00000000

     Gradients computed in reciprocal space

     Adding external electric field

     Computed dipole along edir(3) :
        Dipole               -1.4801 Ry au,         -3.7620 Debye
        Dipole field         -0.0031 Ry au

        Potential amp.        0.2869 Ry
        Total length         46.4675 bohr

     Starting wfc are  157 randomized atomic wfcs

     Self-consistent Calculation

     iteration #  1     ecut=    36.75 Ry     beta=0.30
     Davidson diagonalization with overlap
     ethr =  1.00E-02,  avg # of iterations =  8.0

[...]

     total energy              =   -1783.72964670 Ry
     Harris-Foulkes estimate   =   -1939.64353370 Ry
     estimated scf accuracy    <     333.01748426 Ry

[...]

     iteration # 27     ecut=    36.75 Ry     beta=0.30
     Davidson diagonalization with overlap
     c_bands:  1 eigenvalues not converged
     ethr =  1.53E-07,  avg # of iterations =  7.2

[...]

     End of self-consistent calculation

          k = 0.0000 0.0000 0.0000 ( 22729 PWs)   bands (ev):

   -61.3087 -61.2953 -61.2790 -61.2697 -61.2696 -61.2648 -61.2579 -61.2578
   -60.8867 -60.8582 -60.8581 -60.8210 -30.0606 -30.0605 -30.0584 -30.0330
   -30.0330 -30.0311 -29.9925 -29.9005 -29.8922 -29.8922 -29.8866 -29.8145
   -29.8069 -29.8069 -29.6424 -29.6423 -29.6349 -29.6331 -29.6331 -29.6268
   -29.5861 -29.5763 -29.5763 -29.5093 -29.5093 -29.5053 -29.5053 -29.3437
   -29.3380 -29.3380 -29.2857 -29.2495 -29.2387 -29.2387 -29.1193 -29.1193
    -5.2905  -4.2669  -3.0060  -2.1951  -1.7009  -1.7009  -1.5035  -1.4260
    -1.4260  -1.3812  -1.0333  -1.0332  -0.7412  -0.3671  -0.3671  -0.1931
     0.3794   0.3794   0.6905   1.3439   1.4352   1.6781   1.6782   1.6896
     1.7765   1.8084   1.8084   2.1057   2.2076   2.4313   2.4313   2.6040
     2.6044   2.6172

[...]

          k =-0.0782 0.0452 0.0000 ( 22668 PWs)   bands (ev):

[...]

     the Fermi energy is     1.3365 ev

!    total energy              =   -1927.85602484 Ry
     Harris-Foulkes estimate   =   -1927.85602503 Ry
     estimated scf accuracy    <       0.00000043 Ry

     The total energy is the sum of the following terms:

     one-electron contribution =   -8343.09520472 Ry
     hartree contribution      =    4154.26071796 Ry
     xc contribution           =    -928.38065977 Ry
     ewald contribution        =    3189.47862032 Ry
     electric field correction =       0.00000001 Ry
     smearing contrib. (-TS)   =      -0.11949863 Ry

     convergence has been achieved in  32 iterations

 BEEF-vdW xc energy contributions
           1 :   -839.601995420393
           2 :    780.418168157228
           3 :   -675.491369982073
           4 :    546.484945784777
           5 :   -415.873354867998
           6 :    300.588101174298
           7 :   -209.213725919990
           8 :    142.897761243638
           9 :   -98.4141329149763
          10 :    71.1478944698581
          11 :   -56.6458053685022
          12 :    50.6803417054327
          13 :   -48.8220940821311
          14 :    46.5188666601882
          15 :   -40.0264909026196
          16 :    27.6645408830702
          17 :   -10.5353458100117
          18 :   -7.90460784470451
          19 :    23.3150706459102
          20 :   -32.2830559760962
          21 :    33.5814011784074
          22 :   -28.3557369976645
          23 :    19.3217415554784
          24 :   -9.56075540830307
          25 :    1.56025542900659
          26 :    3.16029350093118
          27 :   -3.95859927790025
          28 :   0.867541925532350
          29 :    5.44420896122620
          30 :   -13.5844615570411
          31 :   -60.2484461951524
          32 :   -43.3152951795105

     Forces acting on atoms (Ry/au):

     negative rho (up, down):  1.379E+00 0.000E+00
     atom    1 type  1   force =    -0.00000510    0.00001114    0.02349182
     atom    2 type  1   force =     0.00000212    0.00088970    0.02383807
     atom    3 type  1   force =     0.00075997   -0.00044819    0.02383412
     atom    4 type  1   force =    -0.00076386   -0.00045222    0.02375070
     atom    5 type  1   force =     0.00022078   -0.00005989    0.00113565
     atom    6 type  1   force =    -0.00022359   -0.00010430    0.00114395
     atom    7 type  1   force =    -0.00002563   -0.00003879   -0.00061306
     atom    8 type  1   force =     0.00003932    0.00021239    0.00111676
     atom    9 type  1   force =     0.00692012    0.00400209   -0.01285801
     atom   10 type  1   force =    -0.00693074    0.00396437   -0.01290212
     atom   11 type  1   force =    -0.00003631   -0.00799439   -0.01291840
     atom   12 type  1   force =     0.00004181    0.00001618   -0.03059421
     atom   13 type  2   force =     0.00000112    0.00000190   -0.02842528

     Total force =     0.049338     Total SCF correction =     0.001393

     entering subroutine stress ...

     negative rho (up, down):  1.379E+00 0.000E+00
          total   stress  (Ry/bohr**3)                   (kbar)     P=  -25.47
  -0.00016340  -0.00000000   0.00000000        -24.04     -0.00      0.00
  -0.00000000  -0.00016341  -0.00000000         -0.00    -24.04     -0.00
   0.00000000  -0.00000000  -0.00019266          0.00     -0.00    -28.34

     BFGS Geometry Optimization

     number of scf cycles    =   1
     number of bfgs steps    =   0

     energy   new            =   -1927.8560248372 Ry

     new trust radius        =       0.0305942413 bohr
     new conv_thr            =       0.0000099958 Ry

ATOMIC_POSITIONS (crystal)
Hf1      0.166666667   0.166666667   0.396510335    0   0   0
Hf1      0.666666667   0.166666667   0.396510335    0   0   0
Hf1      0.166666667   0.666666667   0.396510335    0   0   0
Hf1      0.666666667   0.666666667   0.396510335    0   0   0
Hf1      0.833333333   0.333333333   0.500000000    0   0   0
Hf1      0.333333333   0.333333333   0.500000000    0   0   0
Hf1      0.833333333   0.833333333   0.500000000    0   0   0
Hf1      0.333333333   0.833333333   0.500000000    0   0   0
Hf1      0.000381538   0.000382507   0.603219873
Hf1      0.499236879   0.000378902   0.603218948
Hf1      0.000379033   0.499235922   0.603218606
Hf1      0.500002688   0.500001546   0.602847725
H1       0.166666668   0.166666849   0.655985968

     Writing output data file calc.save
     Check: negative starting charge=   -1.301378
     NEW-OLD atomic charge density approx. for the potential

     Check: negative/imaginary core charge=   -0.000003    0.000000
     Check: negative starting charge=   -1.301057

[...]

     Total force =     0.047204     Total SCF correction =     0.007084
     SCF correction compared to forces is large: reduce conv_thr to get better values

[...]

     energy   old            =   -1927.8560248372 Ry
     energy   new            =   -1927.8583823843 Ry

     CASE: energy  _new < energy  _old

     WARNING: bfgs curvature condition failed, Theta= 0.837
     new trust radius        =       0.0458913619 bohr
     new conv_thr            =       0.0000001000 Ry

[...]

     iteration #  1     ecut=    36.75 Ry     beta=0.30
     Davidson diagonalization with overlap
     c_bands:  1 eigenvalues not converged
     ethr =  1.00E-06,  avg # of iterations = 15.0

[...]

     WARNING: bfgs curvature condition failed, Theta= 0.979
     new trust radius        =       0.0116712026 bohr
     new conv_thr            =       0.0000001000 Ry

[...]

     Total force =     0.005912     Total SCF correction =     0.000210

[...]

     number of scf cycles    =  13
     number of bfgs steps    =  12

     energy   old            =   -1927.8815758432 Ry
     energy   new            =   -1927.8816397814 Ry

     CASE: energy  _new < energy  _old

     new trust radius        =       0.0175068038 bohr
     new conv_thr            =       0.0000001000 Ry

ATOMIC_POSITIONS (crystal)
Hf1      0.166666667   0.166666667   0.396510335    0   0   0
Hf1      0.666666667   0.166666667   0.396510335    0   0   0
Hf1      0.166666667   0.666666667   0.396510335    0   0   0
Hf1      0.666666667   0.666666667   0.396510335    0   0   0
Hf1      0.833333333   0.333333333   0.500000000    0   0   0
Hf1      0.333333333   0.333333333   0.500000000    0   0   0
Hf1      0.833333333   0.833333333   0.500000000    0   0   0
Hf1      0.333333333   0.833333333   0.500000000    0   0   0
Hf1      0.000595771   0.000595678   0.596835448
Hf1      0.498736146   0.000552150   0.596832675
Hf1      0.000553014   0.498734872   0.596832519
Hf1      0.499987201   0.499984078   0.595283030
H1       0.166662027   0.166662896   0.640019222

     Writing output data file calc.save
     Check: negative starting charge=   -1.299600
     NEW-OLD atomic charge density approx. for the potential

     Check: negative/imaginary core charge=   -0.000003    0.000000
     Check: negative starting charge=   -1.299379

[...]

     Self-consistent Calculation

[...]

     total energy              =   -1927.88173143 Ry
     Harris-Foulkes estimate   =   -1927.88173144 Ry
     estimated scf accuracy    <       0.00000045 Ry

     iteration # 12     ecut=    36.75 Ry     beta=0.30
     Davidson diagonalization with overlap
     ethr =  1.54E-10,  avg # of iterations =  2.9

[...]

     negative rho (up, down):  1.376E+00 0.000E+00

     Adding external electric field

     Computed dipole along edir(3) :
        Dipole                0.0189 Ry au,          0.0480 Debye
        Dipole field          0.0000 Ry au

        Potential amp.       -0.0037 Ry
        Total length         46.4675 bohr

     End of self-consistent calculation

[...]

          k = 0.0521-0.0602 0.0000 ( 22643 PWs)   bands (ev):

[...]

          k =-0.0782-0.0452 0.0000 ( 22668 PWs)   bands (ev):

   -61.2696 -61.2645 -61.2506 -61.2474 -61.1517 -61.1451 -61.1338 -61.1070
   -60.7193 -60.7130 -60.7027 -60.6706 -29.9379 -29.9335 -29.8913 -29.8862
   -29.8546 -29.8532 -29.8264 -29.8223 -29.8191 -29.8109 -29.7718 -29.7700
   -29.7598 -29.7556 -29.7194 -29.7189 -29.6893 -29.6659 -29.6439 -29.6324
   -29.5594 -29.5557 -29.4587 -29.4543 -29.3525 -29.3492 -29.2373 -29.2287
   -29.2066 -29.1927 -29.1767 -29.1668 -29.1604 -29.1286 -29.0487 -29.0345
    -4.3716  -3.6065  -3.2851  -2.3511  -1.8745  -1.3552  -1.3422  -1.0320
    -0.8253  -0.7443  -0.6104   0.1016   0.1249   0.2705   0.3057   0.4640
     0.4763   0.5846   0.6961   0.7997   0.8500   0.8568   0.8935   1.0814
     1.1773   1.2018   1.2719   1.3196   1.4650   1.5125   1.6935   1.7145
     2.1734   2.2276

     the Fermi energy is     1.3422 ev

!    total energy              =   -1927.88173140 Ry
     Harris-Foulkes estimate   =   -1927.88173166 Ry
     estimated scf accuracy    <       0.00000005 Ry

     The total energy is the sum of the following terms:

     one-electron contribution =   -8568.49961715 Ry
     hartree contribution      =    4267.43012308 Ry
     xc contribution           =    -928.74293577 Ry
     ewald contribution        =    3302.04531726 Ry
     electric field correction =       0.00000074 Ry
     smearing contrib. (-TS)   =      -0.11461957 Ry

     convergence has been achieved in  12 iterations

 BEEF-vdW xc energy contributions
           1 :   -839.964558578504
           2 :    780.884192159016
           3 :   -676.044522903688
           4 :    546.977315863324
           5 :   -416.127840451072
           6 :    300.531291135856
           7 :   -208.935549955235
           8 :    142.594334716589
           9 :   -98.2591212835506
          10 :    71.1869257891328
          11 :   -56.7838463864689
          12 :    50.7644116504800
          13 :   -48.7554643428282
          14 :    46.3260493689220
          15 :   -39.8277644527800
          16 :    27.5830845177458
          17 :   -10.6035671460426
          18 :   -7.77289229453754
          19 :    23.2645327096975
          20 :   -32.4096084299879
          21 :    33.8557683877152
          22 :   -28.6367870497861
          23 :    19.4536212504275
          24 :   -9.48365834903211
          25 :    1.35273702863060
          26 :    3.34032751690461
          27 :   -3.99044101068716
          28 :   0.753321574494976
          29 :    5.58953592178614
          30 :   -13.6293854432338
          31 :   -60.2748512266733
          32 :   -43.3573969059778

     Forces acting on atoms (Ry/au):

     negative rho (up, down):  1.376E+00 0.000E+00
     atom    1 type  1   force =     0.00003278    0.00001880    0.01708637
     atom    2 type  1   force =    -0.00000677    0.00069863    0.01806097
     atom    3 type  1   force =     0.00060177   -0.00035508    0.01806109
     atom    4 type  1   force =    -0.00058345   -0.00033672    0.01801246
     atom    5 type  1   force =     0.00243972   -0.00142219   -0.01742841
     atom    6 type  1   force =    -0.00246876   -0.00142573   -0.01738297
     atom    7 type  1   force =    -0.00001438   -0.00000831   -0.02007571
     atom    8 type  1   force =    -0.00001150    0.00282328   -0.01742697
     atom    9 type  1   force =     0.00063002    0.00036322    0.00102020
     atom   10 type  1   force =    -0.00063964    0.00040745    0.00099905
     atom   11 type  1   force =     0.00003325   -0.00075669    0.00099937
     atom   12 type  1   force =    -0.00000374   -0.00000057   -0.00010924
     atom   13 type  2   force =    -0.00000929   -0.00000608   -0.00181620

     Total force =     0.002833     Total SCF correction =     0.000602
     SCF correction compared to forces is large: reduce conv_thr to get better values

     entering subroutine stress ...

     negative rho (up, down):  1.376E+00 0.000E+00
          total   stress  (Ry/bohr**3)                   (kbar)     P=  -16.02
  -0.00012243   0.00000003   0.00000005        -18.01      0.00      0.01
   0.00000003  -0.00012246   0.00000003          0.00    -18.01      0.00
   0.00000005   0.00000003  -0.00008175          0.01      0.00    -12.03

     bfgs converged in  14 scf cycles and  13 bfgs steps
     (criteria: energy <  1.0E+00, force <  1.9E-03)

     End of BFGS Geometry Optimization

     Final energy   =   -1927.8817314023 Ry
Begin final coordinates

ATOMIC_POSITIONS (crystal)
Hf1      0.166666667   0.166666667   0.396510335    0   0   0
Hf1      0.666666667   0.166666667   0.396510335    0   0   0
Hf1      0.166666667   0.666666667   0.396510335    0   0   0
Hf1      0.666666667   0.666666667   0.396510335    0   0   0
Hf1      0.833333333   0.333333333   0.500000000    0   0   0
Hf1      0.333333333   0.333333333   0.500000000    0   0   0
Hf1      0.833333333   0.833333333   0.500000000    0   0   0
Hf1      0.333333333   0.833333333   0.500000000    0   0   0
Hf1      0.000595771   0.000595678   0.596835448
Hf1      0.498736146   0.000552150   0.596832675
Hf1      0.000553014   0.498734872   0.596832519
Hf1      0.499987201   0.499984078   0.595283030
H1       0.166662027   0.166662896   0.640019222
End final coordinates

     Writing output data file calc.save

     General routines

     Parallel routines

   This run was terminated on:  17:48:28   3May2018

   JOB DONE.
Job  /afs/slac/g/suncat/bin/suncat-tsmpirun -x LD_LIBRARY_PATH -wdir /scratch/qe771539_6JjJG pw.x -npool 4 -in pw.inp

TID   HOST_NAME   COMMAND_LINE            STATUS            TERMINATION_TIME
00000 suncat0050 pw.x -npool 4 -i  Done                     05/03/2018 17:48:28
00001 suncat0050 pw.x -npool 4 -i  Done                     05/03/2018 17:48:28
00002 suncat0050 pw.x -npool 4 -i  Done                     05/03/2018 17:48:28
00003 suncat0050 pw.x -npool 4 -i  Done                     05/03/2018 17:48:28
00004 suncat0050 pw.x -npool 4 -i  Done                     05/03/2018 17:48:28
00005 suncat0050 pw.x -npool 4 -i  Done                     05/03/2018 17:48:28
00006 suncat0050 pw.x -npool 4 -i  Done                     05/03/2018 17:48:28
00007 suncat0050 pw.x -npool 4 -i  Done                     05/03/2018 17:48:28
00008 suncat0048 pw.x -npool 4 -i  Done                     05/03/2018 17:48:28
00009 suncat0048 pw.x -npool 4 -i  Done                     05/03/2018 17:48:28
00010 suncat0048 pw.x -npool 4 -i  Done                     05/03/2018 17:48:28
00011 suncat0048 pw.x -npool 4 -i  Done                     05/03/2018 17:48:28
00012 suncat0048 pw.x -npool 4 -i  Done                     05/03/2018 17:48:28
00013 suncat0048 pw.x -npool 4 -i  Done                     05/03/2018 17:48:28
00014 suncat0048 pw.x -npool 4 -i  Done                     05/03/2018 17:48:28
00015 suncat0048 pw.x -npool 4 -i  Done                     05/03/2018 17:48:28
00016 suncat0183 pw.x -npool 4 -i  Done                     05/03/2018 17:48:28
00017 suncat0183 pw.x -npool 4 -i  Done                     05/03/2018 17:48:28
00018 suncat0183 pw.x -npool 4 -i  Done                     05/03/2018 17:48:28
00019 suncat0183 pw.x -npool 4 -i  Done                     05/03/2018 17:48:28
00020 suncat0183 pw.x -npool 4 -i  Done                     05/03/2018 17:48:28
00021 suncat0183 pw.x -npool 4 -i  Done                     05/03/2018 17:48:28
00022 suncat0183 pw.x -npool 4 -i  Done                     05/03/2018 17:48:28
00023 suncat0183 pw.x -npool 4 -i  Done                     05/03/2018 17:48:28
00024 suncat0229 pw.x -npool 4 -i  Done                     05/03/2018 17:48:28
00025 suncat0229 pw.x -npool 4 -i  Done                     05/03/2018 17:48:28
00026 suncat0229 pw.x -npool 4 -i  Done                     05/03/2018 17:48:28
00027 suncat0229 pw.x -npool 4 -i  Done                     05/03/2018 17:48:28
00028 suncat0229 pw.x -npool 4 -i  Done                     05/03/2018 17:48:28
00029 suncat0229 pw.x -npool 4 -i  Done                     05/03/2018 17:48:28
00030 suncat0229 pw.x -npool 4 -i  Done                     05/03/2018 17:48:28
00031 suncat0229 pw.x -npool 4 -i  Done                     05/03/2018 17:48:28