     Program PWSCF v.5.1rc2 (svn rev. ) starts on 17Apr2018 at  8:41:10

     Current dimensions of program PWSCF are:
     Max number of different atomic species (ntypx) = 10
     Max number of k-points (npk) =  40000
     Max angular momentum in pseudopotentials (lmaxx) =  3
     Presently stress not available with electric field

     IMPORTANT: XC functional enforced from input :
     Exchange-correlation      = BEEF-VDW ( 1  4 27 13 2)
     Any further DFT definition will be discarded
     Please, verify this is what you really want

     Subspace diagonalization in iterative solution of the eigenvalue problem:
     a serial algorithm will be used

     bravais-lattice index     =            0
     lattice parameter (alat)  =       1.8897  a.u.
     unit-cell volume          =    3807.2308 (a.u.)^3
     number of atoms/cell      =           16
     number of atomic types    =            3
     number of electrons       =       235.00
     number of Kohn-Sham states=          127
     kinetic-energy cutoff     =      36.7493  Ry
     charge density cutoff     =     367.4932  Ry
     convergence threshold     =      1.0E-05
     mixing beta               =       0.3000
     number of iterations used =           10  plain     mixing
     Exchange-correlation      = BEEF-VDW ( 1  4 27 13 2)
     nstep                     =           50

     celldm(1)=   1.889726  celldm(2)=   0.000000  celldm(3)=   0.000000
     celldm(4)=   0.000000  celldm(5)=   0.000000  celldm(6)=   0.000000

     crystal axes: (cart. coord. in units of alat)
               a(1) = (   5.184823   0.000000   0.000000 )
               a(2) = (   2.592411   4.490188   0.000000 )
               a(3) = (   0.000000   0.000000  24.233390 )

     reciprocal axes: (cart. coord. in units 2 pi/alat)
               b(1) = (  0.192871 -0.111354  0.000000 )
               b(2) = (  0.000000  0.222708  0.000000 )
               b(3) = (  0.000000  0.000000  0.041265 )

     PseudoPot. # 1 for Cu read from file:
     /home/mamunm/src/pseudo/gbrv1.5pbe/Cu.UPF
     MD5 check sum: 6e991ff952a84172a2a52a1c1e996048
     Pseudo is Ultrasoft + core correction, Zval = 19.0
     Generated by new atomic code, or converted to UPF format
     Using radial grid of  867 points,  6 beta functions with:
                l(1) =   0
                l(2) =   0
                l(3) =   1
                l(4) =   1
                l(5) =   2
                l(6) =   2
     Q(r) pseudized with  8 coefficients,  rinner =    1.150   1.150   1.150
                                                       1.150   1.150

     PseudoPot. # 2 for C  read from file:
     /home/mamunm/src/pseudo/gbrv1.5pbe/C.UPF
     MD5 check sum: d1aef80898a10debaa0f26306b886e00
     Pseudo is Ultrasoft + core correction, Zval =  4.0
     Generated by new atomic code, or converted to UPF format
     Using radial grid of  721 points,  4 beta functions with:
                l(1) =   0
                l(2) =   0
                l(3) =   1
                l(4) =   1
     Q(r) pseudized with  8 coefficients,  rinner =    1.100   1.100   1.100

     PseudoPot. # 3 for H  read from file:
     /home/mamunm/src/pseudo/gbrv1.5pbe/H.UPF
     MD5 check sum: 761ae9a214b05c3daf00ab9f6b793d6f
     Pseudo is Ultrasoft, Zval =  1.0
     Generated by new atomic code, or converted to UPF format
     Using radial grid of  615 points,  2 beta functions with:
                l(1) =   0
                l(2) =   0
     Q(r) pseudized with  8 coefficients,  rinner =    0.700

     vdW kernel table read from file vdW_kernel_table
     MD5 check sum: 095c7af220d748ca6e76c0b4c6cfb241

     atomic species   valence    mass     pseudopotential
        Cu1           19.00    63.54600     Cu( 1.00)
        C1             4.00    12.01100     C ( 1.00)
        H1             1.00     1.00800     H ( 1.00)

     No symmetry found

   Cartesian axes

     site n.     atom                  positions (alat units)
         1           Cu1 tau(   1) = (   1.2962057   0.7483647  10.0000000  )
         2           Cu1 tau(   2) = (   3.8886170   0.7483647  10.0000000  )
         3           Cu1 tau(   3) = (   2.5924113   2.9934587  10.0000000  )
         4           Cu1 tau(   4) = (   5.1848226   2.9934587  10.0000000  )
         5           Cu1 tau(   5) = (   5.1848226   1.4967294  12.1166950  )
         6           Cu1 tau(   6) = (   2.5924113   1.4967294  12.1166950  )
         7           Cu1 tau(   7) = (   6.4810283   3.7418234  12.1166950  )
         8           Cu1 tau(   8) = (   3.8886170   3.7418234  12.1166950  )
         9           Cu1 tau(   9) = (   0.0000000   0.0000000  14.2333899  )
        10           Cu1 tau(  10) = (   2.5924113   0.0000000  14.2333899  )
        11           Cu1 tau(  11) = (   1.2962057   2.2450940  14.2333899  )
        12           Cu1 tau(  12) = (   3.8886170   2.2450940  14.2333899  )
        13           C1  tau(  13) = (   0.0000000   0.0000000  16.0013899  )
        14           H1  tau(  14) = (   1.0900000   0.0000000  16.6313899  )
        15           H1  tau(  15) = (   4.7348226   0.8895000  16.6313899  )
        16           H1  tau(  16) = (   2.1424113   3.6006881  16.6313899  )

     number of k points=    20  Fermi-Dirac smearing, width (Ry)=  0.0110
                       cart. coord. in units 2pi/alat
        k(    1) = (   0.0000000   0.0000000   0.0000000), wk =   0.0555556
        k(    2) = (   0.0000000   0.0371180   0.0000000), wk =   0.1111111
        k(    3) = (   0.0000000   0.0742359   0.0000000), wk =   0.1111111
        k(    4) = (   0.0000000  -0.1113539   0.0000000), wk =   0.0555556
        k(    5) = (   0.0321451  -0.0185590   0.0000000), wk =   0.1111111
        k(    6) = (   0.0321451   0.0185590   0.0000000), wk =   0.1111111
        k(    7) = (   0.0321451   0.0556770   0.0000000), wk =   0.1111111
        k(    8) = (   0.0321451  -0.1299129   0.0000000), wk =   0.1111111
        k(    9) = (   0.0321451  -0.0927949   0.0000000), wk =   0.1111111
        k(   10) = (   0.0321451  -0.0556770   0.0000000), wk =   0.1111111
        k(   11) = (   0.0642902  -0.0371180   0.0000000), wk =   0.1111111
        k(   12) = (   0.0642902  -0.0000000   0.0000000), wk =   0.1111111
        k(   13) = (   0.0642902   0.0371180   0.0000000), wk =   0.1111111
        k(   14) = (   0.0642902  -0.1484719   0.0000000), wk =   0.1111111
        k(   15) = (   0.0642902  -0.1113539   0.0000000), wk =   0.1111111
        k(   16) = (   0.0642902  -0.0742359   0.0000000), wk =   0.1111111
        k(   17) = (  -0.0964353   0.0556770   0.0000000), wk =   0.0555556
        k(   18) = (  -0.0964353   0.0927949   0.0000000), wk =   0.1111111
        k(   19) = (  -0.0964353   0.1299129   0.0000000), wk =   0.1111111
        k(   20) = (  -0.0964353  -0.0556770   0.0000000), wk =   0.0555556

     Largest allocated arrays     est. size (Mb)     dimensions
     Largest temporary arrays     est. size (Mb)     dimensions

     Initial potential from superposition of free atoms
     Check: negative starting charge=   -0.000135

     starting charge  222.99991, renormalised to  235.00000

     negative rho (up, down):  1.427E-04 0.000E+00

     *
     * You are using vdW-DF for exchange-correlation in this calculation.
     * Please cite the following three references that made this development
     * possible:
     *
     *   M. Dion, H. Rydberg, E. Schroder, D. C. Langreth, and
     *   B. I. Lundqvist, Phys. Rev. Lett. 92, 246401 (2004).
     *
     *   T. Thonhauser, V. R. Cooper, S. Li, A. Puzder, P. Hyldgaard, and
     *   D. C. Langreth, Phys. Rev. B 76, 125112 (2007).
     *
     *   G. Roman-Perez and J. M. Soler, Phys. Rev. Lett. 103, 096102 (2009).
     *
     *
     * If you are using vdW-DF2, please also cite:
     *
     *   K. Lee, E. D. Murray, L. Kong, B. I. Lundqvist, and
     *   D. C. Langreth, Phys. Rev. B 82, 081101(R) (2010).
     *
     *
     * If you are calculating the stress with vdW-DF, please also cite:
     *
     *   R. Sabatini, E. Kucukbenli, B. Kolb, T. Thonhauser, and
     *   S. de Gironcoli, J. Phys.: Condens. Matter 24, 424209 (2012).
     *

     Carrying out vdW-DF run using the following parameters:

     Nqs =      20    Nr_points =    1024   r_max =   100.000
     q_mesh =
               0.00001000     0.04494208     0.09755937     0.15916263
               0.23128650     0.31572767     0.41458969     0.53033537
               0.66584808     0.82450364     1.01025438     1.22772762
               1.48234092     1.78043706     2.12944203     2.53805004
               3.01644009     3.57652955     4.23227104     5.00000000

     Gradients computed in reciprocal space

     Adding external electric field

     Computed dipole along edir(3) :
        Dipole               -2.9569 Ry au,         -7.5157 Debye
        Dipole field         -0.0098 Ry au

        Potential amp.        0.8715 Ry
        Total length         44.6496 bohr

     Starting wfc are  163 randomized atomic wfcs

     Self-consistent Calculation

     iteration #  1     ecut=    36.75 Ry     beta=0.30
     Davidson diagonalization with overlap
     ethr =  1.00E-02,  avg # of iterations =  8.0

[...]

     total energy              =   -4475.60081230 Ry
     Harris-Foulkes estimate   =   -4869.37020764 Ry
     estimated scf accuracy    <     828.87309153 Ry

[...]

     End of self-consistent calculation

          k = 0.0000 0.0000 0.0000 ( 14321 PWs)   bands (ev):

  -112.4110-111.8613-111.8476-111.8433-111.8417-111.6157-111.5759-111.5710
  -111.5705-111.5684-111.5661-111.5620 -69.9661 -69.7081 -69.7068 -69.2851
   -69.2845 -69.2843 -69.2647 -69.2437 -69.2423 -69.2382 -69.2279 -69.2273
   -69.2265 -69.2103 -69.2098 -69.0496 -69.0483 -69.0474 -69.0153 -69.0065
   -69.0053 -68.9880 -68.9867 -68.9829 -68.9765 -68.9717 -68.9708 -68.9610
   -68.9552 -68.9529 -68.9401 -68.9349 -68.9327 -68.9265 -68.9218 -68.9178
   -11.4222  -7.5313  -5.6826  -4.4382  -4.3686  -4.2443  -4.1581  -3.7751
    -3.7496  -3.7208  -3.6531  -3.6324  -3.5114  -3.3242  -3.3174  -3.2551
    -3.2106  -3.1985  -3.1527  -2.5562  -2.5535  -2.4999  -2.2917  -2.2754
    -2.2516  -2.1942  -2.1634  -2.1633  -2.0703  -2.0683  -2.0196  -2.0145
    -2.0133  -1.9543  -1.8840  -1.8839  -1.7261  -1.7206  -1.5560  -1.5490
    -1.4611  -1.3849  -1.3844  -1.3192  -1.3149  -1.2826  -1.2657  -1.1465
    -1.1452  -1.0052  -1.0050  -0.9585  -0.9281  -0.9270  -0.9114  -0.9109
    -0.8815  -0.8805  -0.8597  -0.8516  -0.8165  -0.8154  -0.6551  -0.6457
    -0.6441  -0.6276   0.2201   0.8425   0.9304   0.9386   1.6465   1.8900
     1.9820   1.9897   2.3044   2.4011   2.4052   4.0676   4.7469

[...]

          k =-0.0964 0.0557 0.0000 ( 14294 PWs)   bands (ev):

[...]

     the Fermi energy is     0.7325 ev

!    total energy              =   -4874.36183506 Ry
     Harris-Foulkes estimate   =   -4874.36183340 Ry
     estimated scf accuracy    <       0.00000753 Ry

     The total energy is the sum of the following terms:

     one-electron contribution =  -37740.23071723 Ry
     hartree contribution      =   18888.74185835 Ry
     xc contribution           =    -485.97670916 Ry
     ewald contribution        =   14463.13093902 Ry
     electric field correction =       0.00003721 Ry
     smearing contrib. (-TS)   =      -0.02724325 Ry

     convergence has been achieved in  24 iterations

 BEEF-vdW xc energy contributions
           1 :   -430.450351057185
           2 :    390.076673321054
           3 :   -321.774051006191
           4 :    244.397159840353
           5 :   -175.008828101854
           6 :    122.826052883662
           7 :   -87.8361298125765
           8 :    63.9640805719865
           9 :   -44.3486146457327
          10 :    25.4888686748600
          11 :   -8.19989424878906
          12 :   -4.47476703414594
          13 :    10.4291888442819
          14 :   -10.4503464134845
          15 :    7.83082485659372
          16 :   -6.22581451004999
          17 :    7.42753241404148
          18 :   -10.5836709001828
          19 :    13.2396455740397
          20 :   -13.3197422556151
          21 :    10.6169502495046
          22 :   -6.83183666027674
          23 :    4.26977376710050
          24 :   -4.21172164602598
          25 :    6.10805647477662
          26 :   -8.09362249837466
          27 :    8.37864254340673
          28 :   -6.49869870922089
          29 :    3.56541987005301
          30 :   -1.40033226851835
          31 :   -34.5465659644816
          32 :   -23.6016495366994

     Forces acting on atoms (Ry/au):

     negative rho (up, down):  1.025E-03 0.000E+00
     atom    1 type  1   force =    -0.00144130   -0.00078467    0.00351286
     atom    2 type  1   force =     0.00146739   -0.00079108    0.00522476
     atom    3 type  1   force =    -0.00001483    0.00169606    0.00461421
     atom    4 type  1   force =     0.00001924   -0.00001748    0.00311886
     atom    5 type  1   force =     0.00037948   -0.00080066    0.00127704
     atom    6 type  1   force =    -0.00026263   -0.00015819    0.00467718
     atom    7 type  1   force =     0.00054241    0.00042468    0.00151097
     atom    8 type  1   force =    -0.00075499    0.00043853    0.00121198
     atom    9 type  1   force =    -0.00051094    0.00002106   -0.10751562
     atom   10 type  1   force =    -0.00113736    0.00036121   -0.01504653
     atom   11 type  1   force =     0.00087537    0.00093903   -0.01650939
     atom   12 type  1   force =     0.00025485   -0.00131459   -0.01643544
     atom   13 type  2   force =     0.04797109   -0.00001250    0.31624967
     atom   14 type  3   force =    -0.08014083    0.00001907   -0.07360868
     atom   15 type  3   force =     0.01636872   -0.04495083   -0.05613765
     atom   16 type  3   force =     0.01638432    0.04493036   -0.05614422

     Total force =     0.370633     Total SCF correction =     0.002644

     entering subroutine stress ...

     negative rho (up, down):  1.025E-03 0.000E+00
          total   stress  (Ry/bohr**3)                   (kbar)     P=  -28.32
  -0.00024865   0.00000007  -0.00001426        -36.58      0.01     -2.10
   0.00000007  -0.00023632  -0.00000001          0.01    -34.76     -0.00
  -0.00001426  -0.00000001  -0.00009251         -2.10     -0.00    -13.61

     BFGS Geometry Optimization

     number of scf cycles    =   1
     number of bfgs steps    =   0

     energy   new            =   -4874.3618350562 Ry

     new trust radius        =       0.3198672819 bohr
     new conv_thr            =       0.0000099958 Ry

ATOMIC_POSITIONS (crystal)
Cu1      0.166666667   0.166666667   0.412653782    0   0   0
Cu1      0.666666667   0.166666667   0.412653782    0   0   0
Cu1      0.166666667   0.666666667   0.412653782    0   0   0
Cu1      0.666666667   0.666666667   0.412653782    0   0   0
Cu1      0.833333333   0.333333333   0.500000000    0   0   0
Cu1      0.333333333   0.333333333   0.500000000    0   0   0
Cu1      0.833333333   0.833333333   0.500000000    0   0   0
Cu1      0.333333333   0.833333333   0.500000000    0   0   0
Cu1     -0.000053389   0.000002482   0.584998432
Cu1      0.499862633   0.000042569   0.587017652
Cu1      0.000034010   0.500110666   0.586985708
Cu1      0.500103474   0.499845073   0.586987323
C1       0.004896797  -0.000001473   0.667209255
H1       0.202048470   0.000002247   0.684693225
H1       0.818478321   0.192801065   0.685074734
H1       0.011282184   0.807196523   0.685074591

     Writing output data file calc.save
     Check: negative starting charge=   -0.000135
     NEW-OLD atomic charge density approx. for the potential
     Check: negative starting charge=   -0.000134

[...]

     Total force =     0.068382     Total SCF correction =     0.007054
     SCF correction compared to forces is large: reduce conv_thr to get better values

[...]

     energy   old            =   -4874.3618350562 Ry
     energy   new            =   -4874.4318140914 Ry

     CASE: energy  _new < energy  _old

[...]

     Total force =     0.008426     Total SCF correction =     0.000691

[...]

     number of scf cycles    =  18
     number of bfgs steps    =  17

     energy   old            =   -4874.4433990637 Ry
     energy   new            =   -4874.4435098505 Ry

     CASE: energy  _new < energy  _old

     new trust radius        =       0.0073298921 bohr
     new conv_thr            =       0.0000001000 Ry

ATOMIC_POSITIONS (crystal)
Cu1      0.166666667   0.166666667   0.412653782    0   0   0
Cu1      0.666666667   0.166666667   0.412653782    0   0   0
Cu1      0.166666667   0.666666667   0.412653782    0   0   0
Cu1      0.666666667   0.666666667   0.412653782    0   0   0
Cu1      0.833333333   0.333333333   0.500000000    0   0   0
Cu1      0.333333333   0.333333333   0.500000000    0   0   0
Cu1      0.833333333   0.833333333   0.500000000    0   0   0
Cu1      0.333333333   0.833333333   0.500000000    0   0   0
Cu1      0.000635388  -0.000006122   0.593799667
Cu1      0.499648429   0.000217817   0.584548676
Cu1     -0.000152111   0.500231385   0.584532803
Cu1      0.499866504   0.499547428   0.584521129
C1       0.009040225   0.000000013   0.677155153
H1       0.208468450   0.000191061   0.691569273
H1       0.810530556   0.198633445   0.692072437
H1       0.009544606   0.801171883   0.692070725

     Writing output data file calc.save
     Check: negative starting charge=   -0.000133
     NEW-OLD atomic charge density approx. for the potential
     Check: negative starting charge=   -0.000133

[...]

     Self-consistent Calculation

[...]

     total energy              =   -4874.44352805 Ry
     Harris-Foulkes estimate   =   -4874.44352807 Ry
     estimated scf accuracy    <       0.00000039 Ry

     iteration #  8     ecut=    36.75 Ry     beta=0.30
     Davidson diagonalization with overlap
     ethr =  1.64E-10,  avg # of iterations =  2.2

[...]

     negative rho (up, down):  1.010E-03 0.000E+00

     Adding external electric field

     Computed dipole along edir(3) :
        Dipole                0.0354 Ry au,          0.0899 Debye
        Dipole field          0.0001 Ry au

        Potential amp.       -0.0104 Ry
        Total length         44.6496 bohr

     End of self-consistent calculation

[...]

          k = 0.0643-0.0742 0.0000 ( 14299 PWs)   bands (ev):

[...]

          k =-0.0964-0.0557 0.0000 ( 14294 PWs)   bands (ev):

  -112.0770-112.0082-111.9551-111.9538-111.9494-111.7167-111.6966-111.6953
  -111.6927-111.6806-111.6779-111.6768 -69.5370 -69.4224 -69.4208 -69.4132
   -69.4116 -69.4016 -69.3749 -69.3546 -69.3538 -69.3497 -69.3477 -69.3469
   -69.3452 -69.3419 -69.3262 -69.1482 -69.1431 -69.1308 -69.1290 -69.1181
   -69.1135 -69.1002 -69.0993 -69.0971 -69.0937 -69.0902 -69.0874 -69.0841
   -69.0840 -69.0693 -69.0652 -69.0642 -69.0617 -69.0394 -69.0366 -69.0357
   -11.6058  -5.9088  -5.8302  -4.9822  -4.7661  -4.2574  -4.1950  -3.6425
    -3.6212  -3.3899  -3.3879  -3.3739  -3.3357  -3.0953  -3.0825  -2.9301
    -2.8746  -2.8700  -2.8181  -2.7412  -2.6688  -2.6534  -2.6176  -2.5612
    -2.5198  -2.4497  -2.3260  -2.2786  -2.2499  -2.2311  -2.1544  -2.1366
    -2.0864  -2.0568  -2.0319  -2.0222  -1.9895  -1.9815  -1.9793  -1.9609
    -1.9291  -1.8784  -1.8771  -1.8022  -1.7427  -1.7125  -1.6505  -1.5633
    -1.5512  -1.5291  -1.4792  -1.4510  -1.4188  -1.3916  -1.3814  -1.3621
    -1.3160  -1.2376  -1.2261  -1.1995  -1.0616  -1.0322  -1.0043  -0.9956
    -0.9671  -0.9412  -0.8835  -0.0204   0.5722   0.6249   0.9639   1.5307
     1.8344   2.1614   3.6414   3.7841   4.2208   5.0301   5.4550

     the Fermi energy is     0.6207 ev

!    total energy              =   -4874.44352807 Ry
     Harris-Foulkes estimate   =   -4874.44352816 Ry
     estimated scf accuracy    <       0.00000007 Ry

     The total energy is the sum of the following terms:

     one-electron contribution =  -37618.25241601 Ry
     hartree contribution      =   18827.28430687 Ry
     xc contribution           =    -486.07749800 Ry
     ewald contribution        =   14402.63041126 Ry
     electric field correction =       0.00000413 Ry
     smearing contrib. (-TS)   =      -0.02833632 Ry

     convergence has been achieved in   8 iterations

 BEEF-vdW xc energy contributions
           1 :   -430.520883456111
           2 :    390.066582153587
           3 :   -321.680627225059
           4 :    244.277730352415
           5 :   -174.924361431476
           6 :    122.813965529620
           7 :   -87.9024351659615
           8 :    64.0816945118513
           9 :   -44.4688210159671
          10 :    25.5661803140247
          11 :   -8.21833660820414
          12 :   -4.49141477267494
          13 :    10.4337987179431
          14 :   -10.4069408751805
          15 :    7.74065158876164
          16 :   -6.12403938602677
          17 :    7.35613009776421
          18 :   -10.5628753748650
          19 :    13.2566171414350
          20 :   -13.3404797641634
          21 :    10.6122282970575
          22 :   -6.79836350646224
          23 :    4.23157049320770
          24 :   -4.20078346774949
          25 :    6.13984799500236
          26 :   -8.15645777725638
          27 :    8.44274948388454
          28 :   -6.53588001086086
          29 :    3.56469327259276
          30 :   -1.37069138170227
          31 :   -34.5496007729188
          32 :   -23.5877361457208

     Forces acting on atoms (Ry/au):

     negative rho (up, down):  1.010E-03 0.000E+00
     atom    1 type  1   force =    -0.00161899   -0.00099093    0.00330433
     atom    2 type  1   force =     0.00161729   -0.00087648    0.00313700
     atom    3 type  1   force =     0.00008457    0.00186874    0.00322562
     atom    4 type  1   force =    -0.00008246    0.00000072    0.00241965
     atom    5 type  1   force =     0.00003545   -0.00650678   -0.00166480
     atom    6 type  1   force =    -0.00005801   -0.00002834   -0.00772372
     atom    7 type  1   force =     0.00558539    0.00340793   -0.00127231
     atom    8 type  1   force =    -0.00563358    0.00312435   -0.00198198
     atom    9 type  1   force =    -0.00008119    0.00000134   -0.00015806
     atom   10 type  1   force =     0.00006592    0.00001828    0.00004549
     atom   11 type  1   force =     0.00017368    0.00009594    0.00008220
     atom   12 type  1   force =     0.00013754   -0.00011458    0.00008534
     atom   13 type  2   force =     0.00032130   -0.00000842   -0.00066764
     atom   14 type  3   force =    -0.00106394    0.00001207    0.00016488
     atom   15 type  3   force =     0.00024475    0.00028726    0.00050371
     atom   16 type  3   force =     0.00027227   -0.00029114    0.00050028

     Total force =     0.001624     Total SCF correction =     0.000526
     SCF correction compared to forces is large: reduce conv_thr to get better values

     entering subroutine stress ...

     negative rho (up, down):  1.010E-03 0.000E+00
          total   stress  (Ry/bohr**3)                   (kbar)     P=  -20.92
  -0.00016297   0.00000008  -0.00000026        -23.97      0.01     -0.04
   0.00000008  -0.00016196   0.00000000          0.01    -23.82      0.00
  -0.00000026   0.00000000  -0.00010179         -0.04      0.00    -14.97

     bfgs converged in  19 scf cycles and  18 bfgs steps
     (criteria: energy <  1.0E+00, force <  1.9E-03)

     End of BFGS Geometry Optimization

     Final energy   =   -4874.4435280675 Ry
Begin final coordinates

ATOMIC_POSITIONS (crystal)
Cu1      0.166666667   0.166666667   0.412653782    0   0   0
Cu1      0.666666667   0.166666667   0.412653782    0   0   0
Cu1      0.166666667   0.666666667   0.412653782    0   0   0
Cu1      0.666666667   0.666666667   0.412653782    0   0   0
Cu1      0.833333333   0.333333333   0.500000000    0   0   0
Cu1      0.333333333   0.333333333   0.500000000    0   0   0
Cu1      0.833333333   0.833333333   0.500000000    0   0   0
Cu1      0.333333333   0.833333333   0.500000000    0   0   0
Cu1      0.000635388  -0.000006122   0.593799667
Cu1      0.499648429   0.000217817   0.584548676
Cu1     -0.000152111   0.500231385   0.584532803
Cu1      0.499866504   0.499547428   0.584521129
C1       0.009040225   0.000000013   0.677155153
H1       0.208468450   0.000191061   0.691569273
H1       0.810530556   0.198633445   0.692072437
H1       0.009544606   0.801171883   0.692070725
End final coordinates

     Writing output data file calc.save

     General routines

     Parallel routines

   This run was terminated on:   9:38:41  17Apr2018

   JOB DONE.