     Program PWSCF v.5.1rc2 (svn rev. 11289) starts on 16Apr2018 at 10: 0: 5

     Current dimensions of program PWSCF are:
     Max number of different atomic species (ntypx) = 10
     Max number of k-points (npk) =  40000
     Max angular momentum in pseudopotentials (lmaxx) =  3
     Presently stress not available with electric field

     IMPORTANT: XC functional enforced from input :
     Exchange-correlation      = BEEF-VDW ( 1  4 27 13 2)
     Any further DFT definition will be discarded
     Please, verify this is what you really want

     Subspace diagonalization in iterative solution of the eigenvalue problem:
     a serial algorithm will be used

     bravais-lattice index     =            0
     lattice parameter (alat)  =       1.8897  a.u.
     unit-cell volume          =    5174.6160 (a.u.)^3
     number of atoms/cell      =           14
     number of atomic types    =            3
     number of electrons       =       235.00
     number of Kohn-Sham states=          127
     kinetic-energy cutoff     =      36.7493  Ry
     charge density cutoff     =     367.4932  Ry
     convergence threshold     =      1.0E-05
     mixing beta               =       0.3000
     number of iterations used =           10  plain     mixing
     Exchange-correlation      = BEEF-VDW ( 1  4 27 13 2)
     nstep                     =           50

     celldm(1)=   1.889726  celldm(2)=   0.000000  celldm(3)=   0.000000
     celldm(4)=   0.000000  celldm(5)=   0.000000  celldm(6)=   0.000000

     crystal axes: (cart. coord. in units of alat)
               a(1) = (   5.966546   0.000000   0.000000 )
               a(2) = (   2.983273   5.167181   0.000000 )
               a(3) = (   0.000000   0.000000  24.871665 )

     reciprocal axes: (cart. coord. in units 2 pi/alat)
               b(1) = (  0.167601 -0.096765  0.000000 )
               b(2) = (  0.000000  0.193529  0.000000 )
               b(3) = (  0.000000  0.000000  0.040206 )

     PseudoPot. # 1 for Ag read from file:
     /u/if/mamunm/psp/gbrv1.5pbe/Ag.UPF
     MD5 check sum: d66d668201baa78d5eb5b04ef7011058
     Pseudo is Ultrasoft + core correction, Zval = 19.0
     Generated by new atomic code, or converted to UPF format
     Using radial grid of  887 points,  6 beta functions with:
                l(1) =   0
                l(2) =   0
                l(3) =   1
                l(4) =   1
                l(5) =   2
                l(6) =   2
     Q(r) pseudized with  6 coefficients,  rinner =    1.300   1.300   1.300
                                                       1.300   1.300

     PseudoPot. # 2 for O  read from file:
     /u/if/mamunm/psp/gbrv1.5pbe/O.UPF
     MD5 check sum: 734c27235a0248c51dbae37a1fbe46ec
     Pseudo is Ultrasoft + core correction, Zval =  6.0
     Generated by new atomic code, or converted to UPF format
     Using radial grid of  737 points,  5 beta functions with:
                l(1) =   0
                l(2) =   0
                l(3) =   1
                l(4) =   1
                l(5) =   2
     Q(r) pseudized with  8 coefficients,  rinner =    0.900   0.900   0.900
                                                       0.900   0.900

     PseudoPot. # 3 for H  read from file:
     /u/if/mamunm/psp/gbrv1.5pbe/H.UPF
     MD5 check sum: 761ae9a214b05c3daf00ab9f6b793d6f
     Pseudo is Ultrasoft, Zval =  1.0
     Generated by new atomic code, or converted to UPF format
     Using radial grid of  615 points,  2 beta functions with:
                l(1) =   0
                l(2) =   0
     Q(r) pseudized with  8 coefficients,  rinner =    0.700

     vdW kernel table read from file vdW_kernel_table
     MD5 check sum: 095c7af220d748ca6e76c0b4c6cfb241

     atomic species   valence    mass     pseudopotential
        Ag1           19.00   107.86820     Ag( 1.00)
        O1             6.00    15.99900     O ( 1.00)
        H1             1.00     1.00800     H ( 1.00)

     No symmetry found

   Cartesian axes

     site n.     atom                  positions (alat units)
         1           Ag1 tau(   1) = (   1.4916366   0.8611968  10.0000000  )
         2           Ag1 tau(   2) = (   4.4749098   0.8611968  10.0000000  )
         3           Ag1 tau(   3) = (   2.9832732   3.4447871  10.0000000  )
         4           Ag1 tau(   4) = (   5.9665464   3.4447871  10.0000000  )
         5           Ag1 tau(   5) = (   5.9665464   1.7223936  12.4358324  )
         6           Ag1 tau(   6) = (   2.9832732   1.7223936  12.4358324  )
         7           Ag1 tau(   7) = (   7.4581830   4.3059839  12.4358324  )
         8           Ag1 tau(   8) = (   4.4749098   4.3059839  12.4358324  )
         9           Ag1 tau(   9) = (   0.0000000   0.0000000  14.8716647  )
        10           Ag1 tau(  10) = (   2.9832732   0.0000000  14.8716647  )
        11           Ag1 tau(  11) = (   1.4916366   2.5835904  14.8716647  )
        12           Ag1 tau(  12) = (   4.4749098   2.5835904  14.8716647  )
        13           O1  tau(  13) = (   1.4916366   0.8611968  16.2431647  )
        14           H1  tau(  14) = (   1.4916366   0.8611968  17.1931647  )

     number of k points=    20  Fermi-Dirac smearing, width (Ry)=  0.0110
                       cart. coord. in units 2pi/alat
        k(    1) = (   0.0000000   0.0000000   0.0000000), wk =   0.0555556
        k(    2) = (   0.0000000   0.0322549   0.0000000), wk =   0.1111111
        k(    3) = (   0.0000000   0.0645097   0.0000000), wk =   0.1111111
        k(    4) = (   0.0000000  -0.0967646   0.0000000), wk =   0.0555556
        k(    5) = (   0.0279335  -0.0161274   0.0000000), wk =   0.1111111
        k(    6) = (   0.0279335   0.0161274   0.0000000), wk =   0.1111111
        k(    7) = (   0.0279335   0.0483823   0.0000000), wk =   0.1111111
        k(    8) = (   0.0279335  -0.1128920   0.0000000), wk =   0.1111111
        k(    9) = (   0.0279335  -0.0806371   0.0000000), wk =   0.1111111
        k(   10) = (   0.0279335  -0.0483823   0.0000000), wk =   0.1111111
        k(   11) = (   0.0558670  -0.0322549   0.0000000), wk =   0.1111111
        k(   12) = (   0.0558670   0.0000000   0.0000000), wk =   0.1111111
        k(   13) = (   0.0558670   0.0322549   0.0000000), wk =   0.1111111
        k(   14) = (   0.0558670  -0.1290194   0.0000000), wk =   0.1111111
        k(   15) = (   0.0558670  -0.0967646   0.0000000), wk =   0.1111111
        k(   16) = (   0.0558670  -0.0645097   0.0000000), wk =   0.1111111
        k(   17) = (  -0.0838006   0.0483823   0.0000000), wk =   0.0555556
        k(   18) = (  -0.0838006   0.0806371   0.0000000), wk =   0.1111111
        k(   19) = (  -0.0838006   0.1128920   0.0000000), wk =   0.1111111
        k(   20) = (  -0.0838006  -0.0483823   0.0000000), wk =   0.0555556

     Largest allocated arrays     est. size (Mb)     dimensions
     Largest temporary arrays     est. size (Mb)     dimensions

     Initial potential from superposition of free atoms
     Check: negative starting charge=   -0.002102

     starting charge  228.99942, renormalised to  235.00000

     negative rho (up, down):  2.157E-03 0.000E+00

     *
     * You are using vdW-DF for exchange-correlation in this calculation.
     * Please cite the following three references that made this development
     * possible:
     *
     *   M. Dion, H. Rydberg, E. Schroder, D. C. Langreth, and
     *   B. I. Lundqvist, Phys. Rev. Lett. 92, 246401 (2004).
     *
     *   T. Thonhauser, V. R. Cooper, S. Li, A. Puzder, P. Hyldgaard, and
     *   D. C. Langreth, Phys. Rev. B 76, 125112 (2007).
     *
     *   G. Roman-Perez and J. M. Soler, Phys. Rev. Lett. 103, 096102 (2009).
     *
     *
     * If you are using vdW-DF2, please also cite:
     *
     *   K. Lee, E. D. Murray, L. Kong, B. I. Lundqvist, and
     *   D. C. Langreth, Phys. Rev. B 82, 081101(R) (2010).
     *
     *
     * If you are calculating the stress with vdW-DF, please also cite:
     *
     *   R. Sabatini, E. Kucukbenli, B. Kolb, T. Thonhauser, and
     *   S. de Gironcoli, J. Phys.: Condens. Matter 24, 424209 (2012).
     *

     Carrying out vdW-DF run using the following parameters:

     Nqs =      20    Nr_points =    1024   r_max =   100.000
     q_mesh =
               0.00001000     0.04494208     0.09755937     0.15916263
               0.23128650     0.31572767     0.41458969     0.53033537
               0.66584808     0.82450364     1.01025438     1.22772762
               1.48234092     1.78043706     2.12944203     2.53805004
               3.01644009     3.57652955     4.23227104     5.00000000

     Gradients computed in reciprocal space

     Adding external electric field

     Computed dipole along edir(3) :
        Dipole               -1.3667 Ry au,         -3.4737 Debye
        Dipole field         -0.0033 Ry au

        Potential amp.        0.3042 Ry
        Total length         45.8256 bohr

     Starting wfc are  161 randomized atomic wfcs

     Self-consistent Calculation

     iteration #  1     ecut=    36.75 Ry     beta=0.30
     Davidson diagonalization with overlap
     ethr =  1.00E-02,  avg # of iterations =  5.8

[...]

     total energy              =   -3577.05424089 Ry
     Harris-Foulkes estimate   =   -3596.46313471 Ry
     estimated scf accuracy    <      41.68040724 Ry

[...]

     End of self-consistent calculation

          k = 0.0000 0.0000 0.0000 ( 19435 PWs)   bands (ev):

   -90.4458 -90.4396 -90.4371 -90.4371 -90.2939 -90.2508 -90.2453 -90.2453
   -90.2157 -90.1759 -90.1707 -90.1707 -53.9814 -53.9808 -53.9808 -53.9457
   -53.9347 -53.9347 -53.9278 -53.9202 -53.9202 -53.9155 -53.8979 -53.8979
   -53.8132 -53.8132 -53.7936 -53.7835 -53.7835 -53.7754 -53.7315 -53.7297
   -53.7281 -53.7271 -53.7271 -53.7228 -53.7228 -53.7098 -53.7098 -53.6999
   -53.6999 -53.6890 -53.6874 -53.6712 -53.6712 -53.6393 -53.6179 -53.6179
   -18.3491  -6.8034  -4.8237  -4.2074  -4.2074  -4.1860  -4.1461  -4.1309
    -4.1309  -4.0411  -3.9796  -3.9512  -3.9512  -3.8408  -3.8330  -3.8330
    -3.5088  -3.5088  -3.4252  -3.1134  -3.1134  -3.0942  -3.0436  -3.0436
    -3.0109  -3.0014  -3.0014  -2.8297  -2.8297  -2.7943  -2.7609  -2.7609
    -2.7229  -2.5201  -2.5201  -2.2774  -2.2122  -2.2122  -2.1685  -2.1685
    -2.1283  -2.1261  -2.0247  -2.0247  -1.8924  -1.8924  -1.7784  -1.7784
    -1.7045  -1.6712  -1.6462  -1.6462  -1.5958  -1.5958  -1.5284  -1.5284
    -1.5223  -1.3764  -1.3764  -1.3707  -1.3456  -1.3352  -1.3352  -1.3103
    -0.5083  -0.5083   0.6059   2.1179   2.1347   2.1347   2.3425   2.8947
     2.8947   3.0627   3.3709   3.3709   3.7947   4.6242   5.3249

[...]

          k =-0.0838 0.0484 0.0000 ( 19500 PWs)   bands (ev):

[...]

     the Fermi energy is     1.5988 ev

!    total energy              =   -3593.57095034 Ry
     Harris-Foulkes estimate   =   -3593.57093429 Ry
     estimated scf accuracy    <       0.00000513 Ry

     The total energy is the sum of the following terms:

     one-electron contribution =  -26412.71305214 Ry
     hartree contribution      =   13203.09474396 Ry
     xc contribution           =    -369.50491900 Ry
     ewald contribution        =    9985.57688997 Ry
     electric field correction =       0.00014589 Ry
     smearing contrib. (-TS)   =      -0.02475901 Ry

     convergence has been achieved in  15 iterations

 BEEF-vdW xc energy contributions
           1 :   -320.067875058770
           2 :    289.531564887877
           3 :   -238.665077725643
           4 :    182.896050757020
           5 :   -136.154714186370
           6 :    105.861663741495
           7 :   -91.6008740733164
           8 :    87.4031013045363
           9 :   -85.9173367054888
          10 :    82.1074762555522
          11 :   -74.7957479186948
          12 :    65.7979563408317
          13 :   -57.7407143951054
          14 :    52.1228587591920
          15 :   -48.6843931666956
          16 :    46.1034096439137
          17 :   -43.2141283350527
          18 :    39.7860191940048
          19 :   -36.4300912140444
          20 :    33.8889737905481
          21 :   -32.3536919417249
          22 :    31.3126124994267
          23 :   -29.9771807331165
          24 :    27.9000696649237
          25 :   -25.3107767655173
          26 :    22.9397186630388
          27 :   -21.4878298533815
          28 :    21.1362821261972
          29 :   -21.4406909534076
          30 :    21.6581520007188
          31 :   -32.0029070238754
          32 :   -23.2190161412141

     Forces acting on atoms (Ry/au):

     negative rho (up, down):  2.134E-03 0.000E+00
     atom    1 type  1   force =     0.00000048    0.00000042    0.00108484
     atom    2 type  1   force =    -0.00000015    0.00044679    0.00077845
     atom    3 type  1   force =     0.00038596   -0.00022301    0.00077952
     atom    4 type  1   force =    -0.00038574   -0.00022273    0.00077989
     atom    5 type  1   force =     0.00091344   -0.00052812    0.00005143
     atom    6 type  1   force =    -0.00091359   -0.00052816    0.00005164
     atom    7 type  1   force =    -0.00000022    0.00000013    0.01286522
     atom    8 type  1   force =     0.00000023    0.00105513    0.00005201
     atom    9 type  1   force =    -0.03854072   -0.02225223   -0.02048449
     atom   10 type  1   force =     0.03854041   -0.02225167   -0.02048499
     atom   11 type  1   force =     0.00000057    0.04450309   -0.02048429
     atom   12 type  1   force =    -0.00000051    0.00000044   -0.01025097
     atom   13 type  2   force =    -0.00000016    0.00000006    0.00444712
     atom   14 type  3   force =     0.00000001   -0.00000013    0.05081462

     Total force =     0.099536     Total SCF correction =     0.001705

     entering subroutine stress ...

     negative rho (up, down):  2.134E-03 0.000E+00
          total   stress  (Ry/bohr**3)                   (kbar)     P=   -1.64
  -0.00002046  -0.00000000  -0.00000000         -3.01     -0.00     -0.00
  -0.00000000  -0.00002046  -0.00000000         -0.00     -3.01     -0.00
  -0.00000000  -0.00000000   0.00000755         -0.00     -0.00      1.11

     BFGS Geometry Optimization

     number of scf cycles    =   1
     number of bfgs steps    =   0

     energy   new            =   -3593.5709503404 Ry

     new trust radius        =       0.0508146215 bohr
     new conv_thr            =       0.0000099958 Ry

ATOMIC_POSITIONS (crystal)
Ag1      0.166666667   0.166666667   0.402063960    0   0   0
Ag1      0.666666667   0.166666667   0.402063960    0   0   0
Ag1      0.166666667   0.666666667   0.402063960    0   0   0
Ag1      0.666666667   0.666666667   0.402063960    0   0   0
Ag1      0.833333333   0.333333333   0.500000000    0   0   0
Ag1      0.333333333   0.333333333   0.500000000    0   0   0
Ag1      0.833333333   0.833333333   0.500000000    0   0   0
Ag1      0.333333333   0.833333333   0.500000000    0   0   0
Ag1     -0.002278765  -0.002278878   0.597500206
Ag1      0.504557587  -0.002278821   0.597500195
Ag1     -0.002278757   0.504557615   0.597500210
Ag1      0.499999932   0.500000045   0.597717937
O1       0.166666650   0.166666672   0.653173730
H1       0.166666674   0.166666653   0.692356336

     Writing output data file calc.save
     Check: negative starting charge=   -0.002102
     NEW-OLD atomic charge density approx. for the potential
     Check: negative starting charge=   -0.002106

[...]

     energy   old            =   -3593.5709503404 Ry
     energy   new            =   -3593.5785620432 Ry

     CASE: energy  _new < energy  _old

[...]

     Threshold (ethr) on eigenvalues was too large:
     Diagonalizing with lowered threshold

     Davidson diagonalization with overlap
     ethr =  1.60E-08,  avg # of iterations =  1.0

[...]

     Total force =     0.007123     Total SCF correction =     0.000513

[...]

     Total force =     0.004705     Total SCF correction =     0.000764
     SCF correction compared to forces is large: reduce conv_thr to get better values

[...]

     number of scf cycles    =  11
     number of bfgs steps    =  10

     energy   old            =   -3593.5874485079 Ry
     energy   new            =   -3593.5874612090 Ry

     CASE: energy  _new < energy  _old

     new trust radius        =       0.0045872773 bohr
     new conv_thr            =       0.0000001000 Ry

ATOMIC_POSITIONS (crystal)
Ag1      0.166666667   0.166666667   0.402063960    0   0   0
Ag1      0.666666667   0.166666667   0.402063960    0   0   0
Ag1      0.166666667   0.666666667   0.402063960    0   0   0
Ag1      0.666666667   0.666666667   0.402063960    0   0   0
Ag1      0.833333333   0.333333333   0.500000000    0   0   0
Ag1      0.333333333   0.333333333   0.500000000    0   0   0
Ag1      0.833333333   0.833333333   0.500000000    0   0   0
Ag1      0.333333333   0.833333333   0.500000000    0   0   0
Ag1     -0.007406402  -0.007406282   0.596762567
Ag1      0.514812669  -0.007406351   0.596762572
Ag1     -0.007406392   0.514812646   0.596762568
Ag1      0.500000085   0.499999907   0.593912775
O1       0.166666673   0.166666640   0.655995185
H1       0.166666678   0.166666647   0.695115930

     Writing output data file calc.save
     Check: negative starting charge=   -0.002155
     NEW-OLD atomic charge density approx. for the potential
     Check: negative starting charge=   -0.002153

[...]

     Self-consistent Calculation

[...]

     Threshold (ethr) on eigenvalues was too large:
     Diagonalizing with lowered threshold

     Davidson diagonalization with overlap
     ethr =  3.18E-09,  avg # of iterations =  1.1

[...]

     total energy              =   -3593.58746808 Ry
     Harris-Foulkes estimate   =   -3593.58746801 Ry
     estimated scf accuracy    <       0.00000017 Ry

     iteration #  5     ecut=    36.75 Ry     beta=0.30
     Davidson diagonalization with overlap
     ethr =  7.16E-11,  avg # of iterations =  2.2

[...]

     negative rho (up, down):  2.205E-03 0.000E+00

     Adding external electric field

     Computed dipole along edir(3) :
        Dipole                0.1416 Ry au,          0.3599 Debye
        Dipole field          0.0003 Ry au

        Potential amp.       -0.0315 Ry
        Total length         45.8256 bohr

     End of self-consistent calculation

[...]

          k = 0.0559-0.0645 0.0000 ( 19479 PWs)   bands (ev):

[...]

          k =-0.0838-0.0484 0.0000 ( 19500 PWs)   bands (ev):

   -90.5937 -90.5787 -90.5767 -90.5751 -90.4434 -90.3682 -90.3666 -90.3647
   -90.3413 -90.2524 -90.2481 -90.2470 -54.1112 -54.1036 -54.0913 -54.0865
   -54.0810 -54.0776 -54.0747 -54.0742 -54.0739 -54.0702 -54.0509 -54.0455
   -53.9518 -53.9477 -53.9285 -53.8974 -53.8871 -53.8710 -53.8708 -53.8667
   -53.8475 -53.8468 -53.8454 -53.8445 -53.8412 -53.8280 -53.8146 -53.8051
   -53.7925 -53.7894 -53.7706 -53.7599 -53.7490 -53.7051 -53.6924 -53.6846
   -17.6370  -5.9089  -4.0983  -4.0779  -3.9421  -3.9150  -3.9008  -3.8768
    -3.7943  -3.7734  -3.6945  -3.6928  -3.6442  -3.6082  -3.5606  -3.4994
    -3.4607  -3.4411  -3.2716  -3.2388  -3.2199  -3.2130  -3.1741  -3.1707
    -3.0878  -3.0685  -3.0359  -2.9721  -2.8767  -2.8645  -2.8250  -2.7805
    -2.7497  -2.6797  -2.6091  -2.5939  -2.5743  -2.5633  -2.5318  -2.5222
    -2.4906  -2.4432  -2.3913  -2.3538  -2.3274  -2.3243  -2.2825  -2.2648
    -2.2597  -2.2323  -2.1913  -2.1813  -2.1625  -2.0367  -2.0353  -1.9974
    -1.9535  -1.7885  -1.7338  -1.6980  -1.6789  -1.6741  -1.5561  -1.5535
    -1.2227  -0.5355  -0.4074  -0.0736   1.2714   1.2870   2.0888   2.1112
     2.8193   2.9999   4.4106   4.5024   5.1055   5.1432   6.0515

     the Fermi energy is     1.4718 ev

!    total energy              =   -3593.58746809 Ry
     Harris-Foulkes estimate   =   -3593.58746800 Ry
     estimated scf accuracy    <       0.00000005 Ry

     The total energy is the sum of the following terms:

     one-electron contribution =  -26530.22491142 Ry
     hartree contribution      =   13261.17643171 Ry
     xc contribution           =    -369.46120008 Ry
     ewald contribution        =   10044.94702527 Ry
     electric field correction =       0.00004870 Ry
     smearing contrib. (-TS)   =      -0.02486227 Ry

     convergence has been achieved in   5 iterations

 BEEF-vdW xc energy contributions
           1 :   -320.024300685958
           2 :    289.481751762550
           3 :   -238.616262249887
           4 :    182.861120899911
           5 :   -136.137484234580
           6 :    105.852397894008
           7 :   -91.5857396370826
           8 :    87.3791669494843
           9 :   -85.8971927064275
          10 :    82.1081480498359
          11 :   -74.8214704248038
          12 :    65.8316726339207
          13 :   -57.7542688323632
          14 :    52.0999969788974
          15 :   -48.6374991425919
          16 :    46.0690401030326
          17 :   -43.2275972287611
          18 :    39.8525834521291
          19 :   -36.5154735548530
          20 :    33.9398445613923
          21 :   -32.3357218835704
          22 :    31.2376061964517
          23 :   -29.8974151532184
          24 :    27.8722144606220
          25 :   -25.3549963887504
          26 :    23.0252664269473
          27 :   -21.5573821748122
          28 :    21.1510799432906
          29 :   -21.4121848549095
          30 :    21.6414736154947
          31 :   -32.0012623798694
          32 :   -23.2164304486138

     Forces acting on atoms (Ry/au):

     negative rho (up, down):  2.205E-03 0.000E+00
     atom    1 type  1   force =    -0.00000000    0.00000000    0.00079374
     atom    2 type  1   force =     0.00000000    0.00039766   -0.00011089
     atom    3 type  1   force =     0.00034439   -0.00019883   -0.00011090
     atom    4 type  1   force =    -0.00034438   -0.00019884   -0.00011090
     atom    5 type  1   force =     0.00327485   -0.00189073   -0.00287432
     atom    6 type  1   force =    -0.00327485   -0.00189073   -0.00287429
     atom    7 type  1   force =    -0.00000000   -0.00000000    0.00338507
     atom    8 type  1   force =    -0.00000001    0.00378146   -0.00287427
     atom    9 type  1   force =    -0.00013363   -0.00007727    0.00078238
     atom   10 type  1   force =     0.00013365   -0.00007718    0.00078235
     atom   11 type  1   force =     0.00000008    0.00015438    0.00078237
     atom   12 type  1   force =    -0.00000009    0.00000009    0.00116648
     atom   13 type  2   force =    -0.00000000   -0.00000000    0.00069577
     atom   14 type  3   force =    -0.00000000   -0.00000000    0.00056741

     Total force =     0.002019     Total SCF correction =     0.001166
     SCF correction compared to forces is large: reduce conv_thr to get better values

     entering subroutine stress ...

     negative rho (up, down):  2.205E-03 0.000E+00
          total   stress  (Ry/bohr**3)                   (kbar)     P=   -3.08
  -0.00002350  -0.00000000   0.00000000         -3.46     -0.00      0.00
  -0.00000000  -0.00002350   0.00000000         -0.00     -3.46      0.00
   0.00000000   0.00000000  -0.00001572          0.00      0.00     -2.31

     bfgs converged in  12 scf cycles and  11 bfgs steps
     (criteria: energy <  1.0E+00, force <  1.9E-03)

     End of BFGS Geometry Optimization

     Final energy   =   -3593.5874680861 Ry
Begin final coordinates

ATOMIC_POSITIONS (crystal)
Ag1      0.166666667   0.166666667   0.402063960    0   0   0
Ag1      0.666666667   0.166666667   0.402063960    0   0   0
Ag1      0.166666667   0.666666667   0.402063960    0   0   0
Ag1      0.666666667   0.666666667   0.402063960    0   0   0
Ag1      0.833333333   0.333333333   0.500000000    0   0   0
Ag1      0.333333333   0.333333333   0.500000000    0   0   0
Ag1      0.833333333   0.833333333   0.500000000    0   0   0
Ag1      0.333333333   0.833333333   0.500000000    0   0   0
Ag1     -0.007406402  -0.007406282   0.596762567
Ag1      0.514812669  -0.007406351   0.596762572
Ag1     -0.007406392   0.514812646   0.596762568
Ag1      0.500000085   0.499999907   0.593912775
O1       0.166666673   0.166666640   0.655995185
H1       0.166666678   0.166666647   0.695115930
End final coordinates

     Writing output data file calc.save

     General routines

     Parallel routines

   This run was terminated on:  11:10:51  16Apr2018

   JOB DONE.
Job  /afs/slac/g/suncat/bin/suncat-tsmpirun -x LD_LIBRARY_PATH -wdir /scratch/qe101350_qBPAh pw.x -npool 4 -in pw.inp

TID   HOST_NAME   COMMAND_LINE            STATUS            TERMINATION_TIME
00000 suncat0167 pw.x -npool 4 -i  Done                     04/16/2018 11:10:51
00001 suncat0167 pw.x -npool 4 -i  Done                     04/16/2018 11:10:51
00002 suncat0167 pw.x -npool 4 -i  Done                     04/16/2018 11:10:51
00003 suncat0167 pw.x -npool 4 -i  Done                     04/16/2018 11:10:51
00004 suncat0167 pw.x -npool 4 -i  Done                     04/16/2018 11:10:51
00005 suncat0167 pw.x -npool 4 -i  Done                     04/16/2018 11:10:51
00006 suncat0167 pw.x -npool 4 -i  Done                     04/16/2018 11:10:51
00007 suncat0167 pw.x -npool 4 -i  Done                     04/16/2018 11:10:51
00008 suncat0162 pw.x -npool 4 -i  Done                     04/16/2018 11:10:51
00009 suncat0162 pw.x -npool 4 -i  Done                     04/16/2018 11:10:51
00010 suncat0162 pw.x -npool 4 -i  Done                     04/16/2018 11:10:51
00011 suncat0162 pw.x -npool 4 -i  Done                     04/16/2018 11:10:51
00012 suncat0162 pw.x -npool 4 -i  Done                     04/16/2018 11:10:51
00013 suncat0162 pw.x -npool 4 -i  Done                     04/16/2018 11:10:51
00014 suncat0162 pw.x -npool 4 -i  Done                     04/16/2018 11:10:51
00015 suncat0162 pw.x -npool 4 -i  Done                     04/16/2018 11:10:51
00016 suncat0142 pw.x -npool 4 -i  Done                     04/16/2018 11:10:51
00017 suncat0142 pw.x -npool 4 -i  Done                     04/16/2018 11:10:51
00018 suncat0142 pw.x -npool 4 -i  Done                     04/16/2018 11:10:51
00019 suncat0142 pw.x -npool 4 -i  Done                     04/16/2018 11:10:51
00020 suncat0142 pw.x -npool 4 -i  Done                     04/16/2018 11:10:51
00021 suncat0142 pw.x -npool 4 -i  Done                     04/16/2018 11:10:51
00022 suncat0142 pw.x -npool 4 -i  Done                     04/16/2018 11:10:51
00023 suncat0142 pw.x -npool 4 -i  Done                     04/16/2018 11:10:51
00024 suncat0140 pw.x -npool 4 -i  Done                     04/16/2018 11:10:51
00025 suncat0140 pw.x -npool 4 -i  Done                     04/16/2018 11:10:51
00026 suncat0140 pw.x -npool 4 -i  Done                     04/16/2018 11:10:51
00027 suncat0140 pw.x -npool 4 -i  Done                     04/16/2018 11:10:51
00028 suncat0140 pw.x -npool 4 -i  Done                     04/16/2018 11:10:51
00029 suncat0140 pw.x -npool 4 -i  Done                     04/16/2018 11:10:51
00030 suncat0140 pw.x -npool 4 -i  Done                     04/16/2018 11:10:51
00031 suncat0140 pw.x -npool 4 -i  Done                     04/16/2018 11:10:51