     Program PWSCF v.5.1rc2 (svn rev. ) starts on 17Apr2018 at  8:35:47

     Current dimensions of program PWSCF are:
     Max number of different atomic species (ntypx) = 10
     Max number of k-points (npk) =  40000
     Max angular momentum in pseudopotentials (lmaxx) =  3
     Presently stress not available with electric field

     IMPORTANT: XC functional enforced from input :
     Exchange-correlation      = BEEF-VDW ( 1  4 27 13 2)
     Any further DFT definition will be discarded
     Please, verify this is what you really want

     Subspace diagonalization in iterative solution of the eigenvalue problem:
     a serial algorithm will be used

     bravais-lattice index     =            0
     lattice parameter (alat)  =       1.8897  a.u.
     unit-cell volume          =    3807.2308 (a.u.)^3
     number of atoms/cell      =           14
     number of atomic types    =            3
     number of electrons       =       235.00
     number of Kohn-Sham states=          127
     kinetic-energy cutoff     =      36.7493  Ry
     charge density cutoff     =     367.4932  Ry
     convergence threshold     =      1.0E-05
     mixing beta               =       0.3000
     number of iterations used =           10  plain     mixing
     Exchange-correlation      = BEEF-VDW ( 1  4 27 13 2)
     nstep                     =           50

     celldm(1)=   1.889726  celldm(2)=   0.000000  celldm(3)=   0.000000
     celldm(4)=   0.000000  celldm(5)=   0.000000  celldm(6)=   0.000000

     crystal axes: (cart. coord. in units of alat)
               a(1) = (   5.184823   0.000000   0.000000 )
               a(2) = (   2.592411   4.490188   0.000000 )
               a(3) = (   0.000000   0.000000  24.233390 )

     reciprocal axes: (cart. coord. in units 2 pi/alat)
               b(1) = (  0.192871 -0.111354  0.000000 )
               b(2) = (  0.000000  0.222708  0.000000 )
               b(3) = (  0.000000  0.000000  0.041265 )

     PseudoPot. # 1 for Cu read from file:
     /home/mamunm/src/pseudo/gbrv1.5pbe/Cu.UPF
     MD5 check sum: 6e991ff952a84172a2a52a1c1e996048
     Pseudo is Ultrasoft + core correction, Zval = 19.0
     Generated by new atomic code, or converted to UPF format
     Using radial grid of  867 points,  6 beta functions with:
                l(1) =   0
                l(2) =   0
                l(3) =   1
                l(4) =   1
                l(5) =   2
                l(6) =   2
     Q(r) pseudized with  8 coefficients,  rinner =    1.150   1.150   1.150
                                                       1.150   1.150

     PseudoPot. # 2 for S  read from file:
     /home/mamunm/src/pseudo/gbrv1.5pbe/S.UPF
     MD5 check sum: 88d86576ff6df21479756cfb9bdac1df
     Pseudo is Ultrasoft + core correction, Zval =  6.0
     Generated by new atomic code, or converted to UPF format
     Using radial grid of  907 points,  6 beta functions with:
                l(1) =   0
                l(2) =   0
                l(3) =   1
                l(4) =   1
                l(5) =   2
                l(6) =   2
     Q(r) pseudized with  8 coefficients,  rinner =    1.300   1.300   1.300
                                                       1.300   1.300

     PseudoPot. # 3 for H  read from file:
     /home/mamunm/src/pseudo/gbrv1.5pbe/H.UPF
     MD5 check sum: 761ae9a214b05c3daf00ab9f6b793d6f
     Pseudo is Ultrasoft, Zval =  1.0
     Generated by new atomic code, or converted to UPF format
     Using radial grid of  615 points,  2 beta functions with:
                l(1) =   0
                l(2) =   0
     Q(r) pseudized with  8 coefficients,  rinner =    0.700

     vdW kernel table read from file vdW_kernel_table
     MD5 check sum: 095c7af220d748ca6e76c0b4c6cfb241

     atomic species   valence    mass     pseudopotential
        Cu1           19.00    63.54600     Cu( 1.00)
        S1             6.00    32.06000     S ( 1.00)
        H1             1.00     1.00800     H ( 1.00)

     No symmetry found

   Cartesian axes

     site n.     atom                  positions (alat units)
         1           Cu1 tau(   1) = (   1.2962057   0.7483647  10.0000000  )
         2           Cu1 tau(   2) = (   3.8886170   0.7483647  10.0000000  )
         3           Cu1 tau(   3) = (   2.5924113   2.9934587  10.0000000  )
         4           Cu1 tau(   4) = (   5.1848226   2.9934587  10.0000000  )
         5           Cu1 tau(   5) = (   5.1848226   1.4967294  12.1166950  )
         6           Cu1 tau(   6) = (   2.5924113   1.4967294  12.1166950  )
         7           Cu1 tau(   7) = (   6.4810283   3.7418234  12.1166950  )
         8           Cu1 tau(   8) = (   3.8886170   3.7418234  12.1166950  )
         9           Cu1 tau(   9) = (   0.0000000   0.0000000  14.2333899  )
        10           Cu1 tau(  10) = (   2.5924113   0.0000000  14.2333899  )
        11           Cu1 tau(  11) = (   1.2962057   2.2450940  14.2333899  )
        12           Cu1 tau(  12) = (   3.8886170   2.2450940  14.2333899  )
        13           S1  tau(  13) = (   0.0000000   0.0000000  16.2478899  )
        14           H1  tau(  14) = (   0.0000000   0.0000000  17.4978899  )

     number of k points=    20  Fermi-Dirac smearing, width (Ry)=  0.0110
                       cart. coord. in units 2pi/alat
        k(    1) = (   0.0000000   0.0000000   0.0000000), wk =   0.0555556
        k(    2) = (   0.0000000   0.0371180   0.0000000), wk =   0.1111111
        k(    3) = (   0.0000000   0.0742359   0.0000000), wk =   0.1111111
        k(    4) = (   0.0000000  -0.1113539   0.0000000), wk =   0.0555556
        k(    5) = (   0.0321451  -0.0185590   0.0000000), wk =   0.1111111
        k(    6) = (   0.0321451   0.0185590   0.0000000), wk =   0.1111111
        k(    7) = (   0.0321451   0.0556770   0.0000000), wk =   0.1111111
        k(    8) = (   0.0321451  -0.1299129   0.0000000), wk =   0.1111111
        k(    9) = (   0.0321451  -0.0927949   0.0000000), wk =   0.1111111
        k(   10) = (   0.0321451  -0.0556770   0.0000000), wk =   0.1111111
        k(   11) = (   0.0642902  -0.0371180   0.0000000), wk =   0.1111111
        k(   12) = (   0.0642902  -0.0000000   0.0000000), wk =   0.1111111
        k(   13) = (   0.0642902   0.0371180   0.0000000), wk =   0.1111111
        k(   14) = (   0.0642902  -0.1484719   0.0000000), wk =   0.1111111
        k(   15) = (   0.0642902  -0.1113539   0.0000000), wk =   0.1111111
        k(   16) = (   0.0642902  -0.0742359   0.0000000), wk =   0.1111111
        k(   17) = (  -0.0964353   0.0556770   0.0000000), wk =   0.0555556
        k(   18) = (  -0.0964353   0.0927949   0.0000000), wk =   0.1111111
        k(   19) = (  -0.0964353   0.1299129   0.0000000), wk =   0.1111111
        k(   20) = (  -0.0964353  -0.0556770   0.0000000), wk =   0.0555556

     Largest allocated arrays     est. size (Mb)     dimensions
     Largest temporary arrays     est. size (Mb)     dimensions

     Initial potential from superposition of free atoms

     starting charge  222.99993, renormalised to  235.00000

     negative rho (up, down):  9.866E-05 0.000E+00

     *
     * You are using vdW-DF for exchange-correlation in this calculation.
     * Please cite the following three references that made this development
     * possible:
     *
     *   M. Dion, H. Rydberg, E. Schroder, D. C. Langreth, and
     *   B. I. Lundqvist, Phys. Rev. Lett. 92, 246401 (2004).
     *
     *   T. Thonhauser, V. R. Cooper, S. Li, A. Puzder, P. Hyldgaard, and
     *   D. C. Langreth, Phys. Rev. B 76, 125112 (2007).
     *
     *   G. Roman-Perez and J. M. Soler, Phys. Rev. Lett. 103, 096102 (2009).
     *
     *
     * If you are using vdW-DF2, please also cite:
     *
     *   K. Lee, E. D. Murray, L. Kong, B. I. Lundqvist, and
     *   D. C. Langreth, Phys. Rev. B 82, 081101(R) (2010).
     *
     *
     * If you are calculating the stress with vdW-DF, please also cite:
     *
     *   R. Sabatini, E. Kucukbenli, B. Kolb, T. Thonhauser, and
     *   S. de Gironcoli, J. Phys.: Condens. Matter 24, 424209 (2012).
     *

     Carrying out vdW-DF run using the following parameters:

     Nqs =      20    Nr_points =    1024   r_max =   100.000
     q_mesh =
               0.00001000     0.04494208     0.09755937     0.15916263
               0.23128650     0.31572767     0.41458969     0.53033537
               0.66584808     0.82450364     1.01025438     1.22772762
               1.48234092     1.78043706     2.12944203     2.53805004
               3.01644009     3.57652955     4.23227104     5.00000000

     Gradients computed in reciprocal space

     Adding external electric field

     Computed dipole along edir(3) :
        Dipole               -3.0674 Ry au,         -7.7966 Debye
        Dipole field         -0.0101 Ry au

        Potential amp.        0.9041 Ry
        Total length         44.6496 bohr

     Starting wfc are  161 randomized atomic wfcs

     Self-consistent Calculation

     iteration #  1     ecut=    36.75 Ry     beta=0.30
     Davidson diagonalization with overlap
     ethr =  1.00E-02,  avg # of iterations =  7.8

[...]

     total energy              =   -4482.65920167 Ry
     Harris-Foulkes estimate   =   -4879.63851045 Ry
     estimated scf accuracy    <     835.06971781 Ry

[...]

     End of self-consistent calculation

          k = 0.0000 0.0000 0.0000 ( 14321 PWs)   bands (ev):

  -112.1409-111.7661-111.7596-111.7595-111.7539-111.5086-111.5079-111.5033
  -111.5026-111.4982-111.4935-111.4915 -69.6502 -69.4924 -69.4924 -69.1981
   -69.1949 -69.1948 -69.1625 -69.1540 -69.1520 -69.1518 -69.1465 -69.1412
   -69.1411 -69.1245 -69.1244 -68.9755 -68.9544 -68.9532 -68.9479 -68.9386
   -68.9386 -68.9064 -68.9063 -68.9031 -68.9023 -68.9019 -68.8986 -68.8825
   -68.8820 -68.8724 -68.8672 -68.8670 -68.8665 -68.8555 -68.8509 -68.8489
   -12.9957  -7.5763  -6.5405  -5.2436  -4.1510  -3.7645  -3.7644  -3.6824
    -3.5981  -3.5980  -3.4834  -3.3033  -3.3033  -3.2052  -3.1817  -3.1812
    -3.0950  -2.9291  -2.9287  -2.4861  -2.2603  -2.2600  -2.2236  -2.1344
    -2.0787  -2.0786  -2.0013  -2.0012  -1.9723  -1.9405  -1.9404  -1.8772
    -1.8010  -1.8010  -1.7669  -1.7665  -1.7092  -1.6051  -1.6046  -1.3500
    -1.3498  -1.2926  -1.2926  -1.2637  -1.2452  -1.0729  -1.0721  -0.9239
    -0.9170  -0.9168  -0.8806  -0.8495  -0.8487  -0.8293  -0.8291  -0.7980
    -0.7978  -0.7833  -0.7308  -0.7304  -0.6618  -0.6617  -0.5913  -0.5600
    -0.5589  -0.5544  -0.0887   0.9251   1.1269   1.1269   1.7390   1.9830
     2.1641   2.1643   2.4057   2.6028   2.6028   4.1791   4.5111

[...]

          k =-0.0964 0.0557 0.0000 ( 14294 PWs)   bands (ev):

[...]

     the Fermi energy is     0.8295 ev

!    total energy              =   -4884.79945365 Ry
     Harris-Foulkes estimate   =   -4884.79945977 Ry
     estimated scf accuracy    <       0.00000296 Ry

     The total energy is the sum of the following terms:

     one-electron contribution =  -37650.13722737 Ry
     hartree contribution      =   18844.32854845 Ry
     xc contribution           =    -489.71742759 Ry
     ewald contribution        =   14410.75685733 Ry
     electric field correction =       0.00003865 Ry
     smearing contrib. (-TS)   =      -0.03024312 Ry

     convergence has been achieved in  37 iterations

 BEEF-vdW xc energy contributions
           1 :   -433.686148022330
           2 :    392.896098524786
           3 :   -323.845192208360
           4 :    245.565745412878
           5 :   -175.340452541468
           6 :    122.551944340382
           7 :   -87.2424522484746
           8 :    63.2943511358680
           9 :   -43.7531045058367
          10 :    25.0200794587120
          11 :   -7.83636026870056
          12 :   -4.79343834440454
          13 :    10.7648901615762
          14 :   -10.8344907555729
          15 :    8.24752217482444
          16 :   -6.61749535440401
          17 :    7.72269152904420
          18 :   -10.7330249584653
          19 :    13.2401359286841
          20 :   -13.2149474785795
          21 :    10.4778670561566
          22 :   -6.72809265143434
          23 :    4.24121156175011
          24 :   -4.25105683321090
          25 :    6.16485814930445
          26 :   -8.10197271775462
          27 :    8.29683143142404
          28 :   -6.33861924225232
          29 :    3.39171075478907
          30 :   -1.29674400180141
          31 :   -34.8534927181773
          32 :   -23.7930477491683

     Forces acting on atoms (Ry/au):

     negative rho (up, down):  9.174E-04 0.000E+00
     atom    1 type  1   force =     0.00004947   -0.00002611    0.00357692
     atom    2 type  1   force =    -0.00005483   -0.00001288    0.00353837
     atom    3 type  1   force =     0.00000510   -0.00001344    0.00367527
     atom    4 type  1   force =    -0.00000904    0.00004277    0.00475248
     atom    5 type  1   force =    -0.00017982   -0.00049651    0.00209347
     atom    6 type  1   force =     0.00018758    0.00012513    0.00252977
     atom    7 type  1   force =     0.00057784    0.00029993    0.00174247
     atom    8 type  1   force =    -0.00057772    0.00009640    0.00186183
     atom    9 type  1   force =    -0.00000489    0.00002423   -0.09210217
     atom   10 type  1   force =     0.00000474    0.00001915   -0.00828465
     atom   11 type  1   force =     0.00000122   -0.00002670   -0.00822761
     atom   12 type  1   force =     0.00000170   -0.00003172   -0.00829355
     atom   13 type  2   force =    -0.00000091   -0.00000010   -0.03492866
     atom   14 type  3   force =    -0.00000044   -0.00000016    0.12806605

     Total force =     0.162200     Total SCF correction =     0.005793

     entering subroutine stress ...

     negative rho (up, down):  9.174E-04 0.000E+00
          total   stress  (Ry/bohr**3)                   (kbar)     P=  -21.41
  -0.00021296   0.00000000   0.00000000        -31.33      0.00      0.00
   0.00000000  -0.00021297  -0.00000000          0.00    -31.33     -0.00
   0.00000000  -0.00000000  -0.00001071          0.00     -0.00     -1.57

     BFGS Geometry Optimization

     number of scf cycles    =   1
     number of bfgs steps    =   0

     energy   new            =   -4884.7994536513 Ry

     new trust radius        =       0.1280660533 bohr
     new conv_thr            =       0.0000099958 Ry

ATOMIC_POSITIONS (crystal)
Cu1      0.166666667   0.166666667   0.412653782    0   0   0
Cu1      0.666666667   0.166666667   0.412653782    0   0   0
Cu1      0.166666667   0.666666667   0.412653782    0   0   0
Cu1      0.666666667   0.666666667   0.412653782    0   0   0
Cu1      0.833333333   0.333333333   0.500000000    0   0   0
Cu1      0.333333333   0.333333333   0.500000000    0   0   0
Cu1      0.833333333   0.833333333   0.500000000    0   0   0
Cu1      0.333333333   0.833333333   0.500000000    0   0   0
Cu1     -0.000001926   0.000002855   0.585335011
Cu1      0.499999355   0.000002257   0.587165309
Cu1      0.000001698   0.499996853   0.587166554
Cu1      0.500002042   0.499996262   0.587165114
S1      -0.000000087  -0.000000012   0.669712596
H1      -0.000000035  -0.000000019   0.724853585

     Writing output data file calc.save
     NEW-OLD atomic charge density approx. for the potential

[...]

     energy   old            =   -4884.7994536513 Ry
     energy   new            =   -4884.8154080802 Ry

     CASE: energy  _new < energy  _old

[...]

     iteration #  1     ecut=    36.75 Ry     beta=0.30
     Davidson diagonalization with overlap
     c_bands:  1 eigenvalues not converged
     c_bands:  1 eigenvalues not converged
     c_bands:  1 eigenvalues not converged
     ethr =  1.00E-06,  avg # of iterations =  9.5

[...]

     Total force =     0.011070     Total SCF correction =     0.002107
     SCF correction compared to forces is large: reduce conv_thr to get better values

[...]

     Total force =     0.010754     Total SCF correction =     0.000896

[...]

     number of scf cycles    =  10
     number of bfgs steps    =   9

     energy   old            =   -4884.8273817057 Ry
     energy   new            =   -4884.8275258723 Ry

     CASE: energy  _new < energy  _old

     new trust radius        =       0.0178193465 bohr
     new conv_thr            =       0.0000001000 Ry

ATOMIC_POSITIONS (crystal)
Cu1      0.166666667   0.166666667   0.412653782    0   0   0
Cu1      0.666666667   0.166666667   0.412653782    0   0   0
Cu1      0.166666667   0.666666667   0.412653782    0   0   0
Cu1      0.666666667   0.666666667   0.412653782    0   0   0
Cu1      0.833333333   0.333333333   0.500000000    0   0   0
Cu1      0.333333333   0.333333333   0.500000000    0   0   0
Cu1      0.833333333   0.833333333   0.500000000    0   0   0
Cu1      0.333333333   0.833333333   0.500000000    0   0   0
Cu1      0.000002718  -0.000003257   0.583741117
Cu1      0.500103883  -0.000210475   0.585812771
Cu1     -0.000207780   0.500106938   0.585810114
Cu1      0.500100176   0.500108649   0.585808773
S1       0.000004299  -0.000008540   0.675928712
H1      -0.000002567   0.000003282   0.731793603

     Writing output data file calc.save
     NEW-OLD atomic charge density approx. for the potential

[...]

     Self-consistent Calculation

[...]

     total energy              =   -4884.82756041 Ry
     Harris-Foulkes estimate   =   -4884.82756041 Ry
     estimated scf accuracy    <       0.00000014 Ry

     iteration #  9     ecut=    36.75 Ry     beta=0.30
     Davidson diagonalization with overlap
     ethr =  5.89E-11,  avg # of iterations =  2.2

[...]

     negative rho (up, down):  8.913E-04 0.000E+00

     Adding external electric field

     Computed dipole along edir(3) :
        Dipole                0.0074 Ry au,          0.0189 Debye
        Dipole field          0.0000 Ry au

        Potential amp.       -0.0022 Ry
        Total length         44.6496 bohr

     End of self-consistent calculation

[...]

          k = 0.0643-0.0742 0.0000 ( 14299 PWs)   bands (ev):

[...]

          k =-0.0964-0.0557 0.0000 ( 14294 PWs)   bands (ev):

  -112.0475-111.9811-111.9796-111.9775-111.9672-111.7005-111.6985-111.6958
  -111.6953-111.6948-111.6934-111.6915 -69.4844 -69.4365 -69.4352 -69.4000
   -69.3956 -69.3801 -69.3774 -69.3756 -69.3745 -69.3742 -69.3707 -69.3696
   -69.3624 -69.3532 -69.3450 -69.1462 -69.1393 -69.1379 -69.1254 -69.1180
   -69.1167 -69.1133 -69.1132 -69.1127 -69.1107 -69.1043 -69.0925 -69.0922
   -69.0910 -69.0600 -69.0590 -69.0578 -69.0561 -69.0557 -69.0535 -69.0524
   -12.1517  -6.1359  -5.9039  -5.3712  -4.3054  -4.1069  -3.6834  -3.6444
    -3.4359  -3.4058  -3.3895  -3.3778  -3.1029  -3.0831  -2.9595  -2.9497
    -2.9079  -2.8263  -2.7870  -2.7246  -2.6717  -2.6316  -2.5957  -2.5626
    -2.5160  -2.4579  -2.3205  -2.2653  -2.2478  -2.1518  -2.1510  -2.1377
    -2.0975  -2.0233  -2.0096  -2.0056  -2.0024  -1.9815  -1.9703  -1.9696
    -1.9397  -1.8803  -1.7558  -1.7366  -1.6447  -1.5850  -1.5664  -1.5279
    -1.5079  -1.4753  -1.4717  -1.4236  -1.4027  -1.3726  -1.3279  -1.2738
    -1.2635  -1.2443  -1.2324  -1.0511  -1.0258  -1.0187  -0.9884  -0.9280
    -0.9124  -0.7329  -0.4554  -0.3739   0.5574   0.6566   1.3417   1.3522
     1.8384   1.9394   3.8832   3.9657   4.1114   4.4397   5.8916

     the Fermi energy is     0.6247 ev

!    total energy              =   -4884.82756039 Ry
     Harris-Foulkes estimate   =   -4884.82756045 Ry
     estimated scf accuracy    <       0.00000008 Ry

     The total energy is the sum of the following terms:

     one-electron contribution =  -37790.36327335 Ry
     hartree contribution      =   18913.38107851 Ry
     xc contribution           =    -489.61013806 Ry
     ewald contribution        =   14481.79567267 Ry
     electric field correction =       0.00000018 Ry
     smearing contrib. (-TS)   =      -0.03090034 Ry

     convergence has been achieved in   9 iterations

 BEEF-vdW xc energy contributions
           1 :   -433.582082055642
           2 :    392.774223253954
           3 :   -323.706617434359
           4 :    245.428391132602
           5 :   -175.224444320440
           6 :    122.469455240907
           7 :   -87.1967700072877
           8 :    63.2831392901750
           9 :   -43.7691917531183
          10 :    25.0503762095823
          11 :   -7.86337820403321
          12 :   -4.78433216231247
          13 :    10.7748921335702
          14 :   -10.8462025521283
          15 :    8.23313464352657
          16 :   -6.55822485837643
          17 :    7.62606988741322
          18 :   -10.6330384851988
          19 :    13.1774209809790
          20 :   -13.2099242996528
          21 :    10.5158825591659
          22 :   -6.76889126246158
          23 :    4.24746901276461
          24 :   -4.21536889498077
          25 :    6.11609369207895
          26 :   -8.08615290066717
          27 :    8.34507674253655
          28 :   -6.44356559237201
          29 :    3.50863890244023
          30 :   -1.36963173766310
          31 :   -34.8466302507450
          32 :   -23.7814535488213

     Forces acting on atoms (Ry/au):

     negative rho (up, down):  8.913E-04 0.000E+00
     atom    1 type  1   force =     0.00008162    0.00004746    0.00278385
     atom    2 type  1   force =    -0.00008139    0.00004741    0.00278392
     atom    3 type  1   force =     0.00000002   -0.00009444    0.00278367
     atom    4 type  1   force =    -0.00000010   -0.00000026    0.00398221
     atom    5 type  1   force =     0.00000081    0.00148600   -0.00494374
     atom    6 type  1   force =    -0.00000080   -0.00000308   -0.00188974
     atom    7 type  1   force =    -0.00128955   -0.00074176   -0.00494012
     atom    8 type  1   force =     0.00128939   -0.00074079   -0.00494287
     atom    9 type  1   force =    -0.00000232    0.00000878   -0.00020377
     atom   10 type  1   force =     0.00000264    0.00014991    0.00144752
     atom   11 type  1   force =     0.00012315   -0.00007705    0.00145615
     atom   12 type  1   force =    -0.00012345   -0.00008012    0.00146063
     atom   13 type  2   force =    -0.00000004   -0.00000469   -0.00067409
     atom   14 type  3   force =     0.00000001    0.00000263    0.00089640

     Total force =     0.002777     Total SCF correction =     0.001832
     SCF correction compared to forces is large: reduce conv_thr to get better values

     entering subroutine stress ...

     negative rho (up, down):  8.913E-04 0.000E+00
          total   stress  (Ry/bohr**3)                   (kbar)     P=  -20.27
  -0.00015706  -0.00000000  -0.00000000        -23.10     -0.00     -0.00
  -0.00000000  -0.00015705  -0.00000000         -0.00    -23.10     -0.00
  -0.00000000  -0.00000000  -0.00009933         -0.00     -0.00    -14.61

     bfgs converged in  11 scf cycles and  10 bfgs steps
     (criteria: energy <  1.0E+00, force <  1.9E-03)

     End of BFGS Geometry Optimization

     Final energy   =   -4884.8275603915 Ry
Begin final coordinates

ATOMIC_POSITIONS (crystal)
Cu1      0.166666667   0.166666667   0.412653782    0   0   0
Cu1      0.666666667   0.166666667   0.412653782    0   0   0
Cu1      0.166666667   0.666666667   0.412653782    0   0   0
Cu1      0.666666667   0.666666667   0.412653782    0   0   0
Cu1      0.833333333   0.333333333   0.500000000    0   0   0
Cu1      0.333333333   0.333333333   0.500000000    0   0   0
Cu1      0.833333333   0.833333333   0.500000000    0   0   0
Cu1      0.333333333   0.833333333   0.500000000    0   0   0
Cu1      0.000002718  -0.000003257   0.583741117
Cu1      0.500103883  -0.000210475   0.585812771
Cu1     -0.000207780   0.500106938   0.585810114
Cu1      0.500100176   0.500108649   0.585808773
S1       0.000004299  -0.000008540   0.675928712
H1      -0.000002567   0.000003282   0.731793603
End final coordinates

     Writing output data file calc.save

     General routines

     Parallel routines

   This run was terminated on:   9:15:39  17Apr2018

   JOB DONE.