     Program PWSCF v.5.1rc2 (svn rev. 11289) starts on 18Jan2018 at  0:21:26

     Current dimensions of program PWSCF are:
     Max number of different atomic species (ntypx) = 10
     Max number of k-points (npk) =  40000
     Max angular momentum in pseudopotentials (lmaxx) =  3
     Presently stress not available with electric field

     IMPORTANT: XC functional enforced from input :
     Exchange-correlation      = BEEF-VDW ( 1  4 27 13 2)
     Any further DFT definition will be discarded
     Please, verify this is what you really want

     Subspace diagonalization in iterative solution of the eigenvalue problem:
     a serial algorithm will be used

     bravais-lattice index     =            0
     lattice parameter (alat)  =       1.8897  a.u.
     unit-cell volume          =    4806.0858 (a.u.)^3
     number of atoms/cell      =           13
     number of atomic types    =            2
     number of electrons       =       150.00
     number of Kohn-Sham states=           85
     kinetic-energy cutoff     =      36.7493  Ry
     charge density cutoff     =     367.4932  Ry
     convergence threshold     =      1.0E-05
     mixing beta               =       0.3000
     number of iterations used =           10  plain     mixing
     Exchange-correlation      = BEEF-VDW ( 1  4 27 13 2)
     nstep                     =           50

     celldm(1)=   1.889726  celldm(2)=   0.000000  celldm(3)=   0.000000
     celldm(4)=   0.000000  celldm(5)=   0.000000  celldm(6)=   0.000000

     crystal axes: (cart. coord. in units of alat)
               a(1) = (   5.768903   0.000000   0.000000 )
               a(2) = (   2.884451   4.996016   0.000000 )
               a(3) = (   0.000000   0.000000  24.710289 )

     reciprocal axes: (cart. coord. in units 2 pi/alat)
               b(1) = (  0.173343 -0.100080  0.000000 )
               b(2) = (  0.000000  0.200159  0.000000 )
               b(3) = (  0.000000  0.000000  0.040469 )

     PseudoPot. # 1 for Ti read from file:
     /afs/slac.stanford.edu/u/if/mamunm/psp/gbrv1.5pbe/Ti.UPF
     MD5 check sum: 88a00a6731bd790ddea75d31a80cb452
     Pseudo is Ultrasoft + core correction, Zval = 12.0
     Generated by new atomic code, or converted to UPF format
     Using radial grid of  851 points,  6 beta functions with:
                l(1) =   0
                l(2) =   0
                l(3) =   1
                l(4) =   1
                l(5) =   2
                l(6) =   2
     Q(r) pseudized with  6 coefficients,  rinner =    1.000   1.000   1.000
                                                       1.000   1.000

     PseudoPot. # 2 for O  read from file:
     /afs/slac.stanford.edu/u/if/mamunm/psp/gbrv1.5pbe/O.UPF
     MD5 check sum: 734c27235a0248c51dbae37a1fbe46ec
     Pseudo is Ultrasoft + core correction, Zval =  6.0
     Generated by new atomic code, or converted to UPF format
     Using radial grid of  737 points,  5 beta functions with:
                l(1) =   0
                l(2) =   0
                l(3) =   1
                l(4) =   1
                l(5) =   2
     Q(r) pseudized with  8 coefficients,  rinner =    0.900   0.900   0.900
                                                       0.900   0.900

     vdW kernel table read from file vdW_kernel_table
     MD5 check sum: 095c7af220d748ca6e76c0b4c6cfb241

     atomic species   valence    mass     pseudopotential
        Ti1           12.00    47.86700     Ti( 1.00)
        O1             6.00    15.99900     O ( 1.00)

     No symmetry found

   Cartesian axes

     site n.     atom                  positions (alat units)
         1           Ti1 tau(   1) = (   1.4422257   0.8326694  10.0000000  )
         2           Ti1 tau(   2) = (   4.3266771   0.8326694  10.0000000  )
         3           Ti1 tau(   3) = (   2.8844514   3.3306776  10.0000000  )
         4           Ti1 tau(   4) = (   5.7689029   3.3306776  10.0000000  )
         5           Ti1 tau(   5) = (   5.7689029   1.6653388  12.3551447  )
         6           Ti1 tau(   6) = (   2.8844514   1.6653388  12.3551447  )
         7           Ti1 tau(   7) = (   7.2111286   4.1633470  12.3551447  )
         8           Ti1 tau(   8) = (   4.3266771   4.1633470  12.3551447  )
         9           Ti1 tau(   9) = (   0.0000000   0.0000000  14.7102895  )
        10           Ti1 tau(  10) = (   2.8844514   0.0000000  14.7102895  )
        11           Ti1 tau(  11) = (   1.4422257   2.4980082  14.7102895  )
        12           Ti1 tau(  12) = (   4.3266771   2.4980082  14.7102895  )
        13           O1  tau(  13) = (   2.8844514   1.6653388  16.9702895  )

     number of k points=    20  Fermi-Dirac smearing, width (Ry)=  0.0110
                       cart. coord. in units 2pi/alat
        k(    1) = (   0.0000000   0.0000000   0.0000000), wk =   0.0555556
        k(    2) = (   0.0000000   0.0333599   0.0000000), wk =   0.1111111
        k(    3) = (   0.0000000   0.0667198   0.0000000), wk =   0.1111111
        k(    4) = (   0.0000000  -0.1000797   0.0000000), wk =   0.0555556
        k(    5) = (   0.0288905  -0.0166800   0.0000000), wk =   0.1111111
        k(    6) = (   0.0288905   0.0166800   0.0000000), wk =   0.1111111
        k(    7) = (   0.0288905   0.0500399   0.0000000), wk =   0.1111111
        k(    8) = (   0.0288905  -0.1167597   0.0000000), wk =   0.1111111
        k(    9) = (   0.0288905  -0.0833998   0.0000000), wk =   0.1111111
        k(   10) = (   0.0288905  -0.0500399   0.0000000), wk =   0.1111111
        k(   11) = (   0.0577811  -0.0333599   0.0000000), wk =   0.1111111
        k(   12) = (   0.0577811  -0.0000000   0.0000000), wk =   0.1111111
        k(   13) = (   0.0577811   0.0333599   0.0000000), wk =   0.1111111
        k(   14) = (   0.0577811  -0.1334396   0.0000000), wk =   0.1111111
        k(   15) = (   0.0577811  -0.1000797   0.0000000), wk =   0.1111111
        k(   16) = (   0.0577811  -0.0667198   0.0000000), wk =   0.1111111
        k(   17) = (  -0.0866716   0.0500399   0.0000000), wk =   0.0555556
        k(   18) = (  -0.0866716   0.0833998   0.0000000), wk =   0.1111111
        k(   19) = (  -0.0866716   0.1167597   0.0000000), wk =   0.1111111
        k(   20) = (  -0.0866716  -0.0500399   0.0000000), wk =   0.0555556

     Largest allocated arrays     est. size (Mb)     dimensions
     Largest temporary arrays     est. size (Mb)     dimensions

     Check: negative/imaginary core charge=   -0.000006    0.000000

     Initial potential from superposition of free atoms
     Check: negative starting charge=   -0.012820

     starting charge  137.99947, renormalised to  150.00000

     negative rho (up, down):  1.394E-02 0.000E+00

     *
     * You are using vdW-DF for exchange-correlation in this calculation.
     * Please cite the following three references that made this development
     * possible:
     *
     *   M. Dion, H. Rydberg, E. Schroder, D. C. Langreth, and
     *   B. I. Lundqvist, Phys. Rev. Lett. 92, 246401 (2004).
     *
     *   T. Thonhauser, V. R. Cooper, S. Li, A. Puzder, P. Hyldgaard, and
     *   D. C. Langreth, Phys. Rev. B 76, 125112 (2007).
     *
     *   G. Roman-Perez and J. M. Soler, Phys. Rev. Lett. 103, 096102 (2009).
     *
     *
     * If you are using vdW-DF2, please also cite:
     *
     *   K. Lee, E. D. Murray, L. Kong, B. I. Lundqvist, and
     *   D. C. Langreth, Phys. Rev. B 82, 081101(R) (2010).
     *
     *
     * If you are calculating the stress with vdW-DF, please also cite:
     *
     *   R. Sabatini, E. Kucukbenli, B. Kolb, T. Thonhauser, and
     *   S. de Gironcoli, J. Phys.: Condens. Matter 24, 424209 (2012).
     *

     Carrying out vdW-DF run using the following parameters:

     Nqs =      20    Nr_points =    1024   r_max =   100.000
     q_mesh =
               0.00001000     0.04494208     0.09755937     0.15916263
               0.23128650     0.31572767     0.41458969     0.53033537
               0.66584808     0.82450364     1.01025438     1.22772762
               1.48234092     1.78043706     2.12944203     2.53805004
               3.01644009     3.57652955     4.23227104     5.00000000

     Gradients computed in reciprocal space

     Adding external electric field

     Computed dipole along edir(3) :
        Dipole               -4.5505 Ry au,        -11.5662 Debye
        Dipole field         -0.0119 Ry au

        Potential amp.        1.0834 Ry
        Total length         45.5283 bohr

     Starting wfc are  124 randomized atomic wfcs

     Self-consistent Calculation

     iteration #  1     ecut=    36.75 Ry     beta=0.30
     Davidson diagonalization with overlap
     ethr =  1.00E-02,  avg # of iterations =  6.4

[...]

     total energy              =   -1315.09909218 Ry
     Harris-Foulkes estimate   =   -1474.53721206 Ry
     estimated scf accuracy    <     330.20166259 Ry

[...]

     iteration # 26     ecut=    36.75 Ry     beta=0.30
     Davidson diagonalization with overlap
     c_bands:  2 eigenvalues not converged
     ethr =  5.63E-05,  avg # of iterations =  9.9

[...]

     End of self-consistent calculation

          k = 0.0000 0.0000 0.0000 ( 18103 PWs)   bands (ev):

   -57.1924 -57.1047 -57.1045 -57.0978 -57.0691 -56.9776 -56.9774 -56.9763
   -56.8777 -56.8023 -56.8019 -56.7906 -33.6330 -33.6329 -33.6238 -33.5653
   -33.5189 -33.5184 -33.5184 -33.4868 -33.4697 -33.4695 -33.3801 -33.3242
   -33.3124 -33.3123 -33.2192 -33.2006 -33.2004 -33.1770 -33.1769 -33.1750
   -33.0987 -33.0986 -33.0985 -33.0803 -33.0802 -32.9997 -32.9994 -32.9947
   -32.9812 -32.9707 -32.9707 -32.9080 -32.8973 -32.8971 -32.7863 -32.7863
   -15.4659  -5.5350  -4.2103  -2.9940  -2.4085  -2.4026  -2.4025  -2.2967
    -2.2967  -2.2911  -1.9243  -1.8917  -1.8917  -1.6236  -1.6129  -1.6129
    -1.3344  -1.1218  -1.1218  -0.8051  -0.8051  -0.7627  -0.1641   0.1295
     0.1680   0.1680   0.2903   0.4323   0.5071   0.5694   0.5694   0.6821
     0.6822   0.8670   0.8671   0.9094   0.9096

[...]

          k =-0.0867 0.0500 0.0000 ( 18044 PWs)   bands (ev):

[...]

     the Fermi energy is    -0.0663 ev

!    total energy              =   -1471.00197486 Ry
     Harris-Foulkes estimate   =   -1471.00202109 Ry
     estimated scf accuracy    <       0.00000305 Ry

     The total energy is the sum of the following terms:

     one-electron contribution =  -11099.17357089 Ry
     hartree contribution      =    5534.07554308 Ry
     xc contribution           =    -232.13135152 Ry
     ewald contribution        =    4326.35775255 Ry
     electric field correction =       0.00132945 Ry
     smearing contrib. (-TS)   =      -0.13167753 Ry

     convergence has been achieved in  43 iterations

 BEEF-vdW xc energy contributions
           1 :   -199.431042169200
           2 :    177.913627308084
           3 :   -142.771403058832
           4 :    105.307973444529
           5 :   -74.6409079533281
           6 :    54.2542379490828
           7 :   -42.1364081408777
           8 :    33.6251600244366
           9 :   -24.7917831575438
          10 :    14.3712909940116
          11 :   -3.57543169297603
          12 :   -5.53404280218879
          13 :    11.7515187744111
[...]
     SCF correction compared to forces is large: reduce conv_thr to get better values

[...]

     Program PWSCF v.5.1rc2 (svn rev. 11289) starts on 18Jan2018 at  3:20: 5

[...]

   This run was terminated on:   4: 3:30  18Jan2018

[...]

     Program PWSCF v.5.1rc2 (svn rev. 11289) starts on 18Jan2018 at  4: 3:36

[...]

     Total force =     0.037862     Total SCF correction =     0.003501

[...]

     Program PWSCF v.5.1rc2 (svn rev. 11289) starts on 18Jan2018 at  5:15:32

     Current dimensions of program PWSCF are:
     Max number of different atomic species (ntypx) = 10
     Max number of k-points (npk) =  40000
     Max angular momentum in pseudopotentials (lmaxx) =  3
     Presently stress not available with electric field

     IMPORTANT: XC functional enforced from input :
     Exchange-correlation      = BEEF-VDW ( 1  4 27 13 2)
     Any further DFT definition will be discarded
     Please, verify this is what you really want

     Subspace diagonalization in iterative solution of the eigenvalue problem:
     a serial algorithm will be used

     bravais-lattice index     =            0
     lattice parameter (alat)  =       1.8897  a.u.
     unit-cell volume          =    4806.0858 (a.u.)^3
     number of atoms/cell      =           13
     number of atomic types    =            2
     number of electrons       =       150.00
     number of Kohn-Sham states=           85
     kinetic-energy cutoff     =      36.7493  Ry
     charge density cutoff     =     367.4932  Ry
     convergence threshold     =      1.0E-05
     mixing beta               =       0.3000
     number of iterations used =           10  plain     mixing
     Exchange-correlation      = BEEF-VDW ( 1  4 27 13 2)
     nstep                     =           50

     celldm(1)=   1.889726  celldm(2)=   0.000000  celldm(3)=   0.000000
     celldm(4)=   0.000000  celldm(5)=   0.000000  celldm(6)=   0.000000

     crystal axes: (cart. coord. in units of alat)
               a(1) = (   5.768903   0.000000   0.000000 )
               a(2) = (   2.884451   4.996016   0.000000 )
               a(3) = (   0.000000   0.000000  24.710289 )

     reciprocal axes: (cart. coord. in units 2 pi/alat)
               b(1) = (  0.173343 -0.100080  0.000000 )
               b(2) = (  0.000000  0.200159  0.000000 )
               b(3) = (  0.000000  0.000000  0.040469 )

     PseudoPot. # 1 for Ti read from file:
     /afs/slac.stanford.edu/u/if/mamunm/psp/gbrv1.5pbe/Ti.UPF
     MD5 check sum: 88a00a6731bd790ddea75d31a80cb452
     Pseudo is Ultrasoft + core correction, Zval = 12.0
     Generated by new atomic code, or converted to UPF format
     Using radial grid of  851 points,  6 beta functions with:
                l(1) =   0
                l(2) =   0
                l(3) =   1
                l(4) =   1
                l(5) =   2
                l(6) =   2
     Q(r) pseudized with  6 coefficients,  rinner =    1.000   1.000   1.000
                                                       1.000   1.000

     PseudoPot. # 2 for O  read from file:
     /afs/slac.stanford.edu/u/if/mamunm/psp/gbrv1.5pbe/O.UPF
     MD5 check sum: 734c27235a0248c51dbae37a1fbe46ec
     Pseudo is Ultrasoft + core correction, Zval =  6.0
     Generated by new atomic code, or converted to UPF format
     Using radial grid of  737 points,  5 beta functions with:
                l(1) =   0
                l(2) =   0
                l(3) =   1
                l(4) =   1
                l(5) =   2
     Q(r) pseudized with  8 coefficients,  rinner =    0.900   0.900   0.900
                                                       0.900   0.900

     vdW kernel table read from file vdW_kernel_table
     MD5 check sum: 095c7af220d748ca6e76c0b4c6cfb241

     atomic species   valence    mass     pseudopotential
        Ti1           12.00    47.86700     Ti( 1.00)
        O1             6.00    15.99900     O ( 1.00)

     No symmetry found

   Cartesian axes

     site n.     atom                  positions (alat units)
         1           Ti1 tau(   1) = (   1.4422257   0.8326694  10.0000000  )
         2           Ti1 tau(   2) = (   4.3266771   0.8326694  10.0000000  )
         3           Ti1 tau(   3) = (   2.8844514   3.3306776  10.0000000  )
         4           Ti1 tau(   4) = (   5.7689029   3.3306776  10.0000000  )
         5           Ti1 tau(   5) = (   5.7689029   1.6653388  12.3551447  )
         6           Ti1 tau(   6) = (   2.8844514   1.6653388  12.3551447  )
         7           Ti1 tau(   7) = (   7.2111286   4.1633470  12.3551447  )
         8           Ti1 tau(   8) = (   4.3266771   4.1633470  12.3551447  )
         9           Ti1 tau(   9) = (   5.7688180   0.0000219  14.4969451  )
        10           Ti1 tau(  10) = (   5.7687827   4.9469367  14.8172323  )
        11           Ti1 tau(  11) = (   7.1681526   2.5228352  14.8171662  )
        12           Ti1 tau(  12) = (   4.3692733   2.5227657  14.8173376  )
        13           O1  tau(  13) = (   2.8848396   1.6657265  15.7400417  )

     number of k points=    20  Fermi-Dirac smearing, width (Ry)=  0.0110
                       cart. coord. in units 2pi/alat
        k(    1) = (   0.0000000   0.0000000   0.0000000), wk =   0.0555556
        k(    2) = (   0.0000000   0.0333599   0.0000000), wk =   0.1111111
        k(    3) = (   0.0000000   0.0667198   0.0000000), wk =   0.1111111
        k(    4) = (   0.0000000  -0.1000797   0.0000000), wk =   0.0555556
        k(    5) = (   0.0288905  -0.0166800   0.0000000), wk =   0.1111111
        k(    6) = (   0.0288905   0.0166800   0.0000000), wk =   0.1111111
        k(    7) = (   0.0288905   0.0500399   0.0000000), wk =   0.1111111
        k(    8) = (   0.0288905  -0.1167597   0.0000000), wk =   0.1111111
        k(    9) = (   0.0288905  -0.0833998   0.0000000), wk =   0.1111111
        k(   10) = (   0.0288905  -0.0500399   0.0000000), wk =   0.1111111
        k(   11) = (   0.0577811  -0.0333599   0.0000000), wk =   0.1111111
        k(   12) = (   0.0577811  -0.0000000   0.0000000), wk =   0.1111111
        k(   13) = (   0.0577811   0.0333599   0.0000000), wk =   0.1111111
        k(   14) = (   0.0577811  -0.1334396   0.0000000), wk =   0.1111111
        k(   15) = (   0.0577811  -0.1000797   0.0000000), wk =   0.1111111
        k(   16) = (   0.0577811  -0.0667198   0.0000000), wk =   0.1111111
        k(   17) = (  -0.0866716   0.0500399   0.0000000), wk =   0.0555556
        k(   18) = (  -0.0866716   0.0833998   0.0000000), wk =   0.1111111
        k(   19) = (  -0.0866716   0.1167597   0.0000000), wk =   0.1111111
        k(   20) = (  -0.0866716  -0.0500399   0.0000000), wk =   0.0555556

     Largest allocated arrays     est. size (Mb)     dimensions
     Largest temporary arrays     est. size (Mb)     dimensions

     Check: negative/imaginary core charge=   -0.000006    0.000000

     Initial potential from superposition of free atoms
     Check: negative starting charge=   -0.014323

     starting charge  137.99947, renormalised to  150.00000

[...]

     *
     * You are using vdW-DF for exchange-correlation in this calculation.
     * Please cite the following three references that made this development
     * possible:
     *
     *   M. Dion, H. Rydberg, E. Schroder, D. C. Langreth, and
     *   B. I. Lundqvist, Phys. Rev. Lett. 92, 246401 (2004).
     *
     *   T. Thonhauser, V. R. Cooper, S. Li, A. Puzder, P. Hyldgaard, and
     *   D. C. Langreth, Phys. Rev. B 76, 125112 (2007).
     *
     *   G. Roman-Perez and J. M. Soler, Phys. Rev. Lett. 103, 096102 (2009).
     *
     *
     * If you are using vdW-DF2, please also cite:
     *
     *   K. Lee, E. D. Murray, L. Kong, B. I. Lundqvist, and
     *   D. C. Langreth, Phys. Rev. B 82, 081101(R) (2010).
     *
     *
     * If you are calculating the stress with vdW-DF, please also cite:
     *
     *   R. Sabatini, E. Kucukbenli, B. Kolb, T. Thonhauser, and
     *   S. de Gironcoli, J. Phys.: Condens. Matter 24, 424209 (2012).
     *

     Carrying out vdW-DF run using the following parameters:

     Nqs =      20    Nr_points =    1024   r_max =   100.000
     q_mesh =
               0.00001000     0.04494208     0.09755937     0.15916263
               0.23128650     0.31572767     0.41458969     0.53033537
               0.66584808     0.82450364     1.01025438     1.22772762
               1.48234092     1.78043706     2.12944203     2.53805004
               3.01644009     3.57652955     4.23227104     5.00000000

     Gradients computed in reciprocal space

[...]

     Starting wfc are  124 randomized atomic wfcs

     Self-consistent Calculation

[...]

     iteration # 28     ecut=    36.75 Ry     beta=0.30
     Davidson diagonalization with overlap
     c_bands:  1 eigenvalues not converged
     ethr =  1.19E-06,  avg # of iterations =  9.3

[...]

     total energy              =   -1471.35799844 Ry
     Harris-Foulkes estimate   =   -1471.35799929 Ry
     estimated scf accuracy    <       0.00002072 Ry

     iteration # 36     ecut=    36.75 Ry     beta=0.30
     Davidson diagonalization with overlap
     ethr =  9.60E-09,  avg # of iterations =  1.4

[...]

     negative rho (up, down):  8.694E-03 0.000E+00

     Adding external electric field

     Computed dipole along edir(3) :
        Dipole                0.0404 Ry au,          0.1028 Debye
        Dipole field          0.0001 Ry au

        Potential amp.       -0.0096 Ry
        Total length         45.5283 bohr

     End of self-consistent calculation

[...]

          k = 0.0578-0.0667 0.0000 ( 18031 PWs)   bands (ev):

[...]

          k =-0.0867-0.0500 0.0000 ( 18044 PWs)   bands (ev):

   -56.2317 -56.2022 -56.1797 -56.0994 -56.0964 -56.0530 -56.0504 -55.9383
   -55.9284 -55.8639 -55.8409 -55.8344 -32.7291 -32.5545 -32.5485 -32.5209
   -32.5035 -32.4888 -32.4873 -32.4658 -32.4579 -32.4435 -32.4125 -32.4097
   -32.3982 -32.3708 -32.3632 -32.3238 -32.3232 -32.2904 -32.2739 -32.2393
   -32.2087 -32.2063 -32.1417 -32.1219 -32.1174 -32.1112 -32.1053 -32.1037
   -32.0749 -32.0448 -32.0349 -31.9737 -31.9678 -31.9267 -31.9184 -31.8731
   -18.2300  -4.7114  -4.4800  -4.1706  -2.9497  -2.8683  -1.7857  -1.5851
    -1.0150  -0.9936  -0.7913  -0.7557  -0.7253  -0.5670  -0.1235  -0.0884
    -0.0211  -0.0094   0.1286   0.1494   0.3523   0.4244   0.4808   0.5049
     0.5725   0.5801   0.6639   0.7315   0.8262   0.8612   0.8871   1.0227
     1.0382   1.1706   1.3678   1.5186   1.5587

     the Fermi energy is     0.8647 ev

!    total energy              =   -1471.35799632 Ry
     Harris-Foulkes estimate   =   -1471.35799735 Ry
     estimated scf accuracy    <       0.00000346 Ry

     The total energy is the sum of the following terms:

     one-electron contribution =  -11385.57726584 Ry
     hartree contribution      =    5681.01444404 Ry
     xc contribution           =    -232.58741492 Ry
     ewald contribution        =    4465.91846538 Ry
     electric field correction =       0.00000427 Ry
     smearing contrib. (-TS)   =      -0.12622926 Ry

     convergence has been achieved in  36 iterations

 BEEF-vdW xc energy contributions
           1 :   -199.912689709668
           2 :    178.569959229427
           3 :   -143.538264154514
           4 :    105.933255776842
           5 :   -74.9065640669059
           6 :    54.1260536947985
           7 :   -41.7555827348188
           8 :    33.1924814578102
           9 :   -24.4554639394971
          10 :    14.1879050412197
          11 :   -3.53201488876647
          12 :   -5.48348009652560
          13 :    11.6622479930198
          14 :   -15.3472618106341
          15 :    17.8625720304509
          16 :   -20.3375381731004
          17 :    22.8669102493765
          18 :   -24.5837369981693
          19 :    24.4690458384337
          20 :   -22.2086792030828
          21 :    18.4465609049236
          22 :   -14.3127761148730
          23 :    10.6517367848491
          24 :   -7.55524380111450
          25 :    4.50276785389374
          26 :  -0.933169078357423
          27 :   -3.22706497287319
          28 :    7.45989787666264
          29 :   -11.0077112776785
          30 :    13.3737691371428
          31 :   -21.2508087136584
          32 :   -15.1075467381603

     Forces acting on atoms (Ry/au):

     negative rho (up, down):  8.694E-03 0.000E+00
     atom    1 type  1   force =     0.00046396    0.00025652    0.01125471
     atom    2 type  1   force =    -0.00047268    0.00027279    0.01125107
     atom    3 type  1   force =     0.00001102   -0.00053585    0.01122520
     atom    4 type  1   force =    -0.00001144    0.00000237    0.00762247
     atom    5 type  1   force =     0.00001297    0.01191116   -0.00825861
     atom    6 type  1   force =    -0.00002117   -0.00000604   -0.01561153
     atom    7 type  1   force =    -0.01034848   -0.00595895   -0.00826878
     atom    8 type  1   force =     0.01033736   -0.00594920   -0.00825168
     atom    9 type  1   force =     0.00001249    0.00005823   -0.00106865
     atom   10 type  1   force =    -0.00002059   -0.00013986   -0.00020784
     atom   11 type  1   force =    -0.00002054   -0.00000250   -0.00018333
     atom   12 type  1   force =     0.00022686    0.00012993   -0.00028050
     atom   13 type  2   force =    -0.00016976   -0.00003860    0.00077748

     Total force =     0.036268     Total SCF correction =     0.007763
     SCF correction compared to forces is large: reduce conv_thr to get better values

     entering subroutine stress ...

     negative rho (up, down):  8.694E-03 0.000E+00
          total   stress  (Ry/bohr**3)                   (kbar)     P=   -1.63
   0.00000568   0.00000007  -0.00000008          0.84      0.01     -0.01
   0.00000007   0.00000565  -0.00000002          0.01      0.83     -0.00
  -0.00000008  -0.00000002  -0.00004447         -0.01     -0.00     -6.54

 !ASE

     Writing output data file calc.save

     General routines

     Parallel routines

   This run was terminated on:   5:38:30  18Jan2018

   JOB DONE.
Job  /afs/slac/g/suncat/bin/suncat-tsmpirun -x LD_LIBRARY_PATH -wdir /scratch/qe842487_Iy9S1 pw.x -in pw.inp

TID   HOST_NAME   COMMAND_LINE            STATUS            TERMINATION_TIME
00000 suncat0267 pw.x -in pw.inp   Done                     01/18/2018 05:38:30
00001 suncat0267 pw.x -in pw.inp   Done                     01/18/2018 05:38:30
00002 suncat0267 pw.x -in pw.inp   Done                     01/18/2018 05:38:30
00003 suncat0267 pw.x -in pw.inp   Done                     01/18/2018 05:38:30
00004 suncat0267 pw.x -in pw.inp   Done                     01/18/2018 05:38:30
00005 suncat0267 pw.x -in pw.inp   Done                     01/18/2018 05:38:30
00006 suncat0267 pw.x -in pw.inp   Done                     01/18/2018 05:38:30
00007 suncat0267 pw.x -in pw.inp   Done                     01/18/2018 05:38:30
00008 suncat0220 pw.x -in pw.inp   Done                     01/18/2018 05:38:30
00009 suncat0220 pw.x -in pw.inp   Done                     01/18/2018 05:38:30
00010 suncat0220 pw.x -in pw.inp   Done                     01/18/2018 05:38:30
00011 suncat0220 pw.x -in pw.inp   Done                     01/18/2018 05:38:30
00012 suncat0220 pw.x -in pw.inp   Done                     01/18/2018 05:38:30
00013 suncat0220 pw.x -in pw.inp   Done                     01/18/2018 05:38:30
00014 suncat0220 pw.x -in pw.inp   Done                     01/18/2018 05:38:30
00015 suncat0220 pw.x -in pw.inp   Done                     01/18/2018 05:38:30
00016 suncat0209 pw.x -in pw.inp   Done                     01/18/2018 05:38:30
00017 suncat0209 pw.x -in pw.inp   Done                     01/18/2018 05:38:30
00018 suncat0209 pw.x -in pw.inp   Done                     01/18/2018 05:38:30
00019 suncat0209 pw.x -in pw.inp   Done                     01/18/2018 05:38:30
00020 suncat0209 pw.x -in pw.inp   Done                     01/18/2018 05:38:30
00021 suncat0209 pw.x -in pw.inp   Done                     01/18/2018 05:38:30
00022 suncat0209 pw.x -in pw.inp   Done                     01/18/2018 05:38:30
00023 suncat0209 pw.x -in pw.inp   Done                     01/18/2018 05:38:30
00024 suncat0205 pw.x -in pw.inp   Done                     01/18/2018 05:38:30
00025 suncat0205 pw.x -in pw.inp   Done                     01/18/2018 05:38:30
00026 suncat0205 pw.x -in pw.inp   Done                     01/18/2018 05:38:30
00027 suncat0205 pw.x -in pw.inp   Done                     01/18/2018 05:38:30
00028 suncat0205 pw.x -in pw.inp   Done                     01/18/2018 05:38:30
00029 suncat0205 pw.x -in pw.inp   Done                     01/18/2018 05:38:30
00030 suncat0205 pw.x -in pw.inp   Done                     01/18/2018 05:38:30
00031 suncat0205 pw.x -in pw.inp   Done                     01/18/2018 05:38:30