     Program PWSCF v.5.1rc2 (svn rev. ) starts on 17Apr2018 at  8:35:47

     Current dimensions of program PWSCF are:
     Max number of different atomic species (ntypx) = 10
     Max number of k-points (npk) =  40000
     Max angular momentum in pseudopotentials (lmaxx) =  3
     Presently stress not available with electric field

     IMPORTANT: XC functional enforced from input :
     Exchange-correlation      = BEEF-VDW ( 1  4 27 13 2)
     Any further DFT definition will be discarded
     Please, verify this is what you really want

     Subspace diagonalization in iterative solution of the eigenvalue problem:
     a serial algorithm will be used

     bravais-lattice index     =            0
     lattice parameter (alat)  =       1.8897  a.u.
     unit-cell volume          =    3807.2308 (a.u.)^3
     number of atoms/cell      =           14
     number of atomic types    =            3
     number of electrons       =       235.00
     number of Kohn-Sham states=          127
     kinetic-energy cutoff     =      36.7493  Ry
     charge density cutoff     =     367.4932  Ry
     convergence threshold     =      1.0E-05
     mixing beta               =       0.3000
     number of iterations used =           10  plain     mixing
     Exchange-correlation      = BEEF-VDW ( 1  4 27 13 2)
     nstep                     =           50

     celldm(1)=   1.889726  celldm(2)=   0.000000  celldm(3)=   0.000000
     celldm(4)=   0.000000  celldm(5)=   0.000000  celldm(6)=   0.000000

     crystal axes: (cart. coord. in units of alat)
               a(1) = (   5.184823   0.000000   0.000000 )
               a(2) = (   2.592411   4.490188   0.000000 )
               a(3) = (   0.000000   0.000000  24.233390 )

     reciprocal axes: (cart. coord. in units 2 pi/alat)
               b(1) = (  0.192871 -0.111354  0.000000 )
               b(2) = (  0.000000  0.222708  0.000000 )
               b(3) = (  0.000000  0.000000  0.041265 )

     PseudoPot. # 1 for Cu read from file:
     /home/mamunm/src/pseudo/gbrv1.5pbe/Cu.UPF
     MD5 check sum: 6e991ff952a84172a2a52a1c1e996048
     Pseudo is Ultrasoft + core correction, Zval = 19.0
     Generated by new atomic code, or converted to UPF format
     Using radial grid of  867 points,  6 beta functions with:
                l(1) =   0
                l(2) =   0
                l(3) =   1
                l(4) =   1
                l(5) =   2
                l(6) =   2
     Q(r) pseudized with  8 coefficients,  rinner =    1.150   1.150   1.150
                                                       1.150   1.150

     PseudoPot. # 2 for O  read from file:
     /home/mamunm/src/pseudo/gbrv1.5pbe/O.UPF
     MD5 check sum: 734c27235a0248c51dbae37a1fbe46ec
     Pseudo is Ultrasoft + core correction, Zval =  6.0
     Generated by new atomic code, or converted to UPF format
     Using radial grid of  737 points,  5 beta functions with:
                l(1) =   0
                l(2) =   0
                l(3) =   1
                l(4) =   1
                l(5) =   2
     Q(r) pseudized with  8 coefficients,  rinner =    0.900   0.900   0.900
                                                       0.900   0.900

     PseudoPot. # 3 for H  read from file:
     /home/mamunm/src/pseudo/gbrv1.5pbe/H.UPF
     MD5 check sum: 761ae9a214b05c3daf00ab9f6b793d6f
     Pseudo is Ultrasoft, Zval =  1.0
     Generated by new atomic code, or converted to UPF format
     Using radial grid of  615 points,  2 beta functions with:
                l(1) =   0
                l(2) =   0
     Q(r) pseudized with  8 coefficients,  rinner =    0.700

     vdW kernel table read from file vdW_kernel_table
     MD5 check sum: 095c7af220d748ca6e76c0b4c6cfb241

     atomic species   valence    mass     pseudopotential
        Cu1           19.00    63.54600     Cu( 1.00)
        O1             6.00    15.99900     O ( 1.00)
        H1             1.00     1.00800     H ( 1.00)

     No symmetry found

   Cartesian axes

     site n.     atom                  positions (alat units)
         1           Cu1 tau(   1) = (   1.2962057   0.7483647  10.0000000  )
         2           Cu1 tau(   2) = (   3.8886170   0.7483647  10.0000000  )
         3           Cu1 tau(   3) = (   2.5924113   2.9934587  10.0000000  )
         4           Cu1 tau(   4) = (   5.1848226   2.9934587  10.0000000  )
         5           Cu1 tau(   5) = (   5.1848226   1.4967294  12.1166950  )
         6           Cu1 tau(   6) = (   2.5924113   1.4967294  12.1166950  )
         7           Cu1 tau(   7) = (   6.4810283   3.7418234  12.1166950  )
         8           Cu1 tau(   8) = (   3.8886170   3.7418234  12.1166950  )
         9           Cu1 tau(   9) = (   0.0000000   0.0000000  14.2333899  )
        10           Cu1 tau(  10) = (   2.5924113   0.0000000  14.2333899  )
        11           Cu1 tau(  11) = (   1.2962057   2.2450940  14.2333899  )
        12           Cu1 tau(  12) = (   3.8886170   2.2450940  14.2333899  )
        13           O1  tau(  13) = (   1.2962057   0.7483647  15.5203899  )
        14           H1  tau(  14) = (   1.2962057   0.7483647  16.4703899  )

     number of k points=    20  Fermi-Dirac smearing, width (Ry)=  0.0110
                       cart. coord. in units 2pi/alat
        k(    1) = (   0.0000000   0.0000000   0.0000000), wk =   0.0555556
        k(    2) = (   0.0000000   0.0371180   0.0000000), wk =   0.1111111
        k(    3) = (   0.0000000   0.0742359   0.0000000), wk =   0.1111111
        k(    4) = (   0.0000000  -0.1113539   0.0000000), wk =   0.0555556
        k(    5) = (   0.0321451  -0.0185590   0.0000000), wk =   0.1111111
        k(    6) = (   0.0321451   0.0185590   0.0000000), wk =   0.1111111
        k(    7) = (   0.0321451   0.0556770   0.0000000), wk =   0.1111111
        k(    8) = (   0.0321451  -0.1299129   0.0000000), wk =   0.1111111
        k(    9) = (   0.0321451  -0.0927949   0.0000000), wk =   0.1111111
        k(   10) = (   0.0321451  -0.0556770   0.0000000), wk =   0.1111111
        k(   11) = (   0.0642902  -0.0371180   0.0000000), wk =   0.1111111
        k(   12) = (   0.0642902  -0.0000000   0.0000000), wk =   0.1111111
        k(   13) = (   0.0642902   0.0371180   0.0000000), wk =   0.1111111
        k(   14) = (   0.0642902  -0.1484719   0.0000000), wk =   0.1111111
        k(   15) = (   0.0642902  -0.1113539   0.0000000), wk =   0.1111111
        k(   16) = (   0.0642902  -0.0742359   0.0000000), wk =   0.1111111
        k(   17) = (  -0.0964353   0.0556770   0.0000000), wk =   0.0555556
        k(   18) = (  -0.0964353   0.0927949   0.0000000), wk =   0.1111111
        k(   19) = (  -0.0964353   0.1299129   0.0000000), wk =   0.1111111
        k(   20) = (  -0.0964353  -0.0556770   0.0000000), wk =   0.0555556

     Largest allocated arrays     est. size (Mb)     dimensions
     Largest temporary arrays     est. size (Mb)     dimensions

     Initial potential from superposition of free atoms
     Check: negative starting charge=   -0.000244

     starting charge  222.99997, renormalised to  235.00000

     negative rho (up, down):  2.567E-04 0.000E+00

     *
     * You are using vdW-DF for exchange-correlation in this calculation.
     * Please cite the following three references that made this development
     * possible:
     *
     *   M. Dion, H. Rydberg, E. Schroder, D. C. Langreth, and
     *   B. I. Lundqvist, Phys. Rev. Lett. 92, 246401 (2004).
     *
     *   T. Thonhauser, V. R. Cooper, S. Li, A. Puzder, P. Hyldgaard, and
     *   D. C. Langreth, Phys. Rev. B 76, 125112 (2007).
     *
     *   G. Roman-Perez and J. M. Soler, Phys. Rev. Lett. 103, 096102 (2009).
     *
     *
     * If you are using vdW-DF2, please also cite:
     *
     *   K. Lee, E. D. Murray, L. Kong, B. I. Lundqvist, and
     *   D. C. Langreth, Phys. Rev. B 82, 081101(R) (2010).
     *
     *
     * If you are calculating the stress with vdW-DF, please also cite:
     *
     *   R. Sabatini, E. Kucukbenli, B. Kolb, T. Thonhauser, and
     *   S. de Gironcoli, J. Phys.: Condens. Matter 24, 424209 (2012).
     *

     Carrying out vdW-DF run using the following parameters:

     Nqs =      20    Nr_points =    1024   r_max =   100.000
     q_mesh =
               0.00001000     0.04494208     0.09755937     0.15916263
               0.23128650     0.31572767     0.41458969     0.53033537
               0.66584808     0.82450364     1.01025438     1.22772762
               1.48234092     1.78043706     2.12944203     2.53805004
               3.01644009     3.57652955     4.23227104     5.00000000

     Gradients computed in reciprocal space

     Adding external electric field

     Computed dipole along edir(3) :
        Dipole               -2.5194 Ry au,         -6.4036 Debye
        Dipole field         -0.0083 Ry au

        Potential amp.        0.7426 Ry
        Total length         44.6496 bohr

     Starting wfc are  161 randomized atomic wfcs

     Self-consistent Calculation

     iteration #  1     ecut=    36.75 Ry     beta=0.30
     Davidson diagonalization with overlap
     ethr =  1.00E-02,  avg # of iterations =  7.8

[...]

     total energy              =   -4477.98710563 Ry
     Harris-Foulkes estimate   =   -4886.70274107 Ry
     estimated scf accuracy    <     861.14949019 Ry

[...]

     End of self-consistent calculation

          k = 0.0000 0.0000 0.0000 ( 14321 PWs)   bands (ev):

  -111.5519-111.4752-111.4699-111.4695-111.3827-111.3775-111.3761-111.2403
  -111.2346-111.2337-111.2213-111.2110 -68.9570 -68.9570 -68.9474 -68.9152
   -68.8752 -68.8752 -68.8733 -68.8671 -68.8668 -68.8495 -68.8455 -68.8455
   -68.8282 -68.8252 -68.8242 -68.7950 -68.7692 -68.7681 -68.7472 -68.7425
   -68.7411 -68.6930 -68.6854 -68.6849 -68.6380 -68.6373 -68.6369 -68.6291
   -68.6290 -68.6177 -68.6176 -68.5980 -68.5927 -68.5918 -68.5816 -68.5722
   -19.8787  -8.4948  -6.9917  -5.0127  -4.5522  -4.5521  -3.7863  -3.4430
    -3.4429  -3.4121  -3.2316  -3.1449  -3.1448  -2.9321  -2.9320  -2.8799
    -2.7536  -2.7535  -2.7136  -2.1678  -2.1676  -2.0653  -1.9401  -1.9266
    -1.9265  -1.8727  -1.8077  -1.8077  -1.7585  -1.6582  -1.6581  -1.6278
    -1.5957  -1.5956  -1.5285  -1.5284  -1.3762  -1.3758  -1.3685  -1.0574
    -1.0572  -1.0564  -0.9994  -0.9993  -0.8715  -0.8712  -0.8464  -0.7561
    -0.7559  -0.6339  -0.6238  -0.6236  -0.5679  -0.5679  -0.5551  -0.5241
    -0.5240  -0.5158  -0.4473  -0.4402  -0.4398  -0.2997  -0.2994  -0.2978
    -0.2591  -0.2586  -0.0713   1.1092   1.3300   1.3300   1.5381   2.3167
     2.3167   2.5051   2.7330   2.7330   3.0146   3.9791   4.5335

[...]

          k =-0.0964 0.0557 0.0000 ( 14294 PWs)   bands (ev):

[...]

     the Fermi energy is     1.1113 ev

!    total energy              =   -4893.00201679 Ry
     Harris-Foulkes estimate   =   -4893.00201768 Ry
     estimated scf accuracy    <       0.00000172 Ry

     The total energy is the sum of the following terms:

     one-electron contribution =  -38140.25736014 Ry
     hartree contribution      =   19092.11102900 Ry
     xc contribution           =    -488.60456323 Ry
     ewald contribution        =   14643.77668113 Ry
     electric field correction =       0.00046137 Ry
     smearing contrib. (-TS)   =      -0.02826493 Ry

     convergence has been achieved in  32 iterations

 BEEF-vdW xc energy contributions
           1 :   -432.824130203318
           2 :    392.214767963520
           3 :   -323.460183816007
           4 :    245.515897563786
           5 :   -175.602949526157
           6 :    123.055464194345
           7 :   -87.8815675794796
           8 :    63.9449790288095
           9 :   -44.3012534725716
          10 :    25.4041101279174
          11 :   -8.07917451490795
          12 :   -4.59458901909267
          13 :    10.5014906040593
          14 :   -10.4706298483115
          15 :    7.86084127640959
          16 :   -6.35576090717120
          17 :    7.70330518142430
          18 :   -10.9632116899389
          19 :    13.6140960349425
          20 :   -13.5827288171035
          21 :    10.7322769133162
          22 :   -6.85176424852170
          23 :    4.29065461128914
          24 :   -4.30137139812956
          25 :    6.26061741286151
          26 :   -8.24392681560550
          27 :    8.46028105949574
          28 :   -6.49776752545012
          29 :    3.52772596057287
          30 :   -1.39100952368136
          31 :   -34.6697017576370
          32 :   -23.6648690350793

     Forces acting on atoms (Ry/au):

     negative rho (up, down):  1.072E-03 0.000E+00
     atom    1 type  1   force =    -0.00003578   -0.00000737    0.00599017
     atom    2 type  1   force =     0.00000303    0.00091307    0.00367567
     atom    3 type  1   force =     0.00078703   -0.00047812    0.00363473
     atom    4 type  1   force =    -0.00081840   -0.00050274    0.00348271
     atom    5 type  1   force =    -0.00011618    0.00020697   -0.00158677
     atom    6 type  1   force =     0.00009004    0.00026567   -0.00156159
     atom    7 type  1   force =     0.00002836   -0.00018628    0.01565555
     atom    8 type  1   force =    -0.00005915   -0.00029685   -0.00173207
     atom    9 type  1   force =    -0.03670591   -0.02121160   -0.01938257
     atom   10 type  1   force =     0.03685241   -0.02127522   -0.01905447
     atom   11 type  1   force =     0.00001383    0.04256690   -0.01899883
     atom   12 type  1   force =    -0.00003997   -0.00000855   -0.02217020
     atom   13 type  2   force =     0.00001452    0.00002525    0.00117809
     atom   14 type  3   force =    -0.00001380   -0.00001113    0.05086957

     Total force =     0.097981     Total SCF correction =     0.003795

     entering subroutine stress ...

     negative rho (up, down):  1.072E-03 0.000E+00
          total   stress  (Ry/bohr**3)                   (kbar)     P=  -18.22
  -0.00013820  -0.00000000  -0.00000002        -20.33     -0.00     -0.00
  -0.00000000  -0.00013817  -0.00000000         -0.00    -20.33     -0.00
  -0.00000002  -0.00000000  -0.00009521         -0.00     -0.00    -14.01

     BFGS Geometry Optimization

     number of scf cycles    =   1
     number of bfgs steps    =   0

     energy   new            =   -4893.0020167939 Ry

     new trust radius        =       0.0508695738 bohr
     new conv_thr            =       0.0000099958 Ry

ATOMIC_POSITIONS (crystal)
Cu1      0.166666667   0.166666667   0.412653782    0   0   0
Cu1      0.666666667   0.166666667   0.412653782    0   0   0
Cu1      0.166666667   0.666666667   0.412653782    0   0   0
Cu1      0.666666667   0.666666667   0.412653782    0   0   0
Cu1      0.833333333   0.333333333   0.500000000    0   0   0
Cu1      0.333333333   0.333333333   0.500000000    0   0   0
Cu1      0.833333333   0.833333333   0.500000000    0   0   0
Cu1      0.333333333   0.833333333   0.500000000    0   0   0
Cu1     -0.002496392  -0.002499828   0.586922967
Cu1      0.505014920  -0.002507326   0.586930131
Cu1     -0.002506884   0.505016591   0.586931347
Cu1      0.499996424   0.499998992   0.586862094
O1       0.166666661   0.166669642   0.640480485
H1       0.166665914   0.166665354   0.680767693

     Writing output data file calc.save
     Check: negative starting charge=   -0.000244
     NEW-OLD atomic charge density approx. for the potential
     Check: negative starting charge=   -0.000242

[...]

     energy   old            =   -4893.0020167939 Ry
     energy   new            =   -4893.0088887802 Ry

     CASE: energy  _new < energy  _old

[...]

     iteration #  1     ecut=    36.75 Ry     beta=0.30
     Davidson diagonalization with overlap
     c_bands:  1 eigenvalues not converged
     c_bands:  1 eigenvalues not converged
     c_bands:  1 eigenvalues not converged
     c_bands:  1 eigenvalues not converged
     c_bands:  1 eigenvalues not converged
     c_bands:  1 eigenvalues not converged
     c_bands:  1 eigenvalues not converged
     c_bands:  1 eigenvalues not converged
     ethr =  1.00E-06,  avg # of iterations = 12.8

[...]

     Total force =     0.004725     Total SCF correction =     0.000699
     SCF correction compared to forces is large: reduce conv_thr to get better values

[...]

     Threshold (ethr) on eigenvalues was too large:
     Diagonalizing with lowered threshold

     Davidson diagonalization with overlap
     ethr =  5.00E-08,  avg # of iterations =  1.0

[...]

     Total force =     0.007981     Total SCF correction =     0.000407

[...]

     number of scf cycles    =  13
     number of bfgs steps    =  12

     energy   old            =   -4893.0158588650 Ry
     energy   new            =   -4893.0158782163 Ry

     CASE: energy  _new < energy  _old

     new trust radius        =       0.0083005167 bohr
     new conv_thr            =       0.0000001000 Ry

ATOMIC_POSITIONS (crystal)
Cu1      0.166666667   0.166666667   0.412653782    0   0   0
Cu1      0.666666667   0.166666667   0.412653782    0   0   0
Cu1      0.166666667   0.666666667   0.412653782    0   0   0
Cu1      0.666666667   0.666666667   0.412653782    0   0   0
Cu1      0.833333333   0.333333333   0.500000000    0   0   0
Cu1      0.333333333   0.333333333   0.500000000    0   0   0
Cu1      0.833333333   0.833333333   0.500000000    0   0   0
Cu1      0.333333333   0.833333333   0.500000000    0   0   0
Cu1     -0.006168291  -0.006166293   0.586869652
Cu1      0.512333834  -0.006161739   0.586868734
Cu1     -0.006160012   0.512328588   0.586868777
Cu1      0.500001674   0.500002332   0.582617181
O1       0.166667413   0.166672930   0.643450587
H1       0.166664515   0.166664171   0.683577252

     Writing output data file calc.save
     Check: negative starting charge=   -0.000250
     NEW-OLD atomic charge density approx. for the potential
     Check: negative starting charge=   -0.000250

[...]

     Self-consistent Calculation

[...]

     total energy              =   -4893.01589083 Ry
     Harris-Foulkes estimate   =   -4893.01589073 Ry
     estimated scf accuracy    <       0.00000011 Ry

     iteration #  9     ecut=    36.75 Ry     beta=0.30
     Davidson diagonalization with overlap
     ethr =  4.50E-11,  avg # of iterations =  3.0

[...]

     negative rho (up, down):  1.115E-03 0.000E+00

     Adding external electric field

     Computed dipole along edir(3) :
        Dipole                0.3134 Ry au,          0.7965 Debye
        Dipole field          0.0010 Ry au

        Potential amp.       -0.0924 Ry
        Total length         44.6496 bohr

     End of self-consistent calculation

[...]

          k = 0.0643-0.0742 0.0000 ( 14299 PWs)   bands (ev):

[...]

          k =-0.0964-0.0557 0.0000 ( 14294 PWs)   bands (ev):

  -111.6843-111.6103-111.6084-111.6065-111.4130-111.4094-111.4079-111.3960
  -111.3556-111.3541-111.3519-111.3447 -69.0840 -69.0835 -69.0773 -69.0371
   -69.0165 -69.0091 -69.0073 -69.0048 -69.0035 -69.0008 -68.9924 -68.9836
   -68.8607 -68.8603 -68.8448 -68.8396 -68.8170 -68.8115 -68.8035 -68.7985
   -68.7970 -68.7911 -68.7752 -68.7732 -68.7730 -68.7710 -68.7692 -68.7673
   -68.7654 -68.7650 -68.7496 -68.7440 -68.7132 -68.7116 -68.7097 -68.6971
   -19.1665  -7.6053  -5.6436  -5.4049  -4.3175  -3.8771  -3.7456  -3.4740
    -3.2458  -3.2237  -3.0458  -3.0260  -2.9921  -2.8999  -2.7373  -2.7049
    -2.5840  -2.5634  -2.4778  -2.4686  -2.3403  -2.3134  -2.2933  -2.2611
    -2.2177  -2.1833  -2.0015  -1.9590  -1.8978  -1.8923  -1.8065  -1.7748
    -1.7305  -1.7101  -1.6964  -1.6652  -1.6582  -1.6432  -1.6307  -1.5980
    -1.5907  -1.4643  -1.4400  -1.4012  -1.3706  -1.2903  -1.2619  -1.2465
    -1.1725  -1.1670  -1.1387  -1.1142  -1.0499  -1.0424  -1.0017  -0.9619
    -0.9346  -0.8959  -0.8488  -0.8204  -0.6935  -0.6763  -0.6422  -0.6160
    -0.5720  -0.4236  -0.3060  -0.0652   0.9617   0.9654   1.6489   1.6947
     2.3480   2.5937   3.9718   4.0839   4.6727   5.0178   5.4619

     the Fermi energy is     0.9883 ev

!    total energy              =   -4893.01589083 Ry
     Harris-Foulkes estimate   =   -4893.01589079 Ry
     estimated scf accuracy    <       0.00000002 Ry

     The total energy is the sum of the following terms:

     one-electron contribution =  -38260.58835494 Ry
     hartree contribution      =   19151.65856723 Ry
     xc contribution           =    -488.56127786 Ry
     ewald contribution        =   14704.50334593 Ry
     electric field correction =       0.00032413 Ry
     smearing contrib. (-TS)   =      -0.02849531 Ry

     convergence has been achieved in   9 iterations

 BEEF-vdW xc energy contributions
           1 :   -432.779545354296
           2 :    392.158769041043
           3 :   -323.396525615914
           4 :    245.458228239037
           5 :   -175.562828120859
           6 :    123.036409198783
           7 :   -87.8813592022427
           8 :    63.9628959756138
           9 :   -44.3394931662323
          10 :    25.4595991350388
          11 :   -8.13426183722049
          12 :   -4.57065231234878
          13 :    10.5347753044978
          14 :   -10.5583626932962
          15 :    7.96240272010198
          16 :   -6.41198967074041
          17 :    7.67500960795206
          18 :   -10.8628367362352
          19 :    13.5043834759286
          20 :   -13.5377570647213
          21 :    10.7852153973160
          22 :   -6.96771860074233
          23 :    4.38829183816375
          24 :   -4.31050828913834
          25 :    6.17414724997519
          26 :   -8.12476366506894
          27 :    8.39644522125008
          28 :   -6.53724767188544
          29 :    3.64085069453921
          30 :   -1.48968410797346
          31 :   -34.6679730676859
          32 :   -23.6605503833594

     Forces acting on atoms (Ry/au):

     negative rho (up, down):  1.115E-03 0.000E+00
     atom    1 type  1   force =     0.00000006    0.00000011    0.00401233
     atom    2 type  1   force =     0.00000002    0.00078968    0.00213050
     atom    3 type  1   force =     0.00068386   -0.00039478    0.00213036
     atom    4 type  1   force =    -0.00068373   -0.00039474    0.00213015
     atom    5 type  1   force =     0.00428080   -0.00247212   -0.00610109
     atom    6 type  1   force =    -0.00427946   -0.00247081   -0.00610216
     atom    7 type  1   force =     0.00000089   -0.00000016    0.00833182
     atom    8 type  1   force =    -0.00000048    0.00494370   -0.00610050
     atom    9 type  1   force =     0.00044778    0.00025573    0.00000113
     atom   10 type  1   force =    -0.00044494    0.00024977   -0.00000039
     atom   11 type  1   force =    -0.00000377   -0.00050316   -0.00000249
     atom   12 type  1   force =     0.00000110    0.00000167   -0.00063785
     atom   13 type  2   force =    -0.00000323   -0.00000636   -0.00132319
     atom   14 type  3   force =     0.00000109    0.00000144    0.00153139

     Total force =     0.002298     Total SCF correction =     0.000277
     SCF correction compared to forces is large: reduce conv_thr to get better values

     entering subroutine stress ...

     negative rho (up, down):  1.115E-03 0.000E+00
          total   stress  (Ry/bohr**3)                   (kbar)     P=  -17.00
  -0.00012195  -0.00000000  -0.00000000        -17.94     -0.00     -0.00
  -0.00000000  -0.00012195  -0.00000000         -0.00    -17.94     -0.00
  -0.00000000  -0.00000000  -0.00010270         -0.00     -0.00    -15.11

     bfgs converged in  14 scf cycles and  13 bfgs steps
     (criteria: energy <  1.0E+00, force <  1.9E-03)

     End of BFGS Geometry Optimization

     Final energy   =   -4893.0158908263 Ry
Begin final coordinates

ATOMIC_POSITIONS (crystal)
Cu1      0.166666667   0.166666667   0.412653782    0   0   0
Cu1      0.666666667   0.166666667   0.412653782    0   0   0
Cu1      0.166666667   0.666666667   0.412653782    0   0   0
Cu1      0.666666667   0.666666667   0.412653782    0   0   0
Cu1      0.833333333   0.333333333   0.500000000    0   0   0
Cu1      0.333333333   0.333333333   0.500000000    0   0   0
Cu1      0.833333333   0.833333333   0.500000000    0   0   0
Cu1      0.333333333   0.833333333   0.500000000    0   0   0
Cu1     -0.006168291  -0.006166293   0.586869652
Cu1      0.512333834  -0.006161739   0.586868734
Cu1     -0.006160012   0.512328588   0.586868777
Cu1      0.500001674   0.500002332   0.582617181
O1       0.166667413   0.166672930   0.643450587
H1       0.166664515   0.166664171   0.683577252
End final coordinates

     Writing output data file calc.save

     General routines

     Parallel routines

   This run was terminated on:   9:18: 6  17Apr2018

   JOB DONE.