     Program PWSCF v.5.1rc2 (svn rev. 11289) starts on 11Jan2019 at 12:20:36

     Current dimensions of program PWSCF are:
     Max number of different atomic species (ntypx) = 10
     Max number of k-points (npk) =  40000
     Max angular momentum in pseudopotentials (lmaxx) =  3

     IMPORTANT: XC functional enforced from input :
     Exchange-correlation      = BEEF-VDW ( 1  4 27 13 2)
     Any further DFT definition will be discarded
     Please, verify this is what you really want

     Subspace diagonalization in iterative solution of the eigenvalue problem:
     a serial algorithm will be used

     Generating pointlists ...
     new r_m :   0.1339 (alat units)  1.2680 (a.u.) for type    1
     new r_m :   0.0899 (alat units)  0.8515 (a.u.) for type    2
     new r_m :   0.0899 (alat units)  0.8515 (a.u.) for type    3

     bravais-lattice index     =            0
     lattice parameter (alat)  =       9.4723  a.u.
     unit-cell volume          =    3537.7769 (a.u.)^3
     number of atoms/cell      =           14
     number of atomic types    =            3
     number of electrons       =       209.00
     number of Kohn-Sham states=          114
     kinetic-energy cutoff     =      36.7493  Ry
     charge density cutoff     =     367.4933  Ry
     convergence threshold     =      1.0E-04
     mixing beta               =       0.1000
     number of iterations used =            8  plain     mixing
     Exchange-correlation      = BEEF-VDW ( 1  4 27 13 2)
     nstep                     =           50

     celldm(1)=   9.472344  celldm(2)=   0.000000  celldm(3)=   0.000000
     celldm(4)=   0.000000  celldm(5)=   0.000000  celldm(6)=   0.000000

     crystal axes: (cart. coord. in units of alat)
               a(1) = (   1.000000   0.000000   0.000000 )
               a(2) = (   0.500000   0.866025   0.000000 )
               a(3) = (   0.000000   0.000000   4.806483 )

     reciprocal axes: (cart. coord. in units 2 pi/alat)
               b(1) = (  1.000000 -0.577350  0.000000 )
               b(2) = (  0.000000  1.154701  0.000000 )
               b(3) = (  0.000000  0.000000  0.208052 )

     PseudoPot. # 1 for Co read from file:
     /u/if/jboes/code/decaf-espresso/gbrv15pbe/Co.UPF
     MD5 check sum: 5f91765df6ddd3222702df6e7b74a16d
     Pseudo is Ultrasoft + core correction, Zval = 17.0
     Generated by new atomic code, or converted to UPF format
     Using radial grid of  863 points,  6 beta functions with:
                l(1) =   0
                l(2) =   0
                l(3) =   1
                l(4) =   1
                l(5) =   2
                l(6) =   2
     Q(r) pseudized with  8 coefficients,  rinner =    1.200   1.200   1.200
                                                       1.200   1.200

     PseudoPot. # 2 for C  read from file:
     /u/if/jboes/code/decaf-espresso/gbrv15pbe/C.UPF
     MD5 check sum: d1aef80898a10debaa0f26306b886e00
     Pseudo is Ultrasoft + core correction, Zval =  4.0
     Generated by new atomic code, or converted to UPF format
     Using radial grid of  721 points,  4 beta functions with:
                l(1) =   0
                l(2) =   0
                l(3) =   1
                l(4) =   1
     Q(r) pseudized with  8 coefficients,  rinner =    1.100   1.100   1.100

     PseudoPot. # 3 for H  read from file:
     /u/if/jboes/code/decaf-espresso/gbrv15pbe/H.UPF
     MD5 check sum: 761ae9a214b05c3daf00ab9f6b793d6f
     Pseudo is Ultrasoft, Zval =  1.0
     Generated by new atomic code, or converted to UPF format
     Using radial grid of  615 points,  2 beta functions with:
                l(1) =   0
                l(2) =   0
     Q(r) pseudized with  8 coefficients,  rinner =    0.700

     vdW kernel table read from file vdW_kernel_table
     MD5 check sum: 095c7af220d748ca6e76c0b4c6cfb241

     atomic species   valence    mass     pseudopotential
        Co            17.00    58.93319     Co( 1.00)
        C              4.00    12.01100     C ( 1.00)
        H              1.00     1.00800     H ( 1.00)

     Starting magnetic structure
     atomic species   magnetization
        Co           0.118
        C            0.000
        H            0.000

     No symmetry found

   Cartesian axes

     site n.     atom                  positions (alat units)
         1           Co  tau(   1) = (   0.2500000   0.1443376   1.9949931  )
         2           Co  tau(   2) = (   0.7500000   0.1443376   1.9949931  )
         3           Co  tau(   3) = (   0.5000000   0.5773503   1.9949931  )
         4           Co  tau(   4) = (   1.0000000   0.5773503   1.9949931  )
         5           Co  tau(   5) = (   1.0000000   0.2886751   2.4032414  )
         6           Co  tau(   6) = (   0.5000000   0.2886751   2.4032414  )
         7           Co  tau(   7) = (   1.2500000   0.7216878   2.4032414  )
         8           Co  tau(   8) = (   0.7500000   0.7216878   2.4032414  )
         9           Co  tau(   9) = (   0.0002364   0.0004336   2.8067190  )
        10           Co  tau(  10) = (   0.5001579  -0.0004523   2.8040791  )
        11           Co  tau(  11) = (   0.2496523   0.4335829   2.8040696  )
        12           Co  tau(  12) = (   0.7505380   0.4335105   2.8040496  )
        13           C   tau(  13) = (  -0.0001913  -0.0003717   3.1312420  )
        14           H   tau(  14) = (  -0.0001060  -0.0001707   3.3491764  )

     number of k points=    40  Fermi-Dirac smearing, width (Ry)=  0.0110
                       cart. coord. in units 2pi/alat
        k(    1) = (   0.0000000   0.0000000   0.0000000), wk =   0.0277778
        k(    2) = (   0.0000000   0.1924501   0.0000000), wk =   0.0555556
        k(    3) = (   0.0000000   0.3849002   0.0000000), wk =   0.0555556
        k(    4) = (   0.0000000  -0.5773503   0.0000000), wk =   0.0277778
        k(    5) = (   0.1666667  -0.0962250   0.0000000), wk =   0.0555556
        k(    6) = (   0.1666667   0.0962250   0.0000000), wk =   0.0555556
        k(    7) = (   0.1666667   0.2886751   0.0000000), wk =   0.0555556
        k(    8) = (   0.1666667  -0.6735753   0.0000000), wk =   0.0555556
        k(    9) = (   0.1666667  -0.4811252   0.0000000), wk =   0.0555556
        k(   10) = (   0.1666667  -0.2886751   0.0000000), wk =   0.0555556
        k(   11) = (   0.3333333  -0.1924501   0.0000000), wk =   0.0555556
        k(   12) = (   0.3333333  -0.0000000   0.0000000), wk =   0.0555556
        k(   13) = (   0.3333333   0.1924501   0.0000000), wk =   0.0555556
        k(   14) = (   0.3333333  -0.7698004   0.0000000), wk =   0.0555556
        k(   15) = (   0.3333333  -0.5773503   0.0000000), wk =   0.0555556
        k(   16) = (   0.3333333  -0.3849002   0.0000000), wk =   0.0555556
        k(   17) = (  -0.5000000   0.2886751   0.0000000), wk =   0.0277778
        k(   18) = (  -0.5000000   0.4811252   0.0000000), wk =   0.0555556
        k(   19) = (  -0.5000000   0.6735753   0.0000000), wk =   0.0555556
        k(   20) = (  -0.5000000  -0.2886751   0.0000000), wk =   0.0277778
        k(   21) = (   0.0000000   0.0000000   0.0000000), wk =   0.0277778
        k(   22) = (   0.0000000   0.1924501   0.0000000), wk =   0.0555556
        k(   23) = (   0.0000000   0.3849002   0.0000000), wk =   0.0555556
        k(   24) = (   0.0000000  -0.5773503   0.0000000), wk =   0.0277778
        k(   25) = (   0.1666667  -0.0962250   0.0000000), wk =   0.0555556
        k(   26) = (   0.1666667   0.0962250   0.0000000), wk =   0.0555556
        k(   27) = (   0.1666667   0.2886751   0.0000000), wk =   0.0555556
        k(   28) = (   0.1666667  -0.6735753   0.0000000), wk =   0.0555556
        k(   29) = (   0.1666667  -0.4811252   0.0000000), wk =   0.0555556
        k(   30) = (   0.1666667  -0.2886751   0.0000000), wk =   0.0555556
        k(   31) = (   0.3333333  -0.1924501   0.0000000), wk =   0.0555556
        k(   32) = (   0.3333333  -0.0000000   0.0000000), wk =   0.0555556
        k(   33) = (   0.3333333   0.1924501   0.0000000), wk =   0.0555556
        k(   34) = (   0.3333333  -0.7698004   0.0000000), wk =   0.0555556
        k(   35) = (   0.3333333  -0.5773503   0.0000000), wk =   0.0555556
        k(   36) = (   0.3333333  -0.3849002   0.0000000), wk =   0.0555556
        k(   37) = (  -0.5000000   0.2886751   0.0000000), wk =   0.0277778
        k(   38) = (  -0.5000000   0.4811252   0.0000000), wk =   0.0555556
        k(   39) = (  -0.5000000   0.6735753   0.0000000), wk =   0.0555556
        k(   40) = (  -0.5000000  -0.2886751   0.0000000), wk =   0.0277778

     Largest allocated arrays     est. size (Mb)     dimensions
     Largest temporary arrays     est. size (Mb)     dimensions

     Check: negative/imaginary core charge=   -0.000007    0.000000

     Initial potential from superposition of free atoms
     Check: negative starting charge=(component1):   -0.000172
     Check: negative starting charge=(component2):   -0.000136

     starting charge  196.99987, renormalised to  209.00000

     negative rho (up, down):  1.820E-04 1.446E-04

     *
     * You are using vdW-DF for exchange-correlation in this calculation.
     * Please cite the following three references that made this development
     * possible:
     *
     *   M. Dion, H. Rydberg, E. Schroder, D. C. Langreth, and
     *   B. I. Lundqvist, Phys. Rev. Lett. 92, 246401 (2004).
     *
     *   T. Thonhauser, V. R. Cooper, S. Li, A. Puzder, P. Hyldgaard, and
     *   D. C. Langreth, Phys. Rev. B 76, 125112 (2007).
     *
     *   G. Roman-Perez and J. M. Soler, Phys. Rev. Lett. 103, 096102 (2009).
     *
     *
     * If you are using vdW-DF2, please also cite:
     *
     *   K. Lee, E. D. Murray, L. Kong, B. I. Lundqvist, and
     *   D. C. Langreth, Phys. Rev. B 82, 081101(R) (2010).
     *
     *
     * If you are calculating the stress with vdW-DF, please also cite:
     *
     *   R. Sabatini, E. Kucukbenli, B. Kolb, T. Thonhauser, and
     *   S. de Gironcoli, J. Phys.: Condens. Matter 24, 424209 (2012).
     *

     Carrying out vdW-DF run using the following parameters:

     Nqs =      20    Nr_points =    1024   r_max =   100.000
     q_mesh =
               0.00001000     0.04494208     0.09755937     0.15916263
               0.23128650     0.31572767     0.41458969     0.53033537
               0.66584808     0.82450364     1.01025438     1.22772762
               1.48234092     1.78043706     2.12944203     2.53805004
               3.01644009     3.57652955     4.23227104     5.00000000

     Gradients computed in reciprocal space

     Adding external electric field

     Computed dipole along edir(3) :
        Dipole               -2.2322 Ry au,         -5.6736 Debye
        Dipole field         -0.0079 Ry au

        Potential amp.        0.6498 Ry
        Total length         40.9758 bohr

[...]

     Starting wfc are  161 randomized atomic wfcs

     Self-consistent Calculation

     iteration #  1     ecut=    36.75 Ry     beta=0.10
     Davidson diagonalization with overlap
     ethr =  1.00E-02,  avg # of iterations =  7.0

[...]

     Magnetic moment per site:
     atom:    1    charge:   13.6758    magn:    1.5579    constr:    0.0000
[...]
     atom:    5    charge:   13.5604    magn:    1.5516    constr:    0.0000
     atom:    6    charge:   13.5616    magn:    1.5500    constr:    0.0000
     atom:    7    charge:   13.5603    magn:    1.5516    constr:    0.0000
     atom:    8    charge:   13.5604    magn:    1.5517    constr:    0.0000
     atom:    9    charge:   13.4345    magn:    1.5002    constr:    0.0000
     atom:   10    charge:   13.3607    magn:    1.5032    constr:    0.0000
     atom:   11    charge:   13.3608    magn:    1.5032    constr:    0.0000
     atom:   12    charge:   13.3608    magn:    1.5033    constr:    0.0000
     atom:   13    charge:    0.8291    magn:    0.0001    constr:    0.0000
     atom:   14    charge:    0.3985    magn:   -0.0001    constr:    0.0000

     total energy              =   -3491.32073579 Ry
     Harris-Foulkes estimate   =   -3631.72209011 Ry
     estimated scf accuracy    <     776.15846730 Ry

     total magnetization       =    10.29 Bohr mag/cell
     absolute magnetization    =    10.92 Bohr mag/cell

[...]

     End of self-consistent calculation

 ------ SPIN UP ------------

          k = 0.0000 0.0000 0.0000 ( 13257 PWs)   bands (ev):

   -94.9358 -94.8784 -94.8574 -94.8570 -94.8004 -94.7781 -94.7766 -94.7252
   -94.6960 -94.6957 -94.6906 -94.3426 -58.2801 -58.2800 -58.2524 -58.2281
   -58.1992 -58.1761 -58.1758 -58.1176 -58.1030 -58.1025 -58.0954 -58.0953
   -58.0760 -58.0741 -58.0390 -58.0257 -58.0256 -58.0235 -58.0232 -58.0222
   -58.0221 -58.0203 -58.0195 -57.9973 -57.9939 -57.9931 -57.9824 -57.9502
   -57.9494 -57.8777 -57.8719 -57.8717 -57.8215 -57.8215 -57.3793 -57.3786
   -10.1184  -6.5344  -5.0061  -4.2213  -3.6036  -3.4000  -3.3996  -3.3627
    -3.1594  -3.1591  -3.0538  -2.8548  -2.8539  -2.8078  -2.6613  -2.6257
    -2.6253  -2.2872  -2.2866  -1.9909  -1.5516  -1.5515  -1.4699  -1.3521
    -1.2520  -1.2518  -1.1871  -1.1340  -1.1337  -1.0854  -1.0386  -1.0385
    -0.8895  -0.8892  -0.8536  -0.8524  -0.6447  -0.6435  -0.4366  -0.2927
    -0.2442  -0.2434  -0.2000  -0.1988  -0.1217   0.0351   0.0355   0.2977
     0.2979   0.3268   0.3679   0.3724   0.3731   0.4370   0.4379   0.6269
     0.6272   0.6311   0.7444   0.8556   0.8558   0.8611   0.9977   0.9982
     1.4171   1.4195

[...]

          k =-0.5000 0.2887 0.0000 ( 13378 PWs)   bands (ev):

[...]

 ------ SPIN DOWN ----------

[...]

     the Fermi energy is     1.5964 ev

!    total energy              =   -3606.95421160 Ry
     Harris-Foulkes estimate   =   -3606.95416267 Ry
     estimated scf accuracy    <       0.00007988 Ry

     The total energy is the sum of the following terms:

     one-electron contribution =  -31826.23943719 Ry
     hartree contribution      =   15924.69679793 Ry
     xc contribution           =    -409.57191202 Ry
     ewald contribution        =   12704.23808158 Ry
     electric field correction =       0.00033141 Ry
     smearing contrib. (-TS)   =      -0.07807331 Ry

[...]

     convergence has been achieved in  35 iterations

     Forces acting on atoms (Ry/au):

     negative rho (up, down):  6.042E-04 3.112E-04
     atom    1 type  1   force =     0.00041719    0.00029122    0.00826159
     atom    2 type  1   force =    -0.00040703    0.00040797    0.00823361
     atom    3 type  1   force =     0.00010026   -0.00058346    0.00830577
     atom    4 type  1   force =    -0.00009430   -0.00005471    0.00680179
     atom    5 type  1   force =     0.00023910    0.00443164   -0.00633211
     atom    6 type  1   force =    -0.00020687    0.00051945   -0.01039688
     atom    7 type  1   force =    -0.00314931   -0.00248571   -0.00676273
     atom    8 type  1   force =     0.00322318   -0.00225174   -0.00692620
     atom    9 type  1   force =     0.00006340    0.00008183    0.00423227
     atom   10 type  1   force =    -0.00013598   -0.00131335    0.00167377
     atom   11 type  1   force =    -0.00100014    0.00069581    0.00164706
     atom   12 type  1   force =     0.00104767    0.00087893    0.00165050
     atom   13 type  2   force =    -0.00004534   -0.00077049   -0.00602436
     atom   14 type  3   force =    -0.00005183    0.00015262   -0.00436409

     Total force =     0.009339     Total SCF correction =     0.023985
     SCF correction compared to forces is large: reduce conv_thr to get better values

     BFGS Geometry Optimization

     number of scf cycles    =   1
     number of bfgs steps    =   0

     energy   new            =   -3606.9542115999 Ry

     new trust radius        =       0.0060735993 bohr
     new conv_thr            =       0.0001000000 Ry

ATOMIC_POSITIONS (angstrom)
Co       1.253137179   0.723499087  10.000000000    0   0   0
Co       3.759411536   0.723499087  10.000000000    0   0   0
Co       2.506274357   2.893996350  10.000000000    0   0   0
Co       5.012548715   2.893996350  10.000000000    0   0   0
Co       5.012548715   1.446998175  12.046364444    0   0   0
Co       2.506274357   1.446998175  12.046364444    0   0   0
Co       6.265685894   3.617495438  12.046364444    0   0   0
Co       3.759411536   3.617495438  12.046364444    0   0   0
Co       0.001218407   0.002216928  14.071055518
Co       2.506993848  -0.002962212  14.056468714
Co       1.250864863   2.173723475  14.056407306
Co       3.762662634   2.173457846  14.056308443
C       -0.000983131  -0.002270973  15.692315272
H       -0.000558937  -0.000774683  16.785600557

     Writing output data file calc.save
     Check: negative starting charge=(component1):   -0.000308
     NEW-OLD atomic charge density approx. for the potential

     Check: negative/imaginary core charge=   -0.000007    0.000000
     Check: negative starting charge=(component1):   -0.000308

[...]

     energy   old            =   -3606.9542115999 Ry
     energy   new            =   -3606.9542497906 Ry

     CASE: energy  _new < energy  _old

[...]

     number of scf cycles    =   4
     number of bfgs steps    =   3

     energy   old            =   -3606.9542711849 Ry
     energy   new            =   -3606.9543438063 Ry

     CASE: energy  _new < energy  _old

     new trust radius        =       0.0053339862 bohr
     new conv_thr            =       0.0000010000 Ry

ATOMIC_POSITIONS (angstrom)
Co       1.253137179   0.723499087  10.000000000    0   0   0
Co       3.759411536   0.723499087  10.000000000    0   0   0
Co       2.506274357   2.893996350  10.000000000    0   0   0
Co       5.012548715   2.893996350  10.000000000    0   0   0
Co       5.012548715   1.446998175  12.046364444    0   0   0
Co       2.506274357   1.446998175  12.046364444    0   0   0
Co       6.265685894   3.617495437  12.046364444    0   0   0
Co       3.759411536   3.617495437  12.046364444    0   0   0
Co       0.001167839   0.002556455  14.068359641
Co       2.506972274  -0.004188104  14.055839931
Co       1.249759976   2.174478171  14.055889192
Co       3.763831301   2.174272251  14.055768855
C       -0.001045616  -0.003255173  15.690594078
H       -0.000685977  -0.000760102  16.782648719

     Writing output data file calc.save
     Check: negative starting charge=(component1):   -0.000308
     NEW-OLD atomic charge density approx. for the potential

     Check: negative/imaginary core charge=   -0.000007    0.000000
     Check: negative starting charge=(component1):   -0.000308

[...]

     Self-consistent Calculation

[...]

     total energy              =   -3606.95435425 Ry
     Harris-Foulkes estimate   =   -3606.95435435 Ry
     estimated scf accuracy    <       0.00000100 Ry

[...]

     iteration # 12     ecut=    36.75 Ry     beta=0.10
     Davidson diagonalization with overlap
     ethr =  4.79E-10,  avg # of iterations =  2.4

     negative rho (up, down):  6.020E-04 3.115E-04

[...]

     Adding external electric field

     Computed dipole along edir(3) :
        Dipole                0.2906 Ry au,          0.7387 Debye
        Dipole field          0.0010 Ry au

        Potential amp.       -0.0846 Ry
        Total length         40.9758 bohr

     Magnetic moment per site:
     atom:    1    charge:   13.1890    magn:    1.5893    constr:    0.0000
     atom:    2    charge:   13.1890    magn:    1.5894    constr:    0.0000
     atom:    3    charge:   13.1888    magn:    1.5896    constr:    0.0000
     atom:    4    charge:   13.1889    magn:    1.5870    constr:    0.0000
     atom:    5    charge:   13.1848    magn:    1.5353    constr:    0.0000
     atom:    6    charge:   13.1860    magn:    1.6185    constr:    0.0000
     atom:    7    charge:   13.1848    magn:    1.5376    constr:    0.0000
     atom:    8    charge:   13.1848    magn:    1.5366    constr:    0.0000
     atom:    9    charge:   13.1821    magn:    0.2509    constr:    0.0000
     atom:   10    charge:   13.1981    magn:    1.6218    constr:    0.0000
     atom:   11    charge:   13.1981    magn:    1.6215    constr:    0.0000
     atom:   12    charge:   13.1982    magn:    1.6214    constr:    0.0000
     atom:   13    charge:    0.8005    magn:   -0.0236    constr:    0.0000
     atom:   14    charge:    0.4890    magn:   -0.0004    constr:    0.0000

     End of self-consistent calculation

 ------ SPIN UP ------------

[...]

 ------ SPIN DOWN ----------

[...]

          k = 0.3333-0.3849 0.0000 ( 13313 PWs)   bands (ev):

[...]

          k =-0.5000-0.2887 0.0000 ( 13378 PWs)   bands (ev):

   -93.8962 -92.5538 -92.5452 -92.5359 -92.4832 -92.3423 -92.3336 -92.3254
   -92.3223 -92.3217 -92.3053 -92.3046 -57.8639 -56.8768 -56.8640 -55.9826
   -55.9565 -55.9456 -55.9371 -55.9235 -55.9007 -55.8965 -55.8803 -55.8712
   -55.8525 -55.8074 -55.7798 -55.7775 -55.7523 -55.7420 -55.7120 -55.7047
   -55.6952 -55.6940 -55.6860 -55.6820 -55.6695 -55.6660 -55.6502 -55.6426
   -55.6413 -55.6293 -55.6242 -55.6226 -55.6192 -55.6163 -55.5939 -55.5935
   -10.2287  -5.1741  -4.7066  -4.2890  -3.0489  -2.7953  -2.3215  -2.2009
    -2.0403  -1.8728  -1.6860  -1.5756  -1.5654  -1.3944  -0.9984  -0.9524
    -0.9140  -0.8386  -0.7003  -0.5403  -0.4153  -0.4089  -0.2861  -0.2857
    -0.2275  -0.1809  -0.0526   0.0721   0.2315   0.2528   0.2824   0.2877
     0.3326   0.5067   0.5478   0.5515   0.7084   0.7255   0.7649   0.8431
     0.8887   0.9980   1.2850   1.3381   1.4026   1.4167   1.4924   1.5244
     1.5599   1.6859   1.7244   1.7283   1.7736   1.7966   1.8539   1.9118
     2.0429   2.0524   2.1576   2.2729   2.3724   2.4835   2.5986   2.6424
     2.6869   2.7177

     the Fermi energy is     1.5748 ev

!    total energy              =   -3606.95435429 Ry
     Harris-Foulkes estimate   =   -3606.95435629 Ry
     estimated scf accuracy    <       0.00000024 Ry

     The total energy is the sum of the following terms:

     one-electron contribution =  -31827.88807195 Ry
     hartree contribution      =   15925.52068590 Ry
     xc contribution           =    -409.57374493 Ry
     ewald contribution        =   12705.06460349 Ry
     electric field correction =       0.00030003 Ry
     smearing contrib. (-TS)   =      -0.07812683 Ry

     total magnetization       =    18.51 Bohr mag/cell
     absolute magnetization    =    21.32 Bohr mag/cell

     convergence has been achieved in  12 iterations

     Forces acting on atoms (Ry/au):

     negative rho (up, down):  6.020E-04 3.115E-04
     atom    1 type  1   force =     0.00072991    0.00039032    0.01099010
     atom    2 type  1   force =    -0.00072924    0.00040089    0.01099172
     atom    3 type  1   force =     0.00000984   -0.00082568    0.01110577
     atom    4 type  1   force =     0.00000265    0.00004627    0.00942413
     atom    5 type  1   force =     0.00001009    0.00493574   -0.00880513
     atom    6 type  1   force =    -0.00000357    0.00001808   -0.01195549
     atom    7 type  1   force =    -0.00401754   -0.00243091   -0.00893493
     atom    8 type  1   force =     0.00410745   -0.00247066   -0.00906750
     atom    9 type  1   force =    -0.00012446    0.00026389   -0.00027279
     atom   10 type  1   force =     0.00009213   -0.00019041   -0.00097053
     atom   11 type  1   force =    -0.00024435    0.00023758   -0.00091325
     atom   12 type  1   force =     0.00026745    0.00014415   -0.00089479
     atom   13 type  2   force =    -0.00002237   -0.00041625    0.00049490
     atom   14 type  3   force =    -0.00007799   -0.00010300   -0.00119220

     Total force =     0.002201     Total SCF correction =     0.002085
     SCF correction compared to forces is large: reduce conv_thr to get better values

     bfgs converged in   5 scf cycles and   4 bfgs steps
     (criteria: energy <  1.0E+12, force <  1.9E-03)

     End of BFGS Geometry Optimization

     Final energy   =   -3606.9543542940 Ry
Begin final coordinates

ATOMIC_POSITIONS (angstrom)
Co       1.253137179   0.723499087  10.000000000    0   0   0
Co       3.759411536   0.723499087  10.000000000    0   0   0
Co       2.506274357   2.893996350  10.000000000    0   0   0
Co       5.012548715   2.893996350  10.000000000    0   0   0
Co       5.012548715   1.446998175  12.046364444    0   0   0
Co       2.506274357   1.446998175  12.046364444    0   0   0
Co       6.265685894   3.617495437  12.046364444    0   0   0
Co       3.759411536   3.617495437  12.046364444    0   0   0
Co       0.001167839   0.002556455  14.068359641
Co       2.506972274  -0.004188104  14.055839931
Co       1.249759976   2.174478171  14.055889192
Co       3.763831301   2.174272251  14.055768855
C       -0.001045616  -0.003255173  15.690594078
H       -0.000685977  -0.000760102  16.782648719
End final coordinates

     Writing output data file calc.save

     General routines

     Parallel routines

   This run was terminated on:  13: 3:50  11Jan2019

   JOB DONE.
Job  /afs/slac/g/suncat/bin/suncat-tsmpirun -x LD_LIBRARY_PATH -wdir /tmp/qe_623002iol39qk3_scratch pw.x -npool 3 -in pw.pwi

TID   HOST_NAME   COMMAND_LINE            STATUS            TERMINATION_TIME
00000 suncat1029 pw.x -npool 3 -i  Done                     01/11/2019 13:03:50
00001 suncat1029 pw.x -npool 3 -i  Done                     01/11/2019 13:03:50
00002 suncat1029 pw.x -npool 3 -i  Done                     01/11/2019 13:03:50
00003 suncat1029 pw.x -npool 3 -i  Done                     01/11/2019 13:03:50
00004 suncat1029 pw.x -npool 3 -i  Done                     01/11/2019 13:03:50
00005 suncat1029 pw.x -npool 3 -i  Done                     01/11/2019 13:03:50
00006 suncat1029 pw.x -npool 3 -i  Done                     01/11/2019 13:03:50
00007 suncat1029 pw.x -npool 3 -i  Done                     01/11/2019 13:03:50
00008 suncat1029 pw.x -npool 3 -i  Done                     01/11/2019 13:03:50
00009 suncat1029 pw.x -npool 3 -i  Done                     01/11/2019 13:03:50
00010 suncat1029 pw.x -npool 3 -i  Done                     01/11/2019 13:03:50
00011 suncat1029 pw.x -npool 3 -i  Done                     01/11/2019 13:03:50
00012 suncat1028 pw.x -npool 3 -i  Done                     01/11/2019 13:03:50
00013 suncat1028 pw.x -npool 3 -i  Done                     01/11/2019 13:03:50
00014 suncat1028 pw.x -npool 3 -i  Done                     01/11/2019 13:03:50
00015 suncat1028 pw.x -npool 3 -i  Done                     01/11/2019 13:03:50
00016 suncat1028 pw.x -npool 3 -i  Done                     01/11/2019 13:03:50
00017 suncat1028 pw.x -npool 3 -i  Done                     01/11/2019 13:03:50
00018 suncat1028 pw.x -npool 3 -i  Done                     01/11/2019 13:03:50
00019 suncat1028 pw.x -npool 3 -i  Done                     01/11/2019 13:03:50
00020 suncat1028 pw.x -npool 3 -i  Done                     01/11/2019 13:03:50
00021 suncat1028 pw.x -npool 3 -i  Done                     01/11/2019 13:03:50
00022 suncat1028 pw.x -npool 3 -i  Done                     01/11/2019 13:03:50
00023 suncat1028 pw.x -npool 3 -i  Done                     01/11/2019 13:03:50
00024 suncat1024 pw.x -npool 3 -i  Done                     01/11/2019 13:03:50
00025 suncat1024 pw.x -npool 3 -i  Done                     01/11/2019 13:03:50
00026 suncat1024 pw.x -npool 3 -i  Done                     01/11/2019 13:03:50
00027 suncat1024 pw.x -npool 3 -i  Done                     01/11/2019 13:03:50
00028 suncat1024 pw.x -npool 3 -i  Done                     01/11/2019 13:03:50
00029 suncat1024 pw.x -npool 3 -i  Done                     01/11/2019 13:03:50
00030 suncat1024 pw.x -npool 3 -i  Done                     01/11/2019 13:03:50
00031 suncat1024 pw.x -npool 3 -i  Done                     01/11/2019 13:03:50
00032 suncat1024 pw.x -npool 3 -i  Done                     01/11/2019 13:03:50
00033 suncat1024 pw.x -npool 3 -i  Done                     01/11/2019 13:03:50
00034 suncat1024 pw.x -npool 3 -i  Done                     01/11/2019 13:03:50
00035 suncat1024 pw.x -npool 3 -i  Done                     01/11/2019 13:03:50